********************************************************************************
Field Output Report, written Tue May 28 19:48:33 2024

Source 1
---------

   ODB: G:/Abaqus_calc_2019/1740/Vel_20/odb/zeides_2a_40_red_2000_cal_50_vel_20_fric_050.odb
   Step: Step-1
   Frame: Increment   8230671: Step Time =   0.7639

Loc 1 : Nodal values from source 1

Output sorted by column "Nodal Label".

Field Output reported at nodes for region: DIE_2A_40_D0_36-1.Region_1
   Computation algorithm: EXTRAPOLATE_COMPUTE_AVERAGE
   Averaged at nodes
   Averaging regions: ODB_REGIONS

      Node Label     COORD.COOR1     COORD.COOR2
                          @Loc 1          @Loc 1
-------------------------------------------------
               1     19.3251E-03     172.778E-03


Field Output reported at nodes for region: DIE_2A_40_D0_36-1.Region_2
   Computation algorithm: EXTRAPOLATE_COMPUTE_AVERAGE
   Averaged at nodes
   Averaging regions: ODB_REGIONS

      Node Label     COORD.COOR1     COORD.COOR2
                          @Loc 1          @Loc 1
-------------------------------------------------
               1     19.3251E-03     172.778E-03


Field Output reported at nodes for part: WIRE-1
   Computation algorithm: EXTRAPOLATE_COMPUTE_AVERAGE
   Averaged at nodes
   Averaging regions: ODB_REGIONS

      Node Label     COORD.COOR1     COORD.COOR2           S.S11           S.S22           S.S33           S.S12         PE.PE11         PE.PE22         PE.PE33         PE.PE12         LE.LE11         LE.LE22         LE.LE33         LE.LE12
                          @Loc 1          @Loc 1          @Loc 1          @Loc 1          @Loc 1          @Loc 1          @Loc 1          @Loc 1          @Loc 1          @Loc 1          @Loc 1          @Loc 1          @Loc 1          @Loc 1
-------------------------------------------------------------------------------------------------------------------------------------------------------------------------------------------------------------------------------------------------
               1     705.283E-09     84.8044E-03    -122.631E+06    -296.287E+06    -123.966E+06     751.933E+03    -231.968E-03     463.146E-03    -231.178E-03     14.6403E-03    -232.000E-03     462.051E-03    -231.190E-03     12.8960E-03
               2     14.2808E-03     89.2835E-03    -2.79083E+06     63.9913E+06     81.3217E+06    -2.45609E+06    -230.478E-03     462.095E-03    -231.617E-03     90.1788E-03    -234.002E-03     465.601E-03    -231.299E-03     69.7231E-03
               3     13.8130E-03     177.490E-03     49.1521E+06    -26.1011E+06     47.3054E+06     29.2390E+06     146.997E-03     105.159E-03    -252.156E-03    -1.99536E-03     146.895E-03     104.571E-03    -251.952E-03    -1.61213E-03
               4    -25.5137E-06     169.391E-03    -25.0893E+06    -20.2266E+06    -44.0276E+06    -8.32642E+06    -211.284E-03     438.340E-03    -227.055E-03    -55.9980E-03    -211.646E-03     437.978E-03    -227.210E-03    -56.4713E-03
               5    -914.051E-09     5.74540E-15    -68.3839E+06    -259.075E+06    -69.2478E+06    -2.30598E+06    -206.984E-03     413.487E-03    -206.503E-03     3.83060E-03    -206.850E-03     412.392E-03    -206.375E-03     3.72865E-03
               6     13.9782E-03     5.74540E-15     15.8049E+06     107.920E+06     102.320E+06     13.3434E+06    -577.679E-03     815.800E-03    -238.121E-03     296.044E-03    -584.719E-03     822.906E-03    -237.789E-03     252.167E-03
               7     713.825E-06     84.8253E-03    -122.645E+06    -293.891E+06    -121.565E+06     514.486E+03    -231.968E-03     463.371E-03    -231.403E-03     24.5507E-03    -232.069E-03     462.347E-03    -231.407E-03     21.6416E-03
               8     1.42795E-03     84.8726E-03    -120.586E+06    -287.941E+06    -112.486E+06     186.803E+03    -232.168E-03     463.851E-03    -231.683E-03     45.2989E-03    -232.476E-03     463.035E-03    -231.653E-03     39.8863E-03
               9     2.14172E-03     84.9485E-03    -115.695E+06    -280.189E+06    -98.8645E+06     358.632E+03    -232.663E-03     464.444E-03    -231.781E-03     66.9289E-03    -233.309E-03     463.971E-03    -231.701E-03     58.8042E-03
              10     2.85548E-03     85.0548E-03    -109.872E+06    -253.230E+06    -85.4351E+06     378.533E+03    -233.176E-03     464.999E-03    -231.823E-03     88.7736E-03    -234.337E-03     465.119E-03    -231.724E-03     77.7852E-03
              11     3.56900E-03     85.1908E-03    -103.330E+06    -216.555E+06    -70.1881E+06     331.945E+03    -233.650E-03     465.471E-03    -231.822E-03     110.823E-03    -235.513E-03     466.403E-03    -231.709E-03     96.7920E-03
              12     4.28335E-03     85.3553E-03    -96.0044E+06    -188.347E+06    -52.7730E+06     478.185E+03    -234.259E-03     466.072E-03    -231.813E-03     132.675E-03    -237.010E-03     467.966E-03    -231.664E-03     115.396E-03
              13     4.99750E-03     85.5481E-03    -88.6845E+06    -154.374E+06    -35.6373E+06     601.185E+03    -235.040E-03     466.832E-03    -231.793E-03     154.218E-03    -238.908E-03     469.942E-03    -231.619E-03     133.459E-03
              14     5.71175E-03     85.7706E-03    -81.2534E+06    -112.665E+06    -17.6638E+06     916.599E+03    -235.789E-03     467.565E-03    -231.777E-03     175.533E-03    -241.042E-03     472.182E-03    -231.584E-03     151.069E-03
              15     6.42501E-03     86.0195E-03    -73.4963E+06    -64.5264E+06     1.74112E+06     1.18596E+06    -236.323E-03     468.081E-03    -231.757E-03     196.551E-03    -243.239E-03     474.501E-03    -231.549E-03     168.241E-03
              16     7.14026E-03     86.2953E-03    -65.6113E+06    -15.3041E+06     19.9540E+06    -30.5309E+03    -236.806E-03     468.531E-03    -231.726E-03     217.319E-03    -245.689E-03     477.070E-03    -231.508E-03     184.981E-03
              17     7.85453E-03     86.5982E-03    -58.1160E+06     11.5672E+06     32.0173E+06    -1.84627E+06    -237.289E-03     468.990E-03    -231.700E-03     237.333E-03    -248.383E-03     479.826E-03    -231.473E-03     200.922E-03
              18     8.56824E-03     86.9258E-03    -50.3299E+06     19.8118E+06     41.0163E+06    -1.75026E+06    -237.609E-03     469.307E-03    -231.698E-03     255.175E-03    -251.016E-03     482.487E-03    -231.449E-03     215.019E-03
              19     9.28324E-03     87.2763E-03    -41.0915E+06     30.7061E+06     53.1459E+06    -16.5143E+03    -237.337E-03     469.049E-03    -231.712E-03     268.340E-03    -252.919E-03     484.440E-03    -231.431E-03     225.133E-03
              20     9.99660E-03     87.6388E-03    -32.3755E+06     41.6170E+06     66.6477E+06     1.16509E+06    -236.174E-03     467.898E-03    -231.725E-03     273.249E-03    -253.249E-03     484.813E-03    -231.405E-03     228.389E-03
              21     10.7118E-03     87.9968E-03    -25.1069E+06     50.0559E+06     76.7747E+06     1.26423E+06    -234.509E-03     466.221E-03    -231.712E-03     267.586E-03    -251.919E-03     483.497E-03    -231.364E-03     222.811E-03
              22     11.4252E-03     88.3404E-03    -18.7205E+06     60.1224E+06     80.5147E+06     1.76772E+06    -232.465E-03     464.118E-03    -231.653E-03     252.315E-03    -249.025E-03     480.592E-03    -231.310E-03     209.175E-03
              23     12.1426E-03     88.6515E-03    -13.0846E+06     67.7665E+06     82.3229E+06     2.55900E+06    -230.836E-03     462.421E-03    -231.585E-03     225.731E-03    -245.132E-03     476.673E-03    -231.253E-03     185.976E-03
              24     12.8563E-03     88.9191E-03    -8.14551E+06     76.5315E+06     84.9692E+06     2.29001E+06    -230.892E-03     462.454E-03    -231.562E-03     202.256E-03    -243.204E-03     474.762E-03    -231.236E-03     165.066E-03
              25     13.5703E-03     89.1681E-03    -4.35980E+06     73.8882E+06     83.6747E+06    -402.572E+03    -230.946E-03     462.537E-03    -231.591E-03     142.943E-03    -238.657E-03     470.252E-03    -231.273E-03     114.297E-03
              26     14.2833E-03     90.7848E-03    -1.06108E+06     64.2817E+06     83.0099E+06     1.11172E+06    -227.687E-03     459.290E-03    -231.603E-03     93.1341E-03    -231.240E-03     462.827E-03    -231.280E-03     72.9427E-03
              27     14.2892E-03     92.2871E-03    -1.42884E+06     69.9508E+06     83.5209E+06     1.37965E+06    -228.916E-03     460.416E-03    -231.500E-03     91.9883E-03    -232.469E-03     463.970E-03    -231.182E-03     71.6835E-03
              28     14.2784E-03     93.8024E-03    -3.52361E+06     71.6597E+06     81.2340E+06    -198.940E+03    -231.387E-03     462.945E-03    -231.558E-03     90.6600E-03    -234.966E-03     466.530E-03    -231.251E-03     70.0306E-03
              29     14.2865E-03     95.3016E-03    -2.08368E+06     72.0504E+06     82.2481E+06    -161.969E+03    -228.999E-03     460.577E-03    -231.578E-03     93.5929E-03    -232.596E-03     464.184E-03    -231.268E-03     73.1993E-03
              30     14.2838E-03     96.8094E-03    -372.553E+03     74.0795E+06     84.1172E+06     736.675E+03    -229.830E-03     461.355E-03    -231.525E-03     92.5634E-03    -233.393E-03     464.936E-03    -231.211E-03     72.1983E-03
              31     14.2832E-03     98.3221E-03    -3.55248E+06     74.2245E+06     82.2664E+06     358.943E+03    -230.233E-03     461.799E-03    -231.565E-03     93.2721E-03    -233.834E-03     465.412E-03    -231.256E-03     72.8173E-03
              32     14.2840E-03     99.8206E-03    -2.42209E+06     70.5387E+06     81.9046E+06    -1.41754E+06    -228.740E-03     460.336E-03    -231.596E-03     93.4219E-03    -232.318E-03     463.918E-03    -231.285E-03     73.0993E-03
              33     14.2835E-03     101.329E-03    -2.21924E+06     65.5618E+06     82.0679E+06    -996.584E+03    -229.174E-03     460.742E-03    -231.569E-03     92.6556E-03    -232.724E-03     464.280E-03    -231.250E-03     72.3383E-03
              34     14.2850E-03     102.831E-03    -2.82089E+06     63.9297E+06     82.3831E+06    -434.347E+03    -230.192E-03     461.744E-03    -231.551E-03     91.5886E-03    -233.738E-03     465.267E-03    -231.228E-03     71.1769E-03
              35     14.2822E-03     104.343E-03    -2.17850E+06     66.9691E+06     81.9681E+06     1.22746E+06    -230.030E-03     461.596E-03    -231.566E-03     91.8559E-03    -233.577E-03     465.135E-03    -231.250E-03     71.5099E-03
              36     14.2852E-03     105.847E-03    -1.63412E+06     69.4609E+06     82.5621E+06     545.790E+03    -229.273E-03     460.839E-03    -231.565E-03     94.1583E-03    -232.851E-03     464.418E-03    -231.251E-03     73.8405E-03
              37     14.2832E-03     107.353E-03    -1.60060E+06     69.2683E+06     83.6155E+06     597.715E+03    -229.852E-03     461.415E-03    -231.563E-03     93.1531E-03    -233.410E-03     464.971E-03    -231.243E-03     72.8317E-03
              38     14.2839E-03     108.860E-03    -2.34537E+06     69.9954E+06     82.9796E+06     590.727E+03    -228.920E-03     460.468E-03    -231.548E-03     93.5533E-03    -232.487E-03     464.035E-03    -231.231E-03     73.3139E-03
              39     14.2865E-03     110.359E-03    -500.017E+03     69.0048E+06     83.5226E+06    -835.996E+03    -228.702E-03     460.201E-03    -231.499E-03     92.6108E-03    -232.247E-03     463.746E-03    -231.180E-03     72.3460E-03
              40     14.2836E-03     111.870E-03    -1.79327E+06     69.1388E+06     83.0678E+06     520.818E+03    -230.637E-03     462.167E-03    -231.530E-03     90.6967E-03    -234.175E-03     465.703E-03    -231.212E-03     70.2645E-03
              41     14.2821E-03     113.376E-03    -3.45202E+06     71.2315E+06     82.0321E+06     219.515E+03    -229.558E-03     461.161E-03    -231.603E-03     91.1871E-03    -233.112E-03     464.718E-03    -231.291E-03     70.8106E-03
              42     14.2852E-03     114.876E-03    -2.13098E+06     71.1758E+06     82.6752E+06    -837.597E+03    -228.272E-03     459.828E-03    -231.556E-03     91.7681E-03    -231.817E-03     463.379E-03    -231.243E-03     71.4960E-03
              43     14.2850E-03     116.383E-03    -3.15453E+06     70.0748E+06     83.4101E+06    -901.733E+03    -230.523E-03     462.022E-03    -231.499E-03     91.1096E-03    -234.057E-03     465.552E-03    -231.179E-03     70.7170E-03
              44     14.2826E-03     117.899E-03    -2.39538E+06     69.8718E+06     85.6517E+06     629.380E+03    -230.535E-03     462.090E-03    -231.555E-03     92.5981E-03    -234.084E-03     465.630E-03    -231.224E-03     72.2680E-03
              45     14.2853E-03     119.397E-03    -2.51906E+06     70.2205E+06     84.2029E+06    -4.49812E+03    -228.768E-03     460.331E-03    -231.563E-03     93.5099E-03    -232.341E-03     463.900E-03    -231.240E-03     73.2513E-03
              46     14.2840E-03     120.904E-03    -1.76653E+06     70.5834E+06     81.5927E+06    -533.558E+03    -229.064E-03     460.580E-03    -231.516E-03     92.2231E-03    -232.621E-03     464.144E-03    -231.208E-03     71.9037E-03
              47     14.2852E-03     122.410E-03    -1.25348E+06     71.5744E+06     82.9064E+06     641.653E+03    -229.336E-03     460.871E-03    -231.535E-03     91.1322E-03    -232.879E-03     464.424E-03    -231.223E-03     70.8171E-03
              48     14.2828E-03     123.912E-03    -1.82517E+06     70.2444E+06     84.7969E+06    -303.001E+03    -228.951E-03     460.526E-03    -231.575E-03     90.9153E-03    -232.494E-03     464.066E-03    -231.250E-03     70.5999E-03
              49     14.2853E-03     125.420E-03    -1.04573E+06     71.0989E+06     86.5411E+06     391.213E+03    -229.033E-03     460.580E-03    -231.548E-03     92.9502E-03    -232.599E-03     464.144E-03    -231.216E-03     72.6453E-03
              50     14.2846E-03     126.925E-03    -2.73529E+06     74.1372E+06     86.1741E+06     1.48048E+06    -229.884E-03     461.398E-03    -231.514E-03     93.1110E-03    -233.446E-03     464.963E-03    -231.187E-03     72.8609E-03
              51     14.2840E-03     128.437E-03    -2.55099E+06     75.7186E+06     85.7248E+06     668.459E+03    -229.464E-03     461.023E-03    -231.559E-03     93.0615E-03    -233.039E-03     464.609E-03    -231.236E-03     72.7966E-03
              52     14.2838E-03     129.934E-03    -1.25035E+06     75.6434E+06     86.6577E+06     45.4350E+03    -227.735E-03     459.305E-03    -231.571E-03     93.2327E-03    -231.320E-03     462.903E-03    -231.245E-03     73.0265E-03
              53     14.2868E-03     131.438E-03    -1.27138E+06     75.0356E+06     87.3443E+06    -342.593E+03    -227.570E-03     459.049E-03    -231.479E-03     92.9192E-03    -231.148E-03     462.635E-03    -231.149E-03     72.7284E-03
              54     14.2865E-03     132.941E-03    -1.86542E+06     75.1737E+06     88.2429E+06    -464.905E+03    -228.960E-03     460.423E-03    -231.463E-03     90.7309E-03    -232.518E-03     463.985E-03    -231.128E-03     70.4234E-03
              55     14.2831E-03     134.451E-03    -3.98462E+06     77.0594E+06     87.6652E+06     641.432E+03    -229.393E-03     460.960E-03    -231.568E-03     90.7768E-03    -232.980E-03     464.553E-03    -231.235E-03     70.4029E-03
              56     14.2836E-03     135.951E-03    -2.71732E+06     80.3375E+06     88.7262E+06     992.805E+03    -227.182E-03     458.751E-03    -231.569E-03     93.4359E-03    -230.776E-03     462.363E-03    -231.238E-03     73.3147E-03
              57     14.2892E-03     137.453E-03    -2.24733E+06     81.4824E+06     91.0807E+06     187.963E+03    -226.621E-03     458.112E-03    -231.491E-03     92.2812E-03    -230.182E-03     461.690E-03    -231.150E-03     72.2579E-03
              58     14.2831E-03     138.957E-03    -2.99906E+06     85.8057E+06     93.0361E+06     1.23251E+06    -227.005E-03     458.450E-03    -231.444E-03     92.6052E-03    -230.595E-03     462.063E-03    -231.099E-03     72.5598E-03
              59     14.2921E-03     140.455E-03    -1.01771E+06     89.3383E+06     94.9398E+06     770.105E+03    -224.626E-03     455.974E-03    -231.348E-03     92.8197E-03    -228.206E-03     459.593E-03    -231.002E-03     72.9486E-03
              60     14.2891E-03     141.951E-03    -2.47644E+06     88.2012E+06     94.6404E+06    -437.288E+03    -223.881E-03     455.074E-03    -231.193E-03     92.3282E-03    -227.486E-03     458.708E-03    -230.844E-03     72.3656E-03
              61     14.2958E-03     143.449E-03    -4.29780E+06     89.2161E+06     95.4320E+06     579.788E+03    -223.447E-03     454.391E-03    -230.944E-03     95.0900E-03    -227.097E-03     458.067E-03    -230.590E-03     75.1842E-03
              62     14.3004E-03     144.944E-03    -1.44094E+06     93.2676E+06     99.4801E+06     1.90517E+06    -221.165E-03     451.655E-03    -230.490E-03     99.1095E-03    -224.855E-03     455.382E-03    -230.126E-03     79.3711E-03
              63     14.3140E-03     146.434E-03    -880.942E+03     97.5816E+06     103.405E+06     1.07191E+06    -220.991E-03     450.802E-03    -229.811E-03     101.950E-03    -224.750E-03     454.605E-03    -229.434E-03     82.0223E-03
              64     14.3210E-03     147.925E-03    -4.29930E+06     98.9345E+06     105.142E+06     434.318E+03    -223.811E-03     452.826E-03    -229.015E-03     102.333E-03    -227.639E-03     456.685E-03    -228.627E-03     81.9730E-03
              65     14.3342E-03     149.424E-03    -3.72146E+06     100.621E+06     107.401E+06     1.58269E+06    -225.397E-03     453.413E-03    -228.017E-03     109.284E-03    -229.399E-03     457.448E-03    -227.620E-03     88.4603E-03
              66     14.3550E-03     150.918E-03    -393.945E+03     105.259E+06     112.281E+06     1.85336E+06    -230.312E-03     457.024E-03    -226.713E-03     116.776E-03    -234.474E-03     461.235E-03    -226.303E-03     95.2155E-03
              67     14.3674E-03     152.436E-03    -2.93375E+06     111.859E+06     116.708E+06     3.76324E+06    -241.144E-03     466.519E-03    -225.375E-03     120.279E-03    -245.472E-03     470.897E-03    -224.949E-03     97.4079E-03
              68     14.3825E-03     153.960E-03    -4.81486E+06     121.074E+06     121.743E+06     4.36030E+06    -253.395E-03     477.542E-03    -224.148E-03     125.335E-03    -257.941E-03     482.150E-03    -223.708E-03     100.872E-03
              69     14.3925E-03     155.507E-03    -4.61222E+06     123.899E+06     124.078E+06    -543.582E+03    -269.918E-03     492.920E-03    -223.002E-03     128.997E-03    -274.583E-03     497.653E-03    -222.554E-03     102.670E-03
              70     14.3996E-03     157.085E-03    -67.7615E+03     126.371E+06     128.303E+06     1.26801E+06    -290.737E-03     512.780E-03    -222.043E-03     135.207E-03    -295.430E-03     517.557E-03    -221.585E-03     107.297E-03
              71     14.4026E-03     158.702E-03    -5.16625E+06     124.572E+06     125.697E+06     254.923E+03    -311.553E-03     532.906E-03    -221.353E-03     142.987E-03    -316.351E-03     537.771E-03    -220.898E-03     113.420E-03
              72     14.4015E-03     160.343E-03    -2.18989E+06     115.136E+06     119.459E+06    -635.589E+03    -328.726E-03     549.628E-03    -220.902E-03     147.533E-03    -333.667E-03     554.625E-03    -220.468E-03     115.737E-03
              73     14.4028E-03     161.988E-03    -5.15222E+06     105.571E+06     113.800E+06    -3.51024E+06    -343.195E-03     563.753E-03    -220.558E-03     149.118E-03    -348.168E-03     568.756E-03    -220.135E-03     115.742E-03
              74     14.4016E-03     163.681E-03     -105.92E+03     97.1283E+06     115.417E+06    -695.204E+03    -356.501E-03     576.779E-03    -220.278E-03     152.363E-03    -361.426E-03     581.719E-03    -219.841E-03     118.125E-03
              75     14.4029E-03     165.373E-03    -4.12248E+06     88.9660E+06     116.997E+06     501.875E+03    -366.617E-03     586.689E-03    -220.071E-03     155.579E-03    -371.691E-03     591.726E-03    -219.609E-03     119.708E-03
              76     14.4020E-03     167.086E-03    -1.73679E+06     79.8322E+06     120.096E+06    -3.10226E+06    -374.639E-03     594.571E-03    -219.932E-03     157.457E-03    -379.854E-03     599.720E-03    -219.445E-03     119.902E-03
              77     14.4018E-03     168.813E-03    -4.66019E+06     49.7072E+06     123.723E+06    -10.4334E+06    -372.553E-03     592.574E-03    -220.021E-03     158.876E-03    -377.760E-03     597.587E-03    -219.468E-03     121.391E-03
              78     14.4047E-03     170.518E-03     4.40111E+06     23.0826E+06     140.199E+06    -3.35453E+06    -364.212E-03     584.487E-03    -220.275E-03     165.576E-03    -369.457E-03     589.426E-03    -219.614E-03     129.446E-03
              79     14.4025E-03     172.208E-03    -4.64102E+06     44.7757E+06     171.464E+06     14.6287E+06    -340.397E-03     561.233E-03    -220.836E-03     169.639E-03    -346.032E-03     566.525E-03    -220.037E-03     135.080E-03
              80     14.4103E-03     173.854E-03    -8.24459E+06     85.5140E+06     187.212E+06     9.75401E+06    -285.550E-03     507.448E-03    -221.897E-03     218.500E-03    -292.547E-03     514.193E-03    -221.073E-03     187.620E-03
              81     14.4202E-03     175.438E-03    -16.8883E+06     56.2104E+06     119.189E+06    -24.3355E+06    -133.731E-03     359.264E-03    -225.532E-03     251.715E-03    -138.146E-03     363.729E-03    -224.993E-03     236.734E-03
              82     14.4030E-03     176.519E-03    -11.5451E+06    -9.81013E+06     44.9499E+06    -13.8642E+06     65.9021E-03     174.449E-03    -240.351E-03     115.523E-03     65.4106E-03     174.668E-03    -240.095E-03     114.682E-03
              83     12.9816E-03     177.019E-03     36.4994E+06     22.3994E+06     95.0981E+06    -5.77804E+06     128.383E-03     132.078E-03    -260.461E-03     21.5487E-03     128.386E-03     132.093E-03    -260.071E-03     21.5113E-03
              84     11.9773E-03     176.510E-03     17.8409E+06     -2.6451E+06     137.736E+06    -2.85658E+06     93.1032E-03     181.708E-03    -274.811E-03    -464.261E-06     92.9943E-03     181.849E-03    -274.145E-03    -648.510E-06
              85     11.2160E-03     175.865E-03     1.25672E+06    -11.2155E+06     164.930E+06     9.78254E+06     81.7407E-03     203.639E-03    -285.380E-03    -33.6617E-03     81.2749E-03     203.717E-03    -284.541E-03    -33.9704E-03
              86     10.4015E-03     175.216E-03    -10.0846E+06     14.9710E+06     178.228E+06    -9.27808E+06     81.6057E-03     211.998E-03    -293.603E-03    -57.1322E-03     81.1189E-03     212.198E-03    -292.719E-03    -58.0577E-03
              87     9.65563E-03     174.560E-03    -4.47310E+06    -8.88166E+06     158.186E+06    -13.6306E+06     71.4737E-03     227.636E-03    -299.109E-03    -127.307E-03     71.2713E-03     227.431E-03    -298.299E-03    -128.862E-03
              88     8.95438E-03     173.907E-03    -4.81813E+06    -10.1593E+06     142.356E+06    -16.8460E+06     61.1087E-03     239.868E-03    -300.976E-03    -198.916E-03     61.3084E-03     239.214E-03    -300.243E-03    -201.075E-03
              89     8.28836E-03     173.280E-03    -11.5171E+06    -15.5226E+06     118.240E+06    -15.5758E+06     47.9158E-03     251.504E-03    -299.419E-03    -271.776E-03     48.5937E-03     250.247E-03    -298.789E-03    -274.486E-03
              90     7.65675E-03     172.682E-03    -18.4092E+06    -13.0619E+06     91.3865E+06    -18.6655E+06     30.0628E-03     264.774E-03    -294.837E-03    -338.448E-03     31.2150E-03     262.915E-03    -294.334E-03    -341.776E-03
              91     7.04072E-03     172.133E-03    -27.1355E+06    -15.6390E+06     67.1809E+06    -22.1402E+06     6.21975E-03     281.741E-03    -287.960E-03    -394.693E-03     7.74557E-03     279.330E-03    -287.562E-03    -398.642E-03
              92     6.43836E-03     171.632E-03    -33.3938E+06    -17.1638E+06     52.2883E+06    -28.3206E+06    -22.7167E-03     302.320E-03    -279.604E-03    -434.954E-03    -21.0021E-03     299.547E-03    -279.269E-03    -439.488E-03
              93     5.83443E-03     171.188E-03    -40.2045E+06    -22.3945E+06     39.8043E+06    -32.2778E+06    -55.4380E-03     325.944E-03    -270.506E-03    -455.111E-03    -53.7538E-03     323.032E-03    -270.217E-03    -460.082E-03
              94     5.22857E-03     170.796E-03    -44.4815E+06    -25.6652E+06     29.0936E+06    -36.3459E+06    -89.9830E-03     351.215E-03    -261.232E-03    -452.793E-03    -88.5313E-03     348.390E-03    -260.985E-03    -458.033E-03
              95     4.61544E-03     170.458E-03    -45.2092E+06    -29.1756E+06     19.3885E+06    -37.2319E+06    -123.161E-03     375.467E-03    -252.306E-03    -427.648E-03    -122.043E-03     372.896E-03    -252.101E-03    -432.940E-03
              96     3.99039E-03     170.172E-03    -44.3927E+06    -29.4101E+06     10.4759E+06    -35.8794E+06    -152.593E-03     396.754E-03    -244.162E-03    -384.977E-03    -151.852E-03     394.571E-03    -244.002E-03    -390.057E-03
              97     3.35194E-03     169.936E-03    -43.0426E+06    -28.6905E+06     644.268E+03    -32.2312E+06    -176.242E-03     413.252E-03    -237.009E-03    -329.332E-03    -175.871E-03     411.506E-03    -236.902E-03    -333.942E-03
              98     2.70069E-03     169.743E-03    -40.0472E+06    -23.4610E+06    -8.74403E+06    -27.1373E+06    -193.350E-03     424.367E-03    -231.016E-03    -265.903E-03    -193.317E-03     423.056E-03    -230.968E-03    -269.780E-03
              99     2.03725E-03     169.596E-03    -37.0673E+06    -19.4209E+06    -18.7050E+06    -21.1147E+06    -205.068E-03     431.469E-03    -226.401E-03    -199.609E-03    -205.304E-03     430.524E-03    -226.413E-03    -202.595E-03
             100     1.36423E-03     169.492E-03    -33.6636E+06    -16.7261E+06    -25.4659E+06    -16.0800E+06    -213.145E-03     436.340E-03    -223.195E-03    -133.996E-03    -213.540E-03     435.661E-03    -223.249E-03    -136.114E-03
             101     683.136E-06     169.432E-03    -28.5253E+06    -17.9444E+06    -35.7731E+06    -10.7553E+06    -213.874E-03     438.363E-03    -224.489E-03    -78.9916E-03    -214.281E-03     437.899E-03    -224.601E-03    -80.0622E-03
             102     15.9760E-06     167.930E-03    -76.2471E+06    -42.4786E+06    -71.7152E+06    -7.81624E+06    -178.762E-03     359.224E-03    -180.462E-03    -29.1251E-03    -179.187E-03     359.002E-03    -180.648E-03    -29.5971E-03
             103    -5.82838E-06     166.676E-03    -151.695E+06    -91.8118E+06    -145.554E+06    -12.3926E+06    -121.702E-03     240.130E-03    -118.428E-03     2.24879E-03    -122.174E-03     240.048E-03    -118.803E-03     1.82988E-03
             104     1.16194E-06     165.517E-03    -219.246E+06    -145.194E+06    -222.772E+06    -12.1259E+06    -91.7238E-03     184.240E-03    -92.5162E-03     13.5254E-03    -92.2994E-03     184.145E-03    -93.1017E-03     13.2886E-03
             105     2.29636E-06     164.399E-03    -297.275E+06    -193.262E+06    -290.535E+06    -10.8529E+06    -86.6368E-03     169.057E-03    -82.4201E-03     23.3406E-03    -87.4220E-03     168.943E-03    -83.1615E-03     23.2015E-03
             106     1.03870E-06     163.277E-03    -279.274E+06    -227.535E+06    -281.239E+06    -5.23627E+06    -93.1862E-03     183.674E-03    -90.4881E-03     27.6503E-03    -93.8517E-03     183.341E-03    -91.1594E-03     27.6043E-03
             107    -241.897E-09     162.125E-03    -194.903E+06    -230.017E+06    -194.868E+06     4.54514E+06    -109.893E-03     218.937E-03    -109.045E-03     28.3259E-03    -110.270E-03     218.335E-03    -109.403E-03     28.3753E-03
             108     586.239E-09     160.921E-03    -148.938E+06    -213.451E+06    -148.593E+06     2.38763E+06    -132.565E-03     264.059E-03    -131.493E-03     27.2065E-03    -132.812E-03     263.404E-03    -131.711E-03     27.1202E-03
             109     585.818E-09     159.658E-03    -128.173E+06    -211.869E+06    -127.881E+06    -2.21650E+06    -155.953E-03     310.495E-03    -154.542E-03     25.6797E-03    -156.132E-03     309.796E-03    -154.688E-03     25.3233E-03
             110     284.749E-09     158.335E-03    -111.158E+06    -223.109E+06    -112.837E+06    -2.31722E+06    -176.706E-03     352.282E-03    -175.576E-03     23.4544E-03    -176.804E-03     351.491E-03    -175.656E-03     22.8663E-03
             111     401.601E-09     156.961E-03    -109.441E+06    -234.510E+06    -114.853E+06    -1.98825E+06    -193.566E-03     386.642E-03    -193.076E-03     21.8951E-03    -193.634E-03     385.803E-03    -193.151E-03     21.0934E-03
             112    -545.208E-09     155.543E-03    -120.040E+06    -245.424E+06    -117.092E+06    -1.75621E+06    -206.984E-03     414.307E-03    -207.323E-03     20.4008E-03    -207.085E-03     413.439E-03    -207.379E-03     19.3799E-03
             113     90.0472E-09     154.093E-03    -122.323E+06    -254.266E+06    -123.181E+06    -1.29977E+06    -217.273E-03     435.634E-03    -218.361E-03     18.5719E-03    -217.364E-03     434.739E-03    -218.431E-03     17.3104E-03
             114    -1.32643E-06     152.613E-03    -132.460E+06    -267.114E+06    -133.347E+06    -2.84562E+06    -225.102E-03     450.657E-03    -225.555E-03     16.9928E-03    -225.209E-03     449.731E-03    -225.643E-03     15.5076E-03
             115     1.80138E-06     151.118E-03    -138.203E+06    -281.817E+06    -141.234E+06    -1.65164E+06    -231.125E-03     460.195E-03    -229.070E-03     15.7524E-03    -231.229E-03     459.217E-03    -229.167E-03     14.1397E-03
             116     551.044E-09     149.611E-03    -139.962E+06    -290.265E+06    -140.655E+06    -1.25135E+06    -233.853E-03     465.254E-03    -231.401E-03     15.4738E-03    -233.956E-03     464.238E-03    -231.481E-03     13.7552E-03
             117     514.748E-09     148.100E-03    -140.649E+06    -304.489E+06    -140.328E+06    -3.79445E+06    -234.743E-03     468.234E-03    -233.491E-03     15.5314E-03    -234.831E-03     467.149E-03    -233.547E-03     13.6923E-03
             118     135.953E-09     146.585E-03    -135.918E+06    -320.446E+06    -137.700E+06    -1.63308E+06    -234.976E-03     469.785E-03    -234.809E-03     15.0356E-03    -235.021E-03     468.609E-03    -234.836E-03     13.1765E-03
             119    -628.195E-09     145.071E-03    -138.081E+06    -322.336E+06    -137.411E+06     1.17735E+06    -234.312E-03     469.307E-03    -234.995E-03     14.3276E-03    -234.363E-03     468.123E-03    -235.015E-03     12.5670E-03
             120     98.0888E-09     143.555E-03    -136.961E+06    -314.607E+06    -137.163E+06     1.37193E+06    -233.895E-03     468.300E-03    -234.405E-03     14.9053E-03    -233.953E-03     467.153E-03    -234.436E-03     13.1813E-03
             121    -360.641E-09     142.044E-03    -135.887E+06    -312.795E+06    -134.696E+06     243.666E+03    -233.498E-03     467.717E-03    -234.219E-03     15.3109E-03    -233.559E-03     466.576E-03    -234.242E-03     13.4999E-03
             122    -460.309E-09     140.532E-03    -134.306E+06    -313.147E+06    -134.543E+06     98.9894E+03    -233.556E-03     466.838E-03    -233.282E-03     13.8420E-03    -233.606E-03     465.691E-03    -233.306E-03     12.0624E-03
             123     1.62245E-06     139.025E-03    -132.326E+06    -312.915E+06    -132.310E+06    -306.445E+03    -233.724E-03     465.904E-03    -232.180E-03     13.9812E-03    -233.768E-03     464.752E-03    -232.196E-03     12.2080E-03
             124    -632.942E-09     137.514E-03    -128.664E+06    -315.744E+06    -129.236E+06    -550.162E+03    -232.973E-03     465.466E-03    -232.493E-03     14.5123E-03    -233.000E-03     464.291E-03    -232.495E-03     12.7294E-03
             125     266.675E-09     136.007E-03    -127.276E+06    -314.011E+06    -127.226E+06     737.018E+03    -232.465E-03     464.652E-03    -232.186E-03     14.3216E-03    -232.489E-03     463.479E-03    -232.183E-03     12.6024E-03
             126     442.460E-09     134.498E-03    -130.211E+06    -311.111E+06    -130.716E+06     572.984E+03    -232.283E-03     464.302E-03    -232.019E-03     15.3160E-03    -232.323E-03     463.154E-03    -232.032E-03     13.5555E-03
             127    -846.603E-09     132.995E-03    -125.720E+06    -306.072E+06    -125.210E+06     1.01265E+06    -232.216E-03     464.620E-03    -232.405E-03     14.1919E-03    -232.246E-03     463.481E-03    -232.405E-03     12.4769E-03
             128     931.463E-09     131.484E-03    -125.872E+06    -306.210E+06    -125.615E+06    -817.195E+03    -232.311E-03     464.070E-03    -231.760E-03     14.2244E-03    -232.340E-03     462.931E-03    -231.761E-03     12.5316E-03
             129    -285.182E-09     129.980E-03    -126.741E+06    -306.761E+06    -127.138E+06     406.605E+03    -231.880E-03     463.588E-03    -231.708E-03     15.1148E-03    -231.913E-03     462.452E-03    -231.715E-03     13.3470E-03
             130    -185.997E-09     128.474E-03    -126.896E+06    -305.965E+06    -125.393E+06    -586.172E+03    -232.176E-03     464.109E-03    -231.933E-03     14.4404E-03    -232.214E-03     462.974E-03    -231.932E-03     12.6291E-03
             131     962.370E-09     126.967E-03    -124.603E+06    -305.890E+06    -126.269E+06    -96.0941E+03    -232.869E-03     464.552E-03    -231.683E-03     14.5542E-03    -232.893E-03     463.414E-03    -231.690E-03     12.8153E-03
             132    -121.265E-09     125.458E-03    -125.574E+06    -305.888E+06    -125.632E+06     470.558E+03    -232.197E-03     463.797E-03    -231.599E-03     14.6117E-03    -232.228E-03     462.660E-03    -231.602E-03     12.8446E-03
             133     73.9678E-09     123.956E-03    -126.519E+06    -306.148E+06    -125.478E+06     169.681E+03    -231.729E-03     463.321E-03    -231.592E-03     14.4102E-03    -231.763E-03     462.183E-03    -231.592E-03     12.6757E-03
             134     121.059E-09     122.449E-03    -122.167E+06    -301.429E+06    -122.229E+06     672.087E+03    -232.386E-03     463.816E-03    -231.430E-03     14.5518E-03    -232.411E-03     462.691E-03    -231.426E-03     12.8102E-03
             135     990.559E-09     120.941E-03    -125.228E+06    -303.874E+06    -126.390E+06    -1.04438E+06    -232.552E-03     463.711E-03    -231.159E-03     15.4594E-03    -232.584E-03     462.587E-03    -231.169E-03     13.6480E-03
             136    -193.875E-09     119.437E-03    -126.142E+06    -302.509E+06    -126.123E+06     1.35326E+06    -232.132E-03     463.119E-03    -230.987E-03     15.0751E-03    -232.169E-03     462.001E-03    -230.996E-03     13.3578E-03
             137     965.328E-09     117.933E-03    -125.422E+06    -300.270E+06    -125.095E+06    -287.111E+03    -231.942E-03     463.242E-03    -231.300E-03     15.0307E-03    -231.980E-03     462.132E-03    -231.308E-03     13.3267E-03
             138    -883.558E-09     116.426E-03    -125.437E+06    -300.102E+06    -126.139E+06    -72.1552E+03    -231.974E-03     463.701E-03    -231.727E-03     14.5328E-03    -232.011E-03     462.595E-03    -231.741E-03     12.7550E-03
             139     1.08945E-06     114.922E-03    -127.295E+06    -300.794E+06    -126.690E+06    -214.272E+03    -232.045E-03     463.769E-03    -231.724E-03     14.2011E-03    -232.090E-03     462.663E-03    -231.737E-03     12.3930E-03
             140    -883.914E-09     113.415E-03    -126.196E+06    -300.233E+06    -126.898E+06     481.240E+03    -231.757E-03     463.974E-03    -232.217E-03     14.9060E-03    -231.798E-03     462.870E-03    -232.233E-03     13.1246E-03
             141    -46.1036E-09     111.907E-03    -123.877E+06    -297.198E+06    -122.886E+06     335.946E+03    -231.539E-03     463.559E-03    -232.020E-03     14.7124E-03    -231.577E-03     462.460E-03    -232.024E-03     12.9736E-03
             142     237.195E-09     110.402E-03    -125.414E+06    -299.959E+06    -125.981E+06    -773.691E+03    -231.696E-03     463.062E-03    -231.367E-03     15.2070E-03    -231.734E-03     461.956E-03    -231.380E-03     13.4463E-03
             143    -31.0259E-09     108.899E-03    -125.893E+06    -298.527E+06    -123.492E+06     839.638E+03    -232.158E-03     463.542E-03    -231.384E-03     14.5737E-03    -232.205E-03     462.441E-03    -231.386E-03     12.7542E-03
             144     895.867E-09     107.391E-03    -123.656E+06    -298.539E+06    -125.578E+06    -1.22710E+06    -232.217E-03     463.705E-03    -231.488E-03     14.5901E-03    -232.249E-03     462.604E-03    -231.504E-03     12.7514E-03
             145    -793.902E-09     105.886E-03    -125.403E+06    -299.778E+06    -126.031E+06     659.385E+03    -231.794E-03     463.774E-03    -231.980E-03     14.8274E-03    -231.832E-03     462.669E-03    -231.993E-03     13.0522E-03
             146     359.795E-09     104.380E-03    -124.277E+06    -297.848E+06    -122.916E+06     51.0166E+03    -231.762E-03     463.728E-03    -231.966E-03     14.1454E-03    -231.800E-03     462.625E-03    -231.969E-03     12.3905E-03
             147    -257.859E-09     102.875E-03    -125.198E+06    -298.955E+06    -125.706E+06    -37.0577E+03    -232.043E-03     463.506E-03    -231.463E-03     14.2767E-03    -232.082E-03     462.404E-03    -231.476E-03     12.4948E-03
             148     926.670E-09     101.369E-03    -124.317E+06    -296.977E+06    -124.825E+06     883.605E+03    -232.738E-03     464.116E-03    -231.377E-03     14.7918E-03    -232.776E-03     463.021E-03    -231.391E-03     13.0485E-03
             149     279.813E-09     99.8599E-03    -124.376E+06    -296.604E+06    -124.445E+06    -437.726E+03    -232.515E-03     463.808E-03    -231.294E-03     14.7874E-03    -232.553E-03     462.713E-03    -231.305E-03     13.1026E-03
             150     191.218E-09     98.3554E-03    -124.566E+06    -297.154E+06    -124.542E+06     287.189E+03    -231.489E-03     462.915E-03    -231.426E-03     14.9257E-03    -231.528E-03     461.818E-03    -231.437E-03     13.2119E-03
             151    -636.397E-09     96.8528E-03    -125.802E+06    -298.054E+06    -124.255E+06    -522.748E+03    -231.086E-03     463.196E-03    -232.110E-03     14.8380E-03    -231.132E-03     462.098E-03    -232.116E-03     13.0264E-03
             152    -424.803E-09     95.3441E-03    -124.390E+06    -298.342E+06    -125.719E+06     553.320E+03    -231.903E-03     463.516E-03    -231.614E-03     14.4835E-03    -231.937E-03     462.417E-03    -231.629E-03     12.7182E-03
             153     1.82885E-06     93.8402E-03    -123.934E+06    -296.115E+06    -123.839E+06    -132.005E+03    -232.907E-03     463.845E-03    -230.937E-03     15.3131E-03    -232.946E-03     462.753E-03    -230.947E-03     13.5514E-03
             154    -489.366E-09     92.3327E-03    -124.441E+06    -296.594E+06    -125.607E+06     213.573E+03    -232.557E-03     463.914E-03    -231.358E-03     14.8519E-03    -232.596E-03     462.824E-03    -231.375E-03     13.0530E-03
             155     789.392E-09     90.8281E-03    -124.677E+06    -295.263E+06    -125.302E+06     298.395E+03    -232.107E-03     463.387E-03    -231.280E-03     14.2880E-03    -232.149E-03     462.302E-03    -231.297E-03     12.5157E-03
             156     32.3483E-09     89.3222E-03    -124.503E+06    -295.181E+06    -124.327E+06    -878.425E+03    -232.077E-03     463.391E-03    -231.315E-03     14.6544E-03    -232.119E-03     462.305E-03    -231.328E-03     12.8987E-03
             157     175.198E-09     87.8172E-03    -125.504E+06    -297.951E+06    -125.367E+06     38.2998E+03    -231.768E-03     463.681E-03    -231.913E-03     14.6004E-03    -231.810E-03     462.584E-03    -231.926E-03     12.8447E-03
             158    -647.311E-09     86.3100E-03    -125.414E+06    -298.023E+06    -124.801E+06    -247.563E+03    -231.647E-03     463.547E-03    -231.900E-03     14.6849E-03    -231.690E-03     462.449E-03    -231.910E-03     12.9072E-03
             159     292.715E-09     83.3008E-03    -124.546E+06    -295.709E+06    -124.034E+06     49.8967E+03    -231.995E-03     463.263E-03    -231.268E-03     14.8918E-03    -232.037E-03     462.174E-03    -231.279E-03     13.1450E-03
             160    -310.260E-09     81.7948E-03    -125.449E+06    -295.719E+06    -125.991E+06     122.050E+03    -231.999E-03     463.750E-03    -231.751E-03     14.3593E-03    -232.042E-03     462.664E-03    -231.770E-03     12.6300E-03
             161     621.164E-09     80.2881E-03    -123.831E+06    -295.292E+06    -122.824E+06    -99.9278E+03    -232.103E-03     463.677E-03    -231.574E-03     14.5195E-03    -232.143E-03     462.586E-03    -231.580E-03     12.7997E-03
             162    -226.810E-09     78.7821E-03    -123.093E+06    -295.733E+06    -124.086E+06    -91.6273E+03    -231.475E-03     463.356E-03    -231.881E-03     14.9568E-03    -231.509E-03     462.264E-03    -231.894E-03     13.2148E-03
             163    -822.082E-09     77.2780E-03    -125.203E+06    -295.893E+06    -123.920E+06     465.263E+03    -231.571E-03     463.551E-03    -231.980E-03     14.4362E-03    -231.616E-03     462.461E-03    -231.989E-03     12.6978E-03
             164     1.24155E-06     75.7704E-03    -124.563E+06    -295.839E+06    -123.598E+06    -44.6693E+03    -232.406E-03     463.860E-03    -231.454E-03     14.9614E-03    -232.449E-03     462.770E-03    -231.462E-03     13.2021E-03
             165    -356.713E-09     74.2639E-03    -123.240E+06    -296.543E+06    -125.208E+06    -397.214E+03    -231.903E-03     463.344E-03    -231.441E-03     15.0002E-03    -231.937E-03     462.251E-03    -231.458E-03     13.2161E-03
             166     50.4540E-09     72.7614E-03    -122.937E+06    -295.392E+06    -122.847E+06     399.761E+03    -231.387E-03     462.934E-03    -231.547E-03     14.3252E-03    -231.424E-03     461.842E-03    -231.554E-03     12.5704E-03
             167    -25.9551E-09     71.2554E-03    -123.941E+06    -294.198E+06    -123.727E+06     25.0281E+03    -231.856E-03     463.394E-03    -231.539E-03     14.4495E-03    -231.896E-03     462.310E-03    -231.551E-03     12.7378E-03
             168     396.973E-09     69.7491E-03    -123.985E+06    -295.199E+06    -125.056E+06    -104.341E+03    -232.383E-03     463.556E-03    -231.173E-03     14.7293E-03    -232.420E-03     462.468E-03    -231.191E-03     13.0314E-03
             169     886.015E-09     68.2421E-03    -126.471E+06    -296.021E+06    -124.133E+06      95.605E+03    -231.728E-03     463.202E-03    -231.474E-03     15.8342E-03    -231.780E-03     462.115E-03    -231.482E-03     14.0941E-03
             170    -1.86129E-06     66.7389E-03    -124.182E+06    -295.242E+06    -124.578E+06     199.573E+03    -231.109E-03     462.707E-03    -231.598E-03     14.2580E-03    -231.149E-03     461.621E-03    -231.612E-03     12.4861E-03
             171     2.08038E-06     65.2364E-03    -122.870E+06    -294.000E+06    -124.185E+06    -10.4558E+03    -231.812E-03     463.124E-03    -231.312E-03     14.6028E-03    -231.848E-03     462.042E-03    -231.328E-03     12.8189E-03
             172    -1.65555E-06     63.7274E-03    -123.662E+06    -293.716E+06    -123.968E+06    -77.2119E+03    -231.729E-03     463.712E-03    -231.982E-03     15.4528E-03    -231.771E-03     462.632E-03    -231.997E-03     13.6791E-03
             173     799.952E-09     62.2213E-03    -126.250E+06    -295.474E+06    -125.974E+06     147.944E+03    -231.544E-03     462.819E-03    -231.275E-03     14.3325E-03    -231.592E-03     461.735E-03    -231.293E-03     12.5817E-03
             174     391.126E-09     60.7216E-03    -125.530E+06    -293.862E+06    -124.364E+06     157.097E+03    -232.076E-03     462.911E-03    -230.835E-03     14.8421E-03    -232.126E-03     461.833E-03    -230.848E-03     13.0649E-03
             175     140.341E-09     59.2121E-03    -123.393E+06    -293.208E+06    -124.588E+06    -644.632E+03    -231.825E-03     463.217E-03    -231.392E-03     14.6051E-03    -231.865E-03     462.140E-03    -231.411E-03     12.8177E-03
             176    -122.421E-09     57.7084E-03    -124.909E+06    -295.275E+06    -124.126E+06    -18.3819E+03    -231.148E-03     462.419E-03    -231.271E-03     15.0655E-03    -231.194E-03     461.334E-03    -231.282E-03     13.2740E-03
             177    -127.423E-09     56.2053E-03    -120.808E+06    -294.357E+06    -121.042E+06     186.682E+03    -231.275E-03     462.251E-03    -230.976E-03     14.6692E-03    -231.306E-03     461.159E-03    -230.979E-03     12.8882E-03
             178     744.203E-09     54.7012E-03    -120.732E+06    -295.828E+06    -122.563E+06    -441.199E+03    -231.609E-03     462.107E-03    -230.498E-03     14.4140E-03    -231.634E-03     461.010E-03    -230.507E-03     12.6486E-03
             179     152.886E-09     53.1985E-03    -124.141E+06    -296.275E+06    -122.556E+06     525.735E+03    -231.139E-03     461.708E-03    -230.570E-03     14.6525E-03    -231.180E-03     460.613E-03    -230.573E-03     12.9194E-03
             180    -282.529E-09     51.6953E-03    -122.030E+06    -293.763E+06    -122.608E+06     375.860E+03    -230.811E-03     461.782E-03    -230.971E-03     14.5366E-03    -230.846E-03     460.698E-03    -230.982E-03     12.7752E-03
             181     120.351E-09     50.1929E-03    -123.915E+06    -293.752E+06    -123.552E+06    -23.4804E+03    -231.298E-03     461.563E-03    -230.264E-03     13.5895E-03    -231.339E-03     460.480E-03    -230.277E-03     11.8648E-03
             182     1.47678E-06     48.6899E-03    -122.777E+06    -292.205E+06    -123.685E+06     200.590E+03    -230.475E-03     460.685E-03    -230.210E-03     14.9774E-03    -230.513E-03     459.611E-03    -230.227E-03     13.2525E-03
             183    -2.77087E-06     47.1880E-03    -123.012E+06    -289.731E+06    -121.967E+06     287.022E+03    -229.559E-03     460.295E-03    -230.736E-03     14.9680E-03    -229.604E-03     459.233E-03    -230.747E-03     13.2470E-03
             184     2.32513E-06     45.6884E-03    -123.994E+06    -291.801E+06    -124.774E+06    -844.114E+03    -230.681E-03     460.242E-03    -229.561E-03     14.2794E-03    -230.722E-03     459.173E-03    -229.582E-03     12.5516E-03
             185    -342.000E-09     44.1873E-03    -125.768E+06    -294.089E+06    -124.853E+06     153.435E+03    -230.509E-03     459.328E-03    -228.819E-03     14.6813E-03    -230.559E-03     458.251E-03    -228.835E-03     12.8732E-03
             186     726.721E-09     42.6893E-03    -124.335E+06    -293.438E+06    -124.361E+06     437.028E+03    -228.880E-03     458.134E-03    -229.254E-03     14.3991E-03    -228.924E-03     457.056E-03    -229.270E-03     12.6511E-03
             187    -1.70294E-06     41.1940E-03    -120.498E+06    -290.125E+06    -120.555E+06     262.184E+03    -228.745E-03     457.620E-03    -228.875E-03     13.5782E-03    -228.777E-03     456.546E-03    -228.882E-03     11.9100E-03
             188     2.44449E-06     39.6947E-03    -120.564E+06    -291.094E+06    -121.630E+06    -852.138E+03    -229.345E-03     457.063E-03    -227.717E-03     13.9908E-03    -229.375E-03     455.987E-03    -227.729E-03     12.3067E-03
             189    -918.202E-09     38.2012E-03    -122.875E+06    -293.364E+06    -123.664E+06     656.594E+03    -228.352E-03     456.236E-03    -227.884E-03     14.8827E-03    -228.389E-03     455.156E-03    -227.898E-03     13.1855E-03
             190    -8.76473E-09     36.7052E-03    -121.756E+06    -291.065E+06    -119.593E+06     81.9892E+03    -226.171E-03     454.214E-03    -228.043E-03     13.8259E-03    -226.211E-03     453.135E-03    -228.042E-03     12.1580E-03
             191    -1.77903E-06     35.2177E-03    -120.027E+06    -291.902E+06    -120.959E+06    -337.776E+03    -225.646E-03     452.541E-03    -226.895E-03     13.3460E-03    -225.672E-03     451.456E-03    -226.902E-03     11.7286E-03
             192     1.71972E-06     33.7302E-03    -120.954E+06    -292.337E+06    -121.357E+06     418.464E+03    -226.025E-03     452.399E-03    -226.374E-03     13.3691E-03    -226.054E-03     451.315E-03    -226.381E-03     11.7433E-03
             193    -2.21172E-06     32.2376E-03    -119.977E+06    -290.994E+06    -120.599E+06    -224.228E+03    -225.634E-03     451.165E-03    -225.531E-03     13.2487E-03    -225.660E-03     450.086E-03    -225.538E-03     11.6248E-03
             194     2.79947E-06     30.7546E-03    -121.382E+06    -292.082E+06    -121.073E+06    -338.422E+03    -224.581E-03     449.318E-03    -224.736E-03     13.7686E-03    -224.611E-03     448.237E-03    -224.742E-03     12.1889E-03
             195    -3.66261E-06     29.2707E-03    -122.314E+06    -295.878E+06    -122.590E+06    -366.683E+03    -223.624E-03     448.076E-03    -224.452E-03     12.4938E-03    -223.649E-03     446.980E-03    -224.458E-03     10.9050E-03
             196     3.29051E-06     27.7914E-03    -119.165E+06    -293.666E+06    -119.021E+06     987.842E+03    -224.374E-03     447.172E-03    -222.798E-03     11.7270E-03    -224.391E-03     446.073E-03    -222.794E-03     10.2015E-03
             197    -681.069E-09     26.3072E-03    -117.874E+06    -292.888E+06    -118.294E+06    -1.17449E+06    -222.148E-03     444.674E-03    -222.527E-03     12.9052E-03    -222.163E-03     443.575E-03    -222.523E-03     11.4002E-03
             198    -2.52921E-06     24.8357E-03    -118.174E+06    -295.117E+06    -120.039E+06     464.208E+03    -219.677E-03     441.848E-03    -222.171E-03     11.0801E-03    -219.685E-03     440.739E-03    -222.172E-03     9.59755E-03
             199     2.09687E-06     23.3647E-03    -118.369E+06    -292.712E+06    -116.579E+06     503.905E+03    -221.001E-03     440.383E-03    -219.383E-03     10.4071E-03    -221.017E-03     439.280E-03    -219.369E-03     8.97947E-03
             200     669.796E-09     21.8909E-03    -121.913E+06    -296.330E+06    -120.787E+06    -1.52229E+06    -219.192E-03     436.004E-03    -216.811E-03     10.2772E-03    -219.215E-03     434.891E-03    -216.809E-03     8.89957E-03
             201    -1.68265E-09     20.4354E-03    -120.049E+06    -302.500E+06    -119.950E+06     335.145E+03    -214.086E-03     428.523E-03    -214.438E-03     9.27560E-03    -214.088E-03     427.374E-03    -214.425E-03     8.04483E-03
             202    -1.19414E-06     18.9856E-03    -111.252E+06    -299.754E+06    -110.789E+06     846.532E+03    -209.337E-03     419.565E-03    -210.228E-03     7.41202E-03    -209.310E-03     418.400E-03    -210.186E-03     6.30016E-03
             203     1.10099E-06     17.5534E-03    -112.287E+06    -299.552E+06    -112.153E+06    -1.00746E+06    -203.986E-03     408.074E-03    -204.088E-03     6.34171E-03    -203.961E-03     406.911E-03    -204.052E-03     5.28389E-03
             204    -1.14413E-06     16.1392E-03    -120.319E+06    -297.348E+06    -120.878E+06     1.12612E+06    -197.328E-03     394.279E-03    -196.951E-03     5.08399E-03    -197.333E-03     393.149E-03    -196.950E-03     4.19759E-03
             205     1.76390E-06     14.7431E-03    -117.894E+06    -281.929E+06    -118.283E+06     3.81257E+06    -189.962E-03     378.928E-03    -188.966E-03     4.03077E-03    -189.978E-03     377.865E-03    -188.978E-03     3.31848E-03
             206    -878.184E-09     13.3748E-03    -112.087E+06    -269.651E+06    -111.610E+06      1.7402E+06    -181.438E-03     362.445E-03    -181.007E-03     2.53027E-03    -181.452E-03     361.424E-03    -181.012E-03     1.88971E-03
             207     665.825E-09     12.0233E-03    -104.916E+06    -261.849E+06    -106.137E+06     1.41021E+06    -172.500E-03     344.619E-03    -172.120E-03     781.428E-06    -172.497E-03     343.616E-03    -172.118E-03     237.715E-06
             208     152.960E-09     10.7011E-03    -98.4484E+06    -255.339E+06    -98.3000E+06     732.954E+03    -163.586E-03     326.448E-03    -162.862E-03     491.644E-06    -163.571E-03     325.457E-03    -162.841E-03    -20.1505E-06
             209     166.162E-09     9.39996E-03    -102.512E+06    -250.513E+06    -102.031E+06     500.757E+03    -155.227E-03     310.630E-03    -155.403E-03     653.077E-06    -155.234E-03     309.676E-03    -155.401E-03     143.751E-06
             210    -732.555E-09     8.11733E-03    -106.843E+06    -253.206E+06    -106.086E+06    -1.88830E+06    -150.893E-03     301.995E-03    -151.102E-03     2.36575E-03    -150.911E-03     301.042E-03    -151.110E-03     1.82016E-03
             211     991.403E-09     6.83998E-03    -104.251E+06    -258.079E+06    -105.865E+06    -287.315E+03    -152.997E-03     306.491E-03    -153.493E-03     6.15294E-03    -152.999E-03     305.510E-03    -153.497E-03     5.62585E-03
             212    -2.01286E-06     5.54514E-03    -99.9020E+06    -255.187E+06    -98.1358E+06     1.08407E+06    -162.695E-03     326.239E-03    -163.544E-03     8.89679E-03    -162.696E-03     325.250E-03    -163.520E-03     8.39316E-03
             213     1.78413E-06     4.21633E-03    -91.8198E+06    -262.350E+06    -91.2017E+06    -3.06047E+06    -177.846E-03     355.545E-03    -177.699E-03     9.35804E-03    -177.807E-03     354.495E-03    -177.641E-03     8.84256E-03
             214    -1.28126E-06     2.84200E-03    -84.0531E+06    -269.467E+06    -84.9454E+06     689.694E+03    -192.368E-03     384.430E-03    -192.062E-03     7.96313E-03    -192.284E-03     383.326E-03    -191.974E-03     7.59476E-03
             215     1.26365E-06     1.43232E-03    -75.0859E+06    -263.190E+06    -73.7681E+06     1.42008E+06    -202.870E-03     405.528E-03    -202.658E-03     4.80787E-03    -202.759E-03     404.427E-03    -202.536E-03     4.62795E-03
             216     730.242E-06     5.74540E-15    -69.0992E+06    -259.515E+06    -69.1600E+06    -447.773E+03    -206.711E-03     413.285E-03    -206.575E-03     4.02616E-03    -206.580E-03     412.189E-03    -206.444E-03     3.84964E-03
             217     1.46243E-03     5.74540E-15    -69.4698E+06    -258.053E+06    -66.1217E+06     1.12564E+06    -206.232E-03     412.811E-03    -206.579E-03     6.35886E-03    -206.112E-03     411.719E-03    -206.435E-03     5.99014E-03
             218     2.19197E-03     5.74540E-15    -68.1783E+06    -245.536E+06    -61.3312E+06     487.446E+03    -205.786E-03     412.198E-03    -206.412E-03     10.7674E-03    -205.689E-03     411.164E-03    -206.264E-03     10.1914E-03
             219     2.92387E-03     5.74540E-15    -66.3784E+06    -223.445E+06    -58.2829E+06     255.946E+03    -205.238E-03     411.433E-03    -206.194E-03     14.7929E-03    -205.174E-03     410.507E-03    -206.066E-03     14.0415E-03
             220     3.65530E-03     5.74540E-15    -63.5423E+06    -195.614E+06    -55.4703E+06    -1.97544E+06    -204.696E-03     410.642E-03    -205.945E-03     18.3437E-03    -204.668E-03     409.853E-03    -205.847E-03     17.3830E-03
             221     4.38798E-03     5.74540E-15    -57.8658E+06    -156.227E+06    -50.8918E+06    -6.63252E+06    -203.992E-03     409.656E-03    -205.664E-03     21.5164E-03    -204.007E-03     409.058E-03    -205.608E-03     20.2816E-03
             222     5.12050E-03     5.74540E-15    -49.4731E+06    -106.329E+06    -43.3737E+06    -7.79433E+06    -203.096E-03     408.439E-03    -205.343E-03     24.7708E-03    -203.163E-03     408.077E-03    -205.334E-03     23.2921E-03
             223     5.85445E-03     5.74540E-15    -40.4153E+06    -52.3477E+06    -35.5141E+06    -8.26267E+06    -202.710E-03     407.721E-03    -205.011E-03     27.8950E-03    -202.831E-03     407.615E-03    -205.054E-03     26.2015E-03
             224     6.58827E-03     5.74540E-15    -31.6354E+06    -15.3970E+06    -22.0633E+06    -7.66152E+06    -202.896E-03     407.686E-03    -204.790E-03     31.0402E-03    -203.060E-03     407.745E-03    -204.832E-03     29.1382E-03
             225     7.32047E-03     5.74540E-15    -24.2214E+06     194.180E+03    -2.40880E+06    -3.14067E+06    -203.643E-03     408.372E-03    -204.729E-03     35.3119E-03    -203.839E-03     408.489E-03    -204.707E-03     33.1789E-03
             226     8.05326E-03     5.74540E-15    -20.1433E+06     10.0879E+06     16.6353E+06     371.422E+03    -205.512E-03     410.335E-03    -204.823E-03     38.1587E-03    -205.749E-03     410.488E-03    -204.725E-03     35.7673E-03
             227     8.78529E-03     5.74540E-15    -18.1503E+06     16.2948E+06     32.4243E+06     2.78753E+06    -208.985E-03     414.115E-03    -205.130E-03     41.5822E-03    -209.274E-03     414.302E-03    -204.965E-03     38.7847E-03
             228     9.51030E-03     5.74540E-15    -17.2286E+06     20.4155E+06     47.5090E+06     3.10352E+06    -214.412E-03     420.154E-03    -205.742E-03     45.6928E-03    -214.760E-03     420.376E-03    -205.510E-03     42.3714E-03
             229     10.2363E-03     5.74540E-15    -14.7800E+06     25.3784E+06     61.8203E+06     1.29353E+06    -223.429E-03     430.208E-03    -206.778E-03     50.4498E-03    -223.851E-03     430.489E-03    -206.485E-03     46.3070E-03
             230     10.9486E-03     5.74540E-15    -11.0739E+06     31.4893E+06     68.4075E+06     879.456E+03    -238.827E-03     447.258E-03    -208.431E-03     54.5009E-03    -239.323E-03     447.634E-03    -208.119E-03     49.1843E-03
             231     11.6564E-03     5.74540E-15    -8.84596E+06     41.2024E+06     71.7068E+06     1.46609E+06    -265.059E-03     476.159E-03    -211.100E-03     66.5372E-03    -265.729E-03     476.744E-03    -210.788E-03     59.3325E-03
             232     12.3229E-03     5.74540E-15    -10.1090E+06     49.5798E+06     72.1941E+06     1.66203E+06    -308.877E-03     524.235E-03    -215.358E-03     94.2989E-03    -310.001E-03     525.313E-03    -215.054E-03     83.0905E-03
             233     12.9664E-03     5.74540E-15    -10.4707E+06     58.7461E+06     72.7958E+06     3.24088E+06    -381.956E-03     603.972E-03    -222.016E-03     114.627E-03    -383.577E-03     605.632E-03    -221.722E-03     97.4502E-03
             234     13.5702E-03     5.74540E-15     3.59609E+06     86.9836E+06     88.7166E+06     9.02764E+06    -502.762E-03     734.856E-03    -232.094E-03     207.409E-03    -507.186E-03     739.365E-03    -231.782E-03     175.248E-03
             235     14.2071E-03     2.38457E-03    -1.65103E+06     94.3636E+06     80.2514E+06     -97.093E+03    -488.262E-03     723.760E-03    -235.498E-03     272.234E-03    -496.901E-03     732.426E-03    -235.231E-03     225.788E-03
             236     14.2177E-03     4.06389E-03    -11.3994E+06     77.1693E+06     64.7706E+06    -4.43108E+06    -374.905E-03     607.362E-03    -232.457E-03     206.655E-03    -382.784E-03     615.242E-03    -232.228E-03     164.605E-03
             237     14.2563E-03     5.72829E-03    -2.77476E+06     78.1086E+06     72.9997E+06     1.97727E+06    -330.181E-03     561.946E-03    -231.765E-03     158.660E-03    -335.901E-03     567.707E-03    -231.509E-03     124.527E-03
             238     14.2585E-03     7.35179E-03    -2.84813E+06     77.0448E+06     76.7382E+06    -2.03127E+06    -308.570E-03     539.873E-03    -231.303E-03     141.163E-03    -314.003E-03     545.342E-03    -231.027E-03     108.707E-03
             239     14.2682E-03     8.96244E-03    -1.47339E+06     72.3960E+06     80.1808E+06    -1.14896E+06    -301.480E-03     532.501E-03    -231.021E-03     126.816E-03    -306.141E-03     537.178E-03    -230.723E-03     96.5702E-03
             240     14.2723E-03     10.5743E-03    -501.668E+03     71.2058E+06     81.2340E+06     149.359E+03    -289.297E-03     520.347E-03    -231.050E-03     115.571E-03    -293.460E-03     524.525E-03    -230.746E-03     87.7154E-03
             241     14.2689E-03     12.1537E-03    -1.23249E+06     69.0542E+06     81.6987E+06     382.206E+03    -275.478E-03     506.844E-03    -231.366E-03     104.784E-03    -279.305E-03     510.672E-03    -231.056E-03     79.0260E-03
             242     14.2725E-03     13.6976E-03    -2.33924E+06     66.9402E+06     80.3987E+06    -808.067E+03    -262.103E-03     493.769E-03    -231.666E-03     94.1992E-03    -265.568E-03     497.228E-03    -231.358E-03     70.6651E-03
             243     14.2699E-03     15.2486E-03    -1.38376E+06     62.1893E+06     78.8731E+06    -1.60307E+06    -252.286E-03     484.187E-03    -231.901E-03     86.6100E-03    -255.492E-03     487.380E-03    -231.595E-03     64.6612E-03
             244     14.2718E-03     16.7727E-03    -1.54888E+06     61.9250E+06     77.4343E+06     749.995E+03    -244.521E-03     476.561E-03    -232.040E-03     85.4136E-03    -247.678E-03     479.708E-03    -231.740E-03     64.4168E-03
             245     14.2735E-03     18.2984E-03    -3.39518E+06     65.7492E+06     77.5129E+06     518.584E+03    -241.650E-03     473.720E-03    -232.071E-03     82.1622E-03    -244.743E-03     476.811E-03    -231.774E-03     61.6264E-03
             246     14.2702E-03     19.8210E-03    -3.48160E+06     64.9891E+06     77.5746E+06    -459.143E+03    -240.730E-03     472.797E-03    -232.067E-03     80.9864E-03    -243.779E-03     475.838E-03    -231.768E-03     60.6758E-03
             247     14.2766E-03     21.3413E-03    -925.043E+03     66.0632E+06     80.2471E+06     628.246E+03    -238.686E-03     470.636E-03    -231.949E-03     83.7400E-03    -241.764E-03     473.712E-03    -231.643E-03     63.5630E-03
             248     14.2771E-03     22.8659E-03    -1.10677E+06     70.2369E+06     82.0345E+06     1.47079E+06    -239.960E-03     471.760E-03    -231.800E-03     85.3047E-03    -243.125E-03     474.933E-03    -231.490E-03     64.8279E-03
             249     14.2765E-03     24.3929E-03    -4.42089E+06     71.2940E+06     78.0133E+06    -110.166E+03    -240.702E-03     472.435E-03    -231.733E-03     86.6691E-03    -243.970E-03     475.714E-03    -231.440E-03     65.8745E-03
             250     14.2789E-03     25.9128E-03    -1.67039E+06     70.4968E+06     79.9990E+06    -555.404E+03    -238.274E-03     469.952E-03    -231.678E-03     88.7763E-03    -241.581E-03     473.272E-03    -231.378E-03     68.0989E-03
             251     14.2816E-03     27.4316E-03     325.599E+03     70.7490E+06     82.3571E+06     1.31817E+06    -236.777E-03     468.349E-03    -231.571E-03     89.0665E-03    -240.110E-03     471.695E-03    -231.263E-03     68.4372E-03
             252     14.2824E-03     28.9476E-03    -1.89821E+06     72.3332E+06     80.2899E+06    -278.282E+03    -237.079E-03     468.568E-03    -231.489E-03     88.7142E-03    -240.482E-03     471.988E-03    -231.189E-03     67.8016E-03
             253     14.2816E-03     30.4683E-03    -2.78755E+06     70.3219E+06     80.7268E+06    -1.32317E+06    -237.559E-03     469.040E-03    -231.480E-03     89.6739E-03    -240.998E-03     472.484E-03    -231.175E-03     68.6721E-03
             254     14.2825E-03     31.9860E-03    -4.38966E+06     64.8554E+06     80.6092E+06    -1.15465E+06    -237.490E-03     469.010E-03    -231.520E-03     90.1983E-03    -240.931E-03     472.432E-03    -231.204E-03     69.2873E-03
             255     14.2800E-03     33.5061E-03    -957.856E+03     62.2498E+06     81.6201E+06     215.405E+03    -235.131E-03     466.664E-03    -231.533E-03     92.2957E-03    -238.588E-03     470.101E-03    -231.213E-03     71.5835E-03
             256     14.2871E-03     35.0131E-03     379.054E+03     63.4461E+06     82.2776E+06     591.709E+03    -233.628E-03     465.120E-03    -231.492E-03     91.0272E-03    -237.074E-03     468.554E-03    -231.173E-03     70.3825E-03
             257     14.2797E-03     36.5272E-03    -2.43499E+06     65.6650E+06     80.4229E+06     562.521E+03    -234.193E-03     465.678E-03    -231.485E-03     88.5838E-03    -237.640E-03     469.116E-03    -231.175E-03     67.8692E-03
             258     14.2862E-03     38.0386E-03    -2.95151E+06     69.5283E+06     81.0515E+06     469.869E+03    -233.639E-03     465.125E-03    -231.486E-03     91.2396E-03    -237.156E-03     468.644E-03    -231.178E-03     70.5132E-03
             259     14.2813E-03     39.5550E-03    -2.19546E+06     70.4549E+06     82.0208E+06    -403.920E+03    -233.417E-03     464.916E-03    -231.499E-03     91.8146E-03    -236.940E-03     468.444E-03    -231.188E-03     71.1169E-03
             260     14.2844E-03     41.0650E-03    -1.76104E+06     70.6807E+06     81.4979E+06     1.27747E+06    -231.957E-03     463.478E-03    -231.520E-03     93.1036E-03    -235.485E-03     467.014E-03    -231.213E-03     72.6168E-03
             261     14.2840E-03     42.5706E-03    -1.42852E+06     71.2599E+06     83.0057E+06    -290.368E+03    -231.523E-03     463.039E-03    -231.516E-03     91.6575E-03    -235.045E-03     466.569E-03    -231.203E-03     71.1252E-03
             262     14.2828E-03     44.0815E-03    -1.81122E+06     70.7051E+06     81.6190E+06    -185.490E+03    -232.063E-03     463.587E-03    -231.524E-03     90.3214E-03    -235.587E-03     467.118E-03    -231.215E-03     69.6954E-03
             263     14.2840E-03     45.5891E-03    -2.86614E+06     73.7653E+06     80.3612E+06     1.13707E+06    -230.553E-03     462.048E-03    -231.495E-03     92.6681E-03    -234.098E-03     465.611E-03    -231.196E-03     72.2690E-03
             264     14.2862E-03     47.0991E-03    -1.83077E+06     75.2969E+06     83.8827E+06    -123.561E+03    -231.067E-03     462.558E-03    -231.491E-03     92.8467E-03    -234.624E-03     466.133E-03    -231.179E-03     72.3548E-03
             265     14.2808E-03     48.6086E-03    -3.80151E+06     73.4909E+06     83.3529E+06    -417.547E+03    -232.548E-03     464.131E-03    -231.583E-03     90.8080E-03    -236.104E-03     467.692E-03    -231.267E-03     70.1510E-03
             266     14.2822E-03     50.1149E-03    -1.61671E+06     75.0003E+06     82.4435E+06     1.13668E+06    -230.001E-03     461.585E-03    -231.584E-03     91.9591E-03    -233.533E-03     465.139E-03    -231.279E-03     71.6168E-03
             267     14.2879E-03     51.6174E-03    -1.63097E+06     74.9522E+06     81.4541E+06    -1.37730E+06    -230.141E-03     461.647E-03    -231.506E-03     90.6510E-03    -233.661E-03     465.191E-03    -231.205E-03     70.2207E-03
             268     14.2789E-03     53.1339E-03    -3.45240E+06     68.6410E+06     80.9238E+06    -2.08104E+06    -231.953E-03     463.530E-03    -231.577E-03     89.8315E-03    -235.482E-03     467.056E-03    -231.267E-03     69.2485E-03
             269     14.2851E-03     54.6383E-03    -1.20165E+06     66.4010E+06     82.9241E+06     1.31265E+06    -228.853E-03     460.476E-03    -231.623E-03     94.2593E-03    -232.418E-03     464.033E-03    -231.303E-03     74.0071E-03
             270     14.2845E-03     56.1427E-03    -1.41589E+06     67.8296E+06     82.7662E+06     249.553E+03    -229.464E-03     461.033E-03    -231.569E-03     93.0123E-03    -233.010E-03     464.575E-03    -231.251E-03     72.6728E-03
             271     14.2815E-03     57.6504E-03    -2.25753E+06     67.8111E+06     79.7410E+06    -210.531E+03    -230.889E-03     462.445E-03    -231.556E-03     91.6301E-03    -234.424E-03     465.981E-03    -231.252E-03     71.1796E-03
             272     14.2859E-03     59.1558E-03    -1.18058E+06     68.7891E+06     81.4641E+06    -1.41431E+03    -228.909E-03     460.429E-03    -231.521E-03     92.9525E-03    -232.471E-03     463.996E-03    -231.212E-03     72.5980E-03
             273     14.2853E-03     60.6602E-03    -2.14959E+06     68.6956E+06     83.5227E+06    -591.752E+03    -230.631E-03     462.137E-03    -231.506E-03     90.9108E-03    -234.192E-03     465.693E-03    -231.185E-03     70.3438E-03
             274     14.2809E-03     62.1730E-03    -4.48802E+06     67.1712E+06     80.2659E+06    -203.533E+03    -231.230E-03     462.808E-03    -231.578E-03     90.9219E-03    -234.786E-03     466.354E-03    -231.268E-03     70.3957E-03
             275     14.2848E-03     63.6779E-03    -1.86615E+06     64.7970E+06     81.6647E+06    -932.262E+03    -229.062E-03     460.663E-03    -231.600E-03     94.0072E-03    -232.641E-03     464.228E-03    -231.283E-03     73.6394E-03
             276     14.2838E-03     65.1815E-03    -654.747E+03     65.0749E+06     82.7352E+06     775.724E+03    -229.773E-03     461.317E-03    -231.545E-03     93.2931E-03    -233.324E-03     464.858E-03    -231.224E-03     72.9406E-03
             277     14.2842E-03     66.6927E-03    -3.19833E+06     66.3512E+06     80.1314E+06     444.930E+03    -230.106E-03     461.644E-03    -231.539E-03     92.3305E-03    -233.653E-03     465.183E-03    -231.230E-03     71.9565E-03
             278     14.2836E-03     68.1937E-03    -1.29230E+06     66.3815E+06     82.3722E+06     29.9913E+03    -228.751E-03     460.282E-03    -231.530E-03     92.9459E-03    -232.310E-03     463.833E-03    -231.213E-03     72.6253E-03
             279     14.2872E-03     69.6980E-03    -1.00181E+06     70.9640E+06     84.8403E+06     1.15930E+06    -229.781E-03     461.301E-03    -231.520E-03     90.2563E-03    -233.327E-03     464.849E-03    -231.197E-03     69.8221E-03
             280     14.2797E-03     71.2089E-03    -4.50483E+06     73.0606E+06     82.5302E+06    -507.033E+03    -231.071E-03     462.659E-03    -231.588E-03     90.5451E-03    -234.645E-03     466.237E-03    -231.275E-03     69.9991E-03
             281     14.2849E-03     72.7155E-03    -1.68486E+06     71.8437E+06     81.9283E+06     35.4772E+03    -229.698E-03     461.306E-03    -231.608E-03     93.6433E-03    -233.264E-03     464.884E-03    -231.300E-03     73.3271E-03
             282     14.2829E-03     74.2215E-03    -1.33463E+06     72.2796E+06     81.5737E+06     696.267E+03    -229.090E-03     460.659E-03    -231.569E-03     93.7505E-03    -232.646E-03     464.230E-03    -231.264E-03     73.4937E-03
             283     14.2847E-03     75.7279E-03    -2.31167E+06     71.9956E+06     81.6948E+06     194.466E+03    -229.488E-03     461.058E-03    -231.570E-03     92.8834E-03    -233.065E-03     464.645E-03    -231.262E-03     72.4918E-03
             284     14.2825E-03     77.2296E-03    -2.79176E+06     71.7871E+06     82.8892E+06    -483.656E+03    -229.337E-03     460.915E-03    -231.579E-03     91.7140E-03    -232.920E-03     464.503E-03    -231.264E-03     71.2611E-03
             285     14.2851E-03     78.7377E-03    -1.74388E+06     71.8283E+06     84.7615E+06    -1.30185E+06    -229.796E-03     461.364E-03    -231.567E-03     92.4776E-03    -233.383E-03     464.953E-03    -231.245E-03     71.9926E-03
             286     14.2826E-03     80.2454E-03    -2.05768E+06     70.8799E+06     83.1892E+06     718.272E+03    -230.516E-03     462.068E-03    -231.552E-03     92.7211E-03    -234.093E-03     465.648E-03    -231.236E-03     72.2450E-03
             287     14.2845E-03     81.7522E-03    -3.81721E+06     73.3868E+06     80.4758E+06     1.21299E+06    -230.040E-03     461.604E-03    -231.565E-03     91.9706E-03    -233.592E-03     465.170E-03    -231.263E-03     71.6471E-03
             288     14.2824E-03     83.2585E-03    -1.87594E+06     71.8071E+06     81.9087E+06    -1.35927E+06    -229.277E-03     460.873E-03    -231.596E-03     92.2004E-03    -232.824E-03     464.430E-03    -231.288E-03     71.8936E-03
             289     14.2845E-03     84.7618E-03    -1.79254E+06     64.8922E+06     82.9759E+06    -917.690E+03    -229.132E-03     460.730E-03    -231.598E-03     92.5036E-03    -232.690E-03     464.272E-03    -231.275E-03     72.1537E-03
             290     14.2833E-03     86.2693E-03    -225.546E+03     67.7707E+06     84.4151E+06     1.41657E+06    -229.219E-03     460.767E-03    -231.547E-03     93.7242E-03    -232.792E-03     464.335E-03    -231.223E-03     73.3929E-03
             291     14.2864E-03     87.7741E-03    -2.86762E+06     69.9297E+06     82.4812E+06    -250.562E+03    -230.110E-03     461.635E-03    -231.526E-03     92.4796E-03    -233.667E-03     465.191E-03    -231.210E-03     72.0993E-03
             292     713.939E-06     86.3307E-03    -123.939E+06    -294.488E+06    -121.771E+06    -208.295E+03    -231.753E-03     463.568E-03    -231.815E-03     24.5834E-03    -231.860E-03     462.543E-03    -231.817E-03     21.6562E-03
             293     1.42771E-03     86.3778E-03    -120.578E+06    -288.069E+06    -112.727E+06     96.9423E+03    -232.109E-03     463.858E-03    -231.750E-03     45.2537E-03    -232.414E-03     463.040E-03    -231.721E-03     39.8645E-03
             294     2.14144E-03     86.4549E-03    -115.764E+06    -280.643E+06    -99.0731E+06     146.840E+03    -232.615E-03     464.417E-03    -231.803E-03     67.1188E-03    -233.262E-03     463.945E-03    -231.723E-03     58.9899E-03
             295     2.85495E-03     86.5609E-03    -109.585E+06    -253.069E+06    -84.7350E+06     139.656E+03    -233.058E-03     464.876E-03    -231.818E-03     89.1481E-03    -234.221E-03     464.998E-03    -231.716E-03     78.1590E-03
             296     3.56952E-03     86.6961E-03    -102.792E+06    -216.508E+06    -69.3245E+06     115.426E+03    -233.579E-03     465.374E-03    -231.796E-03     110.957E-03    -235.440E-03     466.304E-03    -231.679E-03     96.9409E-03
             297     4.28365E-03     86.8607E-03    -95.7259E+06    -189.281E+06    -52.3153E+06     168.704E+03    -234.351E-03     466.142E-03    -231.792E-03     132.553E-03    -237.097E-03     468.028E-03    -231.640E-03     115.268E-03
             298     4.99752E-03     87.0545E-03    -88.0896E+06    -155.104E+06    -35.3287E+06     460.004E+03    -235.124E-03     466.911E-03    -231.787E-03     154.177E-03    -238.991E-03     470.018E-03    -231.611E-03     133.403E-03
             299     5.71131E-03     87.2760E-03    -79.3873E+06    -113.529E+06    -17.2447E+06     597.682E+03    -235.729E-03     467.501E-03    -231.772E-03     175.543E-03    -240.967E-03     472.104E-03    -231.579E-03     151.100E-03
             300     6.42670E-03     87.5255E-03    -70.0107E+06    -65.6644E+06     2.48012E+06     1.08938E+06    -236.345E-03     468.095E-03    -231.750E-03     196.366E-03    -243.238E-03     474.500E-03    -231.541E-03     168.055E-03
             301     7.14001E-03     87.8014E-03    -60.8903E+06    -13.5504E+06     22.1352E+06     1.64568E+06    -236.950E-03     468.680E-03    -231.730E-03     216.990E-03    -245.817E-03     477.219E-03    -231.511E-03     184.629E-03
             302     7.85406E-03     88.1044E-03    -52.7665E+06     15.8192E+06     36.0064E+06     1.81842E+06    -237.517E-03     469.246E-03    -231.729E-03     237.090E-03    -248.602E-03     480.096E-03    -231.495E-03     200.675E-03
             303     8.56850E-03     88.4325E-03    -46.1601E+06     22.1611E+06     45.7086E+06     853.277E+03    -237.701E-03     469.446E-03    -231.746E-03     255.409E-03    -251.118E-03     482.646E-03    -231.482E-03     215.249E-03
             304     9.28128E-03     88.7827E-03    -40.3274E+06     28.7739E+06     56.9027E+06    -707.887E+03    -237.128E-03     468.880E-03    -231.752E-03     269.232E-03    -252.727E-03     484.273E-03    -231.451E-03     226.090E-03
             305     9.99715E-03     89.1427E-03    -33.5608E+06     38.7734E+06     68.1887E+06    -168.714E+03    -236.010E-03     467.741E-03    -231.731E-03     274.272E-03    -253.107E-03     484.659E-03    -231.397E-03     229.464E-03
             306     10.7112E-03     89.5039E-03    -26.7785E+06     49.0976E+06     76.3896E+06     1.26920E+06    -234.266E-03     465.950E-03    -231.684E-03     268.172E-03    -251.703E-03     483.245E-03    -231.335E-03     223.436E-03
             307     11.4279E-03     89.8437E-03    -20.6403E+06     58.4644E+06     79.1970E+06     1.76454E+06    -232.702E-03     464.325E-03    -231.623E-03     251.864E-03    -249.255E-03     480.783E-03    -231.282E-03     208.688E-03
             308     12.1408E-03     90.1570E-03    -14.3398E+06     66.1016E+06     80.3078E+06     1.30105E+06    -232.100E-03     463.704E-03    -231.604E-03     224.220E-03    -246.380E-03     477.935E-03    -231.278E-03     184.197E-03
             309     12.8552E-03     90.4258E-03    -8.06713E+06     78.8568E+06     83.3312E+06     1.37560E+06    -231.174E-03     462.802E-03    -231.628E-03     201.337E-03    -243.486E-03     475.123E-03    -231.314E-03     164.012E-03
             310     13.5658E-03     90.6806E-03    -3.02575E+06     76.5007E+06     84.0538E+06     1.62132E+06    -229.025E-03     460.646E-03    -231.621E-03     144.364E-03    -236.742E-03     468.380E-03    -231.307E-03     115.915E-03
             311     713.574E-06     87.8360E-03    -124.153E+06    -294.421E+06    -121.645E+06     65.5414E+03    -231.837E-03     463.690E-03    -231.854E-03     24.6746E-03    -231.946E-03     462.666E-03    -231.855E-03     21.7527E-03
             312     1.42754E-03     87.8839E-03    -120.433E+06    -288.081E+06    -112.001E+06    -94.8026E+03    -232.051E-03     463.838E-03    -231.788E-03     45.5863E-03    -232.357E-03     463.020E-03    -231.755E-03     40.1907E-03
             313     2.14155E-03     87.9603E-03    -115.233E+06    -280.279E+06    -98.7605E+06    -368.712E+03    -232.441E-03     464.226E-03    -231.785E-03     67.3046E-03    -233.086E-03     463.753E-03    -231.705E-03     59.1876E-03
             314     2.85611E-03     88.0665E-03    -109.466E+06    -252.911E+06    -84.9814E+06    -352.653E+03    -233.029E-03     464.802E-03    -231.774E-03     88.9539E-03    -234.188E-03     464.922E-03    -231.673E-03     77.9718E-03
             315     3.56955E-03     88.2018E-03    -103.230E+06    -216.972E+06    -69.8993E+06    -226.619E+03    -233.727E-03     465.500E-03    -231.773E-03     110.628E-03    -235.585E-03     466.424E-03    -231.658E-03     96.6075E-03
             316     4.28325E-03     88.3668E-03    -95.9582E+06    -189.183E+06    -52.6860E+06    -440.868E+03    -234.409E-03     466.202E-03    -231.793E-03     132.490E-03    -237.158E-03     468.091E-03    -231.643E-03     115.182E-03
             317     4.99740E-03     88.5600E-03    -88.0076E+06    -154.988E+06    -35.6966E+06    -854.531E+03    -235.102E-03     466.895E-03    -231.792E-03     154.162E-03    -238.971E-03     470.004E-03    -231.619E-03     133.352E-03
             318     5.71200E-03     88.7820E-03    -80.1119E+06    -113.671E+06    -18.0360E+06    -1.27664E+06    -235.838E-03     467.621E-03    -231.784E-03     175.259E-03    -241.074E-03     472.222E-03    -231.593E-03     150.773E-03
             319     6.42494E-03     89.0308E-03    -71.9546E+06    -67.3581E+06     626.986E+03    -1.67710E+06    -236.480E-03     468.257E-03    -231.777E-03     196.174E-03    -243.385E-03     474.665E-03    -231.572E-03     167.775E-03
             320     7.13976E-03     89.3079E-03    -63.6727E+06    -17.0962E+06     19.1305E+06    -507.411E+03    -236.972E-03     468.735E-03    -231.764E-03     216.906E-03    -245.843E-03     477.264E-03    -231.551E-03     184.500E-03
             321     7.85403E-03     89.6103E-03    -55.7910E+06     13.0523E+06     32.6555E+06     1.66128E+06    -237.280E-03     469.026E-03    -231.746E-03     237.348E-03    -248.367E-03     479.867E-03    -231.521E-03     200.984E-03
             322     8.56749E-03     89.9398E-03    -48.5058E+06     25.2057E+06     42.7817E+06     2.88452E+06    -237.158E-03     468.876E-03    -231.717E-03     255.795E-03    -250.588E-03     482.099E-03    -231.469E-03     215.751E-03
             323     9.28417E-03     90.2868E-03    -42.1927E+06     33.7815E+06     55.0172E+06     1.94679E+06    -236.782E-03     468.468E-03    -231.687E-03     269.615E-03    -252.394E-03     483.892E-03    -231.399E-03     226.577E-03
             324     9.99767E-03     90.6508E-03    -36.0909E+06     37.7264E+06     66.9791E+06    -181.936E+03    -236.086E-03     467.754E-03    -231.668E-03     274.576E-03    -253.205E-03     484.685E-03    -231.336E-03     229.757E-03
             325     10.7131E-03     91.0071E-03    -28.9004E+06     45.8839E+06     75.5231E+06    -147.514E+03    -234.951E-03     466.609E-03    -231.659E-03     267.399E-03    -252.398E-03     483.898E-03    -231.306E-03     222.500E-03
             326     11.4263E-03     91.3501E-03    -21.3486E+06     57.5527E+06     78.4649E+06     912.406E+03    -233.753E-03     465.412E-03    -231.659E-03     250.879E-03    -250.307E-03     481.867E-03    -231.319E-03     207.459E-03
             327     12.1401E-03     91.6656E-03    -15.2792E+06     67.4523E+06     79.1961E+06     714.424E+03    -232.081E-03     463.748E-03    -231.666E-03     225.480E-03    -246.389E-03     478.010E-03    -231.346E-03     185.474E-03
             328     12.8507E-03     91.9355E-03    -10.4124E+06     76.3943E+06     80.9280E+06    -7.02511E+03    -229.360E-03     460.984E-03    -231.624E-03     204.018E-03    -241.711E-03     473.335E-03    -231.315E-03     167.025E-03
             329     13.5715E-03     92.1783E-03    -4.72453E+06     75.7846E+06      82.639E+06     531.002E+03    -228.315E-03     459.854E-03    -231.539E-03     144.972E-03    -236.050E-03     467.601E-03    -231.229E-03     116.664E-03
             330     713.995E-06     89.3424E-03    -123.365E+06    -293.486E+06    -121.574E+06    -658.697E+03    -232.033E-03     463.550E-03    -231.517E-03     24.7492E-03    -232.139E-03     462.530E-03    -231.521E-03     21.8221E-03
             331     1.42780E-03     89.3889E-03    -120.364E+06    -287.984E+06    -112.883E+06    -342.985E+03    -232.145E-03     463.891E-03    -231.746E-03     45.4514E-03    -232.451E-03     463.075E-03    -231.719E-03     40.0403E-03
             332     2.14180E-03     89.4659E-03    -116.242E+06    -279.931E+06    -99.8223E+06    -139.861E+03    -232.533E-03     464.327E-03    -231.794E-03     66.8770E-03    -233.178E-03     463.855E-03    -231.719E-03     58.7752E-03
             333     2.85505E-03     89.5719E-03    -110.856E+06    -252.744E+06    -85.9645E+06    -303.956E+03    -233.029E-03     464.828E-03    -231.799E-03     88.7580E-03    -234.194E-03     464.952E-03    -231.702E-03     77.7723E-03
             334     3.56928E-03     89.7081E-03    -104.285E+06    -216.208E+06    -70.5744E+06    -678.038E+03    -233.659E-03     465.448E-03    -231.789E-03     110.741E-03    -235.526E-03     466.382E-03    -231.677E-03     96.6960E-03
             335     4.28349E-03     89.8721E-03    -97.4699E+06    -188.059E+06    -53.8024E+06    -992.875E+03    -234.444E-03     466.244E-03    -231.801E-03     132.548E-03    -237.201E-03     468.144E-03    -231.656E-03     115.228E-03
             336     4.99754E-03     90.0661E-03    -90.6857E+06    -154.062E+06    -37.2033E+06    -1.45506E+06    -235.238E-03     467.050E-03    -231.812E-03     154.056E-03    -239.116E-03     470.167E-03    -231.643E-03     133.230E-03
             337     5.71089E-03     90.2878E-03    -83.7766E+06    -113.023E+06    -19.9199E+06    -1.60706E+06    -235.907E-03     467.723E-03    -231.815E-03     175.311E-03    -241.167E-03     472.342E-03    -231.630E-03     150.793E-03
             338     6.42586E-03     90.5377E-03    -77.0514E+06    -66.3415E+06    -1.73408E+06    -1.58337E+06    -236.427E-03     468.232E-03    -231.805E-03     196.504E-03    -243.355E-03     474.656E-03    -231.606E-03     168.127E-03
             339     7.13931E-03     90.8135E-03    -70.0013E+06    -19.6431E+06     15.5247E+06    -1.77494E+06    -236.796E-03     468.569E-03    -231.773E-03     217.562E-03    -245.696E-03     477.105E-03    -231.565E-03     185.189E-03
             340     7.85339E-03     91.1169E-03    -61.7908E+06     7.71078E+06     28.0333E+06    -1.03333E+06    -236.894E-03     468.615E-03    -231.721E-03     237.733E-03    -247.991E-03     479.439E-03    -231.503E-03     201.424E-03
             341     8.56966E-03     91.4435E-03    -52.8778E+06     21.9803E+06     39.0756E+06     60.3196E+03    -236.914E-03     468.579E-03    -231.665E-03     255.735E-03    -250.342E-03     481.784E-03    -231.425E-03     215.720E-03
             342     9.28261E-03     91.7931E-03    -43.5655E+06     34.6518E+06     52.4605E+06     905.776E+03    -236.943E-03     468.577E-03    -231.634E-03     268.981E-03    -252.550E-03     484.001E-03    -231.359E-03     225.872E-03
             343     9.99886E-03     92.1538E-03    -35.0536E+06     41.6929E+06     65.4554E+06     845.416E+03    -236.534E-03     468.184E-03    -231.650E-03     273.265E-03    -253.619E-03     485.102E-03    -231.332E-03     228.356E-03
             344     10.7119E-03     92.5161E-03    -27.9472E+06     45.3053E+06     73.9873E+06    -296.167E+03    -235.444E-03     467.134E-03    -231.690E-03     266.813E-03    -252.876E-03     484.413E-03    -231.345E-03     221.780E-03
             345     11.4247E-03     92.8575E-03    -21.6911E+06     55.3859E+06     76.6853E+06    -312.548E+03    -233.320E-03     465.011E-03    -231.691E-03     252.194E-03    -249.904E-03     481.492E-03    -231.356E-03     208.830E-03
             346     12.1384E-03     93.1718E-03    -15.1987E+06      68.143E+06     79.4408E+06     348.781E+03    -230.423E-03     462.051E-03    -231.628E-03     226.997E-03    -244.745E-03     476.331E-03    -231.307E-03     187.305E-03
             347     12.8598E-03     93.4374E-03    -9.17051E+06     75.9077E+06     83.0165E+06     298.645E+03    -229.492E-03     461.043E-03    -231.551E-03     202.408E-03    -241.789E-03     473.336E-03    -231.232E-03     165.458E-03
             348     13.5720E-03     93.6826E-03    -5.14246E+06     75.9702E+06     82.6272E+06    -78.7041E+03    -230.720E-03     462.257E-03    -231.537E-03     142.440E-03    -238.428E-03     469.977E-03    -231.227E-03     113.819E-03
             349     713.931E-06     90.8471E-03    -123.964E+06    -293.369E+06    -122.517E+06     167.041E+03    -232.082E-03     463.593E-03    -231.511E-03     24.4673E-03    -232.189E-03     462.574E-03    -231.518E-03     21.5639E-03
             350     1.42764E-03     90.8955E-03    -121.887E+06    -287.946E+06    -113.993E+06     10.1484E+03    -232.225E-03     464.006E-03    -231.781E-03     45.3277E-03    -232.536E-03     463.192E-03    -231.756E-03     39.9428E-03
             351     2.14103E-03     90.9714E-03    -117.366E+06    -279.705E+06    -100.398E+06    -87.9885E+03    -232.556E-03     464.395E-03    -231.839E-03     67.0273E-03    -233.210E-03     463.930E-03    -231.765E-03     58.9002E-03
             352     2.85557E-03     91.0779E-03    -111.075E+06    -251.833E+06    -86.1217E+06    -147.748E+03    -232.999E-03     464.829E-03    -231.830E-03     89.0392E-03    -234.168E-03     464.959E-03    -231.735E-03     78.0578E-03
             353     3.56953E-03     91.2131E-03    -104.959E+06    -215.211E+06    -71.0922E+06    -250.080E+03    -233.703E-03     465.514E-03    -231.811E-03     110.770E-03    -235.575E-03     466.456E-03    -231.703E-03     96.7261E-03
             354     4.28334E-03     91.3786E-03    -98.6513E+06    -187.711E+06    -54.2447E+06    -193.824E+03    -234.501E-03     466.332E-03    -231.831E-03     132.381E-03    -237.262E-03     468.234E-03    -231.687E-03     115.066E-03
             355     4.99690E-03     91.5721E-03    -91.8958E+06    -153.108E+06    -37.5540E+06     3.78659E+03    -235.156E-03     466.992E-03    -231.837E-03     154.163E-03    -239.041E-03     470.117E-03    -231.669E-03     133.374E-03
             356     5.71145E-03     91.7943E-03    -84.7358E+06    -112.372E+06    -20.2870E+06     135.779E+03    -235.749E-03     467.568E-03    -231.818E-03     175.770E-03    -241.015E-03     472.192E-03    -231.634E-03     151.315E-03
             357     6.42480E-03     92.0429E-03    -76.8776E+06    -66.1282E+06    -1.91295E+06     459.730E+03    -236.266E-03     468.048E-03    -231.782E-03     196.968E-03    -243.197E-03     474.477E-03    -231.584E-03     168.654E-03
             358     7.13995E-03     92.3198E-03    -68.6899E+06    -17.8808E+06     16.4568E+06     486.632E+03    -236.543E-03     468.271E-03    -231.728E-03     217.740E-03    -245.436E-03     476.809E-03    -231.520E-03     185.458E-03
             359     7.85516E-03     92.6219E-03    -60.3595E+06     9.05214E+06     29.3652E+06    -1.38928E+06    -236.894E-03     468.563E-03    -231.670E-03     237.614E-03    -247.986E-03     479.389E-03    -231.449E-03     201.310E-03
             360     8.56830E-03     92.9488E-03    -51.2220E+06     19.4514E+06     39.6199E+06    -2.79763E+06    -237.417E-03     469.060E-03    -231.642E-03     255.416E-03    -250.842E-03     482.257E-03    -231.398E-03     215.255E-03
             361     9.28462E-03     93.2985E-03    -42.4760E+06     31.1365E+06     52.6363E+06    -1.40862E+06    -237.611E-03     469.277E-03    -231.666E-03     268.469E-03    -253.210E-03     484.683E-03    -231.386E-03     225.203E-03
             362     9.99629E-03     93.6615E-03    -35.0346E+06     41.6856E+06     64.9389E+06     107.474E+03    -236.771E-03     468.480E-03    -231.708E-03     273.433E-03    -253.874E-03     485.418E-03    -231.393E-03     228.444E-03
             363     10.7104E-03     94.0216E-03    -28.1000E+06     47.1539E+06     72.9579E+06     27.3348E+03    -234.648E-03     466.362E-03    -231.714E-03     268.094E-03    -252.094E-03     483.664E-03    -231.377E-03     223.238E-03
             364     11.4264E-03     94.3641E-03    -21.1491E+06     55.6248E+06     76.7192E+06     -960.68E+03    -232.270E-03     463.923E-03    -231.653E-03     252.422E-03    -248.839E-03     480.392E-03    -231.319E-03     209.248E-03
             365     12.1441E-03     94.6749E-03    -15.1805E+06     67.1074E+06     79.2813E+06    -1.20149E+06    -231.004E-03     462.591E-03    -231.587E-03     224.441E-03    -245.290E-03     476.831E-03    -231.266E-03     184.575E-03
             366     12.8539E-03     94.9407E-03    -10.2805E+06     75.0221E+06     80.9232E+06    -455.423E+03    -230.858E-03     462.429E-03    -231.572E-03     201.388E-03    -243.146E-03     474.713E-03    -231.261E-03     164.169E-03
             367     13.5652E-03     95.1978E-03    -4.92738E+06     75.5070E+06     81.7189E+06    -67.4923E+03    -229.968E-03     461.545E-03    -231.577E-03     144.843E-03    -237.698E-03     469.289E-03    -231.271E-03     116.270E-03
             368     713.633E-06     92.3536E-03    -124.119E+06    -293.799E+06    -122.851E+06     283.900E+03    -232.274E-03     463.900E-03    -231.625E-03     24.6922E-03    -232.382E-03     462.880E-03    -231.634E-03     21.7658E-03
             369     1.42749E-03     92.4009E-03    -121.701E+06    -287.568E+06    -113.440E+06     200.761E+03    -232.063E-03     463.936E-03    -231.873E-03     45.2690E-03    -232.373E-03     463.122E-03    -231.847E-03     39.8913E-03
             370     2.14182E-03     92.4777E-03    -116.663E+06    -279.543E+06    -99.7222E+06    -25.5514E+03    -232.503E-03     464.360E-03    -231.857E-03     66.9874E-03    -233.153E-03     463.893E-03    -231.781E-03     58.8734E-03
             371     2.85524E-03     92.5829E-03    -110.851E+06    -252.161E+06    -86.3368E+06     182.204E+03    -233.161E-03     465.013E-03    -231.852E-03     88.8232E-03    -234.325E-03     465.139E-03    -231.757E-03     77.8445E-03
             372     3.56904E-03     92.7198E-03    -104.915E+06    -215.676E+06    -71.2693E+06     741.418E+03    -233.716E-03     465.565E-03    -231.849E-03     110.755E-03    -235.586E-03     466.504E-03    -231.741E-03     96.7339E-03
             373     4.28278E-03     92.8843E-03    -98.0933E+06    -187.927E+06    -53.8462E+06     1.02592E+06    -234.317E-03     466.165E-03    -231.848E-03     132.809E-03    -237.081E-03     468.070E-03    -231.703E-03     115.519E-03
             374     4.99736E-03     93.0781E-03    -90.2934E+06    -153.463E+06    -36.6826E+06     1.35778E+06    -234.974E-03     466.794E-03    -231.820E-03     154.518E-03    -238.852E-03     469.913E-03    -231.650E-03     133.780E-03
             375     5.71135E-03     93.2994E-03    -82.2779E+06    -111.972E+06    -18.9699E+06     1.36317E+06    -235.636E-03     467.415E-03    -231.779E-03     175.902E-03    -240.889E-03     472.034E-03    -231.593E-03     151.492E-03
             376     6.42655E-03     93.5496E-03    -73.8775E+06    -65.9759E+06    -372.082E+03     787.039E+03    -236.176E-03     467.912E-03    -231.736E-03     196.817E-03    -243.093E-03     474.333E-03    -231.535E-03     168.523E-03
             377     7.14032E-03     93.8248E-03    -64.2213E+06    -16.8419E+06     18.5367E+06     402.302E+03    -236.593E-03     468.280E-03    -231.687E-03     217.172E-03    -245.459E-03     476.804E-03    -231.477E-03     184.876E-03
             378     7.85449E-03     94.1271E-03    -54.7539E+06     12.7712E+06     33.7167E+06     109.359E+03    -237.227E-03     468.889E-03    -231.662E-03     237.021E-03    -248.292E-03     479.707E-03    -231.432E-03     200.677E-03
             379     8.56996E-03     94.4558E-03    -47.9198E+06     21.3934E+06     43.1209E+06    -468.970E+03    -237.859E-03     469.533E-03    -231.674E-03     255.089E-03    -251.269E-03     482.724E-03    -231.420E-03     214.898E-03
             380     9.28114E-03     94.8050E-03    -42.2151E+06     29.7475E+06     52.7879E+06    -796.149E+03    -237.619E-03     469.323E-03    -231.704E-03     269.087E-03    -253.247E-03     484.754E-03    -231.422E-03     225.795E-03
             381     9.99699E-03     95.1681E-03    -35.1250E+06     39.9975E+06     65.0735E+06    -687.665E+03    -236.224E-03     467.941E-03    -231.717E-03     274.587E-03    -253.368E-03     484.914E-03    -231.399E-03     229.659E-03
             382     10.7124E-03     95.5269E-03    -27.1406E+06     49.1060E+06     74.9758E+06    -1.33289E+06    -234.384E-03     466.077E-03    -231.692E-03     267.997E-03    -251.839E-03     483.392E-03    -231.349E-03     223.163E-03
             383     11.4273E-03     95.8675E-03    -19.5952E+06     55.8584E+06     77.6072E+06    -1.73805E+06    -232.898E-03     464.546E-03    -231.648E-03     250.914E-03    -249.435E-03     480.986E-03    -231.312E-03     207.608E-03
             384     12.1384E-03     96.1810E-03    -12.9459E+06     64.9270E+06     78.9212E+06    -605.848E+03    -231.703E-03     463.326E-03    -231.623E-03     224.759E-03    -245.976E-03     477.555E-03    -231.304E-03     184.801E-03
             385     12.8538E-03     96.4519E-03    -7.59004E+06     74.1484E+06     81.6748E+06     551.489E+03    -229.904E-03     461.498E-03    -231.593E-03     203.583E-03    -242.195E-03     473.788E-03    -231.281E-03     166.596E-03
             386     13.5736E-03     96.6969E-03    -2.85706E+06     75.5765E+06     83.1715E+06     787.211E+03    -229.270E-03     460.814E-03    -231.545E-03     145.223E-03    -236.968E-03     468.530E-03    -231.234E-03     116.897E-03
             387     713.553E-06     93.8599E-03    -123.242E+06    -293.817E+06    -121.152E+06    -93.7209E+03    -232.447E-03     463.850E-03    -231.404E-03     24.9026E-03    -232.552E-03     462.827E-03    -231.405E-03     21.9837E-03
             388     1.42737E-03     93.9067E-03    -120.166E+06    -287.728E+06    -112.556E+06     160.399E+03    -232.148E-03     464.015E-03    -231.867E-03     45.2997E-03    -232.452E-03     463.197E-03    -231.838E-03     39.9176E-03
             389     2.14120E-03     93.9825E-03    -115.540E+06    -280.054E+06    -99.4142E+06     557.739E+03    -232.590E-03     464.469E-03    -231.879E-03     67.0877E-03    -233.234E-03     463.997E-03    -231.803E-03     58.9897E-03
             390     2.85511E-03     94.0904E-03    -110.442E+06    -253.255E+06    -85.7272E+06     927.999E+03    -233.062E-03     464.932E-03    -231.870E-03     89.1428E-03    -234.227E-03     465.055E-03    -231.771E-03     78.1676E-03
             391     3.56897E-03     94.2247E-03    -103.665E+06    -216.357E+06    -70.3422E+06     957.831E+03    -233.559E-03     465.392E-03    -231.833E-03     111.224E-03    -235.427E-03     466.328E-03    -231.720E-03     97.2095E-03
             392     4.28374E-03     94.3903E-03    -96.0049E+06    -188.678E+06    -52.9977E+06     979.551E+03    -234.238E-03     466.046E-03    -231.807E-03     132.962E-03    -236.992E-03     467.942E-03    -231.660E-03     115.687E-03
             393     4.99755E-03     94.5834E-03    -87.9780E+06    -154.253E+06    -35.8068E+06     962.172E+03    -235.006E-03     466.785E-03    -231.780E-03     154.355E-03    -238.872E-03     469.896E-03    -231.608E-03     133.604E-03
             394     5.71200E-03     94.8056E-03    -79.7818E+06    -112.824E+06    -17.8609E+06     1.17869E+06    -235.691E-03     467.445E-03    -231.754E-03     175.568E-03    -240.932E-03     472.054E-03    -231.564E-03     151.138E-03
             395     6.42541E-03     95.0543E-03     -71.681E+06    -63.7404E+06     2.02074E+06     968.192E+03    -236.235E-03     467.961E-03    -231.727E-03     196.319E-03    -243.134E-03     474.375E-03    -231.520E-03     168.029E-03
             396     7.14041E-03     95.3307E-03    -64.0539E+06    -15.0775E+06     20.1374E+06    -642.044E+03    -236.882E-03     468.583E-03    -231.701E-03     216.801E-03    -245.749E-03     477.111E-03    -231.486E-03     184.439E-03
             397     7.85470E-03     95.6332E-03    -57.0473E+06     11.0619E+06     32.0628E+06    -317.336E+03    -237.448E-03     469.144E-03    -231.695E-03     236.933E-03    -248.524E-03     479.963E-03    -231.468E-03     200.532E-03
             398     8.56718E-03     95.9619E-03    -49.2337E+06     21.8286E+06     42.5515E+06     1.23647E+06    -237.506E-03     469.204E-03    -231.698E-03     255.695E-03    -250.933E-03     482.410E-03    -231.446E-03     215.582E-03
             399     9.28402E-03     96.3122E-03    -41.3578E+06     32.0834E+06     55.5995E+06     413.919E+03    -237.111E-03     468.808E-03    -231.697E-03     269.699E-03    -252.755E-03     484.257E-03    -231.405E-03     226.508E-03
             400     9.99779E-03     96.6728E-03    -33.5964E+06     41.4440E+06     68.2644E+06    -1.39303E+06    -236.267E-03     467.962E-03    -231.696E-03     273.981E-03    -253.394E-03     484.920E-03    -231.366E-03     229.038E-03
             401     10.7120E-03     97.0325E-03    -26.1467E+06     50.3798E+06     76.7456E+06    -1.98334E+06    -234.864E-03     466.557E-03    -231.692E-03     267.124E-03    -252.300E-03     483.856E-03    -231.344E-03     222.192E-03
             402     11.4248E-03     97.3748E-03    -20.5487E+06     55.1449E+06     77.5141E+06    -1.67788E+06    -233.070E-03     464.735E-03    -231.665E-03     251.943E-03    -249.623E-03     481.186E-03    -231.327E-03     208.653E-03
             403     12.1412E-03     97.6884E-03    -16.1244E+06     62.8142E+06     77.7584E+06    -1.44408E+06    -231.045E-03     462.660E-03    -231.615E-03     226.315E-03    -245.360E-03     476.915E-03    -231.293E-03     186.473E-03
             404     12.8570E-03     97.9535E-03    -10.9791E+06     73.1224E+06     81.1512E+06    -866.146E+03    -230.065E-03     461.637E-03    -231.572E-03     202.117E-03    -242.361E-03     473.918E-03    -231.257E-03     165.029E-03
             405     13.5679E-03     98.2021E-03    -5.76717E+06     74.9142E+06     82.2186E+06    -3.89630E+03    -230.194E-03     461.755E-03    -231.561E-03     143.843E-03    -237.894E-03     469.462E-03    -231.250E-03     115.313E-03
             406     714.130E-06     95.3664E-03    -122.840E+06    -294.589E+06    -121.113E+06     350.995E+03    -231.924E-03     463.610E-03    -231.686E-03     24.3448E-03    -232.026E-03     462.582E-03    -231.686E-03     21.4275E-03
             407     1.42789E-03     95.4120E-03    -119.881E+06    -288.391E+06    -111.661E+06     441.017E+03    -232.161E-03     463.940E-03    -231.779E-03     45.4055E-03    -232.466E-03     463.119E-03    -231.745E-03     40.0113E-03
             408     2.14132E-03     95.4899E-03    -115.577E+06    -281.128E+06    -99.0088E+06     745.530E+03    -232.531E-03     464.345E-03    -231.813E-03     67.5547E-03    -233.178E-03     463.870E-03    -231.733E-03     59.4539E-03
             409     2.85541E-03     95.5944E-03    -109.047E+06    -253.302E+06    -84.5224E+06     404.045E+03    -232.965E-03     464.764E-03    -231.798E-03     89.3831E-03    -234.127E-03     464.884E-03    -231.695E-03     78.4134E-03
             410     3.56997E-03     95.7313E-03    -102.204E+06    -216.743E+06    -69.4899E+06     306.966E+03    -233.636E-03     465.406E-03    -231.770E-03     111.044E-03    -235.497E-03     466.336E-03    -231.655E-03     97.0124E-03
             411     4.28321E-03     95.8952E-03    -95.1527E+06    -188.978E+06    -52.4545E+06     276.009E+03    -234.381E-03     466.157E-03    -231.776E-03     132.653E-03    -237.128E-03     468.047E-03    -231.626E-03     115.359E-03
             412     4.99766E-03     96.0895E-03    -87.6256E+06    -154.626E+06    -35.4079E+06     92.0706E+03    -235.090E-03     466.863E-03    -231.773E-03     154.203E-03    -238.957E-03     469.973E-03    -231.599E-03     133.416E-03
             413     5.71140E-03     96.3109E-03    -79.5941E+06    -113.340E+06    -17.3371E+06     65.9663E+03    -235.777E-03     467.539E-03    -231.762E-03     175.406E-03    -241.012E-03     472.140E-03    -231.569E-03     150.957E-03
             414     6.42639E-03     96.5607E-03    -70.8848E+06    -64.5516E+06     2.23874E+06     647.019E+03    -236.414E-03     468.162E-03    -231.748E-03     196.302E-03    -243.314E-03     474.575E-03    -231.541E-03     167.970E-03
             415     7.13983E-03     96.8364E-03    -63.0713E+06    -14.6494E+06     20.7597E+06     2.75111E+06    -236.904E-03     468.633E-03    -231.729E-03     217.152E-03    -245.778E-03     477.171E-03    -231.512E-03     184.820E-03
             416     7.85340E-03     97.1402E-03    -56.1587E+06     12.7873E+06     34.0050E+06     2.70782E+06    -237.158E-03     468.864E-03    -231.706E-03     237.669E-03    -248.253E-03     479.707E-03    -231.473E-03     201.355E-03
             417     8.56963E-03     97.4671E-03    -49.0146E+06     22.3008E+06     44.3492E+06     429.917E+03    -237.361E-03     469.046E-03    -231.685E-03     256.121E-03    -250.806E-03     482.267E-03    -231.425E-03     216.008E-03
             418     9.28278E-03     97.8167E-03    -40.9232E+06     33.3327E+06     57.6457E+06    -173.931E+03    -237.262E-03     468.948E-03    -231.686E-03     269.055E-03    -252.879E-03     484.371E-03    -231.387E-03     225.859E-03
             419     9.99752E-03     98.1798E-03    -34.0736E+06     44.4360E+06     69.8700E+06    -120.144E+03    -236.397E-03     468.095E-03    -231.698E-03     273.658E-03    -253.507E-03     485.039E-03    -231.364E-03     228.750E-03
             420     10.7110E-03     98.5392E-03    -29.3596E+06     52.0996E+06     76.5217E+06    -947.952E+03    -234.706E-03     466.393E-03    -231.687E-03     267.944E-03    -252.164E-03     483.710E-03    -231.338E-03     223.098E-03
             421     11.4273E-03     98.8800E-03    -23.8466E+06     55.4619E+06     77.2110E+06    -1.93550E+06    -232.751E-03     464.394E-03    -231.643E-03     252.030E-03    -249.327E-03     480.858E-03    -231.302E-03     208.777E-03
             422     12.1415E-03     99.1925E-03    -17.6081E+06     62.5373E+06     78.5887E+06    -1.79603E+06    -231.578E-03     463.187E-03    -231.610E-03     224.748E-03    -245.873E-03     477.414E-03    -231.282E-03     184.800E-03
             423     12.8541E-03     99.4607E-03    -10.9460E+06     72.6943E+06     82.2211E+06    -1.80516E+06    -230.937E-03     462.553E-03    -231.615E-03     201.714E-03    -243.248E-03     474.844E-03    -231.293E-03     164.425E-03
             424     13.5689E-03     99.7127E-03    -4.85167E+06     73.2113E+06     82.5484E+06    -1.85734E+06    -229.659E-03     461.268E-03    -231.609E-03     144.611E-03    -237.388E-03     469.000E-03    -231.296E-03     116.039E-03
             425     713.510E-06     96.8705E-03    -124.357E+06    -295.339E+06    -121.615E+06    -17.5594E+03    -231.490E-03     463.356E-03    -231.866E-03     24.8879E-03    -231.599E-03     462.328E-03    -231.865E-03     21.9538E-03
             426     1.42753E-03     96.9187E-03    -120.864E+06    -289.154E+06    -112.420E+06     238.865E+03    -232.069E-03     463.724E-03    -231.656E-03     45.5691E-03    -232.375E-03     462.902E-03    -231.623E-03     40.1775E-03
             427     2.14211E-03     96.9939E-03    -115.424E+06    -280.907E+06    -98.6963E+06    -163.501E+03    -232.514E-03     464.231E-03    -231.717E-03     67.1213E-03    -233.158E-03     463.754E-03    -231.636E-03     59.0134E-03
             428     2.85595E-03     97.1013E-03    -109.356E+06    -253.591E+06    -85.1082E+06    -108.407E+03    -233.102E-03     464.843E-03    -231.742E-03     88.9729E-03    -234.258E-03     464.958E-03    -231.641E-03     78.0072E-03
             429     3.56911E-03     97.2361E-03    -103.225E+06    -216.880E+06    -69.8478E+06    -65.0945E+03    -233.733E-03     465.488E-03    -231.755E-03     110.839E-03    -235.596E-03     466.417E-03    -231.640E-03     96.8045E-03
             430     4.28383E-03     97.4018E-03    -96.3027E+06    -188.705E+06    -52.5591E+06    -186.219E+03    -234.429E-03     466.208E-03    -231.779E-03     132.615E-03    -237.184E-03     468.104E-03    -231.629E-03     115.297E-03
             431     4.99737E-03     97.5948E-03    -89.0974E+06    -154.433E+06    -35.5264E+06    -169.011E+03    -235.145E-03     466.931E-03    -231.786E-03     154.182E-03    -239.018E-03     470.042E-03    -231.610E-03     133.392E-03
             432     5.71186E-03     97.8172E-03    -81.8696E+06    -112.623E+06    -18.0365E+06    -433.456E+03    -235.807E-03     467.585E-03    -231.777E-03     175.451E-03    -241.057E-03     472.197E-03    -231.586E-03     150.981E-03
             433     6.42511E-03     98.0659E-03    -74.8717E+06    -68.0081E+06    -441.920E+03    -75.5056E+03    -236.354E-03     468.113E-03    -231.758E-03     196.604E-03    -243.273E-03     474.525E-03    -231.553E-03     168.260E-03
             434     7.13978E-03     98.3433E-03    -66.0529E+06    -19.2282E+06     17.5056E+06     1.00052E+06    -236.658E-03     468.375E-03    -231.717E-03     217.462E-03    -245.541E-03     476.905E-03    -231.506E-03     185.139E-03
             435     7.85552E-03     98.6447E-03    -55.7511E+06     13.3921E+06     33.0860E+06     2.37677E+06    -237.069E-03     468.749E-03    -231.679E-03     237.328E-03    -248.154E-03     479.587E-03    -231.453E-03     201.008E-03
             436     8.56868E-03     98.9734E-03    -47.6636E+06     26.7078E+06     45.5024E+06     2.24402E+06    -237.548E-03     469.221E-03    -231.674E-03     255.435E-03    -250.973E-03     482.440E-03    -231.416E-03     215.324E-03
             437     9.28323E-03     99.3239E-03    -41.9986E+06     34.3151E+06     55.9833E+06     672.819E+03    -237.305E-03     468.987E-03    -231.682E-03     269.169E-03    -252.926E-03     484.418E-03    -231.391E-03     225.990E-03
             438     9.99704E-03     99.6849E-03    -35.4585E+06     44.4994E+06     67.8488E+06     623.103E+03    -236.127E-03     467.808E-03    -231.682E-03     274.111E-03    -253.246E-03     484.763E-03    -231.356E-03     229.272E-03
             439     10.7133E-03     100.045E-03    -26.9554E+06     55.1466E+06     78.9399E+06     790.733E+03    -234.571E-03     466.240E-03    -231.669E-03     267.503E-03    -252.007E-03     483.548E-03    -231.315E-03     222.710E-03
             440     11.4263E-03     100.386E-03    -19.0221E+06     58.1807E+06     81.4498E+06    -31.4737E+03    -233.359E-03     465.011E-03    -231.651E-03     251.357E-03    -249.923E-03     481.477E-03    -231.301E-03     208.007E-03
             441     12.1398E-03     100.700E-03    -12.6011E+06     62.5206E+06     81.5121E+06    -630.975E+03    -231.967E-03     463.613E-03    -231.646E-03     225.378E-03    -246.269E-03     477.856E-03    -231.311E-03     185.365E-03
             442     12.8539E-03     100.969E-03    -7.42002E+06     73.3133E+06     84.0709E+06    -1.15159E+06    -230.211E-03     461.841E-03    -231.630E-03     203.224E-03    -242.549E-03     474.169E-03    -231.305E-03     166.045E-03
             443     13.5689E-03     101.214E-03    -3.73887E+06     73.3465E+06     83.7660E+06    -1.28298E+06    -229.289E-03     460.878E-03    -231.589E-03     144.933E-03    -237.034E-03     468.627E-03    -231.271E-03     116.435E-03
             444     714.631E-06     98.3763E-03    -123.970E+06    -295.064E+06    -122.082E+06    -165.139E+03    -231.728E-03     463.216E-03    -231.488E-03     24.8391E-03    -231.833E-03     462.188E-03    -231.491E-03     21.9584E-03
             445     1.42839E-03     98.4235E-03    -120.610E+06    -289.105E+06    -113.074E+06    -476.995E+03    -232.188E-03     463.810E-03    -231.622E-03     45.2986E-03    -232.491E-03     462.986E-03    -231.593E-03     39.9178E-03
             446     2.14140E-03     98.5004E-03    -115.870E+06    -281.108E+06    -99.5350E+06    -198.792E+03    -232.637E-03     464.377E-03    -231.740E-03     66.8699E-03    -233.281E-03     463.901E-03    -231.662E-03     58.7506E-03
             447     2.85521E-03     98.6061E-03    -110.556E+06    -253.594E+06    -85.6769E+06    -50.4379E+03    -233.066E-03     464.844E-03    -231.778E-03     88.8775E-03    -234.229E-03     464.963E-03    -231.678E-03     77.8985E-03
             448     3.56991E-03     98.7427E-03    -104.119E+06    -216.635E+06    -70.3085E+06    -28.4227E+03    -233.648E-03     465.421E-03    -231.773E-03     110.857E-03    -235.515E-03     466.353E-03    -231.659E-03     96.8265E-03
             449     4.28311E-03     98.9069E-03    -97.3968E+06    -188.886E+06    -53.2451E+06     126.869E+03    -234.413E-03     466.198E-03    -231.785E-03     132.707E-03    -237.172E-03     468.095E-03    -231.636E-03     115.398E-03
             450     4.99756E-03     99.1013E-03    -90.4447E+06    -154.405E+06    -36.3225E+06     436.683E+03    -235.138E-03     466.925E-03    -231.787E-03     154.298E-03    -239.019E-03     470.042E-03    -231.613E-03     133.516E-03
             451     5.71116E-03     99.3225E-03    -83.3892E+06    -112.867E+06    -19.0848E+06     1.07362E+06    -235.766E-03     467.539E-03    -231.773E-03     175.708E-03    -241.028E-03     472.159E-03    -231.584E-03     151.256E-03
             452     6.42619E-03     99.5727E-03    -75.3970E+06    -67.3032E+06    -548.961E+03     772.237E+03    -236.266E-03     468.013E-03    -231.747E-03     196.666E-03    -243.185E-03     474.428E-03    -231.543E-03     168.355E-03
             453     7.14057E-03     99.8477E-03    -67.5203E+06    -19.4387E+06     17.5086E+06    -488.307E+03    -236.747E-03     468.459E-03    -231.713E-03     217.056E-03    -245.628E-03     476.981E-03    -231.499E-03     184.704E-03
             454     7.85367E-03     100.151E-03    -60.6097E+06     9.40141E+06     29.1882E+06    -574.282E+03    -237.308E-03     468.993E-03    -231.686E-03     237.214E-03    -248.410E-03     479.829E-03    -231.466E-03     200.803E-03
             455     8.56843E-03     100.479E-03    -52.8462E+06     26.4692E+06     39.7085E+06     179.963E+03    -237.415E-03     469.087E-03    -231.671E-03     255.623E-03    -250.863E-03     482.325E-03    -231.434E-03     215.487E-03
             456     9.28304E-03     100.829E-03    -43.6917E+06     36.7243E+06     53.0037E+06    -69.0340E+03    -237.028E-03     468.697E-03    -231.669E-03     269.023E-03    -252.646E-03     484.136E-03    -231.394E-03     225.869E-03
             457     9.99846E-03     101.191E-03    -34.0801E+06     43.7081E+06     67.4382E+06    -1.35497E+06    -236.252E-03     467.933E-03    -231.681E-03     273.362E-03    -253.348E-03     484.868E-03    -231.358E-03     228.451E-03
             458     10.7111E-03     101.550E-03    -25.3567E+06     53.6811E+06     78.6247E+06    -1.41063E+06    -234.875E-03     466.568E-03    -231.692E-03     266.884E-03    -252.297E-03     483.862E-03    -231.340E-03     221.966E-03
             459     11.4264E-03     101.893E-03    -18.2781E+06     58.1120E+06     80.9123E+06    -403.859E+03    -233.066E-03     464.738E-03    -231.673E-03     251.887E-03    -249.631E-03     481.210E-03    -231.326E-03     208.567E-03
             460     12.1402E-03     102.208E-03    -12.9306E+06     63.0925E+06     81.0714E+06    -169.562E+03    -231.041E-03     462.667E-03    -231.626E-03     226.073E-03    -245.354E-03     476.923E-03    -231.294E-03     186.207E-03
             461     12.8561E-03     102.471E-03    -8.88069E+06     74.0924E+06     83.1372E+06     37.5304E+03    -229.942E-03     461.513E-03    -231.571E-03     203.480E-03    -242.265E-03     473.827E-03    -231.250E-03     166.440E-03
             462     13.5705E-03     102.724E-03    -4.86066E+06     73.4957E+06     83.4533E+06    -23.2203E+03    -230.028E-03     461.574E-03    -231.546E-03     144.534E-03    -237.749E-03     469.297E-03    -231.229E-03     116.061E-03
             463     713.415E-06     99.8813E-03    -123.429E+06    -294.297E+06    -121.818E+06    -225.943E+03    -232.214E-03     463.777E-03    -231.564E-03     24.4793E-03    -232.317E-03     462.751E-03    -231.567E-03     21.6114E-03
             464     1.42723E-03     99.9295E-03    -121.095E+06    -289.137E+06    -113.240E+06     12.5947E+03    -232.040E-03     463.861E-03    -231.820E-03     45.0710E-03    -232.345E-03     463.038E-03    -231.792E-03     39.6828E-03
             465     2.14173E-03     100.006E-03    -116.529E+06    -281.099E+06    -99.7823E+06     12.3538E+03    -232.442E-03     464.251E-03    -231.809E-03     67.0449E-03    -233.090E-03     463.777E-03    -231.731E-03     58.9301E-03
             466     2.85557E-03     100.112E-03    -110.507E+06    -253.361E+06    -85.8938E+06     91.7360E+03    -233.017E-03     464.808E-03    -231.791E-03     89.1671E-03    -234.183E-03     464.932E-03    -231.693E-03     78.1832E-03
             467     3.56899E-03     100.248E-03    -104.339E+06    -217.167E+06    -70.8616E+06     362.563E+03    -233.667E-03     465.443E-03    -231.776E-03     111.062E-03    -235.536E-03     466.375E-03    -231.664E-03     97.0340E-03
             468     4.28382E-03     100.413E-03    -97.5517E+06    -189.338E+06    -53.8546E+06     729.888E+03    -234.381E-03     466.164E-03    -231.783E-03     132.746E-03    -237.135E-03     468.056E-03    -231.637E-03     115.470E-03
             469     4.99741E-03     100.607E-03    -90.1637E+06    -155.427E+06    -36.8434E+06     1.19703E+06    -235.115E-03     466.896E-03    -231.781E-03     154.313E-03    -238.993E-03     470.009E-03    -231.609E-03     133.539E-03
             470     5.71207E-03     100.829E-03    -81.8586E+06    -114.146E+06    -18.8930E+06     1.57271E+06    -235.799E-03     467.570E-03    -231.771E-03     175.415E-03    -241.048E-03     472.178E-03    -231.581E-03     150.961E-03
             471     6.42562E-03     101.077E-03    -73.7812E+06    -65.7478E+06     660.520E+03     1.63543E+06    -236.332E-03     468.089E-03    -231.756E-03     196.147E-03    -243.239E-03     474.498E-03    -231.551E-03     167.841E-03
             472     7.13956E-03     101.354E-03    -65.9588E+06    -17.7071E+06     18.7100E+06     1.73647E+06    -236.815E-03     468.545E-03    -231.730E-03     217.067E-03    -245.694E-03     477.073E-03    -231.515E-03     184.736E-03
             473     7.85467E-03     101.657E-03    -57.2276E+06     10.8497E+06     31.7139E+06     1.14842E+06    -237.203E-03     468.905E-03    -231.701E-03     237.579E-03    -248.301E-03     479.745E-03    -231.475E-03     201.215E-03
             474     8.56880E-03     101.985E-03    -47.9654E+06     26.9126E+06     44.9088E+06    -113.398E+03    -237.422E-03     469.112E-03    -231.690E-03     255.678E-03    -250.846E-03     482.331E-03    -231.435E-03     215.573E-03
             475     9.28317E-03     102.334E-03    -38.9848E+06     37.6494E+06     59.1382E+06    -768.488E+03    -237.289E-03     468.988E-03    -231.699E-03     268.952E-03    -252.885E-03     484.408E-03    -231.402E-03     225.791E-03
             476     9.99642E-03     102.697E-03    -31.7589E+06     45.3794E+06     70.4639E+06    -982.322E+03    -236.463E-03     468.175E-03    -231.711E-03     273.841E-03    -253.573E-03     485.128E-03    -231.379E-03     228.904E-03
             477     10.7119E-03     103.057E-03    -26.3750E+06     52.4822E+06     77.6314E+06    -734.721E+03    -234.789E-03     466.496E-03    -231.707E-03     267.858E-03    -252.258E-03     483.833E-03    -231.357E-03     222.930E-03
             478     11.4250E-03     103.398E-03    -21.6903E+06     57.5762E+06     78.3010E+06    -442.506E+03    -232.477E-03     464.131E-03    -231.654E-03     252.328E-03    -249.061E-03     480.616E-03    -231.315E-03     209.114E-03
             479     12.1420E-03     103.710E-03    -15.5066E+06     64.0536E+06     78.9943E+06    -1.27895E+06    -230.992E-03     462.580E-03    -231.588E-03     225.703E-03    -245.292E-03     476.823E-03    -231.263E-03     185.856E-03
             480     12.8558E-03     103.979E-03    -8.65766E+06     72.0009E+06     82.3837E+06    -1.00398E+06    -230.494E-03     462.056E-03    -231.561E-03     201.960E-03    -242.779E-03     474.326E-03    -231.241E-03     164.793E-03
             481     13.5700E-03     104.228E-03    -3.98486E+06     72.0649E+06     82.8143E+06     648.364E+03    -230.137E-03     461.698E-03    -231.561E-03     143.458E-03    -237.820E-03     469.383E-03    -231.246E-03     114.976E-03
             482     713.451E-06     101.388E-03    -123.907E+06    -295.104E+06    -121.724E+06     685.776E+03    -232.292E-03     463.939E-03    -231.647E-03     24.8283E-03    -232.398E-03     462.911E-03    -231.648E-03     21.9271E-03
             483     1.42754E-03     101.435E-03    -120.872E+06    -288.896E+06    -112.553E+06     269.768E+03    -232.007E-03     463.882E-03    -231.875E-03     45.6517E-03    -232.314E-03     463.061E-03    -231.843E-03     40.2653E-03
             484     2.14130E-03     101.511E-03    -115.878E+06    -280.901E+06    -99.5019E+06     238.310E+03    -232.475E-03     464.311E-03    -231.836E-03     67.1353E-03    -233.121E-03     463.836E-03    -231.758E-03     59.0221E-03
             485     2.85558E-03     101.618E-03    -110.366E+06    -253.975E+06    -85.8374E+06     449.414E+03    -233.043E-03     464.864E-03    -231.821E-03     88.7783E-03    -234.205E-03     464.981E-03    -231.722E-03     77.7943E-03
             486     3.56993E-03     101.754E-03    -103.835E+06    -217.612E+06    -70.6973E+06     421.266E+03    -233.652E-03     465.458E-03    -231.806E-03     110.708E-03    -235.514E-03     466.383E-03    -231.693E-03     96.6831E-03
             487     4.28308E-03     101.918E-03    -96.6688E+06    -190.481E+06    -53.7458E+06     634.495E+03    -234.386E-03     466.197E-03    -231.811E-03     132.482E-03    -237.133E-03     468.081E-03    -231.663E-03     115.194E-03
             488     4.99768E-03     102.113E-03    -88.9132E+06    -156.260E+06    -36.5752E+06     834.610E+03    -235.124E-03     466.932E-03    -231.808E-03     153.984E-03    -238.987E-03     470.032E-03    -231.636E-03     133.214E-03
             489     5.71108E-03     102.334E-03    -81.1472E+06    -115.107E+06    -18.7326E+06     873.004E+03    -235.762E-03     467.557E-03    -231.796E-03     175.326E-03    -241.003E-03     472.157E-03    -231.605E-03     150.873E-03
             490     6.42549E-03     102.584E-03    -72.8322E+06    -67.7833E+06     405.209E+03     2.05421E+06    -236.299E-03     468.070E-03    -231.771E-03     196.482E-03    -243.202E-03     474.473E-03    -231.565E-03     168.190E-03
             491     7.14020E-03     102.860E-03    -63.7882E+06    -16.9105E+06     19.6972E+06     2.20493E+06    -236.788E-03     468.524E-03    -231.735E-03     217.385E-03    -245.663E-03     477.055E-03    -231.520E-03     185.073E-03
             492     7.85401E-03     103.163E-03    -54.8749E+06     13.7619E+06     34.1377E+06     105.543E+03    -237.232E-03     468.941E-03    -231.709E-03     237.291E-03    -248.318E-03     479.782E-03    -231.479E-03     200.904E-03
             493     8.56873E-03     103.490E-03    -46.7439E+06     27.8140E+06     45.1414E+06    -673.508E+03    -237.415E-03     469.111E-03    -231.696E-03     255.319E-03    -250.831E-03     482.328E-03    -231.443E-03     215.191E-03
             494     9.28276E-03     103.841E-03    -40.1988E+06     38.5868E+06     56.6680E+06    -479.577E+03    -237.175E-03     468.867E-03    -231.692E-03     269.148E-03    -252.785E-03     484.307E-03    -231.406E-03     225.988E-03
             495     9.99810E-03     104.202E-03    -34.0189E+06     44.3262E+06     68.3506E+06     144.754E+03    -236.207E-03     467.900E-03    -231.692E-03     274.397E-03    -253.325E-03     484.856E-03    -231.366E-03     229.547E-03
             496     10.7115E-03     104.563E-03    -26.7419E+06     51.2486E+06     77.9327E+06     1.21629E+06    -234.450E-03     466.122E-03    -231.673E-03     268.141E-03    -251.909E-03     483.443E-03    -231.319E-03     223.353E-03
             497     11.4279E-03     104.903E-03    -18.8047E+06     61.0822E+06     81.8983E+06     278.677E+03    -232.988E-03     464.620E-03    -231.632E-03     251.843E-03    -249.570E-03     481.115E-03    -231.284E-03     208.538E-03
             498     12.1407E-03     105.216E-03    -13.1007E+06     66.4875E+06     81.9911E+06    -851.819E+03    -231.875E-03     463.487E-03    -231.612E-03     225.201E-03    -246.179E-03     477.743E-03    -231.280E-03     185.193E-03
             499     12.8546E-03     105.487E-03    -9.69922E+06     69.1290E+06     81.6833E+06    -351.742E+03    -230.453E-03     462.058E-03    -231.605E-03     202.117E-03    -242.754E-03     474.333E-03    -231.283E-03     164.952E-03
             500     13.5679E-03     105.734E-03    -4.80214E+06     70.8001E+06     82.1338E+06     319.879E+03    -229.481E-03     461.062E-03    -231.581E-03     144.856E-03    -237.199E-03     468.776E-03    -231.266E-03     116.396E-03
             501     714.154E-06     102.894E-03    -123.300E+06    -295.649E+06    -122.023E+06    -207.214E+03    -232.049E-03     463.672E-03    -231.623E-03     24.2251E-03    -232.149E-03     462.639E-03    -231.626E-03     21.3155E-03
             502     1.42786E-03     102.940E-03    -120.166E+06    -289.017E+06    -112.779E+06     92.8399E+03    -232.236E-03     464.053E-03    -231.817E-03     45.1250E-03    -232.537E-03     463.229E-03    -231.787E-03     39.7447E-03
             503     2.14166E-03     103.017E-03    -115.978E+06    -281.487E+06    -99.3767E+06     437.952E+03    -232.648E-03     464.526E-03    -231.878E-03     67.0218E-03    -233.294E-03     464.049E-03    -231.799E-03     58.8983E-03
             504     2.85481E-03     103.124E-03    -109.675E+06    -254.330E+06    -85.2003E+06     180.838E+03    -233.124E-03     465.012E-03    -231.888E-03     88.9352E-03    -234.284E-03     465.127E-03    -231.786E-03     77.9399E-03
             505     3.56854E-03     103.259E-03    -103.008E+06    -217.981E+06    -70.1430E+06     281.911E+03    -233.699E-03     465.569E-03    -231.870E-03     110.761E-03    -235.558E-03     466.492E-03    -231.756E-03     96.7283E-03
             506     4.28344E-03     103.425E-03    -96.1647E+06    -190.692E+06    -53.1735E+06     321.220E+03    -234.367E-03     466.234E-03    -231.867E-03     132.502E-03    -237.112E-03     468.115E-03    -231.717E-03     115.217E-03
             507     4.99672E-03     103.618E-03    -88.8097E+06    -156.664E+06    -36.2752E+06     275.109E+03    -235.009E-03     466.853E-03    -231.845E-03     154.247E-03    -238.873E-03     469.952E-03    -231.670E-03     133.489E-03
             508     5.71156E-03     103.840E-03    -80.6843E+06    -115.944E+06    -18.4176E+06     606.196E+03    -235.637E-03     467.446E-03    -231.809E-03     175.612E-03    -240.875E-03     472.040E-03    -231.616E-03     151.183E-03
             509     6.42594E-03     104.089E-03    -71.9611E+06    -70.0059E+06     378.487E+03     488.039E+03    -236.320E-03     468.093E-03    -231.774E-03     196.445E-03    -243.213E-03     474.482E-03    -231.566E-03     168.133E-03
             510     7.13983E-03     104.366E-03    -62.8424E+06    -17.0024E+06     20.1605E+06     345.396E+03    -236.856E-03     468.599E-03    -231.743E-03     217.108E-03    -245.721E-03     477.122E-03    -231.527E-03     184.757E-03
             511     7.85443E-03     104.669E-03    -54.3869E+06     15.8240E+06     35.4078E+06     577.905E+03    -237.200E-03     468.921E-03    -231.720E-03     237.423E-03    -248.288E-03     479.769E-03    -231.487E-03     201.063E-03
             512     8.56799E-03     104.997E-03    -47.4287E+06     27.8707E+06     45.6904E+06     643.867E+03    -237.354E-03     469.054E-03    -231.700E-03     255.762E-03    -250.787E-03     482.285E-03    -231.443E-03     215.663E-03
             513     9.28325E-03     105.345E-03    -40.1020E+06     38.7492E+06     57.3091E+06     1.16305E+06    -237.015E-03     468.698E-03    -231.683E-03     269.392E-03    -252.636E-03     484.148E-03    -231.394E-03     226.263E-03
             514     9.99705E-03     105.709E-03    -32.4289E+06     44.4861E+06     69.2569E+06     1.28645E+06    -235.974E-03     467.644E-03    -231.670E-03     274.055E-03    -253.072E-03     484.584E-03    -231.341E-03     229.251E-03
             515     10.7134E-03     106.067E-03    -24.9191E+06     51.4153E+06     78.6661E+06     85.5376E+03    -234.747E-03     466.405E-03    -231.657E-03     267.355E-03    -252.174E-03     483.698E-03    -231.303E-03     222.490E-03
             516     11.4262E-03     106.410E-03    -18.5481E+06     61.7066E+06     82.1337E+06     218.409E+03    -233.519E-03     465.167E-03    -231.649E-03     251.273E-03    -250.085E-03     481.648E-03    -231.301E-03     207.873E-03
             517     12.1399E-03     106.724E-03    -13.2231E+06     66.6792E+06     82.8315E+06     1.76867E+06    -231.656E-03     463.300E-03    -231.644E-03     225.285E-03    -245.947E-03     477.540E-03    -231.307E-03     185.384E-03
             518     12.8544E-03     106.991E-03    -8.08332E+06     70.3746E+06     84.2160E+06     1.65152E+06    -229.950E-03     461.567E-03    -231.616E-03     202.695E-03    -242.240E-03     473.833E-03    -231.286E-03     165.693E-03
             519     13.5714E-03     107.239E-03    -3.73343E+06     71.7282E+06     84.0668E+06     756.113E+03    -229.622E-03     461.198E-03    -231.576E-03     144.628E-03    -237.326E-03     468.900E-03    -231.254E-03     116.220E-03
             520     713.572E-06     104.400E-03    -123.833E+06    -295.486E+06    -120.765E+06     283.497E+03    -231.952E-03     463.880E-03    -231.928E-03     24.2071E-03    -232.058E-03     462.848E-03    -231.924E-03     21.3014E-03
             521     1.42716E-03     104.447E-03    -120.816E+06    -289.364E+06    -112.241E+06     160.368E+03    -232.265E-03     464.174E-03    -231.910E-03     45.1939E-03    -232.571E-03     463.350E-03    -231.876E-03     39.7891E-03
             522     2.14086E-03     104.523E-03    -115.308E+06    -281.437E+06    -98.8875E+06    -180.942E+03    -232.584E-03     464.517E-03    -231.934E-03     67.0763E-03    -233.227E-03     464.039E-03    -231.853E-03     58.9432E-03
             523     2.85558E-03     104.629E-03    -109.603E+06    -254.610E+06    -85.1912E+06     155.947E+03    -233.085E-03     464.998E-03    -231.912E-03     89.0550E-03    -234.244E-03     465.111E-03    -231.810E-03     78.0772E-03
             524     3.56948E-03     104.766E-03    -103.442E+06    -218.218E+06    -69.8392E+06     243.510E+03    -233.714E-03     465.599E-03    -231.886E-03     111.087E-03    -235.577E-03     466.524E-03    -231.769E-03     97.0599E-03
             525     4.28247E-03     104.930E-03    -96.2773E+06    -190.425E+06    -52.6849E+06     65.5376E+03    -234.347E-03     466.223E-03    -231.875E-03     132.902E-03    -237.098E-03     468.108E-03    -231.723E-03     115.614E-03
             526     4.99760E-03     105.124E-03    -88.5272E+06    -156.751E+06    -35.7772E+06    -124.908E+03    -235.003E-03     466.851E-03    -231.848E-03     154.321E-03    -238.869E-03     469.949E-03    -231.671E-03     133.551E-03
             527     5.71142E-03     105.346E-03    -80.6041E+06    -116.580E+06    -18.4208E+06    -317.394E+03    -235.722E-03     467.537E-03    -231.815E-03     175.418E-03    -240.954E-03     472.122E-03    -231.622E-03     150.972E-03
             528     6.42534E-03     105.596E-03    -72.7717E+06    -69.3233E+06     360.822E+03    -555.458E+03    -236.372E-03     468.160E-03    -231.788E-03     196.526E-03    -243.277E-03     474.560E-03    -231.580E-03     168.180E-03
             529     7.13964E-03     105.872E-03    -64.9555E+06    -17.5548E+06     19.0959E+06    -955.834E+03    -236.771E-03     468.524E-03    -231.753E-03     217.349E-03    -245.653E-03     477.057E-03    -231.538E-03     184.973E-03
             530     7.85383E-03     106.174E-03    -56.8760E+06     13.3470E+06     32.7863E+06    -235.124E+03    -236.991E-03     468.701E-03    -231.710E-03     237.397E-03    -248.068E-03     479.529E-03    -231.483E-03     201.088E-03
             531     8.56959E-03     106.503E-03    -48.2970E+06     27.2080E+06     44.7998E+06     948.787E+03    -237.206E-03     468.884E-03    -231.679E-03     255.706E-03    -250.631E-03     482.105E-03    -231.424E-03     215.647E-03
             532     9.28299E-03     106.853E-03    -40.6058E+06     38.1167E+06     58.1189E+06     1.10459E+06    -237.067E-03     468.736E-03    -231.669E-03     269.165E-03    -252.697E-03     484.189E-03    -231.375E-03     226.004E-03
             533     9.99864E-03     107.213E-03    -33.2188E+06     45.8943E+06     70.1133E+06     257.935E+03    -236.408E-03     468.085E-03    -231.677E-03     273.640E-03    -253.519E-03     485.038E-03    -231.345E-03     228.719E-03
             534     10.7114E-03     107.574E-03    -26.6496E+06     52.3815E+06     77.8815E+06     74.8216E+03    -235.160E-03     466.851E-03    -231.691E-03     267.354E-03    -252.592E-03     484.148E-03    -231.338E-03     222.425E-03
             535     11.4256E-03     107.917E-03    -21.5722E+06     58.9527E+06     79.1272E+06     1.14485E+06    -233.125E-03     464.798E-03    -231.674E-03     251.914E-03    -249.698E-03     481.275E-03    -231.332E-03     208.622E-03
             536     12.1406E-03     108.229E-03    -16.1459E+06     65.5461E+06     79.6332E+06     1.37460E+06    -231.097E-03     462.729E-03    -231.633E-03     225.268E-03    -245.398E-03     476.975E-03    -231.306E-03     185.433E-03
             537     12.8562E-03     108.497E-03    -10.5225E+06     71.6299E+06     81.8271E+06     489.606E+03    -230.103E-03     461.699E-03    -231.596E-03     202.198E-03    -242.410E-03     473.986E-03    -231.275E-03     165.072E-03
             538     13.5678E-03     108.746E-03    -5.01739E+06     73.0478E+06     82.9451E+06     286.098E+03    -229.432E-03     460.995E-03    -231.563E-03     144.824E-03    -237.158E-03     468.723E-03    -231.247E-03     116.354E-03
             539     713.729E-06     105.906E-03    -123.822E+06    -295.941E+06    -121.737E+06     346.702E+03    -231.914E-03     463.839E-03    -231.924E-03     24.7821E-03    -232.020E-03     462.807E-03    -231.924E-03     21.8539E-03
             540     1.42766E-03     105.953E-03    -120.356E+06    -289.119E+06    -112.117E+06     179.592E+03    -232.216E-03     464.095E-03    -231.879E-03     45.5430E-03    -232.522E-03     463.272E-03    -231.846E-03     40.1412E-03
             541     2.14161E-03     106.029E-03    -116.012E+06    -281.657E+06    -99.1918E+06     443.751E+03    -232.657E-03     464.567E-03    -231.910E-03     67.2542E-03    -233.304E-03     464.090E-03    -231.830E-03     59.1362E-03
             542     2.85463E-03     106.135E-03    -110.219E+06    -254.365E+06    -84.8225E+06     207.517E+03    -233.096E-03     465.005E-03    -231.909E-03     89.0942E-03    -234.260E-03     465.121E-03    -231.805E-03     78.1081E-03
             543     3.56879E-03     106.271E-03    -103.474E+06    -218.027E+06    -69.5987E+06        -418.945    -233.588E-03     465.462E-03    -231.874E-03     110.921E-03    -235.449E-03     466.384E-03    -231.756E-03     96.9032E-03
             544     4.28391E-03     106.436E-03    -96.4150E+06    -190.406E+06    -52.8211E+06    -129.369E+03    -234.340E-03     466.194E-03    -231.854E-03     132.706E-03    -237.088E-03     468.077E-03    -231.702E-03     115.420E-03
             545     4.99689E-03     106.630E-03    -89.0302E+06    -156.480E+06    -36.0021E+06    -412.438E+03    -235.131E-03     466.970E-03    -231.839E-03     154.285E-03    -238.998E-03     470.070E-03    -231.663E-03     133.504E-03
             546     5.71113E-03     106.852E-03    -81.6046E+06    -115.491E+06    -18.4759E+06    -684.889E+03    -235.784E-03     467.604E-03    -231.819E-03     175.705E-03    -241.033E-03     472.206E-03    -231.626E-03     151.234E-03
             547     6.42559E-03     107.101E-03    -73.4411E+06    -69.0895E+06     34.3451E+03    -855.067E+03    -236.291E-03     468.079E-03    -231.788E-03     196.852E-03    -243.207E-03     474.488E-03    -231.581E-03     168.499E-03
             548     7.13999E-03     107.378E-03    -64.9453E+06    -17.6364E+06     19.1590E+06    -207.982E+03    -236.661E-03     468.402E-03    -231.742E-03     217.413E-03    -245.539E-03     476.932E-03    -231.526E-03     185.077E-03
             549     7.85467E-03     107.680E-03    -56.9636E+06     12.9427E+06     33.5839E+06     134.069E+03    -237.040E-03     468.742E-03    -231.702E-03     237.352E-03    -248.132E-03     479.580E-03    -231.470E-03     201.008E-03
             550     8.56797E-03     108.008E-03    -50.1976E+06     24.6086E+06     43.5891E+06     449.804E+03    -237.283E-03     468.958E-03    -231.675E-03     255.556E-03    -250.716E-03     482.174E-03    -231.420E-03     215.462E-03
             551     9.28392E-03     108.358E-03    -43.3025E+06     37.9955E+06     55.8238E+06     885.909E+03    -237.318E-03     468.992E-03    -231.674E-03     268.782E-03    -252.938E-03     484.431E-03    -231.387E-03     225.595E-03
             552     9.99672E-03     108.720E-03    -36.8234E+06     48.5792E+06     68.3421E+06     255.895E+03    -236.654E-03     468.356E-03    -231.702E-03     273.580E-03    -253.786E-03     485.332E-03    -231.378E-03     228.605E-03
             553     10.7114E-03     109.081E-03    -30.5686E+06     51.5829E+06     75.6304E+06    -441.980E+03    -234.741E-03     466.452E-03    -231.711E-03     267.809E-03    -252.196E-03     483.762E-03    -231.363E-03     222.958E-03
             554     11.4264E-03     109.422E-03    -22.3419E+06     55.8841E+06     77.6687E+06    -326.966E+03    -232.630E-03     464.292E-03    -231.662E-03     252.295E-03    -249.201E-03     480.757E-03    -231.323E-03     209.097E-03
             555     12.1408E-03     109.736E-03    -15.5733E+06     63.4228E+06     78.3561E+06     953.040E+03    -231.205E-03     462.809E-03    -231.604E-03     225.737E-03    -245.526E-03     477.072E-03    -231.281E-03     185.860E-03
             556     12.8538E-03     110.001E-03    -9.38075E+06     73.4949E+06     81.2259E+06     1.15309E+06    -230.033E-03     461.595E-03    -231.562E-03     203.356E-03    -242.388E-03     473.943E-03    -231.249E-03     166.194E-03
             557     13.5708E-03     110.253E-03    -3.04823E+06     75.4124E+06     83.5951E+06    -245.180E+03    -229.058E-03     460.578E-03    -231.520E-03     145.190E-03    -236.804E-03     468.338E-03    -231.207E-03     116.719E-03
             558     713.927E-06     107.412E-03    -123.279E+06    -296.019E+06    -122.565E+06    -465.851E+03    -232.099E-03     463.754E-03    -231.656E-03     24.4247E-03    -232.199E-03     462.722E-03    -231.660E-03     21.4751E-03
             559     1.42763E-03     107.458E-03    -121.080E+06    -289.941E+06    -113.070E+06     361.168E+03    -232.164E-03     464.001E-03    -231.837E-03     45.1991E-03    -232.469E-03     463.174E-03    -231.806E-03     39.8066E-03
             560     2.14118E-03     107.535E-03    -116.210E+06    -281.701E+06    -99.1220E+06     251.359E+03    -232.589E-03     464.457E-03    -231.867E-03     67.1626E-03    -233.236E-03     463.978E-03    -231.786E-03     59.0448E-03
             561     2.85565E-03     107.641E-03    -110.138E+06    -254.271E+06    -85.1873E+06     262.009E+03    -233.091E-03     464.955E-03    -231.864E-03     89.1945E-03    -234.255E-03     465.072E-03    -231.762E-03     78.2131E-03
             562     3.56942E-03     107.777E-03    -103.825E+06    -217.815E+06    -69.9337E+06     177.668E+03    -233.715E-03     465.562E-03    -231.847E-03     111.093E-03    -235.581E-03     466.489E-03    -231.730E-03     97.0649E-03
             563     4.28253E-03     107.942E-03    -96.9980E+06    -190.101E+06    -52.8772E+06     7.47043E+03    -234.397E-03     466.245E-03    -231.849E-03     132.774E-03    -237.149E-03     468.132E-03    -231.697E-03     115.482E-03
             564     4.99757E-03     108.136E-03    -90.0323E+06    -155.832E+06    -36.0885E+06     140.328E+03    -235.068E-03     466.902E-03    -231.834E-03     154.296E-03    -238.938E-03     470.004E-03    -231.658E-03     133.538E-03
             565     5.71162E-03     108.357E-03    -82.5904E+06    -114.351E+06    -18.4846E+06    -241.723E+03    -235.750E-03     467.559E-03    -231.810E-03     175.658E-03    -241.007E-03     472.171E-03    -231.616E-03     151.182E-03
             566     6.42559E-03     108.607E-03    -75.0759E+06    -68.1810E+06     40.7384E+03    -871.853E+03    -236.263E-03     468.043E-03    -231.780E-03     196.590E-03    -243.185E-03     474.456E-03    -231.572E-03     168.231E-03
             567     7.13990E-03     108.883E-03    -67.2584E+06    -18.7712E+06     18.0017E+06    -1.06471E+06    -236.597E-03     468.330E-03    -231.733E-03     217.152E-03    -245.480E-03     476.855E-03    -231.518E-03     184.813E-03
             568     7.85420E-03     109.186E-03    -58.7862E+06     12.1575E+06     31.5231E+06    -55.9569E+03    -237.069E-03     468.759E-03    -231.690E-03     237.275E-03    -248.170E-03     479.603E-03    -231.464E-03     200.908E-03
             569     8.56960E-03     109.514E-03    -50.3410E+06     23.1769E+06     42.9755E+06     1.32932E+06    -237.631E-03     469.317E-03    -231.686E-03     255.424E-03    -251.062E-03     482.527E-03    -231.432E-03     215.279E-03
             570     9.28226E-03     109.863E-03    -43.2776E+06     37.0026E+06     55.8526E+06     2.01757E+06    -237.490E-03     469.196E-03    -231.705E-03     269.103E-03    -253.115E-03     484.636E-03    -231.417E-03     225.910E-03
             571     9.99719E-03     110.228E-03    -35.7607E+06     51.4739E+06     68.9013E+06     1.51333E+06    -236.193E-03     467.904E-03    -231.711E-03     274.195E-03    -253.332E-03     484.899E-03    -231.389E-03     229.342E-03
             572     10.7117E-03     110.585E-03    -27.2377E+06     54.5844E+06     77.2951E+06    -55.7816E+03    -234.336E-03     466.022E-03    -231.686E-03     268.088E-03    -251.790E-03     483.349E-03    -231.339E-03     223.315E-03
             573     11.4264E-03     110.928E-03    -20.6348E+06     54.8651E+06     77.8280E+06    -878.480E+03    -232.587E-03     464.208E-03    -231.622E-03     252.648E-03    -249.154E-03     480.672E-03    -231.282E-03     209.469E-03
             574     12.1413E-03     111.241E-03    -14.0272E+06     58.9668E+06     78.2906E+06    -421.337E+03    -231.132E-03     462.693E-03    -231.561E-03     226.418E-03    -245.446E-03     476.940E-03    -231.235E-03     186.559E-03
             575     12.8574E-03     111.510E-03    -7.39470E+06     73.7465E+06     83.0143E+06     664.103E+03    -230.135E-03     461.659E-03    -231.523E-03     202.661E-03    -242.470E-03     473.988E-03    -231.204E-03     165.483E-03
             576     13.5710E-03     111.754E-03    -3.17060E+06     77.9639E+06     84.5540E+06     883.207E+03    -230.209E-03     461.726E-03    -231.518E-03     143.098E-03    -237.929E-03     469.467E-03    -231.203E-03     114.530E-03
             577     713.473E-06     108.917E-03    -124.724E+06    -296.173E+06    -121.400E+06     399.921E+03    -232.103E-03     463.691E-03    -231.588E-03     24.6387E-03    -232.213E-03     462.660E-03    -231.585E-03     21.6872E-03
             578     1.42742E-03     108.965E-03    -120.842E+06    -290.211E+06    -112.812E+06    -61.4103E+03    -232.173E-03     463.985E-03    -231.812E-03     45.4848E-03    -232.478E-03     463.157E-03    -231.780E-03     40.0840E-03
             579     2.14164E-03     109.041E-03    -115.802E+06    -282.117E+06    -99.3393E+06     216.769E+03    -232.500E-03     464.337E-03    -231.837E-03     67.1640E-03    -233.144E-03     463.856E-03    -231.756E-03     59.0550E-03
             580     2.85516E-03     109.147E-03    -110.304E+06    -254.598E+06    -85.4950E+06     437.176E+03    -233.048E-03     464.872E-03    -231.823E-03     89.0662E-03    -234.210E-03     464.986E-03    -231.722E-03     78.0915E-03
             581     3.56927E-03     109.283E-03    -103.891E+06    -217.898E+06    -70.0035E+06     511.753E+03    -233.786E-03     465.604E-03    -231.818E-03     111.017E-03    -235.653E-03     466.532E-03    -231.702E-03     96.9793E-03
             582     4.28378E-03     109.448E-03    -97.2487E+06    -190.210E+06    -52.8855E+06     852.647E+03    -234.468E-03     466.307E-03    -231.839E-03     132.653E-03    -237.221E-03     468.193E-03    -231.687E-03     115.367E-03
             583     4.99701E-03     109.641E-03    -89.9961E+06    -155.807E+06    -35.8258E+06     1.01402E+06    -235.071E-03     466.905E-03    -231.834E-03     154.214E-03    -238.946E-03     470.011E-03    -231.657E-03     133.447E-03
             584     5.71122E-03     109.864E-03    -82.5350E+06    -114.139E+06    -18.3440E+06     1.17128E+06    -235.711E-03     467.518E-03    -231.808E-03     175.641E-03    -240.968E-03     472.131E-03    -231.614E-03     151.184E-03
             585     6.42554E-03     110.113E-03    -75.2099E+06    -65.9560E+06     320.599E+03     1.15685E+06    -236.242E-03     468.015E-03    -231.773E-03     196.574E-03    -243.167E-03     474.438E-03    -231.567E-03     168.259E-03
             586     7.13992E-03     110.389E-03    -68.0901E+06    -17.0894E+06     18.3619E+06     571.102E+03    -236.715E-03     468.448E-03    -231.733E-03     217.172E-03    -245.606E-03     476.983E-03    -231.518E-03     184.844E-03
             587     7.85460E-03     110.691E-03    -61.0706E+06     11.1176E+06     30.5662E+06    -412.515E+03    -237.290E-03     468.995E-03    -231.705E-03     237.212E-03    -248.393E-03     479.832E-03    -231.480E-03     200.821E-03
             588     8.56784E-03     111.020E-03    -53.1945E+06     21.1577E+06     39.9086E+06    -1.13602E+06    -237.578E-03     469.277E-03    -231.700E-03     255.593E-03    -251.023E-03     482.493E-03    -231.454E-03     215.404E-03
             589     9.28284E-03     111.370E-03    -43.5375E+06     33.4590E+06     53.2806E+06    -349.012E+03    -237.047E-03     468.744E-03    -231.697E-03     269.439E-03    -252.669E-03     484.175E-03    -231.416E-03     226.292E-03
             590     9.99744E-03     111.731E-03    -34.2161E+06     52.2691E+06     69.0082E+06     470.282E+03    -235.805E-03     467.478E-03    -231.673E-03     274.444E-03    -252.925E-03     484.461E-03    -231.354E-03     229.684E-03
             591     10.7125E-03     112.092E-03    -26.9501E+06     57.6614E+06     78.0213E+06    -130.676E+03    -234.362E-03     465.999E-03    -231.636E-03     268.168E-03    -251.824E-03     483.343E-03    -231.291E-03     223.387E-03
             592     11.4275E-03     112.432E-03    -20.6630E+06     55.3551E+06     78.5337E+06    -829.663E+03    -232.868E-03     464.460E-03    -231.591E-03     252.138E-03    -249.442E-03     480.929E-03    -231.249E-03     208.854E-03
             593     12.1422E-03     112.747E-03    -15.6317E+06     59.2601E+06     78.8253E+06    -1.60091E+06    -231.510E-03     463.073E-03    -231.563E-03     224.990E-03    -245.800E-03     477.289E-03    -231.232E-03     185.027E-03
             594     12.8555E-03     113.013E-03    -11.8040E+06     71.0570E+06     80.9847E+06    -1.04571E+06    -231.010E-03     462.577E-03    -231.567E-03     200.942E-03    -243.317E-03     474.859E-03    -231.248E-03     163.631E-03
             595     13.5687E-03     113.265E-03    -6.75755E+06     76.3971E+06     82.0855E+06     153.063E+03    -230.324E-03     461.913E-03    -231.588E-03     142.597E-03    -238.041E-03     469.638E-03    -231.279E-03     113.972E-03
             596     714.414E-06     110.424E-03    -123.483E+06    -296.261E+06    -122.169E+06    -401.624E+03    -231.877E-03     463.375E-03    -231.499E-03     24.9800E-03    -231.978E-03     462.342E-03    -231.501E-03     22.0674E-03
             597     1.42792E-03     110.470E-03    -120.577E+06    -290.241E+06    -112.950E+06     142.499E+03    -232.208E-03     463.896E-03    -231.688E-03     45.4935E-03    -232.511E-03     463.068E-03    -231.657E-03     40.0945E-03
             598     2.14138E-03     110.547E-03    -116.319E+06    -282.754E+06    -99.5882E+06     314.056E+03    -232.643E-03     464.428E-03    -231.786E-03     67.1727E-03    -233.288E-03     463.946E-03    -231.705E-03     59.0502E-03
             599     2.85570E-03     110.653E-03    -110.025E+06    -254.934E+06    -85.3344E+06     337.230E+03    -233.192E-03     465.016E-03    -231.824E-03     89.0737E-03    -234.355E-03     465.130E-03    -231.721E-03     78.0735E-03
             600     3.56937E-03     110.789E-03    -103.723E+06    -218.793E+06    -70.2730E+06     799.450E+03    -233.711E-03     465.539E-03    -231.828E-03     110.859E-03    -235.572E-03     466.459E-03    -231.712E-03     96.8374E-03
             601     4.28279E-03     110.954E-03    -96.5722E+06    -191.028E+06    -52.8989E+06     1.25980E+06    -234.347E-03     466.179E-03    -231.832E-03     132.630E-03    -237.096E-03     468.060E-03    -231.679E-03     115.357E-03
             602     4.99741E-03     111.148E-03    -89.0268E+06    -156.712E+06    -35.7664E+06     1.53594E+06    -235.111E-03     466.931E-03    -231.819E-03     154.435E-03    -238.987E-03     470.038E-03    -231.642E-03     133.654E-03
             603     5.71157E-03     111.369E-03    -81.1462E+06    -115.006E+06    -17.8832E+06     2.08504E+06    -235.763E-03     467.562E-03    -231.799E-03     175.725E-03    -241.012E-03     472.167E-03    -231.604E-03     151.294E-03
             604     6.42582E-03     111.619E-03    -72.7539E+06    -66.2124E+06     1.61402E+06     2.79288E+06    -236.303E-03     468.075E-03    -231.772E-03     196.402E-03    -243.208E-03     474.482E-03    -231.563E-03     168.121E-03
             605     7.14013E-03     111.894E-03    -63.9729E+06    -16.1471E+06     20.3218E+06     3.37247E+06    -236.860E-03     468.602E-03    -231.742E-03     217.019E-03    -245.730E-03     477.129E-03    -231.524E-03     184.708E-03
             606     7.85378E-03     112.198E-03    -55.0065E+06     14.0934E+06     34.6965E+06     2.98617E+06    -237.238E-03     468.957E-03    -231.719E-03     237.565E-03    -248.329E-03     479.803E-03    -231.487E-03     201.229E-03
             607     8.56857E-03     112.526E-03    -47.0357E+06     24.6338E+06     45.9369E+06     1.54458E+06    -237.223E-03     468.918E-03    -231.696E-03     256.302E-03    -250.656E-03     482.139E-03    -231.434E-03     216.259E-03
             608     9.28321E-03     112.875E-03    -40.6767E+06     33.3171E+06     57.1049E+06     130.263E+03    -236.888E-03     468.553E-03    -231.664E-03     269.779E-03    -252.502E-03     483.975E-03    -231.368E-03     226.711E-03
             609     9.99817E-03     113.237E-03    -34.3852E+06     52.2715E+06     70.4305E+06    -216.079E+03    -236.041E-03     467.678E-03    -231.637E-03     274.137E-03    -253.161E-03     484.658E-03    -231.311E-03     229.313E-03
             610     10.7131E-03     113.596E-03    -27.4997E+06     58.4659E+06     78.8661E+06     159.489E+03    -234.743E-03     466.370E-03    -231.627E-03     267.498E-03    -252.212E-03     483.720E-03    -231.278E-03     222.599E-03
             611     11.4269E-03     113.939E-03    -21.4823E+06     55.8532E+06     79.4707E+06     581.984E+03    -233.484E-03     465.109E-03    -231.626E-03     251.158E-03    -250.061E-03     481.579E-03    -231.278E-03     207.740E-03
             612     12.1402E-03     114.252E-03    -15.7164E+06     63.2518E+06     80.5289E+06    -51.3513E+03    -232.061E-03     463.696E-03    -231.635E-03     224.413E-03    -246.339E-03     477.909E-03    -231.301E-03     184.408E-03
             613     12.8540E-03     114.523E-03    -10.3366E+06     70.4295E+06     82.0799E+06    -1.33785E+06    -230.448E-03     462.080E-03    -231.632E-03     202.860E-03    -242.762E-03     474.370E-03    -231.309E-03     165.732E-03
             614     13.5672E-03     114.772E-03    -5.10013E+06     73.0440E+06     82.5061E+06    -1.30125E+06    -228.975E-03     460.562E-03    -231.587E-03     144.781E-03    -236.706E-03     468.294E-03    -231.273E-03     116.366E-03
             615     713.678E-06     111.928E-03    -123.898E+06    -296.158E+06    -121.171E+06     352.905E+03    -231.662E-03     463.528E-03    -231.866E-03     24.4837E-03    -231.767E-03     462.493E-03    -231.863E-03     21.5772E-03
             616     1.42782E-03     111.976E-03    -121.252E+06    -290.750E+06    -113.069E+06     228.480E+03    -232.079E-03     463.808E-03    -231.729E-03     45.1425E-03    -232.383E-03     462.978E-03    -231.697E-03     39.7478E-03
             617     2.14194E-03     112.052E-03    -115.993E+06    -282.841E+06    -99.5334E+06    -15.9517E+03    -232.703E-03     464.498E-03    -231.796E-03     67.0353E-03    -233.346E-03     464.015E-03    -231.715E-03     58.9059E-03
             618     2.85498E-03     112.159E-03    -110.337E+06    -255.960E+06    -85.8539E+06     348.707E+03    -233.179E-03     465.018E-03    -231.839E-03     89.0058E-03    -234.340E-03     465.127E-03    -231.737E-03     78.0144E-03
             619     3.56898E-03     112.294E-03    -103.777E+06    -219.356E+06    -70.4163E+06     715.238E+03    -233.616E-03     465.446E-03    -231.830E-03     110.965E-03    -235.478E-03     466.366E-03    -231.714E-03     96.9468E-03
             620     4.28378E-03     112.460E-03    -96.6660E+06    -192.102E+06    -53.2318E+06     693.252E+03    -234.322E-03     466.144E-03    -231.821E-03     132.753E-03    -237.074E-03     468.024E-03    -231.669E-03     115.460E-03
             621     4.99756E-03     112.653E-03    -88.8685E+06    -157.778E+06    -36.1717E+06     830.939E+03    -235.133E-03     466.943E-03    -231.810E-03     154.201E-03    -238.997E-03     470.036E-03    -231.633E-03     133.434E-03
             622     5.71143E-03     112.876E-03    -80.7770E+06    -116.346E+06    -18.2470E+06     1.11622E+06    -235.819E-03     467.618E-03    -231.798E-03     175.361E-03    -241.051E-03     472.203E-03    -231.604E-03     150.935E-03
             623     6.42552E-03     113.124E-03    -72.0127E+06    -69.6328E+06     672.323E+03     1.83554E+06    -236.337E-03     468.114E-03    -231.777E-03     196.414E-03    -243.232E-03     474.504E-03    -231.569E-03     168.116E-03
             624     7.13950E-03     113.401E-03    -62.9416E+06    -18.3187E+06     19.8917E+06     2.73618E+06    -236.685E-03     468.421E-03    -231.736E-03     217.503E-03    -245.559E-03     476.949E-03    -231.519E-03     185.197E-03
             625     7.85442E-03     113.703E-03    -55.0943E+06     14.5504E+06     34.0132E+06     3.22565E+06    -236.913E-03     468.597E-03    -231.683E-03     237.824E-03    -248.009E-03     479.450E-03    -231.454E-03     201.537E-03
             626     8.56946E-03     114.031E-03    -48.5558E+06     27.3167E+06     42.6915E+06     3.30017E+06    -237.080E-03     468.710E-03    -231.631E-03     255.801E-03    -250.511E-03     481.942E-03    -231.386E-03     215.779E-03
             627     9.28421E-03     114.381E-03    -41.8224E+06     38.8752E+06     55.0096E+06     1.57463E+06    -237.074E-03     468.688E-03    -231.614E-03     269.093E-03    -252.697E-03     484.140E-03    -231.335E-03     225.950E-03
             628     9.99839E-03     114.743E-03    -34.0510E+06     50.8014E+06     70.9079E+06     523.895E+03    -236.534E-03     468.179E-03    -231.645E-03     273.454E-03    -253.663E-03     485.161E-03    -231.315E-03     228.491E-03
             629     10.7118E-03     115.103E-03    -26.9553E+06     56.4127E+06     80.4583E+06     1.86775E+06    -235.263E-03     466.946E-03    -231.683E-03     267.016E-03    -252.728E-03     484.282E-03    -231.323E-03     222.030E-03
             630     11.4259E-03     115.445E-03    -20.0830E+06     59.0330E+06     81.8564E+06     1.37164E+06    -233.503E-03     465.194E-03    -231.690E-03     251.711E-03    -250.087E-03     481.678E-03    -231.337E-03     208.334E-03
             631     12.1394E-03     115.761E-03    -12.7601E+06     65.1841E+06     82.9502E+06    -71.2323E+03    -231.250E-03     462.914E-03    -231.664E-03     225.826E-03    -245.543E-03     477.153E-03    -231.326E-03     185.986E-03
             632     12.8543E-03     116.025E-03    -7.35038E+06     71.4041E+06     84.8395E+06    -295.835E+03    -229.090E-03     460.683E-03    -231.593E-03     203.821E-03    -241.401E-03     472.975E-03    -231.262E-03     166.946E-03
             633     13.5733E-03     116.276E-03    -4.34837E+06     72.2599E+06     84.2358E+06    -575.659E+03    -229.371E-03     460.891E-03    -231.520E-03     144.607E-03    -237.087E-03     468.604E-03    -231.197E-03     116.267E-03
             634     713.506E-06     113.434E-03    -124.832E+06    -297.289E+06    -123.127E+06     209.495E+03    -231.838E-03     463.895E-03    -232.057E-03     24.6687E-03    -231.944E-03     462.859E-03    -232.060E-03     21.7506E-03
             635     1.42755E-03     113.481E-03    -121.659E+06    -290.879E+06    -113.657E+06     123.773E+03    -232.110E-03     463.991E-03    -231.881E-03     45.3181E-03    -232.416E-03     463.163E-03    -231.851E-03     39.9205E-03
             636     2.14105E-03     113.559E-03    -116.952E+06    -283.255E+06    -100.162E+06     237.677E+03    -232.497E-03     464.367E-03    -231.870E-03     67.1235E-03    -233.144E-03     463.884E-03    -231.790E-03     59.0047E-03
             637     2.85553E-03     113.665E-03    -110.917E+06    -256.287E+06    -86.0275E+06     177.179E+03    -233.000E-03     464.844E-03    -231.844E-03     89.0359E-03    -234.160E-03     464.951E-03    -231.742E-03     78.0699E-03
             638     3.56969E-03     113.800E-03    -104.512E+06    -220.014E+06    -71.0668E+06     244.355E+03    -233.693E-03     465.514E-03    -231.821E-03     110.807E-03    -235.556E-03     466.431E-03    -231.705E-03     96.7745E-03
             639     4.28302E-03     113.965E-03    -97.4705E+06    -192.209E+06    -53.8308E+06     207.027E+03    -234.454E-03     466.287E-03    -231.833E-03     132.481E-03    -237.201E-03     468.162E-03    -231.682E-03     115.187E-03
             640     4.99707E-03     114.159E-03    -90.1001E+06    -158.114E+06    -37.1449E+06     77.8165E+03    -235.110E-03     466.939E-03    -231.829E-03     154.117E-03    -238.973E-03     470.029E-03    -231.655E-03     133.361E-03
             641     5.71139E-03     114.381E-03    -82.4959E+06    -117.423E+06    -19.8919E+06     145.393E+03    -235.644E-03     467.445E-03    -231.801E-03     175.536E-03    -240.882E-03     472.031E-03    -231.611E-03     151.110E-03
             642     6.42557E-03     114.631E-03    -74.9190E+06    -71.5528E+06    -1.57645E+06     197.064E+03    -236.136E-03     467.891E-03    -231.755E-03     196.843E-03    -243.046E-03     474.286E-03    -231.551E-03     168.547E-03
             643     7.14046E-03     114.906E-03    -67.0361E+06    -21.7920E+06     16.7164E+06     877.923E+03    -236.558E-03     468.255E-03    -231.697E-03     217.548E-03    -245.445E-03     476.778E-03    -231.485E-03     185.231E-03
             644     7.85509E-03     115.209E-03    -58.7269E+06     11.1925E+06     31.0036E+06     2.75417E+06    -236.968E-03     468.616E-03    -231.648E-03     237.320E-03    -248.065E-03     479.454E-03    -231.424E-03     201.011E-03
             645     8.56892E-03     115.536E-03    -50.1369E+06     28.9075E+06     43.1622E+06     3.02802E+06    -237.441E-03     469.071E-03    -231.630E-03     255.351E-03    -250.885E-03     482.314E-03    -231.383E-03     215.233E-03
             646     9.28325E-03     115.886E-03    -41.8438E+06     43.3514E+06     58.0274E+06     1.46314E+06    -237.448E-03     469.104E-03    -231.656E-03     268.577E-03    -253.078E-03     484.572E-03    -231.368E-03     225.332E-03
             647     9.99729E-03     116.250E-03    -34.6307E+06     48.4919E+06     70.9566E+06     1.30533E+06    -236.664E-03     468.367E-03    -231.703E-03     273.416E-03    -253.793E-03     485.340E-03    -231.369E-03     228.425E-03
             648     10.7115E-03     116.609E-03    -26.0730E+06     55.9133E+06     80.6627E+06     717.259E+03    -235.140E-03     466.871E-03    -231.731E-03     267.624E-03    -252.607E-03     484.210E-03    -231.371E-03     222.658E-03
             649     11.4250E-03     116.952E-03    -17.8333E+06     61.1501E+06     83.1152E+06    -122.605E+03    -232.614E-03     464.311E-03    -231.697E-03     252.304E-03    -249.191E-03     480.801E-03    -231.344E-03     209.076E-03
             650     12.1412E-03     117.265E-03    -12.7526E+06     64.4227E+06     82.7761E+06     818.355E+03    -230.320E-03     461.933E-03    -231.613E-03     225.848E-03    -244.609E-03     476.166E-03    -231.275E-03     186.181E-03
             651     12.8576E-03     117.531E-03    -8.78250E+06     72.8991E+06     85.2216E+06     913.340E+03    -229.924E-03     461.472E-03    -231.548E-03     202.065E-03    -242.215E-03     473.744E-03    -231.215E-03     165.038E-03
             652     13.5693E-03     117.778E-03    -4.54590E+06     73.0236E+06     85.7498E+06     491.369E+03    -230.403E-03     461.945E-03    -231.541E-03     143.878E-03    -238.108E-03     469.643E-03    -231.212E-03     115.367E-03
             653     713.975E-06     114.940E-03    -125.632E+06    -297.548E+06    -123.442E+06     68.7529E+03    -232.097E-03     463.911E-03    -231.814E-03     24.4212E-03    -232.206E-03     462.876E-03    -231.817E-03     21.4830E-03
             654     1.42722E-03     114.988E-03    -122.123E+06    -291.031E+06    -114.023E+06     68.1058E+03    -232.201E-03     464.107E-03    -231.906E-03     45.5348E-03    -232.511E-03     463.281E-03    -231.877E-03     40.1127E-03
             655     2.14150E-03     115.064E-03    -117.306E+06    -283.383E+06    -100.533E+06     20.9510E+03    -232.485E-03     464.388E-03    -231.903E-03     67.1640E-03    -233.133E-03     463.904E-03    -231.824E-03     59.0446E-03
             656     2.85535E-03     115.170E-03    -111.675E+06    -256.571E+06    -86.7407E+06     205.710E+03    -233.036E-03     464.908E-03    -231.872E-03     88.8144E-03    -234.197E-03     465.013E-03    -231.771E-03     77.8494E-03
             657     3.56893E-03     115.306E-03    -105.529E+06    -220.235E+06    -71.7697E+06     113.524E+03    -233.681E-03     465.528E-03    -231.848E-03     110.699E-03    -235.544E-03     466.443E-03    -231.734E-03     96.6748E-03
             658     4.28321E-03     115.471E-03    -98.6867E+06    -192.348E+06    -54.9634E+06     227.154E+03    -234.326E-03     466.167E-03    -231.841E-03     132.782E-03    -237.081E-03     468.048E-03    -231.694E-03     115.504E-03
             659     4.99730E-03     115.665E-03    -91.6641E+06    -158.326E+06    -38.2006E+06     510.315E+03    -234.952E-03     466.763E-03    -231.811E-03     154.603E-03    -238.828E-03     469.863E-03    -231.640E-03     133.858E-03
             660     5.71138E-03     115.887E-03    -84.6002E+06    -118.173E+06    -21.1980E+06     619.646E+03    -235.592E-03     467.361E-03    -231.768E-03     175.812E-03    -240.847E-03     471.957E-03    -231.580E-03     151.384E-03
             661     6.42626E-03     116.135E-03    -77.4987E+06    -71.4658E+06    -2.93365E+06     1.04727E+06    -236.183E-03     467.910E-03    -231.727E-03     196.517E-03    -243.101E-03     474.308E-03    -231.525E-03     168.214E-03
             662     7.14033E-03     116.412E-03    -70.2479E+06    -22.6567E+06     14.9446E+06     873.861E+03    -236.648E-03     468.333E-03    -231.685E-03     216.977E-03    -245.530E-03     476.842E-03    -231.476E-03     184.664E-03
             663     7.85424E-03     116.714E-03    -61.7356E+06     8.10236E+06     28.7734E+06     84.4865E+03    -237.228E-03     468.887E-03    -231.659E-03     237.069E-03    -248.326E-03     479.711E-03    -231.437E-03     200.686E-03
             664     8.56944E-03     117.042E-03    -52.1905E+06     29.1414E+06     42.8115E+06    -313.238E+03    -237.749E-03     469.418E-03    -231.669E-03     255.376E-03    -251.205E-03     482.668E-03    -231.422E-03     215.158E-03
             665     9.28267E-03     117.394E-03    -42.8167E+06     42.4434E+06     58.1186E+06     108.001E+03    -237.595E-03     469.307E-03    -231.712E-03     268.817E-03    -253.242E-03     484.785E-03    -231.421E-03     225.524E-03
             666     9.99683E-03     117.754E-03    -33.7818E+06     48.9884E+06     71.1709E+06    -187.845E+03    -236.488E-03     468.234E-03    -231.746E-03     273.947E-03    -253.619E-03     485.213E-03    -231.413E-03     228.992E-03
             667     10.7110E-03     118.117E-03    -26.5949E+06     57.5325E+06     79.8837E+06    -1.20241E+06    -234.404E-03     466.134E-03    -231.729E-03     268.086E-03    -251.863E-03     483.471E-03    -231.375E-03     223.270E-03
             668     11.4267E-03     118.457E-03    -21.3806E+06     57.6035E+06     80.1337E+06     16.2549E+03    -232.163E-03     463.821E-03    -231.659E-03     251.617E-03    -248.724E-03     480.279E-03    -231.311E-03     208.475E-03
             669     12.1418E-03     118.768E-03    -17.1450E+06     63.8921E+06     79.9855E+06     1.18791E+06    -231.012E-03     462.602E-03    -231.590E-03     224.721E-03    -245.309E-03     476.833E-03    -231.258E-03     184.900E-03
             670     12.8549E-03     119.037E-03    -11.3719E+06     74.5662E+06     83.3200E+06     480.623E+03    -230.798E-03     462.371E-03    -231.573E-03     202.248E-03    -243.105E-03     474.661E-03    -231.248E-03     165.078E-03
             671     13.5685E-03     119.290E-03    -5.04341E+06     73.2222E+06     84.3298E+06    -57.9114E+03    -229.770E-03     461.341E-03    -231.571E-03     144.866E-03    -237.482E-03     469.050E-03    -231.248E-03     116.384E-03
             672     713.489E-06     116.447E-03    -125.097E+06    -297.196E+06    -123.581E+06    -134.065E+03    -231.979E-03     463.753E-03    -231.774E-03     24.5637E-03    -232.086E-03     462.720E-03    -231.780E-03     21.6234E-03
             673     1.42778E-03     116.493E-03    -122.500E+06    -291.281E+06    -114.889E+06     59.0893E+03    -232.176E-03     464.010E-03    -231.834E-03     45.4185E-03    -232.483E-03     463.181E-03    -231.809E-03     40.0253E-03
             674     2.14127E-03     116.570E-03    -118.079E+06    -283.927E+06    -101.375E+06     504.083E+03    -232.641E-03     464.514E-03    -231.872E-03     67.2533E-03    -233.291E-03     464.030E-03    -231.796E-03     59.1518E-03
             675     2.85486E-03     116.676E-03    -112.407E+06    -256.712E+06    -87.1255E+06     512.117E+03    -233.075E-03     464.950E-03    -231.874E-03     89.2471E-03    -234.243E-03     465.060E-03    -231.775E-03     78.2736E-03
             676     3.56922E-03     116.812E-03    -105.690E+06    -220.483E+06    -71.9834E+06     499.692E+03    -233.533E-03     465.368E-03    -231.836E-03     111.174E-03    -235.402E-03     466.289E-03    -231.722E-03     97.1593E-03
             677     4.28332E-03     116.977E-03    -98.9325E+06    -192.889E+06    -55.3773E+06     856.302E+03    -234.209E-03     466.013E-03    -231.804E-03     132.903E-03    -236.965E-03     467.893E-03    -231.658E-03     115.636E-03
             678     4.99767E-03     117.170E-03    -91.7309E+06    -159.134E+06    -38.4653E+06     1.20796E+06    -234.954E-03     466.727E-03    -231.773E-03     154.300E-03    -238.827E-03     469.821E-03    -231.602E-03     133.557E-03
             679     5.71231E-03     117.392E-03    -84.0434E+06    -118.659E+06    -20.8134E+06     1.76336E+06    -235.723E-03     467.472E-03    -231.749E-03     175.406E-03    -240.968E-03     472.058E-03    -231.559E-03     150.983E-03
             680     6.42556E-03     117.642E-03    -75.9667E+06    -73.4480E+06    -2.60086E+06     2.64335E+06    -236.364E-03     468.094E-03    -231.730E-03     196.348E-03    -243.272E-03     474.480E-03    -231.527E-03     168.044E-03
             681     7.13990E-03     117.917E-03    -66.9484E+06    -20.3111E+06     17.6820E+06     2.87436E+06    -236.852E-03     468.563E-03    -231.711E-03     216.963E-03    -245.725E-03     477.075E-03    -231.496E-03     184.648E-03
             682     7.85501E-03     118.220E-03    -58.2485E+06     13.2097E+06     33.6696E+06     361.030E+03    -237.490E-03     469.199E-03    -231.709E-03     237.252E-03    -248.588E-03     480.039E-03    -231.475E-03     200.842E-03
             683     8.56745E-03     118.549E-03    -50.0784E+06     27.6746E+06     44.6861E+06    -1.68439E+06    -237.773E-03     469.494E-03    -231.721E-03     255.613E-03    -251.225E-03     482.737E-03    -231.465E-03     215.378E-03
             684     9.28270E-03     118.898E-03    -41.7575E+06     40.4233E+06     56.8421E+06    -1.10955E+06    -237.355E-03     469.089E-03    -231.735E-03     269.176E-03    -252.990E-03     484.555E-03    -231.448E-03     225.939E-03
             685     9.99667E-03     119.263E-03    -35.1253E+06     51.4778E+06     69.6984E+06    -844.171E+03    -236.089E-03     467.825E-03    -231.736E-03     274.150E-03    -253.234E-03     484.826E-03    -231.411E-03     229.253E-03
             686     10.7118E-03     119.620E-03    -30.1264E+06       56.21E+06     77.9532E+06     382.029E+03    -234.141E-03     465.847E-03    -231.705E-03     267.693E-03    -251.611E-03     483.182E-03    -231.353E-03     222.938E-03
             687     11.4269E-03     119.962E-03    -24.0475E+06     56.0314E+06     78.8816E+06     971.505E+03    -232.693E-03     464.344E-03    -231.651E-03     251.066E-03    -249.233E-03     480.768E-03    -231.303E-03     207.900E-03
             688     12.1403E-03     120.274E-03    -16.4371E+06     65.6931E+06     80.6231E+06    -505.873E+03    -231.649E-03     463.266E-03    -231.617E-03     225.316E-03    -245.967E-03     477.525E-03    -231.285E-03     185.342E-03
             689     12.8545E-03     120.545E-03    -9.18740E+06     73.6374E+06     82.8857E+06    -563.729E+03    -230.156E-03     461.747E-03    -231.591E-03     203.414E-03    -242.495E-03     474.075E-03    -231.270E-03     166.265E-03
             690     13.5707E-03     120.792E-03    -3.73911E+06     72.8620E+06     82.2724E+06    -207.067E+03    -229.157E-03     460.700E-03    -231.543E-03     144.484E-03    -236.853E-03     468.402E-03    -231.232E-03     116.095E-03
             691     714.104E-06     117.952E-03    -124.649E+06    -297.633E+06    -123.050E+06    -16.8111E+03    -231.967E-03     463.448E-03    -231.481E-03     24.8684E-03    -232.071E-03     462.410E-03    -231.484E-03     21.9780E-03
             692     1.42755E-03     117.999E-03    -122.551E+06    -292.245E+06    -114.932E+06     388.641E+03    -232.203E-03     463.916E-03    -231.713E-03     45.6292E-03    -232.510E-03     463.084E-03    -231.686E-03     40.2467E-03
             693     2.14155E-03     118.076E-03    -117.830E+06    -284.572E+06    -101.015E+06     558.466E+03    -232.585E-03     464.376E-03    -231.791E-03     67.4470E-03    -233.234E-03     463.889E-03    -231.712E-03     59.3505E-03
             694     2.85572E-03     118.182E-03    -111.609E+06    -257.029E+06    -86.8983E+06     796.088E+03    -232.987E-03     464.779E-03    -231.793E-03     89.2572E-03    -234.151E-03     464.887E-03    -231.693E-03     78.2908E-03
             695     3.56957E-03     118.317E-03    -105.451E+06    -221.182E+06    -71.9155E+06     1.00852E+06    -233.620E-03     465.389E-03    -231.769E-03     111.107E-03    -235.488E-03     466.306E-03    -231.655E-03     97.0892E-03
             696     4.28365E-03     118.482E-03    -98.3837E+06    -193.806E+06    -54.8978E+06     1.09656E+06    -234.407E-03     466.183E-03    -231.776E-03     132.675E-03    -237.160E-03     468.058E-03    -231.627E-03     115.388E-03
             697     4.99758E-03     118.676E-03    -90.7932E+06    -159.970E+06    -37.9109E+06     1.43709E+06    -235.132E-03     466.912E-03    -231.779E-03     154.042E-03    -238.998E-03     469.997E-03    -231.605E-03     133.288E-03
             698     5.71099E-03     118.898E-03    -82.7200E+06    -119.540E+06    -19.8455E+06     1.63667E+06    -235.766E-03     467.539E-03    -231.772E-03     175.367E-03    -241.004E-03     472.116E-03    -231.578E-03     150.939E-03
             699     6.42618E-03     119.147E-03    -73.3893E+06    -75.0338E+06    -454.757E+03     1.26536E+06    -236.385E-03     468.144E-03    -231.759E-03     196.278E-03    -243.273E-03     474.507E-03    -231.546E-03     167.968E-03
             700     7.14034E-03     119.424E-03    -63.0003E+06    -21.2493E+06     19.5235E+06     1.11529E+06    -237.076E-03     468.820E-03    -231.744E-03     217.045E-03    -245.939E-03     477.327E-03    -231.524E-03     184.656E-03
             701     7.85313E-03     119.726E-03    -53.0575E+06     16.6966E+06     36.0700E+06     1.90671E+06    -237.530E-03     469.274E-03    -231.744E-03     237.425E-03    -248.625E-03     480.135E-03    -231.511E-03     200.997E-03
             702     8.56907E-03     120.056E-03    -45.8572E+06     29.6147E+06     48.2912E+06     2.34755E+06    -237.541E-03     469.294E-03    -231.752E-03     255.689E-03    -250.977E-03     482.531E-03    -231.487E-03     215.561E-03
             703     9.28215E-03     120.405E-03    -41.4252E+06     42.4085E+06     59.7011E+06     1.73264E+06    -237.001E-03     468.742E-03    -231.741E-03     269.328E-03    -252.641E-03     484.212E-03    -231.444E-03     226.199E-03
             704     9.99746E-03     120.767E-03    -35.5847E+06     51.3065E+06     70.6752E+06     1.79847E+06    -235.906E-03     467.624E-03    -231.717E-03     273.988E-03    -253.043E-03     484.611E-03    -231.387E-03     229.186E-03
             705     10.7121E-03     121.126E-03    -26.8981E+06     54.5117E+06     79.4191E+06     2.24637E+06    -234.522E-03     466.217E-03    -231.695E-03     267.324E-03    -251.959E-03     483.522E-03    -231.338E-03     222.551E-03
             706     11.4259E-03     121.467E-03    -18.3434E+06     59.6632E+06     82.1834E+06     1.13252E+06    -233.012E-03     464.670E-03    -231.658E-03     251.879E-03    -249.564E-03     481.130E-03    -231.307E-03     208.646E-03
             707     12.1407E-03     121.782E-03    -11.9581E+06     67.3877E+06     82.7459E+06    -97.9658E+03    -231.366E-03     462.983E-03    -231.617E-03     226.090E-03    -245.686E-03     477.259E-03    -231.283E-03     186.181E-03
             708     12.8557E-03     122.049E-03    -7.73313E+06     72.8779E+06     83.3753E+06     24.2157E+03    -230.134E-03     461.713E-03    -231.580E-03     202.858E-03    -242.456E-03     474.026E-03    -231.257E-03     165.728E-03
             709     13.5695E-03     122.298E-03    -3.66916E+06     72.6316E+06     82.7899E+06     472.901E+03    -229.562E-03     461.109E-03    -231.547E-03     143.561E-03    -237.259E-03     468.811E-03    -231.233E-03     115.111E-03
             710     714.033E-06     119.457E-03    -125.164E+06    -299.249E+06    -122.535E+06     1.02713E+06    -232.069E-03     463.383E-03    -231.314E-03     24.7514E-03    -232.174E-03     462.337E-03    -231.311E-03     21.8707E-03
             711     1.42812E-03     119.505E-03    -121.627E+06    -292.430E+06    -113.108E+06     620.295E+03    -232.123E-03     463.803E-03    -231.680E-03     45.3062E-03    -232.427E-03     462.964E-03    -231.645E-03     39.9347E-03
             712     2.14178E-03     119.581E-03    -116.773E+06    -285.034E+06    -100.276E+06     598.933E+03    -232.479E-03     464.217E-03    -231.738E-03     67.0670E-03    -233.121E-03     463.724E-03    -231.657E-03     58.9687E-03
             713     2.85554E-03     119.687E-03    -111.180E+06    -258.384E+06    -86.5564E+06     897.310E+03    -233.044E-03     464.793E-03    -231.749E-03     88.8881E-03    -234.203E-03     464.891E-03    -231.646E-03     77.9168E-03
             714     3.56967E-03     119.823E-03    -104.531E+06    -222.009E+06    -71.0304E+06     1.12421E+06    -233.740E-03     465.497E-03    -231.757E-03     110.795E-03    -235.599E-03     466.403E-03    -231.639E-03     96.7766E-03
             715     4.28343E-03     119.988E-03    -97.6941E+06    -194.487E+06    -53.8633E+06     1.27455E+06    -234.468E-03     466.253E-03    -231.785E-03     132.592E-03    -237.215E-03     468.119E-03    -231.631E-03     115.315E-03
             716     4.99723E-03     120.182E-03    -90.1849E+06    -160.436E+06    -36.8044E+06     1.26423E+06    -235.186E-03     466.981E-03    -231.795E-03     154.228E-03    -239.052E-03     470.064E-03    -231.616E-03     133.466E-03
             717     5.71210E-03     120.404E-03    -82.0299E+06    -119.772E+06    -18.8388E+06     922.905E+03    -235.914E-03     467.710E-03    -231.796E-03     175.479E-03    -241.155E-03     472.289E-03    -231.598E-03     151.010E-03
             718     6.42525E-03     120.653E-03    -74.0181E+06    -72.8796E+06      58.196E+03    -374.236E+03    -236.569E-03     468.365E-03    -231.796E-03     196.274E-03    -243.468E-03     474.742E-03    -231.582E-03     167.906E-03
             719     7.13922E-03     120.929E-03    -66.8060E+06    -21.6174E+06     18.3350E+06    -1.95310E+06    -237.049E-03     468.835E-03    -231.786E-03     217.180E-03    -245.933E-03     477.352E-03    -231.566E-03     184.745E-03
             720     7.85457E-03     121.234E-03    -59.8992E+06     11.5536E+06     31.1209E+06    -864.810E+03    -237.342E-03     469.110E-03    -231.767E-03     237.364E-03    -248.458E-03     479.963E-03    -231.542E-03     200.907E-03
             721     8.56710E-03     121.561E-03    -51.9342E+06     27.3631E+06     42.0859E+06     1.29314E+06    -237.204E-03     468.949E-03    -231.745E-03     255.397E-03    -250.651E-03     482.186E-03    -231.499E-03     215.288E-03
             722     9.28323E-03     121.911E-03    -42.2588E+06     41.9277E+06     57.0720E+06     2.59513E+06    -236.763E-03     468.486E-03    -231.723E-03     268.892E-03    -252.381E-03     483.937E-03    -231.437E-03     225.817E-03
             723     9.99753E-03     122.272E-03    -32.8248E+06     51.8671E+06     71.2695E+06     2.35206E+06    -235.984E-03     467.690E-03    -231.706E-03     273.610E-03    -253.083E-03     484.650E-03    -231.378E-03     228.824E-03
             724     10.7117E-03     122.632E-03    -25.2637E+06     54.9584E+06     79.5133E+06     810.691E+03    -234.539E-03     466.226E-03    -231.687E-03     267.442E-03    -251.968E-03     483.530E-03    -231.333E-03     222.647E-03
             725     11.4268E-03     122.973E-03    -19.9383E+06     60.6435E+06     80.9716E+06     898.927E+03    -232.874E-03     464.518E-03    -231.644E-03     252.087E-03    -249.462E-03     481.016E-03    -231.298E-03     208.811E-03
             726     12.1413E-03     123.288E-03    -15.5070E+06     68.0598E+06     81.3444E+06     1.08369E+06    -231.526E-03     463.135E-03    -231.609E-03     225.442E-03    -245.852E-03     477.411E-03    -231.278E-03     185.505E-03
             727     12.8552E-03     123.554E-03    -10.4860E+06     73.6251E+06     83.0041E+06     297.921E+03    -230.493E-03     462.090E-03    -231.597E-03     201.912E-03    -242.817E-03     474.398E-03    -231.274E-03     164.722E-03
             728     13.5693E-03     123.806E-03    -4.90443E+06     73.7852E+06     84.1737E+06    -135.828E+03    -229.480E-03     461.063E-03    -231.583E-03     143.192E-03    -237.205E-03     468.789E-03    -231.262E-03     114.680E-03
             729     713.737E-06     120.963E-03    -123.911E+06    -300.438E+06    -123.138E+06    -446.174E+03    -232.233E-03     463.711E-03    -231.478E-03     24.9022E-03    -232.329E-03     462.658E-03    -231.478E-03     21.9821E-03
             730     1.42732E-03     121.010E-03    -121.047E+06    -293.840E+06    -113.708E+06     682.873E+03    -232.034E-03     463.823E-03    -231.789E-03     45.0894E-03    -232.330E-03     462.976E-03    -231.756E-03     39.7297E-03
             731     2.14162E-03     121.087E-03    -116.596E+06    -286.146E+06    -99.9023E+06     941.272E+03    -232.435E-03     464.223E-03    -231.788E-03     66.8698E-03    -233.074E-03     463.722E-03    -231.704E-03     58.7762E-03
             732     2.85569E-03     121.193E-03    -110.543E+06    -259.162E+06    -85.5483E+06     868.710E+03    -233.067E-03     464.852E-03    -231.785E-03     88.9257E-03    -234.222E-03     464.943E-03    -231.677E-03     77.9558E-03
             733     3.56927E-03     121.329E-03    -104.117E+06    -222.981E+06    -70.1355E+06     1.29027E+06    -233.744E-03     465.532E-03    -231.788E-03     110.863E-03    -235.600E-03     466.430E-03    -231.665E-03     96.8591E-03
             734     4.28341E-03     121.494E-03    -97.0731E+06    -194.932E+06    -52.7145E+06     1.54231E+06    -234.441E-03     466.250E-03    -231.809E-03     132.567E-03    -237.182E-03     468.107E-03    -231.649E-03     115.314E-03
             735     4.99783E-03     121.688E-03    -89.6160E+06    -160.559E+06    -35.7131E+06     1.50413E+06    -235.254E-03     467.073E-03    -231.819E-03     154.056E-03    -239.117E-03     470.151E-03    -231.634E-03     133.286E-03
             736     5.71088E-03     121.910E-03    -82.3498E+06    -119.206E+06    -18.3485E+06     1.24083E+06    -236.023E-03     467.851E-03    -231.828E-03     175.319E-03    -241.264E-03     472.430E-03    -231.627E-03     150.843E-03
             737     6.42550E-03     122.160E-03    -75.6200E+06    -70.5672E+06     439.714E+03     1.41058E+06    -236.619E-03     468.452E-03    -231.833E-03     196.467E-03    -243.542E-03     474.855E-03    -231.619E-03     168.090E-03
             738     7.13956E-03     122.436E-03    -69.0298E+06    -18.6965E+06      18.794E+06     1.39061E+06    -236.991E-03     468.811E-03    -231.819E-03     217.314E-03    -245.898E-03     477.352E-03    -231.598E-03     184.917E-03
             739     7.85270E-03     122.739E-03    -61.0709E+06     12.8710E+06     32.5821E+06    -907.415E+03    -237.062E-03     468.849E-03    -231.788E-03     237.477E-03    -248.178E-03     479.699E-03    -231.555E-03     201.099E-03
             740     8.56878E-03     123.068E-03    -50.9119E+06     24.4472E+06     44.5212E+06    -2.67577E+06    -237.157E-03     468.912E-03    -231.755E-03     255.615E-03    -250.593E-03     482.124E-03    -231.494E-03     215.500E-03
             741     9.28226E-03     123.415E-03    -40.9956E+06     33.7581E+06     56.9393E+06    -472.114E+03    -237.020E-03     468.752E-03    -231.732E-03     268.988E-03    -252.614E-03     484.155E-03    -231.436E-03     225.869E-03
             742     9.99699E-03     123.779E-03    -33.4657E+06     52.5537E+06     70.2710E+06     1.89408E+06    -236.031E-03     467.742E-03    -231.710E-03     273.682E-03    -253.141E-03     484.715E-03    -231.387E-03     228.868E-03
             743     10.7122E-03     124.136E-03    -27.7267E+06     57.8662E+06     78.1153E+06     1.97860E+06    -234.603E-03     466.298E-03    -231.695E-03     267.143E-03    -252.060E-03     483.635E-03    -231.348E-03     222.281E-03
             744     11.4264E-03     124.480E-03    -22.0560E+06     59.7660E+06     79.3033E+06     1.66423E+06    -233.166E-03     464.839E-03    -231.674E-03     251.021E-03    -249.750E-03     481.327E-03    -231.332E-03     207.647E-03
             745     12.1404E-03     124.792E-03    -15.5004E+06     70.4291E+06     81.7234E+06     1.17552E+06    -231.503E-03     463.160E-03    -231.657E-03     224.505E-03    -245.806E-03     477.421E-03    -231.328E-03     184.560E-03
             746     12.8540E-03     125.063E-03    -8.74377E+06     73.4017E+06     84.6057E+06     258.339E+03    -229.674E-03     461.303E-03    -231.629E-03     202.117E-03    -241.978E-03     473.592E-03    -231.300E-03     165.068E-03
             747     13.5688E-03     125.308E-03    -3.20317E+06     73.7104E+06     86.3405E+06     64.9684E+03    -228.905E-03     460.480E-03    -231.575E-03     144.586E-03    -236.631E-03     468.206E-03    -231.246E-03     116.187E-03
             748     713.565E-06     122.469E-03    -122.855E+06    -300.461E+06    -121.139E+06     370.413E+03    -232.113E-03     463.729E-03    -231.617E-03     24.7408E-03    -232.207E-03     462.672E-03    -231.608E-03     21.8397E-03
             749     1.42781E-03     122.516E-03    -120.947E+06    -295.813E+06    -113.396E+06     162.282E+03    -232.099E-03     463.905E-03    -231.806E-03     45.5408E-03    -232.395E-03     463.050E-03    -231.769E-03     40.1441E-03
             750     2.14138E-03     122.592E-03    -115.741E+06    -287.351E+06    -99.1727E+06     817.702E+03    -232.591E-03     464.423E-03    -231.832E-03     67.0670E-03    -233.226E-03     463.915E-03    -231.744E-03     58.9624E-03
             751     2.85525E-03     122.699E-03    -110.027E+06    -260.065E+06    -84.7576E+06     1.24499E+06    -233.087E-03     464.929E-03    -231.842E-03     88.9695E-03    -234.239E-03     465.013E-03    -231.729E-03     78.0125E-03
             752     3.56954E-03     122.835E-03    -103.408E+06    -223.793E+06    -69.1747E+06     1.34819E+06    -233.736E-03     465.572E-03    -231.836E-03     110.717E-03    -235.585E-03     466.460E-03    -231.707E-03     96.7195E-03
             753     4.28338E-03     123.000E-03    -96.4077E+06    -196.003E+06    -52.1459E+06     1.78003E+06    -234.542E-03     466.399E-03    -231.857E-03     132.381E-03    -237.279E-03     468.249E-03    -231.693E-03     115.109E-03
             754     4.99674E-03     123.194E-03    -89.2224E+06    -161.450E+06    -35.1636E+06     2.11799E+06    -235.314E-03     467.186E-03    -231.873E-03     154.067E-03    -239.175E-03     470.260E-03    -231.685E-03     133.290E-03
             755     5.71144E-03     123.416E-03    -81.7394E+06    -119.438E+06    -17.3155E+06     2.74444E+06    -235.978E-03     467.855E-03    -231.877E-03     175.359E-03    -241.217E-03     472.430E-03    -231.672E-03     150.913E-03
             756     6.42496E-03     123.665E-03    -73.4429E+06    -72.7231E+06     1.51874E+06     3.86308E+06    -236.481E-03     468.347E-03    -231.866E-03     196.456E-03    -243.387E-03     474.730E-03    -231.647E-03     168.139E-03
             757     7.13898E-03     123.943E-03    -63.7795E+06    -16.0431E+06     22.1024E+06     3.82722E+06    -236.734E-03     468.561E-03    -231.827E-03     217.394E-03    -245.612E-03     477.091E-03    -231.600E-03     185.102E-03
             758     7.85436E-03     124.245E-03    -53.8330E+06     20.5809E+06     39.0342E+06     1.62029E+06    -236.947E-03     468.725E-03    -231.779E-03     237.445E-03    -248.035E-03     479.582E-03    -231.535E-03     201.152E-03
             759     8.56811E-03     124.572E-03    -47.4905E+06     26.3401E+06     48.4255E+06     60.2221E+03    -237.284E-03     469.031E-03    -231.746E-03     255.615E-03    -250.707E-03     482.238E-03    -231.474E-03     215.532E-03
             760     9.28303E-03     124.923E-03    -43.6463E+06     30.7133E+06     56.5963E+06    -314.941E+03    -237.257E-03     468.991E-03    -231.734E-03     268.881E-03    -252.866E-03     484.390E-03    -231.432E-03     225.716E-03
             761     9.99749E-03     125.282E-03    -37.5352E+06     48.9033E+06     69.5330E+06     482.730E+03    -236.471E-03     468.215E-03    -231.743E-03     273.284E-03    -253.611E-03     485.193E-03    -231.412E-03     228.323E-03
             762     10.7112E-03     125.644E-03    -28.9977E+06     57.9866E+06     79.1444E+06     1.45374E+06    -235.050E-03     466.814E-03    -231.764E-03     266.500E-03    -252.517E-03     484.154E-03    -231.410E-03     221.509E-03
             763     11.4249E-03     125.984E-03    -20.1496E+06     60.9727E+06     81.4438E+06     139.838E+03    -233.068E-03     464.822E-03    -231.754E-03     251.024E-03    -249.637E-03     481.300E-03    -231.406E-03     207.664E-03
             764     12.1384E-03     126.301E-03    -12.9627E+06     69.8388E+06     83.3804E+06     22.3326E+03    -230.646E-03     462.347E-03    -231.700E-03     225.277E-03    -244.944E-03     476.604E-03    -231.366E-03     185.482E-03
             765     12.8550E-03     126.564E-03    -8.07611E+06     72.6813E+06     85.1384E+06     1.51484E+06    -228.847E-03     460.463E-03    -231.615E-03     202.340E-03    -241.128E-03     472.726E-03    -231.283E-03     165.478E-03
             766     13.5719E-03     126.814E-03    -4.49423E+06     74.5475E+06     85.9759E+06     1.73408E+06    -229.110E-03     460.649E-03    -231.539E-03     144.587E-03    -236.811E-03     468.349E-03    -231.211E-03     116.304E-03
             767     714.070E-06     123.974E-03    -124.251E+06    -302.388E+06    -121.309E+06     526.848E+03    -231.883E-03     463.539E-03    -231.656E-03     24.5769E-03    -231.980E-03     462.474E-03    -231.644E-03     21.6888E-03
             768     1.42774E-03     124.022E-03    -120.774E+06    -296.160E+06    -111.855E+06     869.246E+03    -232.246E-03     464.014E-03    -231.768E-03     45.4200E-03    -232.542E-03     463.154E-03    -231.723E-03     40.0417E-03
             769     2.14159E-03     124.099E-03    -116.223E+06    -288.251E+06    -99.0390E+06     821.985E+03    -232.740E-03     464.600E-03    -231.860E-03     66.9918E-03    -233.376E-03     464.087E-03    -231.768E-03     58.8839E-03
             770     2.85527E-03     124.204E-03    -109.672E+06    -261.118E+06    -84.7564E+06     905.872E+03    -233.244E-03     465.146E-03    -231.902E-03     88.8718E-03    -234.393E-03     465.224E-03    -231.788E-03     77.9035E-03
             771     3.56889E-03     124.341E-03    -103.059E+06    -225.599E+06    -69.1855E+06     1.39379E+06    -233.830E-03     465.741E-03    -231.911E-03     110.715E-03    -235.677E-03     466.622E-03    -231.781E-03     96.7039E-03
             772     4.28276E-03     124.506E-03    -95.8565E+06    -197.539E+06    -51.7369E+06     1.84153E+06    -234.584E-03     466.516E-03    -231.932E-03     132.453E-03    -237.320E-03     468.360E-03    -231.765E-03     115.162E-03
             773     4.99715E-03     124.700E-03    -88.1309E+06    -162.823E+06    -34.4422E+06     2.32175E+06    -235.265E-03     467.203E-03    -231.938E-03     154.026E-03    -239.119E-03     470.266E-03    -231.746E-03     133.260E-03
             774     5.71052E-03     124.922E-03    -79.7979E+06    -121.808E+06    -16.5095E+06     3.02064E+06    -235.839E-03     467.761E-03    -231.922E-03     175.405E-03    -241.066E-03     472.321E-03    -231.712E-03     150.974E-03
             775     6.42495E-03     125.172E-03    -70.7330E+06    -74.9701E+06     2.70317E+06     3.02533E+06    -236.256E-03     468.140E-03    -231.884E-03     196.553E-03    -243.139E-03     474.498E-03    -231.659E-03     168.280E-03
             776     7.13968E-03     125.448E-03    -61.7129E+06    -15.0675E+06     23.9030E+06     2.60139E+06    -236.565E-03     468.386E-03    -231.821E-03     217.248E-03    -245.427E-03     476.906E-03    -231.590E-03     184.977E-03
             777     7.85383E-03     125.750E-03    -55.3904E+06     19.7029E+06     38.2802E+06     4.44876E+06    -237.105E-03     468.877E-03    -231.772E-03     236.976E-03    -248.189E-03     479.723E-03    -231.529E-03     200.686E-03
             778     8.56850E-03     126.079E-03    -50.7876E+06     29.6064E+06     46.9485E+06     6.03768E+06    -237.529E-03     469.287E-03    -231.758E-03     254.813E-03    -250.956E-03     482.502E-03    -231.493E-03     214.752E-03
             779     9.28280E-03     126.427E-03    -44.2870E+06     39.1805E+06     57.9050E+06     3.00100E+06    -237.432E-03     469.208E-03    -231.775E-03     267.958E-03    -253.046E-03     484.636E-03    -231.478E-03     224.750E-03
             780     9.99619E-03     126.791E-03    -35.9098E+06     47.5389E+06     70.8151E+06    -127.995E+03    -236.658E-03     468.472E-03    -231.814E-03     272.866E-03    -253.779E-03     485.429E-03    -231.477E-03     227.842E-03
             781     10.7098E-03     127.149E-03    -27.6533E+06     57.3294E+06     81.3351E+06    -990.402E+03    -234.787E-03     466.617E-03    -231.830E-03     267.293E-03    -252.262E-03     483.961E-03    -231.466E-03     222.343E-03
             782     11.4241E-03     127.492E-03    -20.6488E+06     61.8443E+06     83.6262E+06    -779.464E+03    -232.247E-03     464.020E-03    -231.773E-03     252.127E-03    -248.828E-03     480.505E-03    -231.415E-03     208.965E-03
             783     12.1410E-03     127.803E-03    -15.7238E+06     64.7718E+06     83.1754E+06     912.173E+03    -230.294E-03     461.971E-03    -231.676E-03     225.688E-03    -244.598E-03     476.207E-03    -231.331E-03     186.009E-03
             784     12.8557E-03     128.070E-03    -11.0553E+06     72.4286E+06     84.5084E+06     1.75726E+06    -229.794E-03     461.395E-03    -231.601E-03     201.698E-03    -242.097E-03     473.671E-03    -231.268E-03     164.661E-03
             785     13.5690E-03     128.316E-03    -5.29795E+06     77.5575E+06     85.6442E+06     1.08400E+06    -229.709E-03     461.275E-03    -231.566E-03     143.859E-03    -237.421E-03     468.995E-03    -231.242E-03     115.410E-03
             786     713.918E-06     125.480E-03    -124.817E+06    -303.830E+06    -122.282E+06     574.999E+03    -232.160E-03     463.915E-03    -231.755E-03     24.3931E-03    -232.256E-03     462.844E-03    -231.745E-03     21.4912E-03
             787     1.42751E-03     125.528E-03    -121.425E+06    -297.515E+06    -112.622E+06     609.793E+03    -232.281E-03     464.211E-03    -231.929E-03     45.0517E-03    -232.576E-03     463.345E-03    -231.885E-03     39.6798E-03
             788     2.14123E-03     125.604E-03    -115.946E+06    -288.433E+06    -99.3936E+06     504.870E+03    -232.732E-03     464.703E-03    -231.971E-03     66.8194E-03    -233.366E-03     464.190E-03    -231.882E-03     58.7017E-03
             789     2.85492E-03     125.711E-03    -110.160E+06    -262.141E+06    -85.4350E+06     667.361E+03    -233.297E-03     465.289E-03    -231.992E-03     88.6800E-03    -234.444E-03     465.362E-03    -231.879E-03     77.7010E-03
             790     3.56884E-03     125.847E-03    -103.749E+06    -227.245E+06    -69.6958E+06     941.592E+03    -233.870E-03     465.866E-03    -231.996E-03     110.708E-03    -235.719E-03     466.742E-03    -231.864E-03     96.6798E-03
             791     4.28275E-03     126.012E-03    -96.2421E+06    -199.116E+06    -52.1784E+06     1.26903E+06    -234.476E-03     466.473E-03    -231.997E-03     132.577E-03    -237.212E-03     468.311E-03    -231.829E-03     115.285E-03
             792     4.99615E-03     126.206E-03    -88.2752E+06    -164.459E+06    -34.8287E+06     1.61838E+06    -235.104E-03     467.075E-03    -231.971E-03     154.341E-03    -238.958E-03     470.132E-03    -231.778E-03     133.589E-03
             793     5.71082E-03     126.428E-03    -80.4163E+06    -123.640E+06    -17.0980E+06     1.78325E+06    -235.722E-03     467.650E-03    -231.928E-03     175.824E-03    -240.955E-03     472.208E-03    -231.718E-03     151.386E-03
             794     6.42514E-03     126.677E-03    -72.7541E+06    -75.5761E+06     1.86569E+06     1.98479E+06    -236.321E-03     468.205E-03    -231.884E-03     196.454E-03    -243.213E-03     474.565E-03    -231.660E-03     168.149E-03
             795     7.13937E-03     126.954E-03    -66.3019E+06    -19.3141E+06     20.6767E+06     3.86193E+06    -236.880E-03     468.723E-03    -231.843E-03     216.659E-03    -245.747E-03     477.226E-03    -231.615E-03     184.349E-03
             796     7.85378E-03     127.257E-03    -59.4209E+06     13.7518E+06     34.0562E+06     6.87214E+06    -237.381E-03     469.204E-03    -231.823E-03     236.332E-03    -248.456E-03     480.018E-03    -231.587E-03     200.034E-03
             797     8.56760E-03     127.584E-03    -49.6834E+06     32.3241E+06     47.2074E+06     6.94687E+06    -237.732E-03     469.566E-03    -231.834E-03     254.333E-03    -251.146E-03     482.782E-03    -231.573E-03     214.237E-03
             798     9.28084E-03     127.935E-03    -39.7410E+06     46.9314E+06     61.1793E+06     4.64852E+06    -237.468E-03     469.327E-03    -231.860E-03     268.125E-03    -253.088E-03     484.796E-03    -231.564E-03     224.897E-03
             799     9.99546E-03     128.296E-03    -32.5267E+06     51.8727E+06     72.9130E+06     2.38397E+06    -236.040E-03     467.907E-03    -231.867E-03     273.452E-03    -253.147E-03     484.872E-03    -231.531E-03     228.604E-03
             800     10.7105E-03     128.657E-03    -27.0978E+06     59.2230E+06     82.7805E+06     1.24312E+06    -233.939E-03     465.765E-03    -231.826E-03     267.719E-03    -251.386E-03     483.086E-03    -231.459E-03     223.028E-03
             801     11.4266E-03     128.995E-03    -22.8000E+06     60.3307E+06     83.7093E+06     1.90011E+06    -232.123E-03     463.863E-03    -231.740E-03     251.335E-03    -248.681E-03     480.312E-03    -231.376E-03     208.248E-03
             802     12.1405E-03     129.308E-03    -17.5531E+06     64.3919E+06     83.3694E+06     1.80672E+06    -231.028E-03     462.697E-03    -231.669E-03     224.346E-03    -245.314E-03     476.908E-03    -231.320E-03     184.546E-03
             803     12.8551E-03     129.575E-03    -10.9457E+06     74.5761E+06     85.9780E+06         272.129    -230.421E-03     462.061E-03    -231.640E-03     201.615E-03    -242.740E-03     474.356E-03    -231.302E-03     164.424E-03
             804     13.5683E-03     129.827E-03    -4.55916E+06     77.4989E+06     86.6126E+06    -514.560E+03    -228.935E-03     460.535E-03    -231.600E-03     144.211E-03    -236.667E-03     468.275E-03    -231.273E-03     115.734E-03
             805     713.043E-06     126.986E-03    -123.818E+06    -303.906E+06    -123.253E+06    -299.700E+03    -232.511E-03     464.433E-03    -231.922E-03     24.4563E-03    -232.601E-03     463.363E-03    -231.918E-03     21.5357E-03
             806     1.42708E-03     127.034E-03    -121.188E+06    -298.110E+06    -113.990E+06    -164.363E+03    -232.302E-03     464.435E-03    -232.132E-03     45.2579E-03    -232.594E-03     463.569E-03    -232.094E-03     39.8489E-03
             807     2.14081E-03     127.111E-03    -116.707E+06    -289.283E+06    -100.352E+06     326.676E+03    -232.693E-03     464.792E-03    -232.099E-03     67.0716E-03    -233.328E-03     464.277E-03    -232.012E-03     58.9520E-03
             808     2.85464E-03     127.217E-03    -110.790E+06    -262.924E+06    -85.8460E+06     608.290E+03    -233.208E-03     465.277E-03    -232.069E-03     88.9972E-03    -234.360E-03     465.352E-03    -231.956E-03     78.0069E-03
             809     3.56830E-03     127.353E-03    -104.229E+06    -227.765E+06    -70.0008E+06     723.971E+03    -233.778E-03     465.814E-03    -232.035E-03     111.037E-03    -235.632E-03     466.691E-03    -231.904E-03     97.0044E-03
             810     4.28219E-03     127.518E-03    -97.3269E+06    -200.181E+06    -53.0059E+06     818.713E+03    -234.385E-03     466.394E-03    -232.009E-03     132.869E-03    -237.125E-03     468.232E-03    -231.843E-03     115.585E-03
             811     4.99713E-03     127.712E-03    -90.0699E+06    -166.178E+06    -36.2921E+06     1.32591E+06    -235.091E-03     467.062E-03    -231.971E-03     154.330E-03    -238.950E-03     470.117E-03    -231.781E-03     133.564E-03
             812     5.71108E-03     127.934E-03    -82.9909E+06    -124.921E+06    -18.9045E+06     1.97796E+06    -235.886E-03     467.827E-03    -231.941E-03     175.234E-03    -241.118E-03     472.376E-03    -231.734E-03     150.778E-03
             813     6.42507E-03     128.184E-03    -76.1830E+06    -78.8453E+06    -1.12249E+06     3.44034E+06    -236.654E-03     468.583E-03    -231.930E-03     195.785E-03    -243.542E-03     474.925E-03    -231.710E-03     167.459E-03
             814     7.13870E-03     128.460E-03    -68.2676E+06    -25.3081E+06     17.8224E+06     5.69661E+06    -237.173E-03     469.098E-03    -231.924E-03     216.139E-03    -246.022E-03     477.563E-03    -231.700E-03     183.828E-03
             815     7.85237E-03     128.763E-03    -58.5959E+06     12.0286E+06     33.6584E+06     5.63155E+06    -237.480E-03     469.400E-03    -231.920E-03     236.311E-03    -248.549E-03     480.206E-03    -231.684E-03     199.971E-03
             816     8.56631E-03     129.091E-03    -49.5172E+06     33.1908E+06     46.5017E+06     4.03201E+06    -237.555E-03     469.467E-03    -231.912E-03     254.964E-03    -250.986E-03     482.706E-03    -231.656E-03     214.836E-03
             817     9.28136E-03     129.441E-03    -42.1739E+06     47.6808E+06     60.2710E+06     3.63538E+06    -236.980E-03     468.881E-03    -231.901E-03     268.714E-03    -252.608E-03     484.354E-03    -231.608E-03     225.587E-03
             818     9.99547E-03     129.803E-03    -35.5790E+06     54.5218E+06     73.6710E+06     3.84177E+06    -235.624E-03     467.502E-03    -231.878E-03     273.256E-03    -252.741E-03     484.473E-03    -231.537E-03     228.503E-03
             819     10.7112E-03     130.159E-03    -29.5365E+06     59.4895E+06     82.6425E+06     4.41441E+06    -233.990E-03     465.820E-03    -231.829E-03     266.536E-03    -251.423E-03     483.119E-03    -231.460E-03     221.849E-03
             820     11.4252E-03     130.503E-03    -22.4242E+06     61.6740E+06     84.1184E+06     3.56616E+06    -232.575E-03     464.343E-03    -231.768E-03     250.045E-03    -249.103E-03     480.767E-03    -231.404E-03     206.878E-03
             821     12.1398E-03     130.812E-03    -14.9099E+06     68.0602E+06     84.9643E+06     1.16592E+06    -231.103E-03     462.821E-03    -231.718E-03     224.289E-03    -245.381E-03     477.041E-03    -231.370E-03     184.444E-03
             822     12.8531E-03     131.084E-03    -8.97450E+06     76.2083E+06     87.1472E+06    -64.7201E+03    -229.122E-03     460.771E-03    -231.649E-03     202.838E-03    -241.432E-03     473.068E-03    -231.311E-03     165.886E-03
             823     13.5697E-03     131.328E-03    -3.77165E+06     77.4410E+06     87.5359E+06    -271.364E+03    -227.770E-03     459.310E-03    -231.539E-03     144.806E-03    -235.488E-03     467.035E-03    -231.209E-03     116.555E-03
             824     713.870E-06     128.494E-03    -125.188E+06    -303.807E+06    -122.607E+06    -258.727E+03    -232.259E-03     464.265E-03    -232.006E-03     24.5943E-03    -232.358E-03     463.197E-03    -231.997E-03     21.6612E-03
             825     1.42703E-03     128.540E-03    -121.720E+06    -298.140E+06    -113.921E+06     44.9383E+03    -232.437E-03     464.528E-03    -232.091E-03     45.6253E-03    -232.733E-03     463.664E-03    -232.052E-03     40.2305E-03
             826     2.14087E-03     128.617E-03    -117.169E+06    -289.761E+06    -100.859E+06     6.29089E+03    -232.707E-03     464.804E-03    -232.098E-03     67.3980E-03    -233.345E-03     464.291E-03    -232.012E-03     59.2703E-03
             827     2.85469E-03     128.723E-03    -111.533E+06    -263.943E+06    -86.8462E+06     284.785E+03    -233.167E-03     465.228E-03    -232.061E-03     89.2947E-03    -234.323E-03     465.303E-03    -231.950E-03     78.2951E-03
             828     3.56888E-03     128.859E-03    -105.158E+06    -228.956E+06    -71.0996E+06     995.093E+03    -233.784E-03     465.807E-03    -232.023E-03     110.994E-03    -235.638E-03     466.681E-03    -231.894E-03     96.9637E-03
             829     4.28311E-03     129.024E-03    -98.5447E+06    -201.292E+06    -53.8641E+06     1.75710E+06    -234.563E-03     466.581E-03    -232.018E-03     132.448E-03    -237.304E-03     468.414E-03    -231.853E-03     115.154E-03
             830     4.99627E-03     129.218E-03    -92.0320E+06    -167.757E+06    -37.6400E+06     2.26944E+06    -235.430E-03     467.452E-03    -232.021E-03     153.761E-03    -239.289E-03     470.497E-03    -231.833E-03     132.970E-03
             831     5.71007E-03     129.440E-03    -84.9108E+06    -127.720E+06    -21.0731E+06     3.10935E+06    -236.188E-03     468.218E-03    -232.030E-03     174.802E-03    -241.415E-03     472.751E-03    -231.827E-03     150.333E-03
             832     6.42375E-03     129.690E-03    -76.8919E+06    -82.6235E+06    -2.72217E+06     4.25396E+06    -236.733E-03     468.768E-03    -232.035E-03     195.729E-03    -243.614E-03     475.091E-03    -231.817E-03     167.405E-03
             833     7.13777E-03     129.967E-03    -67.7223E+06    -28.3717E+06     17.2010E+06     4.45645E+06    -237.067E-03     469.084E-03    -232.017E-03     216.484E-03    -245.910E-03     477.536E-03    -231.792E-03     184.178E-03
             834     7.85197E-03     130.269E-03    -59.1697E+06     12.5187E+06     33.6480E+06     4.21200E+06    -237.343E-03     469.330E-03    -231.987E-03     236.907E-03    -248.429E-03     480.153E-03    -231.751E-03     200.558E-03
             835     8.56665E-03     130.597E-03    -52.3144E+06     33.3080E+06     46.3469E+06     4.48477E+06    -237.299E-03     469.255E-03    -231.956E-03     255.120E-03    -250.746E-03     482.501E-03    -231.697E-03     215.033E-03
             836     9.28054E-03     130.946E-03    -45.2877E+06     48.1519E+06     60.5471E+06     4.07410E+06    -236.678E-03     468.604E-03    -231.926E-03     268.107E-03    -252.294E-03     484.055E-03    -231.628E-03     225.059E-03
             837     9.99644E-03     131.307E-03    -37.2347E+06     52.7790E+06     73.2199E+06     3.96190E+06    -235.819E-03     467.721E-03    -231.902E-03     272.462E-03    -252.916E-03     484.661E-03    -231.559E-03     227.683E-03
             838     10.7095E-03     131.666E-03    -28.0674E+06     58.3498E+06     82.7726E+06     4.28066E+06    -234.428E-03     466.306E-03    -231.877E-03     266.170E-03    -251.855E-03     483.600E-03    -231.508E-03     221.388E-03
             839     11.4243E-03     132.006E-03    -19.2447E+06     66.1446E+06     86.1148E+06     2.92611E+06    -232.378E-03     464.196E-03    -231.818E-03     251.043E-03    -248.929E-03     480.664E-03    -231.455E-03     207.896E-03
             840     12.1385E-03     132.321E-03    -13.3179E+06     69.0953E+06     85.4389E+06     2.17844E+06    -230.184E-03     461.907E-03    -231.723E-03     225.433E-03    -244.483E-03     476.156E-03    -231.376E-03     185.747E-03
             841     12.8560E-03     132.584E-03    -8.43179E+06     77.6998E+06     87.6223E+06     1.78583E+06    -228.377E-03     459.983E-03    -231.606E-03     201.933E-03    -240.660E-03     472.257E-03    -231.268E-03     165.131E-03
             842     13.5728E-03     132.832E-03    -3.75514E+06     79.8575E+06     88.7475E+06     274.437E+03    -228.314E-03     459.816E-03    -231.502E-03     142.703E-03    -235.995E-03     467.510E-03    -231.168E-03     114.436E-03
             843     713.711E-06     130.000E-03    -125.727E+06    -304.231E+06    -123.156E+06     428.410E+03    -232.073E-03     463.870E-03    -231.797E-03     24.8873E-03    -232.172E-03     462.800E-03    -231.789E-03     21.9931E-03
             844     1.42765E-03     130.047E-03    -122.128E+06    -298.174E+06    -113.717E+06     192.983E+03    -232.441E-03     464.377E-03    -231.936E-03     45.4825E-03    -232.738E-03     463.512E-03    -231.895E-03     40.1044E-03
             845     2.14107E-03     130.123E-03    -117.334E+06    -290.216E+06    -101.411E+06     174.042E+03    -232.847E-03     464.865E-03    -232.018E-03     67.2293E-03    -233.484E-03     464.350E-03    -231.934E-03     59.0972E-03
             846     2.85497E-03     130.229E-03    -112.129E+06    -265.169E+06    -87.3736E+06     781.106E+03    -233.350E-03     465.397E-03    -232.047E-03     89.0073E-03    -234.504E-03     465.466E-03    -231.937E-03     78.0087E-03
             847     3.56848E-03     130.366E-03    -106.175E+06    -231.329E+06    -71.9617E+06     1.66557E+06    -234.002E-03     466.060E-03    -232.058E-03     110.578E-03    -235.854E-03     466.923E-03    -231.929E-03     96.5345E-03
             848     4.28186E-03     130.530E-03    -99.5971E+06    -203.993E+06    -55.2227E+06     2.78925E+06    -234.832E-03     466.923E-03    -232.090E-03     132.268E-03    -237.571E-03     468.743E-03    -231.926E-03     114.965E-03
             849     4.99598E-03     130.725E-03    -92.5183E+06    -169.745E+06    -38.3382E+06     3.88600E+06    -235.622E-03     467.739E-03    -232.118E-03     153.889E-03    -239.479E-03     470.776E-03    -231.929E-03     133.111E-03
             850     5.70956E-03     130.947E-03    -85.1941E+06    -129.373E+06    -21.0648E+06     4.18692E+06    -236.248E-03     468.377E-03    -232.129E-03     175.217E-03    -241.482E-03     472.910E-03    -231.923E-03     150.750E-03
             851     6.42344E-03     131.197E-03    -77.4615E+06    -84.4284E+06    -2.86013E+06     4.10939E+06    -236.684E-03     468.802E-03    -232.118E-03     196.150E-03    -243.570E-03     475.122E-03    -231.898E-03     167.833E-03
             852     7.13760E-03     131.473E-03    -70.1241E+06    -28.9175E+06     16.7351E+06     4.18839E+06    -236.975E-03     469.056E-03    -232.082E-03     216.587E-03    -245.829E-03     477.510E-03    -231.854E-03     184.282E-03
             853     7.85211E-03     131.776E-03    -62.5725E+06     11.2344E+06     32.6593E+06     4.04778E+06    -237.262E-03     469.302E-03    -232.041E-03     236.502E-03    -248.351E-03     480.114E-03    -231.803E-03     200.152E-03
             854     8.56580E-03     132.104E-03    -53.3982E+06     31.9709E+06     45.6131E+06     4.03080E+06    -237.185E-03     469.190E-03    -232.005E-03     254.182E-03    -250.605E-03     482.402E-03    -231.746E-03     214.111E-03
             855     9.28112E-03     132.452E-03    -43.9988E+06     48.3094E+06     60.6599E+06     4.64731E+06    -236.762E-03     468.740E-03    -231.978E-03     267.385E-03    -252.352E-03     484.169E-03    -231.681E-03     224.324E-03
             856     9.99418E-03     132.813E-03    -35.5261E+06     53.0662E+06     73.6815E+06     3.96558E+06    -235.842E-03     467.800E-03    -231.958E-03     272.432E-03    -252.914E-03     484.721E-03    -231.615E-03     227.678E-03
             857     10.7099E-03     133.172E-03    -27.5164E+06     58.9989E+06     82.9861E+06     1.99571E+06    -233.998E-03     465.911E-03    -231.913E-03     266.606E-03    -251.414E-03     483.197E-03    -231.543E-03     221.903E-03
             858     11.4243E-03     133.512E-03    -21.2111E+06     66.3177E+06     85.3976E+06     1.71465E+06    -231.769E-03     463.584E-03    -231.815E-03     251.212E-03    -248.336E-03     480.064E-03    -231.453E-03     208.131E-03
             859     12.1414E-03     133.823E-03    -15.0445E+06     69.4543E+06     85.5084E+06     1.75358E+06    -229.930E-03     461.631E-03    -231.701E-03     224.455E-03    -244.230E-03     475.877E-03    -231.352E-03     184.758E-03
             860     12.8552E-03     134.089E-03    -9.34221E+06     78.9984E+06     88.1989E+06     1.86633E+06    -229.372E-03     460.989E-03    -231.616E-03     200.355E-03    -241.671E-03     473.279E-03    -231.276E-03     163.327E-03
             861     13.5685E-03     134.334E-03    -5.66530E+06     81.8264E+06     88.4244E+06     1.53223E+06    -229.472E-03     461.046E-03    -231.575E-03     142.005E-03    -237.190E-03     468.779E-03    -231.243E-03     113.527E-03
             862     713.952E-06     131.506E-03    -124.500E+06    -304.310E+06    -123.481E+06    -489.598E+03    -232.224E-03     464.098E-03    -231.875E-03     24.2985E-03    -232.315E-03     463.025E-03    -231.870E-03     21.4297E-03
             863     1.42741E-03     131.553E-03    -121.984E+06    -299.142E+06    -115.245E+06     288.376E+03    -232.368E-03     464.379E-03    -232.010E-03     44.9830E-03    -232.659E-03     463.509E-03    -231.976E-03     39.5979E-03
             864     2.14130E-03     131.630E-03    -118.305E+06    -291.188E+06    -102.209E+06     902.189E+03    -232.883E-03     464.947E-03    -232.064E-03     66.6898E-03    -233.519E-03     464.426E-03    -231.982E-03     58.5742E-03
             865     2.85447E-03     131.736E-03    -112.745E+06    -267.202E+06    -87.5992E+06     1.41081E+06    -233.458E-03     465.565E-03    -232.106E-03     88.8272E-03    -234.610E-03     465.622E-03    -231.994E-03     77.8406E-03
             866     3.56825E-03     131.872E-03    -106.189E+06    -234.406E+06    -71.5142E+06     2.45551E+06    -234.177E-03     466.314E-03    -232.137E-03     110.810E-03    -236.027E-03     467.162E-03    -232.000E-03     96.7695E-03
             867     4.28213E-03     132.038E-03    -99.3093E+06     -207.19E+06    -54.9804E+06     3.52126E+06    -234.975E-03     467.153E-03    -232.178E-03     132.553E-03    -237.711E-03     468.961E-03    -232.008E-03     115.246E-03
             868     4.99537E-03     132.232E-03    -91.7605E+06    -173.070E+06    -37.9452E+06     4.51116E+06    -235.636E-03     467.838E-03    -232.202E-03     153.990E-03    -239.488E-03     470.860E-03    -232.008E-03     133.209E-03
             869     5.70929E-03     132.454E-03    -83.7665E+06    -131.327E+06    -19.7855E+06     5.47633E+06    -236.219E-03     468.422E-03    -232.203E-03     175.115E-03    -241.440E-03     472.936E-03    -231.990E-03     150.677E-03
             870     6.42326E-03     132.704E-03    -76.3596E+06    -85.0055E+06    -709.304E+03     6.08053E+06    -236.750E-03     468.942E-03    -232.192E-03     195.740E-03    -243.625E-03     475.245E-03    -231.961E-03     167.443E-03
             871     7.13716E-03     132.980E-03    -67.9422E+06    -28.9810E+06     19.3286E+06     5.99555E+06    -237.118E-03     469.282E-03    -232.164E-03     216.118E-03    -245.966E-03     477.730E-03    -231.927E-03     183.786E-03
             872     7.85066E-03     133.282E-03    -58.0521E+06     12.6156E+06     36.6852E+06     5.04008E+06    -237.229E-03     469.357E-03    -232.128E-03     236.133E-03    -248.289E-03     480.150E-03    -231.879E-03     199.810E-03
             873     8.56549E-03     133.610E-03    -48.7056E+06     31.0746E+06     49.8198E+06     4.46804E+06    -237.207E-03     469.297E-03    -232.090E-03     254.030E-03    -250.588E-03     482.471E-03    -231.815E-03     214.006E-03
             874     9.27903E-03     133.957E-03    -40.5751E+06     44.5994E+06     63.0521E+06     5.58073E+06    -236.868E-03     468.925E-03    -232.057E-03     267.451E-03    -252.436E-03     484.324E-03    -231.747E-03     224.398E-03
             875     9.99495E-03     134.319E-03    -33.5398E+06     57.2498E+06     76.7244E+06     6.06614E+06    -235.533E-03     467.552E-03    -232.019E-03     272.227E-03    -252.595E-03     484.475E-03    -231.669E-03     227.549E-03
             876     10.7091E-03     134.676E-03    -27.8744E+06     63.7753E+06     85.3490E+06     4.20453E+06    -233.560E-03     465.508E-03    -231.949E-03     265.899E-03    -250.969E-03     482.797E-03    -231.574E-03     221.274E-03
             877     11.4254E-03     135.016E-03    -22.0914E+06     66.0558E+06     86.7604E+06     2.77675E+06    -231.836E-03     463.687E-03    -231.851E-03     249.569E-03    -248.364E-03     480.120E-03    -231.481E-03     206.485E-03
             878     12.1387E-03     135.327E-03    -15.9590E+06     71.3008E+06     87.3353E+06     2.02122E+06    -230.562E-03     462.332E-03    -231.770E-03     222.519E-03    -244.821E-03     476.535E-03    -231.414E-03     182.738E-03
             879     12.8547E-03     135.594E-03    -11.3909E+06     79.0064E+06     88.5272E+06     1.10934E+06    -229.459E-03     461.167E-03    -231.708E-03     199.932E-03    -241.741E-03     473.432E-03    -231.363E-03     162.920E-03
             880     13.5687E-03     135.845E-03    -6.19477E+06     82.2978E+06     88.5438E+06     894.057E+03    -228.032E-03     459.653E-03    -231.621E-03     143.656E-03    -235.744E-03     467.378E-03    -231.288E-03     115.387E-03
             881     712.942E-06     133.012E-03    -126.059E+06    -305.374E+06    -123.381E+06     941.429E+03    -232.244E-03     464.561E-03    -232.317E-03     24.3247E-03    -232.343E-03     463.486E-03    -232.308E-03     21.4310E-03
             882     1.42698E-03     133.060E-03    -124.077E+06    -300.721E+06    -115.723E+06     1.04954E+06    -232.417E-03     464.627E-03    -232.209E-03     45.1901E-03    -232.716E-03     463.753E-03    -232.172E-03     39.8142E-03
             883     2.14030E-03     133.136E-03    -119.077E+06    -291.924E+06    -102.802E+06     1.05961E+06    -232.864E-03     465.060E-03    -232.196E-03     66.9004E-03    -233.502E-03     464.537E-03    -232.114E-03     58.7989E-03
             884     2.85454E-03     133.243E-03    -112.992E+06    -269.438E+06    -87.4316E+06     1.26942E+06    -233.528E-03     465.741E-03    -232.212E-03     88.8342E-03    -234.678E-03     465.786E-03    -232.095E-03     77.8384E-03
             885     3.56811E-03     133.379E-03    -106.242E+06    -238.651E+06    -70.8547E+06     2.49821E+06    -234.282E-03     466.527E-03    -232.245E-03     110.601E-03    -236.125E-03     467.351E-03    -232.099E-03     96.5525E-03
             886     4.28134E-03     133.545E-03    -98.7177E+06    -210.295E+06    -53.8038E+06     3.76800E+06    -235.003E-03     467.287E-03    -232.284E-03     132.196E-03    -237.728E-03     469.071E-03    -232.105E-03     114.891E-03
             887     4.99523E-03     133.739E-03    -90.8239E+06    -176.252E+06    -36.7298E+06     4.30899E+06    -235.707E-03     468.012E-03    -232.305E-03     153.661E-03    -239.547E-03     471.010E-03    -232.101E-03     132.864E-03
             888     5.70886E-03     133.961E-03    -82.7755E+06    -135.340E+06    -18.9605E+06     5.48120E+06    -236.362E-03     468.673E-03    -232.311E-03     174.608E-03    -241.563E-03     473.154E-03    -232.089E-03     150.157E-03
             889     6.42246E-03     134.211E-03    -73.4092E+06    -87.6221E+06     1.11941E+06     6.61941E+06    -236.810E-03     469.115E-03    -232.305E-03     195.301E-03    -243.663E-03     475.393E-03    -232.066E-03     166.991E-03
             890     7.13610E-03     134.487E-03    -64.2872E+06    -29.0932E+06     22.5985E+06     6.73845E+06    -237.038E-03     469.309E-03    -232.271E-03     215.951E-03    -245.863E-03     477.737E-03    -232.022E-03     183.639E-03
             891     7.85077E-03     134.789E-03    -56.7912E+06     14.3534E+06     39.0453E+06     6.52403E+06    -237.188E-03     469.406E-03    -232.218E-03     235.786E-03    -248.229E-03     480.183E-03    -231.961E-03     199.505E-03
             892     8.56487E-03     135.116E-03    -50.8616E+06     29.9280E+06     49.0516E+06     6.50290E+06    -237.225E-03     469.395E-03    -232.170E-03     253.569E-03    -250.604E-03     482.557E-03    -231.894E-03     213.540E-03
             893     9.27997E-03     135.465E-03    -45.5851E+06     42.7056E+06     59.8550E+06     6.19167E+06    -236.706E-03     468.832E-03    -232.126E-03     266.728E-03    -252.261E-03     484.204E-03    -231.823E-03     223.705E-03
             894     9.99321E-03     135.823E-03    -38.4573E+06     58.4608E+06     74.8761E+06     5.01454E+06    -235.540E-03     467.632E-03    -232.091E-03     271.166E-03    -252.606E-03     484.552E-03    -231.746E-03     226.430E-03
             895     10.7092E-03     136.181E-03    -29.7857E+06     65.9544E+06     86.8676E+06     4.36416E+06    -233.952E-03     466.009E-03    -232.058E-03     264.192E-03    -251.343E-03     483.277E-03    -231.676E-03     219.455E-03
             896     11.4225E-03     136.521E-03    -22.0659E+06     67.6695E+06     89.4494E+06     4.08218E+06    -232.102E-03     464.098E-03    -231.996E-03     247.883E-03    -248.586E-03     480.484E-03    -231.615E-03     204.765E-03
             897     12.1384E-03     136.833E-03    -16.1734E+06     72.9871E+06     89.3350E+06     3.34151E+06    -230.056E-03     461.961E-03    -231.905E-03     222.269E-03    -244.277E-03     476.125E-03    -231.541E-03     182.651E-03
             898     12.8507E-03     137.100E-03    -9.50187E+06     81.3059E+06     91.5271E+06     1.94330E+06    -227.690E-03     459.458E-03    -231.769E-03     200.885E-03    -239.922E-03     471.681E-03    -231.415E-03     164.291E-03
             899     13.5690E-03     137.342E-03    -3.77346E+06     84.0052E+06     92.0643E+06     600.809E+03    -226.516E-03     458.103E-03    -231.586E-03     143.756E-03    -234.192E-03     465.796E-03    -231.242E-03     115.779E-03
             900     713.935E-06     134.521E-03    -128.637E+06    -308.287E+06    -126.568E+06     820.692E+03    -232.380E-03     464.486E-03    -232.106E-03     24.8654E-03    -232.484E-03     463.406E-03    -232.105E-03     21.9677E-03
             901     1.42687E-03     134.566E-03    -125.121E+06    -301.666E+06    -116.504E+06     893.535E+03    -232.632E-03     464.855E-03    -232.223E-03     45.4059E-03    -232.934E-03     463.980E-03    -232.187E-03     40.0277E-03
             902     2.14101E-03     134.644E-03    -119.853E+06    -292.768E+06    -103.560E+06     898.902E+03    -233.137E-03     465.425E-03    -232.288E-03     67.0600E-03    -233.778E-03     464.901E-03    -232.207E-03     58.9377E-03
             903     2.85384E-03     134.749E-03    -113.701E+06    -271.659E+06    -87.6724E+06     1.46172E+06    -233.789E-03     466.143E-03    -232.354E-03     88.7537E-03    -234.940E-03     466.180E-03    -232.234E-03     77.7379E-03
             904     3.56717E-03     134.887E-03    -106.876E+06    -241.980E+06    -70.1658E+06     2.05848E+06    -234.406E-03     466.813E-03    -232.407E-03     110.552E-03    -236.249E-03     467.621E-03    -232.252E-03     96.4730E-03
             905     4.28093E-03     135.052E-03    -99.0258E+06    -213.791E+06    -53.5334E+06     2.81404E+06    -235.103E-03     467.541E-03    -232.438E-03     132.011E-03    -237.822E-03     469.305E-03    -232.253E-03     114.683E-03
             906     4.99438E-03     135.246E-03    -91.0755E+06    -179.169E+06    -36.5322E+06     3.91241E+06    -235.828E-03     468.283E-03    -232.455E-03     153.341E-03    -239.657E-03     471.259E-03    -232.246E-03     132.539E-03
             907     5.70774E-03     135.469E-03    -82.8652E+06    -138.241E+06    -18.4988E+06     4.58399E+06    -236.431E-03     468.890E-03    -232.459E-03     174.405E-03    -241.630E-03     473.358E-03    -232.231E-03     149.910E-03
             908     6.42143E-03     135.718E-03    -75.0007E+06    -91.8088E+06      -5.072E+03     5.26975E+06    -236.828E-03     469.270E-03    -232.442E-03     195.043E-03    -243.677E-03     475.526E-03    -232.200E-03     166.695E-03
             909     7.13583E-03     135.994E-03    -68.2036E+06    -34.4627E+06     19.8396E+06     8.41184E+06    -237.052E-03     469.451E-03    -232.400E-03     215.132E-03    -245.858E-03     477.836E-03    -232.152E-03     182.851E-03
             910     7.84964E-03     136.295E-03    -62.7776E+06     14.6462E+06     36.1922E+06     10.3736E+06    -237.234E-03     469.580E-03    -232.346E-03     234.600E-03    -248.273E-03     480.343E-03    -232.095E-03     198.334E-03
             911     8.56364E-03     136.622E-03    -56.4173E+06     32.2507E+06     46.7405E+06     8.60902E+06    -237.220E-03     469.524E-03    -232.305E-03     252.283E-03    -250.590E-03     482.673E-03    -232.036E-03     212.258E-03
             912     9.27725E-03     136.969E-03    -47.1747E+06     44.7266E+06     60.5565E+06     6.20286E+06    -236.785E-03     469.067E-03    -232.282E-03     265.097E-03    -252.307E-03     484.405E-03    -231.975E-03     222.027E-03
             913     9.99336E-03     137.330E-03    -37.6953E+06     60.5425E+06     77.1039E+06     3.97441E+06    -235.799E-03     468.072E-03    -232.273E-03     269.355E-03    -252.810E-03     484.941E-03    -231.920E-03     224.535E-03
             914     10.7056E-03     137.687E-03    -29.7088E+06     64.4745E+06     87.6051E+06     3.56584E+06    -233.930E-03     466.179E-03    -232.249E-03     263.058E-03    -251.264E-03     483.382E-03    -231.862E-03     218.338E-03
             915     11.4207E-03     138.026E-03    -22.1776E+06     67.5344E+06     89.8018E+06     4.03860E+06    -231.298E-03     463.447E-03    -232.149E-03     248.348E-03    -247.765E-03     479.815E-03    -231.766E-03     205.405E-03
             916     12.1345E-03     138.337E-03    -14.9255E+06     74.7478E+06     90.8359E+06     3.08275E+06    -228.254E-03     460.220E-03    -231.966E-03     223.350E-03    -242.471E-03     474.386E-03    -231.599E-03     184.038E-03
             917     12.8555E-03     138.599E-03    -8.72798E+06     82.8817E+06     93.4050E+06     2.32537E+06    -226.505E-03     458.245E-03    -231.740E-03     201.168E-03    -238.765E-03     470.498E-03    -231.381E-03     164.669E-03
             918     13.5723E-03     138.845E-03    -4.51016E+06     86.1541E+06     93.4839E+06     1.83000E+06    -226.690E-03     458.222E-03    -231.533E-03     143.854E-03    -234.414E-03     465.965E-03    -231.184E-03     115.783E-03
             919     713.397E-06     136.026E-03    -127.027E+06    -310.125E+06    -125.600E+06     536.773E+03    -232.486E-03     464.733E-03    -232.247E-03     24.0059E-03    -232.577E-03     463.637E-03    -232.241E-03     21.1362E-03
             920     1.42736E-03     136.074E-03    -124.728E+06    -302.487E+06    -118.213E+06     425.801E+03    -232.813E-03     465.163E-03    -232.351E-03     44.8384E-03    -233.108E-03     464.285E-03    -232.322E-03     39.4416E-03
             921     2.13983E-03     136.150E-03    -120.736E+06    -294.220E+06    -105.360E+06     843.261E+03    -233.392E-03     465.840E-03    -232.448E-03     66.8603E-03    -234.034E-03     465.315E-03    -232.374E-03     58.6976E-03
             922     2.85348E-03     136.258E-03    -114.959E+06    -273.725E+06    -88.7176E+06     1.21700E+06    -233.939E-03     466.472E-03    -232.533E-03     88.7023E-03    -235.090E-03     466.501E-03    -232.413E-03     77.6746E-03
             923     3.56691E-03     136.394E-03    -107.638E+06    -244.034E+06    -70.8659E+06     1.47942E+06    -234.582E-03     467.166E-03    -232.584E-03     110.450E-03    -236.424E-03     467.965E-03    -232.429E-03     96.3483E-03
             924     4.28010E-03     136.560E-03    -100.229E+06    -216.154E+06    -54.2505E+06     2.03665E+06    -235.321E-03     467.944E-03    -232.623E-03     131.850E-03    -238.045E-03     469.701E-03    -232.435E-03     114.467E-03
             925     4.99330E-03     136.754E-03    -92.1573E+06    -182.471E+06    -37.8197E+06     2.81961E+06    -235.950E-03     468.590E-03    -232.640E-03     153.078E-03    -239.776E-03     471.550E-03    -232.431E-03     132.235E-03
             926     5.70715E-03     136.976E-03    -84.3010E+06    -142.172E+06    -20.6581E+06     4.34942E+06    -236.498E-03     469.132E-03    -232.634E-03     173.983E-03    -241.688E-03     473.579E-03    -232.409E-03     149.464E-03
             927     6.42083E-03     137.226E-03    -77.4620E+06    -97.0092E+06    -2.50428E+06     7.28299E+06    -237.055E-03     469.678E-03    -232.623E-03     194.215E-03    -243.888E-03     475.899E-03    -232.382E-03     165.853E-03
             928     7.13386E-03     137.501E-03    -69.6830E+06    -44.4479E+06     15.7926E+06     10.3181E+06    -237.380E-03     469.980E-03    -232.599E-03     214.120E-03    -246.159E-03     478.307E-03    -232.355E-03     181.790E-03
             929     7.84764E-03     137.803E-03    -59.2833E+06     11.0924E+06     35.9406E+06     12.8111E+06    -237.442E-03     470.007E-03    -232.565E-03     233.639E-03    -248.436E-03     480.725E-03    -232.315E-03     197.358E-03
             930     8.56178E-03     138.129E-03    -48.9498E+06     38.4983E+06     52.5860E+06     12.6695E+06    -237.501E-03     470.048E-03    -232.547E-03     250.998E-03    -250.809E-03     483.167E-03    -232.269E-03     210.988E-03
             931     9.27637E-03     138.476E-03    -41.2634E+06     52.3522E+06     66.9378E+06     8.82134E+06    -237.079E-03     469.624E-03    -232.545E-03     263.817E-03    -252.557E-03     484.947E-03    -232.226E-03     220.714E-03
             932     9.98780E-03     138.836E-03    -34.9135E+06     63.1154E+06      80.266E+06     6.60402E+06    -235.401E-03     467.919E-03    -232.519E-03     268.861E-03    -252.357E-03     484.742E-03    -232.158E-03     224.203E-03
             933     10.7042E-03     139.192E-03    -28.3481E+06     64.6055E+06     89.0302E+06     6.32905E+06    -232.634E-03     465.048E-03    -232.415E-03     263.718E-03    -249.913E-03     482.198E-03    -232.022E-03     219.384E-03
             934     11.4196E-03     139.530E-03    -22.1006E+06     70.0363E+06     91.5049E+06     4.33177E+06    -229.602E-03     461.800E-03    -232.198E-03     249.252E-03    -246.038E-03     478.141E-03    -231.810E-03     206.721E-03
             935     12.1392E-03     139.838E-03    -16.5163E+06     75.1370E+06     91.3292E+06     3.42013E+06    -227.544E-03     459.477E-03    -231.933E-03     223.257E-03    -241.760E-03     473.636E-03    -231.561E-03     184.095E-03
             936     12.8535E-03     140.098E-03    -11.5480E+06     84.2161E+06     93.0182E+06     3.10726E+06    -226.700E-03     458.393E-03    -231.692E-03     200.881E-03    -238.987E-03     470.668E-03    -231.332E-03     164.319E-03
             937     13.5689E-03     140.348E-03    -5.12755E+06     89.2166E+06     94.0985E+06     1.46940E+06    -225.538E-03     457.002E-03    -231.464E-03     144.017E-03    -233.265E-03     464.754E-03    -231.115E-03     116.022E-03
             938     713.014E-06     137.534E-03    -127.763E+06    -311.100E+06    -126.624E+06    -17.1002E+03    -232.882E-03     465.466E-03    -232.584E-03     24.3117E-03    -232.977E-03     464.370E-03    -232.581E-03     21.3866E-03
             939     1.42591E-03     137.581E-03    -125.954E+06    -303.769E+06    -119.343E+06     703.336E+03    -233.002E-03     465.681E-03    -232.679E-03     45.0697E-03    -233.301E-03     464.801E-03    -232.653E-03     39.6679E-03
             940     2.13992E-03     137.659E-03    -121.937E+06    -295.613E+06    -106.750E+06     965.199E+03    -233.522E-03     466.238E-03    -232.716E-03     66.8295E-03    -234.164E-03     465.708E-03    -232.645E-03     58.6750E-03
             941     2.85282E-03     137.765E-03    -116.039E+06    -274.537E+06    -90.2769E+06     1.05698E+06    -234.149E-03     466.924E-03    -232.775E-03     88.3629E-03    -235.300E-03     466.950E-03    -232.660E-03     77.3113E-03
             942     3.56593E-03     137.903E-03    -109.570E+06    -245.297E+06    -73.3536E+06     1.03563E+06    -234.795E-03     467.617E-03    -232.822E-03     109.964E-03    -236.637E-03     468.412E-03    -232.674E-03     95.8377E-03
             943     4.27904E-03     138.068E-03    -101.838E+06    -217.423E+06    -56.7779E+06     1.08399E+06    -235.482E-03     468.339E-03    -232.857E-03     131.440E-03    -238.203E-03     470.092E-03    -232.678E-03     114.023E-03
             944     4.99250E-03     138.263E-03    -94.2950E+06    -186.153E+06    -40.8295E+06     2.04762E+06    -236.216E-03     469.095E-03    -232.879E-03     152.410E-03    -240.038E-03     472.040E-03    -232.677E-03     131.499E-03
             945     5.70545E-03     138.484E-03    -87.1461E+06    -149.239E+06    -24.7450E+06     4.53926E+06    -236.857E-03     469.751E-03    -232.894E-03     172.952E-03    -242.028E-03     474.155E-03    -232.675E-03     148.383E-03
             946     6.41859E-03     138.734E-03    -78.6144E+06    -104.926E+06    -6.52435E+06     7.19238E+06    -237.281E-03     470.178E-03    -232.897E-03     193.218E-03    -244.081E-03     476.346E-03    -232.664E-03     164.819E-03
             947     7.13222E-03     139.009E-03    -68.9989E+06    -50.4455E+06     13.8330E+06     8.36285E+06    -237.588E-03     470.470E-03    -232.883E-03     213.253E-03    -246.329E-03     478.748E-03    -232.640E-03     180.858E-03
             948     7.84570E-03     139.310E-03    -60.0335E+06     2.27696E+06     32.8338E+06     9.78909E+06    -237.822E-03     470.681E-03    -232.860E-03     232.594E-03    -248.769E-03     481.328E-03    -232.612E-03     196.216E-03
             949     8.55904E-03     139.637E-03    -52.3693E+06     37.8971E+06     47.1311E+06     11.0602E+06    -237.554E-03     470.381E-03    -232.827E-03     250.194E-03    -250.836E-03     483.475E-03    -232.570E-03     210.151E-03
             950     9.27127E-03     139.984E-03    -45.5018E+06     59.0183E+06     62.2110E+06     10.2214E+06    -236.305E-03     469.076E-03    -232.771E-03     264.022E-03    -251.768E-03     484.406E-03    -232.479E-03     221.127E-03
             951     9.98832E-03     140.342E-03    -38.6137E+06     63.2965E+06     77.3706E+06     9.00369E+06    -234.120E-03     466.780E-03    -232.661E-03     269.736E-03    -251.058E-03     483.582E-03    -232.310E-03     225.434E-03
             952     10.7032E-03     140.695E-03    -31.7393E+06     67.5418E+06     89.6432E+06     7.21953E+06    -231.229E-03     463.689E-03    -232.459E-03     264.151E-03    -248.501E-03     480.827E-03    -232.063E-03     220.147E-03
             953     11.4218E-03     141.030E-03    -24.8883E+06     74.6926E+06     94.4321E+06     4.95665E+06    -228.852E-03     461.030E-03    -232.179E-03     248.651E-03    -245.271E-03     477.352E-03    -231.779E-03     206.300E-03
             954     12.1372E-03     141.337E-03    -18.3237E+06     74.8624E+06     92.7754E+06     3.96235E+06    -227.521E-03     459.414E-03    -231.894E-03     222.865E-03    -241.705E-03     473.531E-03    -231.512E-03     183.784E-03
             955     12.8550E-03     141.604E-03    -11.5129E+06     87.2994E+06     95.1213E+06     2.90357E+06    -225.838E-03     457.463E-03    -231.625E-03     201.317E-03    -238.099E-03     469.717E-03    -231.260E-03     164.987E-03
             956     13.5744E-03     141.844E-03    -5.15376E+06     93.3917E+06     96.0657E+06     760.609E+03    -224.296E-03     455.635E-03    -231.340E-03     144.031E-03    -232.028E-03     463.402E-03    -230.987E-03     116.171E-03
             957     713.147E-06     139.042E-03    -131.458E+06    -310.983E+06    -129.270E+06    -463.586E+03    -233.490E-03     466.075E-03    -232.585E-03     24.0885E-03    -233.600E-03     464.990E-03    -232.590E-03     21.1274E-03
             958     1.42636E-03     139.091E-03    -128.172E+06    -305.128E+06    -120.194E+06    -293.641E+03    -233.433E-03     466.457E-03    -233.024E-03     44.9167E-03    -233.740E-03     465.574E-03    -232.996E-03     39.4702E-03
             959     2.13870E-03     139.167E-03    -122.920E+06    -296.614E+06    -107.594E+06     155.885E+03    -233.866E-03     466.949E-03    -233.083E-03     66.4587E-03    -234.509E-03     466.415E-03    -233.013E-03     58.2740E-03
             960     2.85178E-03     139.276E-03    -116.652E+06    -275.339E+06    -92.5935E+06     547.785E+03    -234.428E-03     467.553E-03    -233.125E-03     88.0213E-03    -235.577E-03     467.579E-03    -233.020E-03     76.9299E-03
             961     3.56459E-03     139.411E-03    -109.650E+06    -245.992E+06    -75.7542E+06     913.632E+03    -235.070E-03     468.230E-03    -233.159E-03     109.488E-03    -236.902E-03     469.018E-03    -233.022E-03     95.3442E-03
             962     4.27784E-03     139.578E-03    -103.044E+06    -218.404E+06    -59.3726E+06     1.18342E+06    -235.792E-03     468.985E-03    -233.193E-03     130.744E-03    -238.506E-03     470.730E-03    -233.024E-03     113.296E-03
             963     4.99047E-03     139.771E-03    -96.2708E+06    -190.614E+06    -43.1418E+06     2.23454E+06    -236.559E-03     469.788E-03    -233.229E-03     151.673E-03    -240.371E-03     472.707E-03    -233.029E-03     130.718E-03
             964     5.70332E-03     139.994E-03    -88.3272E+06    -155.664E+06    -26.9595E+06     3.83654E+06    -237.162E-03     470.413E-03    -233.251E-03     172.365E-03    -242.313E-03     474.776E-03    -233.032E-03     147.758E-03
             965     6.41626E-03     140.242E-03    -79.9131E+06    -109.711E+06    -9.77320E+06     4.58255E+06    -237.560E-03     470.805E-03    -233.245E-03     192.741E-03    -244.343E-03     476.943E-03    -233.019E-03     164.265E-03
             966     7.12946E-03     140.518E-03    -72.3190E+06    -57.9054E+06     8.75958E+06     6.88237E+06    -237.835E-03     471.060E-03    -233.225E-03     212.605E-03    -246.547E-03     479.284E-03    -232.992E-03     180.169E-03
             967     7.84243E-03     140.819E-03    -65.4080E+06    -3.63343E+06     26.8780E+06     9.46944E+06    -237.644E-03     470.818E-03    -233.173E-03     232.315E-03    -248.555E-03     481.406E-03    -232.939E-03     196.033E-03
             968     8.55543E-03     141.145E-03    -57.8357E+06     36.9001E+06     43.1626E+06     9.57726E+06    -236.687E-03     469.753E-03    -233.067E-03     250.875E-03    -249.950E-03     482.817E-03    -232.820E-03     211.058E-03
             969     9.27223E-03     141.489E-03    -49.5626E+06     57.0226E+06     58.9038E+06     9.80917E+06    -235.166E-03     468.071E-03    -232.904E-03     264.588E-03    -250.591E-03     483.351E-03    -232.621E-03     221.998E-03
             970     9.98673E-03     141.845E-03    -41.3933E+06     64.8464E+06     74.4712E+06     9.14847E+06    -232.938E-03     465.629E-03    -232.691E-03     269.114E-03    -249.805E-03     482.364E-03    -232.353E-03     225.122E-03
             971     10.7050E-03     142.197E-03    -32.4764E+06     72.2652E+06     89.3836E+06     6.82219E+06    -230.543E-03     462.978E-03    -232.434E-03     263.095E-03    -247.751E-03     480.068E-03    -232.045E-03     219.267E-03
             972     11.4210E-03     142.531E-03    -23.5907E+06     76.6358E+06     95.9528E+06     5.26347E+06    -228.659E-03     460.799E-03    -232.140E-03     248.514E-03    -245.038E-03     477.088E-03    -231.737E-03     206.242E-03
             973     12.1387E-03     142.841E-03    -15.8626E+06      76.835E+06     95.5251E+06     4.16733E+06    -226.358E-03     458.176E-03    -231.818E-03     223.613E-03    -240.521E-03     472.278E-03    -231.429E-03     184.752E-03
             974     12.8566E-03     143.099E-03    -10.0733E+06     90.4857E+06     98.2823E+06     2.80659E+06    -224.099E-03     455.568E-03    -231.469E-03     202.039E-03    -236.358E-03     467.827E-03    -231.094E-03     165.988E-03
             975     13.5746E-03     143.343E-03    -6.19635E+06     96.0032E+06     97.9123E+06     1.39777E+06    -223.363E-03     454.476E-03    -231.114E-03     145.671E-03    -231.122E-03     462.271E-03    -230.754E-03     117.950E-03
             976     712.587E-06     140.553E-03    -133.066E+06    -310.645E+06    -130.593E+06     247.318E+03    -233.674E-03     467.060E-03    -233.386E-03     23.8032E-03    -233.790E-03     465.980E-03    -233.395E-03     20.8343E-03
             977     1.42487E-03     140.600E-03    -129.694E+06    -304.009E+06    -120.609E+06    -359.307E+03    -233.897E-03     467.417E-03    -233.520E-03     44.5374E-03    -234.212E-03     466.542E-03    -233.494E-03     39.0520E-03
             978     2.13783E-03     140.678E-03    -124.448E+06    -296.176E+06    -108.223E+06    -1.53037E+06    -234.204E-03     467.760E-03    -233.557E-03     66.2501E-03    -234.853E-03     467.231E-03    -233.488E-03     58.0182E-03
             979     2.85040E-03     140.784E-03    -118.347E+06    -277.095E+06    -94.9792E+06    -1.29492E+06    -234.718E-03     468.274E-03    -233.556E-03     87.9108E-03    -235.867E-03     468.294E-03    -233.457E-03     76.7840E-03
             980     3.56332E-03     140.922E-03    -112.088E+06    -248.764E+06    -79.3504E+06     315.690E+03    -235.451E-03     469.018E-03    -233.567E-03     109.282E-03    -237.282E-03     469.798E-03    -233.440E-03     95.1041E-03
             981     4.27545E-03     141.087E-03    -104.814E+06    -219.117E+06    -61.8765E+06     1.07871E+06    -236.208E-03     469.809E-03    -233.600E-03     130.596E-03    -238.921E-03     471.551E-03    -233.440E-03     113.122E-03
             982     4.98828E-03     141.282E-03    -96.6582E+06    -193.715E+06    -45.0987E+06     1.29741E+06    -236.837E-03     470.469E-03    -233.632E-03     151.592E-03    -240.636E-03     473.368E-03    -233.436E-03     130.611E-03
             983     5.70106E-03     141.503E-03    -88.2460E+06    -159.924E+06    -28.9858E+06     2.12833E+06    -237.370E-03     471.004E-03    -233.634E-03     172.121E-03    -242.498E-03     475.335E-03    -233.419E-03     147.484E-03
             984     6.41408E-03     141.753E-03    -80.4035E+06    -114.103E+06    -12.9479E+06     3.93133E+06    -237.769E-03     471.371E-03    -233.603E-03     192.543E-03    -244.516E-03     477.466E-03    -233.385E-03     164.089E-03
             985     7.12651E-03     142.028E-03    -72.3548E+06    -68.0363E+06     4.40317E+06     7.21506E+06    -237.669E-03     471.212E-03    -233.544E-03     213.005E-03    -246.335E-03     479.367E-03    -233.318E-03     180.675E-03
             986     7.84003E-03     142.328E-03    -63.1841E+06    -8.78401E+06     25.5427E+06     10.1080E+06    -236.759E-03     470.165E-03    -233.407E-03     232.834E-03    -247.610E-03     480.687E-03    -233.175E-03     196.796E-03
             987     8.55634E-03     142.651E-03    -54.5468E+06     35.7815E+06     44.6909E+06     11.7206E+06    -235.656E-03     468.852E-03    -233.195E-03     250.852E-03    -248.830E-03     481.830E-03    -232.945E-03     211.368E-03
             988     9.27041E-03     142.994E-03    -46.8088E+06     56.0044E+06     60.5075E+06     11.9950E+06    -234.308E-03     467.253E-03    -232.945E-03     264.100E-03    -249.622E-03     482.424E-03    -232.656E-03     221.853E-03
             989     9.98779E-03     143.348E-03    -38.4756E+06     69.8806E+06     77.4761E+06     9.93134E+06    -232.249E-03     464.916E-03    -232.667E-03     268.772E-03    -249.017E-03     481.571E-03    -232.325E-03     225.102E-03
             990     10.7040E-03     143.697E-03    -30.3828E+06     75.9943E+06     91.6576E+06     7.23548E+06    -230.102E-03     462.465E-03    -232.363E-03     264.026E-03    -247.256E-03     479.515E-03    -231.971E-03     220.452E-03
             991     11.4219E-03     144.034E-03    -23.3941E+06     77.9909E+06     97.4361E+06     6.10676E+06    -227.459E-03     459.466E-03    -232.007E-03     250.064E-03    -243.801E-03     475.718E-03    -231.599E-03     208.183E-03
             992     12.1405E-03     144.336E-03    -17.6274E+06     80.5112E+06     96.7559E+06     4.39067E+06    -224.600E-03     456.186E-03    -231.586E-03     225.472E-03    -238.765E-03     470.293E-03    -231.193E-03     187.027E-03
             993     12.8610E-03     144.598E-03    -11.7340E+06     92.1491E+06     99.2504E+06     2.43701E+06    -222.581E-03     453.724E-03    -231.143E-03     204.628E-03    -234.876E-03     466.016E-03    -230.763E-03     168.860E-03
             994     13.5821E-03     144.838E-03    -4.81109E+06     97.3572E+06     101.023E+06     1.97509E+06    -221.466E-03     452.173E-03    -230.706E-03     149.061E-03    -229.256E-03     459.998E-03    -230.336E-03     121.561E-03
             995     712.220E-06     142.065E-03    -134.379E+06    -310.746E+06    -132.146E+06     55.6967E+03    -233.850E-03     467.910E-03    -234.059E-03     24.8262E-03    -233.972E-03     466.834E-03    -234.075E-03     21.8544E-03
             996     1.42446E-03     142.112E-03    -130.790E+06    -302.338E+06    -122.815E+06    -255.784E+03    -234.350E-03     468.284E-03    -233.935E-03     45.0196E-03    -234.671E-03     467.424E-03    -233.921E-03     39.5331E-03
             997     2.13667E-03     142.188E-03    -126.300E+06    -292.033E+06    -108.278E+06    -1.41839E+06    -234.715E-03     468.711E-03    -233.997E-03     66.3231E-03    -235.379E-03     468.204E-03    -233.931E-03     58.0780E-03
             998     2.84925E-03     142.296E-03    -120.359E+06    -278.873E+06    -93.5137E+06    -2.09229E+06    -235.188E-03     469.217E-03    -234.029E-03     87.7167E-03    -236.343E-03     469.226E-03    -233.918E-03     76.5644E-03
             999     3.56137E-03     142.433E-03    -112.714E+06    -251.573E+06    -79.6806E+06    -1.27882E+06    -235.773E-03     469.794E-03    -234.021E-03     109.222E-03    -237.600E-03     470.559E-03    -233.891E-03     95.0002E-03
            1000     4.27421E-03     142.599E-03    -104.983E+06    -219.730E+06    -65.3620E+06    -775.824E+03    -236.420E-03     470.423E-03    -234.004E-03     130.535E-03    -239.117E-03     472.158E-03    -233.860E-03     113.049E-03
            1001     4.98644E-03     142.793E-03    -97.4471E+06    -194.772E+06    -49.3873E+06    -823.557E+03    -237.010E-03     471.008E-03    -233.998E-03     151.558E-03    -240.789E-03     473.892E-03    -233.821E-03     130.588E-03
            1002     5.69895E-03     143.015E-03    -89.6098E+06    -162.812E+06    -32.7717E+06    -540.992E+03    -237.449E-03     471.416E-03    -233.967E-03     172.452E-03    -242.557E-03     475.723E-03    -233.765E-03     147.831E-03
            1003     6.41131E-03     143.263E-03    -80.8545E+06    -121.983E+06    -15.9765E+06     1.39590E+06    -237.430E-03     471.313E-03    -233.883E-03     193.214E-03    -244.142E-03     477.351E-03    -233.669E-03     164.854E-03
            1004     7.12533E-03     143.537E-03    -70.8075E+06    -76.9201E+06     2.55639E+06     3.71713E+06    -236.835E-03     470.561E-03    -233.726E-03     213.657E-03    -245.438E-03     478.633E-03    -233.499E-03     181.519E-03
            1005     7.84029E-03     143.835E-03    -60.9811E+06    -19.0451E+06     23.4782E+06     7.55411E+06    -236.009E-03     469.494E-03    -233.485E-03     233.116E-03    -246.772E-03     479.905E-03    -233.252E-03     197.308E-03
            1006     8.55429E-03     144.156E-03    -51.8461E+06     26.6927E+06     42.1006E+06     12.8852E+06    -234.960E-03     468.147E-03    -233.187E-03     251.167E-03    -248.024E-03     481.000E-03    -232.940E-03     212.015E-03
            1007     9.27182E-03     144.499E-03    -43.7043E+06     57.1021E+06     59.7946E+06     14.8892E+06    -233.191E-03     466.033E-03    -232.842E-03     264.808E-03    -248.384E-03     481.100E-03    -232.563E-03     223.072E-03
            1008     9.98863E-03     144.849E-03    -37.4625E+06     76.5409E+06     78.0151E+06     13.1468E+06    -231.253E-03     463.721E-03    -232.468E-03     270.775E-03    -247.951E-03     480.331E-03    -232.134E-03     227.614E-03
            1009     10.7072E-03     145.200E-03    -32.2459E+06     80.2868E+06     92.9762E+06     10.6156E+06    -228.805E-03     460.879E-03    -232.074E-03     266.999E-03    -245.922E-03     477.897E-03    -231.679E-03     224.017E-03
            1010     11.4261E-03     145.531E-03    -26.3717E+06     82.1530E+06     100.681E+06     7.94123E+06    -225.597E-03     457.206E-03    -231.609E-03     253.486E-03    -241.924E-03     473.439E-03    -231.186E-03     212.293E-03
            1011     12.1473E-03     145.833E-03    -19.2845E+06     86.1801E+06     100.877E+06     4.57159E+06    -222.902E-03     453.971E-03    -231.069E-03     229.794E-03    -237.084E-03     468.098E-03    -230.661E-03     191.941E-03
            1012     12.8677E-03     146.091E-03    -12.0105E+06     93.8667E+06     102.239E+06     1.90276E+06    -221.052E-03     451.580E-03    -230.528E-03     209.649E-03    -233.419E-03     463.941E-03    -230.136E-03     174.245E-03
            1013     13.5893E-03     146.329E-03    -4.71389E+06     97.5569E+06     103.828E+06     1.02478E+06    -220.663E-03     450.703E-03    -230.040E-03     153.227E-03    -228.557E-03     458.625E-03    -229.655E-03     125.713E-03
            1014     712.270E-06     143.577E-03    -136.485E+06    -310.921E+06    -134.246E+06     682.930E+03    -234.153E-03     468.438E-03    -234.285E-03     24.6408E-03    -234.280E-03     467.367E-03    -234.307E-03     21.7133E-03
            1015     1.42440E-03     143.624E-03    -133.611E+06    -300.452E+06    -125.721E+06     -343.51E+03    -234.722E-03     468.937E-03    -234.215E-03     45.0429E-03    -235.054E-03     468.093E-03    -234.214E-03     39.5732E-03
            1016     2.13609E-03     143.703E-03    -128.533E+06    -287.430E+06    -111.392E+06    -1.43691E+06    -235.242E-03     469.566E-03    -234.324E-03     66.4851E-03    -235.920E-03     469.090E-03    -234.278E-03     58.2281E-03
            1017     2.84758E-03     143.809E-03    -121.780E+06    -276.434E+06    -94.3306E+06    -3.08635E+06    -235.686E-03     470.098E-03    -234.412E-03     88.0627E-03    -236.851E-03     470.123E-03    -234.306E-03     76.8773E-03
            1018     3.55998E-03     143.946E-03    -114.112E+06    -252.111E+06    -80.6166E+06    -4.06430E+06    -236.092E-03     470.501E-03    -234.410E-03     109.562E-03    -237.919E-03     471.262E-03    -234.282E-03     95.3205E-03
            1019     4.27190E-03     144.111E-03    -106.526E+06    -220.737E+06    -67.9586E+06    -3.64674E+06    -236.463E-03     470.808E-03    -234.345E-03     130.904E-03    -239.150E-03     472.531E-03    -234.210E-03     113.442E-03
            1020     4.98462E-03     144.305E-03    -98.4377E+06    -194.001E+06    -52.3149E+06    -3.58078E+06    -236.863E-03     471.129E-03    -234.266E-03     152.249E-03    -240.626E-03     474.005E-03    -234.104E-03     131.353E-03
            1021     5.69740E-03     144.526E-03    -90.0106E+06    -164.355E+06    -35.2628E+06    -3.84150E+06    -236.999E-03     471.151E-03    -234.152E-03     173.434E-03    -242.081E-03     475.432E-03    -233.959E-03     148.935E-03
            1022     6.41130E-03     144.774E-03    -81.0900E+06    -127.918E+06    -17.9627E+06    -3.06778E+06    -236.606E-03     470.570E-03    -233.964E-03     194.168E-03    -243.272E-03     476.546E-03    -233.751E-03     166.000E-03
            1023     7.12534E-03     145.045E-03    -72.4809E+06    -83.9201E+06    -824.811E+03    -1.04461E+06    -235.907E-03     469.593E-03    -233.686E-03     214.659E-03    -244.437E-03     477.570E-03    -233.464E-03     182.817E-03
            1024     7.84018E-03     145.342E-03    -64.5747E+06    -35.0656E+06     16.8667E+06     4.20211E+06    -235.082E-03     468.416E-03    -233.333E-03     234.849E-03    -245.757E-03     478.688E-03    -233.105E-03     199.436E-03
            1025     8.55732E-03     145.662E-03    -57.3270E+06     13.0669E+06     33.7601E+06     10.2396E+06    -233.725E-03     466.634E-03    -232.909E-03     253.412E-03    -246.694E-03     479.348E-03    -232.676E-03     214.793E-03
            1026     9.27398E-03     146.000E-03    -50.3844E+06     53.9035E+06     50.2774E+06     12.8726E+06    -231.885E-03     464.305E-03    -232.420E-03     267.793E-03    -246.996E-03     479.283E-03    -232.174E-03     226.669E-03
            1027     9.99386E-03     146.350E-03    -42.5625E+06     77.0028E+06     69.6639E+06     13.6743E+06    -229.614E-03     461.525E-03    -231.911E-03     274.759E-03    -246.242E-03     478.073E-03    -231.613E-03     232.336E-03
            1028     10.7134E-03     146.698E-03    -33.6625E+06     84.4884E+06     90.8425E+06     12.7276E+06    -226.509E-03     457.890E-03    -231.381E-03     271.189E-03    -243.524E-03     474.822E-03    -231.001E-03     229.166E-03
            1029     11.4358E-03     147.025E-03    -24.6087E+06     89.6599E+06     105.086E+06     8.59865E+06    -223.446E-03     454.229E-03    -230.783E-03     258.650E-03    -239.725E-03     470.434E-03    -230.352E-03     218.306E-03
            1030     12.1579E-03     147.327E-03    -16.7021E+06     92.5164E+06     106.704E+06     5.07618E+06    -221.434E-03     451.574E-03    -230.139E-03     235.462E-03    -235.635E-03     465.734E-03    -229.716E-03     198.191E-03
            1031     12.8824E-03     147.581E-03    -10.2098E+06     97.0758E+06     107.445E+06     3.61368E+06    -221.198E-03     450.775E-03    -229.576E-03     214.655E-03    -233.656E-03     463.230E-03    -229.165E-03     179.362E-03
            1032     13.6056E-03     147.823E-03    -5.76473E+06     99.6098E+06     107.689E+06     1.65506E+06    -222.748E-03     451.924E-03    -229.176E-03     155.800E-03    -230.758E-03     459.955E-03    -228.774E-03     127.942E-03
            1033     711.695E-06     145.090E-03    -136.753E+06    -311.914E+06    -135.830E+06     335.154E+03    -234.514E-03     469.299E-03    -234.785E-03     24.3648E-03    -234.638E-03     468.224E-03    -234.813E-03     21.4300E-03
            1034     1.42346E-03     145.139E-03    -134.414E+06    -296.352E+06    -129.397E+06    -1.37935E+06    -234.844E-03     469.406E-03    -234.562E-03     45.0821E-03    -235.178E-03     468.587E-03    -234.585E-03     39.6282E-03
            1035     2.13539E-03     145.216E-03    -130.434E+06    -283.729E+06    -117.202E+06    -2.67423E+06    -235.199E-03     469.747E-03    -234.548E-03     66.7292E-03    -235.876E-03     469.294E-03    -234.533E-03     58.5304E-03
            1036     2.84757E-03     145.323E-03    -124.304E+06    -268.895E+06    -100.499E+06    -4.84742E+06    -235.726E-03     470.279E-03    -234.553E-03     88.8354E-03    -236.899E-03     470.348E-03    -234.485E-03     77.7169E-03
            1037     3.55894E-03     145.459E-03    -117.103E+06    -249.462E+06    -82.9192E+06    -6.85963E+06    -236.166E-03     470.704E-03    -234.538E-03     110.722E-03    -238.003E-03     471.481E-03    -234.421E-03     96.5315E-03
            1038     4.27161E-03     145.624E-03    -108.887E+06    -221.154E+06    -67.9692E+06    -7.03974E+06    -236.351E-03     470.795E-03    -234.444E-03     132.293E-03    -239.042E-03     472.511E-03    -234.305E-03     114.908E-03
            1039     4.98438E-03     145.817E-03    -100.591E+06    -191.539E+06    -53.7804E+06    -7.48039E+06    -236.329E-03     470.600E-03    -234.272E-03     153.853E-03    -240.088E-03     473.478E-03    -234.117E-03     133.100E-03
            1040     5.69789E-03     146.038E-03    -92.4823E+06    -165.028E+06    -38.5049E+06    -7.71881E+06    -235.999E-03     470.028E-03    -234.029E-03     175.141E-03    -241.050E-03     474.276E-03    -233.848E-03     150.924E-03
            1041     6.41184E-03     146.282E-03    -84.8083E+06    -130.719E+06    -22.3328E+06    -6.79647E+06    -235.401E-03     469.095E-03    -233.695E-03     196.334E-03    -242.015E-03     475.009E-03    -233.494E-03     168.579E-03
            1042     7.12758E-03     146.553E-03    -77.7054E+06    -91.8868E+06    -6.41975E+06    -4.16470E+06    -234.634E-03     467.909E-03    -233.275E-03     217.513E-03    -243.097E-03     475.788E-03    -233.061E-03     186.197E-03
            1043     7.84462E-03     146.847E-03    -70.2225E+06    -51.1578E+06     9.81639E+06     1.00633E+06    -233.459E-03     466.234E-03    -232.775E-03     238.353E-03    -244.026E-03     476.342E-03    -232.550E-03     203.635E-03
            1044     8.56204E-03     147.164E-03    -60.9226E+06     1.39541E+06     27.7977E+06     6.14770E+06    -231.898E-03     464.079E-03    -232.180E-03     257.456E-03    -244.726E-03     476.614E-03    -231.955E-03     219.664E-03
            1045     9.28286E-03     147.499E-03    -50.3569E+06     46.3681E+06     46.2206E+06     10.0846E+06    -230.034E-03     461.559E-03    -231.525E-03     272.952E-03    -245.007E-03     476.383E-03    -231.288E-03     232.738E-03
            1046     10.0027E-03     147.848E-03    -40.4909E+06     72.3119E+06     65.9008E+06     12.7046E+06    -227.352E-03     458.190E-03    -230.838E-03     280.874E-03    -243.839E-03     474.599E-03    -230.555E-03     239.527E-03
            1047     10.7268E-03     148.190E-03    -31.7981E+06     88.7174E+06     88.5890E+06     11.8291E+06    -224.282E-03     454.416E-03    -230.135E-03     277.906E-03    -241.205E-03     471.285E-03    -229.774E-03     236.928E-03
            1048     11.4509E-03     148.518E-03    -24.0101E+06     97.2844E+06     107.044E+06     8.73614E+06    -222.079E-03     451.518E-03    -229.440E-03     265.183E-03    -238.322E-03     467.711E-03    -229.011E-03     225.647E-03
            1049     12.1766E-03     148.815E-03    -16.9407E+06     96.3725E+06     109.529E+06     6.41537E+06    -221.938E-03     450.738E-03    -228.800E-03     241.120E-03    -236.176E-03     464.940E-03    -228.368E-03     204.139E-03
            1050     12.8981E-03     149.074E-03    -11.2393E+06     100.134E+06     110.519E+06     5.30047E+06    -223.405E-03     451.756E-03    -228.351E-03     219.761E-03    -235.988E-03     464.335E-03    -227.928E-03     184.223E-03
            1051     13.6150E-03     149.318E-03    -6.34935E+06     104.016E+06     111.376E+06     3.25904E+06    -224.821E-03     452.929E-03    -228.107E-03     161.611E-03    -232.988E-03     461.119E-03    -227.692E-03     133.338E-03
            1052     711.376E-06     146.605E-03    -136.626E+06    -308.455E+06    -138.133E+06    -2.07663E+06    -234.849E-03     469.607E-03    -234.758E-03     24.9438E-03    -234.975E-03     468.553E-03    -234.803E-03     21.9723E-03
            1053     1.42312E-03     146.653E-03    -136.159E+06    -291.323E+06    -132.819E+06    -3.08266E+06    -234.725E-03     469.366E-03    -234.640E-03     45.7756E-03    -235.070E-03     468.578E-03    -234.685E-03     40.3533E-03
            1054     2.13526E-03     146.730E-03    -132.355E+06    -277.785E+06    -119.820E+06    -4.82188E+06    -234.909E-03     469.426E-03    -234.517E-03     67.6363E-03    -235.597E-03     469.006E-03    -234.522E-03     59.5020E-03
            1055     2.84733E-03     146.836E-03    -126.304E+06    -260.385E+06    -104.388E+06    -7.14922E+06    -235.227E-03     469.632E-03    -234.405E-03     89.7248E-03    -236.404E-03     469.739E-03    -234.366E-03     78.7457E-03
            1056     3.56036E-03     146.973E-03    -119.310E+06    -243.643E+06    -86.8254E+06    -9.03796E+06    -235.455E-03     469.735E-03    -234.280E-03     111.882E-03    -237.286E-03     470.530E-03    -234.188E-03     97.8931E-03
            1057     4.27265E-03     147.136E-03    -111.789E+06    -218.267E+06    -70.0828E+06    -10.2815E+06    -235.476E-03     469.556E-03    -234.081E-03     134.184E-03    -238.159E-03     471.272E-03    -233.953E-03     117.043E-03
            1058     4.98607E-03     147.328E-03    -104.271E+06    -189.198E+06    -55.8980E+06    -10.5502E+06    -235.088E-03     468.860E-03    -233.772E-03     156.550E-03    -238.834E-03     471.726E-03    -233.626E-03     136.160E-03
            1059     5.70076E-03     147.546E-03    -96.9999E+06    -163.575E+06    -41.8230E+06    -10.4514E+06    -234.417E-03     467.777E-03    -233.360E-03     178.599E-03    -239.436E-03     471.992E-03    -233.191E-03     154.908E-03
            1060     6.41735E-03     147.789E-03    -89.4169E+06    -132.908E+06    -26.9511E+06    -9.96578E+06    -233.610E-03     466.456E-03    -232.846E-03     200.540E-03    -240.162E-03     472.296E-03    -232.658E-03     173.458E-03
            1061     7.13445E-03     148.057E-03    -80.8994E+06    -99.5213E+06    -10.6781E+06    -7.36633E+06    -232.576E-03     464.821E-03    -232.246E-03     222.565E-03    -240.934E-03     472.570E-03    -232.038E-03     192.099E-03
            1062     7.85281E-03     148.349E-03    -70.5163E+06    -60.7358E+06     6.91662E+06    -4.51739E+06    -231.276E-03     462.833E-03    -231.558E-03     244.274E-03    -241.704E-03     472.775E-03    -231.333E-03     210.512E-03
            1063     8.57441E-03     148.662E-03    -59.3673E+06    -12.1535E+06     25.8788E+06    -79.4878E+03    -229.573E-03     460.352E-03    -230.778E-03     264.452E-03    -242.243E-03     472.691E-03    -230.545E-03     227.722E-03
            1064     9.29553E-03     148.996E-03    -50.2976E+06     33.3442E+06     44.0460E+06     6.54918E+06    -227.330E-03     457.251E-03    -229.921E-03     280.853E-03    -242.131E-03     471.863E-03    -229.676E-03     241.924E-03
            1065     10.0218E-03     149.339E-03    -42.6612E+06     68.0930E+06     60.1936E+06     9.98919E+06    -224.996E-03     454.016E-03    -229.020E-03     289.316E-03    -241.336E-03     470.271E-03    -228.756E-03     249.254E-03
            1066     10.7471E-03     149.682E-03    -35.0992E+06     90.5632E+06     81.0593E+06     9.87460E+06    -223.184E-03     451.375E-03    -228.192E-03     286.289E-03    -240.020E-03     468.173E-03    -227.867E-03     246.325E-03
            1067     11.4736E-03     150.005E-03    -27.4448E+06     100.740E+06     104.383E+06     9.16002E+06    -222.905E-03     450.440E-03    -227.534E-03     273.319E-03    -239.166E-03     466.658E-03    -227.119E-03     234.315E-03
            1068     12.1964E-03     150.307E-03    -20.5174E+06     99.0189E+06     111.722E+06     7.89880E+06    -224.313E-03     451.363E-03    -227.049E-03     249.883E-03    -238.675E-03     465.679E-03    -226.605E-03     212.999E-03
            1069     12.9164E-03     150.570E-03    -13.6398E+06     102.827E+06     113.215E+06     5.41297E+06    -225.573E-03     452.335E-03    -226.762E-03     229.513E-03    -238.350E-03     465.100E-03    -226.325E-03     193.889E-03
            1070     13.6382E-03     150.815E-03    -5.01134E+06     108.639E+06     115.055E+06     2.90896E+06    -228.098E-03     454.792E-03    -226.695E-03     170.502E-03    -236.461E-03     463.191E-03    -226.270E-03     141.779E-03
            1071     711.917E-06     148.120E-03    -139.549E+06    -298.712E+06    -138.443E+06    -3.80152E+06    -234.513E-03     468.293E-03    -233.780E-03     25.5995E-03    -234.666E-03     467.291E-03    -233.836E-03     22.6701E-03
            1072     1.42405E-03     148.166E-03    -136.730E+06    -285.566E+06    -131.265E+06    -4.69075E+06    -234.330E-03     468.372E-03    -234.041E-03     46.7341E-03    -234.686E-03     467.609E-03    -234.085E-03     41.3854E-03
            1073     2.13632E-03     148.243E-03    -132.421E+06    -269.547E+06    -119.135E+06    -6.28084E+06    -234.310E-03     468.250E-03    -233.940E-03     68.9702E-03    -235.008E-03     467.866E-03    -233.953E-03     60.9517E-03
            1074     2.84900E-03     148.349E-03    -127.597E+06    -252.557E+06    -105.694E+06    -8.07489E+06    -234.081E-03     467.810E-03    -233.729E-03     91.5696E-03    -235.262E-03     467.947E-03    -233.706E-03     80.8319E-03
            1075     3.56185E-03     148.484E-03    -121.965E+06    -234.983E+06    -90.6362E+06    -10.4749E+06    -233.757E-03     467.164E-03    -233.407E-03     114.656E-03    -235.586E-03     467.988E-03    -233.342E-03     101.049E-03
            1076     4.27673E-03     148.647E-03    -114.992E+06    -212.290E+06    -73.7983E+06    -12.4987E+06    -233.382E-03     466.368E-03    -232.986E-03     137.928E-03    -236.049E-03     468.086E-03    -232.880E-03     121.306E-03
            1077     4.99237E-03     148.836E-03    -107.177E+06    -186.523E+06    -57.6362E+06    -13.1045E+06    -232.820E-03     465.286E-03    -232.466E-03     160.980E-03    -236.522E-03     468.111E-03    -232.328E-03     141.273E-03
            1078     5.70936E-03     149.051E-03    -98.5128E+06    -160.827E+06    -42.2717E+06    -13.0062E+06    -232.007E-03     463.853E-03    -231.846E-03     183.973E-03    -236.962E-03     468.009E-03    -231.681E-03     161.098E-03
            1079     6.42706E-03     149.291E-03    -89.8272E+06    -132.605E+06    -27.2493E+06    -12.7880E+06    -230.939E-03     462.062E-03    -231.123E-03     207.016E-03    -237.391E-03     467.803E-03    -230.937E-03     180.933E-03
            1080     7.14740E-03     149.556E-03    -80.7723E+06    -102.556E+06    -11.4597E+06    -12.0961E+06    -229.663E-03     459.967E-03    -230.303E-03     230.133E-03    -237.884E-03     467.569E-03    -230.095E-03     200.838E-03
            1081     7.87025E-03     149.845E-03    -72.2439E+06    -65.8564E+06     5.27589E+06    -10.3316E+06    -228.194E-03     457.584E-03    -229.390E-03     253.113E-03    -238.470E-03     467.354E-03    -229.164E-03     220.668E-03
            1082     8.59295E-03     150.156E-03    -65.2743E+06    -26.2847E+06     21.6892E+06    -5.73009E+06    -226.401E-03     454.794E-03    -228.392E-03     274.482E-03    -238.905E-03     466.909E-03    -228.151E-03     239.235E-03
            1083     9.32098E-03     150.485E-03    -56.7786E+06     19.1194E+06     38.5716E+06     263.292E+03    -224.846E-03     452.187E-03    -227.342E-03     291.652E-03    -239.488E-03     466.583E-03    -227.094E-03     254.167E-03
            1084     10.0477E-03     150.827E-03    -46.3653E+06     60.5223E+06     54.4375E+06     4.91729E+06    -223.821E-03     450.149E-03    -226.329E-03     299.860E-03    -240.010E-03     466.230E-03    -226.077E-03     261.046E-03
            1085     10.7763E-03     151.167E-03    -36.8980E+06     87.3273E+06     73.8338E+06     8.28235E+06    -223.686E-03     449.188E-03    -225.502E-03     296.956E-03    -240.420E-03     465.886E-03    -225.206E-03     257.937E-03
            1086     11.5017E-03     151.494E-03    -28.7713E+06     101.141E+06     96.9874E+06     9.31632E+06    -225.264E-03     450.229E-03    -224.965E-03     285.617E-03    -241.573E-03     466.513E-03    -224.585E-03     247.078E-03
            1087     12.2246E-03     151.802E-03    -19.6034E+06     103.433E+06     112.947E+06     7.10000E+06    -227.457E-03     452.168E-03    -224.711E-03     262.286E-03    -241.973E-03     466.655E-03    -224.268E-03     225.494E-03
            1088     12.9460E-03     152.065E-03    -11.0079E+06     107.261E+06     118.568E+06     4.69025E+06    -230.743E-03     455.465E-03    -224.722E-03     239.015E-03    -243.772E-03     468.493E-03    -224.269E-03     202.697E-03
            1089     13.6627E-03     152.313E-03    -5.35100E+06     110.875E+06     117.855E+06     3.94722E+06    -237.116E-03     462.202E-03    -225.086E-03     175.987E-03    -245.731E-03     470.852E-03    -224.649E-03     145.921E-03
            1090     713.267E-06     149.631E-03    -139.784E+06    -287.357E+06    -137.814E+06    -2.80067E+06    -233.355E-03     465.358E-03    -232.003E-03     26.1747E-03    -233.524E-03     464.410E-03    -232.072E-03     23.3870E-03
            1091     1.42592E-03     149.679E-03    -137.119E+06    -276.730E+06    -129.915E+06    -5.32870E+06    -232.793E-03     465.343E-03    -232.550E-03     48.2659E-03    -233.159E-03     464.616E-03    -232.600E-03     43.1290E-03
            1092     2.13882E-03     149.754E-03    -132.309E+06    -261.414E+06    -118.567E+06    -7.07667E+06    -232.398E-03     464.744E-03    -232.345E-03     71.5993E-03    -233.101E-03     464.391E-03    -232.367E-03     63.8696E-03
            1093     2.85305E-03     149.858E-03    -126.475E+06    -244.418E+06    -103.820E+06    -8.42457E+06    -231.746E-03     463.707E-03    -231.961E-03     95.4261E-03    -232.923E-03     463.867E-03    -231.942E-03     85.1013E-03
            1094     3.56919E-03     149.990E-03    -119.801E+06    -225.585E+06    -87.7499E+06    -10.6741E+06    -231.085E-03     462.513E-03    -231.428E-03     119.408E-03    -232.893E-03     463.348E-03    -231.366E-03     106.398E-03
            1095     4.28574E-03     150.150E-03    -112.948E+06    -204.136E+06    -71.9200E+06    -12.9093E+06    -230.306E-03     461.081E-03    -230.775E-03     143.345E-03    -232.921E-03     462.777E-03    -230.675E-03     127.532E-03
            1096     5.00398E-03     150.337E-03    -105.673E+06    -180.961E+06    -55.8930E+06    -14.1800E+06    -229.382E-03     459.395E-03    -230.014E-03     167.349E-03    -233.002E-03     462.159E-03    -229.877E-03     148.648E-03
            1097     5.72360E-03     150.549E-03    -98.4335E+06    -156.663E+06    -40.7220E+06    -15.0539E+06    -228.295E-03     457.439E-03    -229.144E-03     191.759E-03    -233.147E-03     461.502E-03    -228.978E-03     170.076E-03
            1098     6.44611E-03     150.786E-03    -91.0237E+06    -129.576E+06    -25.9217E+06    -15.0665E+06    -227.053E-03     455.221E-03    -228.168E-03     216.304E-03    -233.379E-03     460.837E-03    -227.978E-03     191.625E-03
            1099     7.16998E-03     151.048E-03    -83.9897E+06    -101.919E+06    -11.3160E+06    -15.0570E+06    -225.704E-03     452.804E-03    -227.100E-03     240.987E-03    -233.781E-03     460.251E-03    -226.887E-03     213.267E-03
            1100     7.89523E-03     151.333E-03    -76.7934E+06    -69.3446E+06     3.68482E+06    -13.0937E+06    -224.268E-03     450.216E-03    -225.947E-03     265.302E-03    -234.360E-03     459.776E-03    -225.717E-03     234.640E-03
            1101     8.62571E-03     151.641E-03    -67.0626E+06    -34.7050E+06     20.4223E+06    -9.62508E+06    -223.410E-03     448.177E-03    -224.766E-03     287.362E-03    -235.689E-03     460.033E-03    -224.517E-03     253.890E-03
            1102     9.35458E-03     151.968E-03    -56.2275E+06     7.97634E+06     38.4141E+06    -5.45464E+06    -223.445E-03     447.086E-03    -223.641E-03     304.843E-03    -237.865E-03     461.223E-03    -223.379E-03     268.896E-03
            1103     10.0854E-03     152.311E-03    -46.7733E+06     48.6074E+06     53.6171E+06     228.306E+03    -224.112E-03     446.779E-03    -222.667E-03     313.516E-03    -240.144E-03     462.662E-03    -222.402E-03     275.930E-03
            1104     10.8135E-03     152.651E-03    -38.2482E+06     81.0348E+06      69.174E+06     4.80807E+06    -226.043E-03     448.014E-03    -221.971E-03     311.512E-03    -242.770E-03     464.692E-03    -221.687E-03     273.181E-03
            1105     11.5403E-03     152.985E-03    -28.6129E+06     101.088E+06     88.2899E+06     5.88209E+06    -229.147E-03     450.805E-03    -221.658E-03     299.390E-03    -245.514E-03     467.174E-03    -221.322E-03     261.108E-03
            1106     12.2628E-03     153.297E-03    -20.1138E+06     107.439E+06     110.276E+06     4.48269E+06    -234.052E-03     455.859E-03    -221.806E-03     273.250E-03    -248.735E-03     470.534E-03    -221.382E-03     235.952E-03
            1107     12.9780E-03     153.568E-03    -13.8900E+06     107.840E+06     120.607E+06     4.30314E+06    -242.078E-03     464.500E-03    -222.421E-03     248.189E-03    -255.500E-03     477.909E-03    -221.955E-03     210.015E-03
            1108     13.6815E-03     153.836E-03    -7.71884E+06     112.156E+06     120.185E+06     4.62502E+06    -250.134E-03     473.627E-03    -223.493E-03     182.902E-03    -259.098E-03     482.616E-03    -223.044E-03     150.765E-03
            1109     714.221E-06     151.137E-03    -137.326E+06    -276.426E+06    -136.715E+06    -2.72630E+06    -230.378E-03     459.825E-03    -229.447E-03     27.2965E-03    -230.550E-03     458.924E-03    -229.530E-03     24.6735E-03
            1110     1.42956E-03     151.184E-03    -134.824E+06    -265.433E+06    -126.918E+06    -5.31826E+06    -229.289E-03     458.902E-03    -229.612E-03     50.8797E-03    -229.658E-03     458.216E-03    -229.666E-03     46.0628E-03
            1111     2.14598E-03     151.257E-03    -130.309E+06    -252.510E+06    -115.037E+06    -7.88659E+06    -228.702E-03     457.841E-03    -229.139E-03     75.3965E-03    -229.395E-03     457.507E-03    -229.159E-03     68.1565E-03
            1112     2.86322E-03     151.359E-03    -124.235E+06    -236.241E+06    -100.321E+06    -9.62002E+06    -228.102E-03     456.674E-03    -228.572E-03     100.235E-03    -229.256E-03     456.838E-03    -228.551E-03     90.5374E-03
            1113     3.58102E-03     151.488E-03    -117.509E+06    -216.747E+06    -83.9222E+06    -11.0023E+06    -227.126E-03     455.008E-03    -227.883E-03     125.109E-03    -228.886E-03     455.824E-03    -227.818E-03     112.952E-03
            1114     4.30116E-03     151.645E-03    -110.369E+06    -195.612E+06    -67.7294E+06    -12.6231E+06    -225.767E-03     452.788E-03    -227.020E-03     150.549E-03    -228.303E-03     454.431E-03    -226.915E-03     135.863E-03
            1115     5.02329E-03     151.828E-03    -102.956E+06    -174.580E+06    -51.8310E+06    -13.8238E+06    -224.379E-03     450.374E-03    -225.994E-03     176.571E-03    -227.890E-03     453.046E-03    -225.851E-03     159.246E-03
            1116     5.74816E-03     152.037E-03    -95.3571E+06    -150.637E+06    -36.2218E+06    -14.2507E+06    -223.084E-03     447.926E-03    -224.841E-03     202.642E-03    -227.782E-03     451.852E-03    -224.666E-03     182.615E-03
            1117     6.47442E-03     152.270E-03    -87.9046E+06    -125.343E+06    -21.2374E+06    -14.1183E+06    -221.823E-03     445.417E-03    -223.594E-03     228.909E-03    -227.959E-03     450.854E-03    -223.391E-03     206.102E-03
            1118     7.20368E-03     152.529E-03    -80.4732E+06    -97.7969E+06    -6.04930E+06    -13.2197E+06    -220.817E-03     443.100E-03    -222.284E-03     255.149E-03    -228.663E-03     450.328E-03    -222.056E-03     229.495E-03
            1119     7.93656E-03     152.810E-03    -72.4997E+06    -67.8970E+06     9.01389E+06    -12.7837E+06    -220.585E-03     441.555E-03    -220.970E-03     280.226E-03    -230.415E-03     450.858E-03    -220.721E-03     251.609E-03
            1120     8.66811E-03     153.116E-03    -64.9186E+06    -37.5055E+06     23.5573E+06    -12.3270E+06    -221.468E-03     441.213E-03    -219.745E-03     303.164E-03    -233.498E-03     452.809E-03    -219.479E-03     271.519E-03
            1121     9.40171E-03     153.446E-03    -57.9117E+06    -775.557E+03     38.8486E+06    -8.59767E+06    -223.241E-03     441.938E-03    -218.697E-03     321.133E-03    -237.446E-03     455.821E-03    -218.418E-03     286.777E-03
            1122     10.1335E-03     153.788E-03     -49.774E+06     40.4000E+06     54.2337E+06    -4.31024E+06    -226.338E-03     444.263E-03    -217.926E-03     330.176E-03    -242.277E-03     460.012E-03    -217.641E-03     293.615E-03
            1123     10.8634E-03     154.138E-03    -39.1240E+06     72.4419E+06     70.2888E+06    -1.22047E+06    -231.085E-03     448.664E-03    -217.579E-03     327.423E-03    -247.849E-03     465.345E-03    -217.276E-03     289.384E-03
            1124     11.5862E-03     154.477E-03    -28.8084E+06     97.4392E+06     88.3856E+06     2.69632E+06    -237.437E-03     455.208E-03    -217.772E-03     312.400E-03    -253.956E-03     471.718E-03    -217.429E-03     273.591E-03
            1125     12.3031E-03     154.798E-03    -22.7248E+06     107.181E+06     107.577E+06     5.25164E+06    -246.186E-03     464.783E-03    -218.597E-03     284.679E-03    -261.169E-03     479.759E-03    -218.182E-03     245.891E-03
            1126     13.0076E-03     155.092E-03    -16.6131E+06     107.913E+06     120.028E+06     4.98530E+06    -256.479E-03     476.503E-03    -220.023E-03     259.472E-03    -270.320E-03     490.324E-03    -219.556E-03     219.049E-03
            1127     13.7061E-03     155.373E-03    -8.51680E+06     118.225E+06     123.401E+06     1.82246E+06    -265.798E-03     487.730E-03    -221.932E-03     190.299E-03    -275.061E-03     497.028E-03    -221.474E-03     155.962E-03
            1128     718.169E-06     152.632E-03    -131.086E+06    -264.189E+06    -130.429E+06    -3.97189E+06    -224.807E-03     450.043E-03    -225.236E-03     28.7745E-03    -224.972E-03     449.181E-03    -225.315E-03     26.3537E-03
            1129     1.43696E-03     152.676E-03    -127.688E+06    -255.394E+06    -121.611E+06    -5.54098E+06    -224.059E-03     448.682E-03    -224.624E-03     53.3829E-03    -224.403E-03     448.016E-03    -224.676E-03     48.9749E-03
            1130     2.15688E-03     152.748E-03    -123.917E+06    -242.544E+06    -108.652E+06    -7.41225E+06    -223.269E-03     447.261E-03    -223.992E-03     79.4367E-03    -223.923E-03     446.926E-03    -224.004E-03     72.8870E-03
            1131     2.87759E-03     152.847E-03    -118.806E+06    -227.484E+06    -93.9224E+06    -9.84495E+06    -222.340E-03     445.587E-03    -223.248E-03     106.084E-03    -223.435E-03     445.721E-03    -223.215E-03     97.3220E-03
            1132     3.60040E-03     152.974E-03    -111.298E+06    -208.501E+06    -77.4075E+06    -11.0017E+06    -220.899E-03     443.230E-03    -222.331E-03     133.125E-03    -222.571E-03     443.986E-03    -222.254E-03     122.160E-03
            1133     4.32546E-03     153.125E-03    -103.336E+06    -188.770E+06    -60.3873E+06    -11.7210E+06    -219.236E-03     440.447E-03    -221.211E-03     160.704E-03    -221.645E-03     441.990E-03    -221.090E-03     147.493E-03
            1134     5.05360E-03     153.305E-03    -95.6066E+06    -168.424E+06    -44.1785E+06    -12.3687E+06    -217.693E-03     437.613E-03    -219.920E-03     188.669E-03    -221.027E-03     440.132E-03    -219.758E-03     173.121E-03
            1135     5.78372E-03     153.509E-03    -87.8859E+06    -145.253E+06    -29.0017E+06    -12.3717E+06    -216.405E-03     434.912E-03    -218.507E-03     216.677E-03    -220.877E-03     438.635E-03    -218.314E-03     198.699E-03
            1136     6.51733E-03     153.739E-03    -80.2275E+06    -121.233E+06    -14.1022E+06    -11.8563E+06    -215.696E-03     432.739E-03    -217.044E-03     244.609E-03    -221.560E-03     437.924E-03    -216.822E-03     224.032E-03
            1137     7.25304E-03     153.994E-03    -72.6788E+06    -93.4576E+06     1.19845E+06    -10.9138E+06    -216.097E-03     431.712E-03    -215.614E-03     271.881E-03    -223.629E-03     438.645E-03    -215.367E-03     248.514E-03
            1138     7.98841E-03     154.276E-03    -65.9168E+06    -65.0161E+06     16.2932E+06    -9.71203E+06    -217.789E-03     432.109E-03    -214.320E-03     297.879E-03    -227.302E-03     441.107E-03    -214.049E-03     271.434E-03
            1139     8.72582E-03     154.584E-03    -60.1197E+06    -34.0161E+06     31.8223E+06    -7.75481E+06    -220.707E-03     433.954E-03    -213.247E-03     321.587E-03    -232.460E-03     445.278E-03    -212.951E-03     291.901E-03
            1140     9.46126E-03     154.915E-03    -53.4250E+06    -1.21073E+06     46.8390E+06    -6.42318E+06    -225.385E-03     437.874E-03    -212.490E-03     339.573E-03    -239.402E-03     451.562E-03    -212.176E-03     306.596E-03
            1141     10.1942E-03     155.266E-03    -44.8318E+06     38.2718E+06     63.1914E+06    -5.13240E+06    -231.898E-03     444.083E-03    -212.186E-03     347.694E-03    -247.778E-03     459.759E-03    -211.860E-03     311.710E-03
            1142     10.9197E-03     155.625E-03    -37.3421E+06     65.5216E+06     76.4566E+06    -1.89797E+06    -240.226E-03     452.700E-03    -212.474E-03     343.197E-03    -257.061E-03     469.418E-03    -212.132E-03     304.911E-03
            1143     11.6387E-03     155.978E-03    -31.3267E+06     90.0133E+06     91.4690E+06     1.94405E+06    -250.893E-03     464.367E-03    -213.474E-03     326.991E-03    -267.705E-03     481.129E-03    -213.102E-03     286.778E-03
            1144     12.3437E-03     156.320E-03    -22.9972E+06     105.637E+06     108.143E+06     3.64427E+06    -262.360E-03     477.582E-03    -215.222E-03     298.033E-03    -277.806E-03     493.015E-03    -214.801E-03     256.837E-03
            1145     13.0413E-03     156.629E-03    -12.7599E+06     109.489E+06     118.975E+06     2.65991E+06    -273.500E-03     491.094E-03    -217.594E-03     270.670E-03    -287.817E-03     505.417E-03    -217.140E-03     227.313E-03
            1146     13.7254E-03     156.934E-03    -3.87987E+06     122.987E+06     126.248E+06     1.53523E+06    -284.930E-03     505.406E-03    -220.476E-03     198.474E-03    -294.445E-03     514.985E-03    -220.018E-03     161.776E-03
            1147     723.022E-06     154.109E-03    -122.066E+06    -251.788E+06    -120.744E+06    -2.85546E+06    -217.247E-03     435.160E-03    -217.913E-03     30.7049E-03    -217.395E-03     434.324E-03    -217.975E-03     28.6123E-03
            1148     1.44706E-03     154.151E-03    -119.708E+06    -245.855E+06    -112.900E+06    -5.51420E+06    -216.699E-03     433.871E-03    -217.173E-03     56.9102E-03    -217.011E-03     433.207E-03    -217.207E-03     53.0687E-03
            1149     2.17222E-03     154.220E-03    -114.758E+06    -234.158E+06    -100.349E+06    -7.39949E+06    -215.432E-03     431.880E-03    -216.448E-03     85.4054E-03    -216.026E-03     431.519E-03    -216.444E-03     79.7143E-03
            1150     2.89967E-03     154.316E-03    -108.811E+06    -217.671E+06    -84.8425E+06    -8.89000E+06    -213.785E-03     429.247E-03    -215.462E-03     114.132E-03    -214.784E-03     429.326E-03    -215.413E-03     106.585E-03
            1151     3.62947E-03     154.438E-03    -102.463E+06    -201.146E+06    -69.0504E+06    -10.4364E+06    -212.099E-03     426.354E-03    -214.255E-03     143.195E-03    -213.637E-03     427.006E-03    -214.160E-03     133.738E-03
            1152     4.36190E-03     154.586E-03    -95.5835E+06    -183.583E+06    -53.5078E+06    -10.9152E+06    -210.604E-03     423.487E-03    -212.883E-03     172.896E-03    -212.827E-03     424.866E-03    -212.746E-03     161.492E-03
            1153     5.09641E-03     154.760E-03    -88.3550E+06    -162.603E+06    -37.9073E+06    -10.6720E+06    -209.327E-03     420.719E-03    -211.392E-03     203.047E-03    -212.421E-03     423.024E-03    -211.217E-03     189.604E-03
            1154     5.83469E-03     154.961E-03    -81.2276E+06    -140.983E+06    -22.9299E+06    -10.4266E+06    -208.779E-03     418.623E-03    -209.843E-03     233.017E-03    -212.958E-03     422.071E-03    -209.636E-03     217.343E-03
            1155     6.57456E-03     155.188E-03    -74.4296E+06    -117.818E+06    -8.14489E+06    -9.67266E+06    -209.648E-03     417.997E-03    -208.349E-03     262.373E-03    -215.161E-03     422.844E-03    -208.111E-03     244.223E-03
            1156     7.31530E-03     155.444E-03    -68.1174E+06    -91.2433E+06     6.69353E+06    -8.23526E+06    -212.133E-03     419.158E-03    -207.024E-03     291.116E-03    -219.304E-03     425.738E-03    -206.760E-03     270.110E-03
            1157     8.05714E-03     155.728E-03    -61.9690E+06    -64.4921E+06     22.2881E+06    -5.25561E+06    -216.281E-03     422.259E-03    -205.978E-03     318.079E-03    -225.448E-03     430.910E-03    -205.683E-03     293.822E-03
            1158     8.79636E-03     156.040E-03    -55.6943E+06    -31.0210E+06     39.2745E+06    -2.23117E+06    -222.581E-03     427.893E-03    -205.312E-03     341.604E-03    -234.061E-03     438.951E-03    -204.990E-03     313.623E-03
            1159     9.53297E-03     156.381E-03    -50.2765E+06     4.70818E+06     56.3857E+06    -1.37262E+06    -231.201E-03     436.360E-03    -205.159E-03     358.924E-03    -245.099E-03     449.936E-03    -204.811E-03     326.850E-03
            1160     10.2618E-03     156.745E-03    -46.7367E+06     41.8120E+06     70.8552E+06    -1.60287E+06    -241.774E-03     447.415E-03    -205.641E-03     365.496E-03    -257.699E-03     463.124E-03    -205.280E-03     329.482E-03
            1161     10.9839E-03     157.119E-03    -42.9623E+06     63.8163E+06     77.9580E+06    -1.91115E+06    -254.282E-03     461.150E-03    -206.868E-03     359.255E-03    -271.362E-03     478.088E-03    -206.509E-03     319.748E-03
            1162     11.6916E-03     157.496E-03    -36.0543E+06     86.7471E+06     89.7969E+06    -1.91508E+06    -267.762E-03     476.680E-03    -208.918E-03     341.760E-03    -284.963E-03     493.811E-03    -208.543E-03     299.352E-03
            1163     12.3892E-03     157.861E-03    -25.9870E+06     106.436E+06     107.852E+06    -3.54460E+06    -281.429E-03     493.197E-03    -211.768E-03     311.273E-03    -297.385E-03     509.137E-03    -211.345E-03     267.023E-03
            1164     13.0703E-03     158.192E-03    -16.2875E+06     107.162E+06     115.423E+06    -4.76958E+06    -294.782E-03     510.043E-03    -215.261E-03     281.021E-03    -309.694E-03     524.954E-03    -214.816E-03     233.609E-03
            1165     13.7440E-03     158.520E-03    -8.69783E+06     117.563E+06     120.833E+06    -1.90237E+06    -306.366E-03     525.611E-03    -219.246E-03     206.474E-03    -316.226E-03     535.516E-03    -218.799E-03     166.695E-03
            1166     731.117E-06     155.561E-03    -117.160E+06    -241.897E+06    -114.018E+06    -2.52790E+06    -206.891E-03     413.983E-03    -207.093E-03     33.6035E-03    -207.033E-03     413.169E-03    -207.142E-03     31.9013E-03
            1167     1.46242E-03     155.600E-03    -113.074E+06    -235.496E+06    -106.148E+06    -5.26770E+06    -206.202E-03     412.770E-03    -206.567E-03     62.0544E-03    -206.485E-03     412.110E-03    -206.593E-03     58.9032E-03
            1168     2.19559E-03     155.666E-03    -109.143E+06    -225.296E+06    -94.9417E+06    -7.73172E+06    -204.636E-03     410.414E-03    -205.778E-03     92.6438E-03    -205.170E-03     410.023E-03    -205.768E-03     87.9801E-03
            1169     2.93104E-03     155.758E-03    -103.298E+06    -210.072E+06    -80.7555E+06    -8.62257E+06    -202.737E-03     407.381E-03    -204.644E-03     123.509E-03    -203.629E-03     407.382E-03    -204.593E-03     117.343E-03
            1170     3.66925E-03     155.876E-03    -97.2510E+06    -194.819E+06    -65.1372E+06    -9.46356E+06    -201.118E-03     404.399E-03    -203.281E-03     155.018E-03    -202.491E-03     404.911E-03    -203.184E-03     147.287E-03
            1171     4.40994E-03     156.019E-03    -90.8455E+06    -177.987E+06    -49.5960E+06    -9.85202E+06    -200.018E-03     401.810E-03    -201.792E-03     187.013E-03    -202.014E-03     402.983E-03    -201.650E-03     177.638E-03
            1172     5.15413E-03     156.190E-03    -83.9842E+06    -158.756E+06    -34.3322E+06    -9.24958E+06    -199.818E-03     400.081E-03    -200.263E-03     219.164E-03    -202.613E-03     402.102E-03    -200.083E-03     207.994E-03
            1173     5.89966E-03     156.389E-03    -77.6299E+06    -138.675E+06    -19.0679E+06    -7.76657E+06    -201.144E-03     399.955E-03    -198.811E-03     251.050E-03    -204.959E-03     403.047E-03    -198.593E-03     237.817E-03
            1174     6.64659E-03     156.617E-03    -72.4396E+06    -115.560E+06    -4.25451E+06    -5.56645E+06    -204.410E-03     401.970E-03    -197.561E-03     282.162E-03    -209.534E-03     406.433E-03    -197.310E-03     266.461E-03
            1175     7.39350E-03     156.876E-03    -68.6244E+06    -90.3533E+06     10.3071E+06    -2.52401E+06    -209.723E-03     406.356E-03    -196.633E-03     311.586E-03    -216.502E-03     412.538E-03    -196.351E-03     292.907E-03
            1176     8.13794E-03     157.166E-03    -65.6011E+06    -62.9810E+06     25.4453E+06    -334.728E+03    -217.507E-03     413.657E-03    -196.149E-03     338.394E-03    -226.332E-03     421.951E-03    -195.836E-03     316.069E-03
            1177     8.87912E-03     157.490E-03    -62.4851E+06    -29.0761E+06     41.0833E+06     691.999E+03    -228.156E-03     424.388E-03    -196.232E-03     361.631E-03    -239.416E-03     435.208E-03    -195.894E-03     334.865E-03
            1178     9.61203E-03     157.846E-03    -57.8799E+06     9.14045E+06     57.4006E+06     1.70948E+06    -241.167E-03     438.176E-03    -197.009E-03     377.809E-03    -255.012E-03     451.690E-03    -196.651E-03     346.037E-03
            1179     10.3377E-03     158.229E-03    -50.7839E+06     49.9667E+06     72.6549E+06     1.52355E+06    -256.238E-03     454.821E-03    -198.583E-03     383.090E-03    -272.327E-03     470.709E-03    -198.218E-03     346.182E-03
            1180     11.0478E-03     158.629E-03    -42.0524E+06     70.0580E+06     79.2808E+06    -1.41196E+06    -272.395E-03     473.416E-03    -201.021E-03     375.485E-03    -289.852E-03     490.756E-03    -200.665E-03     333.835E-03
            1181     11.7465E-03     159.030E-03    -32.1845E+06     90.0610E+06     89.2286E+06    -4.28797E+06    -288.476E-03     492.811E-03    -204.335E-03     355.507E-03    -306.156E-03     510.453E-03    -203.973E-03     309.934E-03
            1182     12.4302E-03     159.422E-03    -22.6770E+06     112.932E+06     107.428E+06    -6.73592E+06    -303.767E-03     512.227E-03    -208.460E-03     321.795E-03    -320.207E-03     528.690E-03    -208.053E-03     273.730E-03
            1183     13.1007E-03     159.789E-03    -14.0351E+06     104.939E+06     110.095E+06    -8.71244E+06    -318.381E-03     531.570E-03    -213.189E-03     289.228E-03    -333.705E-03     546.911E-03    -212.770E-03     237.518E-03
            1184     13.7529E-03     160.139E-03     -5.8865E+06     105.341E+06     112.114E+06    -4.70130E+06    -327.223E-03     545.508E-03    -218.284E-03     212.562E-03    -337.328E-03     555.648E-03    -217.868E-03     169.371E-03
            1185     741.164E-06     156.977E-03    -110.816E+06    -231.682E+06    -112.095E+06    -3.37916E+06    -193.147E-03     386.144E-03    -192.997E-03     36.3177E-03    -193.267E-03     385.354E-03    -193.061E-03     35.0040E-03
            1186     1.48330E-03     157.016E-03    -110.255E+06    -225.174E+06    -104.478E+06    -5.66646E+06    -192.129E-03     384.706E-03    -192.578E-03     67.0301E-03    -192.383E-03     384.052E-03    -192.614E-03     64.6439E-03
            1187     2.22658E-03     157.078E-03    -106.050E+06    -215.629E+06    -92.9228E+06    -7.59661E+06    -190.691E-03     382.420E-03    -191.729E-03     100.128E-03    -191.155E-03     381.991E-03    -191.727E-03     96.5994E-03
            1188     2.97251E-03     157.165E-03    -101.085E+06    -204.298E+06    -79.2443E+06    -9.02643E+06    -189.205E-03     379.800E-03    -190.594E-03     134.056E-03    -189.974E-03     379.694E-03    -190.548E-03     129.346E-03
            1189     3.72109E-03     157.279E-03    -95.2605E+06    -190.271E+06    -64.2806E+06    -8.66618E+06    -188.249E-03     377.530E-03    -189.281E-03     168.262E-03    -189.426E-03     377.862E-03    -189.189E-03     162.347E-03
            1190     4.47263E-03     157.420E-03    -90.0305E+06    -173.982E+06    -49.0051E+06    -7.51038E+06    -188.392E-03     376.313E-03    -187.921E-03     202.551E-03    -190.124E-03     377.234E-03    -187.783E-03     195.275E-03
            1191     5.22522E-03     157.589E-03    -86.4764E+06    -157.407E+06    -34.6531E+06    -5.56503E+06    -190.351E-03     377.010E-03    -186.659E-03     236.683E-03    -192.819E-03     378.699E-03    -186.479E-03     227.799E-03
            1192     5.97926E-03     157.790E-03    -84.2202E+06    -137.875E+06    -20.8615E+06    -2.82253E+06    -194.461E-03     380.100E-03    -185.639E-03     270.027E-03    -197.907E-03     382.809E-03    -185.421E-03     259.161E-03
            1193     6.73239E-03     158.023E-03    -82.3534E+06    -115.389E+06    -6.82197E+06     1.32806E+03    -200.998E-03     385.986E-03    -184.988E-03     301.941E-03    -205.737E-03     390.037E-03    -184.735E-03     288.535E-03
            1194     7.48281E-03     158.291E-03    -79.3340E+06    -90.1865E+06     7.90737E+06     2.48107E+06    -210.318E-03     395.149E-03    -184.831E-03     331.384E-03    -216.714E-03     400.920E-03    -184.546E-03     314.732E-03
            1195     8.22896E-03     158.594E-03    -74.1482E+06    -58.7652E+06     24.1011E+06     3.37352E+06    -222.688E-03     407.982E-03    -185.294E-03     358.070E-03    -231.210E-03     415.967E-03    -184.980E-03     337.182E-03
            1196     8.96705E-03     158.935E-03    -66.1935E+06    -24.6042E+06     40.7772E+06     3.13643E+06    -237.879E-03     424.366E-03    -186.487E-03     380.294E-03    -248.938E-03     434.994E-03    -186.152E-03     354.165E-03
            1197     9.69701E-03     159.314E-03    -55.7871E+06     14.8306E+06     57.6863E+06     1.82781E+06    -255.410E-03     443.914E-03    -188.504E-03     395.083E-03    -269.211E-03     457.416E-03    -188.156E-03     362.851E-03
            1198     10.4116E-03     159.724E-03    -44.1485E+06     54.7006E+06     72.2922E+06     806.702E+03    -274.460E-03     465.874E-03    -191.414E-03     399.422E-03    -290.730E-03     481.989E-03    -191.068E-03     360.784E-03
            1199     11.1145E-03     160.156E-03    -32.9536E+06     78.6549E+06     81.6069E+06    -733.697E+03    -293.882E-03     489.140E-03    -195.258E-03     389.623E-03    -311.702E-03     506.906E-03    -194.916E-03     345.035E-03
            1200     11.7992E-03     160.588E-03    -22.6059E+06     100.818E+06     93.8738E+06    -5.60713E+06    -312.713E-03     512.730E-03    -200.016E-03     366.934E-03    -330.895E-03     530.938E-03    -199.660E-03     317.253E-03
            1201     12.4662E-03     161.018E-03    -13.5661E+06     117.426E+06     109.834E+06    -8.02205E+06    -328.617E-03     534.163E-03    -205.546E-03     330.919E-03    -345.636E-03     551.251E-03    -205.148E-03     277.979E-03
            1202     13.1184E-03     161.406E-03    -7.64761E+06     102.640E+06     108.620E+06    -4.53359E+06    -340.376E-03     551.877E-03    -211.501E-03     297.997E-03    -356.206E-03     567.742E-03    -211.096E-03     241.837E-03
            1203     13.7628E-03     161.802E-03    -5.40570E+06     95.8008E+06     106.899E+06    -2.73149E+06    -344.282E-03     561.823E-03    -217.542E-03     218.173E-03    -354.609E-03     572.169E-03    -217.138E-03     172.283E-03
            1204     753.792E-06     158.350E-03    -111.549E+06    -220.653E+06    -111.085E+06    -3.48713E+06    -175.991E-03     351.597E-03    -175.607E-03     39.3591E-03    -176.125E-03     350.844E-03    -175.680E-03     38.4402E-03
            1205     1.50867E-03     158.386E-03    -111.228E+06    -215.433E+06    -105.549E+06    -5.44959E+06    -174.775E-03     350.039E-03    -175.264E-03     72.8254E-03    -175.010E-03     349.390E-03    -175.318E-03     71.2028E-03
            1206     2.26573E-03     158.446E-03    -109.072E+06    -208.336E+06    -96.5266E+06    -6.64185E+06    -173.956E-03     348.392E-03    -174.436E-03     108.476E-03    -174.356E-03     347.917E-03    -174.459E-03     106.073E-03
            1207     3.02450E-03     158.530E-03    -106.610E+06    -199.231E+06    -84.7196E+06    -6.69974E+06    -173.632E-03     347.124E-03    -173.492E-03     144.909E-03    -174.278E-03     346.905E-03    -173.472E-03     141.672E-03
            1208     3.78506E-03     158.643E-03    -105.255E+06    -187.970E+06    -72.0691E+06    -5.29845E+06    -174.366E-03     346.888E-03    -172.522E-03     181.478E-03    -175.363E-03     347.031E-03    -172.458E-03     177.311E-03
            1209     4.54668E-03     158.783E-03    -104.338E+06    -174.143E+06    -58.4725E+06    -2.54313E+06    -177.008E-03     348.675E-03    -171.668E-03     217.876E-03    -178.491E-03     349.323E-03    -171.556E-03     212.590E-03
            1210     5.30929E-03     158.956E-03    -102.751E+06    -157.861E+06    -43.5453E+06     51.8681E+03    -182.114E-03     353.204E-03    -171.090E-03     253.572E-03    -184.276E-03     354.555E-03    -170.930E-03     246.798E-03
            1211     6.06966E-03     159.163E-03    -99.2484E+06    -137.457E+06    -28.0193E+06     1.95206E+06    -189.981E-03     360.906E-03    -170.925E-03     287.795E-03    -193.072E-03     363.232E-03    -170.722E-03     279.006E-03
            1212     6.82710E-03     159.407E-03    -92.8241E+06    -114.938E+06    -11.9451E+06     3.14719E+06    -200.791E-03     372.085E-03    -171.294E-03     319.868E-03    -205.128E-03     375.719E-03    -171.053E-03     308.380E-03
            1213     7.57956E-03     159.689E-03    -83.1383E+06    -88.2758E+06     4.70915E+06     3.11560E+06    -214.728E-03     387.035E-03    -172.307E-03     349.064E-03    -220.728E-03     392.418E-03    -172.034E-03     333.917E-03
            1214     8.32371E-03     160.013E-03    -71.3336E+06    -53.9925E+06     22.1554E+06     2.55401E+06    -231.833E-03     405.898E-03    -174.065E-03     375.110E-03    -240.003E-03     413.570E-03    -173.772E-03     355.124E-03
            1215     9.05821E-03     160.380E-03    -59.0589E+06    -19.7284E+06     39.2081E+06     1.36488E+06    -251.588E-03     428.249E-03    -176.661E-03     396.366E-03    -262.414E-03     438.698E-03    -176.351E-03     370.250E-03
            1216     9.77817E-03     160.787E-03    -47.1259E+06     20.9719E+06     57.8855E+06    -288.763E+03    -273.308E-03     453.469E-03    -180.161E-03     410.335E-03    -287.078E-03     466.999E-03    -179.833E-03     376.951E-03
            1217     10.4859E-03     161.234E-03    -36.4869E+06     57.6031E+06     70.4848E+06    -1.30535E+06    -296.060E-03     480.652E-03    -184.592E-03     412.572E-03    -312.487E-03     496.975E-03    -184.270E-03     371.458E-03
            1218     11.1736E-03     161.700E-03    -27.2017E+06     88.5653E+06     82.4738E+06    -4.42897E+06    -318.153E-03     508.139E-03    -189.986E-03     400.427E-03    -336.338E-03     526.329E-03    -189.662E-03     352.012E-03
            1219     11.8429E-03     162.177E-03    -19.5750E+06     109.564E+06     96.1200E+06    -7.54933E+06    -337.397E-03     533.633E-03    -196.237E-03     376.350E-03    -356.072E-03     552.373E-03    -195.887E-03     322.117E-03
            1220     12.4968E-03     162.639E-03    -14.2846E+06     113.132E+06     108.227E+06    -5.77557E+06    -351.621E-03     554.700E-03    -203.079E-03     340.729E-03    -369.165E-03     572.300E-03    -202.681E-03     283.257E-03
            1221     13.1363E-03     163.068E-03    -11.0563E+06     99.3003E+06     109.476E+06    -3.93542E+06    -359.139E-03     569.240E-03    -210.101E-03     306.414E-03    -375.455E-03     585.563E-03    -209.682E-03     246.391E-03
            1222     13.7713E-03     163.461E-03    -4.97584E+06     90.2917E+06     108.958E+06    -2.38859E+06    -358.780E-03     575.712E-03    -216.932E-03     222.727E-03    -369.291E-03     586.217E-03    -216.511E-03     174.756E-03
            1223     769.898E-06     159.672E-03    -127.555E+06    -211.597E+06    -126.106E+06    -2.88035E+06    -155.489E-03     310.237E-03    -154.748E-03     42.7033E-03    -155.685E-03     309.554E-03    -154.887E-03     42.1734E-03
            1224     1.54087E-03     159.706E-03    -126.666E+06    -209.308E+06    -121.186E+06    -3.43499E+06    -155.067E-03     309.821E-03    -154.754E-03     78.7881E-03    -155.326E-03     309.201E-03    -154.873E-03     77.8577E-03
            1225     2.31241E-03     159.765E-03    -126.913E+06    -205.010E+06    -113.386E+06    -2.48840E+06    -155.656E-03     310.011E-03    -154.355E-03     117.072E-03    -156.034E-03     309.506E-03    -154.440E-03     115.688E-03
            1226     3.08470E-03     159.850E-03    -127.914E+06    -198.190E+06    -102.629E+06    -576.193E+03    -157.459E-03     311.468E-03    -154.009E-03     155.579E-03    -158.028E-03     311.149E-03    -154.049E-03     153.663E-03
            1227     3.85773E-03     159.963E-03    -127.239E+06    -187.980E+06    -87.9647E+06     1.14442E+06    -161.179E-03     315.023E-03    -153.844E-03     193.942E-03    -162.032E-03     314.991E-03    -153.826E-03     191.307E-03
            1228     4.63015E-03     160.109E-03    -123.394E+06    -174.606E+06    -70.5948E+06     2.04227E+06    -167.447E-03     321.438E-03    -153.992E-03     231.548E-03    -168.706E-03     321.831E-03    -153.912E-03     227.905E-03
            1229     5.39940E-03     160.290E-03    -115.849E+06    -156.937E+06    -52.2349E+06     2.07209E+06    -176.500E-03     331.068E-03    -154.568E-03     267.811E-03    -178.352E-03     332.097E-03    -154.434E-03     262.714E-03
            1230     6.16546E-03     160.511E-03    -105.299E+06    -135.130E+06    -33.8335E+06     940.308E+03    -188.664E-03     344.343E-03    -155.679E-03     302.266E-03    -191.370E-03     346.294E-03    -155.500E-03     295.090E-03
            1231     6.92493E-03     160.772E-03    -92.7273E+06    -111.779E+06    -16.8390E+06    -1.39237E+06    -204.134E-03     361.565E-03    -157.431E-03     334.166E-03    -208.048E-03     364.809E-03    -157.219E-03     324.051E-03
            1232     7.67568E-03     161.076E-03    -78.9791E+06    -85.4883E+06    -474.098E+03    -3.60127E+06    -222.858E-03     382.784E-03    -159.927E-03     362.965E-03    -228.434E-03     387.791E-03    -159.691E-03     348.800E-03
            1233     8.41610E-03     161.427E-03    -65.9729E+06    -51.5583E+06     16.9578E+06    -4.54152E+06    -244.409E-03     407.651E-03    -163.242E-03     388.013E-03    -252.189E-03     414.983E-03    -162.987E-03     368.459E-03
            1234     9.14302E-03     161.825E-03    -54.5524E+06    -16.9275E+06     34.4719E+06    -5.30811E+06    -268.320E-03     435.758E-03    -167.438E-03     407.909E-03    -278.845E-03     445.953E-03    -167.162E-03     381.393E-03
            1235     9.85634E-03     162.271E-03    -44.8058E+06     23.4773E+06      53.125E+06    -5.31362E+06    -294.004E-03     466.572E-03    -172.567E-03     419.937E-03    -307.602E-03     479.968E-03    -172.271E-03     385.023E-03
            1236     10.5490E-03     162.757E-03    -36.9407E+06     61.5276E+06     65.2978E+06    -6.15760E+06    -319.519E-03     498.143E-03    -178.623E-03     420.529E-03    -335.950E-03     514.501E-03    -178.332E-03     376.595E-03
            1237     11.2232E-03     163.271E-03    -29.3427E+06     97.4569E+06     79.1158E+06    -9.04153E+06    -342.026E-03     527.577E-03    -185.551E-03     408.464E-03    -360.449E-03     546.041E-03    -185.254E-03     356.175E-03
            1238     11.8799E-03     163.786E-03    -23.4910E+06     108.400E+06     92.9552E+06    -9.34128E+06    -359.750E-03     552.910E-03    -193.160E-03     384.647E-03    -378.851E-03     572.067E-03    -192.818E-03     325.994E-03
            1239     12.5204E-03     164.290E-03    -16.8885E+06     101.665E+06     105.793E+06    -6.04495E+06    -370.341E-03     571.452E-03    -201.112E-03     346.929E-03    -388.168E-03     589.291E-03    -200.706E-03     285.829E-03
            1240     13.1533E-03     164.740E-03    -8.26107E+06     97.4636E+06     112.967E+06    -2.70806E+06    -373.718E-03     582.697E-03    -208.979E-03     309.897E-03    -390.275E-03     599.255E-03    -208.544E-03     246.729E-03
            1241     13.7772E-03     165.158E-03    -4.35404E+06     88.5521E+06     113.073E+06    -516.010E+03    -370.348E-03     586.797E-03    -216.450E-03     225.721E-03    -381.138E-03     597.564E-03    -216.006E-03     175.124E-03
            1242     788.625E-06     160.936E-03    -151.638E+06    -209.143E+06    -149.635E+06     1.99544E+06    -132.909E-03     264.740E-03    -131.830E-03     45.3630E-03    -133.182E-03     264.121E-03    -132.055E-03     45.1945E-03
            1243     1.57644E-03     160.971E-03    -155.847E+06    -208.123E+06    -147.876E+06     1.98633E+06    -134.359E-03     266.716E-03    -132.357E-03     83.7519E-03    -134.684E-03     266.138E-03    -132.569E-03     83.3991E-03
            1244     2.36420E-03     161.032E-03    -157.016E+06    -207.115E+06    -138.790E+06     3.41236E+06    -137.395E-03     270.223E-03    -132.828E-03     124.143E-03    -137.796E-03     269.701E-03    -132.994E-03     123.560E-03
            1245     3.15101E-03     161.121E-03    -153.307E+06    -197.444E+06    -122.770E+06     3.12853E+06    -142.543E-03     276.107E-03    -133.564E-03     164.233E-03    -143.066E-03     275.717E-03    -133.670E-03     163.276E-03
            1246     3.93493E-03     161.242E-03    -144.750E+06    -187.146E+06    -102.654E+06     1.07596E+06    -150.275E-03     284.965E-03    -134.691E-03     203.676E-03    -150.988E-03     284.783E-03    -134.723E-03     202.105E-03
            1247     4.71470E-03     161.400E-03    -132.887E+06    -171.934E+06    -81.2294E+06    -954.109E+03    -160.743E-03     297.018E-03    -136.275E-03     241.969E-03    -161.777E-03     297.199E-03    -136.240E-03     239.448E-03
            1248     5.49004E-03     161.596E-03    -119.571E+06    -152.160E+06    -60.9380E+06    -4.22753E+06    -174.219E-03     312.601E-03    -138.382E-03     278.396E-03    -175.768E-03     313.363E-03    -138.293E-03     274.434E-03
            1249     6.25766E-03     161.835E-03    -105.729E+06    -130.207E+06    -42.8077E+06    -7.81867E+06    -190.808E-03     331.897E-03    -141.089E-03     312.448E-03    -193.151E-03     333.534E-03    -140.961E-03     306.360E-03
            1250     7.01685E-03     162.121E-03    -92.2067E+06    -105.656E+06    -25.7301E+06    -11.5302E+06    -210.741E-03     355.224E-03    -144.484E-03     343.716E-03    -214.254E-03     358.124E-03    -144.326E-03     334.541E-03
            1251     7.76486E-03     162.454E-03    -80.4737E+06    -81.0404E+06    -9.69042E+06    -15.2169E+06    -233.882E-03     382.543E-03    -148.661E-03     371.261E-03    -239.025E-03     387.161E-03    -148.476E-03     357.771E-03
            1252     8.49893E-03     162.839E-03    -68.9095E+06    -52.1893E+06     7.07445E+06    -17.0106E+06    -259.576E-03     413.263E-03    -153.687E-03     394.230E-03    -266.894E-03     420.155E-03    -153.476E-03     374.864E-03
            1253     9.21799E-03     163.275E-03    -57.2482E+06    -19.2381E+06      24.549E+06    -16.1985E+06    -287.329E-03     446.930E-03    -159.601E-03     411.593E-03    -297.348E-03     456.636E-03    -159.367E-03     384.592E-03
            1254     9.91716E-03     163.763E-03    -46.0782E+06     17.8663E+06     42.8013E+06    -13.5742E+06    -315.649E-03     482.063E-03    -166.414E-03     421.733E-03    -328.682E-03     494.903E-03    -166.159E-03     385.593E-03
            1255     10.5983E-03     164.298E-03    -36.5373E+06     62.1153E+06     60.0350E+06    -10.0720E+06    -341.349E-03     515.382E-03    -174.033E-03     421.878E-03    -357.259E-03     531.239E-03    -173.770E-03     376.018E-03
            1256     11.2608E-03     164.855E-03    -29.9279E+06     103.890E+06     79.1516E+06    -8.12311E+06    -362.289E-03     544.596E-03    -182.307E-03     410.602E-03    -380.404E-03     562.773E-03    -182.019E-03     355.658E-03
            1257     11.9058E-03     165.419E-03    -24.1779E+06     108.722E+06     95.8461E+06    -8.23602E+06    -377.202E-03     568.219E-03    -191.017E-03     388.043E-03    -396.356E-03     587.419E-03    -190.661E-03     325.902E-03
            1258     12.5380E-03     165.956E-03    -20.6525E+06     95.4047E+06     109.678E+06    -7.58437E+06    -383.488E-03     583.297E-03    -199.809E-03     350.262E-03    -401.672E-03     601.443E-03    -199.369E-03     285.532E-03
            1259     13.1595E-03     166.430E-03    -16.4771E+06     87.7638E+06     115.509E+06    -6.71693E+06    -383.342E-03     591.599E-03    -208.257E-03     313.807E-03    -400.194E-03     608.379E-03    -207.783E-03     247.991E-03
            1260     13.7825E-03     166.863E-03    -7.27065E+06     80.0539E+06     116.358E+06    -4.88934E+06    -378.618E-03     594.754E-03    -216.136E-03     229.195E-03    -389.553E-03     605.616E-03    -215.659E-03     176.788E-03
            1261     807.286E-06     162.142E-03    -194.273E+06    -216.820E+06    -192.561E+06     5.76709E+06    -111.057E-03     220.602E-03    -109.545E-03     46.9371E-03    -111.454E-03     220.063E-03    -109.912E-03     46.9896E-03
            1262     1.61315E-03     162.182E-03    -191.489E+06    -209.754E+06    -181.315E+06     6.01254E+06    -114.806E-03     225.525E-03    -110.719E-03     86.2486E-03    -115.221E-03     225.010E-03    -111.044E-03     86.2570E-03
            1263     2.41577E-03     162.249E-03    -183.948E+06    -206.350E+06    -162.429E+06     2.55064E+06    -121.239E-03     233.546E-03    -112.307E-03     127.540E-03    -121.671E-03     233.041E-03    -112.553E-03     127.382E-03
            1264     3.21412E-03     162.349E-03    -172.432E+06    -191.663E+06    -141.620E+06    -2.60819E+06    -130.260E-03     244.667E-03    -114.407E-03     168.400E-03    -130.750E-03     244.261E-03    -114.587E-03     167.924E-03
            1265     4.00715E-03     162.485E-03    -158.989E+06    -179.720E+06    -119.675E+06    -9.11874E+06    -142.055E-03     259.099E-03    -117.044E-03     208.435E-03    -142.673E-03     258.855E-03    -117.151E-03     207.402E-03
            1266     4.79392E-03     162.659E-03    -143.289E+06    -165.343E+06    -98.5212E+06    -15.3857E+06    -156.830E-03     277.060E-03    -120.230E-03     246.968E-03    -157.696E-03     277.117E-03    -120.275E-03     245.037E-03
            1267     5.57167E-03     162.878E-03    -126.472E+06    -145.762E+06    -77.9912E+06    -19.6177E+06    -174.654E-03     298.661E-03    -124.007E-03     283.140E-03    -175.964E-03     299.238E-03    -124.002E-03     279.837E-03
            1268     6.33987E-03     163.142E-03    -110.135E+06    -123.869E+06    -57.6993E+06    -23.7610E+06    -195.742E-03     324.187E-03    -128.445E-03     316.397E-03    -197.773E-03     325.569E-03    -128.394E-03     310.989E-03
            1269     7.09599E-03     163.457E-03    -94.3982E+06    -101.705E+06    -37.6769E+06    -26.4796E+06    -220.050E-03     353.670E-03    -133.620E-03     345.854E-03    -223.152E-03     356.207E-03    -133.524E-03     337.355E-03
            1270     7.83785E-03     163.825E-03    -79.0564E+06    -77.6770E+06    -17.5194E+06    -27.0738E+06    -247.051E-03     386.647E-03    -139.596E-03     370.359E-03    -251.651E-03     390.768E-03    -139.456E-03     357.465E-03
            1271     8.56377E-03     164.248E-03    -65.9137E+06    -52.0369E+06     921.107E+03    -26.8169E+06    -276.322E-03     422.735E-03    -146.413E-03     389.653E-03    -282.906E-03     428.928E-03    -146.238E-03     370.715E-03
            1272     9.27039E-03     164.728E-03    -54.7461E+06    -24.0290E+06     17.7102E+06    -25.3213E+06    -306.520E-03     460.597E-03    -154.077E-03     403.547E-03    -315.550E-03     469.329E-03    -153.875E-03     376.784E-03
            1273     9.95866E-03     165.264E-03    -45.1171E+06     6.47404E+06     34.8374E+06    -21.3139E+06    -334.777E-03     497.283E-03    -162.506E-03     410.808E-03    -346.523E-03     508.822E-03    -162.276E-03     374.873E-03
            1274     10.6278E-03     165.844E-03    -38.6808E+06     47.7162E+06     54.9219E+06    -13.9397E+06    -358.391E-03     529.908E-03    -171.517E-03     409.197E-03    -372.845E-03     544.264E-03    -171.256E-03     363.443E-03
            1275     11.2795E-03     166.450E-03    -36.6472E+06     100.870E+06     78.8535E+06    -6.76131E+06    -375.668E-03     556.546E-03    -180.879E-03     398.376E-03    -392.470E-03     573.373E-03    -180.578E-03     343.178E-03
            1276     11.9171E-03     167.055E-03    -36.8790E+06     118.095E+06     96.4933E+06    -8.42119E+06    -385.018E-03     575.325E-03    -190.307E-03     379.146E-03    -403.329E-03     593.664E-03    -189.942E-03     316.266E-03
            1277     12.5432E-03     167.630E-03    -32.1451E+06     99.5103E+06     112.610E+06    -15.8635E+06    -387.205E-03     586.725E-03    -199.520E-03     345.928E-03    -405.303E-03     604.751E-03    -199.055E-03     279.125E-03
            1278     13.1678E-03     168.125E-03    -19.6771E+06     77.1159E+06     121.093E+06    -18.2998E+06    -385.591E-03     593.812E-03    -208.221E-03     308.106E-03    -402.258E-03     610.341E-03    -207.699E-03     241.136E-03
            1279     13.7852E-03     168.578E-03    -8.26292E+06     55.9758E+06     121.082E+06    -14.0884E+06    -378.404E-03     594.614E-03    -216.210E-03     225.299E-03    -388.972E-03     605.004E-03    -215.674E-03     173.328E-03
            1280     822.776E-06     163.298E-03    -272.635E+06    -217.609E+06    -271.550E+06    -5.56504E+06    -94.5034E-03     186.156E-03    -91.6530E-03     45.0476E-03    -95.1624E-03     185.847E-03    -92.2999E-03     45.0059E-03
            1281     1.64274E-03     163.345E-03    -255.099E+06    -204.428E+06    -245.913E+06    -9.84094E+06    -99.4825E-03     193.323E-03    -93.8403E-03     82.5886E-03    -100.108E-03     193.017E-03    -94.4035E-03     82.4912E-03
            1282     2.45775E-03     163.425E-03    -231.762E+06    -192.900E+06    -212.853E+06    -18.8871E+06    -108.423E-03     204.697E-03    -96.2742E-03     123.280E-03    -109.005E-03     204.379E-03    -96.7228E-03     123.009E-03
            1283     3.26573E-03     163.541E-03    -205.778E+06    -181.116E+06    -178.210E+06    -26.8895E+06    -120.600E-03     220.071E-03    -99.4710E-03     164.237E-03    -121.161E-03     219.771E-03    -99.8010E-03     163.692E-03
            1284     4.06589E-03     163.695E-03    -179.205E+06    -166.145E+06    -146.163E+06    -33.4942E+06    -136.058E-03     239.431E-03    -103.373E-03     204.380E-03    -136.664E-03     239.237E-03    -103.603E-03     203.378E-03
            1285     4.85577E-03     163.894E-03    -154.688E+06    -155.555E+06    -119.648E+06    -40.0558E+06    -154.753E-03     262.725E-03    -107.972E-03     242.524E-03    -155.513E-03     262.739E-03    -108.121E-03     240.747E-03
            1286     5.63503E-03     164.138E-03    -132.533E+06    -142.008E+06    -94.4141E+06    -43.0914E+06    -176.719E-03     290.014E-03    -113.295E-03     277.634E-03    -177.824E-03     290.433E-03    -113.369E-03     274.619E-03
            1287     6.40120E-03     164.433E-03    -113.072E+06    -118.375E+06    -69.0291E+06    -43.9093E+06    -202.113E-03     321.503E-03    -119.390E-03     308.699E-03    -203.830E-03     322.620E-03    -119.400E-03     303.734E-03
            1288     7.15162E-03     164.784E-03    -97.0705E+06    -100.729E+06    -46.7405E+06    -45.1715E+06    -230.367E-03     356.686E-03    -126.320E-03     334.422E-03    -232.991E-03     358.769E-03    -126.267E-03     326.511E-03
            1289     7.88507E-03     165.191E-03    -84.4397E+06    -82.2038E+06    -27.5485E+06    -44.5802E+06    -260.709E-03     394.807E-03    -134.098E-03     354.030E-03    -264.587E-03     398.203E-03    -133.994E-03     341.910E-03
            1290     8.59915E-03     165.657E-03    -74.3236E+06    -58.5187E+06    -9.44130E+06    -42.9544E+06    -292.036E-03     434.755E-03    -142.718E-03     367.468E-03    -297.532E-03     439.837E-03    -142.573E-03     349.634E-03
            1291     9.29343E-03     166.184E-03    -66.4133E+06    -35.0869E+06     8.15716E+06    -41.6011E+06    -321.893E-03     473.990E-03    -152.098E-03     375.007E-03    -329.324E-03     481.068E-03    -151.910E-03     349.931E-03
            1292     9.96732E-03     166.764E-03    -61.0406E+06    -15.1618E+06     25.4127E+06    -38.2855E+06    -347.533E-03     509.571E-03    -162.037E-03     376.602E-03    -357.121E-03     518.841E-03    -161.800E-03     343.068E-03
            1293     10.6240E-03     167.388E-03    -54.1197E+06     11.1383E+06     45.0695E+06    -30.3304E+06    -366.713E-03     538.962E-03    -172.249E-03     372.266E-03    -378.517E-03     550.505E-03    -171.961E-03     329.713E-03
            1294     11.2660E-03     168.034E-03    -41.3183E+06     62.0291E+06     70.8147E+06    -15.8201E+06    -376.736E-03     559.079E-03    -182.343E-03     363.153E-03    -390.575E-03     572.804E-03    -182.019E-03     312.370E-03
            1295     11.8983E-03     168.675E-03    -22.1685E+06     122.062E+06     104.758E+06    -1.86619E+06    -378.633E-03     570.591E-03    -191.958E-03     351.219E-03    -394.205E-03     586.228E-03    -191.579E-03     293.545E-03
            1296     12.5298E-03     169.279E-03    -4.25411E+06     131.077E+06     137.695E+06     1.07016E+06    -376.961E-03     577.904E-03    -200.942E-03     331.895E-03    -393.374E-03     594.383E-03    -200.438E-03     269.101E-03
            1297     13.1484E-03     169.817E-03     1.02634E+06     95.0543E+06     150.353E+06    -1.96788E+06    -374.638E-03     583.844E-03    -209.207E-03     309.282E-03    -391.311E-03     600.434E-03    -208.594E-03     243.211E-03
            1298     13.7704E-03     170.268E-03     1.95256E+06     49.2286E+06     144.709E+06    -3.13770E+06    -368.897E-03     585.604E-03    -216.708E-03     232.584E-03    -379.963E-03     596.438E-03    -216.058E-03     180.806E-03
            1299     829.464E-06     164.423E-03    -290.259E+06    -189.901E+06    -283.737E+06    -18.5210E+06    -87.6975E-03     171.749E-03    -84.0511E-03     37.8762E-03    -88.4637E-03     171.631E-03    -84.7736E-03     37.6279E-03
            1300     1.65584E-03     164.478E-03    -273.777E+06    -177.709E+06    -263.827E+06    -33.0246E+06    -92.3553E-03     179.119E-03    -86.7639E-03     69.8815E-03    -93.0897E-03     179.013E-03    -87.4283E-03     69.4178E-03
            1301     2.47731E-03     164.571E-03    -252.725E+06    -163.789E+06    -233.497E+06    -46.7476E+06    -101.417E-03     190.794E-03    -89.3769E-03     105.510E-03    -102.124E-03     190.698E-03    -89.9405E-03     104.803E-03
            1302     3.29201E-03     164.704E-03    -227.303E+06    -158.268E+06    -200.550E+06    -59.6317E+06    -114.427E-03     207.330E-03    -92.9032E-03     142.490E-03    -115.099E-03     207.217E-03    -93.3469E-03     141.469E-03
            1303     4.09606E-03     164.882E-03    -200.879E+06    -149.176E+06    -172.877E+06    -68.2021E+06    -131.375E-03     228.710E-03    -97.3344E-03     179.845E-03    -132.053E-03     228.652E-03    -97.6912E-03     178.410E-03
            1304     4.88853E-03     165.106E-03    -178.097E+06    -143.616E+06    -151.431E+06    -73.3274E+06    -152.259E-03     254.951E-03    -102.693E-03     215.741E-03    -153.030E-03     255.030E-03    -102.983E-03     213.671E-03
            1305     5.66635E-03     165.382E-03    -159.276E+06    -137.550E+06    -129.256E+06    -77.4984E+06    -177.331E-03     286.381E-03    -109.050E-03     248.504E-03    -178.345E-03     286.731E-03    -109.265E-03     245.382E-03
            1306     6.42699E-03     165.713E-03    -141.467E+06    -121.045E+06    -102.018E+06    -79.1181E+06    -205.982E-03     322.440E-03    -116.458E-03     275.895E-03    -207.435E-03     323.277E-03    -116.588E-03     271.112E-03
            1307     7.16928E-03     166.102E-03    -124.361E+06    -107.007E+06    -73.0717E+06    -78.8446E+06    -237.064E-03     361.993E-03    -124.929E-03     295.806E-03    -239.155E-03     363.497E-03    -124.959E-03     288.517E-03
            1308     7.89054E-03     166.551E-03    -108.121E+06    -98.4574E+06    -48.3212E+06    -76.0433E+06    -269.236E-03     403.634E-03    -134.397E-03     307.981E-03    -272.170E-03     405.999E-03    -134.339E-03     297.101E-03
            1309     8.58958E-03     167.062E-03    -92.4684E+06    -79.5200E+06    -24.4008E+06    -69.1492E+06    -300.086E-03     444.816E-03    -144.729E-03     313.132E-03    -304.079E-03     448.292E-03    -144.602E-03     297.496E-03
            1310     9.26675E-03     167.631E-03    -78.7463E+06    -56.7930E+06     3.01425E+06    -59.1896E+06    -326.799E-03     482.507E-03    -155.708E-03     312.541E-03    -332.032E-03     487.270E-03    -155.497E-03     291.090E-03
            1311     9.92547E-03     168.252E-03    -66.0195E+06    -36.4872E+06     30.0513E+06    -48.0445E+06    -347.200E-03     514.172E-03    -166.972E-03     308.357E-03    -353.795E-03     520.332E-03    -166.673E-03     280.339E-03
            1312     10.5684E-03     168.910E-03    -52.7180E+06    -15.4153E+06     49.8511E+06    -40.1900E+06    -358.217E-03     536.222E-03    -178.004E-03     303.456E-03    -366.213E-03     543.843E-03    -177.656E-03     268.839E-03
            1313     11.2025E-03     169.586E-03    -36.0787E+06     11.6656E+06     68.4307E+06    -36.6335E+06    -358.639E-03     546.893E-03    -188.254E-03     299.756E-03    -368.039E-03     556.019E-03    -187.877E-03     259.231E-03
            1314     11.8414E-03     170.244E-03    -19.9015E+06     62.2642E+06     94.3354E+06    -30.1024E+06    -352.651E-03     549.976E-03    -197.325E-03     299.311E-03    -363.734E-03     560.950E-03    -196.915E-03     253.120E-03
            1315     12.4787E-03     170.884E-03    -9.66301E+06     94.0500E+06     127.653E+06    -13.7189E+06    -343.074E-03     548.206E-03    -205.132E-03     298.097E-03    -355.884E-03     560.962E-03    -204.616E-03     247.038E-03
            1316     13.1317E-03     171.452E-03    -2.22595E+06     91.9730E+06     163.617E+06     6.30171E+06    -338.788E-03     550.667E-03    -211.879E-03     298.097E-03    -353.870E-03     565.611E-03    -211.191E-03     240.817E-03
            1317     13.7776E-03     171.958E-03    -1.58463E+06     66.4061E+06     175.841E+06     14.9225E+06    -340.346E-03     558.278E-03    -217.931E-03     235.002E-03    -351.461E-03     569.129E-03    -217.146E-03     186.933E-03
            1318     824.233E-06     165.546E-03    -217.807E+06    -140.381E+06    -215.490E+06    -21.5049E+06    -93.4023E-03     186.245E-03    -92.8425E-03     23.4509E-03    -93.9929E-03     186.164E-03    -93.4006E-03     23.0448E-03
            1319     1.64585E-03     165.607E-03    -212.117E+06    -131.797E+06    -199.714E+06    -39.2793E+06    -98.0716E-03     192.258E-03    -94.1869E-03     44.4994E-03    -98.6829E-03     192.202E-03    -94.6868E-03     43.7408E-03
            1320     2.46330E-03     165.710E-03    -202.098E+06    -122.784E+06    -180.973E+06    -54.6679E+06    -105.440E-03     202.139E-03    -96.6987E-03     67.4201E-03    -106.067E-03     202.112E-03    -97.1325E-03     66.2851E-03
            1321     3.27319E-03     165.858E-03    -192.009E+06    -118.270E+06    -164.164E+06    -68.6651E+06    -115.824E-03     215.969E-03    -100.146E-03     92.2350E-03    -116.477E-03     215.974E-03    -100.517E-03     90.6684E-03
            1322     4.07436E-03     166.054E-03    -182.857E+06    -119.607E+06    -153.074E+06    -80.1451E+06    -129.956E-03     234.521E-03    -104.566E-03     118.542E-03    -130.653E-03     234.569E-03    -104.892E-03     116.464E-03
            1323     4.86282E-03     166.302E-03    -172.230E+06    -119.355E+06    -142.895E+06    -88.2564E+06    -148.562E-03     258.670E-03    -110.109E-03     144.345E-03    -149.339E-03     258.811E-03    -110.400E-03     141.614E-03
            1324     5.63523E-03     166.608E-03    -159.341E+06    -117.544E+06    -129.714E+06    -94.5706E+06    -171.516E-03     288.437E-03    -116.921E-03     167.756E-03    -172.426E-03     288.728E-03    -117.168E-03     164.123E-03
            1325     6.38826E-03     166.975E-03    -144.354E+06    -110.491E+06    -110.642E+06    -99.5381E+06    -198.048E-03     323.113E-03    -125.065E-03     186.351E-03    -199.165E-03     323.640E-03    -125.249E-03     181.444E-03
            1326     7.11809E-03     167.404E-03    -127.817E+06    -104.576E+06    -87.2009E+06    -100.534E+06    -227.010E-03     361.538E-03    -134.528E-03     197.920E-03    -228.410E-03     362.365E-03    -134.627E-03     191.227E-03
            1327     7.82312E-03     167.896E-03    -111.807E+06    -106.064E+06    -66.6700E+06    -97.8635E+06    -255.998E-03     401.164E-03    -145.166E-03     202.165E-03    -257.759E-03     402.345E-03    -145.183E-03     193.011E-03
            1328     8.50382E-03     168.447E-03    -99.0781E+06    -104.923E+06    -49.4936E+06    -91.7816E+06    -281.824E-03     438.496E-03    -156.672E-03     200.809E-03    -284.034E-03     440.126E-03    -156.623E-03     188.547E-03
            1329     9.16288E-03     169.054E-03    -88.1369E+06    -92.6676E+06    -25.5533E+06    -83.2789E+06    -302.179E-03     470.821E-03    -168.641E-03     196.743E-03    -304.927E-03     473.003E-03    -168.507E-03     180.906E-03
            1330     9.80395E-03     169.704E-03    -76.9765E+06    -80.1154E+06     1.46600E+06    -73.4803E+06    -314.612E-03     495.102E-03    -180.490E-03     194.423E-03    -317.948E-03     497.883E-03    -180.255E-03     174.916E-03
            1331     10.4351E-03     170.386E-03    -65.3907E+06    -55.2169E+06     30.5914E+06    -67.9755E+06    -316.686E-03     508.165E-03    -191.479E-03     196.541E-03    -320.693E-03     511.666E-03    -191.151E-03     173.638E-03
            1332     11.0725E-03     171.067E-03    -56.1790E+06    -16.9087E+06     64.3690E+06    -70.7112E+06    -310.209E-03     511.205E-03    -200.996E-03     202.888E-03    -315.105E-03     515.674E-03    -200.568E-03     176.547E-03
            1333     11.7138E-03     171.742E-03    -51.9004E+06     3.26948E+06     89.1543E+06    -67.8825E+06    -297.493E-03     506.131E-03    -208.637E-03     214.868E-03    -303.600E-03     511.834E-03    -208.121E-03     185.110E-03
            1334     12.3764E-03     172.382E-03    -43.7087E+06     15.4103E+06     111.833E+06    -54.0352E+06    -280.433E-03     494.658E-03    -214.225E-03     229.842E-03    -288.046E-03     501.885E-03    -213.625E-03     197.151E-03
            1335     13.0501E-03     172.971E-03    -37.5790E+06     10.8701E+06     127.685E+06    -24.0949E+06    -270.717E-03     488.642E-03    -217.925E-03     264.019E-03    -280.931E-03     498.443E-03    -217.248E-03     226.523E-03
            1336     13.7240E-03     173.540E-03    -23.4066E+06     41.8683E+06     158.290E+06     3.41099E+06    -277.815E-03     498.437E-03    -220.623E-03     254.729E-03    -287.316E-03     507.583E-03    -219.858E-03     218.805E-03
            1337     803.420E-06     166.703E-03    -148.917E+06    -87.3904E+06    -142.615E+06    -19.3749E+06    -121.467E-03     241.297E-03    -119.830E-03     86.6585E-06    -121.945E-03     241.214E-03    -120.200E-03    -568.008E-06
            1338     1.60543E-03     166.769E-03    -143.095E+06    -81.4856E+06    -132.235E+06    -34.4455E+06    -122.570E-03     244.805E-03    -122.235E-03    -2.45735E-03    -123.050E-03     244.716E-03    -122.571E-03    -3.64972E-03
            1339     2.40130E-03     166.878E-03    -136.254E+06    -78.4152E+06    -118.404E+06    -48.2674E+06    -125.946E-03     250.658E-03    -124.711E-03    -1.97688E-03    -126.414E-03     250.557E-03    -124.992E-03    -3.77451E-03
            1340     3.19113E-03     167.033E-03    -128.783E+06    -77.1741E+06    -105.413E+06    -57.5131E+06    -130.845E-03     259.020E-03    -128.175E-03     153.664E-06    -131.304E-03     258.900E-03    -128.403E-03    -2.25549E-03
            1341     3.97177E-03     167.238E-03    -121.509E+06    -79.5514E+06    -93.5256E+06    -65.7181E+06    -137.672E-03     270.413E-03    -132.741E-03     3.47978E-03    -138.123E-03     270.265E-03    -132.917E-03     387.264E-06
            1342     4.73975E-03     167.502E-03    -113.582E+06    -82.7169E+06    -81.7052E+06    -73.2223E+06    -146.902E-03     285.465E-03    -138.563E-03     7.51023E-03    -147.349E-03     285.297E-03    -138.687E-03     3.63849E-03
            1343     5.49083E-03     167.826E-03    -104.786E+06    -82.9263E+06    -69.7181E+06    -79.4914E+06    -158.450E-03     304.214E-03    -145.764E-03     10.6898E-03    -158.900E-03     304.048E-03    -145.840E-03     5.92501E-03
            1344     6.22200E-03     168.214E-03    -97.2323E+06    -78.3694E+06    -59.3876E+06    -84.5414E+06    -171.656E-03     326.034E-03    -154.378E-03     11.8943E-03    -172.121E-03     325.898E-03    -154.420E-03     6.10621E-03
            1345     6.93076E-03     168.670E-03    -92.7171E+06    -77.5203E+06    -51.4828E+06    -87.0028E+06    -185.321E-03     349.658E-03    -164.338E-03     10.6891E-03    -185.809E-03     349.552E-03    -164.348E-03     3.74099E-03
            1346     7.61497E-03     169.190E-03    -91.3784E+06    -82.8221E+06    -45.8272E+06    -87.4448E+06    -197.716E-03     373.094E-03    -175.378E-03     8.23099E-03    -198.244E-03     373.018E-03    -175.355E-03    -4.88572E-06
            1347     8.27567E-03     169.769E-03    -89.7441E+06    -90.9387E+06    -39.6215E+06    -87.5167E+06    -207.432E-03     394.477E-03    -187.045E-03     6.66745E-03    -208.022E-03     394.449E-03    -186.981E-03    -2.92518E-03
            1348     8.91796E-03     170.397E-03    -85.8735E+06    -94.0956E+06    -27.1493E+06    -85.8393E+06    -212.957E-03     411.675E-03    -198.719E-03     9.77494E-03    -213.664E-03     411.765E-03    -198.593E-03    -1.03507E-03
            1349     9.54870E-03     171.067E-03    -79.3922E+06    -92.5474E+06    -6.28462E+06    -83.8073E+06    -212.343E-03     421.930E-03    -209.587E-03     20.9026E-03    -213.248E-03     422.223E-03    -209.369E-03     9.19212E-03
            1350     10.1847E-03     171.752E-03    -68.4222E+06    -76.5779E+06     27.0119E+06    -79.1414E+06    -206.308E-03     425.135E-03    -218.828E-03     39.5425E-03    -207.501E-03     425.760E-03    -218.482E-03     27.2895E-03
            1351     10.8258E-03     172.445E-03    -56.5730E+06    -29.4410E+06     72.5383E+06    -72.6091E+06    -197.407E-03     423.240E-03    -225.833E-03     65.3809E-03    -199.061E-03     424.452E-03    -225.345E-03     52.5636E-03
            1352     11.4893E-03     173.116E-03    -40.4202E+06    -2.70081E+06     115.673E+06    -60.7734E+06    -186.155E-03     416.425E-03    -230.270E-03     95.8385E-03    -188.321E-03     418.209E-03    -229.629E-03     82.6182E-03
            1353     12.1757E-03     173.755E-03    -38.8261E+06    -716.773E+03     140.129E+06    -40.1749E+06    -171.205E-03     403.124E-03    -231.918E-03     131.575E-03    -174.097E-03     405.592E-03    -231.160E-03     118.017E-03
            1354     12.9000E-03     174.349E-03    -37.2759E+06    -34.2723E+06     132.631E+06    -25.9856E+06    -159.909E-03     390.904E-03    -230.995E-03     183.564E-03    -164.531E-03     394.962E-03    -230.228E-03     167.825E-03
            1355     13.6838E-03     174.934E-03    -21.6361E+06    -8.56801E+06     119.400E+06    -23.3082E+06    -145.491E-03     373.246E-03    -227.755E-03     233.539E-03    -150.623E-03     378.062E-03    -227.114E-03     217.255E-03
            1356     760.558E-06     167.958E-03    -74.3638E+06    -39.9420E+06    -69.9995E+06    -13.5558E+06    -178.603E-03     359.671E-03    -181.068E-03    -46.3800E-03    -179.038E-03     359.386E-03    -181.252E-03    -47.3201E-03
            1357     1.51706E-03     168.025E-03    -71.3938E+06    -36.7810E+06    -63.2583E+06    -23.7388E+06    -176.776E-03     359.593E-03    -182.817E-03    -83.4539E-03    -177.182E-03     359.184E-03    -182.976E-03    -85.2635E-03
            1358     2.27166E-03     168.132E-03    -69.8270E+06    -37.8177E+06    -53.4739E+06    -32.3197E+06    -173.018E-03     358.670E-03    -185.652E-03    -122.956E-03    -173.319E-03     358.103E-03    -185.763E-03    -125.574E-03
            1359     3.01838E-03     168.288E-03    -68.1935E+06    -41.5014E+06    -43.3588E+06    -39.1620E+06    -167.961E-03     357.671E-03    -189.710E-03    -162.109E-03    -168.100E-03     356.878E-03    -189.767E-03    -165.544E-03
            1360     3.75396E-03     168.493E-03    -65.3525E+06    -43.9977E+06    -31.5904E+06    -44.3659E+06    -160.451E-03     355.529E-03    -195.078E-03    -199.540E-03    -160.388E-03     354.477E-03    -195.077E-03    -203.734E-03
            1361     4.47603E-03     168.753E-03    -62.8793E+06    -46.7093E+06    -20.3920E+06    -49.0830E+06    -149.897E-03     351.582E-03    -201.685E-03    -232.257E-03    -149.613E-03     350.259E-03    -201.628E-03    -237.113E-03
            1362     5.18190E-03     169.075E-03    -61.3000E+06    -47.0060E+06    -10.0036E+06    -52.8777E+06    -136.827E-03     346.312E-03    -209.485E-03    -258.220E-03    -136.321E-03     344.752E-03    -209.378E-03    -263.644E-03
            1363     5.86789E-03     169.459E-03    -60.2390E+06    -43.4523E+06    -253.337E+03    -55.1945E+06    -121.839E-03     340.226E-03    -218.387E-03    -275.517E-03    -121.138E-03     338.503E-03    -218.238E-03    -281.408E-03
            1364     6.53188E-03     169.906E-03    -60.1537E+06    -41.1472E+06     7.35563E+06    -54.2102E+06    -105.365E-03     333.468E-03    -228.103E-03    -281.201E-03    -104.521E-03     331.668E-03    -227.920E-03    -287.429E-03
            1365     7.17664E-03     170.414E-03    -57.2979E+06    -40.4070E+06     16.1443E+06    -51.6220E+06    -88.6521E-03     326.845E-03    -238.193E-03    -273.924E-03    -87.7575E-03     325.083E-03    -237.971E-03    -280.330E-03
            1366     7.80768E-03     170.977E-03    -52.2939E+06    -40.2722E+06     28.6636E+06    -47.6084E+06    -73.0305E-03     321.138E-03    -248.108E-03    -253.641E-03    -72.2084E-03     319.552E-03    -247.830E-03    -260.044E-03
            1367     8.42852E-03     171.592E-03    -44.7829E+06    -42.8098E+06     47.1489E+06    -43.6739E+06    -58.5202E-03     315.637E-03    -257.116E-03    -220.586E-03    -57.8967E-03     314.346E-03    -256.754E-03    -226.765E-03
            1368     9.05555E-03     172.239E-03    -35.1808E+06    -41.0537E+06     72.4779E+06    -40.0776E+06    -45.0530E-03     309.407E-03    -264.354E-03    -177.271E-03    -44.7270E-03     308.507E-03    -263.881E-03    -182.974E-03
            1369     9.69308E-03     172.914E-03    -26.5301E+06    -35.9589E+06     97.7212E+06    -38.4399E+06    -33.2468E-03     302.283E-03    -269.036E-03    -126.362E-03    -33.2512E-03     301.804E-03    -268.457E-03    -131.406E-03
            1370     10.3622E-03     173.594E-03    -20.7655E+06    -20.5782E+06     122.581E+06    -33.8486E+06    -23.3778E-03     294.042E-03    -270.664E-03    -70.9774E-03    -23.7146E-03     293.985E-03    -269.991E-03    -75.2479E-03
            1371     11.0651E-03     174.276E-03    -17.2079E+06     4.31963E+06     151.603E+06    -31.4234E+06    -14.7131E-03     283.711E-03    -268.998E-03    -14.3896E-03    -15.3159E-03     284.022E-03    -268.222E-03    -17.9510E-03
            1372     11.8096E-03     174.928E-03    -19.0722E+06    -7.92255E+06     156.933E+06    -9.65540E+06    -9.13467E-03     273.557E-03    -264.423E-03     21.0248E-03    -9.91848E-03     273.947E-03    -263.599E-03     18.2279E-03
            1373     12.6068E-03     175.520E-03     2.30241E+06    -11.3755E+06     151.758E+06    -5.32865E+06     1.09789E-03     256.274E-03    -257.371E-03     57.7295E-03     59.6028E-06     257.062E-03    -256.600E-03     54.6099E-03
            1374     13.3676E-03     176.103E-03     8.19138E+06    -1.08274E+06     100.786E+06    -19.9870E+06     37.9216E-03     208.863E-03    -246.785E-03     101.492E-03     37.0735E-03     209.599E-03    -246.291E-03     99.1104E-03
            1375     13.5701E-03     87.6624E-03     -5.7411E+06     71.5139E+06     82.0143E+06    -810.696E+03    -229.751E-03     461.284E-03    -231.532E-03     144.723E-03    -237.482E-03     469.010E-03    -231.218E-03     116.216E-03
            1376     12.8557E-03     87.4120E-03    -10.1289E+06     72.3214E+06     81.7919E+06    -1.23619E+06    -229.618E-03     461.189E-03    -231.572E-03     203.072E-03    -241.940E-03     473.495E-03    -231.253E-03     166.002E-03
            1377     12.1390E-03     87.1487E-03    -13.9273E+06     65.5335E+06     80.1173E+06    -371.731E+03    -231.012E-03     462.642E-03    -231.630E-03     226.013E-03    -245.325E-03     476.906E-03    -231.304E-03     186.159E-03
            1378     11.4266E-03     86.8325E-03    -18.9990E+06     59.5989E+06     79.9906E+06     1.25808E+06    -233.052E-03     464.732E-03    -231.680E-03     252.075E-03    -249.627E-03     481.219E-03    -231.339E-03     208.793E-03
            1379     10.7115E-03     86.4927E-03    -25.8043E+06     51.0246E+06     77.1470E+06     1.78641E+06    -234.883E-03     466.591E-03    -231.708E-03     267.282E-03    -252.311E-03     483.884E-03    -231.358E-03     222.429E-03
            1380     9.99767E-03     86.1320E-03    -33.3701E+06     41.3348E+06     67.6932E+06     1.90565E+06    -236.440E-03     468.142E-03    -231.702E-03     273.479E-03    -253.525E-03     485.059E-03    -231.375E-03     228.616E-03
            1381     9.28311E-03     85.7700E-03    -40.2605E+06     34.5475E+06     56.7556E+06     2.49610E+06    -237.284E-03     468.975E-03    -231.691E-03     269.065E-03    -252.870E-03     484.376E-03    -231.399E-03     225.979E-03
            1382     8.56931E-03     85.4211E-03    -47.8327E+06     24.0586E+06     44.4044E+06     1.62855E+06    -237.503E-03     469.192E-03    -231.689E-03     255.914E-03    -250.925E-03     482.401E-03    -231.433E-03     215.827E-03
            1383     7.85414E-03     85.0919E-03    -57.1302E+06     13.2368E+06     32.7480E+06    -116.118E+03    -237.202E-03     468.901E-03    -231.698E-03     237.396E-03    -248.291E-03     479.739E-03    -231.471E-03     201.034E-03
            1384     7.13962E-03     84.7898E-03    -66.4203E+06    -17.6772E+06     18.1195E+06    -1.33648E+06    -236.766E-03     468.490E-03    -231.724E-03     217.043E-03    -245.647E-03     477.020E-03    -231.511E-03     184.670E-03
            1385     6.42619E-03     84.5137E-03    -74.1259E+06    -67.4063E+06    -217.024E+03    -1.06889E+06    -236.366E-03     468.116E-03    -231.750E-03     196.228E-03    -243.282E-03     474.530E-03    -231.546E-03     167.848E-03
            1386     5.71152E-03     84.2641E-03    -81.2764E+06    -112.894E+06    -18.4773E+06     84.0163E+03    -235.712E-03     467.479E-03    -231.767E-03     175.284E-03    -240.957E-03     472.088E-03    -231.578E-03     150.821E-03
            1387     4.99742E-03     84.0432E-03    -88.9326E+06    -153.877E+06    -36.4729E+06     549.012E+03    -234.952E-03     466.742E-03    -231.790E-03     154.025E-03    -238.822E-03     469.856E-03    -231.621E-03     133.257E-03
            1388     4.28302E-03     83.8494E-03    -96.5914E+06    -188.445E+06    -53.8257E+06     698.234E+03    -234.346E-03     466.152E-03    -231.805E-03     132.313E-03    -237.093E-03     468.042E-03    -231.661E-03     115.037E-03
            1389     3.56950E-03     83.6846E-03    -103.407E+06    -216.174E+06    -70.6920E+06     548.255E+03    -233.715E-03     465.510E-03    -231.795E-03     110.610E-03    -235.575E-03     466.441E-03    -231.685E-03     96.5875E-03
            1390     2.85552E-03     83.5487E-03    -109.649E+06    -252.718E+06    -85.3970E+06     329.591E+03    -233.007E-03     464.816E-03    -231.810E-03     88.9786E-03    -234.167E-03     464.938E-03    -231.711E-03     78.0102E-03
            1391     2.14150E-03     83.4432E-03    -115.611E+06    -279.689E+06    -99.1685E+06     440.412E+03    -232.513E-03     464.336E-03    -231.823E-03     67.3469E-03    -233.160E-03     463.868E-03    -231.746E-03     59.2354E-03
            1392     1.42756E-03     83.3665E-03    -120.233E+06    -287.385E+06    -112.071E+06     274.057E+03    -232.241E-03     464.011E-03    -231.769E-03     45.5343E-03    -232.549E-03     463.197E-03    -231.739E-03     40.1271E-03
            1393     714.272E-06     83.3200E-03    -123.268E+06    -293.404E+06    -120.780E+06     52.4054E+03    -232.057E-03     463.554E-03    -231.497E-03     24.6892E-03    -232.164E-03     462.532E-03    -231.497E-03     21.7801E-03
            1394     13.5703E-03     86.1561E-03    -2.20288E+06     74.8533E+06     85.0677E+06     156.927E+03    -229.113E-03     460.683E-03    -231.569E-03     145.201E-03    -236.823E-03     468.404E-03    -231.249E-03     116.804E-03
            1395     12.8539E-03     85.9102E-03    -7.87412E+06     73.8118E+06     83.0209E+06    -1.85419E+06    -229.829E-03     461.447E-03    -231.618E-03     202.822E-03    -242.133E-03     473.744E-03    -231.298E-03     165.726E-03
            1396     12.1410E-03     85.6403E-03    -14.4683E+06     60.0579E+06     78.3869E+06    -954.789E+03    -231.549E-03     463.202E-03    -231.653E-03     225.446E-03    -245.855E-03     477.443E-03    -231.327E-03     185.456E-03
            1397     11.4254E-03     85.3275E-03    -21.3052E+06     57.2535E+06     78.2767E+06     1.04035E+06    -233.182E-03     464.859E-03    -231.677E-03     251.601E-03    -249.745E-03     481.323E-03    -231.338E-03     208.290E-03
            1398     10.7117E-03     84.9853E-03    -28.4927E+06     51.7799E+06     76.7623E+06     1.37561E+06    -234.838E-03     466.541E-03    -231.703E-03     267.458E-03    -252.271E-03     483.835E-03    -231.353E-03     222.638E-03
            1399     9.99760E-03     84.6259E-03    -35.2901E+06     40.9206E+06     68.6163E+06     738.306E+03    -236.321E-03     468.036E-03    -231.714E-03     273.963E-03    -253.419E-03     484.954E-03    -231.380E-03     229.142E-03
            1400     9.28286E-03     84.2653E-03    -42.1860E+06     33.9056E+06     57.4782E+06    -62.3534E+03    -237.338E-03     469.048E-03    -231.709E-03     269.384E-03    -252.959E-03     484.472E-03    -231.410E-03     226.208E-03
            1401     8.56776E-03     83.9133E-03    -48.4791E+06     24.6877E+06     45.3768E+06     96.8086E+03    -237.637E-03     469.332E-03    -231.695E-03     255.516E-03    -251.063E-03     482.542E-03    -231.433E-03     215.364E-03
            1402     7.85455E-03     83.5867E-03    -54.8342E+06     14.8815E+06     34.3586E+06     772.382E+03    -237.245E-03     468.931E-03    -231.687E-03     236.890E-03    -248.320E-03     479.765E-03    -231.457E-03     200.523E-03
            1403     7.14036E-03     83.2837E-03    -62.7004E+06    -16.0907E+06     19.2012E+06     886.116E+03    -236.790E-03     468.489E-03    -231.699E-03     216.911E-03    -245.659E-03     477.022E-03    -231.488E-03     184.549E-03
            1404     6.42566E-03     83.0074E-03    -72.3145E+06    -67.6960E+06    -688.232E+03     655.691E+03    -236.244E-03     467.971E-03    -231.727E-03     196.281E-03    -243.141E-03     474.373E-03    -231.528E-03     167.965E-03
            1405     5.71181E-03     82.7590E-03    -81.8448E+06    -113.487E+06    -19.8344E+06     540.939E+03    -235.634E-03     467.391E-03    -231.757E-03     175.371E-03    -240.878E-03     471.999E-03    -231.573E-03     150.935E-03
            1406     4.99745E-03     82.5372E-03    -89.8692E+06    -154.225E+06    -37.3723E+06     539.246E+03    -235.056E-03     466.837E-03    -231.781E-03     154.102E-03    -238.927E-03     469.950E-03    -231.614E-03     133.335E-03
            1407     4.28387E-03     82.3438E-03    -96.9174E+06    -188.416E+06    -53.8600E+06     543.646E+03    -234.363E-03     466.154E-03    -231.791E-03     132.683E-03    -237.115E-03     468.049E-03    -231.647E-03     115.402E-03
            1408     3.56953E-03     82.1788E-03    -103.633E+06    -215.060E+06    -70.3570E+06     553.510E+03    -233.568E-03     465.367E-03    -231.799E-03     110.957E-03    -235.432E-03     466.303E-03    -231.688E-03     96.9648E-03
            1409     2.85527E-03     82.0438E-03    -110.185E+06    -252.462E+06    -85.6089E+06     384.420E+03    -232.973E-03     464.811E-03    -231.838E-03     89.0325E-03    -234.137E-03     464.935E-03    -231.740E-03     78.0648E-03
            1410     2.14112E-03     81.9374E-03    -115.680E+06    -279.674E+06    -99.6745E+06    -98.4494E+03    -232.568E-03     464.419E-03    -231.852E-03     67.0819E-03    -233.214E-03     463.951E-03    -231.777E-03     58.9595E-03
            1411     1.42749E-03     81.8602E-03    -120.184E+06    -286.846E+06    -111.861E+06     -26.922E+03    -232.136E-03     463.970E-03    -231.834E-03     45.0556E-03    -232.442E-03     463.155E-03    -231.803E-03     39.6589E-03
            1412     713.316E-06     81.8142E-03    -123.936E+06    -293.426E+06    -121.422E+06     181.010E+03    -231.956E-03     463.749E-03    -231.792E-03     24.1966E-03    -232.065E-03     462.728E-03    -231.794E-03     21.2904E-03
            1413     13.5679E-03     84.6531E-03    -3.62576E+06     76.6439E+06     84.5963E+06    -1.72912E+06    -229.452E-03     461.060E-03    -231.609E-03     144.448E-03    -237.165E-03     468.788E-03    -231.292E-03     115.981E-03
            1414     12.8548E-03     84.4021E-03    -8.73498E+06     73.7197E+06     83.2471E+06    -530.566E+03    -230.461E-03     462.097E-03    -231.636E-03     202.961E-03    -242.794E-03     474.419E-03    -231.314E-03     165.771E-03
            1415     12.1398E-03     84.1346E-03    -15.2086E+06     58.0652E+06     79.2862E+06     1.54143E+06    -231.795E-03     463.447E-03    -231.652E-03     225.426E-03    -246.100E-03     477.674E-03    -231.318E-03     185.454E-03
            1416     11.4267E-03     83.8212E-03    -20.9107E+06     56.8018E+06     79.6741E+06     1.54156E+06    -233.076E-03     464.746E-03    -231.670E-03     251.278E-03    -249.601E-03     481.167E-03    -231.324E-03     208.064E-03
            1417     10.7119E-03     83.4796E-03    -26.5737E+06     52.6355E+06     78.3947E+06     1.34178E+06    -234.543E-03     466.249E-03    -231.706E-03     267.295E-03    -251.942E-03     483.513E-03    -231.352E-03     222.563E-03
            1418     9.99656E-03     83.1208E-03    -33.0716E+06     43.5364E+06     70.1560E+06     396.676E+03    -236.398E-03     468.116E-03    -231.719E-03     273.696E-03    -253.496E-03     485.049E-03    -231.383E-03     228.794E-03
            1419     9.28268E-03     82.7575E-03    -40.3540E+06     34.0290E+06     57.2946E+06    -574.007E+03    -237.592E-03     469.279E-03    -231.688E-03     268.604E-03    -253.206E-03     484.705E-03    -231.392E-03     225.308E-03
            1420     8.56991E-03     82.4086E-03    -48.5682E+06     24.4087E+06     43.1771E+06    -688.974E+03    -237.501E-03     469.151E-03    -231.651E-03     254.917E-03    -250.905E-03     482.345E-03    -231.400E-03     214.778E-03
            1421     7.85455E-03     82.0805E-03    -57.7313E+06     12.4260E+06     30.3968E+06    -544.326E+03    -237.076E-03     468.725E-03    -231.649E-03     237.085E-03    -248.156E-03     479.556E-03    -231.431E-03     200.728E-03
            1422     7.14031E-03     81.7778E-03    -66.9379E+06    -17.2411E+06     16.2148E+06     595.703E+03    -236.630E-03     468.313E-03    -231.683E-03     217.205E-03    -245.509E-03     476.846E-03    -231.480E-03     184.890E-03
            1423     6.42615E-03     81.5025E-03    -75.1611E+06    -66.1372E+06    -1.42537E+06     1.30018E+06    -236.141E-03     467.875E-03    -231.734E-03     196.510E-03    -243.052E-03     474.289E-03    -231.536E-03     168.235E-03
            1424     5.71137E-03     81.2530E-03    -82.7493E+06    -112.602E+06    -19.9275E+06     661.262E+03    -235.676E-03     467.448E-03    -231.772E-03     175.591E-03    -240.927E-03     472.063E-03    -231.589E-03     151.160E-03
            1425     4.99755E-03     81.0315E-03    -90.1658E+06    -154.196E+06    -37.2367E+06     225.174E+03    -235.085E-03     466.883E-03    -231.798E-03     154.336E-03    -238.957E-03     469.995E-03    -231.630E-03     133.580E-03
            1426     4.28295E-03     80.8379E-03    -97.4885E+06    -188.246E+06    -53.8351E+06     70.8506E+03    -234.334E-03     466.147E-03    -231.813E-03     132.656E-03    -237.088E-03     468.043E-03    -231.668E-03     115.379E-03
            1427     3.56898E-03     80.6733E-03    -104.155E+06    -214.999E+06    -70.8316E+06     8.66990E+03    -233.649E-03     465.462E-03    -231.813E-03     110.691E-03    -235.512E-03     466.398E-03    -231.705E-03     96.6870E-03
            1428     2.85519E-03     80.5378E-03    -109.994E+06    -251.942E+06    -85.3695E+06    -107.601E+03    -233.184E-03     464.998E-03    -231.814E-03     88.7503E-03    -234.346E-03     465.123E-03    -231.716E-03     77.7630E-03
            1429     2.14191E-03     80.4311E-03    -115.897E+06    -279.392E+06    -99.0084E+06    -63.5442E+03    -232.599E-03     464.378E-03    -231.779E-03     66.8207E-03    -233.247E-03     463.910E-03    -231.701E-03     58.6888E-03
            1430     1.42786E-03     80.3552E-03    -120.805E+06    -287.326E+06    -113.214E+06     14.7438E+03    -232.001E-03     463.745E-03    -231.744E-03     44.9806E-03    -232.307E-03     462.931E-03    -231.718E-03     39.5837E-03
            1431     714.065E-06     80.3082E-03    -123.200E+06    -293.166E+06    -121.268E+06    -61.3990E+03    -231.947E-03     463.607E-03    -231.660E-03     24.3316E-03    -232.052E-03     462.586E-03    -231.663E-03     21.4358E-03
            1432     13.5695E-03     83.1456E-03    -5.93264E+06     75.5449E+06     81.5318E+06    -975.357E+03    -229.839E-03     461.439E-03    -231.601E-03     144.391E-03    -237.570E-03     469.182E-03    -231.294E-03     115.861E-03
            1433     12.8542E-03     82.8970E-03    -11.8970E+06     69.7229E+06     80.2419E+06     32.9531E+03    -230.730E-03     462.343E-03    -231.613E-03     202.434E-03    -243.055E-03     474.641E-03    -231.296E-03     165.203E-03
            1434     12.1408E-03     82.6270E-03    -16.0469E+06     59.0985E+06     78.7065E+06    -254.319E+03    -231.510E-03     463.137E-03    -231.627E-03     224.727E-03    -245.774E-03     477.326E-03    -231.296E-03     184.839E-03
            1435     11.4262E-03     82.3151E-03    -20.2109E+06     54.6855E+06     79.3924E+06    -1.03115E+06    -232.801E-03     464.464E-03    -231.663E-03     251.268E-03    -249.325E-03     480.880E-03    -231.316E-03     208.057E-03
            1436     10.7115E-03     81.9749E-03    -24.9121E+06     50.8491E+06     78.5466E+06    -152.976E+03    -234.891E-03     466.584E-03    -231.694E-03     267.342E-03    -252.318E-03     483.876E-03    -231.339E-03     222.441E-03
            1437     9.99784E-03     81.6143E-03    -31.8777E+06     44.9823E+06     69.3846E+06     1.19663E+06    -236.721E-03     468.390E-03    -231.670E-03     273.392E-03    -253.817E-03     485.332E-03    -231.342E-03     228.416E-03
            1438     9.28427E-03     81.2509E-03    -40.6097E+06     35.9581E+06     55.0269E+06     1.48177E+06    -237.222E-03     468.853E-03    -231.631E-03     268.438E-03    -252.805E-03     484.260E-03    -231.349E-03     225.296E-03
            1439     8.56862E-03     80.9031E-03    -49.6783E+06     25.0696E+06     40.8136E+06     989.027E+03    -237.181E-03     468.807E-03    -231.626E-03     255.559E-03    -250.596E-03     482.017E-03    -231.387E-03     215.512E-03
            1440     7.85488E-03     80.5749E-03    -58.2170E+06     12.0441E+06     30.1076E+06     1.48242E+06    -236.989E-03     468.651E-03    -231.662E-03     237.701E-03    -248.077E-03     479.488E-03    -231.445E-03     201.414E-03
            1441     7.14002E-03     80.2728E-03    -66.7049E+06    -16.7797E+06     17.1208E+06     1.28108E+06    -236.626E-03     468.339E-03    -231.713E-03     217.457E-03    -245.507E-03     476.875E-03    -231.507E-03     185.161E-03
            1442     6.42531E-03     79.9963E-03    -74.8288E+06    -65.6826E+06    -1.05674E+06     128.697E+03    -236.299E-03     468.057E-03    -231.758E-03     196.576E-03    -243.212E-03     474.474E-03    -231.559E-03     168.264E-03
            1443     5.71160E-03     79.7476E-03    -82.2270E+06    -112.187E+06    -19.1460E+06    -54.7220E+03    -235.789E-03     467.572E-03    -231.783E-03     175.375E-03    -241.030E-03     472.179E-03    -231.597E-03     150.937E-03
            1444     4.99703E-03     79.5255E-03    -89.5723E+06    -153.703E+06    -36.6720E+06    -82.0553E+03    -235.122E-03     466.916E-03    -231.794E-03     153.874E-03    -238.989E-03     470.025E-03    -231.625E-03     133.105E-03
            1445     4.28359E-03     79.3322E-03    -96.6021E+06    -188.212E+06    -53.5548E+06    -304.689E+03    -234.408E-03     466.198E-03    -231.790E-03     132.087E-03    -237.150E-03     468.084E-03    -231.645E-03     114.806E-03
            1446     3.56962E-03     79.1677E-03    -103.207E+06    -215.276E+06    -70.3522E+06    -484.695E+03    -233.728E-03     465.494E-03    -231.765E-03     110.490E-03    -235.587E-03     466.426E-03    -231.655E-03     96.4575E-03
            1447     2.85583E-03     79.0314E-03    -109.550E+06    -252.075E+06    -85.1263E+06    -310.610E+03    -233.059E-03     464.820E-03    -231.761E-03     88.8226E-03    -234.219E-03     464.943E-03    -231.662E-03     77.8398E-03
            1448     2.14159E-03     78.9258E-03    -115.047E+06    -279.459E+06    -98.4616E+06     35.9080E+03    -232.447E-03     464.207E-03    -231.760E-03     67.0719E-03    -233.093E-03     463.738E-03    -231.681E-03     58.9452E-03
            1449     1.42769E-03     78.8497E-03    -119.646E+06    -287.309E+06    -111.778E+06    -47.2782E+03    -232.091E-03     463.820E-03    -231.729E-03     45.3482E-03    -232.395E-03     463.004E-03    -231.698E-03     39.9526E-03
            1450     713.654E-06     78.8027E-03    -122.505E+06    -293.439E+06    -121.117E+06    -153.592E+03    -231.734E-03     463.529E-03    -231.795E-03     24.7113E-03    -231.836E-03     462.506E-03    -231.798E-03     21.8140E-03
            1451     13.5682E-03     81.6406E-03    -5.30675E+06     74.0841E+06     81.4028E+06     1.17569E+06    -230.217E-03     461.782E-03    -231.565E-03     143.968E-03    -237.923E-03     469.496E-03    -231.258E-03     115.459E-03
            1452     12.8559E-03     81.3878E-03    -9.09685E+06     71.7085E+06     81.8241E+06     106.196E+03    -230.401E-03     461.975E-03    -231.574E-03     201.984E-03    -242.680E-03     474.239E-03    -231.256E-03     164.868E-03
            1453     12.1414E-03     81.1234E-03    -13.9525E+06     61.5754E+06     79.4776E+06    -1.72255E+06    -231.086E-03     462.691E-03    -231.606E-03     224.953E-03    -245.337E-03     476.882E-03    -231.277E-03     185.152E-03
            1454     11.4260E-03     80.8098E-03    -20.0583E+06     53.1918E+06     78.6257E+06    -2.31040E+06    -233.033E-03     464.682E-03    -231.649E-03     251.422E-03    -249.568E-03     481.106E-03    -231.303E-03     208.123E-03
            1455     10.7120E-03     80.4681E-03    -27.8710E+06     47.5013E+06     75.6617E+06    -1.58448E+06    -235.198E-03     466.853E-03    -231.656E-03     267.164E-03    -252.635E-03     484.141E-03    -231.306E-03     222.175E-03
            1456     9.99860E-03     80.1065E-03    -35.5611E+06     40.5413E+06     65.5640E+06     232.588E+03    -236.324E-03     467.957E-03    -231.633E-03     273.742E-03    -253.410E-03     484.870E-03    -231.312E-03     228.899E-03
            1457     9.28335E-03     79.7473E-03    -42.1899E+06     35.8119E+06     53.2448E+06     1.84708E+06    -236.809E-03     468.442E-03    -231.633E-03     269.237E-03    -252.399E-03     483.855E-03    -231.358E-03     226.217E-03
            1458     8.56914E-03     79.3973E-03    -48.9207E+06     25.8939E+06     41.7016E+06     2.48428E+06    -237.153E-03     468.818E-03    -231.665E-03     255.983E-03    -250.579E-03     482.042E-03    -231.423E-03     215.958E-03
            1459     7.85385E-03     79.0695E-03    -56.3980E+06     13.1157E+06     31.9670E+06     2.20854E+06    -237.144E-03     468.848E-03    -231.704E-03     237.606E-03    -248.226E-03     479.684E-03    -231.482E-03     201.302E-03
            1460     7.13963E-03     78.7667E-03    -64.0806E+06    -14.6372E+06     19.4936E+06     1.41292E+06    -236.891E-03     468.626E-03    -231.735E-03     217.093E-03    -245.756E-03     477.155E-03    -231.523E-03     184.776E-03
            1461     6.42587E-03     78.4906E-03    -72.1550E+06    -63.9305E+06     1.20745E+06     886.623E+03    -236.480E-03     468.232E-03    -231.751E-03     196.020E-03    -243.372E-03     474.637E-03    -231.548E-03     167.708E-03
            1462     5.71142E-03     78.2414E-03    -80.3339E+06    -111.646E+06    -17.7399E+06     191.120E+03    -235.875E-03     467.626E-03    -231.751E-03     174.934E-03    -241.109E-03     472.230E-03    -231.561E-03     150.474E-03
            1463     4.99807E-03     78.0197E-03    -87.8358E+06    -153.502E+06    -35.2322E+06    -99.5465E+03    -235.111E-03     466.859E-03    -231.748E-03     153.706E-03    -238.971E-03     469.965E-03    -231.574E-03     132.926E-03
            1464     4.28355E-03     77.8265E-03    -95.2016E+06    -187.930E+06    -52.3292E+06    -77.8787E+03    -234.339E-03     466.081E-03    -231.742E-03     132.297E-03    -237.083E-03     467.971E-03    -231.593E-03     115.006E-03
            1465     3.56967E-03     77.6616E-03    -102.386E+06    -215.303E+06    -69.4682E+06    -13.7478E+03    -233.580E-03     465.314E-03    -231.733E-03     110.815E-03    -235.440E-03     466.247E-03    -231.620E-03     96.7941E-03
            1466     2.85550E-03     77.5264E-03    -108.770E+06    -252.243E+06    -84.9618E+06    -96.7972E+03    -232.900E-03     464.661E-03    -231.761E-03     89.0037E-03    -234.058E-03     464.784E-03    -231.662E-03     78.0273E-03
            1467     2.14148E-03     77.4205E-03    -114.718E+06    -279.999E+06    -98.6302E+06    -301.838E+03    -232.438E-03     464.227E-03    -231.788E-03     67.0308E-03    -233.081E-03     463.754E-03    -231.709E-03     58.9106E-03
            1468     1.42757E-03     77.3437E-03    -119.549E+06    -287.579E+06    -111.099E+06    -14.4126E+03    -232.098E-03     463.875E-03    -231.777E-03     45.2788E-03    -232.402E-03     463.056E-03    -231.742E-03     39.8769E-03
            1469     714.190E-06     77.2969E-03    -123.270E+06    -293.307E+06    -120.273E+06     370.976E+03    -231.757E-03     463.631E-03    -231.874E-03     24.4407E-03    -231.864E-03     462.608E-03    -231.871E-03     21.5372E-03
            1470     13.5717E-03     80.1324E-03    -3.40298E+06       74.25E+06     83.7089E+06     634.641E+03    -230.144E-03     461.693E-03    -231.549E-03     144.501E-03    -237.844E-03     469.402E-03    -231.233E-03     116.037E-03
            1471     12.8557E-03     79.8846E-03    -8.02467E+06     74.6298E+06     83.0510E+06     463.500E+03    -230.010E-03     461.576E-03    -231.566E-03     202.595E-03    -242.286E-03     473.848E-03    -231.248E-03     165.623E-03
            1472     12.1399E-03     79.6172E-03    -14.4023E+06     64.0094E+06     79.3664E+06    -437.374E+03    -231.405E-03     463.003E-03    -231.598E-03     225.126E-03    -245.672E-03     477.215E-03    -231.273E-03     185.275E-03
            1473     11.4267E-03     79.3036E-03    -20.7429E+06     53.0754E+06     77.3349E+06    -1.34778E+06    -233.354E-03     464.974E-03    -231.620E-03     251.573E-03    -249.884E-03     481.395E-03    -231.280E-03     208.256E-03
            1474     10.7133E-03     78.9604E-03    -27.0540E+06     44.6158E+06     74.7075E+06    -292.055E+03    -234.675E-03     466.319E-03    -231.644E-03     267.745E-03    -252.080E-03     483.570E-03    -231.296E-03     222.964E-03
            1475     9.99763E-03     78.6036E-03    -33.4575E+06     38.5627E+06     67.2444E+06     505.254E+03    -235.835E-03     467.511E-03    -231.677E-03     274.247E-03    -252.903E-03     484.402E-03    -231.348E-03     229.541E-03
            1476     9.28279E-03     78.2406E-03    -39.9988E+06     33.3517E+06     57.2131E+06     708.784E+03    -236.975E-03     468.685E-03    -231.711E-03     269.609E-03    -252.562E-03     484.084E-03    -231.415E-03     226.567E-03
            1477     8.56798E-03     77.8919E-03    -46.7485E+06     24.1329E+06     45.6369E+06     1.99411E+06    -237.613E-03     469.336E-03    -231.723E-03     255.883E-03    -251.030E-03     482.540E-03    -231.462E-03     215.794E-03
            1478     7.85420E-03     77.5634E-03    -54.1173E+06     14.9795E+06     34.8561E+06     2.55912E+06    -237.577E-03     469.287E-03    -231.710E-03     237.083E-03    -248.651E-03     480.121E-03    -231.479E-03     200.706E-03
            1479     7.14023E-03     77.2603E-03    -62.5325E+06    -12.6865E+06     21.2980E+06     2.07421E+06    -237.077E-03     468.773E-03    -231.696E-03     216.335E-03    -245.927E-03     477.295E-03    -231.481E-03     183.997E-03
            1480     6.42593E-03     76.9845E-03    -70.9995E+06    -61.9248E+06     2.92959E+06     1.28025E+06    -236.412E-03     468.106E-03    -231.693E-03     195.656E-03    -243.304E-03     474.517E-03    -231.486E-03     167.335E-03
            1481     5.71242E-03     76.7353E-03    -78.9660E+06    -110.196E+06    -16.4062E+06     842.145E+03    -235.692E-03     467.389E-03    -231.697E-03     174.914E-03    -240.925E-03     471.998E-03    -231.504E-03     150.472E-03
            1482     4.99763E-03     76.5143E-03    -87.2556E+06    -153.280E+06    -34.6661E+06     696.018E+03    -234.947E-03     466.657E-03    -231.710E-03     153.858E-03    -238.808E-03     469.765E-03    -231.535E-03     133.101E-03
            1483     4.28390E-03     76.3208E-03    -95.2717E+06    -187.529E+06    -52.0938E+06     701.318E+03    -234.210E-03     465.933E-03    -231.723E-03     132.430E-03    -236.955E-03     467.826E-03    -231.574E-03     115.164E-03
            1484     3.56957E-03     76.1565E-03    -102.393E+06    -214.976E+06    -69.5400E+06     536.812E+03    -233.492E-03     465.224E-03    -231.732E-03     110.674E-03    -235.348E-03     466.155E-03    -231.620E-03     96.6849E-03
            1485     2.85543E-03     76.0208E-03    -109.086E+06    -252.062E+06    -84.6946E+06     303.723E+03    -232.941E-03     464.705E-03    -231.764E-03     88.8180E-03    -234.099E-03     464.827E-03    -231.664E-03     77.8537E-03
            1486     2.14167E-03     75.9147E-03    -114.821E+06    -279.667E+06    -98.8188E+06     320.206E+03    -232.451E-03     464.229E-03    -231.778E-03     66.9951E-03    -233.094E-03     463.758E-03    -231.701E-03     58.8746E-03
            1487     1.42783E-03     75.8383E-03    -119.557E+06    -287.659E+06    -112.324E+06    -135.315E+03    -231.989E-03     463.780E-03    -231.791E-03     45.3745E-03    -232.293E-03     462.964E-03    -231.762E-03     39.9552E-03
            1488     713.234E-06     75.7914E-03    -123.252E+06    -293.571E+06    -120.914E+06    -268.431E+03    -232.104E-03     463.738E-03    -231.634E-03     24.7635E-03    -232.211E-03     462.716E-03    -231.634E-03     21.8365E-03
            1489     13.5682E-03     78.6259E-03    -5.37935E+06     74.7102E+06     83.3492E+06    -157.589E+03    -229.742E-03     461.310E-03    -231.569E-03     144.252E-03    -237.464E-03     469.037E-03    -231.252E-03     115.752E-03
            1490     12.8545E-03     78.3795E-03    -10.2424E+06     73.2951E+06     81.4984E+06     348.428E+03    -230.439E-03     462.018E-03    -231.579E-03     202.517E-03    -242.750E-03     474.316E-03    -231.263E-03     165.382E-03
            1491     12.1417E-03     78.1102E-03    -14.1609E+06     65.4488E+06     79.0413E+06    -58.0704E+03    -231.722E-03     463.309E-03    -231.587E-03     225.250E-03    -245.999E-03     477.539E-03    -231.266E-03     185.325E-03
            1492     11.4274E-03     77.7973E-03    -20.1492E+06     53.7815E+06     76.4810E+06     115.708E+03    -232.788E-03     464.407E-03    -231.619E-03     251.955E-03    -249.303E-03     480.819E-03    -231.285E-03     208.801E-03
            1493     10.7112E-03     77.4562E-03    -27.0122E+06     42.8598E+06     73.7727E+06    -497.150E+03    -234.187E-03     465.875E-03    -231.687E-03     268.117E-03    -251.583E-03     483.113E-03    -231.341E-03     223.442E-03
            1494     9.99682E-03     77.0972E-03    -34.2479E+06     38.3206E+06     67.3768E+06    -874.972E+03    -236.065E-03     467.804E-03    -231.739E-03     274.301E-03    -253.144E-03     484.702E-03    -231.408E-03     229.518E-03
            1495     9.28228E-03     76.7356E-03    -42.1728E+06     31.7044E+06     55.9944E+06    -381.811E+03    -237.582E-03     469.320E-03    -231.738E-03     269.164E-03    -253.173E-03     484.712E-03    -231.443E-03     225.990E-03
            1496     8.56832E-03     76.3850E-03    -50.0534E+06     21.9521E+06     43.2017E+06    -923.700E+03    -238.060E-03     469.754E-03    -231.693E-03     254.919E-03    -251.474E-03     482.942E-03    -231.437E-03     214.685E-03
            1497     7.85464E-03     76.0562E-03    -57.0576E+06     12.2652E+06     33.5552E+06    -711.793E+03    -237.626E-03     469.274E-03    -231.647E-03     236.349E-03    -248.704E-03     480.095E-03    -231.415E-03     199.889E-03
            1498     7.14087E-03     75.7543E-03    -64.0323E+06    -12.7600E+06     21.2530E+06     709.313E+03    -236.857E-03     468.485E-03    -231.629E-03     216.288E-03    -245.719E-03     477.013E-03    -231.411E-03     183.941E-03
            1499     6.42701E-03     75.4789E-03    -72.0206E+06    -60.9244E+06     2.50871E+06     1.17134E+06    -236.155E-03     467.796E-03    -231.641E-03     195.933E-03    -243.057E-03     474.219E-03    -231.436E-03     167.645E-03
            1500     5.71199E-03     75.2302E-03    -80.5886E+06    -110.099E+06    -17.5341E+06     1.26693E+06    -235.509E-03     467.177E-03    -231.668E-03     175.241E-03    -240.748E-03     471.790E-03    -231.479E-03     150.843E-03
            1501     4.99820E-03     75.0089E-03    -88.6038E+06    -152.352E+06    -35.8514E+06     1.20272E+06    -234.888E-03     466.585E-03    -231.697E-03     154.009E-03    -238.754E-03     469.699E-03    -231.526E-03     133.280E-03
            1502     4.28360E-03     74.8155E-03    -95.9219E+06    -186.966E+06    -52.8156E+06     850.434E+03    -234.193E-03     465.911E-03    -231.718E-03     132.422E-03    -236.937E-03     467.803E-03    -231.572E-03     115.180E-03
            1503     3.56963E-03     74.6510E-03    -102.868E+06    -214.327E+06    -69.7166E+06     752.046E+03    -233.526E-03     465.253E-03    -231.727E-03     110.757E-03    -235.386E-03     466.189E-03    -231.615E-03     96.7728E-03
            1504     2.85578E-03     74.5153E-03    -109.248E+06    -251.474E+06    -84.7074E+06     622.332E+03    -232.956E-03     464.709E-03    -231.754E-03     88.9719E-03    -234.116E-03     464.835E-03    -231.654E-03     78.0118E-03
            1505     2.14161E-03     74.4093E-03    -115.183E+06    -279.243E+06    -98.3397E+06     351.993E+03    -232.439E-03     464.207E-03    -231.769E-03     67.0441E-03    -233.085E-03     463.738E-03    -231.689E-03     58.9323E-03
            1506     1.42741E-03     74.3329E-03    -120.381E+06    -287.146E+06    -111.956E+06     579.384E+03    -232.106E-03     463.842E-03    -231.736E-03     45.2099E-03    -232.412E-03     463.027E-03    -231.705E-03     39.8276E-03
            1507     714.181E-06     74.2854E-03    -122.900E+06    -293.595E+06    -121.739E+06     172.650E+03    -231.955E-03     463.532E-03    -231.577E-03     24.6886E-03    -232.058E-03     462.510E-03    -231.581E-03     21.7668E-03
            1508     13.5703E-03     77.1228E-03    -4.38335E+06     73.5684E+06     82.9174E+06     258.865E+03    -229.906E-03     461.487E-03    -231.581E-03     143.952E-03    -237.631E-03     469.217E-03    -231.267E-03     115.372E-03
            1509     12.8556E-03     76.8710E-03    -8.44642E+06     74.1450E+06     82.1036E+06     51.4468E+03    -230.580E-03     462.165E-03    -231.585E-03     202.560E-03    -242.890E-03     474.470E-03    -231.270E-03     165.363E-03
            1510     12.1410E-03     76.6042E-03    -13.8094E+06     64.9191E+06     78.7638E+06    -185.776E+03    -231.125E-03     462.734E-03    -231.610E-03     225.777E-03    -245.408E-03     476.971E-03    -231.290E-03     185.953E-03
            1511     11.4255E-03     76.2923E-03    -20.2893E+06     53.6741E+06     76.7111E+06     940.422E+03    -232.548E-03     464.224E-03    -231.676E-03     252.417E-03    -249.083E-03     480.655E-03    -231.340E-03     209.305E-03
            1512     10.7117E-03     75.9514E-03    -27.5820E+06     45.7296E+06     74.0280E+06     587.823E+03    -234.733E-03     466.466E-03    -231.733E-03     267.801E-03    -252.144E-03     483.727E-03    -231.389E-03     223.009E-03
            1513     9.99641E-03     75.5918E-03    -35.3026E+06     38.6548E+06     65.9123E+06    -279.365E+03    -236.841E-03     468.567E-03    -231.725E-03     273.240E-03    -253.914E-03     485.460E-03    -231.401E-03     228.284E-03
            1514     9.28272E-03     75.2280E-03    -42.4905E+06     32.1186E+06     54.3917E+06    -940.546E+03    -237.943E-03     469.604E-03    -231.661E-03     267.880E-03    -253.522E-03     484.989E-03    -231.374E-03     224.563E-03
            1515     8.56979E-03     74.8779E-03    -49.6184E+06     22.5378E+06     42.5880E+06    -1.14650E+06    -237.826E-03     469.423E-03    -231.597E-03     254.431E-03    -251.225E-03     482.602E-03    -231.345E-03     214.221E-03
            1516     7.85586E-03     74.5508E-03    -58.0922E+06     11.0777E+06     31.6587E+06    -1.58735E+06    -237.143E-03     468.715E-03    -231.572E-03     236.598E-03    -248.216E-03     479.530E-03    -231.346E-03     200.214E-03
            1517     7.14108E-03     74.2488E-03    -66.8068E+06    -16.2862E+06     17.6118E+06    -1.69472E+06    -236.498E-03     468.089E-03    -231.592E-03     216.785E-03    -245.366E-03     476.611E-03    -231.383E-03     184.474E-03
            1518     6.42615E-03     73.9734E-03    -74.7527E+06    -63.2943E+06    -174.292E+03    -40.0721E+03    -236.028E-03     467.664E-03    -231.636E-03     196.259E-03    -242.933E-03     474.080E-03    -231.437E-03     167.997E-03
            1519     5.71231E-03     73.7252E-03    -82.2012E+06    -109.966E+06    -18.5974E+06     749.385E+03    -235.563E-03     467.236E-03    -231.674E-03     175.416E-03    -240.812E-03     471.857E-03    -231.488E-03     151.005E-03
            1520     4.99760E-03     73.5030E-03    -89.4656E+06    -151.624E+06    -36.1424E+06     488.397E+03    -234.910E-03     466.611E-03    -231.701E-03     154.011E-03    -238.777E-03     469.728E-03    -231.533E-03     133.284E-03
            1521     4.28388E-03     73.3104E-03    -96.5797E+06    -186.425E+06    -52.9080E+06     357.186E+03    -234.195E-03     465.918E-03    -231.723E-03     132.489E-03    -236.944E-03     467.816E-03    -231.577E-03     115.238E-03
            1522     3.56960E-03     73.1453E-03    -103.416E+06    -214.067E+06    -69.8755E+06     397.564E+03    -233.531E-03     465.263E-03    -231.732E-03     110.865E-03    -235.396E-03     466.204E-03    -231.621E-03     96.8656E-03
            1523     2.85537E-03     73.0099E-03    -109.787E+06    -251.071E+06    -85.1639E+06     503.984E+03    -232.963E-03     464.720E-03    -231.757E-03     88.9603E-03    -234.126E-03     464.849E-03    -231.660E-03     78.0022E-03
            1524     2.14158E-03     72.9037E-03    -115.606E+06    -279.343E+06    -99.0759E+06     336.254E+03    -232.566E-03     464.313E-03    -231.747E-03     67.0316E-03    -233.212E-03     463.843E-03    -231.669E-03     58.9375E-03
            1525     1.42812E-03     72.8271E-03    -120.259E+06    -286.825E+06    -112.216E+06     100.170E+03    -232.206E-03     463.850E-03    -231.644E-03     45.2511E-03    -232.510E-03     463.035E-03    -231.615E-03     39.8804E-03
            1526     713.980E-06     72.7796E-03    -122.556E+06    -292.449E+06    -120.429E+06     224.903E+03    -231.698E-03     463.259E-03    -231.561E-03     24.3941E-03    -231.802E-03     462.239E-03    -231.561E-03     21.4940E-03
            1527     13.5680E-03     75.6128E-03    -4.48138E+06     73.2773E+06     81.4386E+06    -643.829E+03    -229.671E-03     461.250E-03    -231.579E-03     144.607E-03    -237.407E-03     468.995E-03    -231.272E-03     116.043E-03
            1528     12.8552E-03     75.3654E-03    -9.59390E+06     74.3270E+06     80.8083E+06    -607.096E+03    -229.914E-03     461.527E-03    -231.613E-03     202.907E-03    -242.232E-03     473.840E-03    -231.303E-03     165.813E-03
            1529     12.1398E-03     75.1000E-03    -15.4213E+06     62.4955E+06     77.5438E+06     468.799E+03    -231.036E-03     462.704E-03    -231.668E-03     225.847E-03    -245.307E-03     476.917E-03    -231.348E-03     186.095E-03
            1530     11.4252E-03     74.7864E-03    -20.9053E+06     52.3406E+06     76.9475E+06     1.18231E+06    -233.280E-03     464.997E-03    -231.717E-03     251.600E-03    -249.812E-03     481.417E-03    -231.378E-03     208.333E-03
            1531     10.7103E-03     74.4445E-03    -26.8998E+06     48.8721E+06     76.3401E+06     1.44690E+06    -235.633E-03     467.344E-03    -231.711E-03     266.586E-03    -253.049E-03     484.617E-03    -231.361E-03     221.575E-03
            1532     9.99828E-03     74.0838E-03    -33.6952E+06     41.1777E+06     68.7269E+06     375.067E+03    -237.237E-03     468.881E-03    -231.643E-03     272.538E-03    -254.321E-03     485.791E-03    -231.311E-03     227.455E-03
            1533     9.28539E-03     73.7221E-03    -40.8918E+06     33.1405E+06     56.5611E+06    -419.289E+03    -237.565E-03     469.133E-03    -231.568E-03     268.139E-03    -253.149E-03     484.525E-03    -231.274E-03     224.900E-03
            1534     8.57023E-03     73.3727E-03    -48.8155E+06     22.5385E+06     42.6507E+06    -366.863E+03    -237.240E-03     468.775E-03    -231.536E-03     255.118E-03    -250.628E-03     481.946E-03    -231.284E-03     215.073E-03
            1535     7.85514E-03     73.0453E-03    -56.8014E+06     11.9249E+06     31.2582E+06    -160.925E+03    -236.793E-03     468.348E-03    -231.555E-03     237.057E-03    -247.848E-03     479.154E-03    -231.334E-03     200.803E-03
            1536     7.14074E-03     72.7436E-03    -65.3177E+06    -17.0009E+06     17.6595E+06    -95.5695E+03    -236.409E-03     468.016E-03    -231.606E-03     216.952E-03    -245.265E-03     476.528E-03    -231.399E-03     184.695E-03
            1537     6.42651E-03     72.4686E-03    -74.1393E+06    -64.9923E+06    -171.536E+03    -568.107E+03    -236.105E-03     467.763E-03    -231.659E-03     196.325E-03    -243.008E-03     474.174E-03    -231.458E-03     168.036E-03
            1538     5.71182E-03     72.2189E-03    -82.0600E+06    -110.401E+06    -18.4504E+06    -580.706E+03    -235.602E-03     467.294E-03    -231.691E-03     175.392E-03    -240.850E-03     471.912E-03    -231.504E-03     150.957E-03
            1539     4.99818E-03     71.9982E-03    -89.3064E+06    -151.971E+06    -35.7424E+06    -90.5403E+03    -234.899E-03     466.620E-03    -231.721E-03     154.090E-03    -238.767E-03     469.735E-03    -231.550E-03     133.355E-03
            1540     4.28348E-03     71.8047E-03    -96.6337E+06    -186.450E+06    -52.8637E+06     113.264E+03    -234.257E-03     465.996E-03    -231.740E-03     132.646E-03    -237.008E-03     467.896E-03    -231.593E-03     115.387E-03
            1541     3.56958E-03     71.6400E-03    -103.661E+06    -214.375E+06    -70.3263E+06     48.0670E+03    -233.643E-03     465.376E-03    -231.734E-03     110.823E-03    -235.507E-03     466.316E-03    -231.624E-03     96.8142E-03
            1542     2.85571E-03     71.5043E-03    -109.750E+06    -251.188E+06    -85.2502E+06     140.370E+03    -233.075E-03     464.806E-03    -231.730E-03     88.7757E-03    -234.235E-03     464.931E-03    -231.633E-03     77.8234E-03
            1543     2.14173E-03     71.3980E-03    -115.213E+06    -278.437E+06    -99.0161E+06     139.139E+03    -232.527E-03     464.226E-03    -231.699E-03     66.9281E-03    -233.171E-03     463.759E-03    -231.623E-03     58.8318E-03
            1544     1.42771E-03     71.3212E-03    -119.952E+06    -286.642E+06    -112.707E+06    -245.495E+03    -231.984E-03     463.635E-03    -231.650E-03     45.2821E-03    -232.289E-03     462.823E-03    -231.624E-03     39.8826E-03
            1545     714.019E-06     71.2752E-03    -123.034E+06    -292.334E+06    -121.379E+06    -195.185E+03    -231.799E-03     463.388E-03    -231.588E-03     24.4746E-03    -231.905E-03     462.371E-03    -231.593E-03     21.5807E-03
            1546     13.5707E-03     74.1077E-03    -4.16280E+06     75.7848E+06     81.4312E+06    -165.186E+03    -229.080E-03     460.674E-03    -231.594E-03     144.919E-03    -236.791E-03     468.403E-03    -231.291E-03     116.532E-03
            1547     12.8534E-03     73.8616E-03    -9.33077E+06     71.7133E+06     80.4275E+06    -169.124E+03    -229.965E-03     461.613E-03    -231.649E-03     202.203E-03    -242.241E-03     473.878E-03    -231.337E-03     165.160E-03
            1548     12.1390E-03     73.5927E-03    -14.9542E+06     60.1811E+06     78.1016E+06     1.47217E+06    -231.938E-03     463.611E-03    -231.673E-03     224.437E-03    -246.188E-03     477.795E-03    -231.348E-03     184.496E-03
            1549     11.4256E-03     73.2797E-03    -21.9046E+06     54.0964E+06     77.6257E+06     1.10443E+06    -233.970E-03     465.624E-03    -231.654E-03     250.167E-03    -250.508E-03     482.051E-03    -231.312E-03     206.674E-03
            1550     10.7138E-03     72.9367E-03    -28.4190E+06     49.2186E+06     76.1204E+06    -609.924E+03    -235.499E-03     467.111E-03    -231.611E-03     266.082E-03    -252.915E-03     484.380E-03    -231.261E-03     221.037E-03
            1551     9.99933E-03     72.5773E-03    -34.5552E+06     41.6137E+06     67.3456E+06    -1.01743E+06    -236.482E-03     468.047E-03    -231.564E-03     273.244E-03    -253.560E-03     484.954E-03    -231.238E-03     228.330E-03
            1552     9.28395E-03     72.2160E-03    -41.5398E+06     31.6395E+06     54.0528E+06    -627.678E+03    -237.075E-03     468.616E-03    -231.541E-03     269.023E-03    -252.655E-03     484.003E-03    -231.256E-03     225.926E-03
            1553     8.56985E-03     71.8677E-03    -48.4936E+06     22.2220E+06     42.5349E+06     20.2037E+03    -237.120E-03     468.671E-03    -231.551E-03     255.529E-03    -250.511E-03     481.846E-03    -231.300E-03     215.525E-03
            1554     7.85552E-03     71.5405E-03    -56.3606E+06     11.9228E+06     32.8375E+06     594.585E+03    -236.799E-03     468.389E-03    -231.590E-03     237.229E-03    -247.857E-03     479.194E-03    -231.361E-03     201.000E-03
            1555     7.14056E-03     71.2385E-03    -64.9372E+06    -15.7303E+06     18.9680E+06     304.138E+03    -236.523E-03     468.160E-03    -231.637E-03     217.107E-03    -245.385E-03     476.680E-03    -231.425E-03     184.837E-03
            1556     6.42604E-03     70.9625E-03    -72.8669E+06    -63.8344E+06     743.061E+03    -370.983E+03    -236.182E-03     467.862E-03    -231.680E-03     196.465E-03    -243.088E-03     474.281E-03    -231.478E-03     168.159E-03
            1557     5.71222E-03     70.7139E-03    -80.9090E+06    -111.448E+06    -17.9117E+06    -473.028E+03    -235.604E-03     467.318E-03    -231.714E-03     175.420E-03    -240.843E-03     471.926E-03    -231.525E-03     151.000E-03
            1558     4.99726E-03     70.4924E-03    -88.8996E+06    -152.862E+06    -35.7615E+06    -212.859E+03    -235.025E-03     466.761E-03    -231.736E-03     154.027E-03    -238.889E-03     469.871E-03    -231.564E-03     133.280E-03
            1559     4.28365E-03     70.2992E-03    -96.2169E+06    -186.969E+06    -52.8688E+06    -135.785E+03    -234.428E-03     466.157E-03    -231.729E-03     132.330E-03    -237.175E-03     468.052E-03    -231.583E-03     115.046E-03
            1560     3.56957E-03     70.1340E-03    -102.897E+06    -214.470E+06    -69.6726E+06    -117.142E+03    -233.688E-03     465.385E-03    -231.697E-03     110.448E-03    -235.544E-03     466.317E-03    -231.585E-03     96.4428E-03
            1561     2.85573E-03     69.9986E-03    -109.178E+06    -250.959E+06    -84.4857E+06    -140.497E+03    -233.014E-03     464.699E-03    -231.685E-03     88.7617E-03    -234.172E-03     464.824E-03    -231.585E-03     77.7973E-03
            1562     2.14204E-03     69.8925E-03    -115.369E+06    -278.300E+06    -98.3828E+06     120.336E+03    -232.411E-03     464.079E-03    -231.668E-03     66.9644E-03    -233.058E-03     463.614E-03    -231.589E-03     58.8600E-03
            1563     1.42792E-03     69.8167E-03    -120.516E+06    -286.202E+06    -111.717E+06     461.699E+03    -231.879E-03     463.539E-03    -231.661E-03     45.0737E-03    -232.187E-03     462.728E-03    -231.629E-03     39.6943E-03
            1564     713.474E-06     69.7692E-03    -123.232E+06    -292.402E+06    -121.293E+06     167.252E+03    -232.023E-03     463.447E-03    -231.424E-03     24.4801E-03    -232.129E-03     462.430E-03    -231.428E-03     21.5946E-03
            1565     13.5668E-03     72.6047E-03    -3.64382E+06     76.3078E+06     82.8988E+06     544.831E+03    -230.058E-03     461.667E-03    -231.609E-03     144.356E-03    -237.751E-03     469.378E-03    -231.300E-03     115.890E-03
            1566     12.8544E-03     72.3534E-03    -9.87003E+06     69.8184E+06     81.2786E+06     1.33375E+06    -230.949E-03     462.554E-03    -231.605E-03     200.669E-03    -243.202E-03     474.783E-03    -231.285E-03     163.470E-03
            1567     12.1415E-03     72.0869E-03    -15.8846E+06     59.5505E+06     78.8735E+06     1.58477E+06    -232.198E-03     463.776E-03    -231.578E-03     223.516E-03    -246.457E-03     477.962E-03    -231.247E-03     183.458E-03
            1568     11.4285E-03     71.7712E-03    -20.2640E+06     57.8757E+06     79.7700E+06     606.343E+03    -233.468E-03     465.025E-03    -231.557E-03     250.823E-03    -250.009E-03     481.468E-03    -231.212E-03     207.436E-03
            1569     10.7135E-03     71.4310E-03    -26.1544E+06     50.5570E+06     76.7909E+06    -392.729E+03    -234.707E-03     466.266E-03    -231.559E-03     267.324E-03    -252.112E-03     483.535E-03    -231.210E-03     222.503E-03
            1570     9.99850E-03     71.0726E-03    -33.1544E+06     40.7733E+06     66.7289E+06    -425.700E+03    -236.058E-03     467.622E-03    -231.564E-03     273.956E-03    -253.123E-03     484.521E-03    -231.242E-03     229.182E-03
            1571     9.28434E-03     70.7108E-03    -40.6366E+06     31.1636E+06     53.7245E+06    -338.921E+03    -236.921E-03     468.491E-03    -231.570E-03     268.859E-03    -252.482E-03     483.863E-03    -231.288E-03     225.799E-03
            1572     8.56947E-03     70.3622E-03    -48.6042E+06     21.1547E+06     42.0071E+06    -139.958E+03    -237.108E-03     468.697E-03    -231.589E-03     255.327E-03    -250.495E-03     481.865E-03    -231.339E-03     215.311E-03
            1573     7.85454E-03     70.0352E-03    -56.2782E+06     11.3617E+06     33.0402E+06     141.287E+03    -236.975E-03     468.600E-03    -231.624E-03     237.250E-03    -248.042E-03     479.411E-03    -231.394E-03     200.963E-03
            1574     7.14041E-03     69.7328E-03    -63.7825E+06    -14.6812E+06     20.3296E+06     109.555E+03    -236.654E-03     468.315E-03    -231.661E-03     217.076E-03    -245.512E-03     476.835E-03    -231.445E-03     184.795E-03
            1575     6.42623E-03     69.4571E-03    -72.1626E+06    -63.4143E+06     1.44551E+06    -33.0086E+03    -236.213E-03     467.909E-03    -231.695E-03     196.240E-03    -243.107E-03     474.317E-03    -231.491E-03     167.957E-03
            1576     5.71142E-03     69.2082E-03    -80.3904E+06    -111.659E+06    -17.4522E+06     73.8237E+03    -235.757E-03     467.473E-03    -231.715E-03     175.087E-03    -240.991E-03     472.075E-03    -231.524E-03     150.653E-03
            1577     4.99806E-03     68.9869E-03    -88.1377E+06    -153.064E+06    -35.0477E+06    -71.8037E+03    -235.231E-03     466.937E-03    -231.706E-03     153.654E-03    -239.090E-03     470.041E-03    -231.532E-03     132.880E-03
            1578     4.28394E-03     68.7929E-03    -95.5425E+06    -187.074E+06    -51.9076E+06    -206.533E+03    -234.449E-03     466.121E-03    -231.672E-03     132.020E-03    -237.191E-03     468.010E-03    -231.521E-03     114.730E-03
            1579     3.57027E-03     68.6288E-03    -102.596E+06    -214.245E+06    -68.7250E+06     19.3063E+03    -233.562E-03     465.199E-03    -231.636E-03     110.383E-03    -235.418E-03     466.129E-03    -231.521E-03     96.3893E-03
            1580     2.85597E-03     68.4934E-03    -109.517E+06    -251.227E+06    -84.3051E+06     181.526E+03    -232.854E-03     464.495E-03    -231.641E-03     88.7098E-03    -234.014E-03     464.619E-03    -231.540E-03     77.7497E-03
            1581     2.14159E-03     68.3873E-03    -115.470E+06    -278.723E+06    -98.6156E+06     124.298E+03    -232.324E-03     463.970E-03    -231.646E-03     66.8284E-03    -232.970E-03     463.503E-03    -231.567E-03     58.7340E-03
            1582     1.42787E-03     68.3111E-03    -119.639E+06    -285.865E+06    -111.468E+06    -55.9410E+03    -231.957E-03     463.577E-03    -231.620E-03     45.1164E-03    -232.261E-03     462.765E-03    -231.589E-03     39.7337E-03
            1583     714.296E-06     68.2646E-03    -123.878E+06    -292.467E+06    -120.506E+06    -35.6192E+03    -231.776E-03     463.317E-03    -231.540E-03     25.1139E-03    -231.888E-03     462.301E-03    -231.539E-03     22.1986E-03
            1584     13.5707E-03     71.0955E-03    -7.10656E+06     73.3752E+06     82.3450E+06     449.207E+03    -230.930E-03     462.493E-03    -231.563E-03     142.672E-03    -238.641E-03     470.200E-03    -231.247E-03     114.048E-03
            1585     12.8572E-03     70.8472E-03    -10.4604E+06     68.9143E+06     82.3752E+06     1.57105E+06    -230.945E-03     462.477E-03    -231.531E-03     201.574E-03    -243.236E-03     474.736E-03    -231.204E-03     164.364E-03
            1586     12.1429E-03     70.5796E-03    -13.9868E+06     61.8069E+06     80.5293E+06     603.106E+03    -231.697E-03     463.219E-03    -231.522E-03     225.715E-03    -245.996E-03     477.454E-03    -231.189E-03     185.774E-03
            1587     11.4276E-03     70.2663E-03    -19.1632E+06     58.1743E+06     79.9589E+06    -369.166E+03    -232.899E-03     464.445E-03    -231.545E-03     252.233E-03    -249.434E-03     480.886E-03    -231.202E-03     209.039E-03
            1588     10.7126E-03     69.9260E-03    -25.2340E+06     51.1644E+06     77.6039E+06    -243.753E+03    -234.500E-03     466.085E-03    -231.586E-03     267.430E-03    -251.886E-03     483.338E-03    -231.235E-03     222.693E-03
            1589     9.99843E-03     69.5664E-03    -32.4290E+06     40.5761E+06     68.5272E+06    -172.671E+03    -236.072E-03     467.678E-03    -231.606E-03     273.762E-03    -253.141E-03     484.577E-03    -231.275E-03     228.958E-03
            1590     9.28375E-03     69.2054E-03    -39.8552E+06     30.9691E+06     56.3092E+06     551.625E+03    -236.925E-03     468.541E-03    -231.616E-03     268.965E-03    -252.490E-03     483.911E-03    -231.321E-03     225.917E-03
            1591     8.56912E-03     68.8572E-03    -47.4309E+06     21.5820E+06     43.6333E+06     875.827E+03    -237.285E-03     468.911E-03    -231.626E-03     255.400E-03    -250.669E-03     482.076E-03    -231.370E-03     215.383E-03
            1592     7.85501E-03     68.5294E-03    -55.3878E+06     12.1700E+06     33.3986E+06    -75.3103E+03    -237.187E-03     468.826E-03    -231.639E-03     237.019E-03    -248.245E-03     479.634E-03    -231.409E-03     200.696E-03
            1593     7.14047E-03     68.2272E-03    -63.9001E+06    -15.3867E+06     20.3831E+06    -318.773E+03    -236.806E-03     468.463E-03    -231.657E-03     216.726E-03    -245.657E-03     476.974E-03    -231.440E-03     184.417E-03
            1594     6.42595E-03     67.9514E-03    -72.0917E+06    -63.8700E+06     2.15591E+06     292.650E+03    -236.392E-03     468.061E-03    -231.669E-03     195.755E-03    -243.280E-03     474.459E-03    -231.461E-03     167.454E-03
            1595     5.71246E-03     67.7025E-03    -80.0701E+06    -111.101E+06    -16.9577E+06     164.899E+03    -235.851E-03     467.510E-03    -231.659E-03     174.692E-03    -241.079E-03     472.108E-03    -231.466E-03     150.246E-03
            1596     4.99810E-03     67.4804E-03    -87.8482E+06    -152.997E+06    -34.3922E+06    -11.3632E+03    -235.070E-03     466.715E-03    -231.645E-03     153.596E-03    -238.926E-03     469.816E-03    -231.468E-03     132.841E-03
            1597     4.28441E-03     67.2878E-03    -95.4412E+06    -186.829E+06    -51.1734E+06     313.835E+03    -234.200E-03     465.837E-03    -231.637E-03     132.260E-03    -236.941E-03     467.724E-03    -231.484E-03     115.017E-03
            1598     3.56986E-03     67.1235E-03    -102.924E+06    -214.565E+06    -68.8962E+06     285.087E+03    -233.512E-03     465.137E-03    -231.625E-03     110.754E-03    -235.374E-03     466.071E-03    -231.509E-03     96.7549E-03
            1599     2.85600E-03     66.9882E-03    -109.418E+06    -251.324E+06    -84.4618E+06     135.121E+03    -232.925E-03     464.550E-03    -231.625E-03     88.8462E-03    -234.087E-03     464.676E-03    -231.524E-03     77.8810E-03
            1600     2.14229E-03     66.8824E-03    -114.993E+06    -278.132E+06    -98.2899E+06    -47.3283E+03    -232.348E-03     463.960E-03    -231.612E-03     66.8777E-03    -232.992E-03     463.493E-03    -231.533E-03     58.7827E-03
            1601     1.42783E-03     66.8060E-03    -120.088E+06    -286.142E+06    -112.069E+06    -95.4656E+03    -232.020E-03     463.559E-03    -231.539E-03     45.0652E-03    -232.326E-03     462.748E-03    -231.510E-03     39.6738E-03
            1602     713.713E-06     66.7587E-03    -123.317E+06    -292.549E+06    -121.572E+06     147.008E+03    -231.532E-03     463.074E-03    -231.542E-03     24.1757E-03    -231.638E-03     462.057E-03    -231.547E-03     21.2596E-03
            1603     13.5704E-03     69.5895E-03    -3.32189E+06     71.9271E+06     84.3645E+06     1.32590E+06    -229.771E-03     461.296E-03    -231.526E-03     143.999E-03    -237.495E-03     469.019E-03    -231.203E-03     115.486E-03
            1604     12.8555E-03     69.3404E-03    -7.46440E+06     69.0852E+06     83.1990E+06     371.212E+03    -230.367E-03     461.912E-03    -231.545E-03     203.697E-03    -242.682E-03     474.205E-03    -231.219E-03     166.571E-03
            1605     12.1408E-03     69.0738E-03    -12.2643E+06     63.9331E+06     81.0658E+06    -388.857E+03    -231.628E-03     463.190E-03    -231.562E-03     226.060E-03    -245.928E-03     477.438E-03    -231.231E-03     186.127E-03
            1606     11.4268E-03     68.7603E-03    -18.5929E+06     58.8301E+06     80.0732E+06    -392.539E+03    -232.992E-03     464.578E-03    -231.587E-03     251.660E-03    -249.526E-03     481.023E-03    -231.245E-03     208.418E-03
            1607     10.7130E-03     68.4200E-03    -25.1853E+06     50.2661E+06     77.4142E+06    -472.841E+03    -234.546E-03     466.169E-03    -231.623E-03     267.405E-03    -251.933E-03     483.421E-03    -231.272E-03     222.650E-03
            1608     9.99823E-03     68.0613E-03    -32.3599E+06     39.6337E+06     67.7543E+06     334.429E+03    -236.081E-03     467.724E-03    -231.643E-03     274.045E-03    -253.148E-03     484.620E-03    -231.315E-03     229.266E-03
            1609     9.28324E-03     67.7005E-03    -40.0845E+06     30.1664E+06     54.7055E+06     920.015E+03    -237.199E-03     468.843E-03    -231.643E-03     268.903E-03    -252.758E-03     484.208E-03    -231.355E-03     225.822E-03
            1610     8.56894E-03     67.3507E-03    -47.4503E+06     22.4694E+06     43.9049E+06     724.593E+03    -237.613E-03     469.247E-03    -231.634E-03     255.068E-03    -250.999E-03     482.418E-03    -231.379E-03     214.979E-03
            1611     7.85463E-03     67.0235E-03    -55.0520E+06     13.5050E+06     34.7120E+06     601.810E+03    -237.379E-03     469.002E-03    -231.623E-03     236.522E-03    -248.432E-03     479.806E-03    -231.389E-03     200.179E-03
            1612     7.14063E-03     66.7213E-03    -63.4440E+06    -15.1257E+06     20.6918E+06     357.297E+03    -236.948E-03     468.560E-03    -231.611E-03     216.296E-03    -245.796E-03     477.068E-03    -231.394E-03     183.959E-03
            1613     6.42704E-03     66.4455E-03    -72.0943E+06    -64.3173E+06     1.93339E+06         867.797    -236.411E-03     468.015E-03    -231.603E-03     195.632E-03    -243.298E-03     474.412E-03    -231.396E-03     167.315E-03
            1614     5.71267E-03     66.1966E-03    -80.1936E+06    -111.037E+06    -16.8477E+06     151.494E+03    -235.654E-03     467.253E-03    -231.599E-03     174.938E-03    -240.882E-03     471.851E-03    -231.406E-03     150.523E-03
            1615     4.99875E-03     65.9757E-03    -88.0778E+06    -152.799E+06    -34.8135E+06     363.827E+03    -234.812E-03     466.424E-03    -231.611E-03     153.805E-03    -238.668E-03     469.525E-03    -231.436E-03     133.099E-03
            1616     4.28378E-03     65.7827E-03    -95.9167E+06    -187.174E+06    -52.1592E+06     454.839E+03    -234.096E-03     465.724E-03    -231.628E-03     132.223E-03    -236.834E-03     467.609E-03    -231.479E-03     115.000E-03
            1617     3.56993E-03     65.6182E-03    -102.832E+06    -214.547E+06    -69.3784E+06     317.214E+03    -233.470E-03     465.099E-03    -231.629E-03     110.592E-03    -235.329E-03     466.033E-03    -231.516E-03     96.5977E-03
            1618     2.85588E-03     65.4825E-03    -109.210E+06    -250.735E+06    -84.5105E+06     154.056E+03    -232.896E-03     464.536E-03    -231.640E-03     88.7526E-03    -234.057E-03     464.663E-03    -231.540E-03     77.7904E-03
            1619     2.14166E-03     65.3774E-03    -115.538E+06    -278.056E+06    -98.6617E+06     212.389E+03    -232.429E-03     464.049E-03    -231.620E-03     67.0652E-03    -233.078E-03     463.587E-03    -231.543E-03     58.9517E-03
            1620     1.42826E-03     65.3004E-03    -120.498E+06    -286.130E+06    -112.364E+06     305.552E+03    -231.955E-03     463.514E-03    -231.560E-03     45.4569E-03    -232.264E-03     462.706E-03    -231.532E-03     40.0673E-03
            1621     714.748E-06     65.2541E-03    -122.615E+06    -291.780E+06    -121.272E+06     155.033E+03    -231.751E-03     463.174E-03    -231.422E-03     24.5847E-03    -231.856E-03     462.160E-03    -231.428E-03     21.6682E-03
            1622     13.5696E-03     68.0859E-03    -3.01977E+06     71.7610E+06     83.1106E+06    -68.0467E+03    -229.438E-03     460.983E-03    -231.545E-03     144.913E-03    -237.160E-03     468.708E-03    -231.229E-03     116.381E-03
            1623     12.8546E-03     67.8338E-03    -8.32923E+06     72.3214E+06     81.9207E+06    -348.970E+03    -230.470E-03     462.035E-03    -231.564E-03     202.447E-03    -242.766E-03     474.320E-03    -231.248E-03     165.247E-03
            1624     12.1412E-03     67.5669E-03    -14.2195E+06     64.1164E+06     78.8892E+06    -1.41796E+06    -231.364E-03     462.944E-03    -231.580E-03     224.731E-03    -245.614E-03     477.142E-03    -231.258E-03     184.863E-03
            1625     11.4273E-03     67.2542E-03    -19.4872E+06     57.1838E+06     78.4895E+06    -1.26164E+06    -232.714E-03     464.339E-03    -231.625E-03     251.767E-03    -249.227E-03     480.758E-03    -231.287E-03     208.595E-03
            1626     10.7119E-03     66.9149E-03    -26.6220E+06     49.1185E+06     75.8662E+06     284.555E+03    -234.667E-03     466.340E-03    -231.673E-03     267.893E-03    -252.068E-03     483.601E-03    -231.326E-03     223.128E-03
            1627     9.99693E-03     66.5554E-03    -34.5705E+06     39.1584E+06     67.1335E+06     446.381E+03    -236.559E-03     468.238E-03    -231.679E-03     273.636E-03    -253.633E-03     485.134E-03    -231.350E-03     228.765E-03
            1628     9.28329E-03     66.1937E-03    -41.5622E+06     30.3644E+06     55.6499E+06    -377.949E+03    -237.600E-03     469.246E-03    -231.646E-03     268.279E-03    -253.174E-03     484.619E-03    -231.351E-03     225.070E-03
            1629     8.56944E-03     65.8448E-03    -48.8011E+06     22.1948E+06     43.8032E+06    -697.508E+03    -237.747E-03     469.346E-03    -231.599E-03     254.454E-03    -251.130E-03     482.507E-03    -231.342E-03     214.310E-03
            1630     7.85559E-03     65.5174E-03    -56.6422E+06     12.2684E+06     33.4477E+06    -281.069E+03    -237.360E-03     468.928E-03    -231.567E-03     236.239E-03    -248.411E-03     479.723E-03    -231.336E-03     199.884E-03
            1631     7.14158E-03     65.2154E-03    -64.4310E+06    -14.9772E+06     20.0146E+06     61.2526E+03    -236.819E-03     468.376E-03    -231.557E-03     216.455E-03    -245.670E-03     476.887E-03    -231.342E-03     184.138E-03
            1632     6.42700E-03     64.9397E-03    -72.5689E+06    -63.9724E+06     1.14205E+06     131.415E+03    -236.163E-03     467.731E-03    -231.568E-03     196.026E-03    -243.051E-03     474.131E-03    -231.364E-03     167.763E-03
            1633     5.71276E-03     64.6917E-03    -80.9573E+06    -111.834E+06    -18.2014E+06     336.453E+03    -235.502E-03     467.092E-03    -231.589E-03     175.205E-03    -240.732E-03     471.689E-03    -231.401E-03     150.828E-03
            1634     4.99797E-03     64.4703E-03    -88.9322E+06    -152.795E+06    -36.3531E+06     639.802E+03    -234.864E-03     466.472E-03    -231.608E-03     153.833E-03    -238.722E-03     469.577E-03    -231.439E-03     133.131E-03
            1635     4.28450E-03     64.2777E-03    -96.1889E+06    -186.919E+06    -53.2889E+06     349.635E+03    -234.181E-03     465.795E-03    -231.615E-03     132.292E-03    -236.922E-03     467.686E-03    -231.471E-03     115.050E-03
            1636     3.57016E-03     64.1128E-03    -103.104E+06    -213.984E+06    -69.8827E+06     411.159E+03    -233.432E-03     465.046E-03    -231.613E-03     110.611E-03    -235.292E-03     465.983E-03    -231.503E-03     96.6268E-03
            1637     2.85585E-03     63.9779E-03    -109.935E+06    -250.456E+06    -85.3802E+06     542.994E+03    -232.820E-03     464.455E-03    -231.634E-03     88.6992E-03    -233.982E-03     464.584E-03    -231.539E-03     77.7533E-03
            1638     2.14205E-03     63.8715E-03    -115.836E+06    -278.086E+06    -99.5823E+06     142.474E+03    -232.334E-03     463.977E-03    -231.643E-03     66.9219E-03    -232.983E-03     463.516E-03    -231.569E-03     58.8091E-03
            1639     1.42764E-03     63.7957E-03    -120.509E+06    -285.771E+06    -112.632E+06     56.5050E+03    -231.822E-03     463.482E-03    -231.660E-03     45.1402E-03    -232.130E-03     462.675E-03    -231.634E-03     39.7534E-03
            1640     712.672E-06     63.7491E-03    -123.180E+06    -291.557E+06    -121.227E+06    -2.89306E+03    -231.651E-03     463.487E-03    -231.836E-03     24.8482E-03    -231.758E-03     462.475E-03    -231.841E-03     21.9352E-03
            1641     13.5690E-03     66.5758E-03    -5.25424E+06     72.6042E+06     81.1237E+06    -326.729E+03    -230.066E-03     461.600E-03    -231.535E-03     143.669E-03    -237.749E-03     469.287E-03    -231.227E-03     115.169E-03
            1642     12.8568E-03     66.3292E-03    -10.1386E+06     74.5865E+06     81.0955E+06    -1.19716E+06    -230.040E-03     461.591E-03    -231.551E-03     202.267E-03    -242.305E-03     473.849E-03    -231.239E-03     165.239E-03
            1643     12.1414E-03     66.0607E-03    -16.2920E+06     64.0156E+06     77.5690E+06    -1.56669E+06    -230.885E-03     462.485E-03    -231.600E-03     225.753E-03    -245.133E-03     476.677E-03    -231.281E-03     186.025E-03
            1644     11.4252E-03     65.7507E-03    -23.0648E+06     54.2415E+06     75.8143E+06    -1.39404E+06    -232.948E-03     464.604E-03    -231.656E-03     251.564E-03    -249.456E-03     481.003E-03    -231.322E-03     208.346E-03
            1645     10.7108E-03     65.4071E-03    -29.6565E+06     47.0925E+06     73.6588E+06    -838.265E+03    -235.134E-03     466.807E-03    -231.673E-03     266.403E-03    -252.518E-03     484.039E-03    -231.330E-03     221.496E-03
            1646     9.99813E-03     65.0491E-03    -35.7969E+06     40.0056E+06     65.6686E+06    -1.06988E+06    -236.724E-03     468.359E-03    -231.635E-03     272.255E-03    -253.782E-03     485.242E-03    -231.312E-03     227.268E-03
            1647     9.28401E-03     64.6872E-03    -42.6871E+06     31.2175E+06     54.0340E+06    -1.73448E+06    -237.487E-03     469.068E-03    -231.581E-03     267.740E-03    -253.052E-03     484.436E-03    -231.295E-03     224.507E-03
            1648     8.57012E-03     64.3385E-03    -50.2218E+06     20.8797E+06     41.6500E+06    -1.55031E+06    -237.511E-03     469.054E-03    -231.543E-03     254.579E-03    -250.888E-03     482.206E-03    -231.292E-03     214.480E-03
            1649     7.85577E-03     64.0117E-03    -57.9466E+06     10.7850E+06     30.9705E+06    -1.40082E+06    -237.164E-03     468.694E-03    -231.530E-03     236.862E-03    -248.221E-03     479.494E-03    -231.307E-03     200.539E-03
            1650     7.14119E-03     63.7097E-03    -66.0217E+06    -17.0483E+06     17.4937E+06    -1.22537E+06    -236.627E-03     468.173E-03    -231.546E-03     216.866E-03    -245.480E-03     476.680E-03    -231.338E-03     184.580E-03
            1651     6.42688E-03     63.4349E-03    -74.0489E+06    -65.3953E+06    -776.811E+03     12.0249E+03    -236.120E-03     467.694E-03    -231.574E-03     196.081E-03    -243.007E-03     474.088E-03    -231.376E-03     167.837E-03
            1652     5.71230E-03     63.1862E-03    -82.0178E+06    -111.818E+06    -19.7725E+06     682.190E+03    -235.574E-03     467.168E-03    -231.594E-03     175.005E-03    -240.802E-03     471.765E-03    -231.411E-03     150.633E-03
            1653     4.99868E-03     62.9652E-03    -89.7666E+06    -152.675E+06    -37.5137E+06     373.457E+03    -234.902E-03     466.507E-03    -231.605E-03     153.757E-03    -238.760E-03     469.614E-03    -231.441E-03     133.044E-03
            1654     4.28391E-03     62.7721E-03    -97.3050E+06    -186.507E+06    -54.3922E+06     448.393E+03    -234.181E-03     465.790E-03    -231.608E-03     132.290E-03    -236.929E-03     467.688E-03    -231.469E-03     115.043E-03
            1655     3.56991E-03     62.6079E-03    -104.485E+06    -213.944E+06    -71.6238E+06     475.597E+03    -233.456E-03     465.056E-03    -231.600E-03     110.559E-03    -235.318E-03     465.996E-03    -231.497E-03     96.5845E-03
            1656     2.85602E-03     62.4724E-03    -110.601E+06    -250.207E+06    -86.4008E+06     257.117E+03    -232.866E-03     464.478E-03    -231.613E-03     88.7387E-03    -234.028E-03     464.610E-03    -231.521E-03     77.7990E-03
            1657     2.14177E-03     62.3667E-03    -116.204E+06    -277.538E+06    -100.023E+06     271.349E+03    -232.338E-03     463.946E-03    -231.608E-03     66.7108E-03    -232.986E-03     463.486E-03    -231.537E-03     58.6132E-03
            1658     1.42793E-03     62.2906E-03    -120.735E+06    -285.299E+06    -113.160E+06     124.592E+03    -231.979E-03     463.527E-03    -231.549E-03     44.7512E-03    -232.286E-03     462.721E-03    -231.526E-03     39.3806E-03
            1659     714.954E-06     62.2437E-03    -124.287E+06    -291.889E+06    -122.344E+06     106.526E+03    -231.726E-03     463.118E-03    -231.392E-03     24.1115E-03    -231.835E-03     462.105E-03    -231.400E-03     21.2220E-03
            1660     13.5721E-03     65.0718E-03    -3.31557E+06     74.2340E+06     83.0489E+06     516.931E+03    -229.461E-03     461.016E-03    -231.555E-03     145.190E-03    -237.156E-03     468.721E-03    -231.242E-03     116.823E-03
            1661     12.8545E-03     64.8236E-03    -8.68282E+06     75.3665E+06     81.8324E+06     166.456E+03    -229.973E-03     461.568E-03    -231.595E-03     203.593E-03    -242.264E-03     473.858E-03    -231.282E-03     166.602E-03
            1662     12.1390E-03     64.5571E-03    -14.1793E+06     64.4819E+06     79.4479E+06     624.227E+03    -231.827E-03     463.452E-03    -231.625E-03     225.073E-03    -246.088E-03     477.661E-03    -231.301E-03     185.142E-03
            1663     11.4263E-03     64.2419E-03    -20.3336E+06     55.8220E+06     78.3900E+06     491.918E+03    -233.604E-03     465.225E-03    -231.620E-03     249.843E-03    -250.092E-03     481.611E-03    -231.280E-03     206.472E-03
            1664     10.7140E-03     63.9020E-03    -26.6879E+06     47.2549E+06     75.1403E+06    -549.133E+03    -235.139E-03     466.736E-03    -231.597E-03     265.920E-03    -252.508E-03     483.961E-03    -231.251E-03     220.987E-03
            1665     9.99883E-03     63.5427E-03    -33.5626E+06     40.7938E+06     65.9840E+06    -803.042E+03    -236.461E-03     468.019E-03    -231.558E-03     272.608E-03    -253.494E-03     484.887E-03    -231.239E-03     227.727E-03
            1666     9.28495E-03     63.1815E-03    -41.1676E+06     31.0980E+06     53.6640E+06    -235.468E+03    -237.133E-03     468.664E-03    -231.531E-03     268.196E-03    -252.668E-03     484.008E-03    -231.248E-03     225.127E-03
            1667     8.57002E-03     62.8336E-03    -49.0175E+06     21.0443E+06     41.4581E+06    -280.852E+03    -237.254E-03     468.779E-03    -231.524E-03     255.035E-03    -250.624E-03     481.929E-03    -231.277E-03     215.022E-03
            1668     7.85539E-03     62.5058E-03    -57.2365E+06     11.5923E+06     30.4680E+06    -827.289E+03    -236.994E-03     468.527E-03    -231.533E-03     236.834E-03    -248.037E-03     479.320E-03    -231.315E-03     200.561E-03
            1669     7.14108E-03     62.2046E-03    -66.3480E+06    -18.3896E+06     16.0192E+06    -440.740E+03    -236.632E-03     468.188E-03    -231.556E-03     216.642E-03    -245.473E-03     476.682E-03    -231.353E-03     184.377E-03
            1670     6.42664E-03     61.9292E-03    -75.5296E+06    -67.2787E+06    -2.71799E+06     28.8186E+03    -236.253E-03     467.829E-03    -231.576E-03     195.826E-03    -243.137E-03     474.214E-03    -231.383E-03     167.568E-03
            1671     5.71289E-03     61.6808E-03    -83.5274E+06    -111.884E+06    -20.9956E+06     115.776E+03    -235.621E-03     467.203E-03    -231.582E-03     174.812E-03    -240.852E-03     471.801E-03    -231.404E-03     150.424E-03
            1672     4.99804E-03     61.4600E-03    -91.1493E+06    -152.527E+06    -38.7820E+06     329.999E+03    -234.907E-03     466.492E-03    -231.585E-03     153.592E-03    -238.767E-03     469.600E-03    -231.426E-03     132.886E-03
            1673     4.28442E-03     61.2668E-03    -98.5978E+06    -186.649E+06    -56.1757E+06     314.568E+03    -234.189E-03     465.767E-03    -231.579E-03     131.985E-03    -236.932E-03     467.661E-03    -231.446E-03     114.762E-03
            1674     3.57022E-03     61.1028E-03    -105.075E+06    -213.696E+06    -72.9043E+06    -28.7585E+03    -233.484E-03     465.043E-03    -231.559E-03     110.245E-03    -235.341E-03     465.980E-03    -231.461E-03     96.2815E-03
            1675     2.85591E-03     60.9672E-03    -110.889E+06    -250.069E+06    -86.9597E+06    -123.547E+03    -232.852E-03     464.411E-03    -231.559E-03     88.4730E-03    -234.012E-03     464.543E-03    -231.471E-03     77.5335E-03
            1676     2.14223E-03     60.8614E-03    -116.507E+06    -277.442E+06    -99.9762E+06     152.472E+03    -232.298E-03     463.844E-03    -231.547E-03     66.6435E-03    -232.947E-03     463.385E-03    -231.475E-03     58.5541E-03
            1677     1.42824E-03     60.7855E-03    -121.107E+06    -285.211E+06    -113.335E+06     320.772E+03    -231.885E-03     463.380E-03    -231.495E-03     45.3350E-03    -232.196E-03     462.577E-03    -231.472E-03     39.9622E-03
            1678     713.712E-06     60.7381E-03    -124.311E+06    -291.286E+06    -121.985E+06     215.921E+03    -231.900E-03     463.051E-03    -231.151E-03     24.8746E-03    -232.014E-03     462.044E-03    -231.158E-03     21.9557E-03
            1679     13.5663E-03     63.5659E-03    -4.59081E+06     73.5587E+06     82.0830E+06    -273.840E+03    -229.864E-03     461.463E-03    -231.599E-03     144.539E-03    -237.565E-03     469.170E-03    -231.288E-03     116.003E-03
            1680     12.8534E-03     63.3184E-03    -9.46637E+06     74.8295E+06     81.6606E+06     811.122E+03    -231.207E-03     462.790E-03    -231.584E-03     200.818E-03    -243.463E-03     475.042E-03    -231.270E-03     163.555E-03
            1681     12.1420E-03     63.0468E-03    -14.0998E+06     64.7569E+06     79.7599E+06     824.506E+03    -232.025E-03     463.580E-03    -231.555E-03     223.261E-03    -246.243E-03     477.747E-03    -231.230E-03     183.288E-03
            1682     11.4288E-03     62.7369E-03    -19.7909E+06     57.0682E+06     78.8098E+06     342.954E+03    -233.195E-03     464.744E-03    -231.549E-03     250.665E-03    -249.689E-03     481.142E-03    -231.209E-03     207.392E-03
            1683     10.7125E-03     62.3956E-03    -27.0527E+06     48.3329E+06     75.1151E+06     266.417E+03    -234.894E-03     466.449E-03    -231.555E-03     267.148E-03    -252.280E-03     483.693E-03    -231.210E-03     222.325E-03
            1684     9.99933E-03     62.0364E-03    -35.0264E+06     40.6544E+06     65.5012E+06     219.757E+03    -236.212E-03     467.757E-03    -231.545E-03     273.325E-03    -253.256E-03     484.631E-03    -231.226E-03     228.553E-03
            1685     9.28412E-03     61.6770E-03    -42.8576E+06     31.6128E+06     53.4408E+06    -565.349E+03    -237.066E-03     468.603E-03    -231.537E-03     268.630E-03    -252.625E-03     483.967E-03    -231.253E-03     225.560E-03
            1686     8.56988E-03     61.3272E-03    -50.2803E+06     21.1947E+06     41.0814E+06    -1.03630E+06    -237.320E-03     468.852E-03    -231.532E-03     255.028E-03    -250.692E-03     482.001E-03    -231.284E-03     215.001E-03
            1687     7.85571E-03     61.0011E-03    -58.2683E+06     10.0963E+06     29.8961E+06     256.923E+03    -237.120E-03     468.652E-03    -231.532E-03     236.607E-03    -248.157E-03     479.431E-03    -231.313E-03     200.348E-03
            1688     7.14098E-03     60.6989E-03    -67.1499E+06    -18.2467E+06     15.7267E+06     1.28591E+06    -236.761E-03     468.298E-03    -231.537E-03     216.198E-03    -245.592E-03     476.780E-03    -231.335E-03     183.961E-03
            1689     6.42711E-03     60.4235E-03    -75.8814E+06    -66.0177E+06    -3.28794E+06     651.325E+03    -236.191E-03     467.733E-03    -231.542E-03     195.347E-03    -243.061E-03     474.109E-03    -231.353E-03     167.130E-03
            1690     5.71241E-03     60.1757E-03    -84.2376E+06    -112.019E+06    -22.1510E+06    -142.532E+03    -235.597E-03     467.141E-03    -231.545E-03     174.529E-03    -240.821E-03     471.733E-03    -231.371E-03     150.153E-03
            1691     4.99892E-03     59.9545E-03    -91.7627E+06    -153.086E+06    -39.5894E+06    -297.048E+03    -234.969E-03     466.507E-03    -231.538E-03     153.308E-03    -238.826E-03     469.609E-03    -231.381E-03     132.597E-03
            1692     4.28437E-03     59.7619E-03    -98.1894E+06    -186.595E+06    -55.8973E+06    -391.313E+03    -234.196E-03     465.713E-03    -231.517E-03     131.750E-03    -236.934E-03     467.602E-03    -231.384E-03     114.525E-03
            1693     3.57033E-03     59.5974E-03    -104.517E+06    -213.243E+06    -72.0258E+06    -431.000E+03    -233.409E-03     464.901E-03    -231.492E-03     110.184E-03    -235.266E-03     465.839E-03    -231.392E-03     96.2125E-03
            1694     2.85661E-03     59.4624E-03    -110.723E+06    -250.363E+06    -86.6268E+06    -403.057E+03    -232.744E-03     464.242E-03    -231.498E-03     88.5404E-03    -233.904E-03     464.371E-03    -231.407E-03     77.6044E-03
            1695     2.14207E-03     59.3567E-03    -116.145E+06    -278.239E+06    -99.8133E+06    -295.509E+03    -232.195E-03     463.697E-03    -231.502E-03     66.7161E-03    -232.840E-03     463.231E-03    -231.429E-03     58.6399E-03
            1696     1.42779E-03     59.2806E-03    -120.645E+06    -285.368E+06    -112.435E+06    -36.3309E+03    -231.730E-03     463.231E-03    -231.501E-03     44.9671E-03    -232.038E-03     462.424E-03    -231.474E-03     39.5973E-03
            1697     713.795E-06     59.2338E-03    -122.965E+06    -290.821E+06    -121.370E+06     -274.66E+03    -231.673E-03     463.125E-03    -231.452E-03     24.3871E-03    -231.780E-03     462.116E-03    -231.459E-03     21.4656E-03
            1698     13.5705E-03     62.0593E-03    -5.77082E+06     71.9609E+06     81.8933E+06    -163.608E+03    -231.153E-03     462.699E-03    -231.546E-03     142.459E-03    -238.845E-03     470.389E-03    -231.233E-03     113.778E-03
            1699     12.8587E-03     61.8076E-03    -9.49748E+06     74.0899E+06     82.9524E+06     40.7085E+03    -230.831E-03     462.336E-03    -231.506E-03     201.008E-03    -243.086E-03     474.580E-03    -231.184E-03     163.828E-03
            1700     12.1433E-03     61.5446E-03    -15.0306E+06     64.5362E+06     79.4698E+06     226.035E+03    -231.345E-03     462.851E-03    -231.506E-03     225.154E-03    -245.579E-03     477.029E-03    -231.180E-03     185.368E-03
            1701     11.4260E-03     61.2306E-03    -21.0325E+06     55.4561E+06     77.5055E+06     947.145E+03    -233.015E-03     464.549E-03    -231.534E-03     251.481E-03    -249.507E-03     480.939E-03    -231.197E-03     208.298E-03
            1702     10.7140E-03     60.8887E-03    -27.6006E+06     49.8100E+06     75.1062E+06     1.42531E+06    -234.588E-03     466.147E-03    -231.559E-03     266.661E-03    -251.949E-03     483.369E-03    -231.216E-03     221.925E-03
            1703     9.99816E-03     60.5326E-03    -34.9744E+06     42.3167E+06     65.8032E+06     617.420E+03    -236.109E-03     467.670E-03    -231.561E-03     273.189E-03    -253.157E-03     484.553E-03    -231.243E-03     228.405E-03
            1704     9.28429E-03     60.1697E-03    -42.5988E+06     33.6819E+06     53.7864E+06     78.7775E+03    -237.221E-03     468.769E-03    -231.548E-03     268.351E-03    -252.778E-03     484.138E-03    -231.266E-03     225.244E-03
            1705     8.57008E-03     59.8229E-03    -51.3227E+06     21.3854E+06     40.0945E+06     454.064E+03    -237.532E-03     469.054E-03    -231.522E-03     254.616E-03    -250.891E-03     482.190E-03    -231.278E-03     214.595E-03
            1706     7.85530E-03     59.4947E-03    -60.7239E+06     7.99769E+06     27.2043E+06     739.663E+03    -237.350E-03     468.843E-03    -231.493E-03     236.203E-03    -248.375E-03     479.602E-03    -231.281E-03     199.945E-03
            1707     7.14199E-03     59.1931E-03    -68.7897E+06    -18.5620E+06     14.2401E+06     486.026E+03    -236.752E-03     468.234E-03    -231.482E-03     215.851E-03    -245.576E-03     476.707E-03    -231.284E-03     183.621E-03
            1708     6.42727E-03     58.9188E-03    -75.8987E+06    -64.6249E+06    -2.76046E+06     90.0851E+03    -236.158E-03     467.643E-03    -231.485E-03     195.197E-03    -243.029E-03     474.023E-03    -231.295E-03     166.977E-03
            1709     5.71340E-03     58.6702E-03    -83.0753E+06    -110.955E+06    -20.8698E+06    -499.374E+03    -235.611E-03     467.093E-03    -231.481E-03     174.312E-03    -240.827E-03     471.680E-03    -231.304E-03     149.944E-03
            1710     4.99870E-03     58.4493E-03    -89.9740E+06    -153.297E+06    -37.4912E+06    -1.03047E+06    -234.903E-03     466.374E-03    -231.472E-03     153.083E-03    -238.747E-03     469.464E-03    -231.306E-03     132.378E-03
            1711     4.28508E-03     58.2567E-03    -97.0185E+06    -187.093E+06    -53.7239E+06    -864.149E+03    -234.112E-03     465.564E-03    -231.451E-03     131.676E-03    -236.847E-03     467.446E-03    -231.308E-03     114.444E-03
            1712     3.57086E-03     58.0929E-03    -103.669E+06    -213.545E+06    -70.7124E+06    -721.936E+03    -233.371E-03     464.789E-03    -231.418E-03     110.060E-03    -235.225E-03     465.721E-03    -231.311E-03     96.0912E-03
            1713     2.85605E-03     57.9576E-03    -109.674E+06    -251.019E+06    -85.4328E+06    -681.642E+03    -232.725E-03     464.130E-03    -231.406E-03     88.0910E-03    -233.876E-03     464.249E-03    -231.310E-03     77.1629E-03
            1714     2.14233E-03     57.8520E-03    -115.168E+06    -278.930E+06    -98.8962E+06    -587.711E+03    -232.160E-03     463.538E-03    -231.377E-03     66.2107E-03    -232.798E-03     463.063E-03    -231.300E-03     58.1332E-03
            1715     1.42847E-03     57.7759E-03    -119.309E+06    -285.648E+06    -111.579E+06    -662.861E+03    -231.734E-03     463.039E-03    -231.304E-03     44.6699E-03    -232.035E-03     462.225E-03    -231.275E-03     39.2970E-03
            1716     714.437E-06     57.7290E-03    -122.957E+06    -291.670E+06    -120.539E+06    -329.773E+03    -231.360E-03     462.628E-03    -231.268E-03     24.5103E-03    -231.468E-03     461.614E-03    -231.269E-03     21.5898E-03
            1717     13.5721E-03     60.5505E-03    -4.15065E+06     71.3384E+06     83.6315E+06    -89.1946E+03    -230.040E-03     461.545E-03    -231.505E-03     144.108E-03    -237.748E-03     469.249E-03    -231.184E-03     115.587E-03
            1718     12.8550E-03     60.3043E-03    -8.48190E+06     73.1118E+06     82.9989E+06     396.006E+03    -230.159E-03     461.677E-03    -231.517E-03     203.191E-03    -242.442E-03     473.948E-03    -231.196E-03     166.159E-03
            1719     12.1397E-03     60.0378E-03    -13.6820E+06     63.3809E+06     79.7862E+06     1.11147E+06    -231.794E-03     463.326E-03    -231.532E-03     225.135E-03    -246.030E-03     477.507E-03    -231.205E-03     185.269E-03
            1720     11.4294E-03     59.7231E-03    -19.7868E+06     54.4713E+06     78.8055E+06     1.93392E+06    -233.044E-03     464.594E-03    -231.550E-03     251.003E-03    -249.520E-03     480.965E-03    -231.207E-03     207.836E-03
            1721     10.7126E-03     59.3858E-03    -26.2409E+06     51.1276E+06     77.3514E+06     1.74702E+06    -234.560E-03     466.137E-03    -231.578E-03     267.022E-03    -251.920E-03     483.362E-03    -231.227E-03     222.312E-03
            1722     9.99886E-03     59.0251E-03    -33.1447E+06     43.8161E+06     68.7516E+06     1.74455E+06    -236.472E-03     468.046E-03    -231.574E-03     273.182E-03    -253.504E-03     484.916E-03    -231.246E-03     228.387E-03
            1723     9.28438E-03     58.6653E-03    -41.0693E+06     33.4214E+06     55.6624E+06     2.82483E+06    -237.461E-03     468.995E-03    -231.534E-03     267.728E-03    -252.979E-03     484.325E-03    -231.244E-03     224.672E-03
            1724     8.56985E-03     58.3160E-03    -49.1783E+06     21.9611E+06     41.7043E+06     3.91862E+06    -237.687E-03     469.168E-03    -231.481E-03     254.013E-03    -251.015E-03     482.278E-03    -231.233E-03     214.040E-03
            1725     7.85694E-03     57.9890E-03    -57.0167E+06     11.8637E+06     30.5318E+06     3.07653E+06    -237.279E-03     468.721E-03    -231.442E-03     235.868E-03    -248.288E-03     479.481E-03    -231.224E-03     199.651E-03
            1726     7.14170E-03     57.6882E-03    -65.0966E+06    -15.6618E+06     17.5410E+06     817.049E+03    -236.713E-03     468.143E-03    -231.429E-03     215.710E-03    -245.525E-03     476.616E-03    -231.224E-03     183.491E-03
            1727     6.42783E-03     57.4130E-03    -72.8665E+06    -63.7320E+06     300.209E+03    -689.109E+03    -236.243E-03     467.667E-03    -231.424E-03     195.018E-03    -243.098E-03     474.036E-03    -231.225E-03     166.788E-03
            1728     5.71348E-03     57.1652E-03    -80.0879E+06    -110.489E+06    -17.4063E+06    -886.799E+03    -235.592E-03     467.002E-03    -231.410E-03     174.195E-03    -240.796E-03     471.580E-03    -231.220E-03     149.826E-03
            1729     4.99980E-03     56.9444E-03    -87.6357E+06    -153.296E+06    -34.7792E+06    -624.097E+03    -234.846E-03     466.237E-03    -231.391E-03     152.922E-03    -238.678E-03     469.315E-03    -231.215E-03     132.242E-03
            1730     4.28498E-03     56.7522E-03    -94.8933E+06    -187.508E+06    -51.6917E+06    -786.590E+03    -234.120E-03     465.475E-03    -231.355E-03     131.296E-03    -236.837E-03     467.339E-03    -231.204E-03     114.091E-03
            1731     3.57080E-03     56.5878E-03    -101.561E+06    -214.191E+06    -68.7601E+06    -832.460E+03    -233.365E-03     464.661E-03    -231.295E-03     109.588E-03    -235.203E-03     465.577E-03    -231.181E-03     95.6296E-03
            1732     2.85757E-03     56.4531E-03    -107.811E+06    -251.668E+06    -83.8301E+06    -693.067E+03    -232.627E-03     463.887E-03    -231.260E-03     87.9302E-03    -233.770E-03     463.997E-03    -231.158E-03     76.9999E-03
            1733     2.14308E-03     56.3479E-03    -113.554E+06    -279.236E+06    -97.1687E+06    -661.963E+03    -232.010E-03     463.236E-03    -231.226E-03     66.4657E-03    -232.643E-03     462.757E-03    -231.142E-03     58.3881E-03
            1734     1.42856E-03     56.2717E-03    -119.084E+06    -286.987E+06    -111.034E+06    -401.499E+03    -231.554E-03     462.718E-03    -231.164E-03     45.0353E-03    -231.854E-03     461.899E-03    -231.131E-03     39.6654E-03
            1735     714.219E-06     56.2251E-03    -121.267E+06    -292.461E+06    -119.476E+06    -23.3746E+03    -231.324E-03     462.378E-03    -231.054E-03     24.4920E-03    -231.424E-03     461.356E-03    -231.052E-03     21.5714E-03
            1736     13.5684E-03     59.0467E-03    -4.05917E+06     72.1745E+06     81.2314E+06    -379.255E+03    -229.678E-03     461.205E-03    -231.527E-03     144.276E-03    -237.366E-03     468.899E-03    -231.220E-03     115.756E-03
            1737     12.8550E-03     58.7985E-03    -9.86898E+06     70.9045E+06     80.1609E+06    -391.912E+03    -230.831E-03     462.361E-03    -231.530E-03     201.421E-03    -243.074E-03     474.588E-03    -231.217E-03     164.227E-03
            1738     12.1439E-03     58.5282E-03    -15.2489E+06     60.7103E+06     78.2312E+06     650.996E+03    -231.415E-03     462.951E-03    -231.536E-03     224.260E-03    -245.633E-03     477.104E-03    -231.211E-03     184.420E-03
            1739     11.4259E-03     58.2206E-03    -20.6918E+06     54.9577E+06     78.2321E+06     938.645E+03    -232.843E-03     464.413E-03    -231.570E-03     251.321E-03    -249.326E-03     480.791E-03    -231.228E-03     208.165E-03
            1740     10.7127E-03     57.8777E-03    -26.9562E+06     50.8394E+06     76.4324E+06     988.806E+03    -235.149E-03     466.734E-03    -231.585E-03     266.860E-03    -252.497E-03     483.945E-03    -231.237E-03     222.068E-03
            1741     9.99857E-03     57.5198E-03    -33.9147E+06     42.2024E+06     68.2679E+06     1.91564E+06    -236.782E-03     468.332E-03    -231.550E-03     272.450E-03    -253.781E-03     485.162E-03    -231.220E-03     227.648E-03
            1742     9.28478E-03     57.1582E-03    -40.7854E+06     31.0510E+06     55.5022E+06     2.92092E+06    -237.565E-03     469.053E-03    -231.489E-03     267.481E-03    -253.068E-03     484.361E-03    -231.197E-03     224.427E-03
            1743     8.57178E-03     56.8106E-03    -47.0437E+06     21.4359E+06     43.3404E+06     3.15991E+06    -237.657E-03     469.090E-03    -231.432E-03     254.182E-03    -250.983E-03     482.199E-03    -231.179E-03     214.206E-03
            1744     7.85609E-03     56.4838E-03    -52.8496E+06     15.1158E+06     35.9526E+06     2.82411E+06    -237.296E-03     468.697E-03    -231.401E-03     235.852E-03    -248.292E-03     479.455E-03    -231.167E-03     199.643E-03
            1745     7.14274E-03     56.1824E-03    -59.6954E+06    -10.7406E+06     24.1925E+06     2.20878E+06    -236.826E-03     468.203E-03    -231.378E-03     215.423E-03    -245.616E-03     476.673E-03    -231.155E-03     183.224E-03
            1746     6.42840E-03     55.9081E-03    -68.1924E+06    -60.9365E+06     4.93215E+06     1.08324E+06    -236.268E-03     467.618E-03    -231.350E-03     194.675E-03    -243.100E-03     473.977E-03    -231.138E-03     166.485E-03
            1747     5.71435E-03     55.6602E-03    -76.9414E+06    -110.415E+06    -14.7364E+06     471.117E+03    -235.575E-03     466.892E-03    -231.317E-03     173.782E-03    -240.758E-03     471.452E-03    -231.119E-03     149.445E-03
            1748     4.99959E-03     55.4397E-03    -84.9728E+06    -152.793E+06    -32.8080E+06     252.681E+03    -234.830E-03     466.109E-03    -231.279E-03     152.560E-03    -238.646E-03     469.175E-03    -231.098E-03     131.904E-03
            1749     4.28619E-03     55.2472E-03    -92.6218E+06    -187.041E+06    -49.9949E+06     14.6137E+03    -234.024E-03     465.255E-03    -231.231E-03     131.204E-03    -236.730E-03     467.113E-03    -231.075E-03     114.028E-03
            1750     3.57229E-03     55.0836E-03    -99.8680E+06    -214.670E+06    -67.0904E+06     15.1123E+03    -233.143E-03     464.327E-03    -231.184E-03     109.828E-03    -234.976E-03     465.238E-03    -231.063E-03     95.9057E-03
            1751     2.85691E-03     54.9492E-03    -106.596E+06    -251.781E+06    -82.3277E+06     121.261E+03    -232.448E-03     463.622E-03    -231.175E-03     88.2556E-03    -233.588E-03     463.729E-03    -231.067E-03     77.3566E-03
            1752     2.14270E-03     54.8440E-03    -112.935E+06    -279.525E+06    -96.5254E+06     216.054E+03    -231.939E-03     463.091E-03    -231.152E-03     66.5097E-03    -232.570E-03     462.609E-03    -231.066E-03     58.4540E-03
            1753     1.42857E-03     54.7681E-03    -117.782E+06    -287.156E+06    -110.189E+06    -11.4996E+03    -231.483E-03     462.572E-03    -231.089E-03     44.8020E-03    -231.775E-03     461.746E-03    -231.053E-03     39.4612E-03
            1754     714.281E-06     54.7213E-03    -120.244E+06    -293.120E+06    -119.462E+06    -367.415E+03    -231.444E-03     462.223E-03    -230.778E-03     24.2204E-03    -231.537E-03     461.195E-03    -230.776E-03     21.3230E-03
            1755     13.5700E-03     57.5400E-03    -4.82600E+06     73.3073E+06     80.3522E+06     198.939E+03    -230.694E-03     462.229E-03    -231.535E-03     143.388E-03    -238.379E-03     469.925E-03    -231.233E-03     114.815E-03
            1756     12.8580E-03     57.2878E-03    -9.75803E+06     69.5015E+06     80.2161E+06     1.03719E+06    -230.263E-03     461.799E-03    -231.535E-03     202.233E-03    -242.519E-03     474.034E-03    -231.221E-03     165.181E-03
            1757     12.1399E-03     57.0279E-03    -15.3394E+06     60.7695E+06     78.2037E+06      666.45E+03    -231.361E-03     462.927E-03    -231.567E-03     225.684E-03    -245.603E-03     477.104E-03    -231.242E-03     185.884E-03
            1758     11.4272E-03     56.7120E-03    -21.0841E+06     55.6517E+06     77.2781E+06    -337.374E+03    -233.746E-03     465.319E-03    -231.573E-03     250.906E-03    -250.227E-03     481.699E-03    -231.237E-03     207.578E-03
            1759     10.7134E-03     56.3720E-03    -26.5790E+06     48.0829E+06     74.7961E+06     138.106E+03    -235.430E-03     466.971E-03    -231.541E-03     265.739E-03    -252.752E-03     484.153E-03    -231.199E-03     220.858E-03
            1760     9.99970E-03     56.0130E-03    -32.5642E+06     40.4989E+06     66.1781E+06     1.44759E+06    -236.618E-03     468.105E-03    -231.487E-03     272.158E-03    -253.594E-03     484.917E-03    -231.167E-03     227.361E-03
            1761     9.28578E-03     55.6527E-03    -38.8152E+06     29.8773E+06     54.7822E+06     1.88601E+06    -237.456E-03     468.894E-03    -231.438E-03     267.601E-03    -252.925E-03     484.172E-03    -231.151E-03     224.594E-03
            1762     8.57016E-03     55.3046E-03    -44.9635E+06     22.0368E+06     45.6641E+06     874.548E+03    -237.732E-03     469.125E-03    -231.393E-03     253.998E-03    -251.040E-03     482.219E-03    -231.131E-03     213.993E-03
            1763     7.85769E-03     54.9777E-03    -51.7496E+06     14.8379E+06     37.6183E+06     327.978E+03    -237.446E-03     468.789E-03    -231.343E-03     235.425E-03    -248.427E-03     479.530E-03    -231.101E-03     199.167E-03
            1764     7.14298E-03     54.6772E-03    -59.5538E+06    -10.9549E+06     25.0687E+06     1.23579E+06    -236.863E-03     468.159E-03    -231.296E-03     215.118E-03    -245.643E-03     476.616E-03    -231.068E-03     182.917E-03
            1765     6.42899E-03     54.4026E-03    -67.7742E+06    -59.5242E+06     6.37206E+06     2.16615E+06    -236.276E-03     467.528E-03    -231.252E-03     194.388E-03    -243.105E-03     473.886E-03    -231.035E-03     166.211E-03
            1766     5.71482E-03     54.1555E-03    -76.0341E+06    -108.813E+06    -13.6963E+06     2.02372E+06    -235.559E-03     466.759E-03    -231.200E-03     173.471E-03    -240.731E-03     471.314E-03    -231.000E-03     149.182E-03
            1767     5.00126E-03     53.9352E-03    -84.1645E+06    -151.406E+06    -31.8626E+06     1.48653E+06    -234.637E-03     465.797E-03    -231.159E-03     152.529E-03    -238.448E-03     468.863E-03    -230.977E-03     131.927E-03
            1768     4.28621E-03     53.7432E-03    -92.2691E+06    -186.146E+06    -49.3482E+06     1.35122E+06    -233.743E-03     464.875E-03    -231.132E-03     131.323E-03    -236.450E-03     466.737E-03    -230.975E-03     114.197E-03
            1769     3.57116E-03     53.5798E-03    -99.9245E+06    -214.238E+06    -66.8987E+06     1.20310E+06    -233.012E-03     464.117E-03    -231.105E-03     109.616E-03    -234.840E-03     465.024E-03    -230.984E-03     95.7420E-03
            1770     2.85763E-03     53.4454E-03    -106.713E+06    -251.253E+06    -82.1054E+06     947.730E+03    -232.418E-03     463.509E-03    -231.091E-03     87.8287E-03    -233.553E-03     463.612E-03    -230.983E-03     76.9664E-03
            1771     2.14332E-03     53.3401E-03    -112.746E+06    -278.828E+06    -96.2156E+06     682.197E+03    -231.889E-03     462.936E-03    -231.047E-03     66.1800E-03    -232.518E-03     462.454E-03    -230.961E-03     58.1335E-03
            1772     1.42894E-03     53.2645E-03    -117.589E+06    -286.349E+06    -109.465E+06     539.237E+03    -231.416E-03     462.372E-03    -230.956E-03     44.6104E-03    -231.709E-03     461.549E-03    -230.917E-03     39.2845E-03
            1773     714.576E-06     53.2179E-03    -121.810E+06    -292.938E+06    -118.765E+06     521.790E+03    -231.171E-03     461.910E-03    -230.739E-03     24.2354E-03    -231.271E-03     460.883E-03    -230.732E-03     21.3796E-03
            1774     13.5711E-03     56.0282E-03    -3.98858E+06     71.3551E+06     82.6222E+06     702.138E+03    -229.424E-03     461.009E-03    -231.585E-03     144.952E-03    -237.136E-03     468.720E-03    -231.269E-03     116.497E-03
            1775     12.8530E-03     55.7894E-03    -8.63712E+06     68.5607E+06     81.2352E+06     1.14368E+06    -230.651E-03     462.258E-03    -231.607E-03     202.918E-03    -242.945E-03     474.529E-03    -231.288E-03     165.742E-03
            1776     12.1404E-03     55.5167E-03    -13.0057E+06     63.6007E+06     79.4335E+06     1.00986E+06    -232.638E-03     464.219E-03    -231.581E-03     224.265E-03    -246.861E-03     478.391E-03    -231.257E-03     184.229E-03
            1777     11.4277E-03     55.2048E-03    -18.7093E+06     58.1546E+06     78.9017E+06     256.166E+03    -233.836E-03     465.375E-03    -231.539E-03     250.058E-03    -250.285E-03     481.736E-03    -231.202E-03     206.734E-03
            1778     10.7143E-03     54.8652E-03    -25.2167E+06     46.5986E+06     76.4485E+06    -855.520E+03    -235.246E-03     466.764E-03    -231.518E-03     266.590E-03    -252.565E-03     483.938E-03    -231.167E-03     221.782E-03
            1779    10.00000E-03     54.5076E-03    -30.8643E+06     35.8122E+06     67.8973E+06    -385.991E+03    -236.878E-03     468.351E-03    -231.473E-03     272.718E-03    -253.842E-03     485.135E-03    -231.141E-03     227.919E-03
            1780     9.28503E-03     54.1472E-03    -36.1321E+06     29.3223E+06     57.7089E+06     594.006E+03    -237.838E-03     469.237E-03    -231.399E-03     267.258E-03    -253.285E-03     484.492E-03    -231.101E-03     224.191E-03
            1781     8.57278E-03     53.7982E-03    -42.7723E+06     24.2067E+06     47.9226E+06     671.017E+03    -237.837E-03     469.155E-03    -231.317E-03     253.234E-03    -251.111E-03     482.223E-03    -231.051E-03     213.227E-03
            1782     7.85751E-03     53.4725E-03    -51.1451E+06     14.4282E+06     37.3265E+06     955.320E+03    -237.326E-03     468.574E-03    -231.248E-03     235.012E-03    -248.285E-03     479.294E-03    -231.008E-03     198.801E-03
            1783     7.14399E-03     53.1714E-03    -60.4710E+06    -12.7833E+06     23.2807E+06     1.49711E+06    -236.823E-03     468.015E-03    -231.193E-03     214.870E-03    -245.587E-03     476.453E-03    -230.970E-03     182.706E-03
            1784     6.42984E-03     52.8981E-03    -69.4414E+06    -60.1327E+06     4.70334E+06     1.91111E+06    -236.186E-03     467.329E-03    -231.143E-03     194.202E-03    -243.009E-03     473.678E-03    -230.931E-03     166.059E-03
            1785     5.71579E-03     52.6504E-03    -77.7696E+06    -107.257E+06    -14.3640E+06     2.28323E+06    -235.359E-03     466.456E-03    -231.097E-03     173.453E-03    -240.534E-03     471.016E-03    -230.901E-03     149.216E-03
            1786     5.00076E-03     52.4317E-03    -86.0735E+06    -150.304E+06    -32.8480E+06     2.28293E+06    -234.535E-03     465.597E-03    -231.062E-03     152.415E-03    -238.347E-03     468.665E-03    -230.884E-03     131.865E-03
            1787     4.28662E-03     52.2395E-03    -93.7695E+06    -185.134E+06    -50.1695E+06     1.97352E+06    -233.753E-03     464.776E-03    -231.023E-03     130.899E-03    -236.458E-03     466.636E-03    -230.870E-03     113.804E-03
            1788     3.57288E-03     52.0762E-03    -100.874E+06    -212.650E+06    -67.3083E+06     1.63554E+06    -232.967E-03     463.939E-03    -230.972E-03     109.175E-03    -234.795E-03     464.849E-03    -230.854E-03     95.3220E-03
            1789     2.85781E-03     51.9417E-03    -107.505E+06    -249.960E+06    -82.7901E+06     1.19886E+06    -232.254E-03     463.200E-03    -230.946E-03     87.6483E-03    -233.391E-03     463.308E-03    -230.841E-03     76.8128E-03
            1790     2.14336E-03     51.8370E-03    -113.641E+06    -277.940E+06    -96.9268E+06     927.699E+03    -231.635E-03     462.562E-03    -230.927E-03     66.2563E-03    -232.267E-03     462.084E-03    -230.843E-03     58.2449E-03
            1791     1.42896E-03     51.7609E-03    -118.725E+06    -285.625E+06    -109.979E+06     871.088E+03    -231.209E-03     462.106E-03    -230.897E-03     44.8401E-03    -231.509E-03     461.289E-03    -230.861E-03     39.5191E-03
            1792     714.482E-06     51.7154E-03    -121.427E+06    -291.269E+06    -119.146E+06     658.318E+03    -230.939E-03     461.869E-03    -230.929E-03     24.2883E-03    -231.041E-03     460.851E-03    -230.927E-03     21.4134E-03
            1793     13.5653E-03     54.5292E-03    -2.77777E+06     69.6586E+06     83.3166E+06     346.546E+03    -230.034E-03     461.656E-03    -231.622E-03     144.033E-03    -237.697E-03     469.315E-03    -231.303E-03     115.478E-03
            1794     12.8543E-03     54.2752E-03    -7.71150E+06     68.7505E+06     81.6850E+06    -895.881E+03    -231.617E-03     463.204E-03    -231.586E-03     200.175E-03    -243.840E-03     475.406E-03    -231.266E-03     162.775E-03
            1795     12.1434E-03     54.0094E-03    -12.8909E+06     63.4247E+06     79.0507E+06    -356.008E+03    -232.211E-03     463.742E-03    -231.531E-03     223.684E-03    -246.416E-03     477.897E-03    -231.209E-03     183.663E-03
            1796     11.4283E-03     53.7002E-03    -17.7088E+06     59.5324E+06     79.2731E+06     669.902E+03    -233.384E-03     464.900E-03    -231.516E-03     250.676E-03    -249.815E-03     481.249E-03    -231.180E-03     207.462E-03
            1797     10.7128E-03     53.3580E-03    -24.5804E+06     49.5499E+06     76.7354E+06     193.970E+03    -235.390E-03     466.893E-03    -231.503E-03     266.056E-03    -252.668E-03     484.038E-03    -231.156E-03     221.265E-03
            1798     9.99901E-03     53.0007E-03    -32.6729E+06     35.8276E+06     66.9961E+06    -2.09769E+06    -237.197E-03     468.631E-03    -231.434E-03     271.696E-03    -254.135E-03     485.386E-03    -231.104E-03     226.815E-03
            1799     9.28728E-03     52.6394E-03    -40.3079E+06     26.5448E+06     55.5458E+06    -3.63193E+06    -237.981E-03     469.310E-03    -231.330E-03     266.797E-03    -253.437E-03     484.556E-03    -231.032E-03     223.632E-03
            1800     8.57231E-03     52.2931E-03    -47.3378E+06     19.9201E+06     44.6446E+06    -1.89725E+06    -237.836E-03     469.066E-03    -231.230E-03     253.384E-03    -251.115E-03     482.118E-03    -230.967E-03     213.385E-03
            1801     7.85920E-03     51.9671E-03    -55.1574E+06     11.0682E+06     33.6976E+06     582.562E+03    -237.387E-03     468.535E-03    -231.148E-03     235.032E-03    -248.343E-03     479.236E-03    -230.915E-03     198.847E-03
            1802     7.14446E-03     51.6668E-03    -63.5518E+06    -13.3689E+06     20.8195E+06     1.74465E+06    -236.696E-03     467.784E-03    -231.087E-03     214.687E-03    -245.456E-03     476.210E-03    -230.872E-03     182.578E-03
            1803     6.43037E-03     51.3927E-03    -72.2957E+06    -59.4442E+06     2.80834E+06     1.80257E+06    -235.948E-03     466.994E-03    -231.046E-03     194.018E-03    -242.761E-03     473.331E-03    -230.841E-03     165.964E-03
            1804     5.71570E-03     51.1471E-03    -80.8566E+06    -107.462E+06    -16.8230E+06     1.58872E+06    -235.291E-03     466.295E-03    -231.004E-03     173.194E-03    -240.466E-03     470.850E-03    -230.815E-03     148.981E-03
            1805     5.00177E-03     50.9272E-03    -88.4813E+06    -149.541E+06    -34.7348E+06     1.64217E+06    -234.623E-03     465.571E-03    -230.948E-03     151.936E-03    -238.434E-03     468.638E-03    -230.777E-03     131.387E-03
            1806     4.28755E-03     50.7359E-03    -95.5992E+06    -184.025E+06    -51.6751E+06     1.43407E+06    -233.740E-03     464.620E-03    -230.879E-03     130.610E-03    -236.448E-03     466.485E-03    -230.732E-03     113.522E-03
            1807     3.57250E-03     50.5727E-03    -102.394E+06    -211.498E+06    -68.7350E+06     1.16894E+06    -232.810E-03     463.625E-03    -230.815E-03     109.183E-03    -234.643E-03     464.543E-03    -230.704E-03     95.3507E-03
            1808     2.85845E-03     50.4390E-03    -108.762E+06    -248.768E+06    -83.7846E+06     1.05794E+06    -232.082E-03     462.875E-03    -230.793E-03     87.5241E-03    -233.224E-03     462.990E-03    -230.693E-03     76.7024E-03
            1809     2.14374E-03     50.3341E-03    -114.352E+06    -276.725E+06    -97.5761E+06     1.02046E+06    -231.480E-03     462.253E-03    -230.773E-03     65.8476E-03    -232.113E-03     461.781E-03    -230.694E-03     57.8611E-03
            1810     1.42882E-03     50.2585E-03    -118.950E+06    -284.367E+06    -111.106E+06     482.930E+03    -231.019E-03     461.766E-03    -230.747E-03     44.3582E-03    -231.316E-03     460.954E-03    -230.718E-03     39.0575E-03
            1811     714.265E-06     50.2114E-03    -122.470E+06    -290.673E+06    -120.393E+06    -37.2983E+03    -231.077E-03     461.581E-03    -230.504E-03     23.6406E-03    -231.181E-03     460.568E-03    -230.507E-03     20.7670E-03
            1812     13.5720E-03     53.0172E-03    -5.05534E+06     70.2030E+06     81.2907E+06    -1.39748E+06    -231.302E-03     462.845E-03    -231.543E-03     142.269E-03    -238.919E-03     470.457E-03    -231.231E-03     113.731E-03
            1813     12.8590E-03     52.7693E-03    -8.52573E+06     68.5257E+06     81.3164E+06    -386.329E+03    -230.603E-03     462.115E-03    -231.512E-03     201.396E-03    -242.763E-03     474.252E-03    -231.192E-03     164.403E-03
            1814     12.1405E-03     52.5058E-03    -14.2646E+06     62.1241E+06     78.5989E+06    -770.537E+03    -231.754E-03     463.264E-03    -231.510E-03     224.474E-03    -245.913E-03     477.365E-03    -231.186E-03     184.650E-03
            1815     11.4268E-03     52.1903E-03    -20.4714E+06     56.7186E+06     77.8305E+06    -1.00419E+06    -233.993E-03     465.481E-03    -231.488E-03     249.772E-03    -250.395E-03     481.786E-03    -231.152E-03     206.453E-03
            1816     10.7151E-03     51.8536E-03    -26.3203E+06     50.2964E+06     75.8904E+06    -193.922E+03    -235.772E-03     467.196E-03    -231.424E-03     264.652E-03    -253.033E-03     484.321E-03    -231.079E-03     219.750E-03
            1817     10.0020E-03     51.4928E-03    -33.6823E+06     41.1183E+06     65.3607E+06    -328.849E+03    -236.900E-03     468.222E-03    -231.323E-03     271.155E-03    -253.826E-03     484.986E-03    -231.007E-03     226.316E-03
            1818     9.28657E-03     51.1346E-03    -42.8144E+06     29.1116E+06     50.3746E+06    -1.52364E+06    -237.583E-03     468.804E-03    -231.221E-03     266.482E-03    -253.018E-03     484.045E-03    -230.950E-03     223.419E-03
            1819     8.57338E-03     50.7866E-03    -52.7633E+06     16.3269E+06     37.4087E+06    -2.95432E+06    -237.794E-03     468.925E-03    -231.131E-03     252.868E-03    -251.059E-03     481.952E-03    -230.891E-03     212.868E-03
            1820     7.85891E-03     50.4616E-03    -61.1627E+06     5.84929E+06     28.3796E+06    -2.99390E+06    -237.338E-03     468.389E-03    -231.051E-03     234.616E-03    -248.285E-03     479.057E-03    -230.829E-03     198.419E-03
            1821     7.14554E-03     50.1617E-03    -68.3472E+06    -16.6422E+06     16.8390E+06    -1.49756E+06    -236.572E-03     467.561E-03    -230.988E-03     214.421E-03    -245.325E-03     475.963E-03    -230.781E-03     182.330E-03
            1822     6.43077E-03     49.8895E-03    -75.2923E+06    -60.4750E+06     42.5885E+03    -185.054E+03    -235.925E-03     466.865E-03    -230.940E-03     193.622E-03    -242.733E-03     473.191E-03    -230.743E-03     165.568E-03
            1823     5.71663E-03     49.6423E-03    -82.5053E+06    -107.777E+06    -18.4409E+06     227.822E+03    -235.345E-03     466.225E-03    -230.880E-03     172.730E-03    -240.511E-03     470.769E-03    -230.696E-03     148.521E-03
            1824     5.00235E-03     49.4234E-03    -89.6506E+06    -149.605E+06    -35.9857E+06     271.411E+03    -234.538E-03     465.343E-03    -230.805E-03     151.599E-03    -238.343E-03     468.404E-03    -230.638E-03     131.063E-03
            1825     4.28780E-03     49.2326E-03    -96.5519E+06    -183.850E+06    -52.8133E+06     448.100E+03    -233.584E-03     464.313E-03    -230.729E-03     130.236E-03    -236.287E-03     466.173E-03    -230.586E-03     113.171E-03
            1826     3.57375E-03     49.0702E-03    -103.127E+06    -210.823E+06    -69.7506E+06     557.224E+03    -232.719E-03     463.371E-03    -230.653E-03     108.761E-03    -234.547E-03     464.287E-03    -230.546E-03     94.9502E-03
            1827     2.85863E-03     48.9361E-03    -109.165E+06    -248.212E+06    -84.5456E+06     384.605E+03    -232.021E-03     462.625E-03    -230.603E-03     87.1451E-03    -233.160E-03     462.740E-03    -230.508E-03     76.3343E-03
            1828     2.14424E-03     48.8317E-03    -114.925E+06    -276.162E+06    -98.1325E+06     283.001E+03    -231.454E-03     461.983E-03    -230.529E-03     65.5781E-03    -232.087E-03     461.512E-03    -230.453E-03     57.6021E-03
            1829     1.42995E-03     48.7562E-03    -119.567E+06    -283.501E+06    -111.309E+06     577.804E+03    -230.889E-03     461.302E-03    -230.413E-03     44.1121E-03    -231.188E-03     460.493E-03    -230.385E-03     38.8529E-03
            1830     715.083E-06     48.7098E-03    -122.082E+06    -289.593E+06    -120.443E+06     479.753E+03    -230.530E-03     460.814E-03    -230.284E-03     24.1859E-03    -230.633E-03     459.806E-03    -230.289E-03     21.3479E-03
            1831     13.5712E-03     51.5127E-03    -4.82041E+06     70.4580E+06     80.0584E+06    -1.54997E+06    -229.998E-03     461.511E-03    -231.513E-03     144.367E-03    -237.652E-03     469.166E-03    -231.208E-03     115.929E-03
            1832     12.8528E-03     51.2654E-03    -10.3742E+06     66.4809E+06     79.1577E+06    -1.28884E+06    -231.050E-03     462.566E-03    -231.516E-03     202.861E-03    -243.251E-03     474.736E-03    -231.201E-03     165.786E-03
            1833     12.1428E-03     50.9961E-03    -14.3088E+06     61.9906E+06     79.3647E+06    -907.467E+03    -232.924E-03     464.398E-03    -231.474E-03     223.128E-03    -247.043E-03     478.456E-03    -231.146E-03     183.158E-03
            1834     11.4301E-03     50.6860E-03    -19.3537E+06     54.8979E+06     79.4583E+06    -531.441E+03    -234.116E-03     465.523E-03    -231.407E-03     248.835E-03    -250.469E-03     481.772E-03    -231.061E-03     205.545E-03
            1835     10.7157E-03     50.3428E-03    -26.4712E+06     49.4781E+06     77.0655E+06    -77.3620E+03    -235.463E-03     466.805E-03    -231.342E-03     265.198E-03    -252.712E-03     483.912E-03    -230.990E-03     220.410E-03
            1836     10.0016E-03     49.9898E-03    -33.6233E+06     40.8723E+06     68.2416E+06     729.969E+03    -236.940E-03     468.200E-03    -231.260E-03     271.616E-03    -253.861E-03     484.949E-03    -230.929E-03     226.851E-03
            1837     9.28834E-03     49.6275E-03    -40.5714E+06     31.1491E+06     54.4557E+06     2.17272E+06    -237.742E-03     468.891E-03    -231.149E-03     266.293E-03    -253.144E-03     484.102E-03    -230.863E-03     223.327E-03
            1838     8.57420E-03     49.2819E-03    -48.0068E+06     21.5114E+06     41.1779E+06     1.85906E+06    -237.729E-03     468.767E-03    -231.038E-03     252.432E-03    -250.951E-03     481.775E-03    -230.794E-03     212.550E-03
            1839     7.86064E-03     48.9564E-03    -56.6991E+06     8.84743E+06     30.0185E+06    -215.451E+03    -237.207E-03     468.156E-03    -230.949E-03     234.069E-03    -248.106E-03     478.799E-03    -230.730E-03     197.978E-03
            1840     7.14550E-03     48.6578E-03    -65.7639E+06    -18.4127E+06     16.5031E+06    -1.69300E+06    -236.612E-03     467.487E-03    -230.875E-03     213.728E-03    -245.322E-03     475.851E-03    -230.671E-03     181.662E-03
            1841     6.43176E-03     48.3845E-03    -74.0805E+06    -63.0311E+06    -667.068E+03    -1.59334E+06    -236.048E-03     466.848E-03    -230.800E-03     193.039E-03    -242.830E-03     473.146E-03    -230.605E-03     164.968E-03
            1842     5.71761E-03     48.1390E-03    -81.6580E+06    -108.662E+06    -18.7260E+06    -765.926E+03    -235.232E-03     465.949E-03    -230.717E-03     172.174E-03    -240.370E-03     470.466E-03    -230.535E-03     148.015E-03
            1843     5.00310E-03     47.9199E-03    -89.0949E+06    -150.410E+06    -36.1344E+06    -313.611E+03    -234.302E-03     464.942E-03    -230.641E-03     151.100E-03    -238.087E-03     467.982E-03    -230.474E-03     130.614E-03
            1844     4.28883E-03     47.7298E-03    -96.5845E+06    -184.288E+06    -53.2229E+06    -26.4881E+03    -233.472E-03     464.031E-03    -230.559E-03     129.829E-03    -236.163E-03     465.879E-03    -230.418E-03     112.797E-03
            1845     3.57382E-03     47.5674E-03    -103.438E+06    -210.755E+06    -70.2084E+06     116.181E+03    -232.656E-03     463.117E-03    -230.461E-03     108.481E-03    -234.480E-03     464.029E-03    -230.356E-03     94.6871E-03
            1846     2.85973E-03     47.4341E-03     -109.75E+06    -248.081E+06    -85.3213E+06     188.380E+03    -231.891E-03     462.275E-03    -230.384E-03     86.9434E-03    -233.028E-03     462.388E-03    -230.291E-03     76.1654E-03
            1847     2.14483E-03     47.3298E-03    -115.310E+06    -275.868E+06    -99.0368E+06    -137.880E+03    -231.212E-03     461.511E-03    -230.299E-03     65.5804E-03    -231.843E-03     461.040E-03    -230.227E-03     57.6264E-03
            1848     1.42986E-03     47.2544E-03    -119.892E+06    -283.648E+06    -112.278E+06    -277.831E+03    -230.632E-03     460.831E-03    -230.199E-03     44.2863E-03    -230.931E-03     460.024E-03    -230.176E-03     39.0203E-03
            1849     714.940E-06     47.2095E-03    -122.533E+06    -288.578E+06    -120.182E+06     154.928E+03    -229.973E-03     460.420E-03    -230.447E-03     24.2589E-03    -230.080E-03     459.418E-03    -230.451E-03     21.4283E-03
            1850     13.5669E-03     50.0087E-03    -4.44782E+06     72.9594E+06     81.8701E+06         759.374    -231.204E-03     462.760E-03    -231.556E-03     143.622E-03    -238.880E-03     470.442E-03    -231.246E-03     114.923E-03
            1851     12.8579E-03     49.7545E-03    -9.46223E+06     67.5750E+06     80.8651E+06    -2.04580E+06    -232.310E-03     463.788E-03    -231.478E-03     200.519E-03    -244.509E-03     475.959E-03    -231.158E-03     163.078E-03
            1852     12.1435E-03     49.4884E-03    -14.8065E+06     60.0841E+06     78.4823E+06    -1.98250E+06    -232.586E-03     463.977E-03    -231.391E-03     222.923E-03    -246.711E-03     478.035E-03    -231.064E-03     182.930E-03
            1853     11.4301E-03     49.1772E-03    -21.5140E+06     53.3986E+06     77.1394E+06    -1.10902E+06    -233.738E-03     465.078E-03    -231.340E-03     249.990E-03    -250.116E-03     481.346E-03    -231.001E-03     206.747E-03
            1854     10.7159E-03     48.8406E-03    -28.0552E+06     47.7654E+06     75.3252E+06    -470.522E+03    -235.513E-03     466.805E-03    -231.293E-03     265.494E-03    -252.747E-03     483.891E-03    -230.944E-03     220.719E-03
            1855     10.0021E-03     48.4799E-03    -35.0894E+06     39.5248E+06     66.8098E+06     177.098E+03    -237.156E-03     468.354E-03    -231.197E-03     270.996E-03    -254.041E-03     485.061E-03    -230.870E-03     226.223E-03
            1856     9.28884E-03     48.1231E-03    -42.2828E+06     29.4035E+06     54.3592E+06    -598.623E+03    -237.854E-03     468.926E-03    -231.072E-03     265.936E-03    -253.235E-03     484.103E-03    -230.782E-03     222.953E-03
            1857     8.57496E-03     47.7756E-03    -48.1935E+06     20.7592E+06     43.2162E+06    -137.103E+03    -237.773E-03     468.726E-03    -230.953E-03     252.303E-03    -250.975E-03     481.706E-03    -230.697E-03     212.449E-03
            1858     7.86054E-03     47.4519E-03    -54.3984E+06     11.0934E+06     32.7970E+06     1.50211E+06    -237.355E-03     468.194E-03    -230.840E-03     233.495E-03    -248.225E-03     478.816E-03    -230.613E-03     197.448E-03
            1859     7.14740E-03     47.1530E-03    -62.5178E+06    -15.4761E+06     19.0784E+06     1.40216E+06    -236.734E-03     467.466E-03    -230.733E-03     213.139E-03    -245.407E-03     475.807E-03    -230.524E-03     181.155E-03
            1860     6.43302E-03     46.8808E-03    -72.0782E+06    -62.0462E+06     550.499E+03     334.424E+03    -235.987E-03     466.620E-03    -230.633E-03     192.536E-03    -242.731E-03     472.886E-03    -230.435E-03     164.578E-03
            1861     5.71865E-03     46.6354E-03    -81.0840E+06    -109.529E+06    -19.0006E+06    -205.984E+03    -235.151E-03     465.682E-03    -230.531E-03     171.696E-03    -240.268E-03     470.178E-03    -230.350E-03     147.589E-03
            1862     5.00425E-03     46.4177E-03    -89.1061E+06    -150.891E+06    -36.5743E+06    -54.7851E+03    -234.239E-03     464.671E-03    -230.432E-03     150.473E-03    -238.006E-03     467.692E-03    -230.267E-03     130.040E-03
            1863     4.28930E-03     46.2271E-03    -96.5035E+06    -184.135E+06    -53.6025E+06     30.8189E+03    -233.281E-03     463.609E-03    -230.329E-03     129.122E-03    -235.954E-03     465.442E-03    -230.190E-03     112.154E-03
            1864     3.57517E-03     46.0655E-03    -103.416E+06    -211.149E+06    -70.6892E+06    -174.145E+03    -232.382E-03     462.606E-03    -230.224E-03     107.880E-03    -234.194E-03     463.507E-03    -230.122E-03     94.1260E-03
            1865     2.85988E-03     45.9324E-03    -109.613E+06    -247.989E+06    -85.2936E+06    -202.954E+03    -231.601E-03     461.756E-03    -230.155E-03     86.5806E-03    -232.731E-03     461.864E-03    -230.063E-03     75.8318E-03
            1866     2.14520E-03     45.8287E-03    -115.204E+06    -275.551E+06    -98.6952E+06    -67.2906E+03    -230.863E-03     460.963E-03    -230.100E-03     65.2269E-03    -231.491E-03     460.490E-03    -230.026E-03     57.3015E-03
            1867     1.43004E-03     45.7541E-03    -120.148E+06    -283.554E+06    -112.354E+06    -136.933E+03    -230.313E-03     460.378E-03    -230.065E-03     44.0516E-03    -230.613E-03     459.570E-03    -230.041E-03     38.7887E-03
            1868     714.961E-06     45.7079E-03    -123.135E+06    -289.496E+06    -121.733E+06    -570.853E+03    -230.415E-03     460.228E-03    -229.813E-03     23.9320E-03    -230.522E-03     459.224E-03    -229.823E-03     21.0813E-03
            1869     13.5719E-03     48.4938E-03    -5.34067E+06     76.6582E+06     84.0607E+06    -707.003E+03    -232.407E-03     463.923E-03    -231.516E-03     142.395E-03    -240.085E-03     471.610E-03    -231.199E-03     113.572E-03
            1870     12.8581E-03     48.2470E-03    -8.92057E+06     68.2097E+06     82.4852E+06    -625.009E+03    -231.729E-03     463.146E-03    -231.417E-03     200.871E-03    -243.917E-03     475.306E-03    -231.091E-03     163.597E-03
            1871     12.1445E-03     47.9834E-03    -14.8132E+06     57.9316E+06     78.1792E+06     92.5228E+03    -232.071E-03     463.433E-03    -231.362E-03     224.118E-03    -246.184E-03     477.473E-03    -231.033E-03     184.291E-03
            1872     11.4291E-03     47.6713E-03    -21.6399E+06     54.7098E+06     76.7245E+06     1.81553E+03    -234.042E-03     465.357E-03    -231.315E-03     249.590E-03    -250.388E-03     481.597E-03    -230.979E-03     206.329E-03
            1873     10.7166E-03     47.3314E-03    -28.5200E+06     46.2725E+06     73.8578E+06    -423.559E+03    -236.008E-03     467.240E-03    -231.232E-03     264.718E-03    -253.219E-03     484.300E-03    -230.889E-03     219.851E-03
            1874     10.0037E-03     46.9754E-03    -35.5910E+06     39.6215E+06     64.3940E+06    -742.336E+03    -237.196E-03     468.297E-03    -231.101E-03     270.476E-03    -254.047E-03     484.976E-03    -230.785E-03     225.703E-03
            1875     9.28938E-03     46.6162E-03    -42.4874E+06     30.9343E+06     51.6159E+06    -1.13135E+06    -237.793E-03     468.752E-03    -230.960E-03     265.195E-03    -253.133E-03     483.902E-03    -230.685E-03     222.228E-03
            1876     8.57579E-03     46.2710E-03    -50.9560E+06     18.7508E+06     38.6859E+06    -1.62334E+06    -237.915E-03     468.734E-03    -230.819E-03     251.431E-03    -251.085E-03     481.677E-03    -230.579E-03     211.553E-03
            1877     7.86254E-03     45.9465E-03    -59.6559E+06     7.53667E+06     28.5861E+06    -1.77172E+06    -237.400E-03     468.085E-03    -230.684E-03     232.725E-03    -248.233E-03     478.649E-03    -230.466E-03     196.710E-03
            1878     7.14798E-03     45.6487E-03    -67.2551E+06    -16.3933E+06     16.7424E+06    -770.575E+03    -236.690E-03     467.250E-03    -230.559E-03     212.552E-03    -245.344E-03     475.558E-03    -230.354E-03     180.623E-03
            1879     6.43398E-03     45.3771E-03    -74.2524E+06    -61.6029E+06    -358.088E+03     160.007E+03    -235.953E-03     466.391E-03    -230.438E-03     191.850E-03    -242.682E-03     472.639E-03    -230.243E-03     163.940E-03
            1880     5.71969E-03     45.1325E-03    -81.4976E+06    -108.969E+06    -18.9268E+06     176.367E+03    -235.097E-03     465.408E-03    -230.311E-03     170.857E-03    -240.193E-03     469.882E-03    -230.129E-03     146.806E-03
            1881     5.00541E-03     44.9147E-03    -89.0654E+06    -150.814E+06    -36.6824E+06    -81.3805E+03    -234.129E-03     464.311E-03    -230.182E-03     149.820E-03    -237.879E-03     467.315E-03    -230.017E-03     129.438E-03
            1882     4.29134E-03     44.7259E-03    -96.1635E+06    -184.274E+06    -53.3735E+06    -49.4223E+03    -233.122E-03     463.177E-03    -230.054E-03     128.713E-03    -235.782E-03     464.996E-03    -229.915E-03     111.796E-03
            1883     3.57578E-03     44.5643E-03    -102.814E+06    -210.673E+06    -70.1743E+06    -79.8329E+03    -232.123E-03     462.056E-03    -229.933E-03     107.392E-03    -233.922E-03     462.946E-03    -229.830E-03     93.7044E-03
            1884     2.86113E-03     44.4319E-03    -109.159E+06    -248.015E+06    -84.9128E+06    -169.598E+03    -231.247E-03     461.109E-03    -229.863E-03     85.9521E-03    -232.366E-03     461.207E-03    -229.769E-03     75.2576E-03
            1885     2.14569E-03     44.3283E-03    -114.843E+06    -276.035E+06    -98.4664E+06    -35.7320E+03    -230.572E-03     460.380E-03    -229.808E-03     64.6422E-03    -231.194E-03     459.899E-03    -229.733E-03     56.7416E-03
            1886     1.43050E-03     44.2542E-03    -119.226E+06    -283.202E+06    -111.039E+06    -27.2164E+03    -230.117E-03     459.852E-03    -229.735E-03     43.6150E-03    -230.412E-03     459.041E-03    -229.707E-03     38.3814E-03
            1887     715.117E-06     44.2075E-03    -123.402E+06    -290.069E+06    -120.588E+06     16.6784E+03    -230.228E-03     459.488E-03    -229.260E-03     23.9457E-03    -230.336E-03     458.479E-03    -229.264E-03     21.0828E-03
            1888     13.5706E-03     46.9834E-03    -4.69235E+06     76.8297E+06     82.8007E+06    -122.956E+03    -230.720E-03     462.186E-03    -231.466E-03     143.707E-03    -238.385E-03     469.867E-03    -231.157E-03     115.106E-03
            1889     12.8571E-03     46.7421E-03    -10.8562E+06     67.7664E+06     79.3855E+06    -259.838E+03    -231.372E-03     462.793E-03    -231.421E-03     201.208E-03    -243.567E-03     474.959E-03    -231.106E-03     163.949E-03
            1890     12.1425E-03     46.4748E-03    -15.7276E+06     56.8865E+06     77.1895E+06    -591.183E+03    -233.131E-03     464.483E-03    -231.351E-03     223.324E-03    -247.231E-03     478.505E-03    -231.025E-03     183.305E-03
            1891     11.4315E-03     46.1639E-03    -19.9430E+06     53.6114E+06     78.0482E+06     490.051E+03    -234.527E-03     465.784E-03    -231.257E-03     248.625E-03    -250.810E-03     481.960E-03    -230.916E-03     205.351E-03
            1892     10.7176E-03     45.8247E-03    -25.8913E+06     48.3867E+06     75.8816E+06     1.04548E+06    -235.885E-03     467.038E-03    -231.153E-03     264.235E-03    -253.030E-03     484.043E-03    -230.806E-03     219.483E-03
            1893     10.0038E-03     45.4681E-03    -32.8506E+06     41.4621E+06     67.2249E+06     99.7768E+03    -237.250E-03     468.272E-03    -231.022E-03     270.173E-03    -254.050E-03     484.908E-03    -230.699E-03     225.469E-03
            1894     9.29101E-03     45.1114E-03    -40.4139E+06     30.1966E+06     54.8974E+06     707.733E+03    -238.204E-03     469.069E-03    -230.864E-03     265.069E-03    -253.505E-03     484.174E-03    -230.575E-03     222.140E-03
            1895     8.57747E-03     44.7648E-03    -48.0587E+06     20.1474E+06     42.0953E+06     1.87805E+06    -238.179E-03     468.862E-03    -230.683E-03     250.794E-03    -251.291E-03     481.753E-03    -230.432E-03     211.018E-03
            1896     7.86338E-03     44.4424E-03    -56.3427E+06     10.9018E+06     30.7046E+06     957.091E+03    -237.452E-03     467.959E-03    -230.507E-03     231.976E-03    -248.235E-03     478.491E-03    -230.288E-03     196.060E-03
            1897     7.14979E-03     44.1448E-03    -65.1264E+06    -16.7232E+06     17.3525E+06    -906.695E+03    -236.726E-03     467.077E-03    -230.352E-03     211.683E-03    -245.345E-03     475.356E-03    -230.146E-03     179.769E-03
            1898     6.43567E-03     43.8738E-03    -73.4397E+06    -63.5522E+06    -350.819E+03    -1.02180E+06    -235.902E-03     466.100E-03    -230.198E-03     190.816E-03    -242.592E-03     472.305E-03    -230.002E-03     162.942E-03
            1899     5.72168E-03     43.6298E-03    -81.0779E+06    -109.020E+06    -18.7429E+06    -380.343E+03    -234.877E-03     464.925E-03    -230.047E-03     170.130E-03    -239.940E-03     469.367E-03    -229.865E-03     146.172E-03
            1900     5.00696E-03     43.4136E-03    -88.2822E+06    -150.838E+06    -36.0611E+06    -219.348E+03    -233.905E-03     463.813E-03    -229.908E-03     149.331E-03    -237.631E-03     466.795E-03    -229.741E-03     129.028E-03
            1901     4.29157E-03     43.2243E-03    -95.6035E+06    -184.546E+06    -52.7610E+06    -201.369E+03    -232.962E-03     462.724E-03    -229.761E-03     128.114E-03    -235.605E-03     464.525E-03    -229.619E-03     111.244E-03
            1902     3.57745E-03     43.0642E-03    -102.567E+06    -210.306E+06     -69.662E+06     148.118E+03    -231.920E-03     461.529E-03    -229.609E-03     106.790E-03    -233.708E-03     462.408E-03    -229.504E-03     93.1573E-03
            1903     2.86189E-03     42.9320E-03    -108.788E+06    -247.794E+06    -84.6118E+06     166.268E+03    -231.022E-03     460.525E-03    -229.503E-03     85.5073E-03    -232.133E-03     460.615E-03    -229.409E-03     74.8694E-03
            1904     2.14671E-03     42.8295E-03    -114.656E+06    -276.507E+06    -98.2639E+06    -252.115E+03    -230.341E-03     459.737E-03    -229.397E-03     64.2432E-03    -230.956E-03     459.249E-03    -229.321E-03     56.3821E-03
            1905     1.43128E-03     42.7544E-03    -119.374E+06    -283.730E+06    -111.286E+06    -25.8624E+03    -229.790E-03     459.039E-03    -229.249E-03     43.3550E-03    -230.082E-03     458.223E-03    -229.221E-03     38.1475E-03
            1906     716.092E-06     42.7092E-03    -122.748E+06    -289.895E+06    -120.671E+06     365.748E+03    -229.220E-03     458.433E-03    -229.213E-03     23.7196E-03    -229.324E-03     457.423E-03    -229.218E-03     20.8885E-03
            1907     13.5708E-03     45.4816E-03    -4.66385E+06     74.5846E+06     80.7403E+06     1.64226E+06    -230.955E-03     462.426E-03    -231.471E-03     143.486E-03    -238.581E-03     470.066E-03    -231.168E-03     114.924E-03
            1908     12.8558E-03     45.2313E-03    -8.74208E+06     71.9924E+06     80.8775E+06     563.911E+03    -232.142E-03     463.543E-03    -231.400E-03     200.014E-03    -244.286E-03     475.677E-03    -231.088E-03     162.665E-03
            1909     12.1459E-03     44.9661E-03    -14.2104E+06     59.1411E+06     77.6628E+06    -1.33939E+06    -233.322E-03     464.615E-03    -231.293E-03     222.186E-03    -247.390E-03     478.617E-03    -230.970E-03     182.090E-03
            1910     11.4315E-03     44.6566E-03    -20.4855E+06     49.1919E+06     76.1293E+06    -1.31532E+06    -234.522E-03     465.710E-03    -231.188E-03     248.825E-03    -250.788E-03     481.857E-03    -230.849E-03     205.538E-03
            1911     10.7185E-03     44.3179E-03    -26.4548E+06     47.6638E+06     75.2905E+06    -201.325E+03    -236.060E-03     467.139E-03    -231.078E-03     264.183E-03    -253.155E-03     484.091E-03    -230.733E-03     219.475E-03
            1912     10.0051E-03     43.9628E-03    -33.2466E+06     41.3499E+06     66.5028E+06     1.01870E+06    -237.613E-03     468.534E-03    -230.922E-03     269.574E-03    -254.346E-03     485.104E-03    -230.601E-03     224.911E-03
            1913     9.29117E-03     43.6036E-03    -41.0540E+06     29.1119E+06     53.3233E+06     1.12131E+06    -238.520E-03     469.241E-03    -230.721E-03     263.915E-03    -253.759E-03     484.282E-03    -230.437E-03     220.994E-03
            1914     8.57848E-03     43.2592E-03    -48.0579E+06     19.6367E+06     42.3806E+06     729.356E+03    -238.215E-03     468.723E-03    -230.507E-03     249.380E-03    -251.259E-03     481.543E-03    -230.254E-03     209.659E-03
            1915     7.86535E-03     42.9380E-03    -54.4251E+06     12.8701E+06     33.7727E+06     1.19330E+06    -237.502E-03     467.807E-03    -230.305E-03     231.001E-03    -248.247E-03     478.306E-03    -230.076E-03     195.120E-03
            1916     7.15144E-03     42.6405E-03    -62.2016E+06    -14.0883E+06     20.0188E+06     1.57093E+06    -236.674E-03     466.790E-03    -230.116E-03     210.972E-03    -245.250E-03     475.037E-03    -229.905E-03     179.167E-03
            1917     6.43773E-03     42.3711E-03    -71.2472E+06    -62.2132E+06     868.019E+03     807.183E+03    -235.720E-03     465.662E-03    -229.942E-03     190.423E-03    -242.369E-03     471.835E-03    -229.744E-03     162.687E-03
            1918     5.72281E-03     42.1284E-03    -79.9721E+06    -109.031E+06    -18.0137E+06     99.7251E+03    -234.827E-03     464.599E-03    -229.772E-03     169.603E-03    -239.860E-03     469.013E-03    -229.588E-03     145.728E-03
            1919     5.00814E-03     41.9123E-03    -87.9544E+06    -150.986E+06    -35.6925E+06     84.8560E+03    -233.830E-03     463.425E-03    -229.595E-03     148.452E-03    -237.528E-03     466.378E-03    -229.427E-03     128.225E-03
            1920     4.29409E-03     41.7241E-03    -95.3530E+06    -184.288E+06    -52.7791E+06     90.6677E+03    -232.658E-03     462.075E-03    -229.416E-03     127.232E-03    -235.279E-03     463.856E-03    -229.275E-03     110.453E-03
            1921     3.57824E-03     41.5645E-03    -102.220E+06    -210.481E+06    -69.5235E+06    -113.351E+03    -231.568E-03     460.821E-03    -229.254E-03     106.175E-03    -233.340E-03     461.685E-03    -229.148E-03     92.6133E-03
            1922     2.86318E-03     41.4335E-03    -108.432E+06    -247.790E+06    -83.9094E+06    -88.7991E+03    -230.730E-03     459.865E-03    -229.135E-03     85.2260E-03    -231.835E-03     459.948E-03    -229.038E-03     74.6200E-03
            1923     2.14773E-03     41.3305E-03    -114.249E+06    -276.381E+06    -97.6712E+06     159.923E+03    -229.998E-03     459.008E-03    -229.010E-03     64.2213E-03    -230.609E-03     458.515E-03    -228.932E-03     56.4154E-03
            1924     1.43206E-03     41.2575E-03    -119.389E+06    -284.377E+06    -111.744E+06     58.0229E+03    -229.335E-03     458.209E-03    -228.874E-03     43.5060E-03    -229.625E-03     457.390E-03    -228.847E-03     38.3247E-03
            1925     715.698E-06     41.2113E-03    -121.082E+06    -288.895E+06    -119.405E+06     72.0576E+03    -228.890E-03     457.736E-03    -228.846E-03     23.4138E-03    -228.989E-03     456.726E-03    -228.848E-03     20.6133E-03
            1926     13.5699E-03     43.9713E-03    -3.51128E+06     73.8007E+06     82.2963E+06     537.494E+03    -232.153E-03     463.618E-03    -231.465E-03     142.594E-03    -239.769E-03     471.245E-03    -231.156E-03     113.872E-03
            1927     12.8604E-03     43.7226E-03    -7.95158E+06     74.5465E+06     82.0886E+06     1.05088E+06    -232.272E-03     463.627E-03    -231.356E-03     200.915E-03    -244.404E-03     475.758E-03    -231.042E-03     163.645E-03
            1928     12.1444E-03     43.4586E-03    -13.5958E+06     60.8060E+06     78.0443E+06     506.475E+03    -233.151E-03     464.405E-03    -231.254E-03     222.962E-03    -247.190E-03     478.385E-03    -230.932E-03     183.016E-03
            1929     11.4320E-03     43.1491E-03    -19.5844E+06     49.4257E+06     76.2380E+06     274.283E+03    -234.852E-03     465.998E-03    -231.146E-03     248.577E-03    -251.075E-03     482.106E-03    -230.808E-03     205.308E-03
            1930     10.7188E-03     42.8102E-03    -26.7449E+06     46.3119E+06     74.1015E+06     342.203E+03    -236.763E-03     467.756E-03    -230.993E-03     263.357E-03    -253.821E-03     484.669E-03    -230.651E-03     218.536E-03
            1931     10.0061E-03     42.4559E-03    -34.3676E+06     39.7862E+06     65.2989E+06     239.566E+03    -238.337E-03     469.107E-03    -230.770E-03     268.397E-03    -255.032E-03     485.632E-03    -230.451E-03     223.599E-03
            1932     9.29453E-03     42.0968E-03    -40.8466E+06     29.8965E+06     53.9963E+06     435.423E+03    -238.517E-03     469.037E-03    -230.520E-03     262.388E-03    -253.668E-03     483.992E-03    -230.234E-03     219.563E-03
            1933     8.58101E-03     41.7553E-03    -47.8980E+06     20.1726E+06     42.2392E+06     308.708E+03    -237.999E-03     468.283E-03    -230.285E-03     248.509E-03    -250.975E-03     481.039E-03    -230.033E-03     208.915E-03
            1934     7.86711E-03     41.4328E-03    -56.6212E+06     10.9318E+06     31.3865E+06     18.6024E+03    -237.403E-03     467.470E-03    -230.068E-03     230.552E-03    -248.107E-03     477.922E-03    -229.844E-03     194.754E-03
            1935     7.15354E-03     41.1381E-03    -64.8913E+06    -14.6701E+06     18.6487E+06     527.880E+03    -236.523E-03     466.390E-03    -229.867E-03     210.221E-03    -245.054E-03     474.585E-03    -229.659E-03     178.537E-03
            1936     6.43847E-03     40.8689E-03    -72.2938E+06    -60.5348E+06     1.33388E+06     918.708E+03    -235.693E-03     465.364E-03    -229.670E-03     189.377E-03    -242.308E-03     471.503E-03    -229.471E-03     161.729E-03
            1937     5.72473E-03     40.6266E-03    -79.9990E+06    -108.010E+06    -17.5453E+06     799.386E+03    -234.802E-03     464.258E-03    -229.456E-03     168.425E-03    -239.800E-03     468.639E-03    -229.271E-03     144.635E-03
            1938     5.01063E-03     40.4117E-03    -87.7342E+06    -150.493E+06    -35.3666E+06     474.503E+03    -233.608E-03     462.847E-03    -229.239E-03     147.560E-03    -237.281E-03     465.778E-03    -229.071E-03     127.422E-03
            1939     4.29490E-03     40.2250E-03    -94.8609E+06    -183.910E+06    -52.3287E+06     290.947E+03    -232.330E-03     461.370E-03    -229.040E-03     126.545E-03    -234.930E-03     463.132E-03    -228.897E-03     109.871E-03
            1940     3.58000E-03     40.0664E-03    -101.526E+06    -210.083E+06    -69.2264E+06    -95.0716E+03    -231.196E-03     460.061E-03    -228.864E-03     105.553E-03    -232.951E-03     460.910E-03    -228.759E-03     92.0723E-03
            1941     2.86410E-03     39.9354E-03    -107.957E+06    -248.349E+06    -83.8363E+06    -273.077E+03    -230.241E-03     458.993E-03    -228.752E-03     84.6802E-03    -231.334E-03     459.064E-03    -228.654E-03     74.1363E-03
            1942     2.14808E-03     39.8340E-03    -113.466E+06    -276.247E+06    -97.0848E+06     164.621E+03    -229.481E-03     458.146E-03    -228.665E-03     63.8399E-03    -230.085E-03     457.648E-03    -228.585E-03     56.0652E-03
            1943     1.43198E-03     39.7601E-03    -117.830E+06    -283.611E+06    -110.529E+06    -104.782E+03    -228.952E-03     457.528E-03    -228.576E-03     43.1089E-03    -229.236E-03     456.707E-03    -228.546E-03     37.9424E-03
            1944     716.266E-06     39.7159E-03    -120.187E+06    -289.202E+06    -119.212E+06    -707.985E+03    -229.047E-03     457.175E-03    -228.128E-03     23.3516E-03    -229.140E-03     456.162E-03    -228.131E-03     20.5598E-03
            1945     13.5727E-03     42.4613E-03    -4.25847E+06     73.3298E+06     82.1224E+06    -344.685E+03    -231.864E-03     463.326E-03    -231.463E-03     143.714E-03    -239.508E-03     470.977E-03    -231.152E-03     114.965E-03
            1946     12.8560E-03     42.2153E-03    -9.57572E+06     73.0523E+06     80.2474E+06     370.935E+03    -232.512E-03     463.862E-03    -231.350E-03     200.878E-03    -244.627E-03     475.970E-03    -231.041E-03     163.563E-03
            1947     12.1451E-03     41.9495E-03    -14.7636E+06     60.9703E+06     76.8995E+06     952.258E+03    -233.686E-03     464.909E-03    -231.223E-03     222.084E-03    -247.672E-03     478.836E-03    -230.906E-03     182.098E-03
            1948     11.4326E-03     41.6402E-03    -21.3220E+06     50.6350E+06     75.5720E+06     600.310E+03    -235.609E-03     466.675E-03    -231.067E-03     247.320E-03    -251.799E-03     482.750E-03    -230.731E-03     203.900E-03
            1949     10.7203E-03     41.3032E-03    -27.8587E+06     46.2072E+06     74.0491E+06     124.928E+03    -237.494E-03     468.343E-03    -230.850E-03     262.010E-03    -254.504E-03     485.204E-03    -230.506E-03     217.068E-03
            1950     10.0091E-03     40.9457E-03    -33.5897E+06     39.8137E+06     66.9826E+06    -30.9792E+03    -238.311E-03     468.897E-03    -230.586E-03     267.236E-03    -254.925E-03     485.339E-03    -230.260E-03     222.535E-03
            1951     9.29582E-03     40.5926E-03    -40.8487E+06     29.6506E+06     55.0434E+06     9.79575E+03    -238.264E-03     468.591E-03    -230.327E-03     262.104E-03    -253.355E-03     483.483E-03    -230.036E-03     219.432E-03
            1952     8.58231E-03     40.2497E-03    -48.6107E+06     19.2789E+06     42.1527E+06     276.313E+03    -238.108E-03     468.189E-03    -230.081E-03     248.643E-03    -251.053E-03     480.908E-03    -229.828E-03     209.123E-03
            1953     7.86902E-03     39.9298E-03    -55.6186E+06     11.2188E+06     32.2873E+06     770.117E+03    -237.525E-03     467.361E-03    -229.836E-03     229.694E-03    -248.167E-03     477.752E-03    -229.610E-03     194.000E-03
            1954     7.15463E-03     39.6347E-03    -63.5749E+06    -14.6157E+06     19.5291E+06     664.617E+03    -236.688E-03     466.276E-03    -229.588E-03     208.926E-03    -245.160E-03     474.413E-03    -229.377E-03     177.313E-03
            1955     6.44179E-03     39.3673E-03    -72.2753E+06    -60.3673E+06     1.42703E+06     557.483E+03    -235.727E-03     465.060E-03    -229.333E-03     188.099E-03    -242.296E-03     471.153E-03    -229.133E-03     160.530E-03
            1956     5.72712E-03     39.1257E-03    -80.1575E+06    -107.182E+06    -17.5765E+06     352.567E+03    -234.483E-03     463.563E-03    -229.081E-03     167.415E-03    -239.446E-03     467.913E-03    -228.897E-03     143.735E-03
            1957     5.01178E-03     38.9125E-03    -87.2429E+06    -150.000E+06    -35.1268E+06     217.327E+03    -233.217E-03     462.069E-03    -228.852E-03     146.518E-03    -236.858E-03     464.969E-03    -228.683E-03     126.500E-03
            1958     4.29723E-03     38.7267E-03    -94.3162E+06    -183.883E+06    -52.0115E+06     193.956E+03    -232.024E-03     460.658E-03    -228.635E-03     125.607E-03    -234.600E-03     462.398E-03    -228.491E-03     109.008E-03
            1959     3.58133E-03     38.5690E-03    -101.058E+06    -209.693E+06    -69.0710E+06     137.190E+03    -230.886E-03     459.313E-03    -228.427E-03     104.730E-03    -232.627E-03     460.151E-03    -228.322E-03     91.3078E-03
            1960     2.86548E-03     38.4394E-03    -107.284E+06    -248.007E+06    -83.9485E+06    -3.66968E+03    -229.872E-03     458.149E-03    -228.277E-03     83.7043E-03    -230.948E-03     458.207E-03    -228.182E-03     73.2363E-03
            1961     2.14933E-03     38.3379E-03    -113.025E+06    -276.651E+06    -97.0520E+06    -344.661E+03    -229.007E-03     457.171E-03    -228.165E-03     62.8727E-03    -229.599E-03     456.662E-03    -228.085E-03     55.1493E-03
            1962     1.43297E-03     38.2649E-03    -117.618E+06    -283.312E+06    -109.160E+06     20.6542E+03    -228.372E-03     456.460E-03    -228.088E-03     42.4444E-03    -228.651E-03     455.633E-03    -228.053E-03     37.3404E-03
            1963     716.327E-06     38.2196E-03    -121.251E+06    -289.937E+06    -119.121E+06     548.064E+03    -228.244E-03     456.222E-03    -227.978E-03     23.6160E-03    -228.341E-03     455.206E-03    -227.977E-03     20.8575E-03
            1964     13.5679E-03     40.9524E-03    -3.90691E+06     73.5366E+06     81.6021E+06     294.854E+03    -232.320E-03     463.774E-03    -231.454E-03     142.865E-03    -239.905E-03     471.370E-03    -231.147E-03     114.124E-03
            1965     12.8597E-03     40.7040E-03    -9.33834E+06     71.3185E+06     80.1557E+06     2.17485E+03    -233.021E-03     464.332E-03    -231.311E-03     198.789E-03    -245.061E-03     476.360E-03    -231.000E-03     161.379E-03
            1966     12.1463E-03     40.4421E-03    -15.1728E+06     60.4931E+06     76.9809E+06     1.59440E+06    -234.422E-03     465.558E-03    -231.136E-03     221.150E-03    -248.368E-03     479.442E-03    -230.817E-03     181.037E-03
            1967     11.4340E-03     40.1303E-03    -20.5954E+06     53.5313E+06     76.7329E+06     1.41985E+06    -236.287E-03     467.209E-03    -230.922E-03     246.350E-03    -252.411E-03     483.228E-03    -230.586E-03     202.872E-03
            1968     10.7235E-03     39.7928E-03    -27.1440E+06     47.8463E+06     75.2015E+06    -192.591E+03    -237.306E-03     467.983E-03    -230.677E-03     261.252E-03    -254.229E-03     484.761E-03    -230.331E-03     216.459E-03
            1969     10.0104E-03     39.4404E-03    -34.4686E+06     38.6633E+06     66.6126E+06    -611.996E+03    -237.809E-03     468.236E-03    -230.427E-03     267.158E-03    -254.343E-03     484.592E-03    -230.100E-03     222.704E-03
            1970     9.29702E-03     39.0871E-03    -41.3726E+06     28.2497E+06     53.7466E+06    -378.050E+03    -238.504E-03     468.667E-03    -230.163E-03     261.774E-03    -253.547E-03     483.509E-03    -229.876E-03     219.124E-03
            1971     8.58402E-03     38.7450E-03    -48.2234E+06     19.4454E+06     41.9928E+06    -262.107E+03    -238.558E-03     468.428E-03    -229.870E-03     247.305E-03    -251.440E-03     481.085E-03    -229.618E-03     207.770E-03
            1972     7.87080E-03     38.4253E-03    -56.1016E+06     10.1894E+06     32.2531E+06    -127.190E+03    -237.772E-03     467.335E-03    -229.563E-03     228.229E-03    -248.347E-03     477.653E-03    -229.335E-03     192.584E-03
            1973     7.15823E-03     38.1325E-03    -64.3221E+06    -14.5728E+06     18.9592E+06     361.823E+03    -236.785E-03     466.037E-03    -229.252E-03     207.812E-03    -245.211E-03     474.129E-03    -229.043E-03     176.273E-03
            1974     6.44343E-03     37.8652E-03    -71.8329E+06    -59.3829E+06     1.33437E+06     204.186E+03    -235.552E-03     464.505E-03    -228.953E-03     186.971E-03    -242.073E-03     470.556E-03    -228.756E-03     159.516E-03
            1975     5.72919E-03     37.6268E-03    -79.0062E+06    -107.059E+06    -17.2844E+06    -127.527E+03    -234.202E-03     462.875E-03    -228.673E-03     166.253E-03    -239.124E-03     467.187E-03    -228.490E-03     142.676E-03
            1976     5.01467E-03     37.4137E-03    -86.5704E+06    -150.283E+06    -35.1567E+06     212.222E+03    -232.902E-03     461.317E-03    -228.416E-03     145.419E-03    -236.508E-03     464.185E-03    -228.248E-03     125.505E-03
            1977     4.29871E-03     37.2300E-03    -93.9611E+06    -183.799E+06    -52.2640E+06     381.220E+03    -231.690E-03     459.857E-03    -228.167E-03     124.595E-03    -234.242E-03     461.575E-03    -228.026E-03     108.081E-03
            1978     3.58319E-03     37.0725E-03    -100.792E+06    -209.156E+06    -69.0636E+06     242.314E+03    -230.562E-03     458.482E-03    -227.920E-03     103.763E-03    -232.287E-03     459.307E-03    -227.816E-03     90.4100E-03
            1979     2.86724E-03     36.9443E-03    -106.808E+06    -247.328E+06    -83.4471E+06     187.812E+03    -229.553E-03     457.266E-03    -227.713E-03     82.9012E-03    -230.618E-03     457.316E-03    -227.617E-03     72.4968E-03
            1980     2.15088E-03     36.8437E-03    -112.452E+06    -276.579E+06    -96.9467E+06     211.548E+03    -228.649E-03     456.161E-03    -227.512E-03     62.2714E-03    -229.231E-03     455.644E-03    -227.433E-03     54.6190E-03
            1981     1.43398E-03     36.7716E-03    -117.378E+06    -284.150E+06    -109.987E+06     301.314E+03    -227.890E-03     455.194E-03    -227.304E-03     41.7390E-03    -228.161E-03     454.358E-03    -227.271E-03     36.7004E-03
            1982     716.820E-06     36.7263E-03    -120.515E+06    -289.057E+06    -117.528E+06     270.589E+03    -226.872E-03     454.498E-03    -227.626E-03     22.6733E-03    -226.965E-03     453.478E-03    -227.620E-03     19.9617E-03
            1983     13.5747E-03     39.4393E-03    -4.78566E+06     72.7859E+06     81.5295E+06     541.701E+03    -233.131E-03     464.540E-03    -231.409E-03     142.211E-03    -240.682E-03     472.097E-03    -231.100E-03     113.451E-03
            1984     12.8589E-03     39.1978E-03    -9.41268E+06     69.0691E+06     80.6342E+06     1.55953E+06    -233.623E-03     464.853E-03    -231.230E-03     198.959E-03    -245.644E-03     476.852E-03    -230.913E-03     161.527E-03
            1985     12.1472E-03     38.9296E-03    -14.4863E+06     60.7859E+06     78.6647E+06     1.56511E+06    -235.148E-03     466.161E-03    -231.012E-03     220.914E-03    -249.068E-03     480.017E-03    -230.686E-03     180.698E-03
            1986     11.4376E-03     38.6209E-03    -19.7136E+06     55.5265E+06     77.9604E+06     1.04033E+06    -236.029E-03     466.801E-03    -230.773E-03     246.074E-03    -252.071E-03     482.745E-03    -230.435E-03     202.757E-03
            1987     10.7241E-03     38.2851E-03    -25.4919E+06     49.4233E+06     75.7945E+06     965.526E+03    -236.733E-03     467.281E-03    -230.547E-03     261.131E-03    -253.571E-03     483.983E-03    -230.203E-03     216.571E-03
            1988     10.0108E-03     37.9353E-03    -32.9974E+06     40.7636E+06     67.1647E+06     663.833E+03    -238.213E-03     468.505E-03    -230.293E-03     266.502E-03    -254.686E-03     484.811E-03    -229.968E-03     222.037E-03
            1989     9.29843E-03     37.5794E-03    -40.5928E+06     28.7977E+06     55.3172E+06    -617.438E+03    -239.189E-03     469.166E-03    -229.976E-03     260.415E-03    -254.158E-03     483.932E-03    -229.682E-03     217.720E-03
            1990     8.58675E-03     37.2397E-03    -48.0510E+06     18.6203E+06     42.6620E+06    -731.940E+03    -238.862E-03     468.471E-03    -229.610E-03     245.781E-03    -251.663E-03     481.044E-03    -229.354E-03     206.299E-03
            1991     7.87394E-03     36.9222E-03    -55.5786E+06     9.55216E+06     31.5408E+06     25.0722E+03    -237.912E-03     467.150E-03    -229.238E-03     227.038E-03    -248.422E-03     477.405E-03    -229.013E-03     191.484E-03
            1992     7.15975E-03     36.6293E-03    -62.8851E+06    -14.2372E+06     19.1804E+06    -232.064E+03    -236.656E-03     465.542E-03    -228.885E-03     206.452E-03    -245.017E-03     473.573E-03    -228.678E-03     175.025E-03
            1993     6.44664E-03     36.3656E-03    -70.5295E+06    -59.5288E+06     1.72003E+06    -201.918E+03    -235.310E-03     463.864E-03    -228.554E-03     185.615E-03    -241.778E-03     469.866E-03    -228.357E-03     158.266E-03
            1994     5.73201E-03     36.1272E-03    -78.9063E+06    -107.385E+06    -17.5871E+06     403.452E+03    -233.997E-03     462.233E-03    -228.236E-03     165.046E-03    -238.881E-03     466.507E-03    -228.054E-03     141.574E-03
            1995     5.01647E-03     35.9173E-03    -86.8606E+06    -150.352E+06    -35.7371E+06     478.216E+03    -232.676E-03     460.609E-03    -227.933E-03     144.305E-03    -236.254E-03     463.448E-03    -227.768E-03     124.487E-03
            1996     4.30141E-03     35.7333E-03    -94.0842E+06    -183.786E+06    -53.2439E+06     509.111E+03    -231.388E-03     459.021E-03    -227.633E-03     123.483E-03    -233.912E-03     460.713E-03    -227.497E-03     107.082E-03
            1997     3.58535E-03     35.5782E-03    -100.458E+06    -208.427E+06    -69.5399E+06     488.527E+03    -230.127E-03     457.471E-03    -227.344E-03     102.763E-03    -231.832E-03     458.280E-03    -227.243E-03     89.5097E-03
            1998     2.86880E-03     35.4502E-03    -106.594E+06    -247.140E+06    -83.1165E+06     383.364E+03    -229.019E-03     456.129E-03    -227.109E-03     82.0988E-03    -230.072E-03     456.167E-03    -227.012E-03     71.7715E-03
            1999     2.15212E-03     35.3514E-03    -112.474E+06    -276.667E+06    -96.2218E+06     533.896E+03    -228.104E-03     454.983E-03    -226.879E-03     61.8154E-03    -228.682E-03     454.459E-03    -226.796E-03     54.2217E-03
            2000     1.43546E-03     35.2793E-03    -116.441E+06    -283.181E+06    -108.539E+06     168.213E+03    -227.361E-03     453.974E-03    -226.613E-03     41.9322E-03    -227.631E-03     453.140E-03    -226.576E-03     36.9004E-03
            2001     718.675E-06     35.2361E-03    -118.939E+06    -288.843E+06    -117.422E+06    -385.719E+03    -226.348E-03     453.034E-03    -226.686E-03     22.7022E-03    -226.435E-03     452.015E-03    -226.682E-03     19.9857E-03
            2002     13.5695E-03     37.9329E-03    -4.98787E+06     70.2890E+06     81.5374E+06     1.02523E+06    -233.846E-03     465.230E-03    -231.384E-03     142.514E-03    -241.417E-03     472.797E-03    -231.071E-03     113.609E-03
            2003     12.8607E-03     37.6831E-03    -8.86603E+06     67.8441E+06     81.8372E+06     1.30962E+06    -234.507E-03     465.670E-03    -231.163E-03     199.267E-03    -246.530E-03     477.665E-03    -230.839E-03     161.666E-03
            2004     12.1509E-03     37.4202E-03    -13.3376E+06     62.8726E+06     80.4184E+06     963.282E+03    -235.067E-03     465.987E-03    -230.920E-03     221.220E-03    -248.949E-03     479.812E-03    -230.589E-03     181.080E-03
            2005     11.4370E-03     37.1113E-03    -19.7300E+06     56.4405E+06     78.7256E+06     365.235E+03    -235.733E-03     466.424E-03    -230.691E-03     246.308E-03    -251.723E-03     482.316E-03    -230.350E-03     203.140E-03
            2006     10.7247E-03     36.7797E-03    -26.2803E+06     48.2781E+06     75.4358E+06    -145.656E+03    -237.470E-03     467.913E-03    -230.443E-03     260.375E-03    -254.248E-03     484.551E-03    -230.098E-03     215.730E-03
            2007     10.0130E-03     36.4259E-03    -32.0158E+06     41.3255E+06     66.6927E+06     470.888E+03    -239.182E-03     469.287E-03    -230.105E-03     265.139E-03    -255.580E-03     485.525E-03    -229.785E-03     220.548E-03
            2008     9.30195E-03     36.0736E-03    -38.9553E+06     31.5729E+06     54.3254E+06     1.33004E+06    -239.481E-03     469.187E-03    -229.706E-03     258.775E-03    -254.358E-03     483.880E-03    -229.424E-03     216.139E-03
            2009     8.58874E-03     35.7345E-03    -47.1759E+06     19.9195E+06     41.3541E+06     726.955E+03    -238.906E-03     468.198E-03    -229.292E-03     244.363E-03    -251.627E-03     480.702E-03    -229.045E-03     204.991E-03
            2010     7.87617E-03     35.4179E-03    -54.8562E+06     9.68914E+06     30.8936E+06    -710.434E+03    -237.869E-03     466.751E-03    -228.882E-03     225.541E-03    -248.309E-03     476.942E-03    -228.662E-03     190.062E-03
            2011     7.16372E-03     35.1286E-03    -62.6658E+06    -15.0642E+06      18.883E+06    -504.168E+03    -236.422E-03     464.920E-03    -228.498E-03     205.063E-03    -244.719E-03     472.887E-03    -228.291E-03     173.769E-03
            2012     6.44885E-03     34.8653E-03    -71.6371E+06    -60.7362E+06     764.302E+03     487.815E+03    -235.069E-03     463.205E-03    -228.137E-03     184.508E-03    -241.493E-03     469.157E-03    -227.941E-03     157.295E-03
            2013     5.73424E-03     34.6299E-03    -79.8804E+06    -106.860E+06    -18.2803E+06     431.228E+03    -233.826E-03     461.606E-03    -227.779E-03     163.928E-03    -238.679E-03     465.848E-03    -227.600E-03     140.564E-03
            2014     5.01965E-03     34.4203E-03    -87.0782E+06    -150.199E+06    -35.8333E+06     310.586E+03    -232.494E-03     459.920E-03    -227.426E-03     143.160E-03    -236.040E-03     462.727E-03    -227.261E-03     123.448E-03
            2015     4.30366E-03     34.2392E-03    -93.8141E+06    -183.963E+06    -53.1318E+06     457.407E+03    -231.043E-03     458.119E-03    -227.076E-03     122.529E-03    -233.545E-03     459.789E-03    -226.939E-03     106.216E-03
            2016     3.58749E-03     34.0844E-03    -100.114E+06    -208.109E+06    -70.0030E+06     645.363E+03    -229.591E-03     456.341E-03    -226.750E-03     101.934E-03    -231.277E-03     457.136E-03    -226.653E-03     88.7811E-03
            2017     2.87088E-03     33.9588E-03    -106.061E+06    -246.611E+06    -82.7515E+06     785.066E+03    -228.348E-03     454.865E-03    -226.517E-03     81.5242E-03    -229.388E-03     454.893E-03    -226.419E-03     71.2924E-03
            2018     2.15356E-03     33.8601E-03    -111.574E+06    -275.469E+06    -94.1912E+06     119.222E+03    -227.336E-03     453.672E-03    -226.336E-03     61.4795E-03    -227.909E-03     453.144E-03    -226.246E-03     53.9479E-03
            2019     1.43543E-03     33.7900E-03    -116.465E+06    -282.794E+06    -107.698E+06    -268.861E+03    -226.545E-03     452.743E-03    -226.198E-03     41.6764E-03    -226.815E-03     451.908E-03    -226.158E-03     36.6670E-03
            2020     716.872E-06     33.7460E-03    -119.805E+06    -289.356E+06    -117.869E+06     192.089E+03    -226.122E-03     452.386E-03    -226.265E-03     22.5936E-03    -226.211E-03     451.367E-03    -226.261E-03     19.8873E-03
            2021     13.5740E-03     36.4189E-03    -4.23249E+06     70.6038E+06     81.6334E+06     560.153E+03    -234.291E-03     465.660E-03    -231.369E-03     141.767E-03    -241.832E-03     473.200E-03    -231.057E-03     112.831E-03
            2022     12.8620E-03     36.1715E-03    -8.83375E+06     68.9592E+06     81.3068E+06     549.624E+03    -234.527E-03     465.665E-03    -231.137E-03     200.360E-03    -246.526E-03     477.641E-03    -230.818E-03     162.817E-03
            2023     12.1485E-03     35.9098E-03    -14.0723E+06     61.3065E+06     78.9094E+06     330.067E+03    -235.213E-03     466.108E-03    -230.895E-03     221.244E-03    -249.043E-03     479.877E-03    -230.569E-03     181.157E-03
            2024     11.4376E-03     35.6033E-03    -18.9961E+06     57.9586E+06     79.1102E+06     266.504E+03    -236.771E-03     467.399E-03    -230.628E-03     245.217E-03    -252.696E-03     483.233E-03    -230.289E-03     201.922E-03
            2025     10.7265E-03     35.2691E-03    -24.7855E+06     49.0888E+06     76.6144E+06     10.3639E+03    -238.712E-03     469.007E-03    -230.295E-03     259.082E-03    -255.409E-03     485.568E-03    -229.947E-03     214.301E-03
            2026     10.0159E-03     34.9177E-03    -31.7397E+06     38.9558E+06     67.1411E+06    -70.2810E+03    -239.680E-03     469.558E-03    -229.878E-03     263.799E-03    -255.991E-03     485.700E-03    -229.553E-03     219.226E-03
            2027     9.30359E-03     34.5667E-03    -38.2455E+06     29.8514E+06     55.5964E+06     943.730E+03    -239.621E-03     469.050E-03    -229.430E-03     257.583E-03    -254.407E-03     483.645E-03    -229.139E-03     215.062E-03
            2028     8.59251E-03     34.2298E-03    -44.3301E+06     21.4834E+06     44.9629E+06     2.05981E+06    -238.961E-03     467.940E-03    -228.979E-03     243.270E-03    -251.603E-03     480.371E-03    -228.721E-03     204.024E-03
            2029     7.87978E-03     33.9153E-03    -52.6352E+06     12.5017E+06     33.5501E+06     2.33032E+06    -237.629E-03     466.165E-03    -228.535E-03     224.411E-03    -247.998E-03     476.294E-03    -228.309E-03     189.129E-03
            2030     7.16544E-03     33.6275E-03    -62.8292E+06    -14.5642E+06     18.1925E+06     1.83603E+06    -236.235E-03     464.354E-03    -228.119E-03     204.017E-03    -244.477E-03     472.268E-03    -227.915E-03     172.894E-03
            2031     6.45185E-03     33.3673E-03    -71.5138E+06    -60.0752E+06     504.850E+03     771.466E+03    -235.014E-03     462.735E-03    -227.721E-03     183.420E-03    -241.393E-03     468.645E-03    -227.527E-03     156.320E-03
            2032     5.73730E-03     33.1321E-03    -79.0442E+06    -105.939E+06    -17.4806E+06     418.233E+03    -233.682E-03     460.999E-03    -227.317E-03     162.675E-03    -238.488E-03     465.199E-03    -227.136E-03     139.438E-03
            2033     5.02169E-03     32.9254E-03    -86.7930E+06    -150.332E+06    -35.0211E+06     657.277E+03    -232.184E-03     459.104E-03    -226.921E-03     141.990E-03    -235.694E-03     461.875E-03    -226.752E-03     122.404E-03
            2034     4.30622E-03     32.7451E-03    -94.4822E+06    -183.363E+06    -51.9181E+06     843.773E+03    -230.588E-03     457.128E-03    -226.540E-03     121.453E-03    -233.070E-03     458.774E-03    -226.396E-03     105.261E-03
            2035     3.58961E-03     32.5934E-03    -102.040E+06    -208.406E+06    -69.5796E+06     1.24751E+06    -228.968E-03     455.170E-03    -226.202E-03     101.028E-03    -230.644E-03     455.945E-03    -226.100E-03     88.0008E-03
            2036     2.87208E-03     32.4684E-03    -108.665E+06    -243.835E+06    -86.1291E+06     616.328E+03    -227.662E-03     453.624E-03    -225.962E-03     80.9221E-03    -228.702E-03     453.663E-03    -225.882E-03     70.7870E-03
            2037     2.15428E-03     32.3718E-03    -114.022E+06    -273.836E+06    -99.5378E+06    -883.389E+03    -226.770E-03     452.560E-03    -225.791E-03     60.8974E-03    -227.343E-03     452.046E-03    -225.726E-03     53.4055E-03
            2038     1.43659E-03     32.3013E-03    -117.989E+06    -285.496E+06    -110.449E+06    -801.873E+03    -226.076E-03     451.728E-03    -225.652E-03     40.7972E-03    -226.340E-03     450.881E-03    -225.619E-03     35.8378E-03
            2039     718.822E-06     32.2590E-03    -119.775E+06    -289.209E+06    -118.022E+06    -80.2028E+03    -225.694E-03     451.256E-03    -225.562E-03     22.0036E-03    -225.780E-03     450.234E-03    -225.559E-03     19.3429E-03
            2040     13.5712E-03     34.9070E-03    -3.04860E+06     71.3334E+06     81.6866E+06     339.188E+03    -234.065E-03     465.438E-03    -231.373E-03     142.720E-03    -241.576E-03     472.954E-03    -231.063E-03     113.814E-03
            2041     12.8591E-03     34.6604E-03    -9.27495E+06     70.1763E+06     79.6006E+06     349.089E+03    -234.912E-03     466.041E-03    -231.129E-03     199.133E-03    -246.825E-03     477.940E-03    -230.819E-03     161.602E-03
            2042     12.1499E-03     34.3975E-03    -14.4566E+06     60.5707E+06     77.4701E+06    -492.685E+03    -236.201E-03     467.041E-03    -230.840E-03     218.906E-03    -249.924E-03     480.703E-03    -230.520E-03     178.700E-03
            2043     11.4391E-03     34.0925E-03    -19.2956E+06     57.2645E+06     77.7473E+06    -1.13192E+06    -237.903E-03     468.392E-03    -230.488E-03     243.335E-03    -253.748E-03     484.146E-03    -230.155E-03     199.813E-03
            2044     10.7290E-03     33.7576E-03    -25.4192E+06     48.8116E+06     75.1869E+06    -114.366E+03    -239.098E-03     469.180E-03    -230.082E-03     257.619E-03    -255.716E-03     485.663E-03    -229.740E-03     212.799E-03
            2045     10.0179E-03     33.4096E-03    -32.6939E+06     39.0398E+06     66.9585E+06     108.151E+03    -239.597E-03     469.230E-03    -229.633E-03     262.341E-03    -255.821E-03     485.283E-03    -229.307E-03     217.869E-03
            2046     9.30717E-03     33.0603E-03    -40.4687E+06     28.2913E+06     55.2511E+06    -694.864E+03    -239.580E-03     468.745E-03    -229.165E-03     256.802E-03    -254.302E-03     483.263E-03    -228.871E-03     214.377E-03
            2047     8.59440E-03     32.7247E-03    -48.3485E+06     17.6873E+06     42.2084E+06    -668.477E+03    -238.867E-03     467.554E-03    -228.687E-03     242.556E-03    -251.445E-03     479.901E-03    -228.431E-03     203.437E-03
            2048     7.88155E-03     32.4129E-03    -55.2046E+06     9.55314E+06     31.8271E+06     1.72640E+06    -237.628E-03     465.845E-03    -228.217E-03     223.360E-03    -247.925E-03     475.889E-03    -227.992E-03     188.239E-03
            2049     7.16860E-03     32.1278E-03    -61.8796E+06    -11.6152E+06     20.1806E+06     3.04519E+06    -236.350E-03     464.108E-03    -227.758E-03     202.610E-03    -244.531E-03     471.970E-03    -227.550E-03     171.611E-03
            2050     6.45425E-03     31.8680E-03    -70.1324E+06    -56.5401E+06     2.59465E+06     2.05942E+06    -234.971E-03     462.271E-03    -227.300E-03     181.801E-03    -241.291E-03     468.134E-03    -227.103E-03     154.846E-03
            2051     5.73971E-03     31.6362E-03    -79.0132E+06    -105.424E+06    -16.9511E+06     1.47622E+06    -233.374E-03     460.223E-03    -226.849E-03     161.242E-03    -238.130E-03     464.374E-03    -226.667E-03     138.169E-03
            2052     5.02474E-03     31.4309E-03    -87.1856E+06    -149.680E+06    -34.7956E+06     1.33088E+06    -231.754E-03     458.179E-03    -226.425E-03     140.746E-03    -235.231E-03     460.915E-03    -226.255E-03     121.307E-03
            2053     4.30829E-03     31.2534E-03    -94.7998E+06    -183.545E+06    -52.4585E+06     1.56035E+06    -230.068E-03     456.092E-03    -226.025E-03     120.225E-03    -232.519E-03     457.707E-03    -225.883E-03     104.178E-03
            2054     3.59133E-03     31.1031E-03    -101.191E+06    -207.697E+06    -69.5352E+06     1.67593E+06    -228.462E-03     454.136E-03    -225.674E-03     99.8615E-03    -230.112E-03     454.892E-03    -225.574E-03     86.9553E-03
            2055     2.87375E-03     30.9808E-03    -106.539E+06    -240.467E+06    -84.4632E+06     1.03126E+06    -227.236E-03     452.644E-03    -225.409E-03     79.8643E-03    -228.259E-03     452.681E-03    -225.328E-03     69.8067E-03
            2056     2.15575E-03     30.8836E-03    -112.101E+06    -271.966E+06    -97.8358E+06     57.0514E+03    -226.332E-03     451.517E-03    -225.185E-03     59.9682E-03    -226.894E-03     450.999E-03    -225.117E-03     52.5390E-03
            2057     1.43736E-03     30.8150E-03    -117.542E+06    -287.115E+06    -109.889E+06    -823.790E+03    -225.615E-03     450.566E-03    -224.951E-03     40.2008E-03    -225.871E-03     449.704E-03    -224.913E-03     35.2907E-03
            2058     718.500E-06     30.7722E-03    -120.680E+06    -290.993E+06    -118.313E+06    -814.233E+03    -224.936E-03     449.717E-03    -224.781E-03     22.1199E-03    -225.022E-03     448.688E-03    -224.776E-03     19.4834E-03
            2059     13.5714E-03     33.3921E-03    -3.39124E+06     69.4646E+06     82.1945E+06     625.682E+03    -235.522E-03     466.899E-03    -231.377E-03     141.668E-03    -242.985E-03     474.358E-03    -231.062E-03     112.637E-03
            2060     12.8630E-03     33.1482E-03    -8.43449E+06     72.2612E+06     81.4854E+06     543.609E+03    -236.028E-03     467.078E-03    -231.050E-03     196.436E-03    -247.851E-03     478.891E-03    -230.735E-03     158.742E-03
            2061     12.1513E-03     32.8852E-03    -13.7107E+06     64.6947E+06     78.6355E+06    -585.287E+03    -236.893E-03     467.579E-03    -230.686E-03     217.607E-03    -250.542E-03     481.181E-03    -230.366E-03     177.308E-03
            2062     11.4420E-03     32.5793E-03    -19.8513E+06     55.6536E+06     76.7834E+06    -1.32209E+06    -238.132E-03     468.420E-03    -230.288E-03     242.210E-03    -253.900E-03     484.093E-03    -229.956E-03     198.672E-03
            2063     10.7317E-03     32.2483E-03    -26.4335E+06     46.1461E+06     73.5951E+06    -896.596E+03    -238.800E-03     468.664E-03    -229.864E-03     256.617E-03    -255.324E-03     485.045E-03    -229.525E-03     211.935E-03
            2064     10.0208E-03     31.9013E-03    -33.3237E+06     38.6981E+06     64.5079E+06     191.552E+03    -239.457E-03     468.864E-03    -229.407E-03     262.158E-03    -255.602E-03     484.841E-03    -229.092E-03     217.847E-03
            2065     9.30847E-03     31.5542E-03    -41.1879E+06     29.7731E+06     52.2125E+06     948.381E+03    -239.714E-03     468.631E-03    -228.917E-03     256.059E-03    -254.367E-03     483.093E-03    -228.640E-03     213.733E-03
            2066     8.59679E-03     31.2206E-03    -49.7001E+06     18.5903E+06     39.5143E+06     663.519E+03    -238.930E-03     467.337E-03    -228.407E-03     240.934E-03    -251.417E-03     479.599E-03    -228.164E-03     201.956E-03
            2067     7.88421E-03     30.9110E-03    -58.4544E+06     6.81740E+06     28.5541E+06    -1.05024E+06    -237.768E-03     465.660E-03    -227.892E-03     221.648E-03    -247.994E-03     475.620E-03    -227.675E-03     186.580E-03
            2068     7.17091E-03     30.6267E-03    -66.0934E+06    -14.5328E+06     17.7873E+06    -1.09459E+06    -236.396E-03     463.776E-03    -227.380E-03     201.100E-03    -244.524E-03     471.567E-03    -227.174E-03     170.151E-03
            2069     6.45764E-03     30.3707E-03    -72.8685E+06    -56.6672E+06     1.77546E+06     971.651E+03    -234.793E-03     461.667E-03    -226.874E-03     180.341E-03    -241.066E-03     467.475E-03    -226.677E-03     153.512E-03
            2070     5.74273E-03     30.1410E-03    -80.0668E+06    -104.186E+06    -17.1665E+06     1.56478E+06    -233.089E-03     459.471E-03    -226.382E-03     159.713E-03    -237.801E-03     463.579E-03    -226.201E-03     136.785E-03
            2071     5.02663E-03     29.9380E-03    -87.2589E+06    -149.240E+06    -35.2167E+06     1.31240E+06    -231.317E-03     457.242E-03    -225.925E-03     139.140E-03    -234.751E-03     459.938E-03    -225.758E-03     119.844E-03
            2072     4.31051E-03     29.7627E-03    -93.7399E+06    -183.367E+06    -52.6970E+06     1.26936E+06    -229.595E-03     455.095E-03    -225.501E-03     118.570E-03    -232.006E-03     456.676E-03    -225.362E-03     102.651E-03
            2073     3.59322E-03     29.6149E-03    -99.9499E+06    -206.996E+06    -69.9314E+06     1.39093E+06    -228.125E-03     453.231E-03    -225.107E-03     98.4057E-03    -229.745E-03     453.965E-03    -225.011E-03     85.5905E-03
            2074     2.87554E-03     29.4930E-03    -106.151E+06    -238.598E+06    -83.9576E+06     1.34702E+06    -226.870E-03     451.644E-03    -224.775E-03     78.6370E-03    -227.881E-03     451.675E-03    -224.694E-03     68.6534E-03
            2075     2.15733E-03     29.3983E-03    -111.560E+06    -269.590E+06    -95.1501E+06     691.777E+03    -225.693E-03     450.200E-03    -224.507E-03     59.0888E-03    -226.249E-03     449.679E-03    -224.430E-03     51.7537E-03
            2076     1.43864E-03     29.3298E-03    -115.819E+06    -286.184E+06    -107.332E+06     187.636E+03    -224.844E-03     449.125E-03    -224.281E-03     39.7851E-03    -225.093E-03     448.258E-03    -224.234E-03     34.9363E-03
            2077     719.853E-06     29.2890E-03    -120.002E+06    -292.883E+06    -118.229E+06    -133.525E+03    -224.092E-03     448.405E-03    -224.313E-03     21.3641E-03    -224.170E-03     447.365E-03    -224.306E-03     18.7460E-03
            2078     13.5736E-03     31.8773E-03    -5.26420E+06     66.9960E+06     81.4506E+06    -1.03983E+06    -237.053E-03     468.381E-03    -231.328E-03     140.488E-03    -244.482E-03     475.793E-03    -231.010E-03     111.342E-03
            2079     12.8629E-03     31.6324E-03    -7.41395E+06     71.6330E+06     82.8130E+06    -152.318E+03    -236.791E-03     467.729E-03    -230.938E-03     196.346E-03    -248.583E-03     479.509E-03    -230.617E-03     158.569E-03
            2080     12.1548E-03     31.3738E-03    -11.6129E+06     67.7324E+06     80.9397E+06     603.696E+03    -237.319E-03     467.853E-03    -230.533E-03     217.864E-03    -250.936E-03     481.434E-03    -230.210E-03     177.558E-03
            2081     11.4441E-03     31.0663E-03    -17.9242E+06     55.5348E+06     78.0753E+06     709.886E+03    -237.770E-03     467.902E-03    -230.132E-03     242.335E-03    -253.434E-03     483.474E-03    -229.796E-03     199.075E-03
            2082     10.7335E-03     30.7397E-03    -25.5786E+06     45.5277E+06     73.8981E+06     1.12169E+06    -238.726E-03     468.446E-03    -229.720E-03     256.793E-03    -255.148E-03     484.724E-03    -229.380E-03     212.356E-03
            2083     10.0212E-03     30.3939E-03     -33.782E+06     38.3091E+06     64.3679E+06     1.23109E+06    -239.943E-03     469.186E-03    -229.243E-03     261.686E-03    -256.003E-03     485.076E-03    -228.928E-03     217.464E-03
            2084     9.31083E-03     30.0462E-03    -40.8395E+06     29.3058E+06     53.2974E+06     1.29762E+06    -240.036E-03     468.746E-03    -228.711E-03     254.502E-03    -254.579E-03     483.094E-03    -228.428E-03     212.292E-03
            2085     8.59925E-03     29.7170E-03    -46.8595E+06     20.0402E+06     43.1219E+06     1.77633E+06    -239.289E-03     467.437E-03    -228.148E-03     239.510E-03    -251.699E-03     479.627E-03    -227.894E-03     200.588E-03
            2086     7.88697E-03     29.4081E-03    -53.7408E+06     11.6568E+06     32.6873E+06     1.88834E+06    -237.931E-03     465.499E-03    -227.569E-03     220.134E-03    -248.069E-03     475.393E-03    -227.344E-03     185.208E-03
            2087     7.17416E-03     29.1277E-03    -62.8429E+06    -14.7157E+06     18.0591E+06     725.098E+03    -236.246E-03     463.248E-03    -227.001E-03     199.446E-03    -244.276E-03     470.950E-03    -226.799E-03     168.689E-03
            2088     6.45950E-03     28.8730E-03    -71.9720E+06    -59.4275E+06     494.161E+03    -80.0563E+03    -234.672E-03     461.126E-03    -226.454E-03     178.692E-03    -240.874E-03     466.860E-03    -226.261E-03     151.975E-03
            2089     5.74505E-03     28.6465E-03    -79.6741E+06    -104.107E+06    -17.0402E+06     553.160E+03    -232.965E-03     458.876E-03    -225.911E-03     157.771E-03    -237.620E-03     462.928E-03    -225.729E-03     134.949E-03
            2090     5.02991E-03     28.4465E-03    -87.0701E+06    -149.253E+06    -34.8398E+06     1.02663E+06    -231.045E-03     456.440E-03    -225.394E-03     137.065E-03    -234.432E-03     459.089E-03    -225.226E-03     117.890E-03
            2091     4.31289E-03     28.2736E-03    -94.7050E+06    -183.022E+06    -52.5462E+06     1.47504E+06    -229.204E-03     454.118E-03    -224.914E-03     116.625E-03    -231.581E-03     455.661E-03    -224.774E-03     100.846E-03
            2092     3.59567E-03     28.1273E-03    -102.211E+06    -207.447E+06    -70.3468E+06     2.04721E+06    -227.625E-03     452.095E-03    -224.470E-03     96.8807E-03    -229.230E-03     452.804E-03    -224.373E-03     84.1866E-03
            2093     2.87767E-03     28.0076E-03    -108.319E+06    -234.982E+06    -87.6026E+06     1.45917E+06    -226.226E-03     450.307E-03    -224.082E-03     77.4327E-03    -227.230E-03     450.348E-03    -224.022E-03     67.5539E-03
            2094     2.15888E-03     27.9145E-03    -112.947E+06    -267.070E+06    -100.346E+06    -367.639E+03    -224.970E-03     448.767E-03    -223.797E-03     58.1644E-03    -225.519E-03     448.258E-03    -223.748E-03     50.8963E-03
            2095     1.43920E-03     27.8478E-03    -116.827E+06    -288.081E+06    -109.218E+06    -512.778E+03    -224.033E-03     447.668E-03    -223.635E-03     39.3433E-03    -224.277E-03     446.792E-03    -223.594E-03     34.5328E-03
            2096     719.244E-06     27.8059E-03    -118.889E+06    -291.817E+06    -116.411E+06     683.616E+03    -224.021E-03     447.208E-03    -223.187E-03     20.8751E-03    -224.097E-03     446.166E-03    -223.173E-03     18.3068E-03
            2097     13.5731E-03     30.3592E-03    -4.82362E+06     68.7473E+06     80.2858E+06    -2.23919E+06    -237.219E-03     468.503E-03    -231.284E-03     140.275E-03    -244.630E-03     475.908E-03    -230.975E-03     111.031E-03
            2098     12.8651E-03     30.1191E-03    -9.12854E+06     66.8532E+06     79.7921E+06    -2.33033E+06    -237.031E-03     467.918E-03    -230.888E-03     197.000E-03    -248.797E-03     479.658E-03    -230.572E-03     159.169E-03
            2099     12.1546E-03     29.8572E-03    -14.3367E+06     63.9013E+06     78.4128E+06    -30.3373E+03    -237.342E-03     467.826E-03    -230.484E-03     218.782E-03    -250.921E-03     481.354E-03    -230.164E-03     178.582E-03
            2100     11.4449E-03     29.5577E-03    -20.6873E+06     55.0502E+06     76.6717E+06     1.91706E+06    -238.208E-03     468.285E-03    -230.077E-03     242.672E-03    -253.811E-03     483.788E-03    -229.743E-03     199.516E-03
            2101     10.7325E-03     29.2295E-03    -27.5059E+06     46.5206E+06     73.3707E+06     2.02594E+06    -239.727E-03     469.343E-03    -229.615E-03     255.682E-03    -256.070E-03     485.540E-03    -229.276E-03     211.183E-03
            2102     10.0241E-03     28.8830E-03    -34.0655E+06     40.1074E+06     65.5499E+06     1.21826E+06    -240.422E-03     469.492E-03    -229.070E-03     259.433E-03    -256.361E-03     485.263E-03    -228.751E-03     215.244E-03
            2103     9.31270E-03     28.5412E-03    -40.6566E+06     29.4036E+06     54.3295E+06     147.197E+03    -240.120E-03     468.607E-03    -228.487E-03     252.828E-03    -254.546E-03     482.836E-03    -228.199E-03     210.737E-03
            2104     8.60108E-03     28.2105E-03    -47.9807E+06     18.2761E+06     41.8299E+06    -272.230E+03    -239.389E-03     467.268E-03    -227.878E-03     238.030E-03    -251.699E-03     479.350E-03    -227.626E-03     199.214E-03
            2105     7.88959E-03     27.9064E-03    -55.4415E+06     9.58704E+06     31.0353E+06     999.919E+03    -238.039E-03     465.290E-03    -227.251E-03     218.427E-03    -248.089E-03     475.088E-03    -227.029E-03     183.614E-03
            2106     7.17615E-03     27.6282E-03    -62.8066E+06    -12.0979E+06     18.5408E+06     2.28356E+06    -236.431E-03     463.052E-03    -226.621E-03     197.437E-03    -244.387E-03     470.688E-03    -226.420E-03     166.805E-03
            2107     6.46302E-03     27.3768E-03    -71.2332E+06    -57.0413E+06     704.918E+03     1.61625E+06    -234.694E-03     460.690E-03    -225.996E-03     176.210E-03    -240.812E-03     466.351E-03    -225.807E-03     149.663E-03
            2108     5.74824E-03     27.1523E-03    -79.8807E+06    -104.615E+06    -17.7301E+06     595.622E+03    -232.748E-03     458.132E-03    -225.384E-03     155.160E-03    -237.324E-03     462.105E-03    -225.205E-03     132.515E-03
            2109     5.03227E-03     26.9557E-03    -87.9787E+06    -149.917E+06    -35.0404E+06     1.04561E+06    -230.744E-03     455.552E-03    -224.808E-03     134.719E-03    -234.073E-03     458.138E-03    -224.638E-03     115.709E-03
            2110     4.31609E-03     26.7857E-03    -95.2168E+06    -183.897E+06    -53.1778E+06     1.98365E+06    -228.832E-03     453.092E-03    -224.260E-03     114.766E-03    -231.171E-03     454.594E-03    -224.121E-03     99.1211E-03
            2111     3.59817E-03     26.6421E-03    -101.030E+06    -206.462E+06    -70.7502E+06     2.15182E+06    -227.072E-03     450.828E-03    -223.756E-03     95.1435E-03    -228.640E-03     451.510E-03    -223.664E-03     82.5878E-03
            2112     2.87944E-03     26.5239E-03    -106.018E+06    -231.254E+06    -86.1876E+06     1.58858E+06    -225.558E-03     448.887E-03    -223.330E-03     75.6862E-03    -226.536E-03     448.918E-03    -223.272E-03     65.9285E-03
            2113     2.16014E-03     26.4330E-03    -110.898E+06    -264.308E+06    -98.7915E+06     902.840E+03    -224.414E-03     447.389E-03    -222.975E-03     56.3479E-03    -224.945E-03     446.874E-03    -222.925E-03     49.1753E-03
            2114     1.44066E-03     26.3672E-03    -115.325E+06    -288.900E+06    -109.658E+06    -31.2267E+03    -223.431E-03     446.084E-03    -222.653E-03     37.4532E-03    -223.657E-03     445.193E-03    -222.615E-03     32.7231E-03
            2115     720.428E-06     26.3269E-03    -117.535E+06    -292.192E+06    -116.709E+06    -915.928E+03    -222.531E-03     445.038E-03    -222.507E-03     20.5134E-03    -222.597E-03     443.988E-03    -222.497E-03     17.9879E-03
            2116     13.5737E-03     28.8439E-03    -4.51256E+06     73.1779E+06     80.0670E+06    -975.650E+03    -236.967E-03     468.267E-03    -231.300E-03     140.152E-03    -244.330E-03     475.642E-03    -230.999E-03     111.019E-03
            2117     12.8632E-03     28.6016E-03    -10.6079E+06     64.6665E+06     77.6084E+06    -1.83183E+06    -237.016E-03     467.936E-03    -230.920E-03     197.197E-03    -248.699E-03     479.586E-03    -230.610E-03     159.501E-03
            2118     12.1539E-03     28.3457E-03    -16.9593E+06     57.4179E+06     74.6835E+06    -308.535E+03    -237.946E-03     468.449E-03    -230.503E-03     217.710E-03    -251.422E-03     481.853E-03    -230.188E-03     177.503E-03
            2119     11.4426E-03     28.0436E-03    -22.6856E+06     54.8119E+06     74.7174E+06     1.14271E+06    -239.546E-03     469.571E-03    -230.024E-03     240.577E-03    -255.072E-03     484.993E-03    -229.697E-03     197.185E-03
            2120     10.7368E-03     27.7158E-03    -28.0379E+06     47.6471E+06     73.1908E+06     454.795E+03    -240.407E-03     469.887E-03    -229.480E-03     253.738E-03    -256.666E-03     486.003E-03    -229.143E-03     209.141E-03
            2121     10.0257E-03     27.3756E-03    -33.8366E+06     40.2723E+06     64.9786E+06     210.787E+03    -240.563E-03     469.446E-03    -228.883E-03     258.380E-03    -256.412E-03     485.129E-03    -228.567E-03     214.257E-03
            2122     9.31507E-03     27.0334E-03    -41.1040E+06     30.3981E+06     52.4840E+06     717.410E+03    -240.510E-03     468.762E-03    -228.252E-03     251.756E-03    -254.847E-03     482.909E-03    -227.974E-03     209.723E-03
            2123     8.60418E-03     26.7069E-03    -49.4308E+06     18.9153E+06     39.5145E+06     691.072E+03    -239.676E-03     467.261E-03    -227.585E-03     236.054E-03    -251.867E-03     479.229E-03    -227.343E-03     197.370E-03
            2124     7.89138E-03     26.4040E-03    -57.9083E+06     7.22043E+06     27.8767E+06    -253.877E+03    -238.349E-03     465.234E-03    -226.885E-03     215.691E-03    -248.277E-03     474.902E-03    -226.672E-03     180.976E-03
            2125     7.17969E-03     26.1284E-03    -65.7261E+06    -13.8525E+06     15.7367E+06    -82.5165E+03    -236.722E-03     462.883E-03    -226.160E-03     194.131E-03    -244.558E-03     470.390E-03    -225.966E-03     163.612E-03
            2126     6.46605E-03     25.8805E-03    -72.7358E+06    -55.7591E+06    -260.458E+03     1.24369E+06    -234.645E-03     460.086E-03    -225.441E-03     172.877E-03    -240.649E-03     465.635E-03    -225.256E-03     146.541E-03
            2127     5.75165E-03     25.6598E-03    -80.0498E+06    -102.863E+06    -18.0305E+06     1.42032E+06    -232.464E-03     457.215E-03    -224.751E-03     152.055E-03    -236.946E-03     461.100E-03    -224.576E-03     129.641E-03
            2128     5.03611E-03     25.4665E-03    -87.4137E+06    -150.344E+06    -34.8863E+06     887.720E+03    -230.431E-03     454.531E-03    -224.100E-03     131.487E-03    -233.673E-03     457.030E-03    -223.929E-03     112.688E-03
            2129     4.31864E-03     25.2992E-03    -94.1413E+06    -184.667E+06    -52.1644E+06     932.154E+03    -228.429E-03     451.893E-03    -223.464E-03     111.469E-03    -230.693E-03     453.319E-03    -223.321E-03     96.0114E-03
            2130     3.60107E-03     25.1581E-03    -100.480E+06    -205.393E+06    -69.7906E+06     1.22348E+06    -226.506E-03     449.366E-03    -222.861E-03     92.0470E-03    -228.023E-03     450.001E-03    -222.766E-03     79.6592E-03
            2131     2.88238E-03     25.0430E-03    -105.528E+06    -229.951E+06    -85.7066E+06     1.39511E+06    -224.826E-03     447.163E-03    -222.337E-03     73.0555E-03    -225.769E-03     447.163E-03    -222.279E-03     63.4700E-03
            2132     2.16297E-03     24.9530E-03    -109.649E+06    -262.479E+06    -97.1045E+06     1.49259E+06    -223.497E-03     445.404E-03    -221.907E-03     54.6042E-03    -224.006E-03     444.873E-03    -221.852E-03     47.5885E-03
            2133     1.44290E-03     24.8894E-03    -113.325E+06    -286.299E+06    -105.507E+06     1.09682E+06    -222.494E-03     443.992E-03    -221.499E-03     36.6982E-03    -222.712E-03     443.098E-03    -221.447E-03     32.0662E-03
            2134     722.290E-06     24.8510E-03    -116.567E+06    -292.245E+06    -114.988E+06     585.979E+03    -220.856E-03     442.581E-03    -221.725E-03     19.4516E-03    -220.917E-03     441.525E-03    -221.707E-03     16.9753E-03
            2135     13.5715E-03     27.3265E-03    -2.65819E+06     75.2264E+06     81.8480E+06     549.284E+03    -237.027E-03     468.406E-03    -231.379E-03     140.416E-03    -244.342E-03     475.741E-03    -231.075E-03     111.412E-03
            2136     12.8628E-03     27.0870E-03    -9.18086E+06     65.4557E+06     78.0694E+06     378.983E+03    -238.220E-03     469.182E-03    -230.963E-03     195.903E-03    -249.818E-03     480.754E-03    -230.654E-03     158.112E-03
            2137     12.1532E-03     26.8297E-03    -15.1065E+06     54.8173E+06     75.0121E+06     978.444E+03    -239.406E-03     469.870E-03    -230.464E-03     214.826E-03    -252.727E-03     483.115E-03    -230.146E-03     174.507E-03
            2138     11.4481E-03     26.5275E-03    -19.9642E+06     55.9038E+06     76.4666E+06     664.770E+03    -239.602E-03     469.528E-03    -229.926E-03     239.096E-03    -255.001E-03     484.833E-03    -229.596E-03     195.800E-03
            2139     10.7361E-03     26.2050E-03    -25.9050E+06     48.3234E+06     74.2181E+06     408.855E+03    -240.223E-03     469.599E-03    -229.376E-03     253.597E-03    -256.399E-03     485.639E-03    -229.038E-03     209.130E-03
            2140     10.0266E-03     25.8653E-03    -33.2243E+06     39.0175E+06     65.5073E+06     944.928E+03    -241.337E-03     470.091E-03    -228.754E-03     257.699E-03    -257.109E-03     485.693E-03    -228.434E-03     213.526E-03
            2141     9.31673E-03     25.5254E-03    -40.5961E+06     29.9314E+06     53.4234E+06     1.72959E+06    -241.542E-03     469.576E-03    -228.034E-03     249.793E-03    -255.767E-03     483.609E-03    -227.752E-03     207.712E-03
            2142     8.60594E-03     25.2015E-03    -47.2333E+06     20.3114E+06     41.0644E+06     1.88773E+06    -240.676E-03     467.915E-03    -227.239E-03     232.936E-03    -252.711E-03     479.735E-03    -226.995E-03     194.271E-03
            2143     7.89615E-03     24.9015E-03    -54.3798E+06     9.99034E+06     29.9410E+06     1.67111E+06    -239.077E-03     465.475E-03    -226.398E-03     211.923E-03    -248.814E-03     474.967E-03    -226.183E-03     177.368E-03
            2144     7.18379E-03     24.6292E-03    -62.8425E+06    -13.6911E+06     16.1010E+06     1.25086E+06    -236.946E-03     462.485E-03    -225.539E-03     189.775E-03    -244.574E-03     469.795E-03    -225.348E-03     159.546E-03
            2145     6.47097E-03     24.3854E-03    -71.0116E+06    -56.5362E+06    -433.128E+03     805.933E+03    -234.622E-03     459.322E-03    -224.701E-03     168.102E-03    -240.440E-03     464.690E-03    -224.518E-03     142.054E-03
            2146     5.75615E-03     24.1688E-03    -78.0799E+06    -101.593E+06    -17.0065E+06     888.543E+03    -232.346E-03     456.230E-03    -223.884E-03     147.099E-03    -236.666E-03     459.961E-03    -223.708E-03     124.987E-03
            2147     5.04027E-03     23.9780E-03    -85.2679E+06    -149.428E+06    -32.7178E+06     992.148E+03    -230.158E-03     453.253E-03    -223.095E-03     126.494E-03    -233.260E-03     455.617E-03    -222.919E-03     108.021E-03
            2148     4.32427E-03     23.8150E-03    -92.9478E+06    -184.584E+06    -48.7174E+06     835.308E+03    -227.872E-03     450.194E-03    -222.322E-03     106.630E-03    -230.029E-03     451.507E-03    -222.163E-03     91.4935E-03
            2149     3.60574E-03     23.6770E-03    -99.8287E+06    -204.796E+06    -66.3756E+06     660.026E+03    -225.570E-03     447.162E-03    -221.592E-03     87.8653E-03    -227.014E-03     447.717E-03    -221.482E-03     75.7741E-03
            2150     2.88632E-03     23.5644E-03    -105.959E+06    -230.761E+06    -84.2979E+06     1.23416E+06    -223.525E-03     444.510E-03    -220.984E-03     69.7660E-03    -224.420E-03     444.453E-03    -220.918E-03     60.4591E-03
            2151     2.16542E-03     23.4775E-03    -111.144E+06    -260.346E+06    -98.2331E+06     1.57404E+06    -221.881E-03     442.429E-03    -220.548E-03     52.2854E-03    -222.370E-03     441.884E-03    -220.501E-03     45.4982E-03
            2152     1.44354E-03     23.4150E-03    -115.161E+06    -283.515E+06    -107.791E+06     441.254E+03    -220.743E-03     441.041E-03    -220.298E-03     35.1174E-03    -220.959E-03     440.154E-03    -220.258E-03     30.6101E-03
            2153     721.435E-06     23.3779E-03    -117.717E+06    -291.621E+06    -114.398E+06      68.147E+03    -220.651E-03     440.450E-03    -219.798E-03     18.4554E-03    -220.716E-03     439.394E-03    -219.777E-03     16.0372E-03
            2154     13.5706E-03     25.8107E-03    -4.19078E+06     72.4706E+06     79.9919E+06     838.201E+03    -238.868E-03     470.311E-03    -231.444E-03     139.328E-03    -246.120E-03     477.574E-03    -231.143E-03     110.212E-03
            2155     12.8619E-03     25.5671E-03    -8.82074E+06     65.7310E+06     78.9555E+06     1.89242E+06    -239.532E-03     470.479E-03    -230.947E-03     194.355E-03    -251.038E-03     481.958E-03    -230.635E-03     156.481E-03
            2156     12.1580E-03     25.3095E-03    -13.2226E+06     57.4809E+06     77.2622E+06     720.188E+03    -239.208E-03     469.623E-03    -230.415E-03     214.473E-03    -252.450E-03     482.798E-03    -230.093E-03     174.273E-03
            2157     11.4456E-03     25.0175E-03    -18.5105E+06     55.3164E+06     77.2923E+06     585.164E+03    -239.482E-03     469.371E-03    -229.888E-03     239.567E-03    -254.804E-03     484.599E-03    -229.555E-03     196.400E-03
            2158     10.7367E-03     24.6915E-03    -25.4338E+06     47.9501E+06     74.4682E+06     1.63865E+06    -241.242E-03     470.551E-03    -229.309E-03     252.762E-03    -257.300E-03     486.473E-03    -228.969E-03     208.246E-03
            2159     10.0279E-03     24.3537E-03    -32.5888E+06     39.1555E+06     66.0024E+06     1.82466E+06    -242.770E-03     471.351E-03    -228.581E-03     254.740E-03    -258.368E-03     486.781E-03    -228.260E-03     210.441E-03
            2160     9.31917E-03     24.0156E-03    -39.3632E+06     30.2697E+06     54.7453E+06     1.35885E+06    -242.960E-03     470.671E-03    -227.710E-03     245.730E-03    -256.966E-03     484.486E-03    -227.423E-03     203.574E-03
            2161     8.61115E-03     23.6948E-03    -46.6146E+06     20.0552E+06     41.9907E+06     1.10474E+06    -241.943E-03     468.680E-03    -226.737E-03     228.249E-03    -253.723E-03     480.244E-03    -226.489E-03     189.640E-03
            2162     7.90058E-03     23.3983E-03    -54.0710E+06     9.25574E+06     30.2360E+06     2.02044E+06    -239.983E-03     465.689E-03    -225.706E-03     206.527E-03    -249.443E-03     474.902E-03    -225.490E-03     172.217E-03
            2163     7.19002E-03     23.1308E-03    -61.4830E+06    -11.0885E+06     18.4722E+06     2.71271E+06    -237.506E-03     462.167E-03    -224.661E-03     183.596E-03    -244.853E-03     469.203E-03    -224.463E-03     153.759E-03
            2164     6.47717E-03     22.8913E-03    -69.5567E+06    -53.4180E+06     2.16193E+06     1.54162E+06    -235.004E-03     458.621E-03    -223.617E-03     161.359E-03    -240.565E-03     463.739E-03    -223.427E-03     135.736E-03
            2165     5.76372E-03     22.6790E-03    -78.3063E+06    -102.574E+06    -16.2946E+06     1.07792E+06    -232.406E-03     454.980E-03    -222.574E-03     140.048E-03    -236.495E-03     458.474E-03    -222.393E-03     118.411E-03
            2166     5.04854E-03     22.4929E-03    -86.4180E+06    -147.430E+06    -32.6756E+06     1.15269E+06    -229.544E-03     451.114E-03    -221.569E-03     119.610E-03    -232.459E-03     453.293E-03    -221.394E-03     101.672E-03
            2167     4.33068E-03     22.3332E-03    -93.6278E+06    -183.035E+06    -48.3706E+06     22.3151E+03    -226.742E-03     447.372E-03    -220.630E-03     100.467E-03    -228.756E-03     448.544E-03    -220.471E-03     85.8372E-03
            2168     3.61228E-03     22.2000E-03    -100.734E+06    -206.319E+06    -65.5378E+06     455.342E+03    -224.138E-03     443.910E-03    -219.771E-03     82.4031E-03    -225.477E-03     444.348E-03    -219.654E-03     70.7868E-03
            2169     2.89147E-03     22.0910E-03    -107.873E+06    -231.664E+06    -83.2322E+06     1.70977E+06    -221.833E-03     440.883E-03    -219.049E-03     64.9254E-03    -222.665E-03     440.751E-03    -218.973E-03     56.0170E-03
            2170     2.16967E-03     22.0067E-03    -113.019E+06    -257.166E+06    -98.7088E+06     1.35280E+06    -219.981E-03     438.481E-03    -218.500E-03     47.9985E-03    -220.440E-03     437.912E-03    -218.457E-03     41.5011E-03
            2171     1.44707E-03     21.9459E-03    -116.446E+06    -279.961E+06    -110.611E+06    -283.922E+03    -218.664E-03     436.824E-03    -218.161E-03     31.6697E-03    -218.864E-03     435.938E-03    -218.139E-03     27.3895E-03
            2172     723.398E-06     21.9096E-03    -120.054E+06    -294.076E+06    -118.132E+06    -1.47186E+06    -218.684E-03     436.116E-03    -217.432E-03     16.9537E-03    -218.744E-03     435.048E-03    -217.422E-03     14.6560E-03
            2173     13.5702E-03     24.2874E-03    -5.80153E+06     68.8351E+06     78.7535E+06     853.129E+03    -240.143E-03     471.617E-03    -231.474E-03     138.155E-03    -247.340E-03     478.809E-03    -231.171E-03     109.032E-03
            2174     12.8664E-03     24.0464E-03    -8.94903E+06     66.6021E+06     79.5489E+06     1.28786E+06    -238.882E-03     469.849E-03    -230.967E-03     194.923E-03    -250.343E-03     481.284E-03    -230.652E-03     157.246E-03
            2175     12.1528E-03     23.7970E-03    -13.6602E+06     60.4582E+06     77.2507E+06     114.671E+03    -239.111E-03     469.571E-03    -230.459E-03     214.949E-03    -252.292E-03     482.693E-03    -230.141E-03     174.840E-03
            2176     11.4460E-03     23.5003E-03    -19.9806E+06     52.0938E+06     75.5341E+06     193.194E+03    -241.353E-03     471.232E-03    -229.879E-03     237.963E-03    -256.566E-03     486.341E-03    -229.548E-03     194.501E-03
            2177     10.7382E-03     23.1781E-03    -25.9533E+06     47.0041E+06     73.8567E+06     1.11658E+06    -243.501E-03     472.646E-03    -229.145E-03     249.782E-03    -259.395E-03     488.401E-03    -228.807E-03     204.905E-03
            2178     10.0312E-03     22.8388E-03    -31.8226E+06     39.5242E+06     65.6396E+06     1.16762E+06    -244.675E-03     472.902E-03    -228.227E-03     250.579E-03    -259.990E-03     488.054E-03    -227.910E-03     206.145E-03
            2179     9.32476E-03     22.5051E-03    -38.5919E+06     30.5103E+06     54.7012E+06     1.22867E+06    -244.726E-03     471.881E-03    -227.156E-03     240.320E-03    -258.363E-03     485.332E-03    -226.870E-03     198.229E-03
            2180     8.61646E-03     22.1863E-03    -46.1648E+06     20.0062E+06     42.9592E+06     1.82155E+06    -243.525E-03     469.483E-03    -225.958E-03     221.602E-03    -254.892E-03     480.633E-03    -225.705E-03     183.262E-03
            2181     7.90905E-03     21.8957E-03    -53.9247E+06     8.76239E+06     31.2635E+06     2.26356E+06    -241.355E-03     466.021E-03    -224.666E-03     198.413E-03    -250.379E-03     474.794E-03    -224.444E-03     164.537E-03
            2182     7.19890E-03     21.6325E-03    -61.7020E+06    -10.3974E+06     19.8546E+06     2.22853E+06    -238.667E-03     461.990E-03    -223.323E-03     174.499E-03    -245.592E-03     468.602E-03    -223.119E-03     145.212E-03
            2183     6.48802E-03     21.3989E-03    -69.8815E+06    -51.1407E+06     3.97620E+06     2.59261E+06    -235.640E-03     457.594E-03    -221.954E-03     151.578E-03    -240.816E-03     462.329E-03    -221.758E-03     126.649E-03
            2184     5.77465E-03     21.1910E-03    -78.1167E+06    -101.264E+06    -14.4563E+06     2.72048E+06    -232.185E-03     452.783E-03    -220.598E-03     130.152E-03    -235.942E-03     455.946E-03    -220.410E-03     109.301E-03
            2185     5.05912E-03     21.0117E-03    -85.8486E+06    -142.932E+06    -32.0689E+06     1.20966E+06    -228.551E-03     447.858E-03    -219.307E-03     110.214E-03    -231.199E-03     449.787E-03    -219.136E-03     93.0664E-03
            2186     4.34168E-03     20.8576E-03    -93.4930E+06    -181.268E+06    -49.2781E+06    -165.238E+03    -225.193E-03     443.316E-03    -218.123E-03     91.6201E-03    -227.000E-03     444.291E-03    -217.971E-03     77.7353E-03
            2187     3.62115E-03     20.7282E-03    -100.853E+06    -209.526E+06    -66.9378E+06     613.605E+03    -222.158E-03     439.204E-03    -217.046E-03     74.0282E-03    -223.341E-03     439.479E-03    -216.931E-03     63.0724E-03
            2188     2.89976E-03     20.6238E-03    -106.511E+06    -230.972E+06    -83.5068E+06     1.46767E+06    -219.476E-03     435.587E-03    -216.112E-03     57.9337E-03    -220.204E-03     435.359E-03    -216.040E-03     49.5712E-03
            2189     2.17661E-03     20.5421E-03    -111.632E+06    -254.366E+06    -97.9352E+06     871.390E+03    -217.308E-03     432.672E-03    -215.363E-03     42.8329E-03    -217.713E-03     432.060E-03    -215.322E-03     36.7467E-03
            2190     1.45171E-03     20.4851E-03    -115.877E+06    -277.283E+06    -109.627E+06     254.677E+03    -215.768E-03     430.563E-03    -214.795E-03     28.5432E-03    -215.946E-03     429.662E-03    -214.773E-03     24.5665E-03
            2191     726.637E-06     20.4481E-03    -118.705E+06    -296.167E+06    -117.160E+06     224.946E+03    -214.624E-03     429.120E-03    -214.497E-03     15.5168E-03    -214.668E-03     428.031E-03    -214.481E-03     13.4225E-03
            2192     13.5721E-03     22.7651E-03    -3.80437E+06     68.7242E+06     80.8222E+06     692.760E+03    -238.998E-03     470.564E-03    -231.566E-03     138.196E-03    -246.149E-03     477.711E-03    -231.256E-03     109.337E-03
            2193     12.8587E-03     22.5314E-03    -8.59559E+06     67.2297E+06     79.1007E+06     185.333E+03    -239.163E-03     470.243E-03    -231.080E-03     195.221E-03    -250.596E-03     481.654E-03    -230.769E-03     157.513E-03
            2194     12.1541E-03     22.2776E-03    -13.6316E+06     60.3791E+06     76.3378E+06     459.713E+03    -241.545E-03     472.039E-03    -230.494E-03     213.076E-03    -254.625E-03     485.063E-03    -230.180E-03     172.591E-03
            2195     11.4468E-03     21.9818E-03    -18.5774E+06     51.0030E+06     75.7021E+06     444.118E+03    -244.034E-03     473.781E-03    -229.747E-03     235.085E-03    -259.080E-03     488.722E-03    -229.415E-03     191.160E-03
            2196     10.7419E-03     21.6590E-03    -24.1028E+06     45.7876E+06     74.4443E+06     738.994E+03    -246.208E-03     475.012E-03    -228.805E-03     245.923E-03    -261.804E-03     490.470E-03    -228.464E-03     200.723E-03
            2197     10.0372E-03     21.3238E-03    -31.0034E+06     38.8872E+06     65.8885E+06     1.45809E+06    -247.468E-03     475.106E-03    -227.638E-03     245.107E-03    -262.317E-03     489.792E-03    -227.320E-03     200.636E-03
            2198     9.33169E-03     20.9914E-03    -38.1109E+06     30.1298E+06     55.0065E+06     2.05008E+06    -247.499E-03     473.767E-03    -226.268E-03     232.660E-03    -260.562E-03     486.643E-03    -225.981E-03     190.773E-03
            2199     8.62754E-03     20.6783E-03    -45.3196E+06     20.3197E+06     44.0886E+06     2.60584E+06    -246.074E-03     470.791E-03    -224.717E-03     211.372E-03    -256.788E-03     481.290E-03    -224.461E-03     173.517E-03
            2200     7.92060E-03     20.3916E-03    -52.7150E+06     9.45560E+06     33.0114E+06     2.56800E+06    -243.434E-03     466.460E-03    -223.026E-03     186.479E-03    -251.803E-03     474.581E-03    -222.798E-03     153.306E-03
            2201     7.21357E-03     20.1355E-03    -60.7198E+06    -9.80150E+06     20.7276E+06     2.72262E+06    -240.039E-03     461.290E-03    -221.251E-03     161.607E-03    -246.369E-03     467.311E-03    -221.045E-03     133.189E-03
            2202     6.50375E-03     19.9076E-03    -68.6955E+06    -50.0170E+06     4.18853E+06     3.09784E+06    -235.978E-03     455.434E-03    -219.456E-03     138.529E-03    -240.632E-03     459.656E-03    -219.263E-03     114.630E-03
            2203     5.79153E-03     19.7090E-03    -75.7773E+06    -98.1807E+06    -13.5015E+06     2.62788E+06    -231.580E-03     449.288E-03    -217.707E-03     117.408E-03    -234.912E-03     452.042E-03    -217.523E-03     97.5990E-03
            2204     5.07568E-03     19.5361E-03    -83.1360E+06    -138.059E+06    -29.9342E+06     1.91960E+06    -227.230E-03     443.277E-03    -216.046E-03     98.0229E-03    -229.552E-03     444.900E-03    -215.875E-03     81.8701E-03
            2205     4.35691E-03     19.3884E-03    -90.8426E+06    -179.483E+06    -47.1055E+06     1.26914E+06    -223.082E-03     437.597E-03    -214.515E-03     80.5032E-03    -224.645E-03     438.337E-03    -214.359E-03     67.5439E-03
            2206     3.63643E-03     19.2654E-03    -97.5769E+06    -210.578E+06    -64.9009E+06     1.04809E+06    -219.232E-03     432.371E-03    -213.140E-03     64.6571E-03    -220.239E-03     432.472E-03    -213.017E-03     54.4928E-03
            2207     2.91227E-03     19.1659E-03    -104.045E+06    -230.106E+06    -82.7788E+06     1.39192E+06    -215.932E-03     427.890E-03    -211.958E-03     50.3433E-03    -216.550E-03     427.561E-03    -211.888E-03     42.6297E-03
            2208     2.18580E-03     19.0890E-03    -108.711E+06    -251.617E+06    -98.4137E+06     1.19308E+06    -213.334E-03     424.347E-03    -211.013E-03     37.0173E-03    -213.668E-03     423.686E-03    -210.983E-03     31.4631E-03
            2209     1.45846E-03     19.0335E-03    -110.832E+06    -276.432E+06    -107.576E+06     463.813E+03    -211.424E-03     421.758E-03    -210.333E-03     24.5686E-03    -211.556E-03     420.824E-03    -210.310E-03     20.9353E-03
            2210     729.078E-06     19.0006E-03    -111.407E+06    -295.527E+06    -110.394E+06     559.265E+03    -209.986E-03     420.133E-03    -210.147E-03     13.0128E-03    -209.997E-03     419.018E-03    -210.109E-03     11.1003E-03
            2211     13.5649E-03     21.2504E-03    -3.18300E+06     70.8740E+06     80.5614E+06     270.609E+03    -239.484E-03     471.188E-03    -231.704E-03     137.199E-03    -246.602E-03     478.312E-03    -231.399E-03     108.277E-03
            2212     12.8608E-03     21.0088E-03    -8.40719E+06     67.6749E+06     78.8207E+06    -443.665E+03    -241.689E-03     472.826E-03    -231.138E-03     193.479E-03    -253.061E-03     484.181E-03    -230.830E-03     155.334E-03
            2213     12.1540E-03     20.7542E-03    -12.7487E+06     58.2239E+06     76.3417E+06     24.9365E+03    -244.354E-03     474.746E-03    -230.392E-03     210.707E-03    -257.299E-03     487.630E-03    -230.076E-03     169.717E-03
            2214     11.4509E-03     20.4607E-03    -18.1118E+06     51.6138E+06     75.3782E+06     1.00527E+06    -247.358E-03     476.788E-03    -229.430E-03     232.226E-03    -262.131E-03     491.461E-03    -229.102E-03     187.839E-03
            2215     10.7474E-03     20.1366E-03    -25.3012E+06     44.8097E+06     72.8135E+06     1.21464E+06    -250.150E-03     478.355E-03    -228.205E-03     240.075E-03    -265.204E-03     493.267E-03    -227.869E-03     194.656E-03
            2216     10.0453E-03     19.8050E-03    -32.1321E+06     38.4371E+06     65.5807E+06     1.24862E+06    -251.784E-03     478.453E-03    -226.669E-03     236.132E-03    -265.893E-03     492.396E-03    -226.351E-03     191.696E-03
            2217     9.34492E-03     19.4753E-03    -38.9908E+06     29.3464E+06     55.5379E+06     1.28472E+06    -251.687E-03     476.528E-03    -224.840E-03     220.700E-03    -263.893E-03     488.539E-03    -224.549E-03     179.174E-03
            2218     8.64298E-03     19.1676E-03    -45.6492E+06     19.4876E+06     43.9818E+06     1.52391E+06    -249.541E-03     472.304E-03    -222.763E-03     197.020E-03    -259.377E-03     481.920E-03    -222.505E-03     159.852E-03
            2219     7.94113E-03     18.8888E-03    -52.3856E+06     8.91343E+06     32.3927E+06     2.10997E+06    -245.868E-03     466.388E-03    -220.520E-03     170.855E-03    -253.415E-03     473.689E-03    -220.295E-03     138.672E-03
            2220     7.23557E-03     18.6400E-03    -59.3725E+06    -8.69748E+06     20.6783E+06     2.58022E+06    -241.021E-03     459.235E-03    -218.214E-03     145.565E-03    -246.636E-03     464.551E-03    -218.012E-03     118.359E-03
            2221     6.52691E-03     18.4227E-03    -66.5173E+06    -47.0119E+06     4.60303E+06     2.52223E+06    -235.694E-03     451.626E-03    -215.932E-03     122.791E-03    -239.764E-03     455.281E-03    -215.744E-03     100.171E-03
            2222     5.81400E-03     18.2321E-03    -74.1896E+06    -95.3692E+06    -13.5595E+06     2.24559E+06    -230.347E-03     444.075E-03    -213.728E-03     102.586E-03    -233.226E-03     446.393E-03    -213.550E-03     84.0136E-03
            2223     5.09840E-03     18.0687E-03    -81.6090E+06    -135.507E+06    -29.9398E+06     2.04283E+06    -225.013E-03     436.658E-03    -211.645E-03     84.7425E-03    -227.003E-03     437.965E-03    -211.480E-03     69.7297E-03
            2224     4.37884E-03     17.9297E-03    -88.3708E+06    -177.023E+06    -44.1391E+06     2.14978E+06    -219.827E-03     429.589E-03    -209.763E-03     69.0014E-03    -221.153E-03     430.101E-03    -209.599E-03     57.0865E-03
            2225     3.65428E-03     17.8144E-03    -95.9506E+06    -209.763E+06    -60.6316E+06     2.07731E+06    -215.211E-03     423.307E-03    -208.096E-03     55.0641E-03    -216.065E-03     423.251E-03    -207.956E-03     45.7778E-03
            2226     2.92753E-03     17.7210E-03    -102.063E+06    -228.608E+06    -79.3888E+06     1.78122E+06    -211.363E-03     418.014E-03    -206.650E-03     42.4367E-03    -211.884E-03     417.588E-03    -206.568E-03     35.4313E-03
            2227     2.19858E-03     17.6490E-03    -106.608E+06    -249.340E+06    -96.9286E+06     1.83125E+06    -208.193E-03     413.681E-03    -205.488E-03     30.9150E-03    -208.468E-03     412.971E-03    -205.457E-03     25.9092E-03
            2228     1.46657E-03     17.5979E-03    -110.631E+06    -274.109E+06    -108.999E+06     1.61414E+06    -205.874E-03     410.544E-03    -204.670E-03     20.4185E-03    -205.982E-03     409.599E-03    -204.657E-03     17.1570E-03
            2229     734.069E-06     17.5664E-03    -112.239E+06    -293.883E+06    -112.350E+06     136.975E+03    -204.486E-03     408.708E-03    -204.222E-03     10.8571E-03    -204.493E-03     407.597E-03    -204.195E-03     9.10784E-03
            2230     13.5670E-03     19.7274E-03    -5.23521E+06     71.3146E+06     78.8236E+06     43.4810E+03    -241.915E-03     473.674E-03    -231.759E-03     135.439E-03    -248.999E-03     480.764E-03    -231.460E-03     106.252E-03
            2231     12.8605E-03     19.4818E-03    -9.19451E+06     70.0606E+06     78.8285E+06     57.6265E+03    -244.268E-03     475.327E-03    -231.058E-03     192.745E-03    -255.578E-03     486.624E-03    -230.753E-03     154.171E-03
            2232     12.1579E-03     19.2319E-03    -15.3262E+06     56.4561E+06     74.2358E+06    -479.801E+03    -247.990E-03     478.112E-03    -230.122E-03     209.140E-03    -260.716E-03     490.768E-03    -229.811E-03     167.610E-03
            2233     11.4553E-03     18.9306E-03    -21.5064E+06     48.9170E+06     72.4658E+06     47.0689E+03    -252.753E-03     481.606E-03    -228.853E-03     227.202E-03    -267.011E-03     495.751E-03    -228.530E-03     182.268E-03
            2234     10.7576E-03     18.6116E-03    -26.3135E+06     45.0310E+06      72.188E+06     332.600E+03    -256.386E-03     483.562E-03    -227.176E-03     230.432E-03    -270.627E-03     497.661E-03    -226.842E-03     184.668E-03
            2235     10.0611E-03     18.2797E-03    -31.9822E+06     37.7029E+06     65.3601E+06     247.173E+03    -257.913E-03     482.980E-03    -225.067E-03     222.365E-03    -270.987E-03     495.886E-03    -224.748E-03     178.016E-03
            2236     9.36504E-03     17.9564E-03    -38.4120E+06     28.5638E+06     54.6775E+06     397.009E+03    -256.652E-03     479.247E-03    -222.595E-03     203.889E-03    -267.728E-03     490.132E-03    -222.307E-03     163.021E-03
            2237     8.66864E-03     17.6564E-03    -44.8857E+06     19.0613E+06     42.4600E+06     428.006E+03    -253.075E-03     472.940E-03    -219.865E-03     178.980E-03    -261.851E-03     481.504E-03    -219.615E-03     142.881E-03
            2238     7.96862E-03     17.3864E-03    -51.5771E+06     8.23568E+06     30.9626E+06     967.814E+03    -247.847E-03     464.842E-03    -216.996E-03     152.307E-03    -254.473E-03     471.227E-03    -216.778E-03     121.473E-03
            2239     7.26535E-03     17.1506E-03    -58.5029E+06    -8.19425E+06     20.1152E+06     1.36564E+06    -241.436E-03     455.541E-03    -214.106E-03     127.058E-03    -246.285E-03     460.098E-03    -213.908E-03     101.350E-03
            2240     6.55711E-03     16.9436E-03    -65.8354E+06    -44.8389E+06     4.54453E+06     1.94191E+06    -234.678E-03     445.965E-03    -211.287E-03     105.101E-03    -238.146E-03     449.029E-03    -211.104E-03     84.0036E-03
            2241     5.84486E-03     16.7657E-03    -73.1386E+06    -92.6254E+06    -13.6768E+06     2.57495E+06    -227.903E-03     436.515E-03    -208.612E-03     86.3238E-03    -230.319E-03     438.383E-03    -208.440E-03     69.2537E-03
            2242     5.12654E-03     16.6124E-03    -80.7628E+06    -133.686E+06    -30.2313E+06     2.97465E+06    -221.302E-03     427.446E-03    -206.145E-03     70.3809E-03    -222.956E-03     428.427E-03    -205.985E-03     56.7417E-03
            2243     4.40353E-03     16.4844E-03    -89.0174E+06    -173.644E+06    -45.3599E+06     2.91470E+06    -215.388E-03     419.325E-03    -203.937E-03     56.7443E-03    -216.494E-03     419.629E-03    -203.783E-03     45.9802E-03
            2244     3.67744E-03     16.3778E-03    -96.1946E+06    -207.273E+06    -60.0591E+06     1.88682E+06    -210.219E-03     412.206E-03    -201.987E-03     44.7943E-03    -210.929E-03     412.011E-03    -201.847E-03     36.4531E-03
            2245     2.94696E-03     16.2918E-03    -103.274E+06    -228.859E+06    -77.5341E+06     2.38301E+06    -205.652E-03     405.957E-03    -200.305E-03     34.1801E-03    -206.088E-03     405.436E-03    -200.211E-03     27.9444E-03
            2246     2.21270E-03     16.2262E-03    -110.292E+06    -248.289E+06    -95.5147E+06     4.16964E+06    -202.026E-03     400.978E-03    -198.952E-03     24.7710E-03    -202.273E-03     400.225E-03    -198.909E-03     20.3660E-03
            2247     1.47681E-03     16.1796E-03    -115.114E+06    -268.636E+06    -109.851E+06     4.45443E+06    -199.399E-03     397.351E-03    -197.953E-03     16.1249E-03    -199.512E-03     396.418E-03    -197.946E-03     13.2991E-03
            2248     738.448E-06     16.1505E-03    -118.567E+06    -287.912E+06    -118.471E+06     2.57197E+06    -197.803E-03     395.049E-03    -197.246E-03     8.50326E-03    -197.835E-03     393.978E-03    -197.249E-03     7.01153E-03
            2249     13.5660E-03     18.1981E-03    -5.86442E+06     70.5467E+06     77.3581E+06     908.926E+03    -243.561E-03     475.278E-03    -231.718E-03     136.540E-03    -250.643E-03     482.365E-03    -231.425E-03     107.008E-03
            2250     12.8632E-03     17.9587E-03    -9.60895E+06     70.5786E+06     77.0154E+06     432.812E+03    -248.496E-03     479.349E-03    -230.854E-03     192.716E-03    -259.694E-03     490.540E-03    -230.557E-03     153.438E-03
            2251     12.1611E-03     17.6966E-03    -12.8973E+06     57.0480E+06     74.7872E+06        -48.6875    -254.901E-03     484.485E-03    -229.584E-03     204.982E-03    -267.213E-03     496.737E-03    -229.274E-03     162.558E-03
            2252     11.4673E-03     17.3983E-03    -17.2874E+06     48.1145E+06     74.6524E+06     394.297E+03    -260.817E-03     488.616E-03    -227.799E-03     217.488E-03    -274.255E-03     501.948E-03    -227.470E-03     171.852E-03
            2253     10.7746E-03     17.0745E-03    -23.0794E+06     45.3146E+06     74.0017E+06     528.440E+03    -264.382E-03     489.845E-03    -225.463E-03     215.892E-03    -277.499E-03     502.828E-03    -225.125E-03     169.924E-03
            2254     10.0858E-03     16.7499E-03    -29.5424E+06     38.1897E+06     66.1874E+06     515.004E+03    -264.639E-03     487.261E-03    -222.622E-03     204.641E-03    -276.443E-03     498.906E-03    -222.304E-03     160.761E-03
            2255     9.39592E-03     16.4348E-03    -35.7953E+06     28.9368E+06     54.6708E+06     463.568E+03    -261.827E-03     481.232E-03    -219.404E-03     184.785E-03    -271.661E-03     490.886E-03    -219.121E-03     144.941E-03
            2256     8.70261E-03     16.1460E-03    -42.3049E+06     19.2920E+06     42.7745E+06      803.71E+03    -256.577E-03     472.521E-03    -215.944E-03     158.497E-03    -264.213E-03     479.956E-03    -215.697E-03     123.844E-03
            2257     8.00587E-03     15.8893E-03    -49.3091E+06     8.42213E+06     31.6997E+06     827.504E+03    -249.248E-03     461.633E-03    -212.385E-03     130.696E-03    -254.886E-03     467.039E-03    -212.167E-03     101.589E-03
            2258     7.30365E-03     15.6667E-03    -56.7021E+06    -8.09857E+06     20.4433E+06     1.34662E+06    -240.868E-03     449.743E-03    -208.875E-03     105.929E-03    -244.911E-03     453.500E-03    -208.679E-03     82.0895E-03
            2259     6.59577E-03     15.4757E-03    -64.4891E+06    -43.8589E+06     3.70580E+06     2.60361E+06    -232.409E-03     437.928E-03    -205.519E-03     85.7538E-03    -235.261E-03     440.387E-03    -205.343E-03     66.4767E-03
            2260     5.88083E-03     15.3108E-03    -72.6129E+06    -90.8288E+06    -15.8984E+06     3.88723E+06    -224.179E-03     426.575E-03    -202.396E-03     68.8591E-03    -226.144E-03     428.007E-03    -202.239E-03     53.4694E-03
            2261     5.16060E-03     15.1724E-03    -80.3010E+06    -132.085E+06    -32.5316E+06     5.15308E+06    -216.547E-03     416.112E-03    -199.564E-03     54.8091E-03    -217.876E-03     416.781E-03    -199.419E-03     42.6650E-03
            2262     4.43460E-03     15.0548E-03    -87.7987E+06    -167.331E+06    -47.7743E+06     4.43267E+06    -209.783E-03     406.824E-03    -197.041E-03     43.2530E-03    -210.667E-03     406.939E-03    -196.910E-03     33.7506E-03
            2263     3.70328E-03     14.9581E-03    -95.7831E+06    -203.916E+06    -61.7257E+06     3.01574E+06    -203.852E-03     398.711E-03    -194.859E-03     33.5938E-03    -204.418E-03     398.389E-03    -194.733E-03     26.2959E-03
            2264     2.96802E-03     14.8816E-03    -103.325E+06    -231.016E+06    -76.6442E+06     3.94125E+06    -198.847E-03     391.862E-03    -193.015E-03     25.3589E-03    -199.195E-03     391.242E-03    -192.913E-03     19.9376E-03
            2265     2.22951E-03     14.8227E-03    -109.160E+06    -245.990E+06    -91.9335E+06     5.05208E+06    -194.881E-03     386.400E-03    -191.518E-03     18.2310E-03    -195.085E-03     385.605E-03    -191.463E-03     14.4163E-03
            2266     1.48799E-03     14.7802E-03    -113.907E+06    -262.819E+06    -104.765E+06     4.93201E+06    -191.963E-03     382.376E-03    -190.413E-03     11.7476E-03    -192.066E-03     381.440E-03    -190.390E-03     9.31987E-03
            2267     744.916E-06     14.7566E-03    -117.055E+06    -276.426E+06    -114.427E+06     4.29829E+06    -190.366E-03     379.829E-03    -189.462E-03     6.30452E-03    -190.406E-03     378.800E-03    -189.464E-03     5.05949E-03
            2268     13.5669E-03     16.6754E-03    -2.20881E+06     71.0392E+06     79.0890E+06     917.870E+03    -248.169E-03     479.730E-03    -231.561E-03     136.616E-03    -255.183E-03     486.759E-03    -231.266E-03     106.309E-03
            2269     12.8652E-03     16.4187E-03    -5.86990E+06     72.0804E+06     78.7328E+06     629.477E+03    -255.982E-03     486.324E-03    -230.342E-03     188.592E-03    -266.900E-03     497.249E-03    -230.044E-03     148.125E-03
            2270     12.1750E-03     16.1563E-03    -11.4767E+06     56.9317E+06     74.7627E+06     249.575E+03    -264.324E-03     492.845E-03    -228.522E-03     196.929E-03    -276.042E-03     504.509E-03    -228.214E-03     153.352E-03
            2271     11.4862E-03     15.8507E-03    -17.2583E+06     48.5929E+06     74.1646E+06     113.933E+03    -270.485E-03     496.522E-03    -226.037E-03     204.654E-03    -282.947E-03     508.882E-03    -225.712E-03     158.374E-03
            2272     10.8041E-03     15.5325E-03    -23.1742E+06     44.7703E+06     73.4616E+06           -301.    -272.636E-03     495.572E-03    -222.936E-03     199.911E-03    -284.549E-03     507.352E-03    -222.600E-03     154.074E-03
            2273     10.1198E-03     15.2151E-03    -28.9807E+06     38.7194E+06      66.061E+06    -70.5814E+03    -271.470E-03     490.777E-03    -219.307E-03     185.986E-03    -281.989E-03     501.144E-03    -218.991E-03     142.872E-03
            2274     9.43408E-03     14.9122E-03    -34.9055E+06     29.3300E+06     54.5340E+06    -296.829E+03    -267.300E-03     482.575E-03    -215.275E-03     163.809E-03    -275.907E-03     491.010E-03    -214.994E-03     125.136E-03
            2275     8.74607E-03     14.6364E-03    -40.6876E+06     18.4781E+06     43.0073E+06    -7.26893E+03    -259.934E-03     470.940E-03    -211.006E-03     135.471E-03    -266.446E-03     477.255E-03    -210.759E-03     102.434E-03
            2276     8.05242E-03     14.3975E-03    -47.0146E+06     7.57594E+06     32.1572E+06     1.56513E+06    -249.996E-03     456.705E-03    -206.710E-03     107.289E-03    -254.665E-03     461.147E-03    -206.492E-03     80.1823E-03
            2277     7.35075E-03     14.1945E-03    -54.8830E+06    -8.44388E+06     20.3385E+06     3.43888E+06    -239.337E-03     441.911E-03    -202.574E-03     83.9308E-03    -242.631E-03     444.925E-03    -202.380E-03     62.1196E-03
            2278     6.64087E-03     14.0198E-03    -63.6106E+06    -42.1425E+06     3.27501E+06     4.75261E+06    -229.056E-03     427.755E-03    -198.699E-03     65.1055E-03    -231.350E-03     429.667E-03    -198.529E-03     47.7342E-03
            2279     5.92425E-03     13.8731E-03    -71.4196E+06    -88.7803E+06    -17.5778E+06     5.91493E+06    -219.464E-03     414.604E-03    -195.140E-03     49.9890E-03    -221.015E-03     415.639E-03    -194.996E-03     36.3104E-03
            2280     5.19995E-03     13.7482E-03    -77.7733E+06    -129.618E+06    -35.8275E+06     6.47559E+06    -210.825E-03     402.761E-03    -191.936E-03     38.2772E-03    -211.854E-03     403.157E-03    -191.814E-03     27.5983E-03
            2281     4.46986E-03     13.6446E-03    -83.5736E+06    -161.266E+06    -50.5569E+06     6.57894E+06    -203.024E-03     392.146E-03    -189.122E-03     29.1158E-03    -203.696E-03     392.093E-03    -189.020E-03     20.8853E-03
            2282     3.73394E-03     13.5597E-03    -89.9576E+06    -199.207E+06    -60.9326E+06     6.20090E+06    -196.309E-03     383.072E-03    -186.763E-03     21.8511E-03    -196.727E-03     382.637E-03    -186.649E-03     15.5984E-03
            2283     2.99295E-03     13.4921E-03    -96.9987E+06    -229.396E+06    -71.6518E+06     4.99946E+06    -190.914E-03     375.734E-03    -184.820E-03     16.1326E-03    -191.166E-03     375.030E-03    -184.705E-03     11.4869E-03
            2284     2.24823E-03     13.4402E-03    -103.626E+06    -242.835E+06    -86.2025E+06     4.45002E+06    -186.633E-03     369.897E-03    -183.264E-03     11.5184E-03    -186.783E-03     369.061E-03    -183.193E-03     8.24489E-03
            2285     1.50026E-03     13.4048E-03    -108.300E+06    -256.666E+06    -99.6494E+06     3.99806E+06    -183.621E-03     365.772E-03    -182.151E-03     7.49053E-03    -183.696E-03     364.834E-03    -182.120E-03     5.40027E-03
            2286     750.335E-06     13.3816E-03    -111.043E+06    -266.389E+06    -108.537E+06     2.52637E+06    -181.962E-03     363.319E-03    -181.357E-03     4.02765E-03    -181.991E-03     362.318E-03    -181.352E-03     2.93210E-03
            2287     13.5719E-03     15.1309E-03    -3.90278E+06     69.7151E+06     79.2865E+06    -1.56393E+06    -257.094E-03     488.274E-03    -231.179E-03     137.725E-03    -264.196E-03     495.378E-03    -230.878E-03     105.862E-03
            2288     12.8828E-03     14.8791E-03    -8.67510E+06     71.4371E+06     78.7007E+06     175.645E+03    -266.857E-03     496.251E-03    -229.393E-03     187.065E-03    -277.674E-03     507.062E-03    -229.091E-03     144.737E-03
            2289     12.1938E-03     14.5977E-03    -14.0226E+06     58.5577E+06     74.5225E+06     1.06518E+06    -275.181E-03     502.055E-03    -226.875E-03     190.331E-03    -286.387E-03     513.205E-03    -226.566E-03     145.500E-03
            2290     11.5171E-03     14.2959E-03    -19.2231E+06     50.5564E+06     73.1154E+06    -746.361E+03    -280.216E-03     503.842E-03    -223.626E-03     193.750E-03    -291.863E-03     515.391E-03    -223.306E-03     146.818E-03
            2291     10.8377E-03     13.9827E-03    -24.1450E+06     45.3128E+06     72.4917E+06    -2.32189E+06    -281.533E-03     501.248E-03    -219.715E-03     184.802E-03    -292.414E-03     512.000E-03    -219.384E-03     138.952E-03
            2292     10.1610E-03     13.6755E-03    -29.2528E+06     37.0918E+06     65.6144E+06    -2.78656E+06    -279.249E-03     494.465E-03    -215.216E-03     166.841E-03    -288.637E-03     503.698E-03    -214.899E-03     124.268E-03
            2293     9.48282E-03     13.3873E-03    -34.2915E+06     27.8397E+06     54.9683E+06    -2.21957E+06    -273.049E-03     483.330E-03    -210.282E-03     141.566E-03    -280.551E-03     490.658E-03    -209.997E-03     103.955E-03
            2294     8.79896E-03     13.1297E-03    -40.4424E+06     16.1274E+06     41.0142E+06    -476.900E+03    -262.445E-03     467.610E-03    -205.165E-03     111.466E-03    -267.938E-03     472.907E-03    -204.925E-03     80.1447E-03
            2295     8.10600E-03     12.9151E-03    -47.5177E+06     3.43397E+06     26.8150E+06     2.34067E+06    -249.724E-03     449.879E-03    -200.155E-03     84.1318E-03    -253.569E-03     453.497E-03    -199.957E-03     58.9759E-03
            2296     7.40405E-03     12.7327E-03    -54.7519E+06    -9.81006E+06     15.9368E+06     5.01898E+06    -237.221E-03     432.649E-03    -195.427E-03     62.6604E-03    -239.917E-03     435.075E-03    -195.254E-03     42.6480E-03
            2297     6.69346E-03     12.5806E-03    -62.1884E+06    -40.2751E+06     2.68818E+06     7.28547E+06    -225.311E-03     416.362E-03    -191.051E-03     45.4299E-03    -227.165E-03     417.848E-03    -190.889E-03     29.7193E-03
            2298     5.97313E-03     12.4518E-03    -69.9436E+06    -84.7782E+06    -15.9821E+06     8.38071E+06    -214.218E-03     401.285E-03    -187.067E-03     32.3642E-03    -215.462E-03     402.027E-03    -186.922E-03     20.1556E-03
            2299     5.24542E-03     12.3450E-03    -77.8336E+06    -124.220E+06    -36.3835E+06     7.75266E+06    -204.161E-03     387.677E-03    -183.516E-03     22.9315E-03    -204.985E-03     387.889E-03    -183.405E-03     13.5068E-03
            2300     4.50959E-03     12.2557E-03    -84.1830E+06    -158.368E+06    -54.7338E+06     7.43545E+06    -195.386E-03     375.837E-03    -180.451E-03     16.1110E-03    -195.919E-03     375.664E-03    -180.373E-03     8.91363E-03
            2301     3.76738E-03     12.1840E-03    -88.6943E+06    -192.593E+06    -66.3873E+06     7.17508E+06    -188.058E-03     365.974E-03    -177.916E-03     11.3904E-03    -188.384E-03     365.489E-03    -177.840E-03     5.97471E-03
            2302     3.02016E-03     12.1256E-03    -93.1897E+06    -222.987E+06    -72.8787E+06     5.24287E+06    -182.109E-03     358.019E-03    -175.910E-03     8.01343E-03    -182.297E-03     357.290E-03    -175.816E-03     4.01731E-03
            2303     2.26831E-03     12.0828E-03    -97.6816E+06    -240.210E+06    -82.0502E+06     3.86845E+06    -177.722E-03     352.087E-03    -174.365E-03     5.51367E-03    -177.824E-03     351.221E-03    -174.286E-03     2.70220E-03
            2304     1.51394E-03     12.0507E-03    -101.629E+06    -250.922E+06    -93.7883E+06     3.50827E+06    -174.749E-03     347.990E-03    -173.240E-03     3.32762E-03    -174.795E-03     347.049E-03    -173.198E-03     1.53621E-03
            2305     757.693E-06     12.0331E-03    -104.163E+06    -259.044E+06    -102.585E+06     2.27355E+06    -173.012E-03     345.464E-03    -172.452E-03     1.47333E-03    -173.022E-03     344.475E-03    -172.438E-03     539.298E-06
            2306     13.5800E-03     13.5884E-03    -4.81777E+06     68.3902E+06     79.8744E+06    -854.606E+03    -268.768E-03     499.408E-03    -230.640E-03     143.885E-03    -276.189E-03     506.822E-03    -230.333E-03     109.655E-03
            2307     12.8931E-03     13.3056E-03    -9.26117E+06     67.4594E+06     78.4054E+06    -526.097E+03    -279.513E-03     507.684E-03    -228.171E-03     188.277E-03    -290.459E-03     518.610E-03    -227.864E-03     143.401E-03
            2308     12.2230E-03     13.0339E-03    -12.5585E+06     61.3228E+06     76.5180E+06    -260.587E+03    -287.052E-03     511.935E-03    -224.883E-03     187.453E-03    -298.066E-03     522.901E-03    -224.571E-03     140.794E-03
            2309     11.5469E-03     12.7285E-03    -16.1631E+06     55.5684E+06     76.5347E+06    -1.61957E+06    -291.529E-03     512.332E-03    -220.803E-03     184.967E-03    -302.645E-03     523.370E-03    -220.477E-03     136.849E-03
            2310     10.8801E-03     12.4226E-03    -20.9729E+06     46.8876E+06     74.1599E+06    -2.96524E+06    -291.636E-03     507.615E-03    -215.979E-03     170.048E-03    -301.717E-03     517.580E-03    -215.646E-03     123.712E-03
            2311     10.2106E-03     12.1309E-03    -26.8457E+06     36.0444E+06     65.2203E+06    -2.89276E+06    -287.778E-03     498.296E-03    -210.518E-03     149.240E-03    -296.324E-03     506.694E-03    -210.205E-03     106.703E-03
            2312     9.53767E-03     11.8579E-03    -33.9585E+06     25.7029E+06     52.5716E+06    -1.83948E+06    -278.113E-03     482.781E-03    -204.668E-03     120.233E-03    -284.705E-03     489.203E-03    -204.393E-03     83.6439E-03
            2313     8.85674E-03     11.6302E-03    -41.4776E+06     11.8321E+06     37.4585E+06     610.839E+03    -263.718E-03     462.518E-03    -198.801E-03     89.9100E-03    -268.422E-03     467.019E-03    -198.570E-03     60.2045E-03
            2314     8.16464E-03     11.4412E-03    -48.4945E+06     -1.1802E+06     22.1587E+06     3.53406E+06    -248.793E-03     441.977E-03    -193.184E-03     64.8529E-03    -252.083E-03     445.035E-03    -193.001E-03     41.2043E-03
            2315     7.46168E-03     11.2854E-03    -55.6546E+06    -13.1603E+06     8.63791E+06     6.66114E+06    -234.516E-03     422.451E-03    -187.935E-03     45.4160E-03    -236.817E-03     424.489E-03    -187.792E-03     26.7805E-03
            2316     6.74784E-03     11.1554E-03    -63.6010E+06    -39.2471E+06    -4.33993E+06     9.70949E+06    -220.987E-03     404.122E-03    -183.135E-03     30.6842E-03    -222.585E-03     405.372E-03    -183.008E-03     16.1716E-03
            2317     6.02499E-03     11.0502E-03    -71.5618E+06    -78.8506E+06    -17.0148E+06     10.6003E+06    -208.572E-03     387.412E-03    -178.841E-03     20.2836E-03    -209.670E-03     388.028E-03    -178.707E-03     9.07722E-03
            2318     5.29171E-03     10.9618E-03    -78.9907E+06    -117.344E+06    -32.4422E+06     9.59877E+06    -197.461E-03     372.516E-03    -175.055E-03     13.1072E-03    -198.208E-03     372.659E-03    -174.932E-03     4.50085E-03
            2319     4.55057E-03     10.8906E-03    -85.5564E+06    -153.641E+06    -51.7326E+06     8.36301E+06    -187.902E-03     359.693E-03    -171.791E-03     8.12075E-03    -188.392E-03     359.482E-03    -171.703E-03     1.57215E-03
            2320     3.80245E-03     10.8309E-03    -90.6749E+06    -185.859E+06    -70.7044E+06     6.85738E+06    -179.929E-03     349.004E-03    -169.075E-03     4.79471E-03    -180.230E-03     348.525E-03    -169.028E-03    -111.306E-06
            2321     3.04810E-03     10.7852E-03    -93.7407E+06    -214.557E+06    -82.4212E+06     4.33959E+06    -173.666E-03     340.596E-03    -166.930E-03     2.76702E-03    -173.833E-03     339.903E-03    -166.895E-03    -842.992E-06
            2322     2.28973E-03     10.7481E-03    -95.9074E+06    -237.655E+06    -85.5664E+06     2.08828E+06    -169.022E-03     334.345E-03    -165.323E-03     1.51631E-03    -169.102E-03     333.483E-03    -165.267E-03    -1.03419E-03
            2323     1.52824E-03     10.7228E-03    -97.7780E+06    -248.240E+06    -90.5220E+06     1.72444E+06    -165.751E-03     329.920E-03    -164.168E-03     652.542E-06    -165.781E-03     328.977E-03    -164.119E-03    -984.496E-06
            2324     764.475E-06     10.7071E-03    -98.4568E+06    -252.762E+06    -96.6140E+06     1.35523E+06    -164.028E-03     327.307E-03    -163.279E-03     406.295E-06    -164.026E-03     326.332E-03    -163.253E-03    -454.526E-06
            2325     13.5854E-03     12.0050E-03    -3.02507E+06     69.1945E+06     81.7526E+06    -794.138E+03    -281.734E-03     511.735E-03    -230.001E-03     149.352E-03    -289.412E-03     519.410E-03    -229.688E-03     112.758E-03
            2326     12.9188E-03     11.7301E-03    -6.81618E+06     67.0487E+06     80.6249E+06    -2.05212E+06    -291.982E-03     518.806E-03    -226.824E-03     189.229E-03    -303.115E-03     529.919E-03    -226.508E-03     141.877E-03
            2327     12.2427E-03     11.4493E-03    -10.6820E+06      62.762E+06     77.6425E+06    -2.82478E+06    -299.807E-03     522.547E-03    -222.739E-03     185.871E-03    -310.904E-03     533.605E-03    -222.427E-03     136.825E-03
            2328     11.5867E-03     11.1415E-03    -15.1611E+06     56.3891E+06     76.0008E+06    -3.09092E+06    -303.854E-03     521.620E-03    -217.766E-03     178.045E-03    -314.767E-03     532.463E-03    -217.445E-03     128.051E-03
            2329     10.9242E-03     10.8573E-03    -21.1365E+06     46.3768E+06     72.6773E+06    -2.17494E+06    -302.977E-03     514.955E-03    -211.978E-03     159.661E-03    -312.695E-03     524.560E-03    -211.651E-03     112.009E-03
            2330     10.2622E-03     10.5715E-03    -28.3557E+06     35.5178E+06     62.4312E+06    -1.19062E+06    -295.918E-03     501.478E-03    -205.560E-03     133.579E-03    -303.895E-03     509.312E-03    -205.258E-03     90.8474E-03
            2331     9.59544E-03     10.3323E-03    -35.6781E+06     23.1685E+06     47.1459E+06     717.842E+03    -280.925E-03     479.854E-03    -198.929E-03     101.290E-03    -286.832E-03     485.594E-03    -198.675E-03     65.8145E-03
            2332     8.91433E-03     10.1357E-03    -42.9175E+06     8.54087E+06     31.1509E+06     3.05766E+06    -263.221E-03     455.744E-03    -192.524E-03     74.0324E-03    -267.450E-03     459.773E-03    -192.318E-03     45.5937E-03
            2333     8.22110E-03     9.97793E-03    -50.5723E+06    -5.22290E+06     16.6349E+06     5.64306E+06    -246.388E-03     432.925E-03    -186.537E-03     52.9364E-03    -249.408E-03     435.707E-03    -186.373E-03     30.3628E-03
            2334     7.51606E-03     9.84959E-03    -58.4090E+06    -18.5699E+06     3.46393E+06     9.72142E+06    -230.453E-03     411.485E-03    -181.032E-03     37.0920E-03    -232.611E-03     413.367E-03    -180.903E-03     19.3943E-03
            2335     6.79917E-03     9.74849E-03    -66.1951E+06    -36.9451E+06    -9.10262E+06     12.2426E+06    -215.762E-03     391.828E-03    -176.066E-03     25.9564E-03    -217.319E-03     393.049E-03    -175.962E-03     12.1771E-03
            2336     6.07018E-03     9.66497E-03    -72.6780E+06    -70.1877E+06    -20.7257E+06     10.7034E+06    -202.826E-03     374.493E-03    -171.667E-03     18.0819E-03    -203.934E-03     375.157E-03    -171.564E-03     7.36623E-03
            2337     5.33264E-03     9.59934E-03    -77.5156E+06    -111.720E+06    -30.0013E+06     8.78828E+06    -191.488E-03     359.314E-03    -167.826E-03     12.5002E-03    -192.256E-03     359.499E-03    -167.702E-03     4.20952E-03
            2338     4.58629E-03     9.54377E-03    -82.9836E+06    -148.088E+06    -43.6855E+06     8.36669E+06    -181.657E-03     346.151E-03    -164.494E-03     8.58214E-03    -182.176E-03     345.977E-03    -164.378E-03     2.25233E-03
            2339     3.83258E-03     9.50098E-03    -88.8183E+06    -179.421E+06    -62.7392E+06     7.36745E+06    -173.538E-03     335.195E-03    -161.657E-03     5.71672E-03    -173.870E-03     334.756E-03    -161.582E-03     946.219E-06
            2340     3.07318E-03     9.46466E-03    -93.8438E+06    -206.433E+06    -80.7714E+06     5.29649E+06    -166.986E-03     326.306E-03    -159.320E-03     3.62230E-03    -167.180E-03     325.667E-03    -159.288E-03     104.003E-06
            2341     2.30930E-03     9.43755E-03    -97.7926E+06    -231.754E+06    -92.3200E+06     1.89196E+06    -161.760E-03     319.286E-03    -157.526E-03     2.22488E-03    -161.855E-03     318.476E-03    -157.510E-03    -274.093E-06
            2342     1.54126E-03     9.41770E-03    -99.9964E+06    -248.092E+06    -95.6428E+06    -768.106E+03    -158.071E-03     314.369E-03    -156.298E-03     1.35922E-03    -158.107E-03     313.444E-03    -156.272E-03    -280.966E-06
            2343     771.262E-06     9.40552E-03    -101.618E+06    -251.042E+06    -99.0096E+06    -371.899E+03    -155.939E-03     311.551E-03    -155.612E-03     832.339E-06    -155.952E-03     310.596E-03    -155.596E-03    -39.3821E-06
            2344     13.6014E-03     10.4126E-03    -3.42043E+06     72.3171E+06     80.5746E+06    -1.89721E+06    -294.202E-03     523.566E-03    -229.364E-03     158.287E-03    -302.395E-03     531.769E-03    -229.061E-03     119.192E-03
            2345     12.9269E-03     10.1347E-03    -7.96261E+06     69.9013E+06     78.9834E+06    -4.88681E+06    -304.826E-03     530.333E-03    -225.507E-03     196.023E-03    -316.643E-03     542.140E-03    -225.202E-03     145.501E-03
            2346     12.2777E-03     9.84049E-03    -12.5504E+06     60.9092E+06     74.9222E+06    -4.76582E+06    -313.343E-03     533.980E-03    -220.637E-03     188.891E-03    -324.922E-03     545.515E-03    -220.332E-03     136.793E-03
            2347     11.6180E-03     9.55024E-03    -18.5624E+06     52.3271E+06     71.5880E+06    -2.57486E+06    -317.489E-03     532.236E-03    -214.747E-03     175.015E-03    -328.578E-03     543.241E-03    -214.438E-03     122.323E-03
            2348     10.9674E-03     9.26351E-03    -25.1216E+06     44.8959E+06     67.3211E+06    -1.06517E+06    -314.369E-03     522.345E-03    -207.976E-03     147.940E-03    -323.838E-03     531.702E-03    -207.668E-03     98.7570E-03
            2349     10.3155E-03     9.01075E-03    -31.7085E+06     34.0504E+06     57.0440E+06     343.783E+03    -299.613E-03     500.400E-03    -200.787E-03     117.032E-03    -307.023E-03     507.670E-03    -200.505E-03     74.9291E-03
            2350     9.64691E-03     8.80782E-03    -38.7200E+06     19.6361E+06     42.5416E+06     2.65931E+06    -279.170E-03     472.954E-03    -193.784E-03     89.2940E-03    -284.659E-03     478.265E-03    -193.544E-03     55.2507E-03
            2351     8.96483E-03     8.65130E-03    -45.8374E+06     4.76209E+06     26.8779E+06     5.71452E+06    -259.415E-03     446.687E-03    -187.272E-03     68.4204E-03    -263.469E-03     450.529E-03    -187.078E-03     41.2086E-03
            2352     8.26790E-03     8.52478E-03    -52.8329E+06    -9.17696E+06     13.7895E+06     9.15467E+06    -240.900E-03     422.246E-03    -181.346E-03     52.8991E-03    -243.894E-03     424.989E-03    -181.187E-03     31.3791E-03
            2353     7.55689E-03     8.43019E-03    -59.8753E+06    -21.8397E+06     4.02851E+06     11.5145E+06    -224.236E-03     400.276E-03    -176.040E-03     41.6864E-03    -226.470E-03     402.214E-03    -175.901E-03     24.7233E-03
            2354     6.83335E-03     8.35448E-03    -65.0139E+06    -32.4338E+06    -4.66077E+06     11.5360E+06    -209.790E-03     381.106E-03    -171.315E-03     33.9362E-03    -211.471E-03     382.459E-03    -171.197E-03     20.5538E-03
            2355     6.10063E-03     8.29681E-03    -69.4618E+06    -60.5533E+06    -17.8059E+06     9.27533E+06    -197.277E-03     364.411E-03    -167.134E-03     28.0114E-03    -198.511E-03     365.239E-03    -167.034E-03     17.4631E-03
            2356     5.35797E-03     8.24946E-03    -75.2141E+06    -106.459E+06    -31.1889E+06     6.68017E+06    -186.479E-03     349.968E-03    -163.489E-03     23.5895E-03    -187.354E-03     350.292E-03    -163.382E-03     15.3166E-03
            2357     4.60764E-03     8.21419E-03    -80.8375E+06    -146.520E+06    -39.8430E+06     6.29189E+06    -177.328E-03     337.667E-03    -160.339E-03     19.9832E-03    -177.937E-03     337.586E-03    -160.208E-03     13.5780E-03
            2358     3.85059E-03     8.18350E-03    -86.2767E+06    -175.529E+06    -52.0840E+06     7.38101E+06    -169.611E-03     327.216E-03    -157.605E-03     16.6844E-03    -170.021E-03     326.849E-03    -157.485E-03     11.8288E-03
            2359     3.08834E-03     8.16068E-03    -92.4053E+06    -200.136E+06    -69.6029E+06     7.23442E+06    -163.114E-03     318.405E-03    -155.290E-03     13.4846E-03    -163.373E-03     317.827E-03    -155.214E-03     9.91044E-03
            2360     2.32030E-03     8.14291E-03    -98.3277E+06    -223.254E+06    -87.5658E+06     5.21762E+06    -157.915E-03     311.363E-03    -153.448E-03     10.3090E-03    -158.059E-03     310.619E-03    -153.419E-03     7.78450E-03
            2361     1.54917E-03     8.12996E-03    -103.705E+06    -243.681E+06    -101.190E+06     1.34724E+06    -154.170E-03     306.280E-03    -152.110E-03     7.19253E-03    -154.236E-03     305.405E-03    -152.112E-03     5.53991E-03
            2362     775.121E-06     8.12148E-03    -106.550E+06    -253.595E+06    -105.995E+06    -1.51003E+06    -151.785E-03     303.122E-03    -151.337E-03     3.98690E-03    -151.811E-03     302.177E-03    -151.345E-03     3.08879E-03
            2363     13.5995E-03     8.81291E-03    -2.90254E+06     77.0595E+06     79.9267E+06    -1.47322E+06    -306.825E-03     535.853E-03    -229.027E-03     170.940E-03    -315.832E-03     544.889E-03    -228.735E-03     128.875E-03
            2364     12.9497E-03     8.50746E-03    -8.74145E+06     74.9812E+06     75.1538E+06    -2.66251E+06    -319.671E-03     544.138E-03    -224.467E-03     208.946E-03    -332.580E-03     557.061E-03    -224.187E-03     154.432E-03
            2365     12.2913E-03     8.22262E-03    -16.3707E+06     59.3109E+06     68.0879E+06    -3.16656E+06    -331.290E-03     549.962E-03    -218.672E-03     190.237E-03    -343.402E-03     562.030E-03    -218.394E-03     134.027E-03
            2366     11.6527E-03     7.92424E-03    -21.6185E+06     48.6505E+06     65.9481E+06    -2.55589E+06    -331.738E-03     543.474E-03    -211.736E-03     163.246E-03    -342.634E-03     554.286E-03    -211.445E-03     108.193E-03
            2367     11.0150E-03     7.65715E-03    -26.2404E+06     41.6576E+06     62.1043E+06    -808.926E+03    -317.541E-03     521.776E-03    -204.235E-03     132.502E-03    -326.380E-03     530.506E-03    -203.946E-03     84.1728E-03
            2368     10.3590E-03     7.45472E-03    -32.2271E+06     29.2891E+06     50.8798E+06     2.80539E+06    -294.456E-03     491.360E-03    -196.905E-03     106.517E-03    -301.237E-03     498.000E-03    -196.646E-03     67.0061E-03
            2369     9.68537E-03     7.29650E-03    -39.3054E+06     15.6758E+06     37.7693E+06     6.42743E+06    -270.996E-03     461.197E-03    -190.201E-03     88.9658E-03    -276.216E-03     466.237E-03    -189.978E-03     57.3138E-03
            2370     8.99491E-03     7.17568E-03    -46.8758E+06     1.85280E+06     26.1502E+06     8.79210E+06    -250.274E-03     434.498E-03    -184.224E-03     75.3385E-03    -254.274E-03     438.272E-03    -184.028E-03     50.0775E-03
            2371     8.28987E-03     7.08859E-03    -53.3454E+06    -11.4554E+06     16.3229E+06     9.97427E+06    -231.886E-03     410.834E-03    -178.948E-03     65.7960E-03    -234.969E-03     413.648E-03    -178.772E-03     45.6598E-03
            2372     7.57149E-03     7.02221E-03    -57.8438E+06    -20.1883E+06     9.81363E+06     9.77907E+06    -216.178E-03     390.512E-03    -174.334E-03     58.7920E-03    -218.563E-03     392.599E-03    -174.171E-03     42.7077E-03
            2373     6.84311E-03     6.97392E-03    -62.9054E+06    -27.4249E+06     3.16147E+06     8.26880E+06    -202.822E-03     373.134E-03    -170.312E-03     53.7226E-03    -204.677E-03     374.665E-03    -170.165E-03     40.8602E-03
            2374     6.10433E-03     6.93637E-03    -68.9902E+06    -55.6035E+06    -10.2486E+06     6.97281E+06    -191.711E-03     358.532E-03    -166.821E-03     49.9669E-03    -193.127E-03     359.540E-03    -166.691E-03     39.7125E-03
            2375     5.35812E-03     6.91064E-03    -75.2987E+06    -102.677E+06    -27.2721E+06     6.37269E+06    -182.757E-03     346.550E-03    -163.793E-03     46.0412E-03    -183.787E-03     347.031E-03    -163.671E-03     37.9175E-03
            2376     4.60516E-03     6.88823E-03    -82.0152E+06    -144.416E+06    -39.7458E+06     5.06070E+06    -175.170E-03     336.343E-03    -161.172E-03     41.7115E-03    -175.901E-03     336.387E-03    -161.043E-03     35.3473E-03
            2377     3.84709E-03     6.87320E-03    -87.8328E+06    -175.061E+06    -49.0066E+06     4.23674E+06    -168.619E-03     327.556E-03    -158.937E-03     36.8058E-03    -169.124E-03     327.271E-03    -158.801E-03     31.9246E-03
            2378     3.08293E-03     6.86052E-03    -92.8170E+06    -197.864E+06    -61.9990E+06     5.28910E+06    -163.299E-03     320.360E-03    -157.061E-03     31.0744E-03    -163.629E-03     319.836E-03    -156.950E-03     27.4722E-03
            2379     2.31637E-03     6.85204E-03    -97.5328E+06    -216.113E+06    -76.8792E+06     5.00702E+06    -159.269E-03     314.793E-03    -155.524E-03     24.3969E-03    -159.467E-03     314.098E-03    -155.453E-03     21.8613E-03
            2380     1.54597E-03     6.84565E-03    -100.926E+06    -236.390E+06    -91.3285E+06     2.74145E+06    -156.186E-03     310.508E-03    -154.321E-03     16.9761E-03    -156.278E-03     309.663E-03    -154.289E-03     15.3450E-03
            2381     773.916E-06     6.84140E-03    -103.183E+06    -253.502E+06    -102.433E+06     665.865E+03    -153.917E-03     307.566E-03    -153.649E-03     9.64563E-03    -153.937E-03     306.614E-03    -153.644E-03     8.77965E-03
            2382     13.6044E-03     7.17023E-03    -6.17159E+06     77.6550E+06     75.0440E+06    -1.29179E+06    -321.130E-03     550.115E-03    -228.986E-03     184.980E-03    -330.977E-03     559.989E-03    -228.714E-03     139.390E-03
            2383     12.9456E-03     6.87758E-03    -10.7979E+06     74.9460E+06     71.2043E+06     219.773E+03    -342.457E-03     565.963E-03    -223.506E-03     211.510E-03    -355.820E-03     579.343E-03    -223.243E-03     152.312E-03
            2384     12.3208E-03     6.54498E-03    -13.3748E+06     63.5398E+06     66.5268E+06     125.538E+03    -348.638E-03     565.203E-03    -216.565E-03     177.091E-03    -360.375E-03     576.934E-03    -216.305E-03     118.418E-03
            2385     11.6972E-03     6.28440E-03    -17.4885E+06     48.7206E+06     62.0276E+06    -148.542E+03    -334.422E-03     543.342E-03    -208.920E-03     147.679E-03    -344.351E-03     553.220E-03    -208.655E-03     94.5543E-03
            2386     11.0489E-03     6.06517E-03    -24.3319E+06     35.2569E+06     55.6452E+06     2.70334E+06    -307.740E-03     509.265E-03    -201.525E-03     123.803E-03    -315.515E-03     516.937E-03    -201.263E-03     80.3345E-03
            2387     10.3820E-03     5.91495E-03    -31.6382E+06     22.6838E+06     46.7380E+06     6.51100E+06    -280.270E-03     475.201E-03    -194.930E-03     106.797E-03    -286.284E-03     481.063E-03    -194.684E-03     72.1948E-03
            2388     9.69622E-03     5.80161E-03    -37.9209E+06     11.2173E+06     38.3041E+06     9.49051E+06    -256.428E-03     445.676E-03    -189.247E-03     97.6486E-03    -261.194E-03     450.250E-03    -189.017E-03     69.9662E-03
            2389     8.99437E-03     5.72011E-03    -43.5470E+06     1.92039E+06     30.6999E+06     10.9105E+06    -235.951E-03     420.382E-03    -184.431E-03     91.1848E-03    -239.713E-03     423.919E-03    -184.217E-03     69.1009E-03
            2390     8.27882E-03     5.66479E-03    -49.1166E+06    -7.10982E+06     24.1761E+06     9.07076E+06    -219.649E-03     400.034E-03    -180.385E-03     87.2001E-03    -222.640E-03     402.765E-03    -180.183E-03     69.4020E-03
            2391     7.55312E-03     5.62511E-03    -55.1525E+06    -16.2794E+06     18.2799E+06     6.07787E+06    -206.427E-03     383.411E-03    -176.983E-03     84.5106E-03    -208.821E-03     385.507E-03    -176.788E-03     70.0896E-03
            2392     6.81725E-03     5.59953E-03    -61.0521E+06    -25.5117E+06     12.2632E+06       5.303E+06    -195.832E-03     369.960E-03    -174.129E-03     81.4186E-03    -197.735E-03     371.527E-03    -173.942E-03     69.7848E-03
            2393     6.07386E-03     5.58189E-03    -68.2382E+06    -55.4353E+06     1.00008E+06     5.53684E+06    -187.621E-03     359.358E-03    -171.737E-03     77.4796E-03    -189.096E-03     360.394E-03    -171.553E-03     68.1368E-03
            2394     5.32529E-03     5.56742E-03    -75.9459E+06    -101.607E+06    -14.8360E+06     4.91974E+06    -181.247E-03     350.965E-03    -169.718E-03     72.2906E-03    -182.345E-03     351.476E-03    -169.535E-03     64.8241E-03
            2395     4.57281E-03     5.56019E-03    -82.1841E+06    -138.413E+06    -29.6386E+06     2.11190E+06    -176.128E-03     344.126E-03    -167.999E-03     65.8626E-03    -176.922E-03     344.221E-03    -167.827E-03     59.9348E-03
            2396     3.81542E-03     5.55372E-03    -87.8501E+06    -174.521E+06    -41.9663E+06    -1.70042E+06    -172.003E-03     338.575E-03    -166.572E-03     57.8839E-03    -172.551E-03     338.307E-03    -166.401E-03     53.2497E-03
            2397     3.05653E-03     5.55076E-03    -92.0502E+06    -199.872E+06    -54.5564E+06    -2.62784E+06    -168.736E-03     334.131E-03    -165.395E-03     48.5549E-03    -169.092E-03     333.600E-03    -165.244E-03     45.0627E-03
            2398     2.29380E-03     5.54716E-03    -94.5492E+06    -213.696E+06    -70.9393E+06    -2.32844E+06    -166.243E-03     330.690E-03    -164.447E-03     38.1592E-03    -166.453E-03     330.001E-03    -164.355E-03     35.6714E-03
            2399     1.53089E-03     5.54619E-03    -96.8964E+06    -236.681E+06    -83.9706E+06    -1.52304E+06    -164.601E-03     328.370E-03    -163.770E-03     26.7473E-03    -164.693E-03     327.509E-03    -163.706E-03     25.1365E-03
            2400     765.560E-06     5.54614E-03    -99.0550E+06    -252.704E+06    -93.1326E+06     302.647E+03    -163.335E-03     326.857E-03    -163.522E-03     14.8810E-03    -163.358E-03     325.887E-03    -163.477E-03     14.0315E-03
            2401     13.5882E-03     5.53361E-03    -4.45836E+06     79.1012E+06     72.6721E+06     924.399E+03    -347.132E-03     575.987E-03    -228.855E-03     195.150E-03    -357.240E-03     586.135E-03    -228.600E-03     146.058E-03
            2402     12.9759E-03     5.15248E-03    -6.59397E+06     74.6462E+06     68.6405E+06    -553.956E+03    -364.721E-03     586.904E-03    -222.183E-03     202.822E-03    -377.576E-03     599.804E-03    -221.938E-03     141.236E-03
            2403     12.3592E-03     4.87963E-03    -9.11867E+06     62.3177E+06     62.1083E+06     1.20155E+06    -351.148E-03     565.680E-03    -214.532E-03     160.854E-03    -361.371E-03     575.933E-03    -214.299E-03     106.095E-03
            2404     11.7154E-03     4.64439E-03    -14.6506E+06     44.9147E+06     56.5036E+06     5.89630E+06    -319.855E-03     527.055E-03    -207.201E-03     135.667E-03    -327.892E-03     535.058E-03    -206.962E-03     90.7891E-03
            2405     11.0589E-03     4.50619E-03    -21.4132E+06     29.7171E+06     52.2656E+06     9.70262E+06    -287.255E-03     488.161E-03    -200.906E-03     120.198E-03    -293.374E-03     494.179E-03    -200.657E-03     85.1490E-03
            2406     10.3743E-03     4.39838E-03    -28.0773E+06     20.3759E+06     49.0160E+06     11.0596E+06    -259.524E-03     455.292E-03    -195.768E-03     114.600E-03    -264.358E-03     459.974E-03    -195.512E-03     87.0834E-03
            2407     9.67463E-03     4.33045E-03    -34.1426E+06     11.7233E+06     45.4197E+06     10.0572E+06    -237.500E-03     429.170E-03    -191.670E-03     111.650E-03    -241.348E-03     432.821E-03    -191.410E-03     89.8376E-03
            2408     8.95813E-03     4.28463E-03    -38.7815E+06     5.06793E+06     40.5246E+06     7.87323E+06    -220.153E-03     408.606E-03    -188.453E-03     110.334E-03    -223.239E-03     411.467E-03    -188.202E-03     92.9044E-03
            2409     8.23107E-03     4.25275E-03    -43.0495E+06    -2.16199E+06     34.9823E+06     6.44809E+06    -207.326E-03     393.297E-03    -185.970E-03     108.586E-03    -209.805E-03     395.522E-03    -185.730E-03     94.5178E-03
            2410     7.49530E-03     4.23567E-03    -49.2961E+06    -10.4181E+06     31.8275E+06     4.51858E+06    -198.368E-03     382.429E-03    -184.061E-03     105.864E-03    -200.379E-03     384.140E-03    -183.815E-03     94.3688E-03
            2411     6.75472E-03     4.22356E-03    -57.3330E+06    -25.2829E+06     26.9201E+06     2.03114E+06    -192.188E-03     374.738E-03    -182.551E-03     101.473E-03    -193.815E-03     375.996E-03    -182.296E-03     92.0171E-03
            2412     6.01184E-03     4.21717E-03    -64.0489E+06    -57.6192E+06     15.5187E+06     1.24145E+06    -187.584E-03     368.914E-03    -181.330E-03     95.3749E-03    -188.850E-03     369.701E-03    -181.076E-03     87.6489E-03
            2413     5.26468E-03     4.21419E-03    -69.0910E+06    -98.3128E+06     633.761E+03    -1.58218E+06    -184.069E-03     364.432E-03    -180.363E-03     87.9461E-03    -185.014E-03     364.775E-03    -180.117E-03     81.6466E-03
            2414     4.51476E-03     4.21198E-03      -73.34E+06    -134.936E+06    -16.4380E+06    -6.01979E+06    -181.772E-03     361.365E-03    -179.593E-03     78.7144E-03    -182.448E-03     361.340E-03    -179.373E-03     73.5843E-03
            2415     3.76496E-03     4.21257E-03    -77.2352E+06    -174.670E+06    -35.4053E+06    -8.60879E+06    -180.254E-03     359.225E-03    -178.971E-03     68.2263E-03    -180.696E-03     358.863E-03    -178.783E-03     64.1222E-03
            2416     3.01254E-03     4.21280E-03    -81.9057E+06    -204.096E+06    -52.5363E+06    -10.1284E+06    -179.129E-03     357.602E-03    -178.473E-03     56.5829E-03    -179.397E-03     356.992E-03    -178.321E-03     53.3889E-03
            2417     2.26051E-03     4.21427E-03    -86.1480E+06    -222.288E+06    -68.7977E+06    -8.07258E+06    -178.278E-03     356.380E-03    -178.102E-03     43.5268E-03    -178.421E-03     355.609E-03    -177.999E-03     41.2034E-03
            2418     1.50579E-03     4.21443E-03    -89.5307E+06    -243.514E+06    -84.3665E+06    -4.19227E+06    -177.835E-03     355.720E-03    -177.885E-03     29.7017E-03    -177.875E-03     354.803E-03    -177.824E-03     28.1882E-03
            2419     753.217E-06     4.21450E-03    -91.5323E+06    -257.843E+06    -91.2097E+06    -2.94826E+06    -177.805E-03     355.563E-03    -177.757E-03     16.0599E-03    -177.785E-03     354.548E-03    -177.707E-03     15.2300E-03
            2420     13.6146E-03     3.80607E-03    -5.57586E+06     79.3379E+06     68.7080E+06    -3.49864E+06    -385.766E-03     614.494E-03    -228.727E-03     213.957E-03    -396.364E-03     625.145E-03    -228.491E-03     160.544E-03
            2421     12.9960E-03     3.43366E-03    -3.31121E+06     70.8261E+06     64.6713E+06     473.931E+03    -376.093E-03     597.046E-03    -220.953E-03     183.676E-03    -386.813E-03     607.846E-03    -220.727E-03     127.358E-03
            2422     12.3686E-03     3.20050E-03    -10.5024E+06     52.8601E+06     54.6668E+06     6.13985E+06    -334.005E-03     547.513E-03    -213.508E-03     136.965E-03    -341.072E-03     554.602E-03    -213.296E-03     94.7124E-03
            2423     11.7220E-03     3.06541E-03    -16.5876E+06     37.1924E+06     52.3578E+06     9.71528E+06    -293.804E-03     501.289E-03    -207.485E-03     122.594E-03    -298.966E-03     506.396E-03    -207.253E-03     90.8267E-03
            2424     11.0333E-03     2.97193E-03    -19.5638E+06     27.9879E+06     54.9169E+06     10.8145E+06    -261.851E-03     464.768E-03    -202.918E-03     116.962E-03    -265.713E-03     468.518E-03    -202.655E-03     93.1458E-03
            2425     10.3329E-03     2.91863E-03    -22.2452E+06     23.6491E+06     57.4203E+06     10.1885E+06    -238.290E-03     437.850E-03    -199.561E-03     116.125E-03    -241.344E-03     440.758E-03    -199.276E-03     97.6891E-03
            2426     9.61301E-03     2.88059E-03    -26.6340E+06     17.7726E+06     55.5280E+06     7.94624E+06    -221.128E-03     418.281E-03    -197.153E-03     114.597E-03    -223.548E-03     420.519E-03    -196.863E-03     100.140E-03
            2427     8.88724E-03     2.86010E-03    -32.3602E+06     10.3402E+06     49.6560E+06     5.06683E+06    -209.489E-03     404.957E-03    -195.468E-03     112.204E-03    -211.437E-03     406.689E-03    -195.188E-03     100.584E-03
            2428     8.15301E-03     2.84743E-03    -38.5871E+06     458.964E+03     39.8918E+06     2.46299E+06    -201.795E-03     396.102E-03    -194.307E-03     108.084E-03    -203.372E-03     397.429E-03    -194.052E-03     98.5659E-03
            2429     7.41594E-03     2.83886E-03    -43.0134E+06    -5.82164E+06     33.8065E+06     543.736E+03    -197.052E-03     390.588E-03    -193.536E-03     102.211E-03    -198.328E-03     391.592E-03    -193.296E-03     94.3228E-03
            2430     6.67713E-03     2.83442E-03    -47.0710E+06    -21.9899E+06     26.4983E+06    -2.61660E+06    -194.128E-03     387.163E-03    -193.035E-03     95.6245E-03    -195.159E-03     387.870E-03    -192.803E-03     88.9755E-03
            2431     5.93528E-03     2.83383E-03    -50.7315E+06    -56.9196E+06     9.65188E+06    -7.91459E+06    -192.553E-03     385.243E-03    -192.690E-03     88.1440E-03    -193.341E-03     385.615E-03    -192.485E-03     82.4873E-03
            2432     5.19386E-03     2.83457E-03    -52.2421E+06    -96.9467E+06    -6.94354E+06    -11.5771E+06    -191.765E-03     384.233E-03    -192.468E-03     79.6019E-03    -192.326E-03     384.276E-03    -192.287E-03     74.8160E-03
            2433     4.45231E-03     2.83543E-03    -55.0415E+06    -139.150E+06    -20.6098E+06    -12.0073E+06    -191.285E-03     383.652E-03    -192.367E-03     69.9161E-03    -191.653E-03     383.380E-03    -192.188E-03     65.9374E-03
            2434     3.70910E-03     2.83719E-03    -60.4691E+06    -180.564E+06    -36.5272E+06    -10.9567E+06    -191.325E-03     383.655E-03    -192.330E-03     59.5191E-03    -191.537E-03     383.105E-03    -192.163E-03     56.2757E-03
            2435     2.96749E-03     2.83895E-03    -66.7493E+06    -211.672E+06    -52.5227E+06    -9.02252E+06    -191.631E-03     383.935E-03    -192.304E-03     48.5106E-03    -191.728E-03     383.182E-03    -192.163E-03     45.9563E-03
            2436     2.22504E-03     2.84022E-03    -73.3350E+06    -235.886E+06    -64.6699E+06    -5.74546E+06    -191.938E-03     384.215E-03    -192.277E-03     36.9510E-03    -191.955E-03     383.307E-03    -192.152E-03     35.0702E-03
            2437     1.48495E-03     2.84183E-03    -78.3000E+06    -251.811E+06    -74.6228E+06    -2.16231E+06    -192.089E-03     384.324E-03    -192.235E-03     25.1865E-03    -192.051E-03     383.315E-03    -192.129E-03     23.9582E-03
            2438     741.893E-06     2.84197E-03    -82.0859E+06    -262.545E+06    -82.3481E+06     41.6946E+03    -192.222E-03     384.356E-03    -192.134E-03     13.6142E-03    -192.150E-03     383.286E-03    -192.046E-03     12.9737E-03
            2439     13.5880E-03     1.93714E-03    -3.68173E+06     81.6543E+06     75.4978E+06    -98.7404E+03    -454.522E-03     684.941E-03    -230.420E-03     219.198E-03    -462.351E-03     692.837E-03    -230.155E-03     175.013E-03
            2440     13.0154E-03     1.71209E-03    -7.29407E+06     61.7472E+06     67.3982E+06     2.58811E+06    -380.815E-03     602.077E-03    -221.262E-03     140.959E-03    -386.105E-03     607.427E-03    -221.004E-03     106.696E-03
            2441     12.3719E-03     1.59420E-03    -10.9918E+06     48.5302E+06     62.7465E+06     5.95367E+06    -314.717E-03     529.081E-03    -214.364E-03     106.410E-03    -317.739E-03     532.083E-03    -214.105E-03     83.8793E-03
            2442     11.6802E-03     1.51827E-03    -13.3045E+06     37.7008E+06     62.1325E+06     5.97728E+06    -271.832E-03     481.488E-03    -209.655E-03     91.8600E-03    -273.951E-03     483.528E-03    -209.380E-03     76.1426E-03
            2443     10.9844E-03     1.48145E-03    -15.0286E+06     29.9665E+06     62.9752E+06     4.71301E+06    -244.039E-03     450.556E-03    -206.516E-03     85.1088E-03    -245.595E-03     451.992E-03    -206.223E-03     73.6629E-03
            2444     10.2661E-03     1.45518E-03    -16.9297E+06     25.7181E+06     61.8702E+06     4.32900E+06    -226.065E-03     430.523E-03    -204.458E-03     81.3959E-03    -227.278E-03     431.594E-03    -204.161E-03     72.6095E-03
            2445     9.54483E-03     1.44366E-03    -19.4888E+06     21.0334E+06     54.3373E+06     4.67157E+06    -214.661E-03     417.792E-03    -203.130E-03     77.3756E-03    -215.626E-03     418.607E-03    -202.861E-03     70.4450E-03
            2446     8.81320E-03     1.43412E-03    -23.5377E+06     14.3498E+06     43.1216E+06     3.83780E+06    -207.698E-03     410.009E-03    -202.312E-03     72.9294E-03    -208.481E-03     410.635E-03    -202.083E-03     67.2643E-03
            2447     8.08209E-03     1.42954E-03    -27.9784E+06     6.42053E+06     29.0688E+06     678.387E+03    -203.615E-03     405.447E-03    -201.832E-03     68.3722E-03    -204.260E-03     405.930E-03    -201.656E-03     63.5976E-03
            2448     7.34797E-03     1.42624E-03    -32.6819E+06    -2.31397E+06     12.4850E+06    -3.23509E+06    -201.043E-03     402.635E-03    -201.592E-03     63.5139E-03    -201.573E-03     403.002E-03    -201.479E-03     59.4203E-03
            2449     6.61143E-03     1.42590E-03    -36.0500E+06    -17.4473E+06    -3.18525E+06    -6.76931E+06    -199.717E-03     401.266E-03    -201.550E-03     57.8480E-03    -200.139E-03     401.505E-03    -201.488E-03     54.3068E-03
            2450     5.87598E-03     1.42544E-03    -39.8307E+06    -53.4815E+06    -19.3799E+06    -10.6268E+06    -199.501E-03     401.151E-03    -201.650E-03     52.2680E-03    -199.805E-03     401.176E-03    -201.612E-03     49.1483E-03
            2451     5.14045E-03     1.42581E-03    -45.5620E+06    -102.455E+06    -32.5388E+06    -12.1920E+06    -199.839E-03     401.678E-03    -201.839E-03     46.4187E-03    -200.029E-03     401.433E-03    -201.787E-03     43.7083E-03
            2452     4.40464E-03     1.42808E-03    -51.3422E+06    -149.782E+06    -39.5700E+06    -9.70118E+06    -200.324E-03     402.400E-03    -202.076E-03     40.4151E-03    -200.422E-03     401.894E-03    -201.982E-03     38.1483E-03
            2453     3.67025E-03     1.42864E-03    -57.2359E+06    -190.501E+06    -45.5508E+06    -5.87341E+06    -200.935E-03     403.247E-03    -202.312E-03     34.0452E-03    -200.959E-03     402.519E-03    -202.181E-03     32.2092E-03
            2454     2.93521E-03     1.42967E-03    -62.9667E+06    -220.089E+06    -54.1194E+06    -2.83727E+06    -201.555E-03     404.057E-03    -202.502E-03     27.3557E-03    -201.525E-03     403.173E-03    -202.362E-03     25.9188E-03
            2455     2.20147E-03     1.43071E-03    -67.6019E+06    -243.600E+06    -61.3439E+06    -975.505E+03    -202.097E-03     404.752E-03    -202.655E-03     20.7874E-03    -202.024E-03     403.747E-03    -202.510E-03     19.7248E-03
            2456     1.46601E-03     1.43127E-03    -71.3964E+06    -257.131E+06    -66.4066E+06     423.169E+03    -202.522E-03     405.273E-03    -202.751E-03     14.1807E-03    -202.427E-03     404.198E-03    -202.607E-03     13.4834E-03
            2457     733.760E-06     1.43229E-03    -74.0332E+06    -261.298E+06    -71.2335E+06     1.30885E+06    -202.778E-03     405.496E-03    -202.718E-03     7.83505E-03    -202.673E-03     404.402E-03    -202.588E-03     7.49201E-03


