********************************************************************************
Field Output Report, written Tue May 28 19:27:44 2024

Source 1
---------

   ODB: G:/Abaqus_calc_2019/1740/Vel_20/odb/zeides_2a_32_red_250_cal_100_vel_20_fric_050.odb
   Step: Step-1
   Frame: Increment   3685563: Step Time =   0.4707

Loc 1 : Nodal values from source 1

Output sorted by column "Nodal Label".

Field Output reported at nodes for region: DIE_2A_32_D0_36-1.Region_1
   Computation algorithm: EXTRAPOLATE_COMPUTE_AVERAGE
   Averaged at nodes
   Averaging regions: ODB_REGIONS

      Node Label     COORD.COOR1     COORD.COOR2
                          @Loc 1          @Loc 1
-------------------------------------------------
               1     22.3874E-03     104.525E-03


Field Output reported at nodes for region: DIE_2A_32_D0_36-1.Region_2
   Computation algorithm: EXTRAPOLATE_COMPUTE_AVERAGE
   Averaged at nodes
   Averaging regions: ODB_REGIONS

      Node Label     COORD.COOR1     COORD.COOR2
                          @Loc 1          @Loc 1
-------------------------------------------------
               1     22.3874E-03     104.525E-03


Field Output reported at nodes for part: WIRE-1
   Computation algorithm: EXTRAPOLATE_COMPUTE_AVERAGE
   Averaged at nodes
   Averaging regions: ODB_REGIONS

      Node Label     COORD.COOR1     COORD.COOR2           S.S11           S.S22           S.S33           S.S12         PE.PE11         PE.PE22         PE.PE33         PE.PE12         LE.LE11         LE.LE22         LE.LE33         LE.LE12
                          @Loc 1          @Loc 1          @Loc 1          @Loc 1          @Loc 1          @Loc 1          @Loc 1          @Loc 1          @Loc 1          @Loc 1          @Loc 1          @Loc 1          @Loc 1          @Loc 1
-------------------------------------------------------------------------------------------------------------------------------------------------------------------------------------------------------------------------------------------------
               1     94.8657E-09     57.4787E-03    -22.7192E+06    -115.208E+06    -22.5479E+06    -35.1586E+03    -26.9243E-03     53.8454E-03    -26.9211E-03     3.35366E-03    -26.8382E-03     53.3351E-03    -26.8339E-03     3.35163E-03
               2     17.5265E-03     58.9234E-03    -2.44445E+06     187.994E+06     116.217E+06     79.1430E+03    -30.7794E-03     57.7877E-03    -27.0083E-03     204.702E-03    -37.6565E-03     64.9865E-03    -26.6962E-03     211.912E-03
               3     17.1677E-03     117.063E-03     24.2378E+06    -13.3288E+06    -35.9802E+06    -921.144E+03     20.2782E-03     20.3833E-03    -40.6615E-03     2.44922E-03     20.4535E-03     20.3163E-03    -40.8572E-03     2.43732E-03
               4    -1.05178E-06     115.241E-03    -540.697E+03    -1.20720E+06    -1.55383E+06    -2.03109E+06    -29.2588E-03     59.3814E-03    -30.1226E-03    -1.05399E-03    -29.2592E-03     59.3768E-03    -30.1279E-03    -1.08122E-03
               5     29.0101E-09     111.022E-18    -12.3986E+06    -95.2062E+06    -11.6097E+06     50.1269E+03    -19.7402E-03     39.3517E-03    -19.6115E-03     219.018E-06    -19.6471E-03     38.9106E-03    -19.5135E-03     219.695E-06
               6     17.3977E-03     111.022E-18     14.1699E+06     115.888E+06     90.8377E+06     10.3391E+06    -77.2577E-03     108.611E-03    -31.3535E-03     101.512E-03    -77.8707E-03     109.437E-03    -31.0879E-03     100.786E-03
               7     876.157E-06     57.4815E-03    -22.5164E+06    -114.949E+06    -22.0726E+06         544.840    -26.9260E-03     53.8476E-03    -26.9216E-03     5.67502E-03    -26.8401E-03     53.3377E-03    -26.8326E-03     5.67229E-03
               8     1.75235E-03     57.4894E-03    -21.9686E+06    -114.089E+06    -20.5083E+06     61.5528E+03    -26.9385E-03     53.8629E-03    -26.9244E-03     10.5257E-03    -26.8536E-03     53.3545E-03    -26.8297E-03     10.5212E-03
               9     2.62853E-03     57.5015E-03    -21.1477E+06    -112.720E+06    -17.8601E+06     194.037E+03    -26.9656E-03     53.8968E-03    -26.9311E-03     15.6336E-03    -26.8830E-03     53.3907E-03    -26.8263E-03     15.6280E-03
              10     3.50471E-03     57.5191E-03    -19.9590E+06    -110.904E+06    -14.5531E+06     297.679E+03    -27.0020E-03     53.9416E-03    -26.9396E-03     20.8365E-03    -26.9217E-03     53.4389E-03    -26.8226E-03     20.8289E-03
              11     4.38092E-03     57.5411E-03    -18.4358E+06    -108.495E+06    -10.5908E+06     198.455E+03    -27.0509E-03     53.9998E-03    -26.9489E-03     26.1029E-03    -26.9734E-03     53.5024E-03    -26.8178E-03     26.0900E-03
              12     5.25714E-03     57.5687E-03    -16.7367E+06    -103.137E+06    -6.99166E+06     245.427E+03    -27.1122E-03     54.0635E-03    -26.9513E-03     31.3988E-03    -27.0410E-03     53.5871E-03    -26.8125E-03     31.3814E-03
              13     6.13337E-03     57.6008E-03    -14.9587E+06    -97.5694E+06    -3.46267E+06     459.108E+03    -27.1965E-03     54.1497E-03    -26.9532E-03     36.7298E-03    -27.1323E-03     53.6961E-03    -26.8074E-03     36.7089E-03
              14     7.00955E-03     57.6385E-03    -13.3713E+06    -93.4588E+06    -648.894E+03     430.955E+03    -27.2885E-03     54.2426E-03    -26.9541E-03     42.0926E-03    -27.2302E-03     53.8070E-03    -26.8025E-03     42.0635E-03
              15     7.88588E-03     57.6808E-03    -11.9151E+06    -87.3760E+06     284.437E+03     445.644E+03    -27.4117E-03     54.3553E-03    -26.9436E-03     47.4322E-03    -27.3619E-03     53.9522E-03    -26.7982E-03     47.3934E-03
              16     8.76198E-03     57.7286E-03    -10.6619E+06    -81.6674E+06     1.09136E+06     488.194E+03    -27.5270E-03     54.4607E-03    -26.9336E-03     52.7943E-03    -27.4885E-03     54.0912E-03    -26.7943E-03     52.7435E-03
              17     9.63834E-03     57.7811E-03    -9.62823E+06    -76.9252E+06     104.550E+03     460.996E+03    -27.6916E-03     54.6089E-03    -26.9173E-03     58.1986E-03    -27.6650E-03     54.2748E-03    -26.7913E-03     58.1320E-03
              18     10.5145E-03     57.8392E-03    -9.12376E+06    -69.5448E+06    -3.06470E+06     491.624E+03    -27.9449E-03     54.8375E-03    -26.8926E-03     63.4223E-03    -27.9396E-03     54.5618E-03    -26.7939E-03     63.3357E-03
              19     11.3905E-03     57.9012E-03    -8.65774E+06    -55.3447E+06    -2.14781E+06     597.812E+03    -27.8216E-03     54.6925E-03    -26.8709E-03     70.0627E-03    -27.8633E-03     54.5132E-03    -26.7888E-03     69.9545E-03
              20     12.2671E-03     57.9725E-03    -7.97366E+06    -40.1482E+06    -2.69949E+06     634.832E+03    -27.9025E-03     54.7257E-03    -26.8232E-03     78.1709E-03    -28.0048E-03     54.6650E-03    -26.7669E-03     78.0354E-03
              21     13.1447E-03     58.0494E-03      -8.289E+06    -26.8777E+06    -10.2361E+06     632.522E+03    -28.2479E-03     55.0010E-03    -26.7532E-03     79.6508E-03    -28.4191E-03     55.0771E-03    -26.7534E-03     79.4808E-03
              22     14.0194E-03     58.1232E-03    -9.08056E+06     3.34813E+06    -18.4986E+06     643.144E+03    -28.6321E-03     55.2993E-03    -26.6673E-03     92.2645E-03    -28.9951E-03     55.6957E-03    -26.7514E-03     92.0574E-03
              23     14.8958E-03     58.2250E-03    -9.02192E+06     61.5479E+06    -21.0302E+06     266.908E+03    -31.9877E-03     58.5459E-03    -26.5582E-03     154.687E-03    -33.3238E-03     60.1294E-03    -26.7395E-03     154.478E-03
              24     15.7734E-03     58.4192E-03    -8.69449E+06     132.868E+06     19.5369E+06     260.947E+03    -38.6303E-03     65.2726E-03    -26.6423E-03     253.808E-03    -44.6977E-03     71.7241E-03    -26.7246E-03     254.817E-03
              25     16.6463E-03     58.7173E-03    -5.58116E+06     178.370E+06     87.5096E+06     320.321E+03    -36.5302E-03     63.4253E-03    -26.8951E-03     255.169E-03    -44.9577E-03     72.2124E-03    -26.7081E-03     259.878E-03
              26     17.5259E-03     59.9191E-03    -3.22101E+06     187.340E+06     115.422E+06    -66.0658E+03    -30.9869E-03     57.9871E-03    -27.0002E-03     204.486E-03    -37.8358E-03     65.1549E-03    -26.6900E-03     211.653E-03
              27     17.5267E-03     60.9232E-03    -3.66209E+06     187.262E+06     115.253E+06    -128.221E+03    -31.9580E-03     58.9359E-03    -26.9779E-03     204.129E-03    -38.7941E-03     66.0895E-03    -26.6678E-03     211.209E-03
              28     17.5255E-03     61.9240E-03    -3.23653E+06     188.252E+06     116.003E+06     622.359E+03    -31.2346E-03     58.2443E-03    -27.0097E-03     204.586E-03    -38.1027E-03     65.4328E-03    -26.6979E-03     211.764E-03
              29     17.5263E-03     62.9229E-03    -2.51690E+06     189.015E+06     116.352E+06     328.601E+03    -29.5268E-03     56.5654E-03    -27.0385E-03     203.437E-03    -36.3362E-03     63.6995E-03    -26.7272E-03     210.718E-03
              30     17.5267E-03     63.9182E-03    -2.50512E+06     189.149E+06     116.501E+06    -398.797E+03    -30.2705E-03     57.2778E-03    -27.0073E-03     203.666E-03    -37.0670E-03     64.3991E-03    -26.6954E-03     210.871E-03
              31     17.5261E-03     64.9235E-03    -2.52560E+06     189.031E+06     116.620E+06     66.2078E+03    -32.1050E-03     59.0774E-03    -26.9724E-03     203.962E-03    -38.9310E-03     66.2273E-03    -26.6598E-03     211.002E-03
              32     17.5263E-03     65.9232E-03    -3.48161E+06     187.842E+06     115.592E+06    -542.273E+03    -31.3494E-03     58.3431E-03    -26.9937E-03     203.026E-03    -38.1628E-03     65.4757E-03    -26.6830E-03     210.130E-03
              33     17.5261E-03     66.9213E-03    -3.56454E+06     187.825E+06     115.655E+06    -48.6372E+03    -31.3311E-03     58.3299E-03    -26.9988E-03     204.382E-03    -38.1816E-03     65.4991E-03    -26.6877E-03     211.527E-03
              34     17.5261E-03     67.9274E-03     -2.5092E+06     189.208E+06     116.514E+06     664.780E+03    -30.9193E-03     57.9180E-03    -26.9987E-03     204.188E-03    -37.7536E-03     65.0773E-03    -26.6868E-03     211.342E-03
              35     17.5270E-03     68.9202E-03    -2.64246E+06     189.551E+06     116.574E+06    -50.3409E+03    -30.4181E-03     57.4275E-03    -27.0094E-03     203.818E-03    -37.2492E-03     64.5842E-03    -26.6975E-03     211.045E-03
              36     17.5253E-03     69.9255E-03    -2.58072E+06     189.618E+06     116.489E+06     259.726E+03    -30.5496E-03     57.5602E-03    -27.0105E-03     204.691E-03    -37.4264E-03     64.7633E-03    -26.6993E-03     211.921E-03
              37     17.5276E-03     70.9234E-03    -3.28062E+06     189.031E+06     115.778E+06    -839.269E+03    -30.7517E-03     57.7505E-03    -26.9988E-03     205.184E-03    -37.6598E-03     64.9826E-03    -26.6893E-03     212.417E-03
              38     17.5251E-03     71.9209E-03    -3.79278E+06     188.458E+06     115.534E+06     61.8058E+03    -32.6539E-03     59.6168E-03    -26.9629E-03     204.794E-03    -39.5239E-03     66.8076E-03    -26.6530E-03     211.823E-03
              39     17.5269E-03     72.9314E-03    -2.90090E+06     189.654E+06     116.068E+06     1.47844E+06    -31.9248E-03     58.9094E-03    -26.9846E-03     207.385E-03    -38.8895E-03     66.2007E-03    -26.6751E-03     214.512E-03
              40     17.5259E-03     73.9266E-03    -2.37704E+06     190.837E+06     116.717E+06     74.9766E+03    -29.5245E-03     56.5680E-03    -27.0435E-03     208.108E-03    -36.5315E-03     63.9056E-03    -26.7331E-03     215.509E-03
              41     17.5264E-03     74.9227E-03    -2.60685E+06     190.246E+06     116.337E+06     91.5597E+03    -29.1322E-03     56.1792E-03    -27.0469E-03     203.979E-03    -35.9560E-03     63.3318E-03    -26.7373E-03     211.294E-03
              42     17.5263E-03     75.9186E-03    -3.54447E+06     188.952E+06     115.196E+06    -895.268E+03    -31.2267E-03     58.2065E-03    -26.9798E-03     201.137E-03    -37.9322E-03     65.2362E-03    -26.6727E-03     208.180E-03
              43     17.5264E-03     76.9220E-03    -3.81059E+06     188.756E+06     115.104E+06    -659.438E+03    -33.6047E-03     60.5319E-03    -26.9272E-03     201.994E-03    -40.3556E-03     67.6057E-03    -26.6199E-03     208.869E-03
              44     17.5259E-03     77.9327E-03    -3.21251E+06     189.709E+06     115.506E+06     993.278E+03    -32.0727E-03     59.0534E-03    -26.9807E-03     205.878E-03    -38.9877E-03     66.2957E-03    -26.6735E-03     212.974E-03
              45     17.5264E-03     78.9260E-03    -2.88927E+06     190.261E+06     115.622E+06     159.906E+03    -29.6761E-03     56.7115E-03    -27.0354E-03     204.655E-03    -36.5546E-03     63.9201E-03    -26.7290E-03     211.969E-03
              46     17.5261E-03     79.9211E-03    -2.65701E+06     190.238E+06     115.703E+06    -423.299E+03    -31.1346E-03     58.1303E-03    -26.9957E-03     203.553E-03    -37.9559E-03     65.2821E-03    -26.6892E-03     210.725E-03
              47     17.5262E-03     80.9322E-03    -2.08567E+06     191.260E+06     116.248E+06     847.521E+03    -30.7490E-03     57.7485E-03    -26.9995E-03     204.583E-03    -37.6035E-03     64.9376E-03    -26.6925E-03     211.758E-03
              48     17.5269E-03     81.9229E-03    -2.25738E+06     191.738E+06     116.038E+06    -351.993E+03    -29.4049E-03     56.4243E-03    -27.0194E-03     204.459E-03    -36.2620E-03     63.6178E-03    -26.7140E-03     211.765E-03
              49     17.5262E-03     82.9220E-03    -4.10719E+06     191.048E+06     115.086E+06    -103.016E+03    -32.2918E-03     59.2485E-03    -26.9567E-03     204.456E-03    -39.1485E-03     66.4353E-03    -26.6523E-03     211.513E-03
              50     17.5260E-03     83.9336E-03    -2.60504E+06     193.673E+06     116.664E+06     1.36590E+06    -31.0354E-03     58.0099E-03    -26.9745E-03     204.069E-03    -37.8727E-03     65.1875E-03    -26.6682E-03     211.162E-03
              51     17.5281E-03     84.9197E-03    -3.16659E+06     193.268E+06     115.861E+06    -1.19209E+06    -31.2712E-03     58.2310E-03    -26.9598E-03     206.876E-03    -38.2332E-03     65.5326E-03    -26.6561E-03     214.074E-03
              52     17.5249E-03     85.9341E-03    -3.26757E+06     192.895E+06     115.499E+06      657.61E+03    -33.2357E-03     60.1615E-03    -26.9258E-03     209.030E-03    -40.2821E-03     67.5472E-03    -26.6233E-03     216.096E-03
              53     17.5284E-03     86.9359E-03    -2.12273E+06     195.790E+06     117.128E+06     1.91744E+06    -28.5895E-03     55.6157E-03    -27.0261E-03     208.698E-03    -35.6142E-03     62.9893E-03    -26.7213E-03     216.127E-03
              54     17.5260E-03     87.9154E-03    -4.06400E+06     195.731E+06     116.474E+06     107.288E+03    -29.4636E-03     56.4484E-03    -26.9848E-03     203.426E-03    -36.2903E-03     63.6184E-03    -26.6803E-03     210.740E-03
              55     17.5278E-03     88.9262E-03    -3.11689E+06     196.773E+06     117.275E+06     442.034E+03    -33.1427E-03     60.0141E-03    -26.8714E-03     201.064E-03    -39.8685E-03     67.0874E-03    -26.5658E-03     207.948E-03
              56     17.5276E-03     89.9318E-03    -2.80121E+06     197.977E+06     117.923E+06    -17.3752E+03    -31.7376E-03     58.6205E-03    -26.8829E-03     205.437E-03    -38.6581E-03     65.8920E-03    -26.5763E-03     212.551E-03
              57     17.5285E-03     90.9264E-03    -3.00434E+06     198.504E+06     118.492E+06     698.280E+03    -30.5218E-03     57.4099E-03    -26.8881E-03     205.879E-03    -37.4353E-03     64.6738E-03    -26.5791E-03     213.117E-03
              58     17.5290E-03     91.9300E-03    -2.09231E+06     199.919E+06     119.750E+06     939.746E+03    -28.9270E-03     55.8095E-03    -26.8825E-03     205.214E-03    -35.7976E-03     63.0352E-03    -26.5706E-03     212.536E-03
              59     17.5304E-03     92.9234E-03    -2.58176E+06     199.291E+06     119.354E+06    -412.763E+03    -28.5515E-03     55.3869E-03    -26.8354E-03     203.428E-03    -35.3887E-03     62.5766E-03    -26.5239E-03     210.774E-03
              60     17.5307E-03     93.9169E-03    -3.67667E+06     197.820E+06     118.649E+06    -872.950E+03    -32.0031E-03     58.6863E-03    -26.6832E-03     200.597E-03    -38.7094E-03     65.7380E-03    -26.3715E-03     207.549E-03
              61     17.5328E-03     94.9289E-03    -3.24263E+06     197.758E+06     119.082E+06    -88.0657E+03    -33.5597E-03     60.1309E-03    -26.5712E-03     202.501E-03    -40.3358E-03     67.2523E-03    -26.2579E-03     209.346E-03
              62     17.5335E-03     95.9298E-03    -3.64773E+06     196.985E+06     118.913E+06     475.522E+03    -32.3198E-03     58.8532E-03    -26.5334E-03     207.622E-03    -39.3271E-03     66.2020E-03    -26.2192E-03     214.741E-03
              63     17.5354E-03     96.9327E-03    -2.55459E+06     197.445E+06     120.253E+06     1.23904E+06    -30.2736E-03     56.7692E-03    -26.4955E-03     208.996E-03    -37.3428E-03     64.1815E-03    -26.1768E-03     216.354E-03
              64     17.5376E-03     97.9277E-03    -2.05100E+06     198.057E+06     121.687E+06     459.099E+03    -29.0150E-03     55.4138E-03    -26.3988E-03     205.031E-03    -35.9264E-03     62.6683E-03    -26.0745E-03     212.420E-03
              65     17.5399E-03     98.9166E-03    -3.25868E+06     196.175E+06     122.002E+06    -918.557E+03    -33.8954E-03     60.0580E-03    -26.1626E-03     200.524E-03    -40.6208E-03     67.1151E-03    -25.8324E-03     207.382E-03
              66     17.5406E-03     99.9346E-03    -3.59338E+06     194.843E+06     122.278E+06    -36.9289E+03    -36.8079E-03     62.8001E-03    -25.9922E-03     199.735E-03    -43.5409E-03     69.8581E-03    -25.6581E-03     206.316E-03
              67     17.5437E-03     100.938E-03    -3.20105E+06     193.353E+06     122.709E+06    -794.510E+03    -35.1330E-03     61.0765E-03    -25.9435E-03     201.467E-03    -41.9920E-03     68.2550E-03    -25.6057E-03     208.302E-03
              68     17.5434E-03     101.934E-03    -4.09865E+06     190.234E+06     122.523E+06    -1.72179E+06    -37.7873E-03     63.5909E-03    -25.8036E-03     197.750E-03    -44.5136E-03     70.6230E-03    -25.4609E-03     204.280E-03
              69     17.5457E-03     102.949E-03    -3.04020E+06     187.625E+06     122.479E+06    -741.752E+03    -41.0383E-03     66.7031E-03    -25.6648E-03     198.057E-03    -47.7737E-03     73.7391E-03    -25.3200E-03     204.244E-03
              70     17.5455E-03     103.962E-03    -3.50272E+06     185.843E+06     120.568E+06    -566.865E+03    -41.0520E-03     66.6418E-03    -25.5898E-03     200.582E-03    -47.8998E-03     73.7871E-03    -25.2513E-03     206.753E-03
              71     17.5486E-03     104.965E-03     -37.178E+03     183.877E+06     120.545E+06    -718.402E+03    -42.2360E-03     67.7070E-03    -25.4709E-03     197.486E-03    -48.9436E-03     74.7176E-03    -25.1348E-03     203.418E-03
              72     17.5482E-03     105.978E-03    -4.08849E+06     178.623E+06     119.341E+06    -3.19516E+06    -47.9012E-03     73.1847E-03    -25.2835E-03     198.000E-03    -54.6661E-03     80.2239E-03    -24.9398E-03     203.359E-03
              73     17.5495E-03     107.004E-03    -4.28930E+06     172.212E+06     118.775E+06    -1.63407E+06    -56.4011E-03     81.4610E-03    -25.0599E-03     206.234E-03    -63.4909E-03     88.8042E-03    -24.7096E-03     210.950E-03
              74     17.5496E-03     108.039E-03    -10.3288E+06     167.150E+06     117.520E+06    -1.24235E+06    -62.5639E-03     87.4555E-03    -24.8917E-03     217.453E-03    -70.0688E-03     95.1788E-03    -24.5314E-03     221.673E-03
              75     17.5514E-03     109.079E-03      93.964E+03     170.332E+06     123.679E+06     3.72782E+06    -64.6199E-03     89.4284E-03    -24.8085E-03     230.723E-03    -72.5153E-03     97.5720E-03    -24.4373E-03     234.775E-03
              76     17.5529E-03     110.112E-03    -7.51999E+06     166.613E+06     117.481E+06    -2.66541E+06    -70.1707E-03     94.8039E-03    -24.6331E-03     248.094E-03    -78.5867E-03     103.447E-03    -24.2764E-03     251.391E-03
              77     17.5527E-03     111.164E-03      384.21E+03     157.509E+06     112.037E+06    -1.27157E+06    -76.9339E-03     101.365E-03    -24.4316E-03     263.590E-03    -85.5810E-03     110.252E-03    -24.1004E-03     265.726E-03
              78     17.5556E-03     112.210E-03    -6.51209E+06     149.956E+06     98.2438E+06    -3.63953E+06    -76.9058E-03     101.285E-03    -24.3796E-03     279.626E-03    -85.6216E-03     110.228E-03    -24.0964E-03     280.806E-03
              79     17.5542E-03     113.249E-03    -3.05583E+06     134.111E+06     63.0559E+06    -9.98505E+06    -69.5554E-03     93.9620E-03    -24.4066E-03     297.333E-03    -77.3798E-03     102.071E-03    -24.2814E-03     297.846E-03
              80     17.5596E-03     114.275E-03    -31.6149E+06     55.6357E+06    -5.75459E+06    -51.7883E+06    -39.6354E-03     64.5974E-03    -24.9619E-03     291.265E-03    -44.4572E-03     69.5317E-03    -25.0255E-03     291.335E-03
              81     17.5527E-03     115.204E-03    -123.168E+06    -22.9387E+06    -66.0267E+06    -19.6177E+06     4.56460E-03     23.2707E-03    -27.8353E-03     202.083E-03     2.81950E-03     24.6950E-03    -27.9536E-03     202.374E-03
              82     17.4184E-03     116.104E-03    -54.5706E+06    -22.1394E+06    -51.6998E+06     32.8468E+06     22.3589E-03     13.0608E-03    -35.4198E-03     65.5576E-03     22.1321E-03     13.1448E-03    -35.5671E-03     66.0207E-03
              83     16.2930E-03     116.818E-03    -12.1354E+06       455.2E+03    -9.57461E+06     20.8010E+06     16.3782E-03     25.2123E-03    -41.5905E-03     12.2198E-03     16.3251E-03     25.2407E-03    -41.6214E-03     12.4879E-03
              84     15.3987E-03     116.606E-03    -58.7046E+06     35.8869E+06     20.6972E+06     3.60357E+06    -8.84910E-03     51.4759E-03    -42.6268E-03     18.7962E-03    -9.23355E-03     51.7075E-03    -42.4902E-03     18.8186E-03
              85     14.5620E-03     116.367E-03    -63.1897E+06    -9.23165E+06    -4.27262E+06    -28.2028E+06    -33.4299E-03     75.5570E-03    -42.1272E-03     4.63096E-03    -33.7526E-03     75.5887E-03    -42.0435E-03     4.21601E-03
              86     13.7357E-03     116.169E-03    -53.3434E+06    -21.8575E+06    -2.58600E+06    -16.7131E+06    -37.8620E-03     78.9238E-03    -41.0618E-03    -9.97084E-03    -38.1142E-03     78.8746E-03    -40.9657E-03    -10.2373E-03
              87     12.8952E-03     116.014E-03    -49.6368E+06     4.62457E+06     15.8229E+06    -12.8883E+06    -41.8111E-03     81.8534E-03    -40.0423E-03    -16.0882E-03    -42.1013E-03     81.9102E-03    -39.8979E-03    -16.3043E-03
              88     12.0573E-03     115.883E-03    -45.5175E+06    -6.40698E+06     10.6691E+06    -12.6076E+06    -45.3122E-03     84.1904E-03    -38.8782E-03    -18.0412E-03    -45.5554E-03     84.1956E-03    -38.7496E-03    -18.2539E-03
              89     11.2145E-03     115.773E-03    -39.2398E+06    -1.82454E+06     14.4038E+06    -10.4890E+06    -46.1654E-03     83.8166E-03    -37.6512E-03    -16.4376E-03    -46.3862E-03     83.8338E-03    -37.5197E-03    -16.6178E-03
              90     10.3687E-03     115.678E-03    -35.7121E+06    -4.03209E+06     13.8071E+06    -8.82373E+06    -45.6060E-03     82.0099E-03    -36.4040E-03    -14.2343E-03    -45.8037E-03     82.0140E-03    -36.2773E-03    -14.3875E-03
              91     9.51915E-03     115.595E-03    -31.7912E+06    -386.623E+03     15.5124E+06    -8.35624E+06    -43.6865E-03     78.8938E-03    -35.2073E-03    -11.8803E-03    -43.8716E-03     78.9095E-03    -35.0831E-03    -12.0210E-03
              92     8.66594E-03     115.525E-03    -27.6812E+06    -2.74891E+06     14.1685E+06    -7.59097E+06    -41.1976E-03     75.3149E-03    -34.1173E-03    -9.64340E-03    -41.3561E-03     75.3161E-03    -34.0023E-03    -9.76738E-03
              93     7.80828E-03     115.466E-03    -23.6723E+06    -662.508E+03     11.7059E+06    -6.70409E+06    -38.8058E-03     71.9596E-03    -33.1538E-03    -7.81537E-03    -38.9430E-03     71.9700E-03    -33.0600E-03    -7.92223E-03
              94     6.94779E-03     115.416E-03    -19.5355E+06    -1.16882E+06     9.85546E+06    -6.25497E+06    -36.6919E-03     69.0221E-03    -32.3302E-03    -6.29813E-03    -36.8046E-03     69.0275E-03    -32.2509E-03    -6.39473E-03
              95     6.08410E-03     115.373E-03    -15.3636E+06    -1.06928E+06     8.12468E+06    -5.36587E+06    -34.8726E-03     66.5017E-03    -31.6291E-03    -5.05408E-03    -34.9617E-03     66.5045E-03    -31.5647E-03    -5.13570E-03
              96     5.21858E-03     115.337E-03    -11.6588E+06    -914.459E+03      6.1268E+06    -4.52336E+06    -33.3259E-03     64.3681E-03    -31.0422E-03    -4.06820E-03    -33.3936E-03     64.3694E-03    -30.9933E-03    -4.13627E-03
              97     4.35096E-03     115.308E-03    -8.58027E+06    -976.558E+03     6.40123E+06    -3.85233E+06    -32.0742E-03     62.6498E-03    -30.5756E-03    -3.27650E-03    -32.1267E-03     62.6462E-03    -30.5298E-03    -3.33378E-03
              98     3.48229E-03     115.284E-03    -6.37317E+06    -980.008E+03     3.36443E+06    -2.93238E+06    -31.0820E-03     61.2782E-03    -30.1961E-03    -2.60863E-03    -31.1190E-03     61.2759E-03    -30.1687E-03    -2.65222E-03
              99     2.61228E-03     115.266E-03    -4.70135E+06    -501.162E+03    -26.5163E+03    -2.33437E+06    -30.3541E-03     60.2688E-03    -29.9147E-03    -2.02906E-03    -30.3784E-03     60.2716E-03    -29.9073E-03    -2.06337E-03
             100     1.74183E-03     115.253E-03    -3.13805E+06    -966.160E+03    -1.58154E+06    -1.88589E+06    -29.8587E-03     59.6077E-03    -29.7490E-03    -1.49526E-03    -29.8723E-03     59.6081E-03    -29.7509E-03    -1.52241E-03
             101     870.639E-06     115.244E-03    -1.50543E+06    -883.566E+03    -2.34316E+06    -1.81241E+06    -29.4544E-03     59.3604E-03    -29.9060E-03    -1.13576E-03    -29.4588E-03     59.3599E-03    -29.9143E-03    -1.16072E-03
             102     302.922E-09     114.234E-03    -4.68354E+06    -3.70449E+06    -5.37293E+06    -1.09471E+06    -26.6948E-03     53.6325E-03    -26.9378E-03    -35.5301E-06    -26.7062E-03     53.6274E-03    -26.9525E-03    -50.7931E-06
             103     30.8093E-09     113.240E-03    -13.1636E+06    -8.82606E+06    -12.2928E+06    -1.13131E+06    -22.0909E-03     43.9668E-03    -21.8759E-03     1.08529E-03    -22.1266E-03     43.9591E-03    -21.9055E-03     1.06949E-03
             104     28.9531E-09     112.253E-03    -24.5573E+06    -15.1858E+06    -24.0685E+06    -2.29714E+06    -18.7143E-03     37.3703E-03    -18.6561E-03     1.55673E-03    -18.7804E-03     37.3647E-03    -18.7188E-03     1.52611E-03
             105     21.5636E-09     111.272E-03    -40.5945E+06    -24.1480E+06    -39.9956E+06    -3.18034E+06    -16.5537E-03     33.0777E-03    -16.5240E-03     2.10669E-03    -16.6637E-03     33.0738E-03    -16.6301E-03     2.06497E-03
             106    -13.5489E-09     110.293E-03    -59.6818E+06    -35.1251E+06    -59.7198E+06    -3.38836E+06    -15.3217E-03     30.6539E-03    -15.3322E-03     2.52002E-03    -15.4826E-03     30.6515E-03    -15.4933E-03     2.47585E-03
             107    -16.0779E-09     109.316E-03    -80.3499E+06    -45.5078E+06    -80.1141E+06    -3.17934E+06    -14.8241E-03     29.6616E-03    -14.8376E-03     2.86223E-03    -15.0436E-03     29.6668E-03    -15.0556E-03     2.82094E-03
             108     20.8078E-09     108.340E-03    -100.208E+06    -56.1664E+06    -100.114E+06    -3.30406E+06    -14.8252E-03     29.6675E-03    -14.8422E-03     3.07292E-03    -15.0996E-03     29.6772E-03    -15.1161E-03     3.03013E-03
             109    -58.8856E-09     107.362E-03    -112.042E+06    -63.5980E+06    -113.321E+06    -1.08723E+06    -15.1784E-03     30.3810E-03    -15.2026E-03     3.22190E-03    -15.4821E-03     30.3899E-03    -15.5145E-03     3.20780E-03
             110     34.7754E-09     106.385E-03    -92.0894E+06    -59.7143E+06    -93.5972E+06     3.58125E+06    -15.8911E-03     31.8127E-03    -15.9216E-03     3.32492E-03    -16.1292E-03     31.7834E-03    -16.1695E-03     3.37113E-03
             111    -86.9569E-09     105.404E-03    -55.5286E+06    -41.4588E+06    -56.0420E+06     7.33146E+06    -16.9015E-03     33.8416E-03    -16.9401E-03     3.42645E-03    -17.0378E-03     33.7961E-03    -17.0797E-03     3.52109E-03
             112     59.6824E-09     104.423E-03    -32.1595E+06    -19.1069E+06    -30.7557E+06     6.07447E+06    -18.1232E-03     36.2534E-03    -18.1302E-03     3.53886E-03    -18.2117E-03     36.2491E-03    -18.2096E-03     3.61728E-03
             113    -34.1963E-09     103.438E-03    -15.2285E+06    -5.19064E+06    -14.2722E+06     2.29359E+06    -19.4574E-03     38.8877E-03    -19.4303E-03     3.63134E-03    -19.5054E-03     38.9045E-03    -19.4720E-03     3.66089E-03
             114     62.1009E-09     102.451E-03    -3.18377E+06    -1.97421E+06    -2.61299E+06    -323.119E+03    -20.7568E-03     41.5125E-03    -20.7557E-03     3.67164E-03    -20.7661E-03     41.5110E-03    -20.7612E-03     3.66728E-03
             115    -86.9938E-09     101.461E-03     4.27862E+06    -5.14957E+06     4.41454E+06    -1.57561E+06    -21.9686E-03     43.9431E-03    -21.9745E-03     3.66682E-03    -21.9462E-03     43.9047E-03    -21.9512E-03     3.64613E-03
             116     97.3648E-09     100.469E-03     7.64341E+06    -11.3268E+06     7.65373E+06    -2.00958E+06    -23.0382E-03     46.0756E-03    -23.0374E-03     3.65390E-03    -22.9947E-03     45.9969E-03    -22.9938E-03     3.62741E-03
             117    -111.901E-09     99.4750E-03     8.22392E+06    -18.2445E+06     8.18995E+06    -2.09698E+06    -23.9402E-03     47.8916E-03    -23.9514E-03     3.60689E-03    -23.8845E-03     47.7767E-03    -23.8959E-03     3.57908E-03
             118     100.759E-09     98.4800E-03     6.82356E+06    -25.8539E+06     6.94343E+06    -2.40126E+06    -24.6883E-03     49.3970E-03    -24.7087E-03     3.56869E-03    -24.6268E-03     49.2479E-03    -24.6464E-03     3.53678E-03
             119    -129.689E-09     97.4826E-03     4.78839E+06    -34.1249E+06     4.58161E+06    -2.44220E+06    -25.2878E-03     50.6012E-03    -25.3134E-03     3.55900E-03    -25.2210E-03     50.4171E-03    -25.2480E-03     3.52638E-03
             120     105.675E-09     96.4853E-03     1.72937E+06    -42.2991E+06     1.73726E+06    -2.26546E+06    -25.7652E-03     51.5288E-03    -25.7636E-03     3.51288E-03    -25.6978E-03     51.3124E-03    -25.6961E-03     3.48240E-03
             121    -84.2673E-09     95.4862E-03    -1.94380E+06    -49.6271E+06    -2.13539E+06    -2.00817E+06    -26.1312E-03     52.2319E-03    -26.1007E-03     3.46540E-03    -26.0659E-03     51.9898E-03    -26.0366E-03     3.43811E-03
             122     108.778E-09     94.4875E-03    -6.36279E+06    -56.2162E+06    -6.28587E+06    -1.91347E+06    -26.3838E-03     52.7586E-03    -26.3747E-03     3.43847E-03    -26.3250E-03     52.4959E-03    -26.3154E-03     3.41230E-03
             123    -121.794E-09     93.4874E-03    -9.49163E+06    -62.7092E+06    -9.63317E+06    -1.86992E+06    -26.5619E-03     53.1414E-03    -26.5794E-03     3.44196E-03    -26.5045E-03     52.8556E-03    -26.5229E-03     3.41631E-03
             124     97.1653E-09     92.4879E-03    -12.8002E+06    -68.9410E+06    -12.7478E+06    -1.81462E+06    -26.6942E-03     53.4076E-03    -26.7135E-03     3.43893E-03    -26.6397E-03     53.1001E-03    -26.6587E-03     3.41392E-03
             125    -111.170E-09     91.4874E-03    -16.1303E+06    -75.0928E+06    -16.2907E+06    -1.65717E+06    -26.7903E-03     53.5829E-03    -26.7926E-03     3.43698E-03    -26.7384E-03     53.2546E-03    -26.7418E-03     3.41398E-03
             126     113.868E-09     90.4876E-03    -18.8402E+06    -80.4620E+06    -18.8251E+06    -1.47371E+06    -26.8524E-03     53.7016E-03    -26.8492E-03     3.43151E-03    -26.8027E-03     53.3540E-03    -26.7993E-03     3.41085E-03
             127    -116.057E-09     89.4870E-03    -20.8443E+06    -85.5976E+06    -20.9061E+06    -1.47945E+06    -26.8980E-03     53.7865E-03    -26.8885E-03     3.41699E-03    -26.8478E-03     53.4191E-03    -26.8387E-03     3.39622E-03
             128     128.919E-09     88.4869E-03    -22.6599E+06    -90.1273E+06    -22.7720E+06    -1.20597E+06    -26.9210E-03     53.8345E-03    -26.9135E-03     3.41877E-03    -26.8706E-03     53.4498E-03    -26.8638E-03     3.40154E-03
             129    -135.094E-09     87.4863E-03    -24.1368E+06    -94.1776E+06    -24.0892E+06    -1.09594E+06    -26.9290E-03     53.8584E-03    -26.9294E-03     3.41654E-03    -26.8782E-03     53.4575E-03    -26.8782E-03     3.40074E-03
             130     135.898E-09     86.4862E-03    -25.1355E+06    -97.8680E+06    -25.2083E+06    -1.01889E+06    -26.9354E-03     53.8751E-03    -26.9397E-03     3.41351E-03    -26.8826E-03     53.4589E-03    -26.8874E-03     3.39872E-03
             131    -150.509E-09     85.4856E-03    -25.7815E+06    -101.094E+06    -25.7729E+06    -856.304E+03    -26.9434E-03     53.8876E-03    -26.9442E-03     3.39825E-03    -26.8883E-03     53.4570E-03    -26.8891E-03     3.38555E-03
             132     158.434E-09     84.4855E-03    -25.9694E+06    -103.929E+06    -26.0005E+06    -783.587E+03    -26.9562E-03     53.8958E-03    -26.9396E-03     3.40716E-03    -26.8977E-03     53.4517E-03    -26.8813E-03     3.39540E-03
             133    -143.024E-09     83.4850E-03    -26.1016E+06    -106.588E+06    -26.1433E+06    -777.800E+03    -26.9384E-03     53.8891E-03    -26.9507E-03     3.40077E-03    -26.8765E-03     53.4320E-03    -26.8890E-03     3.38906E-03
             134     100.259E-09     82.4849E-03    -26.6729E+06    -109.084E+06    -26.6907E+06    -677.928E+03    -26.9379E-03     53.8905E-03    -26.9526E-03     3.38981E-03    -26.8744E-03     53.4226E-03    -26.8892E-03     3.37941E-03
             135    -88.5648E-09     81.4843E-03    -26.6174E+06    -110.839E+06    -26.8536E+06    -298.040E+03    -26.9454E-03     53.8939E-03    -26.9485E-03     3.39979E-03    -26.8788E-03     53.4173E-03    -26.8835E-03     3.39430E-03
             136     63.3579E-09     80.4842E-03    -26.9387E+06    -111.650E+06    -26.7106E+06    -195.674E+03    -26.9408E-03     53.8817E-03    -26.9409E-03     3.40881E-03    -26.8749E-03     53.4014E-03    -26.8735E-03     3.40466E-03
             137    -41.1182E-09     79.4837E-03    -26.0880E+06    -112.995E+06    -26.1313E+06    -561.560E+03    -26.9426E-03     53.8747E-03    -26.9320E-03     3.42695E-03    -26.8714E-03     53.3855E-03    -26.8610E-03     3.41807E-03
             138     31.6167E-09     78.4837E-03    -24.7353E+06    -114.628E+06    -24.7869E+06    -361.620E+03    -26.9371E-03     53.8786E-03    -26.9415E-03     3.40606E-03    -26.8586E-03     53.3774E-03    -26.8634E-03     3.39974E-03
             139    -35.7862E-09     77.4833E-03    -25.1918E+06    -115.701E+06    -25.2187E+06    -206.346E+03    -26.9450E-03     53.8813E-03    -26.9364E-03     3.40932E-03    -26.8666E-03     53.3760E-03    -26.8582E-03     3.40503E-03
             140     49.4836E-09     76.4831E-03    -24.7771E+06    -115.963E+06    -24.8837E+06     31.9054E+03    -26.9401E-03     53.8734E-03    -26.9333E-03     3.41771E-03    -26.8598E-03     53.3657E-03    -26.8536E-03     3.41650E-03
             141    -57.6960E-09     75.4828E-03    -25.1368E+06    -116.360E+06    -24.9012E+06    -160.366E+03    -26.9432E-03     53.8674E-03    -26.9242E-03     3.40220E-03    -26.8641E-03     53.3583E-03    -26.8435E-03     3.39851E-03
             142     96.6240E-09     74.4826E-03    -24.6426E+06    -116.610E+06    -24.9588E+06    -57.2424E+03    -26.9444E-03     53.8728E-03    -26.9284E-03     3.41326E-03    -26.8623E-03     53.3617E-03    -26.8484E-03     3.41088E-03
             143    -116.443E-09     73.4823E-03    -24.7274E+06    -116.689E+06    -24.4691E+06     6.52669E+03    -26.9212E-03     53.8745E-03    -26.9532E-03     3.42287E-03    -26.8402E-03     53.3625E-03    -26.8705E-03     3.42128E-03
             144     77.7394E-09     72.4820E-03    -24.3809E+06    -116.793E+06    -24.6391E+06    -69.2913E+03    -26.9161E-03     53.8662E-03    -26.9501E-03     3.40824E-03    -26.8330E-03     53.3534E-03    -26.8686E-03     3.40572E-03
             145    -106.741E-09     71.4819E-03    -24.1691E+06    -116.547E+06    -24.0785E+06     195.875E+03    -26.9277E-03     53.8716E-03    -26.9440E-03     3.39501E-03    -26.8446E-03     53.3590E-03    -26.8603E-03     3.39595E-03
             146     102.945E-09     70.4815E-03    -23.9378E+06    -116.422E+06    -23.9415E+06     22.1180E+03    -26.9492E-03     53.8805E-03    -26.9314E-03     3.38827E-03    -26.8654E-03     53.3680E-03    -26.8475E-03     3.38696E-03
             147    -73.1950E-09     69.4814E-03    -23.7114E+06    -116.242E+06    -23.7698E+06     141.023E+03    -26.9545E-03     53.8804E-03    -26.9259E-03     3.40517E-03    -26.8701E-03     53.3682E-03    -26.8418E-03     3.40536E-03
             148     87.6959E-09     68.4810E-03    -23.3814E+06    -115.847E+06    -23.2157E+06    -17.9308E+03    -26.9586E-03     53.8910E-03    -26.9324E-03     3.40473E-03    -26.8739E-03     53.3795E-03    -26.8466E-03     3.40283E-03
             149    -59.6349E-09     67.4809E-03    -23.3594E+06    -116.020E+06    -23.5428E+06     26.1574E+03    -26.9528E-03     53.8803E-03    -26.9276E-03     3.39795E-03    -26.8672E-03     53.3684E-03    -26.8432E-03     3.39666E-03
             150     68.3660E-09     66.4805E-03    -23.1063E+06    -115.699E+06    -22.9574E+06     134.448E+03    -26.9468E-03     53.8824E-03    -26.9356E-03     3.38806E-03    -26.8613E-03     53.3708E-03    -26.8491E-03     3.38819E-03
             151    -60.9786E-09     65.4804E-03    -22.9775E+06    -115.685E+06    -23.0612E+06    -14.4138E+03    -26.9489E-03     53.8837E-03    -26.9347E-03     3.38687E-03    -26.8627E-03     53.3721E-03    -26.8490E-03     3.38508E-03
             152     72.3293E-09     64.4799E-03    -22.8892E+06    -115.564E+06    -22.8245E+06     78.2607E+03    -26.9312E-03     53.8779E-03    -26.9467E-03     3.40457E-03    -26.8450E-03     53.3665E-03    -26.8601E-03     3.40396E-03
             153    -115.572E-09     63.4800E-03    -22.6972E+06    -115.550E+06    -22.7154E+06    -3.76800E+03    -26.9174E-03     53.8791E-03    -26.9618E-03     3.40005E-03    -26.8304E-03     53.3674E-03    -26.8749E-03     3.39836E-03
             154     75.5199E-09     62.4793E-03    -22.6884E+06    -115.486E+06    -22.6964E+06     63.2251E+03    -26.9425E-03     53.8623E-03    -26.9198E-03     3.41168E-03    -26.8556E-03     53.3508E-03    -26.8329E-03     3.41087E-03
             155    -1.17054E-09     61.4796E-03    -22.7789E+06    -115.511E+06    -22.7449E+06    -47.0775E+03    -26.9396E-03     53.8454E-03    -26.9057E-03     3.41625E-03    -26.8531E-03     53.3339E-03    -26.8190E-03     3.41402E-03
             156    -18.8101E-09     60.4789E-03    -22.8261E+06    -115.517E+06    -22.9368E+06     36.1694E+03    -26.9125E-03     53.8465E-03    -26.9339E-03     3.37052E-03    -26.8259E-03     53.3353E-03    -26.8480E-03     3.36937E-03
             157    -5.16079E-09     59.4792E-03    -22.8199E+06    -115.429E+06    -22.7774E+06     12.6704E+03    -26.8886E-03     53.8385E-03    -26.9498E-03     3.35568E-03    -26.8023E-03     53.3275E-03    -26.8633E-03     3.35425E-03
             158    -82.8443E-09     58.4784E-03    -22.6670E+06    -115.355E+06    -22.7449E+06     68.2854E+03    -26.8968E-03     53.8335E-03    -26.9367E-03     3.33824E-03    -26.8099E-03     53.3227E-03    -26.8503E-03     3.33756E-03
             159    -104.535E-09     56.4780E-03    -22.6189E+06    -115.274E+06    -22.7529E+06     1.50911E+03    -26.9488E-03     53.8576E-03    -26.9088E-03     3.39567E-03    -26.8618E-03     53.3472E-03    -26.8226E-03     3.39407E-03
             160     177.471E-09     55.4781E-03    -22.7349E+06    -115.230E+06    -22.6718E+06     79.9467E+03    -26.9369E-03     53.8327E-03    -26.8959E-03     3.44060E-03    -26.8506E-03     53.3225E-03    -26.8092E-03     3.43998E-03
             161    -183.308E-09     54.4776E-03    -22.4895E+06    -115.111E+06    -22.5555E+06     64.9912E+03    -26.8820E-03     53.7996E-03    -26.9176E-03     3.41168E-03    -26.7948E-03     53.2894E-03    -26.8308E-03     3.41090E-03
             162     120.655E-09     53.4779E-03    -22.3480E+06    -114.984E+06    -22.3179E+06     42.9669E+03    -26.8883E-03     53.8071E-03    -26.9188E-03     3.34295E-03    -26.8010E-03     53.2971E-03    -26.8313E-03     3.34192E-03
             163    -116.248E-09     52.4772E-03    -22.2309E+06    -114.828E+06    -22.2047E+06     25.3585E+03    -26.9127E-03     53.8060E-03    -26.8933E-03     3.36383E-03    -26.8252E-03     53.2964E-03    -26.8056E-03     3.36256E-03
             164     140.893E-09     51.4775E-03    -22.2419E+06    -114.791E+06    -22.2738E+06     27.6535E+03    -26.9062E-03     53.7853E-03    -26.8790E-03     3.39482E-03    -26.8187E-03     53.2760E-03    -26.7917E-03     3.39355E-03
             165    -123.484E-09     50.4769E-03    -22.3405E+06    -114.797E+06    -22.2933E+06    -3.83002E+03    -26.8862E-03     53.7571E-03    -26.8709E-03     3.38369E-03    -26.7992E-03     53.2480E-03    -26.7835E-03     3.38201E-03
             166     128.238E-09     49.4772E-03    -22.3661E+06    -114.962E+06    -22.3717E+06    -79.5585E+03    -26.8752E-03     53.7420E-03    -26.8668E-03     3.39599E-03    -26.7879E-03     53.2322E-03    -26.7796E-03     3.39335E-03
             167    -123.662E-09     48.4766E-03    -22.2589E+06    -114.938E+06    -22.3852E+06     94.7951E+03    -26.8525E-03     53.7284E-03    -26.8759E-03     3.40339E-03    -26.7647E-03     53.2186E-03    -26.7888E-03     3.40300E-03
             168     71.4989E-09     47.4771E-03    -22.3643E+06    -114.887E+06    -22.2452E+06     42.4828E+03    -26.8631E-03     53.7076E-03    -26.8444E-03     3.36380E-03    -26.7762E-03     53.1979E-03    -26.7566E-03     3.36276E-03
             169     9.61955E-09     46.4764E-03    -22.2986E+06    -114.858E+06    -22.3490E+06    -90.5045E+03    -26.8673E-03     53.6681E-03    -26.8008E-03     3.35510E-03    -26.7799E-03     53.1586E-03    -26.7136E-03     3.35234E-03
             170     20.1264E-09     45.4771E-03    -22.5242E+06    -114.941E+06    -22.4984E+06     64.4255E+03    -26.8053E-03     53.6340E-03    -26.8287E-03     3.38494E-03    -26.7187E-03     53.1247E-03    -26.7419E-03     3.38418E-03
             171    -95.7578E-09     44.4763E-03    -22.3117E+06    -114.713E+06    -22.3261E+06     10.7029E+03    -26.7641E-03     53.5975E-03    -26.8335E-03     3.34518E-03    -26.6769E-03     53.0888E-03    -26.7464E-03     3.34376E-03
             172     44.4384E-09     43.4772E-03    -22.4236E+06    -114.788E+06    -22.4403E+06     72.6860E+03    -26.7641E-03     53.5264E-03    -26.7623E-03     3.31099E-03    -26.6773E-03     53.0176E-03    -26.6755E-03     3.31037E-03
             173     5.00141E-09     42.4765E-03    -22.2653E+06    -114.603E+06    -22.2662E+06     1.62851E+03    -26.7368E-03     53.4373E-03    -26.7005E-03     3.30775E-03    -26.6497E-03     52.9289E-03    -26.6134E-03     3.30620E-03
             174     4.14826E-09     41.4777E-03    -22.3014E+06    -114.574E+06    -22.3504E+06    -5.89765E+03    -26.6555E-03     53.3274E-03    -26.6720E-03     3.26219E-03    -26.5684E-03     52.8194E-03    -26.5852E-03     3.26058E-03
             175    -47.6698E-09     40.4771E-03    -22.3639E+06    -114.491E+06    -22.3377E+06     3.22648E+03    -26.5845E-03     53.2016E-03    -26.6170E-03     3.21450E-03    -26.4980E-03     52.6940E-03    -26.5303E-03     3.21309E-03
             176     29.7442E-09     39.4785E-03    -22.4552E+06    -114.566E+06    -22.5335E+06     37.3706E+03    -26.5047E-03     53.0269E-03    -26.5222E-03     3.19591E-03    -26.4182E-03     52.5194E-03    -26.4362E-03     3.19495E-03
             177    -48.0986E-09     38.4782E-03    -22.5357E+06    -114.432E+06    -22.4594E+06     70.9086E+03    -26.4397E-03     52.8440E-03    -26.4044E-03     3.19634E-03    -26.3539E-03     52.3372E-03    -26.3181E-03     3.19581E-03
             178     124.500E-09     37.4801E-03    -22.3488E+06    -114.245E+06    -22.3820E+06      7.6545E+03    -26.3475E-03     52.6481E-03    -26.3006E-03     3.19667E-03    -26.2612E-03     52.1419E-03    -26.2145E-03     3.19530E-03
             179    -123.751E-09     36.4802E-03    -22.2172E+06    -114.031E+06    -22.2261E+06     110.973E+03    -26.1771E-03     52.4018E-03    -26.2248E-03     3.21107E-03    -26.0906E-03     51.8962E-03    -26.1383E-03     3.21101E-03
             180     34.5204E-09     35.4825E-03    -21.9758E+06    -113.637E+06    -21.9599E+06     5.59819E+03    -26.0202E-03     52.1218E-03    -26.1017E-03     3.16534E-03    -25.9335E-03     51.6175E-03    -26.0148E-03     3.16395E-03
             181    -92.6471E-09     34.4833E-03    -21.9125E+06    -113.511E+06    -22.0239E+06     76.4947E+03    -25.8995E-03     51.8115E-03    -25.9120E-03     3.12903E-03    -25.8125E-03     51.3078E-03    -25.8258E-03     3.12858E-03
             182     123.021E-09     33.4860E-03    -21.9549E+06    -113.305E+06    -21.9327E+06     46.5713E+03    -25.7217E-03     51.4538E-03    -25.7321E-03     3.12055E-03    -25.6354E-03     50.9510E-03    -25.6457E-03     3.11975E-03
             183    -176.003E-09     32.4877E-03    -21.9938E+06    -113.126E+06    -22.0366E+06     134.576E+03    -25.5075E-03     51.0431E-03    -25.5356E-03     3.06426E-03    -25.4215E-03     50.5414E-03    -25.4498E-03     3.06464E-03
             184     174.942E-09     31.4912E-03    -21.9757E+06    -112.828E+06    -21.8667E+06     26.7093E+03    -25.2857E-03     50.5759E-03    -25.2903E-03     3.00906E-03    -25.2003E-03     50.0755E-03    -25.2041E-03     3.00807E-03
             185    -184.798E-09     30.4938E-03    -21.8518E+06    -112.595E+06    -22.0877E+06     137.462E+03    -25.0145E-03     50.0612E-03    -25.0467E-03     2.96906E-03    -24.9285E-03     49.5620E-03    -24.9622E-03     2.96953E-03
             186     131.328E-09     29.4982E-03    -21.7971E+06    -112.067E+06    -21.6653E+06     132.001E+03    -24.7252E-03     49.5070E-03    -24.7818E-03     2.90529E-03    -24.6403E-03     49.0098E-03    -24.6961E-03     2.90572E-03
             187    -179.730E-09     28.5021E-03    -21.5714E+06    -111.815E+06    -21.7295E+06     123.596E+03    -24.4322E-03     48.8870E-03    -24.4547E-03     2.83932E-03    -24.3465E-03     48.3908E-03    -24.3700E-03     2.83970E-03
             188     183.154E-09     27.5077E-03    -21.4770E+06    -111.197E+06    -21.4115E+06     250.024E+03    -24.0983E-03     48.1993E-03    -24.1010E-03     2.77288E-03    -24.0134E-03     47.7056E-03    -24.0157E-03     2.77493E-03
             189    -193.963E-09     26.5130E-03    -21.0792E+06    -110.498E+06    -21.2016E+06     215.262E+03    -23.7058E-03     47.4283E-03    -23.7224E-03     2.66316E-03    -23.6203E-03     46.9372E-03    -23.6376E-03     2.66482E-03
             190     171.028E-09     25.5201E-03    -20.9176E+06    -109.593E+06    -20.8948E+06     213.848E+03    -23.2890E-03     46.5882E-03    -23.2992E-03     2.51978E-03    -23.2044E-03     46.1010E-03    -23.2145E-03     2.52150E-03
             191    -168.605E-09     24.5272E-03    -20.7213E+06    -108.932E+06    -20.8311E+06     192.148E+03    -22.8199E-03     45.6645E-03    -22.8446E-03     2.43217E-03    -22.7354E-03     45.1802E-03    -22.7607E-03     2.43367E-03
             192     118.960E-09     23.5359E-03    -20.3474E+06    -107.957E+06    -20.3685E+06     336.464E+03    -22.3263E-03     44.6776E-03    -22.3514E-03     2.32370E-03    -22.2420E-03     44.1970E-03    -22.2672E-03     2.32712E-03
             193    -116.040E-09     22.5452E-03    -19.8170E+06    -106.808E+06    -19.9238E+06     397.740E+03    -21.8144E-03     43.6440E-03    -21.8296E-03     2.18653E-03    -21.7298E-03     43.1677E-03    -21.7456E-03     2.19081E-03
             194     83.1416E-09     21.5557E-03    -19.3389E+06    -105.066E+06    -19.3957E+06     600.076E+03    -21.2529E-03     42.5264E-03    -21.2735E-03     2.09289E-03    -21.1691E-03     42.0573E-03    -21.1901E-03     2.09985E-03
             195    -89.0565E-09     20.5673E-03    -18.6563E+06    -103.399E+06    -18.5688E+06     418.619E+03    -20.6700E-03     41.3217E-03    -20.6516E-03     1.94866E-03    -20.5865E-03     40.8587E-03    -20.5675E-03     1.95334E-03
             196     126.810E-09     19.5803E-03    -18.0493E+06    -101.871E+06    -18.1933E+06     543.332E+03    -20.0527E-03     40.0604E-03    -20.0077E-03     1.71472E-03    -19.9689E-03     39.6037E-03    -19.9248E-03     1.72109E-03
             197    -88.0188E-09     18.5945E-03    -17.2329E+06    -99.7586E+06    -17.0922E+06     626.956E+03    -19.4058E-03     38.7796E-03    -19.3738E-03     1.49269E-03    -19.3225E-03     38.3306E-03    -19.2896E-03     1.50021E-03
             198     106.422E-09     17.6098E-03    -15.5404E+06    -97.1279E+06    -15.6174E+06     670.453E+03    -18.7363E-03     37.4185E-03    -18.6822E-03     1.36779E-03    -18.6505E-03     36.9781E-03    -18.5970E-03     1.37592E-03
             199    -30.8903E-09     16.6265E-03    -14.8253E+06    -94.6740E+06    -14.9101E+06     752.137E+03    -17.9714E-03     35.9565E-03    -17.9851E-03     1.27318E-03    -17.8866E-03     35.5263E-03    -17.9009E-03     1.28241E-03
             200    -70.5441E-09     15.6449E-03    -12.4994E+06    -91.4702E+06    -13.0085E+06     1.21996E+06    -17.2387E-03     34.5247E-03    -17.2860E-03     1.07357E-03    -17.1497E-03     34.1044E-03    -17.2003E-03     1.08891E-03
             201     82.0950E-09     14.6643E-03    -9.44584E+06    -86.9211E+06    -9.40974E+06     1.45410E+06    -16.5371E-03     33.0307E-03    -16.4935E-03     983.104E-06    -16.4447E-03     32.6235E-03    -16.4008E-03     1.00151E-03
             202    -16.1830E-09     13.6854E-03    -6.14617E+06    -82.8194E+06    -6.02182E+06     1.17367E+06    -15.7172E-03     31.3153E-03    -15.5981E-03     852.732E-06    -15.6192E-03     30.9189E-03    -15.4992E-03     867.571E-06
             203     162.864E-09     12.7084E-03    -5.20214E+06    -79.9540E+06    -4.87448E+06     610.057E+03    -14.7850E-03     29.4050E-03    -14.6200E-03     598.509E-06    -14.6880E-03     29.0199E-03    -14.5209E-03     606.119E-06
             204    -12.9484E-09     11.7333E-03    -7.59500E+06    -78.6334E+06    -7.58891E+06     234.303E+03    -13.7567E-03     27.3895E-03    -13.6328E-03     435.794E-06    -13.6697E-03     27.0184E-03    -13.5457E-03     438.552E-06
             205     83.3041E-09     10.7601E-03    -11.4532E+06    -78.3906E+06    -11.1013E+06    -82.7294E+03    -12.8375E-03     25.5825E-03    -12.7450E-03     371.948E-06    -12.7650E-03     25.2233E-03    -12.6702E-03     370.587E-06
             206     14.9690E-09     9.78869E-03    -14.5477E+06    -79.2147E+06    -14.3308E+06    -448.774E+03    -12.2967E-03     24.5232E-03    -12.2265E-03     494.985E-06    -12.2338E-03     24.1691E-03    -12.1622E-03     488.880E-06
             207     13.8453E-09     8.81734E-03    -15.5824E+06    -80.4790E+06    -15.3914E+06    -393.844E+03    -12.3159E-03     24.5959E-03    -12.2800E-03     745.969E-06    -12.2548E-03     24.2386E-03    -12.2177E-03     740.588E-06
             208     23.0051E-09     7.84567E-03    -14.5152E+06    -82.0124E+06    -14.2212E+06    -523.315E+03    -12.8851E-03     25.7556E-03    -12.8705E-03     1.01077E-03    -12.8181E-03     25.3872E-03    -12.8016E-03     1.00376E-03
             209    -30.7724E-09     6.87207E-03    -12.0430E+06    -84.1615E+06    -12.0786E+06    -710.949E+03    -13.8450E-03     27.7407E-03    -13.8957E-03     1.18183E-03    -13.7656E-03     27.3549E-03    -13.8166E-03     1.17243E-03
             210    -52.0595E-09     5.89659E-03    -10.1179E+06    -86.3084E+06    -10.1362E+06    -691.316E+03    -15.0815E-03     30.2077E-03    -15.1262E-03     1.21736E-03    -14.9923E-03     29.8056E-03    -15.0371E-03     1.20825E-03
             211     55.2538E-09     4.91812E-03    -10.4029E+06    -88.8873E+06    -10.5206E+06    -844.729E+03    -16.3339E-03     32.6951E-03    -16.3612E-03     1.19295E-03    -16.2418E-03     32.2810E-03    -16.2698E-03     1.18188E-03
             212    -108.245E-09     3.93779E-03    -11.3213E+06    -91.3183E+06    -11.4726E+06    -619.482E+03    -17.4400E-03     34.9190E-03    -17.4791E-03     1.05785E-03    -17.3475E-03     34.4956E-03    -17.3876E-03     1.04971E-03
             213     90.1004E-09     2.95508E-03    -12.0742E+06    -93.4269E+06    -12.1492E+06    -571.214E+03    -18.3765E-03     36.7795E-03    -18.4030E-03     851.191E-06    -18.2837E-03     36.3476E-03    -18.3108E-03     843.702E-06
             214    -119.955E-09     1.97115E-03    -12.3858E+06    -94.9804E+06    -12.8155E+06    -361.718E+03    -19.0687E-03     38.1690E-03    -19.1003E-03     578.672E-06    -18.9742E-03     37.7308E-03    -19.0087E-03     573.919E-06
             215     88.9009E-09     985.749E-06    -12.5460E+06    -95.4616E+06    -12.3819E+06     108.533E+03    -19.5457E-03     39.0432E-03    -19.4974E-03     305.263E-06    -19.4520E-03     38.6021E-03    -19.4027E-03     306.651E-06
             216     882.496E-06     111.022E-18    -12.3127E+06    -95.4432E+06    -12.0438E+06     87.1737E+03    -19.7775E-03     39.4436E-03    -19.6661E-03     286.527E-06    -19.6831E-03     39.0018E-03    -19.5701E-03     287.647E-06
             217     1.76480E-03     111.022E-18    -11.9851E+06    -95.7404E+06    -12.6002E+06    -245.523E+03    -19.9481E-03     39.7127E-03    -19.7647E-03     488.638E-06    -19.8509E-03     39.2697E-03    -19.6715E-03     485.409E-06
             218     2.64702E-03     111.022E-18    -11.7027E+06    -96.1448E+06    -13.1409E+06    -513.954E+03    -20.2946E-03     40.1698E-03    -19.8753E-03     753.818E-06    -20.1946E-03     39.7251E-03    -19.7846E-03     747.097E-06
             219     3.52864E-03     111.022E-18    -11.2964E+06    -96.7395E+06    -14.0619E+06    -634.435E+03    -20.7907E-03     40.8225E-03    -20.0318E-03     1.04852E-03    -20.6865E-03     40.3756E-03    -19.9455E-03     1.04020E-03
             220     4.40998E-03     111.022E-18    -10.6163E+06    -97.2820E+06    -15.0088E+06    -992.672E+03    -21.4193E-03     41.6543E-03    -20.2350E-03     1.37427E-03    -21.3096E-03     41.2051E-03    -20.1536E-03     1.36128E-03
             221     5.29044E-03     111.022E-18    -9.62811E+06    -98.1946E+06    -17.0334E+06    -1.21079E+06    -22.2037E-03     42.6835E-03    -20.4798E-03     1.74231E-03    -22.0848E-03     42.2312E-03    -20.4086E-03     1.72643E-03
             222     6.17044E-03     111.022E-18    -8.00633E+06    -99.6607E+06    -21.4055E+06    -2.33601E+06    -23.1363E-03     43.8969E-03    -20.7606E-03     2.23078E-03    -23.0008E-03     43.4412E-03    -20.7115E-03     2.20029E-03
             223     7.04901E-03     111.022E-18    -4.98018E+06    -100.512E+06    -27.1067E+06    -3.55895E+06    -24.2115E-03     45.2904E-03    -21.0788E-03     2.65499E-03    -24.0514E-03     44.8344E-03    -21.0614E-03     2.60850E-03
             224     7.92761E-03     111.022E-18    -1.03166E+06    -96.4532E+06    -34.8183E+06    -4.45051E+06    -25.4259E-03     46.8509E-03    -21.4250E-03     3.42072E-03    -25.2407E-03     46.4207E-03    -21.4577E-03     3.36257E-03
             225     8.80300E-03     111.022E-18     2.98313E+06    -88.0451E+06    -41.9420E+06    -4.73287E+06    -26.8349E-03     48.6519E-03    -21.8170E-03     3.98688E-03    -26.6315E-03     48.2683E-03    -21.9034E-03     3.92468E-03
             226     9.68074E-03     111.022E-18     7.01243E+06    -75.3836E+06    -44.3929E+06    -5.14440E+06    -28.2845E-03     50.5583E-03    -22.2738E-03     4.79485E-03    -28.0758E-03     50.2356E-03    -22.3967E-03     4.72720E-03
             227     10.5512E-03     111.022E-18     11.4919E+06    -54.8912E+06    -42.1489E+06    -4.82126E+06    -29.9022E-03     52.6897E-03    -22.7875E-03     6.67192E-03    -29.7042E-03     52.4599E-03    -22.9353E-03     6.60656E-03
             228     11.4271E-03     111.022E-18     14.4983E+06    -29.1305E+06    -36.2097E+06    -3.01571E+06    -31.5685E-03     54.9273E-03    -23.3588E-03     7.28601E-03    -31.4015E-03     54.8134E-03    -23.5186E-03     7.24354E-03
             229     12.2950E-03     111.022E-18     15.0899E+06     4.74954E+06    -27.6865E+06    -2.49655E+06    -33.4055E-03     57.3846E-03    -23.9791E-03     9.24204E-03    -33.2973E-03     57.4272E-03    -24.1463E-03     9.20324E-03
             230     13.1661E-03     111.022E-18     13.7236E+06     38.0388E+06    -12.1439E+06     -89.453E+03    -36.0804E-03     60.7882E-03    -24.7078E-03     11.9873E-03    -36.0500E-03     60.9769E-03    -24.8436E-03     11.9774E-03
             231     14.0293E-03     111.022E-18     12.1961E+06     59.9439E+06     12.9486E+06     2.50067E+06    -40.5748E-03     66.2140E-03    -25.6392E-03     18.0572E-03    -40.6212E-03     66.4790E-03    -25.6791E-03     18.0745E-03
             232     14.8881E-03     111.022E-18     8.59565E+06     74.9200E+06     44.6912E+06    -259.448E+03    -49.2566E-03     76.1593E-03    -26.9027E-03     31.0484E-03    -49.3897E-03     76.4590E-03    -26.8003E-03     31.0277E-03
             233     15.7315E-03     111.022E-18     3.36164E+06     83.2649E+06     67.2688E+06     856.866E+03    -57.0797E-03     85.5559E-03    -28.4762E-03     49.2528E-03    -57.3012E-03     85.8828E-03    -28.2654E-03     49.1930E-03
             234     16.5596E-03     111.022E-18     7.95824E+06     100.716E+06     81.7244E+06     7.56679E+06    -68.2065E-03     98.5380E-03    -30.3315E-03     80.8282E-03    -68.6421E-03     99.1232E-03    -30.0805E-03     80.4307E-03
             235     17.4604E-03     1.08357E-03     2.45290E+06     120.605E+06     84.4658E+06     9.05937E+06    -85.1245E-03     114.856E-03    -29.7314E-03     118.660E-03    -86.2451E-03     116.188E-03    -29.4875E-03     117.516E-03
             236     17.4964E-03     2.19772E-03    -8.57368E+06     131.023E+06     80.8412E+06     7.60361E+06    -94.4570E-03     121.830E-03    -27.3726E-03     144.922E-03    -96.4576E-03     124.045E-03    -27.1460E-03     143.184E-03
             237     17.5101E-03     3.27964E-03    -4.49156E+06     144.361E+06     90.3066E+06     6.98337E+06    -92.2619E-03     118.688E-03    -26.4260E-03     162.757E-03    -95.0969E-03     121.762E-03    -26.1773E-03     161.098E-03
             238     17.5186E-03     4.34841E-03    -1.89432E+06     155.089E+06     98.7304E+06     4.30432E+06    -85.4246E-03     111.569E-03    -26.1443E-03     177.193E-03    -89.0732E-03     115.479E-03    -25.8728E-03     176.129E-03
             239     17.5210E-03     5.40873E-03    -2.92204E+06     159.648E+06     101.408E+06     1.53251E+06    -80.1663E-03     106.236E-03    -26.0699E-03     184.889E-03    -84.3675E-03     110.700E-03    -25.7901E-03     184.465E-03
             240     17.5225E-03     6.44885E-03    -3.43403E+06     161.467E+06     102.136E+06     1.58704E+06    -77.0902E-03     103.140E-03    -26.0495E-03     187.016E-03    -81.5873E-03     107.902E-03    -25.7680E-03     187.104E-03
             241     17.5236E-03     7.50196E-03    -2.68604E+06     163.718E+06     102.634E+06     1.65110E+06    -74.8340E-03     100.901E-03    -26.0673E-03     189.449E-03    -79.5730E-03     105.916E-03    -25.7876E-03     189.926E-03
             242     17.5224E-03     8.54294E-03    -2.33170E+06     165.552E+06     103.539E+06     528.429E+03    -71.8364E-03     98.0160E-03    -26.1795E-03     190.279E-03    -76.7977E-03     103.256E-03    -25.8985E-03     191.194E-03
             243     17.5210E-03     9.57894E-03    -2.26005E+06     166.674E+06     103.727E+06     1.61432E+06    -68.2994E-03     94.5869E-03    -26.2876E-03     188.500E-03    -73.3833E-03     99.9531E-03    -26.0074E-03     189.933E-03
             244     17.5230E-03     10.6136E-03    -2.50469E+06     168.525E+06     104.056E+06     949.607E+03    -65.5167E-03     91.8756E-03    -26.3589E-03     185.112E-03    -70.6640E-03     97.3100E-03    -26.0793E-03     186.952E-03
             245     17.5195E-03     11.6456E-03    -3.80665E+06     169.505E+06     104.558E+06    -556.670E+03    -63.9073E-03     90.3706E-03    -26.4633E-03     180.821E-03    -69.1203E-03     95.8681E-03    -26.1807E-03     183.034E-03
             246     17.5194E-03     12.6772E-03    -2.78386E+06     171.551E+06     106.105E+06     16.8366E+03    -61.7268E-03     88.2997E-03    -26.5728E-03     181.330E-03    -67.0779E-03     93.9425E-03    -26.2870E-03     183.966E-03
             247     17.5194E-03     13.7119E-03    -2.36285E+06     172.816E+06     107.106E+06    -882.895E+03    -58.8943E-03     85.5439E-03    -26.6496E-03     185.974E-03    -64.4862E-03     91.4309E-03    -26.3612E-03     189.037E-03
             248     17.5197E-03     14.7394E-03    -1.52341E+06     174.350E+06     109.012E+06    -273.662E+03    -55.0063E-03     81.7505E-03    -26.7442E-03     188.209E-03    -60.7494E-03     87.7911E-03    -26.4498E-03     191.779E-03
             249     17.5198E-03     15.7615E-03     746.990E+03     175.807E+06     110.709E+06    -218.435E+03    -50.8401E-03     77.6655E-03    -26.8254E-03     188.276E-03    -56.6462E-03     83.7771E-03    -26.5279E-03     192.334E-03
             250     17.5210E-03     16.7767E-03    -855.598E+03     174.537E+06     109.331E+06    -322.077E+03    -49.3006E-03     76.1179E-03    -26.8173E-03     189.732E-03    -55.1764E-03     82.2934E-03    -26.5224E-03     194.020E-03
             251     17.5217E-03     17.8033E-03    -3.05674E+06     174.324E+06     108.764E+06     363.668E+03    -48.7089E-03     75.5142E-03    -26.8053E-03     194.006E-03    -54.7771E-03     81.8756E-03    -26.5098E-03     198.506E-03
             252     17.5215E-03     18.8210E-03    -2.67266E+06     175.389E+06     109.402E+06     88.5232E+03    -45.6990E-03     72.5583E-03    -26.8593E-03     193.395E-03    -51.8346E-03     78.9894E-03    -26.5627E-03     198.298E-03
             253     17.5226E-03     19.8254E-03    -2.80096E+06     175.657E+06     109.606E+06     266.038E+03    -42.6050E-03     69.5049E-03    -26.8999E-03     190.657E-03    -48.6758E-03     75.8713E-03    -26.6025E-03     195.916E-03
             254     17.5228E-03     20.8453E-03    -3.16471E+06     175.928E+06     109.555E+06     228.556E+03    -41.8215E-03     68.7145E-03    -26.8930E-03     195.545E-03    -48.0955E-03     75.2845E-03    -26.5957E-03     201.026E-03
             255     17.5236E-03     21.8578E-03    -2.97541E+06     176.704E+06     109.949E+06     486.122E+03    -40.3149E-03     67.2333E-03    -26.9184E-03     199.075E-03    -46.7701E-03     73.9864E-03    -26.6205E-03     204.816E-03
             256     17.5231E-03     22.8639E-03    -2.77862E+06     177.336E+06     110.498E+06     441.398E+03    -38.3346E-03     65.2875E-03    -26.9529E-03     199.143E-03    -44.8225E-03     72.0745E-03    -26.6535E-03     205.143E-03
             257     17.5245E-03     23.8710E-03    -2.86191E+06     177.499E+06     110.750E+06    -23.4472E+03    -37.6200E-03     64.5601E-03    -26.9400E-03     198.667E-03    -44.0850E-03     71.3238E-03    -26.6395E-03     204.774E-03
             258     17.5243E-03     24.8781E-03    -3.13057E+06     177.495E+06     110.804E+06     40.4928E+03    -36.8873E-03     63.8195E-03    -26.9322E-03     198.885E-03    -43.3775E-03     70.6073E-03    -26.6310E-03     205.112E-03
             259     17.5252E-03     25.8851E-03    -3.47804E+06     177.588E+06     110.767E+06     587.875E+03    -36.4296E-03     63.3727E-03    -26.9431E-03     202.551E-03    -43.0902E-03     70.3302E-03    -26.6417E-03     208.937E-03
             260     17.5242E-03     26.8944E-03    -2.39608E+06     179.033E+06     111.769E+06     885.980E+03    -34.4049E-03     61.3927E-03    -26.9879E-03     203.061E-03    -41.1178E-03     68.4087E-03    -26.6851E-03     209.693E-03
             261     17.5259E-03     27.8894E-03    -1.73188E+06     179.848E+06     112.289E+06     276.855E+03    -32.9263E-03     59.9392E-03    -27.0129E-03     200.330E-03    -39.5542E-03     66.8739E-03    -26.7097E-03     207.101E-03
             262     17.5240E-03     28.8923E-03    -3.04737E+06     179.800E+06     111.716E+06     15.9954E+03    -34.8697E-03     61.8207E-03    -26.9510E-03     199.134E-03    -41.4372E-03     68.6918E-03    -26.6487E-03     205.673E-03
             263     17.5267E-03     29.9015E-03    -4.22027E+06     180.349E+06     111.620E+06    -243.663E+03    -35.7484E-03     62.6672E-03    -26.9189E-03     200.899E-03    -42.3871E-03     69.6076E-03    -26.6162E-03     207.418E-03
             264     17.5240E-03     30.9072E-03    -2.05611E+06     182.924E+06     113.719E+06     680.514E+03    -33.0972E-03     60.0753E-03    -26.9781E-03     202.891E-03    -39.8121E-03     67.1026E-03    -26.6717E-03     209.705E-03
             265     17.5277E-03     31.9054E-03    -2.73343E+06     182.533E+06     112.975E+06     252.217E+03    -32.2909E-03     59.2821E-03    -26.9913E-03     205.643E-03    -39.1195E-03     66.4217E-03    -26.6871E-03     212.587E-03
             266     17.5237E-03     32.9105E-03    -3.62770E+06     181.746E+06     112.330E+06     419.458E+03    -32.5875E-03     59.5771E-03    -26.9896E-03     203.341E-03    -39.3750E-03     66.6716E-03    -26.6862E-03     210.285E-03
             267     17.5272E-03     33.9075E-03    -1.95159E+06     183.521E+06     113.992E+06     341.003E+03    -30.6943E-03     57.7168E-03    -27.0225E-03     200.731E-03    -37.3871E-03     64.7241E-03    -26.7158E-03     207.816E-03
             268     17.5252E-03     34.9049E-03    -2.97809E+06     182.558E+06     113.226E+06    -1.01534E+06    -32.8683E-03     59.8345E-03    -26.9662E-03     202.084E-03    -39.6006E-03     66.8763E-03    -26.6604E-03     208.984E-03
             269     17.5260E-03     35.9172E-03    -3.11050E+06     182.411E+06     113.054E+06    -26.3713E+03    -33.5783E-03     60.5336E-03    -26.9553E-03     202.168E-03    -40.3190E-03     67.5831E-03    -26.6500E-03     208.983E-03
             270     17.5259E-03     36.9131E-03    -3.14183E+06     182.726E+06     113.129E+06     125.099E+03    -30.9426E-03     57.9548E-03    -27.0122E-03     203.362E-03    -37.7341E-03     65.0557E-03    -26.7069E-03     210.498E-03
             271     17.5261E-03     37.9130E-03    -2.53160E+06     183.333E+06     113.943E+06     89.0839E+03    -31.1752E-03     58.1795E-03    -27.0044E-03     203.460E-03    -37.9629E-03     65.2787E-03    -26.6968E-03     210.571E-03
             272     17.5261E-03     38.9170E-03    -2.76618E+06     183.130E+06     113.785E+06    -167.404E+03    -31.0202E-03     58.0228E-03    -27.0025E-03     203.816E-03    -37.8259E-03     65.1387E-03    -26.6951E-03     210.919E-03
             273     17.5264E-03     39.9132E-03    -3.21226E+06     182.841E+06     113.461E+06    -193.616E+03    -31.1088E-03     58.1064E-03    -26.9976E-03     204.508E-03    -37.9555E-03     65.2617E-03    -26.6907E-03     211.663E-03
             274     17.5260E-03     40.9167E-03    -3.10032E+06     182.942E+06     113.607E+06     248.532E+03    -32.3987E-03     59.3743E-03    -26.9756E-03     206.295E-03    -39.3059E-03     66.5906E-03    -26.6684E-03     213.344E-03
             275     17.5259E-03     41.9220E-03    -3.00354E+06     183.106E+06     113.686E+06     446.729E+03    -31.2449E-03     58.2541E-03    -27.0092E-03     206.638E-03    -38.1628E-03     65.4818E-03    -26.7020E-03     213.777E-03
             276     17.5262E-03     42.9134E-03    -3.27916E+06     182.858E+06     113.513E+06    -65.2450E+03    -30.5394E-03     57.5584E-03    -27.0190E-03     204.379E-03    -37.3680E-03     64.6954E-03    -26.7118E-03     211.580E-03
             277     17.5260E-03     43.9162E-03    -3.27001E+06     182.789E+06     113.613E+06    -75.5004E+03    -31.8685E-03     58.8481E-03    -26.9797E-03     202.655E-03    -38.6393E-03     65.9268E-03    -26.6719E-03     209.727E-03
             278     17.5264E-03     44.9192E-03    -2.71234E+06     183.523E+06     114.084E+06     379.520E+03    -31.7417E-03     58.7214E-03    -26.9798E-03     206.541E-03    -38.6566E-03     65.9474E-03    -26.6715E-03     213.670E-03
             279     17.5266E-03     45.9234E-03    -1.88691E+06     184.586E+06     114.853E+06     721.761E+03    -29.7314E-03     56.7621E-03    -27.0307E-03     209.594E-03    -36.7661E-03     64.1123E-03    -26.7213E-03     216.960E-03
             280     17.5262E-03     46.9166E-03    -1.63442E+06     184.844E+06     114.878E+06     92.1198E+03    -28.8763E-03     55.9245E-03    -27.0482E-03     205.326E-03    -35.7675E-03     63.1332E-03    -26.7395E-03     212.729E-03
             281     17.5264E-03     47.9067E-03    -3.76743E+06     183.425E+06     113.421E+06    -669.325E+03    -32.0798E-03     59.0443E-03    -26.9644E-03     199.104E-03    -38.7201E-03     65.9937E-03    -26.6578E-03     206.065E-03
             282     17.5256E-03     48.9192E-03    -4.07793E+06     184.230E+06     113.942E+06     150.316E+03    -34.4144E-03     61.3331E-03    -26.9187E-03     201.085E-03    -41.1353E-03     68.3633E-03    -26.6102E-03     207.856E-03
             283     17.5265E-03     49.9253E-03    -3.21318E+06     185.692E+06     114.705E+06     427.719E+03    -31.8326E-03     58.8242E-03    -26.9917E-03     205.006E-03    -38.7242E-03     66.0311E-03    -26.6827E-03     212.118E-03
             284     17.5256E-03     50.9186E-03    -3.13741E+06     186.064E+06     114.767E+06     270.265E+03    -29.4920E-03     56.5411E-03    -27.0491E-03     203.704E-03    -36.3219E-03     63.6877E-03    -26.7406E-03     211.021E-03
             285     17.5265E-03     51.9175E-03    -2.76944E+06     186.554E+06     115.182E+06     229.859E+03    -29.9591E-03     56.9849E-03    -27.0258E-03     203.270E-03    -36.7540E-03     64.0982E-03    -26.7164E-03     210.526E-03
             286     17.5264E-03     52.9200E-03    -2.14768E+06     187.399E+06     115.985E+06    -145.902E+03    -31.0237E-03     58.0170E-03    -26.9933E-03     203.933E-03    -37.8425E-03     65.1570E-03    -26.6819E-03     211.078E-03
             287     17.5263E-03     53.9181E-03    -3.09921E+06     186.826E+06     115.456E+06    -146.368E+03    -32.5632E-03     59.5339E-03    -26.9707E-03     206.131E-03    -39.4752E-03     66.7634E-03    -26.6599E-03     213.172E-03
             288     17.5257E-03     54.9276E-03    -3.17749E+06     186.925E+06     115.310E+06     914.439E+03    -31.5330E-03     58.5351E-03    -27.0021E-03     208.571E-03    -38.5449E-03     65.8650E-03    -26.6920E-03     215.767E-03
             289     17.5268E-03     55.9224E-03    -2.58560E+06     187.416E+06     115.611E+06     14.4921E+03    -28.8714E-03     55.9227E-03    -27.0513E-03     206.478E-03    -35.7997E-03     63.1721E-03    -26.7412E-03     213.881E-03
             290     17.5261E-03     56.9116E-03    -3.80507E+06     185.817E+06     114.660E+06    -687.552E+03    -31.0929E-03     58.0841E-03    -26.9912E-03     201.615E-03    -37.8188E-03     65.1239E-03    -26.6819E-03     208.708E-03
             291     17.5260E-03     57.9225E-03    -2.92810E+06     186.767E+06     115.586E+06     463.035E+03    -32.6909E-03     59.6488E-03    -26.9580E-03     201.529E-03    -39.4276E-03     66.7032E-03    -26.6466E-03     208.485E-03
             292     876.184E-06     58.4820E-03    -22.5204E+06    -115.027E+06    -22.1597E+06     81.2229E+03    -26.9146E-03     53.8430E-03    -26.9284E-03     5.66199E-03    -26.8284E-03     53.3328E-03    -26.8397E-03     5.66031E-03
             293     1.75236E-03     58.4893E-03    -22.0689E+06    -114.184E+06    -20.5549E+06     145.607E+03    -26.9431E-03     53.8667E-03    -26.9236E-03     10.5199E-03    -26.8585E-03     53.3580E-03    -26.8288E-03     10.5166E-03
             294     2.62852E-03     58.5020E-03    -21.1771E+06    -112.901E+06    -18.1402E+06     204.357E+03    -26.9676E-03     53.8984E-03    -26.9308E-03     15.6310E-03    -26.8844E-03     53.3918E-03    -26.8270E-03     15.6255E-03
             295     3.50472E-03     58.5191E-03    -19.8559E+06    -110.892E+06    -14.6472E+06     167.590E+03    -27.0030E-03     53.9427E-03    -26.9397E-03     20.8351E-03    -26.9220E-03     53.4401E-03    -26.8234E-03     20.8258E-03
             296     4.38092E-03     58.5416E-03    -18.3232E+06    -108.465E+06    -10.4505E+06     177.066E+03    -27.0558E-03     54.0063E-03    -26.9505E-03     26.0973E-03    -26.9780E-03     53.5087E-03    -26.8189E-03     26.0840E-03
             297     5.25712E-03     58.5687E-03    -16.7692E+06    -103.292E+06    -7.03098E+06     223.692E+03    -27.1185E-03     54.0717E-03    -26.9532E-03     31.3905E-03    -27.0472E-03     53.5946E-03    -26.8143E-03     31.3728E-03
             298     6.13334E-03     58.6013E-03    -15.1388E+06    -97.8553E+06    -3.66399E+06     326.025E+03    -27.1925E-03     54.1472E-03    -26.9547E-03     36.7360E-03    -27.1285E-03     53.6927E-03    -26.8092E-03     36.7134E-03
             299     7.00960E-03     58.6385E-03    -13.4308E+06    -93.4344E+06    -638.143E+03     475.698E+03    -27.2923E-03     54.2481E-03    -26.9558E-03     42.0768E-03    -27.2344E-03     53.8127E-03    -26.8040E-03     42.0482E-03
             300     7.88580E-03     58.6812E-03    -12.0259E+06    -87.4937E+06     257.436E+03     481.904E+03    -27.4138E-03     54.3593E-03    -26.9455E-03     47.4545E-03    -27.3643E-03     53.9558E-03    -26.7999E-03     47.4161E-03
             301     8.76205E-03     58.7288E-03    -10.7486E+06    -81.6779E+06     1.01112E+06     499.223E+03    -27.5295E-03     54.4648E-03    -26.9352E-03     52.7745E-03    -27.4913E-03     54.0955E-03    -26.7962E-03     52.7239E-03
             302     9.63827E-03     58.7814E-03    -9.90043E+06    -77.1688E+06    -69.7342E+03     502.985E+03    -27.6682E-03     54.5862E-03    -26.9180E-03     58.1998E-03    -27.6424E-03     54.2515E-03    -26.7921E-03     58.1337E-03
             303     10.5146E-03     58.8394E-03    -8.85688E+06    -69.6474E+06    -2.99484E+06     586.977E+03    -27.7395E-03     54.6236E-03    -26.8841E-03     63.4968E-03    -27.7323E-03     54.3464E-03    -26.7852E-03     63.4128E-03
             304     11.3906E-03     58.9023E-03    -8.40129E+06    -55.3391E+06    -2.15132E+06     657.748E+03    -27.9048E-03     54.7621E-03    -26.8573E-03     69.9843E-03    -27.9457E-03     54.5829E-03    -26.7756E-03     69.8760E-03
             305     12.2677E-03     58.9707E-03    -8.28844E+06    -40.0869E+06    -3.01958E+06     661.609E+03    -28.2145E-03     55.0384E-03    -26.8239E-03     77.9923E-03    -28.3189E-03     54.9799E-03    -26.7689E-03     77.8548E-03
             306     13.1429E-03     59.0512E-03    -8.24719E+06    -26.9996E+06    -10.3381E+06     652.262E+03    -28.0577E-03     54.8176E-03    -26.7599E-03     79.3473E-03    -28.2265E-03     54.8913E-03    -26.7605E-03     79.1798E-03
             307     14.0200E-03     59.1228E-03    -8.30190E+06     3.10247E+06    -18.3760E+06     703.761E+03    -28.6403E-03     55.3075E-03    -26.6673E-03     92.7037E-03    -29.0012E-03     55.7032E-03    -26.7516E-03     92.4964E-03
             308     14.8964E-03     59.2260E-03    -9.14733E+06     61.7372E+06    -20.5479E+06     702.116E+03    -32.4219E-03     58.9938E-03    -26.5719E-03     155.138E-03    -33.7589E-03     60.5770E-03    -26.7508E-03     154.927E-03
             309     15.7714E-03     59.4189E-03    -9.10754E+06     133.330E+06     20.4275E+06     191.734E+03    -38.6022E-03     65.2657E-03    -26.6634E-03     255.403E-03    -44.7570E-03     71.8022E-03    -26.7414E-03     256.433E-03
             310     16.6504E-03     59.7207E-03    -5.49057E+06     178.723E+06     87.7795E+06    -128.683E+03    -36.4279E-03     63.3257E-03    -26.8978E-03     256.854E-03    -44.9285E-03     72.1868E-03    -26.7101E-03     261.564E-03
             311     876.175E-06     59.4820E-03    -22.6365E+06    -115.171E+06    -22.3081E+06     89.0389E+03    -26.9117E-03     53.8475E-03    -26.9357E-03     5.67095E-03    -26.8257E-03     53.3370E-03    -26.8474E-03     5.66936E-03
             312     1.75233E-03     59.4898E-03    -22.0532E+06    -114.312E+06    -20.7277E+06     156.614E+03    -26.9437E-03     53.8687E-03    -26.9249E-03     10.5175E-03    -26.8586E-03     53.3596E-03    -26.8308E-03     10.5143E-03
             313     2.62853E-03     59.5020E-03    -21.1210E+06    -112.891E+06    -18.1216E+06     93.1428E+03    -26.9695E-03     53.9018E-03    -26.9323E-03     15.6267E-03    -26.8861E-03     53.3952E-03    -26.8286E-03     15.6198E-03
             314     3.50471E-03     59.5195E-03    -19.9540E+06    -110.905E+06    -14.5551E+06     102.161E+03    -27.0092E-03     53.9518E-03    -26.9425E-03     20.8285E-03    -26.9289E-03     53.4491E-03    -26.8256E-03     20.8183E-03
             315     4.38091E-03     59.5416E-03    -18.4930E+06    -108.532E+06    -10.4035E+06     155.567E+03    -27.0609E-03     54.0150E-03    -26.9542E-03     26.0915E-03    -26.9839E-03     53.5173E-03    -26.8220E-03     26.0780E-03
             316     5.25711E-03     59.5691E-03    -16.7906E+06    -103.408E+06    -7.11803E+06     217.444E+03    -27.1214E-03     54.0777E-03    -26.9563E-03     31.3936E-03    -27.0499E-03     53.6002E-03    -26.8176E-03     31.3759E-03
             317     6.13333E-03     59.6013E-03    -15.1196E+06    -97.9776E+06    -3.76101E+06     275.663E+03    -27.1932E-03     54.1506E-03    -26.9574E-03     36.7214E-03    -27.1287E-03     53.6956E-03    -26.8122E-03     36.6982E-03
             318     7.00956E-03     59.6389E-03    -13.4556E+06    -93.7161E+06    -763.172E+03     393.621E+03    -27.3028E-03     54.2617E-03    -26.9589E-03     42.0956E-03    -27.2445E-03     53.8251E-03    -26.8073E-03     42.0660E-03
             319     7.88575E-03     59.6813E-03    -11.9637E+06    -87.5301E+06     373.314E+03     582.329E+03    -27.4012E-03     54.3501E-03    -26.9489E-03     47.4327E-03    -27.3516E-03     53.9462E-03    -26.8028E-03     47.3957E-03
             320     8.76205E-03     59.7291E-03    -10.7558E+06    -81.8423E+06     1.07722E+06     539.907E+03    -27.5323E-03     54.4702E-03    -26.9378E-03     52.7796E-03    -27.4940E-03     54.1000E-03    -26.7982E-03     52.7295E-03
             321     9.63826E-03     59.7816E-03    -9.62594E+06    -76.8612E+06     225.663E+03     509.832E+03    -27.6373E-03     54.5565E-03    -26.9192E-03     58.2027E-03    -27.6110E-03     54.2225E-03    -26.7927E-03     58.1368E-03
             322     10.5143E-03     59.8398E-03    -9.09973E+06    -70.2616E+06    -3.23233E+06     632.548E+03    -27.6111E-03     54.4897E-03    -26.8786E-03     63.1894E-03    -27.6034E-03     54.2097E-03    -26.7797E-03     63.1067E-03
             323     11.3919E-03     59.9012E-03    -8.42657E+06    -55.6240E+06    -2.24661E+06     561.554E+03    -28.0350E-03     54.8871E-03    -26.8522E-03     70.0101E-03    -28.0759E-03     54.7072E-03    -26.7705E-03     69.8997E-03
             324     12.2663E-03     59.9736E-03    -8.08324E+06    -39.5679E+06    -2.53199E+06     574.047E+03    -28.3494E-03     55.1795E-03    -26.8301E-03     77.9819E-03    -28.4547E-03     55.1229E-03    -26.7736E-03     77.8424E-03
             325     13.1434E-03     60.0492E-03    -7.47577E+06    -27.2597E+06    -9.81128E+06     754.641E+03    -27.9277E-03     54.6942E-03    -26.7665E-03     79.4599E-03    -28.0927E-03     54.7643E-03    -26.7652E-03     79.2947E-03
             326     14.0207E-03     60.1234E-03    -8.15148E+06     3.00164E+06    -18.5223E+06     530.509E+03    -28.6176E-03     55.2829E-03    -26.6652E-03     93.1250E-03    -28.9783E-03     55.6790E-03    -26.7504E-03     92.9155E-03
             327     14.8958E-03     60.2272E-03    -9.22286E+06     61.9062E+06    -20.9807E+06     581.308E+03    -32.2268E-03     58.7892E-03    -26.5624E-03     154.885E-03    -33.5601E-03     60.3704E-03    -26.7437E-03     154.678E-03
             328     15.7732E-03     60.4190E-03    -8.04248E+06     134.082E+06     21.2383E+06     657.069E+03    -38.1140E-03     64.7546E-03    -26.6407E-03     255.142E-03    -44.2577E-03     71.2842E-03    -26.7172E-03     256.213E-03
             329     16.6500E-03     60.7189E-03    -5.54211E+06     178.928E+06     88.1367E+06     143.069E+03    -36.6618E-03     63.5319E-03    -26.8701E-03     256.694E-03    -45.1525E-03     72.3825E-03    -26.6808E-03     261.393E-03
             330     876.157E-06     60.4824E-03    -22.6490E+06    -115.260E+06    -22.4044E+06     9.02420E+03    -26.9243E-03     53.8536E-03    -26.9293E-03     5.68166E-03    -26.8381E-03     53.3428E-03    -26.8414E-03     5.67903E-03
             331     1.75236E-03     60.4898E-03    -22.0602E+06    -114.361E+06    -20.7422E+06     2.70492E+03    -26.9465E-03     53.8745E-03    -26.9280E-03     10.5181E-03    -26.8613E-03     53.3652E-03    -26.8339E-03     10.5129E-03
             332     2.62851E-03     60.5024E-03    -21.1568E+06    -112.893E+06    -18.0002E+06     76.6696E+03    -26.9751E-03     53.9115E-03    -26.9364E-03     15.6242E-03    -26.8921E-03     53.4048E-03    -26.8320E-03     15.6170E-03
             333     3.50470E-03     60.5195E-03    -19.9494E+06    -110.957E+06    -14.5209E+06     119.178E+03    -27.0144E-03     53.9612E-03    -26.9468E-03     20.8280E-03    -26.9340E-03     53.4581E-03    -26.8295E-03     20.8180E-03
             334     4.38088E-03     60.5420E-03    -18.4670E+06    -108.587E+06    -10.5116E+06     156.661E+03    -27.0648E-03     54.0226E-03    -26.9578E-03     26.0930E-03    -26.9875E-03     53.5247E-03    -26.8261E-03     26.0794E-03
             335     5.25709E-03     60.5691E-03    -16.8942E+06    -103.452E+06    -7.17532E+06     157.644E+03    -27.1226E-03     54.0827E-03    -26.9601E-03     31.3904E-03    -27.0515E-03     53.6051E-03    -26.8215E-03     31.3719E-03
             336     6.13330E-03     60.6017E-03    -15.2136E+06    -98.1034E+06    -3.86397E+06     218.309E+03    -27.2059E-03     54.1674E-03    -26.9615E-03     36.7263E-03    -27.1416E-03     53.7121E-03    -26.8165E-03     36.7023E-03
             337     7.00951E-03     60.6389E-03    -13.5714E+06    -93.9069E+06    -779.565E+03     337.830E+03    -27.2944E-03     54.2578E-03    -26.9634E-03     42.1023E-03    -27.2364E-03     53.8204E-03    -26.8114E-03     42.0720E-03
             338     7.88577E-03     60.6818E-03    -11.9717E+06    -87.8183E+06     292.285E+03     506.546E+03    -27.4010E-03     54.3531E-03    -26.9521E-03     47.4237E-03    -27.3509E-03     53.9478E-03    -26.8059E-03     47.3857E-03
             339     8.76199E-03     60.7290E-03    -10.6222E+06    -81.8848E+06     1.11629E+06     639.923E+03    -27.5167E-03     54.4566E-03    -26.9399E-03     52.8219E-03    -27.4777E-03     54.0860E-03    -26.8002E-03     52.7732E-03
             340     9.63818E-03     60.7823E-03    -9.70769E+06    -77.1305E+06     136.669E+03     652.709E+03    -27.5686E-03     54.4861E-03    -26.9175E-03     58.0501E-03    -27.5420E-03     54.1508E-03    -26.7909E-03     57.9864E-03
             341     10.5151E-03     60.8391E-03    -9.03145E+06    -69.9976E+06    -3.02946E+06     587.518E+03    -27.8147E-03     54.6976E-03    -26.8829E-03     63.1427E-03    -27.8079E-03     54.4190E-03    -26.7834E-03     63.0582E-03
             342     11.3898E-03     60.9023E-03    -8.73298E+06    -55.7192E+06    -2.38528E+06     533.735E+03    -28.0126E-03     54.8752E-03    -26.8626E-03     70.2652E-03    -28.0547E-03     54.6954E-03    -26.7811E-03     70.1549E-03
             343     12.2678E-03     60.9732E-03    -8.05958E+06    -39.6581E+06    -2.54920E+06     544.035E+03    -28.0416E-03     54.8701E-03    -26.8285E-03     77.6836E-03    -28.1449E-03     54.8114E-03    -26.7721E-03     77.5461E-03
             344     13.1439E-03     61.0495E-03    -8.14963E+06    -27.1179E+06    -9.99061E+06     559.467E+03    -28.2386E-03     55.0039E-03    -26.7653E-03     79.1803E-03    -28.4084E-03     55.0775E-03    -26.7641E-03     79.0092E-03
             345     14.0189E-03     61.1237E-03    -8.28568E+06     2.86179E+06    -18.3485E+06     674.317E+03    -28.7427E-03     55.4226E-03    -26.6799E-03     93.1898E-03    -29.1055E-03     55.8194E-03    -26.7637E-03     92.9809E-03
             346     14.8964E-03     61.2274E-03    -8.61411E+06     62.0842E+06    -20.6953E+06     281.411E+03    -31.8587E-03     58.4293E-03    -26.5706E-03     154.094E-03    -33.1790E-03     59.9994E-03    -26.7516E-03     153.889E-03
             347     15.7731E-03     61.4181E-03    -8.59601E+06     133.668E+06     20.1703E+06     129.261E+03    -38.4184E-03     65.0665E-03    -26.6481E-03     253.758E-03    -44.5331E-03     71.5667E-03    -26.7286E-03     254.765E-03
             348     16.6501E-03     61.7200E-03    -5.43885E+06     179.224E+06     88.0972E+06     527.143E+03    -36.7359E-03     63.6321E-03    -26.8962E-03     256.274E-03    -45.2225E-03     72.4802E-03    -26.7077E-03     260.962E-03
             349     876.188E-06     61.4824E-03    -22.6007E+06    -115.203E+06    -22.2095E+06    -39.6684E+03    -26.9431E-03     53.8602E-03    -26.9171E-03     5.69932E-03    -26.8570E-03     53.3493E-03    -26.8283E-03     5.69605E-03
             350     1.75232E-03     61.4902E-03    -22.1029E+06    -114.345E+06    -20.6130E+06    -28.5401E+03    -26.9542E-03     53.8869E-03    -26.9327E-03     10.5135E-03    -26.8695E-03     53.3775E-03    -26.8379E-03     10.5079E-03
             351     2.62851E-03     61.5024E-03    -21.1840E+06    -112.984E+06    -18.1073E+06     20.5714E+03    -26.9778E-03     53.9185E-03    -26.9407E-03     15.6293E-03    -26.8946E-03     53.4115E-03    -26.8367E-03     15.6214E-03
             352     3.50467E-03     61.5200E-03    -19.9334E+06    -111.001E+06    -14.5777E+06     98.2015E+03    -27.0173E-03     53.9679E-03    -26.9506E-03     20.8334E-03    -26.9367E-03     53.4648E-03    -26.8337E-03     20.8231E-03
             353     4.38088E-03     61.5420E-03    -18.4352E+06    -108.646E+06    -10.4661E+06     136.733E+03    -27.0692E-03     54.0312E-03    -26.9620E-03     26.0956E-03    -26.9917E-03     53.5329E-03    -26.8300E-03     26.0818E-03
             354     5.25705E-03     61.5696E-03    -16.8087E+06    -103.418E+06    -7.06017E+06     179.488E+03    -27.1307E-03     54.0955E-03    -26.9648E-03     31.3918E-03    -27.0594E-03     53.6179E-03    -26.8257E-03     31.3735E-03
             355     6.13329E-03     61.6017E-03    -15.2235E+06    -98.2126E+06    -3.79941E+06     193.615E+03    -27.2065E-03     54.1728E-03    -26.9663E-03     36.7432E-03    -27.1422E-03     53.7168E-03    -26.8208E-03     36.7188E-03
             356     7.00947E-03     61.6395E-03    -13.5988E+06    -94.0612E+06    -955.517E+03     297.402E+03    -27.2915E-03     54.2578E-03    -26.9664E-03     42.0876E-03    -27.2330E-03     53.8200E-03    -26.8150E-03     42.0568E-03
             357     7.88575E-03     61.6816E-03    -12.0727E+06    -88.1009E+06     139.912E+03     415.498E+03    -27.3914E-03     54.3457E-03    -26.9543E-03     47.4558E-03    -27.3411E-03     53.9394E-03    -26.8084E-03     47.4166E-03
             358     8.76193E-03     61.7298E-03    -10.8009E+06    -82.1552E+06     887.265E+03     620.017E+03    -27.4847E-03     54.4243E-03    -26.9396E-03     52.7855E-03    -27.4458E-03     54.0528E-03    -26.8003E-03     52.7367E-03
             359     9.63845E-03     61.7818E-03    -9.73845E+06    -77.0859E+06     164.541E+03     706.889E+03    -27.6544E-03     54.5746E-03    -26.9202E-03     57.9484E-03    -27.6282E-03     54.2396E-03    -26.7935E-03     57.8849E-03
             360     10.5141E-03     61.8399E-03    -8.96891E+06    -69.9304E+06    -2.88215E+06     622.104E+03    -27.8715E-03     54.7632E-03    -26.8917E-03     63.3230E-03    -27.8648E-03     54.4848E-03    -26.7917E-03     63.2386E-03
             361     11.3914E-03     61.9027E-03    -8.56048E+06    -55.4783E+06    -2.12706E+06     549.038E+03    -27.9769E-03     54.8489E-03    -26.8719E-03     70.0636E-03    -28.0185E-03     54.6693E-03    -26.7897E-03     69.9537E-03
             362     12.2667E-03     61.9727E-03    -8.31600E+06    -40.1982E+06    -2.82090E+06     612.146E+03    -28.1889E-03     55.0298E-03    -26.8408E-03     77.3867E-03    -28.2928E-03     54.9696E-03    -26.7846E-03     77.2489E-03
             363     13.1431E-03     62.0505E-03    -8.17358E+06    -26.8305E+06    -9.90139E+06     577.203E+03    -28.2578E-03     55.0409E-03    -26.7832E-03     79.1811E-03    -28.4287E-03     55.1163E-03    -26.7819E-03     79.0100E-03
             364     14.0199E-03     62.1242E-03    -8.65147E+06     2.86062E+06    -18.4726E+06     593.982E+03    -28.6051E-03     55.2982E-03    -26.6931E-03     93.0528E-03    -28.9668E-03     55.6929E-03    -26.7770E-03     92.8447E-03
             365     14.8956E-03     62.2270E-03    -9.21757E+06     61.7425E+06    -21.4739E+06     367.302E+03    -32.2306E-03     58.8175E-03    -26.5869E-03     154.201E-03    -33.5580E-03     60.3936E-03    -26.7704E-03     153.986E-03
             366     15.7718E-03     62.4186E-03    -9.03565E+06     133.879E+06     20.2876E+06     132.694E+03    -39.0646E-03     65.7587E-03    -26.6941E-03     253.957E-03    -45.1989E-03     72.2774E-03    -26.7737E-03     254.942E-03
             367     16.6470E-03     62.7200E-03    -5.65842E+06     179.181E+06     88.3767E+06     341.074E+03    -36.1340E-03     63.0773E-03    -26.9433E-03     255.742E-03    -44.6024E-03     71.9055E-03    -26.7530E-03     260.469E-03
             368     876.147E-06     62.4829E-03    -22.5458E+06    -115.204E+06    -22.1438E+06     51.1172E+03    -26.9437E-03     53.8705E-03    -26.9268E-03     5.69556E-03    -26.8574E-03     53.3594E-03    -26.8378E-03     5.69347E-03
             369     1.75234E-03     62.4903E-03    -22.0291E+06    -114.316E+06    -20.5330E+06     37.5637E+03    -26.9558E-03     53.8929E-03    -26.9371E-03     10.5177E-03    -26.8708E-03     53.3835E-03    -26.8421E-03     10.5130E-03
             370     2.62848E-03     62.5029E-03    -21.2007E+06    -112.963E+06    -18.0359E+06        -880.619    -26.9828E-03     53.9276E-03    -26.9448E-03     15.6334E-03    -26.8998E-03     53.4206E-03    -26.8404E-03     15.6253E-03
             371     3.50468E-03     62.5200E-03    -19.9840E+06    -111.078E+06    -14.6359E+06     15.0608E+03    -27.0206E-03     53.9750E-03    -26.9544E-03     20.8371E-03    -26.9400E-03     53.4716E-03    -26.8376E-03     20.8258E-03
             372     4.38083E-03     62.5425E-03    -18.4794E+06    -108.701E+06    -10.5369E+06     114.009E+03    -27.0722E-03     54.0377E-03    -26.9655E-03     26.0986E-03    -26.9948E-03     53.5393E-03    -26.8338E-03     26.0845E-03
             373     5.25707E-03     62.5696E-03    -16.8906E+06    -103.514E+06    -7.19137E+06     193.297E+03    -27.1336E-03     54.1016E-03    -26.9680E-03     31.4072E-03    -27.0624E-03     53.6238E-03    -26.8293E-03     31.3891E-03
             374     6.13322E-03     62.6022E-03    -15.3041E+06    -98.2004E+06    -3.90754E+06     241.978E+03    -27.2004E-03     54.1692E-03    -26.9687E-03     36.7460E-03    -27.1364E-03     53.7135E-03    -26.8237E-03     36.7223E-03
             375     7.00952E-03     62.6394E-03    -13.7212E+06    -94.2283E+06    -1.06220E+06     271.415E+03    -27.2922E-03     54.2606E-03    -26.9684E-03     42.1007E-03    -27.2340E-03     53.8222E-03    -26.8172E-03     42.0696E-03
             376     7.88566E-03     62.6823E-03    -12.2756E+06    -88.2652E+06    -14.2139E+03     365.983E+03    -27.3829E-03     54.3385E-03    -26.9557E-03     47.4343E-03    -27.3332E-03     53.9319E-03    -26.8099E-03     47.3945E-03
             377     8.76210E-03     62.7295E-03    -10.9431E+06    -82.3292E+06     807.479E+03     483.924E+03    -27.5075E-03     54.4493E-03    -26.9418E-03     52.7346E-03    -27.4689E-03     54.0773E-03    -26.8026E-03     52.6839E-03
             378     9.63810E-03     62.7826E-03    -9.81960E+06    -77.0086E+06     86.0145E+03     592.975E+03    -27.7386E-03     54.6651E-03    -26.9265E-03     58.0779E-03    -27.7130E-03     54.3309E-03    -26.8001E-03     58.0127E-03
             379     10.5146E-03     62.8400E-03    -9.11991E+06    -69.7369E+06    -2.79943E+06     558.065E+03    -27.8887E-03     54.7913E-03    -26.9026E-03     63.2347E-03    -27.8833E-03     54.5141E-03    -26.8022E-03     63.1493E-03
             380     11.3901E-03     62.9028E-03    -8.52135E+06    -55.9994E+06    -2.22725E+06     540.394E+03    -27.9943E-03     54.8779E-03    -26.8835E-03     69.9004E-03    -28.0349E-03     54.6958E-03    -26.8011E-03     69.7900E-03
             381     12.2669E-03     62.9735E-03    -7.99672E+06    -40.4212E+06    -2.78746E+06      651.94E+03    -28.2170E-03     55.0695E-03    -26.8525E-03     77.8321E-03    -28.3195E-03     55.0082E-03    -26.7962E-03     77.6946E-03
             382     13.1429E-03     63.0505E-03    -7.96253E+06    -27.0193E+06    -10.1072E+06     810.332E+03    -28.2015E-03     54.9922E-03    -26.7907E-03     79.6591E-03    -28.3704E-03     55.0662E-03    -26.7905E-03     79.4923E-03
             383     14.0191E-03     63.1241E-03    -8.32024E+06     3.31165E+06    -18.1152E+06     560.134E+03    -28.5937E-03     55.2927E-03    -26.6990E-03     92.9936E-03    -28.9542E-03     55.6879E-03    -26.7823E-03     92.7856E-03
             384     14.8962E-03     63.2275E-03    -9.37211E+06     61.9721E+06    -21.3666E+06     462.918E+03    -32.4171E-03     59.0119E-03    -26.5948E-03     155.067E-03    -33.7573E-03     60.6008E-03    -26.7779E-03     154.851E-03
             385     15.7715E-03     63.4204E-03    -9.07180E+06     133.752E+06     19.6419E+06     829.555E+03    -38.7003E-03     65.3865E-03    -26.6863E-03     255.576E-03    -44.8552E-03     71.9271E-03    -26.7689E-03     256.618E-03
             386     16.6482E-03     63.7209E-03    -5.19211E+06     179.660E+06     88.4809E+06     254.344E+03    -35.9823E-03     62.8989E-03    -26.9167E-03     256.461E-03    -44.4525E-03     71.7320E-03    -26.7272E-03     261.204E-03
             387     876.169E-06     63.4829E-03    -22.5164E+06    -115.250E+06    -22.2238E+06     36.8896E+03    -26.9297E-03     53.8793E-03    -26.9496E-03     5.69631E-03    -26.8430E-03     53.3681E-03    -26.8610E-03     5.69403E-03
             388     1.75231E-03     63.4907E-03    -22.0243E+06    -114.338E+06    -20.5644E+06     87.6805E+03    -26.9563E-03     53.8968E-03    -26.9406E-03     10.5210E-03    -26.8712E-03     53.3873E-03    -26.8457E-03     10.5169E-03
             389     2.62850E-03     63.5029E-03    -21.1953E+06    -112.915E+06    -17.8930E+06     110.459E+03    -26.9869E-03     53.9353E-03    -26.9484E-03     15.6341E-03    -26.9042E-03     53.4284E-03    -26.8434E-03     15.6274E-03
             390     3.50463E-03     63.5204E-03    -20.1308E+06    -111.040E+06    -14.5565E+06     55.2152E+03    -27.0230E-03     53.9812E-03    -26.9582E-03     20.8408E-03    -26.9433E-03     53.4781E-03    -26.8408E-03     20.8301E-03
             391     4.38086E-03     63.5425E-03     -18.645E+06    -108.761E+06    -10.6559E+06     17.2958E+03    -27.0735E-03     54.0418E-03    -26.9683E-03     26.1092E-03    -26.9966E-03     53.5435E-03    -26.8369E-03     26.0938E-03
             392     5.25700E-03     63.5701E-03    -16.9212E+06    -103.657E+06    -7.45925E+06     127.322E+03    -27.1294E-03     54.0986E-03    -26.9692E-03     31.4105E-03    -27.0577E-03     53.6206E-03    -26.8317E-03     31.3915E-03
             393     6.13329E-03     63.6022E-03    -15.3513E+06    -98.3316E+06    -4.11080E+06     326.790E+03    -27.2010E-03     54.1707E-03    -26.9697E-03     36.7424E-03    -27.1367E-03     53.7147E-03    -26.8254E-03     36.7198E-03
             394     7.00942E-03     63.6399E-03    -13.9139E+06    -94.1783E+06    -966.446E+03     364.357E+03    -27.2924E-03     54.2631E-03    -26.9707E-03     42.0952E-03    -27.2354E-03     53.8251E-03    -26.8188E-03     42.0652E-03
             395     7.88578E-03     63.6822E-03    -12.4405E+06    -88.2869E+06    -22.8629E+03     267.698E+03    -27.4043E-03     54.3629E-03    -26.9586E-03     47.4006E-03    -27.3554E-03     53.9565E-03    -26.8127E-03     47.3595E-03
             396     8.76184E-03     63.7301E-03    -11.0855E+06    -82.4044E+06     696.714E+03     329.885E+03    -27.5564E-03     54.5040E-03    -26.9476E-03     52.7596E-03    -27.5184E-03     54.1321E-03    -26.8085E-03     52.7067E-03
             397     9.63828E-03     63.7826E-03    -9.87383E+06    -77.2120E+06    -81.8911E+03     436.485E+03    -27.7388E-03     54.6725E-03    -26.9337E-03     58.1651E-03    -27.7129E-03     54.3376E-03    -26.8078E-03     58.0979E-03
             398     10.5140E-03     63.8408E-03    -9.15384E+06    -69.9498E+06    -3.11194E+06     517.693E+03    -27.8494E-03     54.7560E-03    -26.9066E-03     63.3077E-03    -27.8433E-03     54.4781E-03    -26.8074E-03     63.2221E-03
             399     11.3907E-03     63.9030E-03    -8.68051E+06    -56.0779E+06    -2.28580E+06     606.428E+03    -27.9200E-03     54.8035E-03    -26.8835E-03     70.2198E-03    -27.9610E-03     54.6213E-03    -26.8010E-03     70.1109E-03
             400     12.2668E-03     63.9735E-03    -8.43932E+06    -40.5846E+06    -3.19543E+06     684.325E+03    -28.1257E-03     54.9704E-03    -26.8447E-03     78.0345E-03    -28.2294E-03     54.9093E-03    -26.7896E-03     77.8982E-03
             401     13.1437E-03     64.0509E-03    -8.17888E+06    -26.8547E+06    -10.1123E+06     536.535E+03    -28.1655E-03     54.9455E-03    -26.7800E-03     79.6987E-03    -28.3354E-03     55.0204E-03    -26.7798E-03     79.5285E-03
             402     14.0196E-03     64.1248E-03    -8.28147E+06     3.08700E+06    -18.2846E+06     593.178E+03    -28.7081E-03     55.3982E-03    -26.6901E-03     93.3682E-03    -29.0708E-03     55.7955E-03    -26.7740E-03     93.1589E-03
             403     14.8954E-03     64.2272E-03    -9.25314E+06     61.8459E+06    -21.3936E+06     1.08829E+06    -32.0278E-03     58.6048E-03    -26.5771E-03     155.762E-03    -33.3674E-03     60.1932E-03    -26.7603E-03     155.566E-03
             404     15.7726E-03     64.4220E-03    -8.93027E+06     134.447E+06     19.6259E+06     526.015E+03    -37.8318E-03     64.4654E-03    -26.6336E-03     255.298E-03    -43.9557E-03     70.9779E-03    -26.7174E-03     256.388E-03
             405     16.6523E-03     64.7184E-03    -5.35717E+06     179.967E+06     87.9162E+06    -109.980E+03    -36.5362E-03     63.3957E-03    -26.8595E-03     255.888E-03    -44.9932E-03     72.2176E-03    -26.6731E-03     260.580E-03
             406     876.137E-06     64.4834E-03    -22.7071E+06    -115.282E+06    -22.2561E+06     52.5523E+03    -26.9416E-03     53.8857E-03    -26.9442E-03     5.69805E-03    -26.8558E-03     53.3747E-03    -26.8554E-03     5.69597E-03
             407     1.75233E-03     64.4908E-03    -22.1179E+06    -114.407E+06    -20.6432E+06     86.0206E+03    -26.9601E-03     53.9043E-03    -26.9441E-03     10.5239E-03    -26.8753E-03     53.3947E-03    -26.8494E-03     10.5198E-03
             408     2.62846E-03     64.5034E-03    -21.2221E+06    -112.997E+06    -18.0390E+06     179.840E+03    -26.9850E-03     53.9358E-03    -26.9508E-03     15.6367E-03    -26.9020E-03     53.4287E-03    -26.8464E-03     15.6309E-03
             409     3.50468E-03     64.5205E-03    -20.0009E+06    -110.942E+06    -14.4251E+06     195.067E+03    -27.0251E-03     53.9857E-03    -26.9606E-03     20.8434E-03    -26.9451E-03     53.4826E-03    -26.8428E-03     20.8344E-03
             410     4.38079E-03     64.5430E-03    -18.6614E+06    -108.680E+06    -10.5274E+06     83.7520E+03    -27.0727E-03     54.0434E-03    -26.9707E-03     26.1117E-03    -26.9962E-03     53.5453E-03    -26.8387E-03     26.0972E-03
             411     5.25706E-03     64.5701E-03    -17.2576E+06    -103.843E+06    -7.57096E+06     122.337E+03    -27.1290E-03     54.0999E-03    -26.9709E-03     31.4097E-03    -27.0586E-03     53.6216E-03    -26.8332E-03     31.3907E-03
             412     6.13319E-03     64.6027E-03    -15.6537E+06    -98.5717E+06    -4.26087E+06     318.663E+03    -27.2048E-03     54.1762E-03    -26.9714E-03     36.7440E-03    -27.1415E-03     53.7198E-03    -26.8271E-03     36.7213E-03
             413     7.00951E-03     64.6399E-03    -13.9280E+06    -94.1114E+06    -970.668E+03     398.577E+03    -27.3020E-03     54.2750E-03    -26.9730E-03     42.0880E-03    -27.2452E-03     53.8374E-03    -26.8212E-03     42.0584E-03
             414     7.88561E-03     64.6827E-03    -12.4645E+06    -88.1355E+06     126.848E+03     321.329E+03    -27.4227E-03     54.3855E-03    -26.9628E-03     47.4258E-03    -27.3743E-03     53.9797E-03    -26.8163E-03     47.3853E-03
             415     8.76197E-03     64.7301E-03    -11.2009E+06    -82.5563E+06     632.512E+03     260.093E+03    -27.5709E-03     54.5234E-03    -26.9525E-03     52.8484E-03    -27.5332E-03     54.1510E-03    -26.8134E-03     52.7946E-03
             416     9.63790E-03     64.7832E-03    -10.1541E+06    -77.4306E+06    -304.617E+03     363.537E+03    -27.6679E-03     54.6029E-03    -26.9350E-03     58.2798E-03    -27.6426E-03     54.2676E-03    -26.8096E-03     58.2121E-03
             417     10.5145E-03     64.8408E-03    -9.28662E+06    -70.6152E+06    -3.38094E+06     490.851E+03    -27.7118E-03     54.6110E-03    -26.8992E-03     63.3493E-03    -27.7047E-03     54.3301E-03    -26.8003E-03     63.2641E-03
             418     11.3908E-03     64.9030E-03    -8.73944E+06    -56.1320E+06    -2.45542E+06     557.913E+03    -27.9080E-03     54.7782E-03    -26.8702E-03     70.1623E-03    -27.9491E-03     54.5961E-03    -26.7884E-03     70.0527E-03
             419     12.2672E-03     64.9739E-03    -8.20535E+06    -39.6197E+06    -2.58989E+06     496.671E+03    -28.2381E-03     55.0760E-03    -26.8379E-03     78.0155E-03    -28.3433E-03     55.0189E-03    -26.7815E-03     77.8759E-03
             420     13.1429E-03     65.0510E-03    -8.03737E+06    -27.1924E+06    -10.0949E+06     450.168E+03    -28.1542E-03     54.9310E-03    -26.7769E-03     79.3252E-03    -28.3233E-03     55.0043E-03    -26.7763E-03     79.1534E-03
             421     14.0201E-03     65.1246E-03    -8.50206E+06     2.71392E+06    -18.5718E+06     762.720E+03    -28.3459E-03     55.0213E-03    -26.6754E-03     93.2258E-03    -28.7065E-03     55.4153E-03    -26.7599E-03     93.0226E-03
             422     14.8963E-03     65.2288E-03    -8.77350E+06     62.1797E+06    -21.1333E+06     1.30232E+06    -31.6041E-03     58.1459E-03    -26.5418E-03     155.473E-03    -32.9339E-03     59.7266E-03    -26.7249E-03     155.288E-03
             423     15.7744E-03     65.4188E-03    -8.48225E+06     135.321E+06     20.3016E+06     755.298E+03    -38.5166E-03     65.1274E-03    -26.6108E-03     254.587E-03    -44.6367E-03     71.6389E-03    -26.6932E-03     255.612E-03
             424     16.6485E-03     65.7209E-03    -5.75384E+06     180.321E+06     88.1101E+06    -294.443E+03    -36.9790E-03     63.8498E-03    -26.8708E-03     255.250E-03    -45.4338E-03     72.6688E-03    -26.6834E-03     259.903E-03
             425     876.179E-06     65.4835E-03    -22.7729E+06    -115.363E+06    -22.4739E+06     50.4147E+03    -26.9502E-03     53.8889E-03    -26.9387E-03     5.69047E-03    -26.8643E-03     53.3778E-03    -26.8508E-03     5.68838E-03
             426     1.75229E-03     65.4912E-03    -22.2660E+06    -114.474E+06    -20.7653E+06     115.851E+03    -26.9616E-03     53.9074E-03    -26.9458E-03     10.5273E-03    -26.8773E-03     53.3978E-03    -26.8513E-03     10.5236E-03
             427     2.62850E-03     65.5035E-03    -21.3439E+06    -113.078E+06    -18.1635E+06     142.245E+03    -26.9876E-03     53.9401E-03    -26.9525E-03     15.6403E-03    -26.9049E-03     53.4330E-03    -26.8484E-03     15.6340E-03
             428     3.50461E-03     65.5209E-03    -20.0515E+06    -110.967E+06    -14.4638E+06     177.111E+03    -27.0241E-03     53.9865E-03    -26.9624E-03     20.8458E-03    -26.9443E-03     53.4835E-03    -26.8447E-03     20.8366E-03
             429     4.38086E-03     65.5431E-03    -18.5757E+06    -108.703E+06    -10.4229E+06     321.737E+03    -27.0752E-03     54.0479E-03    -26.9727E-03     26.0975E-03    -26.9983E-03     53.5494E-03    -26.8403E-03     26.0861E-03
             430     5.25698E-03     65.5705E-03    -17.1566E+06    -103.901E+06    -7.49095E+06     359.165E+03    -27.1328E-03     54.1058E-03    -26.9731E-03     31.3967E-03    -27.0619E-03     53.6269E-03    -26.8350E-03     31.3808E-03
             431     6.13327E-03     65.6028E-03    -15.6512E+06    -98.6168E+06    -4.29953E+06     239.359E+03    -27.2073E-03     54.1805E-03    -26.9732E-03     36.7491E-03    -27.1439E-03     53.7239E-03    -26.8290E-03     36.7254E-03
             432     7.00938E-03     65.6404E-03    -14.0076E+06    -94.2727E+06    -1.26180E+06     314.013E+03    -27.3071E-03     54.2810E-03    -26.9740E-03     42.1097E-03    -27.2499E-03     53.8432E-03    -26.8233E-03     42.0790E-03
             433     7.88572E-03     65.6828E-03    -12.4648E+06    -88.0340E+06     71.9081E+03     383.780E+03    -27.4251E-03     54.3897E-03    -26.9646E-03     47.4671E-03    -27.3768E-03     53.9844E-03    -26.8185E-03     47.4274E-03
             434     8.76179E-03     65.7306E-03    -11.2056E+06    -82.5204E+06     748.381E+03     279.384E+03    -27.5206E-03     54.4733E-03    -26.9526E-03     52.8883E-03    -27.4831E-03     54.1008E-03    -26.8130E-03     52.8349E-03
             435     9.63827E-03     65.7833E-03    -10.1687E+06    -77.7686E+06    -445.083E+03     336.538E+03    -27.5701E-03     54.4979E-03    -26.9279E-03     58.2123E-03    -27.5440E-03     54.1610E-03    -26.8026E-03     58.1446E-03
             436     10.5145E-03     65.8409E-03    -9.39302E+06    -70.6243E+06    -3.44889E+06     411.806E+03    -27.7295E-03     54.6188E-03    -26.8892E-03     63.3157E-03    -27.7229E-03     54.3381E-03    -26.7904E-03     63.2294E-03
             437     11.3908E-03     65.9034E-03    -8.83266E+06    -56.1286E+06    -2.60640E+06     394.356E+03    -28.0026E-03     54.8675E-03    -26.8649E-03     70.1262E-03    -28.0443E-03     54.6861E-03    -26.7837E-03     70.0138E-03
             438     12.2670E-03     65.9741E-03    -8.11767E+06    -39.5455E+06    -2.62591E+06     403.441E+03    -28.1826E-03     55.0174E-03    -26.8348E-03     77.9870E-03    -28.2873E-03     54.9605E-03    -26.7788E-03     77.8465E-03
             439     13.1436E-03     66.0518E-03    -8.17123E+06    -27.4471E+06    -10.2057E+06     511.990E+03    -28.1554E-03     54.9277E-03    -26.7723E-03     79.5323E-03    -28.3251E-03     55.0005E-03    -26.7717E-03     79.3615E-03
             440     14.0190E-03     66.1244E-03    -8.47615E+06     2.36312E+06    -18.7797E+06     925.929E+03    -28.3258E-03     54.9966E-03    -26.6708E-03     92.5462E-03    -28.6828E-03     55.3864E-03    -26.7559E-03     92.3459E-03
             441     14.8978E-03     66.2269E-03    -8.83216E+06     61.8909E+06    -21.2925E+06     737.097E+03    -31.9133E-03     58.4630E-03    -26.5497E-03     154.149E-03    -33.2374E-03     60.0372E-03    -26.7331E-03     153.943E-03
             442     15.7728E-03     66.4208E-03    -7.94106E+06     135.785E+06     20.4689E+06     573.203E+03    -38.6668E-03     65.3000E-03    -26.6332E-03     254.548E-03    -44.7945E-03     71.8222E-03    -26.7162E-03     255.560E-03
             443     16.6492E-03     66.7224E-03    -5.07289E+06     181.160E+06     88.5153E+06     410.860E+03    -36.7042E-03     63.5903E-03    -26.8861E-03     256.385E-03    -45.1872E-03     72.4417E-03    -26.6989E-03     261.068E-03
             444     876.115E-06     66.4838E-03    -22.9797E+06    -115.468E+06    -22.5319E+06     111.001E+03    -26.9498E-03     53.8889E-03    -26.9391E-03     5.69384E-03    -26.8647E-03     53.3777E-03    -26.8510E-03     5.69253E-03
             445     1.75234E-03     66.4913E-03    -22.4032E+06    -114.545E+06    -20.8911E+06     128.103E+03    -26.9638E-03     53.9100E-03    -26.9462E-03     10.5274E-03    -26.8798E-03     53.4005E-03    -26.8521E-03     10.5239E-03
             446     2.62844E-03     66.5039E-03    -21.4864E+06    -113.095E+06    -18.1601E+06     136.070E+03    -26.9900E-03     53.9443E-03    -26.9543E-03     15.6397E-03    -26.9081E-03     53.4373E-03    -26.8499E-03     15.6333E-03
             447     3.50467E-03     66.5210E-03    -20.3340E+06    -111.117E+06    -14.5876E+06     235.186E+03    -27.0251E-03     53.9893E-03    -26.9642E-03     20.8466E-03    -26.9463E-03     53.4861E-03    -26.8465E-03     20.8381E-03
             448     4.38078E-03     66.5435E-03    -18.8620E+06    -108.911E+06    -10.6413E+06     374.573E+03    -27.0754E-03     54.0495E-03    -26.9741E-03     26.1017E-03    -26.9994E-03     53.5508E-03    -26.8420E-03     26.0909E-03
             449     5.25703E-03     66.5707E-03    -17.1335E+06    -103.853E+06    -7.46339E+06     409.804E+03    -27.1360E-03     54.1110E-03    -26.9749E-03     31.4011E-03    -27.0651E-03     53.6322E-03    -26.8368E-03     31.3858E-03
             450     6.13316E-03     66.6032E-03    -15.5363E+06    -98.5158E+06    -4.22988E+06     346.987E+03    -27.2055E-03     54.1803E-03    -26.9749E-03     36.7521E-03    -27.1417E-03     53.7239E-03    -26.8307E-03     36.7297E-03
             451     7.00949E-03     66.6405E-03    -13.9932E+06    -94.4098E+06    -1.41964E+06     271.246E+03    -27.3017E-03     54.2760E-03    -26.9743E-03     42.1302E-03    -27.2441E-03     53.8376E-03    -26.8242E-03     42.0991E-03
             452     7.88560E-03     66.6832E-03    -12.5038E+06    -88.1094E+06    -253.211E+03     347.944E+03    -27.4092E-03     54.3718E-03    -26.9627E-03     47.5030E-03    -27.3605E-03     53.9667E-03    -26.8180E-03     47.4630E-03
             453     8.76195E-03     66.7307E-03    -11.2496E+06    -82.3854E+06     636.362E+03     312.039E+03    -27.4769E-03     54.4255E-03    -26.9487E-03     52.8033E-03    -27.4395E-03     54.0539E-03    -26.8097E-03     52.7504E-03
             454     9.63819E-03     66.7834E-03    -10.1245E+06    -77.9499E+06    -439.705E+03     234.782E+03    -27.5841E-03     54.5080E-03    -26.9240E-03     58.0538E-03    -27.5576E-03     54.1701E-03    -26.7984E-03     57.9845E-03
             455     10.5147E-03     66.8410E-03    -9.25698E+06    -70.6882E+06    -3.43189E+06     280.835E+03    -27.7838E-03     54.6722E-03    -26.8884E-03     63.2882E-03    -27.7765E-03     54.3910E-03    -26.7896E-03     63.2000E-03
             456     11.3908E-03     66.9038E-03    -8.57300E+06    -55.5237E+06    -2.29412E+06     282.487E+03    -28.0438E-03     54.9119E-03    -26.8681E-03     70.1609E-03    -28.0854E-03     54.7326E-03    -26.7866E-03     70.0471E-03
             457     12.2670E-03     66.9744E-03    -8.31251E+06    -40.3136E+06    -3.05266E+06     433.507E+03    -28.1392E-03     54.9764E-03    -26.8372E-03     77.6338E-03    -28.2428E-03     54.9162E-03    -26.7820E-03     77.4939E-03
             458     13.1435E-03     67.0513E-03    -8.15724E+06    -27.4607E+06    -10.2643E+06     575.402E+03    -27.9791E-03     54.7476E-03    -26.7685E-03     79.2804E-03    -28.1467E-03     54.8185E-03    -26.7682E-03     79.1124E-03
             459     14.0207E-03     67.1255E-03    -8.80926E+06     2.48602E+06    -18.7481E+06     397.489E+03    -28.8549E-03     55.5340E-03    -26.6791E-03     92.4215E-03    -29.2168E-03     55.9277E-03    -26.7636E-03     92.2078E-03
             460     14.8943E-03     67.2265E-03    -9.02165E+06     61.5855E+06    -21.9503E+06     444.773E+03    -32.4138E-03     58.9979E-03    -26.5841E-03     154.487E-03    -33.7473E-03     60.5816E-03    -26.7701E-03     154.272E-03
             461     15.7714E-03     67.4218E-03    -8.43408E+06     135.676E+06     19.7365E+06     421.935E+03    -38.2305E-03     64.8972E-03    -26.6667E-03     254.722E-03    -44.3480E-03     71.4093E-03    -26.7525E-03     255.780E-03
             462     16.6511E-03     67.7192E-03    -5.48953E+06     181.052E+06     88.3214E+06     435.739E+03    -36.1945E-03     63.0916E-03    -26.8970E-03     255.890E-03    -44.6552E-03     71.9194E-03    -26.7100E-03     260.619E-03
             463     876.203E-06     67.4840E-03    -23.1027E+06    -115.592E+06    -22.7696E+06     100.088E+03    -26.9548E-03     53.8909E-03    -26.9360E-03     5.69432E-03    -26.8698E-03     53.3796E-03    -26.8488E-03     5.69285E-03
             464     1.75226E-03     67.4917E-03    -22.5501E+06    -114.626E+06    -20.9658E+06     154.789E+03    -26.9643E-03     53.9118E-03    -26.9475E-03     10.5264E-03    -26.8808E-03     53.4022E-03    -26.8534E-03     10.5232E-03
             465     2.62850E-03     67.5040E-03    -21.7099E+06    -113.213E+06    -18.3003E+06     249.476E+03    -26.9882E-03     53.9432E-03    -26.9550E-03     15.6430E-03    -26.9070E-03     53.4361E-03    -26.8509E-03     15.6381E-03
             466     3.50459E-03     67.5214E-03    -20.4989E+06    -111.253E+06    -14.7757E+06     326.755E+03    -27.0265E-03     53.9909E-03    -26.9644E-03     20.8510E-03    -26.9480E-03     53.4875E-03    -26.8472E-03     20.8437E-03
             467     4.38085E-03     67.5436E-03    -18.9396E+06    -109.014E+06    -10.8451E+06     328.903E+03    -27.0768E-03     54.0510E-03    -26.9742E-03     26.1060E-03    -27.0007E-03     53.5521E-03    -26.8429E-03     26.0947E-03
             468     5.25698E-03     67.5710E-03    -17.3343E+06    -103.927E+06    -7.61270E+06     370.462E+03    -27.1342E-03     54.1095E-03    -26.9753E-03     31.4059E-03    -27.0640E-03     53.6309E-03    -26.8376E-03     31.3901E-03
             469     6.13324E-03     67.6033E-03    -15.6789E+06    -98.4627E+06    -4.34945E+06     375.621E+03    -27.2072E-03     54.1823E-03    -26.9751E-03     36.7531E-03    -27.1440E-03     53.7265E-03    -26.8313E-03     36.7311E-03
             470     7.00938E-03     67.6409E-03    -14.0853E+06    -94.3187E+06    -1.50272E+06     293.702E+03    -27.2930E-03     54.2671E-03    -26.9741E-03     42.1295E-03    -27.2358E-03     53.8295E-03    -26.8245E-03     42.0986E-03
             471     7.88572E-03     67.6834E-03    -12.5445E+06    -88.2297E+06    -504.851E+03     212.679E+03    -27.3813E-03     54.3412E-03    -26.9599E-03     47.4862E-03    -27.3322E-03     53.9359E-03    -26.8163E-03     47.4445E-03
             472     8.76191E-03     67.7310E-03    -11.1141E+06    -82.1973E+06     436.957E+03     239.308E+03    -27.4991E-03     54.4445E-03    -26.9453E-03     52.7323E-03    -27.4611E-03     54.0739E-03    -26.8078E-03     52.6784E-03
             473     9.63826E-03     67.7835E-03    -10.1247E+06    -77.9460E+06    -602.953E+03     162.835E+03    -27.6435E-03     54.5686E-03    -26.9252E-03     58.0270E-03    -27.6169E-03     54.2311E-03    -26.8005E-03     57.9565E-03
             474     10.5143E-03     67.8414E-03    -9.30819E+06    -70.7840E+06    -3.72427E+06     162.259E+03    -27.7954E-03     54.6873E-03    -26.8920E-03     63.3623E-03    -27.7877E-03     54.4062E-03    -26.7944E-03     63.2726E-03
             475     11.3907E-03     67.9039E-03    -8.92815E+06    -55.7028E+06    -2.75376E+06     342.517E+03    -27.9995E-03     54.8690E-03    -26.8696E-03     70.3049E-03    -28.0418E-03     54.6899E-03    -26.7896E-03     70.1923E-03
             476     12.2669E-03     67.9750E-03    -8.38158E+06    -40.3726E+06    -3.21203E+06     372.877E+03    -28.2316E-03     55.0725E-03    -26.8409E-03     77.5655E-03    -28.3354E-03     55.0125E-03    -26.7862E-03     77.4242E-03
             477     13.1431E-03     68.0510E-03    -8.11460E+06    -27.8965E+06    -10.7132E+06     599.234E+03    -28.1761E-03     54.9570E-03    -26.7808E-03     78.9811E-03    -28.3426E-03     55.0266E-03    -26.7822E-03     78.8117E-03
             478     14.0193E-03     68.1253E-03    -8.33987E+06     2.95212E+06    -18.3376E+06     384.856E+03    -28.6814E-03     55.3746E-03    -26.6931E-03     93.0880E-03    -29.0430E-03     55.7702E-03    -26.7770E-03     92.8760E-03
             479     14.8961E-03     68.2297E-03    -9.59958E+06     62.0416E+06    -22.2450E+06     183.268E+03    -32.2728E-03     58.8581E-03    -26.5853E-03     154.699E-03    -33.6051E-03     60.4411E-03    -26.7725E-03     154.484E-03
             480     15.7734E-03     68.4184E-03    -9.51877E+06     135.077E+06     18.0710E+06     607.466E+03    -38.5926E-03     65.2606E-03    -26.6680E-03     254.977E-03    -44.7439E-03     71.8052E-03    -26.7597E-03     256.005E-03
             481     16.6460E-03     68.7234E-03    -5.38949E+06     181.331E+06     87.9770E+06     345.763E+03    -36.2034E-03     63.1114E-03    -26.9079E-03     256.552E-03    -44.6979E-03     71.9754E-03    -26.7232E-03     261.288E-03
             482     876.091E-06     68.4844E-03    -23.2603E+06    -115.695E+06    -22.9195E+06     37.8055E+03    -26.9546E-03     53.8925E-03    -26.9380E-03     5.69904E-03    -26.8700E-03     53.3812E-03    -26.8511E-03     5.69676E-03
             483     1.75235E-03     68.4919E-03    -22.7372E+06    -114.833E+06    -21.3121E+06     223.493E+03    -26.9614E-03     53.9082E-03    -26.9468E-03     10.5280E-03    -26.8781E-03     53.3984E-03    -26.8539E-03     10.5257E-03
             484     2.62843E-03     68.5044E-03    -21.8633E+06    -113.403E+06    -18.6175E+06     352.418E+03    -26.9884E-03     53.9420E-03    -26.9536E-03     15.6448E-03    -26.9072E-03     53.4347E-03    -26.8506E-03     15.6412E-03
             485     3.50468E-03     68.5216E-03    -20.6665E+06    -111.284E+06    -14.9725E+06     362.006E+03    -27.0258E-03     53.9893E-03    -26.9635E-03     20.8530E-03    -26.9478E-03     53.4863E-03    -26.8470E-03     20.8462E-03
             486     4.38077E-03     68.5440E-03    -19.2057E+06    -109.048E+06    -10.9498E+06     334.961E+03    -27.0775E-03     54.0516E-03    -26.9741E-03     26.1094E-03    -27.0025E-03     53.5531E-03    -26.8429E-03     26.0981E-03
             487     5.25702E-03     68.5712E-03    -17.5062E+06    -103.965E+06    -7.80496E+06     302.987E+03    -27.1330E-03     54.1077E-03    -26.9747E-03     31.4044E-03    -27.0633E-03     53.6295E-03    -26.8376E-03     31.3877E-03
             488     6.13318E-03     68.6037E-03    -15.7687E+06    -98.4464E+06    -4.47068E+06     277.674E+03    -27.2055E-03     54.1800E-03    -26.9745E-03     36.7619E-03    -27.1426E-03     53.7247E-03    -26.8313E-03     36.7387E-03
             489     7.00945E-03     68.6411E-03    -14.0233E+06    -94.1686E+06    -1.55382E+06     200.225E+03    -27.2913E-03     54.2646E-03    -26.9733E-03     42.1164E-03    -27.2340E-03     53.8278E-03    -26.8242E-03     42.0843E-03
             490     7.88564E-03     68.6836E-03    -12.4992E+06    -88.1692E+06    -660.646E+03     110.645E+03    -27.3721E-03     54.3304E-03    -26.9583E-03     47.4471E-03    -27.3227E-03     53.9255E-03    -26.8156E-03     47.4041E-03
             491     8.76199E-03     68.7312E-03    -11.1014E+06    -82.3463E+06     103.438E+03     66.3572E+03    -27.5057E-03     54.4486E-03    -26.9429E-03     52.7878E-03    -27.4669E-03     54.0778E-03    -26.8069E-03     52.7317E-03
             492     9.63809E-03     68.7839E-03    -9.93968E+06     -77.572E+06    -648.019E+03     92.0455E+03    -27.6950E-03     54.6207E-03    -26.9256E-03     58.0756E-03    -27.6680E-03     54.2849E-03    -26.8020E-03     58.0041E-03
             493     10.5146E-03     68.8414E-03    -9.52175E+06    -70.9334E+06    -4.02596E+06     159.797E+03    -27.8039E-03     54.6989E-03    -26.8950E-03     63.3152E-03    -27.7968E-03     54.4178E-03    -26.7984E-03     63.2252E-03
             494     11.3907E-03     68.9044E-03    -8.90895E+06    -56.2886E+06    -3.15009E+06     236.172E+03    -27.9229E-03     54.7924E-03    -26.8696E-03     70.3339E-03    -27.9634E-03     54.6107E-03    -26.7908E-03     70.2205E-03
             495     12.2672E-03     68.9750E-03    -8.58072E+06    -40.4703E+06    -3.61971E+06     339.165E+03    -28.2249E-03     55.0617E-03    -26.8368E-03     77.7850E-03    -28.3287E-03     55.0019E-03    -26.7838E-03     77.6437E-03
             496     13.1431E-03     69.0521E-03    -8.23464E+06    -27.9160E+06    -10.8831E+06     401.715E+03    -28.3241E-03     55.1057E-03    -26.7816E-03     79.4680E-03    -28.4926E-03     55.1774E-03    -26.7836E-03     79.2944E-03
             497     14.0190E-03     69.1255E-03    -8.63334E+06     2.43629E+06    -19.1315E+06     603.559E+03    -28.5314E-03     55.2224E-03    -26.6910E-03     93.2872E-03    -28.8912E-03     55.6157E-03    -26.7777E-03     93.0806E-03
             498     14.8967E-03     69.2282E-03    -10.1397E+06     62.1289E+06    -22.4176E+06     564.812E+03    -32.2706E-03     58.8509E-03    -26.5803E-03     154.857E-03    -33.6091E-03     60.4390E-03    -26.7678E-03     154.643E-03
             499     15.7703E-03     69.4222E-03    -9.38184E+06     135.725E+06     18.6975E+06     53.7441E+03    -38.6130E-03     65.2822E-03    -26.6692E-03     253.954E-03    -44.7163E-03     71.7797E-03    -26.7589E-03     254.988E-03
             500     16.6527E-03     69.7198E-03    -5.31320E+06     181.456E+06     87.7337E+06     23.9824E+03    -36.0340E-03     62.9431E-03    -26.9091E-03     255.682E-03    -44.4950E-03     71.7751E-03    -26.7259E-03     260.435E-03
             501     876.210E-06     69.4845E-03    -23.5354E+06    -115.890E+06    -23.1043E+06     161.392E+03    -26.9541E-03     53.8888E-03    -26.9347E-03     5.69785E-03    -26.8704E-03     53.3771E-03    -26.8480E-03     5.69718E-03
             502     1.75226E-03     69.4922E-03    -23.0060E+06    -115.036E+06    -21.5574E+06     199.782E+03    -26.9623E-03     53.9078E-03    -26.9455E-03     10.5257E-03    -26.8797E-03     53.3977E-03    -26.8531E-03     10.5231E-03
             503     2.62851E-03     69.5046E-03    -22.0235E+06    -113.562E+06    -18.9557E+06     290.486E+03    -26.9878E-03     53.9400E-03    -26.9522E-03     15.6446E-03    -26.9067E-03     53.4325E-03    -26.8504E-03     15.6402E-03
             504     3.50459E-03     69.5219E-03    -20.7415E+06    -111.412E+06    -15.2519E+06     390.468E+03    -27.0247E-03     53.9867E-03    -26.9620E-03     20.8549E-03    -26.9465E-03     53.4836E-03    -26.8466E-03     20.8485E-03
             505     4.38086E-03     69.5442E-03    -19.2419E+06    -109.026E+06    -11.0102E+06     408.779E+03    -27.0732E-03     54.0462E-03    -26.9730E-03     26.1129E-03    -26.9984E-03     53.5480E-03    -26.8420E-03     26.1026E-03
             506     5.25699E-03     69.5715E-03    -17.6575E+06    -103.826E+06    -7.71350E+06     242.210E+03    -27.1349E-03     54.1093E-03    -26.9744E-03     31.4123E-03    -27.0663E-03     53.6318E-03    -26.8368E-03     31.3948E-03
             507     6.13323E-03     69.6038E-03    -15.8712E+06    -98.3206E+06    -4.48479E+06     37.2582E+03    -27.1998E-03     54.1734E-03    -26.9736E-03     36.7617E-03    -27.1376E-03     53.7188E-03    -26.8304E-03     36.7353E-03
             508     7.00942E-03     69.6414E-03    -14.0079E+06    -94.1470E+06    -1.68502E+06    -12.9764E+03    -27.2844E-03     54.2555E-03    -26.9711E-03     42.1225E-03    -27.2269E-03     53.8189E-03    -26.8227E-03     42.0877E-03
             509     7.88569E-03     69.6838E-03    -12.3571E+06    -88.0329E+06    -767.480E+03    -25.5821E+03    -27.3842E-03     54.3404E-03    -26.9562E-03     47.4374E-03    -27.3341E-03     53.9361E-03    -26.8144E-03     47.3925E-03
             510     8.76193E-03     69.7314E-03    -11.0478E+06    -82.4283E+06    -27.3486E+03    -70.0230E+03    -27.5084E-03     54.4504E-03    -26.9420E-03     52.8039E-03    -27.4690E-03     54.0792E-03    -26.8066E-03     52.7461E-03
             511     9.63835E-03     69.7841E-03    -9.88281E+06    -77.4779E+06    -651.438E+03    -45.5637E+03    -27.6940E-03     54.6191E-03    -26.9250E-03     58.1510E-03    -27.6668E-03     54.2836E-03    -26.8016E-03     58.0778E-03
             512     10.5141E-03     69.8420E-03    -9.05292E+06    -70.7969E+06    -3.80466E+06     8.94215E+03    -27.8604E-03     54.7574E-03    -26.8969E-03     63.2848E-03    -27.8517E-03     54.4762E-03    -26.8002E-03     63.1925E-03
             513     11.3907E-03     69.9041E-03    -8.54800E+06    -56.6487E+06    -3.26028E+06     123.954E+03    -27.9219E-03     54.7948E-03    -26.8730E-03     70.1665E-03    -27.9598E-03     54.6108E-03    -26.7947E-03     70.0515E-03
             514     12.2670E-03     69.9756E-03    -8.04892E+06    -40.4462E+06    -3.32339E+06     260.842E+03    -28.0954E-03     54.9320E-03    -26.8366E-03     77.8510E-03    -28.1965E-03     54.8706E-03    -26.7829E-03     77.7097E-03
             515     13.1435E-03     70.0521E-03    -8.28718E+06    -27.9955E+06    -10.8291E+06     354.949E+03    -28.1142E-03     54.8841E-03    -26.7700E-03     79.3110E-03    -28.2820E-03     54.9546E-03    -26.7715E-03     79.1384E-03
             516     14.0203E-03     70.1260E-03    -8.62577E+06     1.53642E+06    -19.5093E+06     636.777E+03    -28.6351E-03     55.3107E-03    -26.6756E-03     93.2152E-03    -28.9929E-03     55.6999E-03    -26.7628E-03     93.0075E-03
             517     14.8949E-03     70.2286E-03    -8.74600E+06     62.5418E+06    -21.1126E+06     1.06584E+06    -32.1723E-03     58.7396E-03    -26.5673E-03     156.103E-03    -33.5173E-03     60.3368E-03    -26.7509E-03     155.903E-03
             518     15.7740E-03     70.4230E-03    -8.72768E+06     137.026E+06     20.3839E+06     648.259E+03    -38.6108E-03     65.2594E-03    -26.6485E-03     255.185E-03    -44.7033E-03     71.7481E-03    -26.7326E-03     256.214E-03
             519     16.6444E-03     70.7188E-03    -5.91885E+06     181.276E+06     87.6911E+06    -416.359E+03    -36.4682E-03     63.3582E-03    -26.8901E-03     256.164E-03    -44.9247E-03     72.1829E-03    -26.7059E-03     260.897E-03
             520     876.100E-06     70.4849E-03    -23.7365E+06    -116.130E+06    -23.4471E+06     118.244E+03    -26.9493E-03     53.8852E-03    -26.9359E-03     5.68948E-03    -26.8657E-03     53.3731E-03    -26.8503E-03     5.68827E-03
             521     1.75235E-03     70.4924E-03    -23.1817E+06    -115.139E+06    -21.7032E+06     212.573E+03    -26.9613E-03     53.9054E-03    -26.9441E-03     10.5293E-03    -26.8792E-03     53.3952E-03    -26.8521E-03     10.5269E-03
             522     2.62842E-03     70.5049E-03    -22.3413E+06    -113.720E+06    -19.1319E+06     222.712E+03    -26.9867E-03     53.9379E-03    -26.9512E-03     15.6498E-03    -26.9067E-03     53.4303E-03    -26.8496E-03     15.6446E-03
             523     3.50469E-03     70.5221E-03    -21.0526E+06    -111.566E+06    -15.5751E+06     296.812E+03    -27.0215E-03     53.9816E-03    -26.9602E-03     20.8591E-03    -26.9441E-03     53.4787E-03    -26.8458E-03     20.8514E-03
             524     4.38077E-03     70.5445E-03    -19.3343E+06    -108.988E+06    -11.2534E+06     273.696E+03    -27.0727E-03     54.0436E-03    -26.9708E-03     26.1129E-03    -26.9981E-03     53.5460E-03    -26.8410E-03     26.1009E-03
             525     5.25704E-03     70.5717E-03    -17.3575E+06    -103.535E+06    -7.59218E+06     93.4533E+03    -27.1290E-03     54.1018E-03    -26.9727E-03     31.4148E-03    -27.0595E-03     53.6251E-03    -26.8354E-03     31.3954E-03
             526     6.13319E-03     70.6042E-03    -15.6220E+06    -98.1778E+06    -4.35578E+06    -66.8707E+03    -27.1982E-03     54.1700E-03    -26.9718E-03     36.7546E-03    -27.1351E-03     53.7156E-03    -26.8286E-03     36.7269E-03
             527     7.00948E-03     70.6415E-03    -14.0101E+06    -93.9914E+06    -1.78363E+06    -234.951E+03    -27.2780E-03     54.2462E-03    -26.9683E-03     42.1093E-03    -27.2205E-03     53.8105E-03    -26.8206E-03     42.0717E-03
             528     7.88571E-03     70.6842E-03    -12.3516E+06    -88.0274E+06    -995.927E+03    -302.755E+03    -27.3985E-03     54.3520E-03    -26.9535E-03     47.4460E-03    -27.3481E-03     53.9482E-03    -26.8129E-03     47.3975E-03
             529     8.76195E-03     70.7316E-03    -10.9476E+06    -82.3225E+06    -165.113E+03    -166.757E+03    -27.5351E-03     54.4767E-03    -26.9416E-03     52.8107E-03    -27.4952E-03     54.1062E-03    -26.8072E-03     52.7515E-03
             530     9.63802E-03     70.7845E-03    -9.94790E+06    -77.6973E+06    -1.00395E+06    -127.220E+03    -27.6544E-03     54.5781E-03    -26.9237E-03     58.1709E-03    -27.6266E-03     54.2421E-03    -26.8016E-03     58.0968E-03
             531     10.5148E-03     70.8421E-03     -9.1939E+06    -70.6997E+06    -4.03012E+06    -132.962E+03    -27.8576E-03     54.7515E-03    -26.8939E-03     63.3986E-03    -27.8493E-03     54.4713E-03    -26.7982E-03     63.3046E-03
             532     11.3903E-03     70.9049E-03    -8.81417E+06    -56.4712E+06    -3.25224E+06     5.59053E+03    -28.0139E-03     54.8885E-03    -26.8747E-03     70.0909E-03    -28.0539E-03     54.7062E-03    -26.7963E-03     69.9736E-03
             533     12.2670E-03     70.9748E-03    -8.25311E+06    -40.8230E+06    -3.49730E+06     117.598E+03    -28.0904E-03     54.9319E-03    -26.8415E-03     77.8206E-03    -28.1920E-03     54.8694E-03    -26.7878E-03     77.6772E-03
             534     13.1433E-03     71.0531E-03    -7.65016E+06    -28.3620E+06    -10.5024E+06     284.148E+03    -28.0097E-03     54.7821E-03    -26.7725E-03     79.0651E-03    -28.1734E-03     54.8485E-03    -26.7728E-03     78.8923E-03
             535     14.0194E-03     71.1251E-03    -7.61859E+06     1.24064E+06    -19.0675E+06     804.951E+03    -28.4025E-03     55.0703E-03    -26.6678E-03     92.9684E-03    -28.7554E-03     55.4559E-03    -26.7539E-03     92.7646E-03
             536     14.8978E-03     71.2300E-03    -8.15853E+06     62.0201E+06    -22.0343E+06     799.242E+03    -31.8340E-03     58.3732E-03    -26.5392E-03     155.499E-03    -33.1615E-03     59.9558E-03    -26.7275E-03     155.302E-03
             537     15.7725E-03     71.4213E-03    -7.41944E+06     137.746E+06     20.4344E+06     504.003E+03    -37.9882E-03     64.5876E-03    -26.5994E-03     255.047E-03    -44.1089E-03     71.1116E-03    -26.6862E-03     256.110E-03
             538     16.6553E-03     71.7245E-03    -4.94336E+06     182.481E+06     88.7934E+06     329.895E+03    -36.9477E-03     63.7911E-03    -26.8434E-03     256.570E-03    -45.4298E-03     72.6460E-03    -26.6569E-03     261.236E-03
             539     876.199E-06     71.4851E-03    -23.9993E+06    -116.258E+06    -23.6082E+06     118.995E+03    -26.9390E-03     53.8800E-03    -26.9410E-03     5.69745E-03    -26.8564E-03     53.3680E-03    -26.8557E-03     5.69625E-03
             540     1.75227E-03     71.4927E-03    -23.4284E+06    -115.349E+06    -22.0336E+06     157.157E+03    -26.9595E-03     53.9008E-03    -26.9413E-03     10.5326E-03    -26.8779E-03     53.3904E-03    -26.8502E-03     10.5294E-03
             541     2.62852E-03     71.5051E-03    -22.4668E+06    -113.786E+06    -19.2186E+06     267.321E+03    -26.9859E-03     53.9354E-03    -26.9495E-03     15.6476E-03    -26.9063E-03     53.4279E-03    -26.8480E-03     15.6429E-03
             542     3.50459E-03     71.5224E-03    -21.2894E+06    -111.674E+06    -15.8086E+06     252.503E+03    -27.0204E-03     53.9787E-03    -26.9583E-03     20.8558E-03    -26.9438E-03     53.4759E-03    -26.8445E-03     20.8475E-03
             543     4.38087E-03     71.5447E-03    -19.7169E+06    -108.626E+06    -11.7978E+06    -10.4511E+03    -27.0671E-03     54.0338E-03    -26.9667E-03     26.1281E-03    -26.9941E-03     53.5394E-03    -26.8396E-03     26.1125E-03
             544     5.25698E-03     71.5720E-03    -17.8639E+06    -103.323E+06    -8.09089E+06    -307.774E+03    -27.1235E-03     54.0923E-03    -26.9689E-03     31.4192E-03    -27.0561E-03     53.6182E-03    -26.8336E-03     31.3946E-03
             545     6.13329E-03     71.6043E-03    -15.8183E+06    -98.1105E+06    -4.57882E+06    -305.556E+03    -27.1935E-03     54.1623E-03    -26.9688E-03     36.7491E-03    -27.1312E-03     53.7089E-03    -26.8265E-03     36.7183E-03
             546     7.00942E-03     71.6418E-03    -13.9603E+06    -93.6858E+06    -1.97443E+06    -372.778E+03    -27.2939E-03     54.2596E-03    -26.9657E-03     42.0895E-03    -27.2364E-03     53.8256E-03    -26.8195E-03     42.0499E-03
             547     7.88573E-03     71.6842E-03    -12.5221E+06    -88.0248E+06    -1.30643E+06    -483.209E+03    -27.4023E-03     54.3547E-03    -26.9524E-03     47.4472E-03    -27.3523E-03     53.9515E-03    -26.8131E-03     47.3964E-03
             548     8.76191E-03     71.7321E-03    -11.2390E+06    -82.4446E+06    -680.982E+03    -379.582E+03    -27.5317E-03     54.4716E-03    -26.9399E-03     52.8238E-03    -27.4923E-03     54.1016E-03    -26.8074E-03     52.7619E-03
             549     9.63834E-03     71.7845E-03    -10.1297E+06    -77.6102E+06    -1.27740E+06    -267.643E+03    -27.6844E-03     54.6083E-03    -26.9240E-03     58.1361E-03    -27.6574E-03     54.2736E-03    -26.8031E-03     58.0599E-03
             550     10.5141E-03     71.8425E-03    -9.45578E+06    -70.9917E+06    -4.44263E+06    -202.900E+03    -27.7938E-03     54.6866E-03    -26.8929E-03     63.3557E-03    -27.7856E-03     54.4057E-03    -26.7984E-03     63.2611E-03
             551     11.3910E-03     71.9051E-03    -8.77152E+06    -56.5289E+06    -3.62732E+06    -175.500E+03    -27.9927E-03     54.8624E-03    -26.8697E-03     70.0904E-03    -28.0318E-03     54.6802E-03    -26.7932E-03     69.9709E-03
             552     12.2666E-03     71.9755E-03    -8.20054E+06    -41.0869E+06    -3.92195E+06    -25.3062E+03    -28.1152E-03     54.9520E-03    -26.8368E-03     77.8240E-03    -28.2158E-03     54.8890E-03    -26.7850E-03     77.6785E-03
             553     13.1433E-03     72.0525E-03    -7.91467E+06    -28.4118E+06    -11.0445E+06     180.100E+03    -28.0230E-03     54.7913E-03    -26.7683E-03     79.4266E-03    -28.1874E-03     54.8588E-03    -26.7709E-03     79.2528E-03
             554     14.0201E-03     72.1259E-03    -8.31891E+06     1.23909E+06    -19.6088E+06     277.379E+03    -28.6315E-03     55.3035E-03    -26.6720E-03     92.7761E-03    -28.9900E-03     55.6937E-03    -26.7598E-03     92.5628E-03
             555     14.8954E-03     72.2284E-03    -8.54901E+06     61.7442E+06    -23.1499E+06     241.043E+03    -32.0648E-03     58.6219E-03    -26.5571E-03     154.262E-03    -33.3869E-03     60.2000E-03    -26.7500E-03     154.052E-03
             556     15.7740E-03     72.4226E-03    -7.87442E+06     137.581E+06     19.6570E+06    -38.4197E+03    -37.8698E-03     64.5032E-03    -26.6333E-03     252.364E-03    -43.9351E-03     70.9719E-03    -26.7231E-03     253.434E-03
             557     16.6476E-03     72.7182E-03    -5.27714E+06     182.431E+06     88.6991E+06     632.335E+03    -36.4129E-03     63.2886E-03    -26.8756E-03     255.846E-03    -44.8963E-03     72.1437E-03    -26.6890E-03     260.572E-03
             558     876.125E-06     72.4854E-03    -24.2060E+06    -116.426E+06    -23.9492E+06     59.6869E+03    -26.9329E-03     53.8763E-03    -26.9434E-03     5.69928E-03    -26.8505E-03     53.3642E-03    -26.8592E-03     5.69729E-03
             559     1.75235E-03     72.4929E-03    -23.6621E+06    -115.420E+06     -22.164E+06     117.418E+03    -26.9591E-03     53.8994E-03    -26.9403E-03     10.5281E-03    -26.8783E-03     53.3891E-03    -26.8494E-03     10.5244E-03
             560     2.62843E-03     72.5053E-03    -22.6976E+06    -113.962E+06    -19.6111E+06     155.389E+03    -26.9825E-03     53.9298E-03    -26.9473E-03     15.6477E-03    -26.9032E-03     53.4222E-03    -26.8472E-03     15.6416E-03
             561     3.50469E-03     72.5227E-03    -21.2515E+06    -111.552E+06    -16.0066E+06     126.841E+03    -27.0189E-03     53.9747E-03    -26.9558E-03     20.8562E-03    -26.9420E-03     53.4727E-03    -26.8432E-03     20.8463E-03
             562     4.38079E-03     72.5449E-03    -19.6203E+06    -108.097E+06    -11.9891E+06    -202.986E+03    -27.0630E-03     54.0263E-03    -26.9633E-03     26.1225E-03    -26.9900E-03     53.5347E-03    -26.8381E-03     26.1043E-03
             563     5.25709E-03     72.5723E-03    -17.8694E+06    -102.923E+06    -8.39539E+06    -578.184E+03    -27.1226E-03     54.0877E-03    -26.9651E-03     31.4187E-03    -27.0554E-03     53.6160E-03    -26.8319E-03     31.3906E-03
             564     6.13317E-03     72.6046E-03    -16.1004E+06    -98.1390E+06    -5.00030E+06    -713.109E+03    -27.2006E-03     54.1668E-03    -26.9662E-03     36.7383E-03    -27.1391E-03     53.7142E-03    -26.8255E-03     36.7022E-03
             565     7.00954E-03     72.6420E-03    -14.3086E+06    -93.6107E+06    -2.38157E+06    -559.361E+03    -27.3026E-03     54.2669E-03    -26.9643E-03     42.1050E-03    -27.2463E-03     53.8345E-03    -26.8197E-03     42.0631E-03
             566     7.88561E-03     72.6846E-03    -12.7655E+06    -87.7772E+06    -1.54308E+06    -615.234E+03    -27.4173E-03     54.3702E-03    -26.9529E-03     47.4302E-03    -27.3685E-03     53.9690E-03    -26.8148E-03     47.3776E-03
             567     8.76201E-03     72.7321E-03    -11.4311E+06    -82.4916E+06    -945.335E+03    -709.744E+03    -27.5380E-03     54.4797E-03    -26.9417E-03     52.7950E-03    -27.4992E-03     54.1102E-03    -26.8102E-03     52.7287E-03
             568     9.63799E-03     72.7851E-03    -10.1729E+06    -77.7892E+06    -1.71617E+06    -555.900E+03    -27.6780E-03     54.6027E-03    -26.9247E-03     58.1431E-03    -27.6503E-03     54.2677E-03    -26.8057E-03     58.0633E-03
             569     10.5146E-03     72.8426E-03    -9.29265E+06    -70.7304E+06    -4.56565E+06    -429.624E+03    -27.7836E-03     54.6769E-03    -26.8933E-03     63.3422E-03    -27.7748E-03     54.3972E-03    -26.8001E-03     63.2448E-03
             570     11.3904E-03     72.9052E-03    -8.72772E+06    -56.8984E+06    -3.85182E+06    -298.636E+03    -27.8779E-03     54.7437E-03    -26.8658E-03     70.1472E-03    -27.9155E-03     54.5595E-03    -26.7899E-03     70.0270E-03
             571     12.2674E-03     72.9759E-03    -7.87455E+06    -41.3296E+06    -4.01016E+06    -125.532E+03    -28.0673E-03     54.8947E-03    -26.8274E-03     77.6194E-03    -28.1653E-03     54.8296E-03    -26.7761E-03     77.4730E-03
             572     13.1437E-03     73.0522E-03    -8.12353E+06    -28.4395E+06    -11.5212E+06     138.520E+03    -28.2179E-03     54.9809E-03    -26.7631E-03     79.3233E-03    -28.3831E-03     55.0497E-03    -26.7676E-03     79.1476E-03
             573     14.0196E-03     73.1267E-03    -9.04280E+06     1.46215E+06    -19.9750E+06    -141.332E+03    -29.0135E-03     55.6993E-03    -26.6858E-03     92.9554E-03    -29.3769E-03     56.0937E-03    -26.7746E-03     92.7328E-03
             574     14.8957E-03     73.2297E-03    -9.53361E+06     62.4516E+06    -23.1354E+06    -312.379E+03    -32.6042E-03     59.2032E-03    -26.5990E-03     154.147E-03    -33.9366E-03     60.7906E-03    -26.7915E-03     153.921E-03
             575     15.7703E-03     73.4211E-03    -9.67342E+06     136.452E+06     17.3598E+06     447.634E+03    -38.7475E-03     65.4513E-03    -26.7038E-03     252.506E-03    -44.8142E-03     71.9177E-03    -26.8008E-03     253.504E-03
             576     16.6490E-03     73.7209E-03    -5.83758E+06     181.956E+06     87.2727E+06     495.608E+03    -35.7992E-03     62.7476E-03    -26.9484E-03     256.486E-03    -44.2979E-03     71.6184E-03    -26.7674E-03     261.283E-03
             577     876.180E-06     73.4856E-03    -24.4536E+06    -116.434E+06    -24.0740E+06    -40.0630E+03    -26.9337E-03     53.8787E-03    -26.9451E-03     5.70777E-03    -26.8523E-03     53.3671E-03    -26.8611E-03     5.70447E-03
             578     1.75228E-03     73.4932E-03    -23.8004E+06    -115.507E+06    -22.5149E+06     35.1212E+03    -26.9556E-03     53.8952E-03    -26.9396E-03     10.5287E-03    -26.8749E-03     53.3852E-03    -26.8502E-03     10.5240E-03
             579     2.62851E-03     73.5056E-03    -22.8212E+06    -113.906E+06    -19.8055E+06    -25.9958E+03    -26.9815E-03     53.9276E-03    -26.9461E-03     15.6469E-03    -26.9027E-03     53.4208E-03    -26.8469E-03     15.6384E-03
             580     3.50461E-03     73.5229E-03    -21.5569E+06    -111.480E+06    -16.3335E+06    -113.079E+03    -27.0165E-03     53.9705E-03    -26.9540E-03     20.8527E-03    -26.9407E-03     53.4699E-03    -26.8428E-03     20.8397E-03
             581     4.38088E-03     73.5452E-03    -19.9371E+06    -107.302E+06    -12.8074E+06    -487.265E+03    -27.0628E-03     54.0210E-03    -26.9582E-03     26.1154E-03    -26.9914E-03     53.5350E-03    -26.8377E-03     26.0936E-03
             582     5.25698E-03     73.5725E-03    -18.0763E+06    -102.442E+06    -9.39189E+06    -1.00591E+06    -27.1204E-03     54.0798E-03    -26.9594E-03     31.4165E-03    -27.0535E-03     53.6123E-03    -26.8316E-03     31.3830E-03
             583     6.13333E-03     73.6049E-03    -16.1906E+06    -98.2628E+06    -5.34253E+06    -896.597E+03    -27.2106E-03     54.1756E-03    -26.9650E-03     36.7509E-03    -27.1488E-03     53.7230E-03    -26.8258E-03     36.7124E-03
             584     7.00936E-03     73.6422E-03    -14.5743E+06    -93.4877E+06    -2.63051E+06    -825.930E+03    -27.3093E-03     54.2739E-03    -26.9646E-03     42.0996E-03    -27.2542E-03     53.8428E-03    -26.8211E-03     42.0542E-03
             585     7.88579E-03     73.6849E-03    -12.9292E+06    -87.4199E+06    -1.74688E+06    -907.477E+03    -27.4299E-03     54.3839E-03    -26.9540E-03     47.4521E-03    -27.3822E-03     53.9850E-03    -26.8172E-03     47.3957E-03
             586     8.76173E-03     73.7325E-03    -11.5395E+06    -82.3055E+06    -1.10736E+06    -1.00400E+06    -27.5464E-03     54.4904E-03    -26.9440E-03     52.8110E-03    -27.5082E-03     54.1222E-03    -26.8134E-03     52.7409E-03
             587     9.63827E-03     73.7852E-03    -10.3519E+06    -78.1284E+06    -2.17696E+06    -1.01443E+06    -27.6462E-03     54.5713E-03    -26.9251E-03     58.1506E-03    -27.6181E-03     54.2354E-03    -26.8076E-03     58.0651E-03
             588     10.5142E-03     73.8429E-03    -9.25178E+06    -70.9674E+06    -4.94648E+06    -746.024E+03    -27.7420E-03     54.6324E-03    -26.8904E-03     63.2889E-03    -27.7320E-03     54.3519E-03    -26.7988E-03     63.1877E-03
             589     11.3909E-03     73.9055E-03    -8.66654E+06    -56.8924E+06    -3.97132E+06     -554.49E+03    -27.8831E-03     54.7456E-03    -26.8626E-03     70.0695E-03    -27.9201E-03     54.5614E-03    -26.7874E-03     69.9461E-03
             590     12.2671E-03     73.9756E-03    -8.24671E+06    -41.6735E+06    -4.52140E+06    -302.479E+03    -28.1624E-03     54.9897E-03    -26.8273E-03     77.5046E-03    -28.2607E-03     54.9238E-03    -26.7775E-03     77.3558E-03
             591     13.1432E-03     74.0531E-03    -7.85537E+06    -28.6928E+06    -11.4327E+06     27.2714E+03    -28.3691E-03     55.1419E-03    -26.7729E-03     79.4908E-03    -28.5337E-03     55.2100E-03    -26.7770E-03     79.3122E-03
             592     14.0193E-03     74.1269E-03    -8.37316E+06     1.42495E+06    -19.8936E+06     253.650E+03    -28.8909E-03     55.5850E-03    -26.6941E-03     93.4676E-03    -29.2494E-03     55.9765E-03    -26.7835E-03     93.2521E-03
             593     14.8950E-03     74.2309E-03    -10.1888E+06     61.9427E+06    -23.7672E+06     288.485E+03    -32.5190E-03     59.1146E-03    -26.5956E-03     155.392E-03    -33.8600E-03     60.7082E-03    -26.7895E-03     155.174E-03
             594     15.7717E-03     74.4227E-03    -9.81179E+06     136.886E+06     17.2911E+06    -82.4413E+03    -39.1105E-03     65.8097E-03    -26.6992E-03     254.590E-03    -45.2465E-03     72.3467E-03    -26.7971E-03     255.566E-03
             595     16.6457E-03     74.7203E-03    -5.50351E+06     182.322E+06       87.01E+06    -131.486E+03    -35.8449E-03     62.7932E-03    -26.9483E-03     255.484E-03    -44.3088E-03     71.6325E-03    -26.7696E-03     260.219E-03
             596     876.128E-06     74.4858E-03    -24.5812E+06    -116.310E+06    -24.3221E+06    -68.0542E+03    -26.9448E-03     53.8777E-03    -26.9329E-03     5.70732E-03    -26.8639E-03     53.3672E-03    -26.8502E-03     5.70367E-03
             597     1.75233E-03     74.4934E-03    -23.9923E+06    -115.393E+06    -22.6428E+06    -211.089E+03    -26.9561E-03     53.8957E-03    -26.9396E-03     10.5310E-03    -26.8763E-03     53.3868E-03    -26.8507E-03     10.5231E-03
             598     2.62845E-03     74.5058E-03    -22.9263E+06    -113.793E+06    -19.9252E+06    -205.610E+03    -26.9820E-03     53.9283E-03    -26.9463E-03     15.6449E-03    -26.9037E-03     53.4224E-03    -26.8477E-03     15.6342E-03
             599     3.50467E-03     74.5232E-03    -21.5342E+06    -111.192E+06    -16.4781E+06    -352.467E+03    -27.0176E-03     53.9714E-03    -26.9538E-03     20.8507E-03    -26.9419E-03     53.4723E-03    -26.8437E-03     20.8347E-03
             600     4.38080E-03     74.5454E-03    -19.9224E+06    -106.340E+06    -13.5483E+06    -908.240E+03    -27.0610E-03     54.0148E-03    -26.9538E-03     26.1173E-03    -26.9898E-03     53.5346E-03    -26.8384E-03     26.0900E-03
             601     5.25708E-03     74.5728E-03    -18.3774E+06    -101.889E+06    -10.2315E+06    -1.34044E+06    -27.1266E-03     54.0824E-03    -26.9558E-03     31.4165E-03    -27.0608E-03     53.6193E-03    -26.8326E-03     31.3786E-03
             602     6.13317E-03     74.6050E-03    -16.7505E+06    -98.5574E+06    -6.16922E+06    -1.27383E+06    -27.2084E-03     54.1719E-03    -26.9635E-03     36.7654E-03    -27.1478E-03     53.7198E-03    -26.8271E-03     36.7221E-03
             603     7.00953E-03     74.6427E-03    -14.8082E+06    -93.1131E+06    -3.09280E+06    -1.12333E+06    -27.3158E-03     54.2794E-03    -26.9636E-03     42.1227E-03    -27.2617E-03     53.8511E-03    -26.8226E-03     42.0734E-03
             604     7.88552E-03     74.6850E-03    -13.1548E+06    -87.1807E+06    -2.04791E+06    -1.31107E+06    -27.4175E-03     54.3711E-03    -26.9536E-03     47.4860E-03    -27.3708E-03     53.9741E-03    -26.8183E-03     47.4245E-03
             605     8.76202E-03     74.7329E-03    -11.4981E+06    -82.0315E+06    -1.28724E+06    -1.43536E+06    -27.5232E-03     54.4651E-03    -26.9419E-03     52.8323E-03    -27.4849E-03     54.0985E-03    -26.8127E-03     52.7567E-03
             606     9.63797E-03     74.7852E-03    -10.2265E+06    -77.9532E+06    -2.22179E+06    -1.39221E+06    -27.6179E-03     54.5393E-03    -26.9213E-03     58.1759E-03    -27.5894E-03     54.2041E-03    -26.8046E-03     58.0856E-03
             607     10.5145E-03     74.8433E-03    -9.43332E+06    -71.4936E+06    -5.58506E+06    -1.17786E+06    -27.7675E-03     54.6525E-03    -26.8850E-03     63.3481E-03    -27.7566E-03     54.3706E-03    -26.7956E-03     63.2413E-03
             608     11.3907E-03     74.9051E-03    -8.40369E+06    -56.9648E+06    -4.18754E+06    -884.704E+03    -27.9696E-03     54.8321E-03    -26.8625E-03     69.9864E-03    -28.0050E-03     54.6476E-03    -26.7886E-03     69.8582E-03
             609     12.2669E-03     74.9767E-03    -8.04328E+06    -41.8676E+06    -4.58978E+06    -611.456E+03    -28.2131E-03     55.0458E-03    -26.8327E-03     77.7182E-03    -28.3102E-03     54.9791E-03    -26.7833E-03     77.5650E-03
             610     13.1434E-03     75.0526E-03    -7.82552E+06    -29.5242E+06    -12.0970E+06    -313.915E+03    -28.2510E-03     55.0240E-03    -26.7731E-03     79.9257E-03    -28.4136E-03     55.0892E-03    -26.7794E-03     79.7435E-03
             611     14.0194E-03     75.1285E-03    -7.96028E+06     1.00981E+06    -20.1144E+06     517.369E+03    -28.6102E-03     55.2919E-03    -26.6818E-03     93.6851E-03    -28.9642E-03     55.6797E-03    -26.7723E-03     93.4761E-03
             612     14.8967E-03     75.2297E-03    -9.14534E+06      62.458E+06    -23.2294E+06     1.01510E+06    -31.9210E-03     58.4795E-03    -26.5586E-03     155.710E-03    -33.2549E-03     60.0701E-03    -26.7520E-03     155.514E-03
             613     15.7729E-03     75.4250E-03    -9.04383E+06     137.960E+06     18.1981E+06     267.578E+03    -38.3487E-03     64.9704E-03    -26.6217E-03     256.112E-03    -44.5134E-03     71.5399E-03    -26.7176E-03     257.159E-03
             614     16.6504E-03     75.7229E-03    -5.84836E+06     182.328E+06     87.0437E+06    -600.775E+03    -36.5910E-03     63.4557E-03    -26.8647E-03     255.373E-03    -45.0284E-03     72.2671E-03    -26.6853E-03     260.028E-03
             615     876.177E-06     75.4861E-03    -24.7540E+06    -116.048E+06    -24.3813E+06    -208.428E+03    -26.9464E-03     53.8766E-03    -26.9302E-03     5.69984E-03    -26.8667E-03     53.3678E-03    -26.8479E-03     5.69439E-03
             616     1.75229E-03     75.4936E-03    -24.1107E+06    -115.032E+06    -22.6730E+06    -310.971E+03    -26.9586E-03     53.8986E-03    -26.9401E-03     10.5312E-03    -26.8799E-03     53.3917E-03    -26.8517E-03     10.5219E-03
             617     2.62848E-03     75.5061E-03    -23.2202E+06    -113.736E+06    -20.1568E+06    -380.668E+03    -26.9830E-03     53.9302E-03    -26.9472E-03     15.6451E-03    -26.9059E-03     53.4254E-03    -26.8494E-03     15.6320E-03
             618     3.50463E-03     75.5234E-03    -21.8760E+06    -110.366E+06    -17.4412E+06    -774.675E+03    -27.0164E-03     53.9662E-03    -26.9499E-03     20.8528E-03    -26.9422E-03     53.4732E-03    -26.8453E-03     20.8312E-03
             619     4.38085E-03     75.5457E-03    -20.2258E+06    -105.290E+06    -14.3830E+06    -1.47975E+06    -27.0616E-03     54.0117E-03    -26.9501E-03     26.1168E-03    -26.9923E-03     53.5385E-03    -26.8400E-03     26.0821E-03
             620     5.25700E-03     75.5729E-03    -18.5336E+06    -101.742E+06    -10.4872E+06    -1.55217E+06    -27.1266E-03     54.0827E-03    -26.9561E-03     31.4280E-03    -27.0613E-03     53.6209E-03    -26.8342E-03     31.3874E-03
             621     6.13326E-03     75.6055E-03    -16.9731E+06    -98.2657E+06    -6.45468E+06    -1.49424E+06    -27.2078E-03     54.1711E-03    -26.9634E-03     36.7767E-03    -27.1483E-03     53.7213E-03    -26.8285E-03     36.7305E-03
             622     7.00938E-03     75.6427E-03    -15.2146E+06    -92.8808E+06    -3.80614E+06    -1.75328E+06    -27.2952E-03     54.2556E-03    -26.9604E-03     42.1656E-03    -27.2424E-03     53.8301E-03    -26.8227E-03     42.1084E-03
             623     7.88575E-03     75.6856E-03    -13.1464E+06    -86.7281E+06    -2.41943E+06    -1.85900E+06    -27.3982E-03     54.3471E-03    -26.9489E-03     47.5022E-03    -27.3516E-03     53.9530E-03    -26.8162E-03     47.4336E-03
             624     8.76181E-03     75.7327E-03    -11.6611E+06    -82.0000E+06    -1.66934E+06    -1.88749E+06    -27.4855E-03     54.4209E-03    -26.9354E-03     52.8480E-03    -27.4474E-03     54.0552E-03    -26.8079E-03     52.7667E-03
             625     9.63834E-03     75.7860E-03    -10.2289E+06    -77.9215E+06    -2.54403E+06    -1.84664E+06    -27.6160E-03     54.5295E-03    -26.9135E-03     58.1210E-03    -27.5871E-03     54.1950E-03    -26.7984E-03     58.0248E-03
             626     10.5146E-03     75.8427E-03    -9.33388E+06    -71.4725E+06    -5.62384E+06    -1.65195E+06    -27.8045E-03     54.6849E-03    -26.8804E-03     63.4160E-03    -27.7933E-03     54.4031E-03    -26.7913E-03     63.3028E-03
             627     11.3905E-03     75.9067E-03    -8.76198E+06    -57.5509E+06    -4.71511E+06    -1.32637E+06    -27.9579E-03     54.8159E-03    -26.8580E-03     70.1289E-03    -27.9934E-03     54.6297E-03    -26.7854E-03     69.9951E-03
             628     12.2672E-03     75.9753E-03     -8.0456E+06    -42.0293E+06    -4.83556E+06    -946.765E+03    -28.2086E-03     55.0362E-03    -26.8276E-03     78.0084E-03    -28.3062E-03     54.9701E-03    -26.7792E-03     77.8503E-03
             629     13.1431E-03     76.0547E-03    -7.97511E+06    -29.8969E+06    -12.3067E+06    -515.257E+03    -28.2365E-03     55.0045E-03    -26.7681E-03     79.7763E-03    -28.3987E-03     55.0680E-03    -26.7747E-03     79.5914E-03
             630     14.0201E-03     76.1264E-03    -8.17243E+06     244.299E+03    -20.0330E+06     160.662E+03    -28.4766E-03     55.1524E-03    -26.6757E-03     93.0484E-03    -28.8304E-03     55.5361E-03    -26.7644E-03     92.8359E-03
             631     14.8958E-03     76.2320E-03    -8.18884E+06     61.9941E+06    -23.7479E+06     747.368E+03    -31.4756E-03     58.0098E-03    -26.5342E-03     154.753E-03    -32.7915E-03     59.5857E-03    -26.7310E-03     154.562E-03
             632     15.7741E-03     76.4214E-03    -7.21829E+06     138.719E+06     17.9938E+06     835.025E+03    -37.3182E-03     63.8791E-03    -26.5610E-03     255.113E-03    -43.4250E-03     70.4006E-03    -26.6617E-03     256.229E-03
             633     16.6527E-03     76.7250E-03    -5.16564E+06     183.081E+06     87.6349E+06     71.4631E+03    -37.0810E-03     63.8797E-03    -26.7987E-03     255.591E-03    -45.5026E-03     72.6788E-03    -26.6185E-03     260.221E-03
             634     876.136E-06     76.4863E-03    -24.7993E+06    -115.627E+06    -24.3693E+06    -132.451E+03    -26.9444E-03     53.8805E-03    -26.9360E-03     5.70701E-03    -26.8655E-03     53.3738E-03    -26.8543E-03     5.70254E-03
             635     1.75231E-03     76.4939E-03    -24.2826E+06    -114.636E+06    -22.8265E+06    -398.171E+03    -26.9578E-03     53.8989E-03    -26.9411E-03     10.5292E-03    -26.8803E-03     53.3944E-03    -26.8538E-03     10.5188E-03
             636     2.62846E-03     76.5063E-03    -23.1897E+06    -113.447E+06    -20.2994E+06    -569.919E+03    -26.9853E-03     53.9331E-03    -26.9478E-03     15.6464E-03    -26.9083E-03     53.4299E-03    -26.8512E-03     15.6309E-03
             637     3.50463E-03     76.5237E-03    -21.9748E+06    -109.140E+06    -17.9856E+06    -1.14702E+06    -27.0164E-03     53.9638E-03    -26.9474E-03     20.8542E-03    -26.9437E-03     53.4778E-03    -26.8472E-03     20.8279E-03
             638     4.38081E-03     76.5459E-03    -20.7796E+06    -104.238E+06    -15.0840E+06    -1.84074E+06    -27.0586E-03     54.0061E-03    -26.9475E-03     26.1272E-03    -26.9925E-03     53.5399E-03    -26.8417E-03     26.0878E-03
             639     5.25702E-03     76.5733E-03    -19.3518E+06    -101.805E+06    -10.8068E+06    -1.91631E+06    -27.1230E-03     54.0802E-03    -26.9572E-03     31.4347E-03    -27.0613E-03     53.6198E-03    -26.8356E-03     31.3894E-03
             640     6.13321E-03     76.6055E-03    -17.2763E+06    -97.6003E+06    -6.75886E+06    -1.99214E+06    -27.1961E-03     54.1579E-03    -26.9619E-03     36.7884E-03    -27.1387E-03     53.7123E-03    -26.8291E-03     36.7358E-03
             641     7.00946E-03     76.6432E-03    -15.1368E+06    -92.1335E+06    -4.10898E+06    -2.42502E+06    -27.2759E-03     54.2323E-03    -26.9564E-03     42.1629E-03    -27.2234E-03     53.8108E-03    -26.8214E-03     42.0969E-03
             642     7.88568E-03     76.6854E-03    -13.4189E+06    -86.6570E+06    -3.11568E+06    -2.55213E+06    -27.3707E-03     54.3128E-03    -26.9420E-03     47.5069E-03    -27.3245E-03     53.9203E-03    -26.8125E-03     47.4294E-03
             643     8.76203E-03     76.7335E-03    -11.7061E+06    -81.5551E+06    -2.00266E+06    -2.46415E+06    -27.4864E-03     54.4150E-03    -26.9286E-03     52.7640E-03    -27.4487E-03     54.0521E-03    -26.8034E-03     52.6753E-03
             644     9.63829E-03     76.7854E-03    -10.4892E+06    -78.0126E+06    -3.02668E+06    -2.43714E+06    -27.6416E-03     54.5504E-03    -26.9088E-03     58.1211E-03    -27.6132E-03     54.2166E-03    -26.7956E-03     58.0171E-03
             645     10.5142E-03     76.8441E-03    -9.49120E+06    -71.8952E+06    -6.22828E+06    -2.15777E+06    -27.7465E-03     54.6210E-03    -26.8745E-03     63.3864E-03    -27.7344E-03     54.3380E-03    -26.7876E-03     63.2670E-03
             646     11.3913E-03     76.9054E-03    -8.93726E+06    -57.7635E+06    -5.27810E+06    -1.70137E+06    -27.9326E-03     54.7818E-03    -26.8491E-03     70.1005E-03    -27.9679E-03     54.5955E-03    -26.7788E-03     69.9621E-03
             647     12.2670E-03     76.9773E-03    -8.40100E+06    -42.5318E+06    -5.53402E+06    -1.44092E+06    -28.2476E-03     55.0673E-03    -26.8197E-03     77.9622E-03    -28.3459E-03     55.0009E-03    -26.7735E-03     77.7971E-03
             648     13.1437E-03     77.0533E-03    -7.79679E+06    -30.0605E+06    -12.3261E+06    -797.375E+03    -28.1945E-03     54.9573E-03    -26.7628E-03     79.7893E-03    -28.3551E-03     55.0192E-03    -26.7695E-03     79.6016E-03
             649     14.0188E-03     77.1288E-03    -7.99556E+06    -710.042E+03    -20.5334E+06    -98.1871E+03    -28.4847E-03     55.1529E-03    -26.6682E-03     93.1559E-03    -28.8364E-03     55.5332E-03    -26.7582E-03     92.9408E-03
             650     14.8969E-03     77.2290E-03    -8.28302E+06     61.4687E+06    -24.6080E+06     115.948E+03    -31.7015E-03     58.2350E-03    -26.5336E-03     153.972E-03    -33.0104E-03     59.8042E-03    -26.7337E-03     153.769E-03
             651     15.7734E-03     77.4228E-03    -7.88872E+06     138.768E+06     17.4138E+06     39.7613E+03    -38.0192E-03     64.6162E-03    -26.5970E-03     252.739E-03    -44.0805E-03     71.0916E-03    -26.6997E-03     253.773E-03
             652     16.6511E-03     77.7200E-03    -5.25341E+06     183.172E+06     87.5649E+06     412.113E+03    -36.8386E-03     63.6961E-03    -26.8575E-03     255.878E-03    -45.3025E-03     72.5377E-03    -26.6777E-03     260.546E-03
             653     876.159E-06     77.4866E-03    -24.7941E+06    -115.232E+06    -24.5107E+06    -208.119E+03    -26.9454E-03     53.8837E-03    -26.9382E-03     5.70326E-03    -26.8669E-03     53.3792E-03    -26.8577E-03     5.69781E-03
             654     1.75230E-03     77.4941E-03    -24.1516E+06    -114.007E+06    -22.7890E+06    -469.173E+03    -26.9587E-03     53.9011E-03    -26.9424E-03     10.5334E-03    -26.8816E-03     53.3996E-03    -26.8560E-03     10.5221E-03
             655     2.62846E-03     77.5066E-03    -23.1145E+06    -112.734E+06    -20.3120E+06    -1.01039E+06    -26.9861E-03     53.9346E-03    -26.9485E-03     15.6504E-03    -26.9097E-03     53.4349E-03    -26.8531E-03     15.6292E-03
             656     3.50463E-03     77.5239E-03    -21.4889E+06    -107.771E+06    -17.2569E+06    -1.67430E+06    -27.0166E-03     53.9667E-03    -26.9500E-03     20.8614E-03    -26.9446E-03     53.4858E-03    -26.8489E-03     20.8282E-03
             657     4.38081E-03     77.5462E-03    -19.8834E+06    -103.636E+06    -13.3728E+06    -1.94313E+06    -27.0629E-03     54.0185E-03    -26.9556E-03     26.1194E-03    -26.9956E-03     53.5516E-03    -26.8434E-03     26.0787E-03
             658     5.25702E-03     77.5734E-03    -18.3374E+06    -101.296E+06    -9.58239E+06    -2.08310E+06    -27.1247E-03     54.0875E-03    -26.9628E-03     31.4276E-03    -27.0604E-03     53.6264E-03    -26.8373E-03     31.3801E-03
             659     6.13319E-03     77.6059E-03    -16.7234E+06    -96.6138E+06    -6.82212E+06    -2.65895E+06    -27.1890E-03     54.1491E-03    -26.9602E-03     36.7738E-03    -27.1301E-03     53.7077E-03    -26.8300E-03     36.7126E-03
             660     7.00948E-03     77.6432E-03    -14.9933E+06    -91.5426E+06    -4.49550E+06    -2.92987E+06    -27.2663E-03     54.2193E-03    -26.9531E-03     42.1337E-03    -27.2133E-03     53.8012E-03    -26.8211E-03     42.0612E-03
             661     7.88571E-03     77.6860E-03    -13.3472E+06    -86.1686E+06    -3.34608E+06    -3.11176E+06    -27.3619E-03     54.3007E-03    -26.9388E-03     47.4592E-03    -27.3157E-03     53.9110E-03    -26.8113E-03     47.3746E-03
             662     8.76202E-03     77.7332E-03    -11.8204E+06    -81.4783E+06    -2.61309E+06    -3.18914E+06    -27.4999E-03     54.4246E-03    -26.9247E-03     52.7709E-03    -27.4620E-03     54.0631E-03    -26.8025E-03     52.6727E-03
             663     9.63810E-03     77.7863E-03    -10.4331E+06    -77.6951E+06    -3.42060E+06    -3.02386E+06    -27.6338E-03     54.5397E-03    -26.9058E-03     58.1017E-03    -27.6051E-03     54.2080E-03    -26.7951E-03     57.9900E-03
             664     10.5149E-03     77.8432E-03    -9.54774E+06     -71.742E+06    -6.51893E+06    -2.76086E+06    -27.7682E-03     54.6414E-03    -26.8732E-03     63.2568E-03    -27.7562E-03     54.3598E-03    -26.7879E-03     63.1294E-03
             665     11.3905E-03     77.9066E-03    -8.62106E+06    -58.2783E+06    -5.55436E+06    -2.27897E+06    -27.9673E-03     54.8179E-03    -26.8506E-03     70.0467E-03    -28.0000E-03     54.6293E-03    -26.7814E-03     69.9004E-03
             666     12.2673E-03     77.9764E-03    -7.96786E+06    -43.2485E+06    -5.97394E+06    -1.68731E+06    -28.2371E-03     55.0582E-03    -26.8212E-03     77.9466E-03    -28.3312E-03     54.9879E-03    -26.7768E-03     77.7785E-03
             667     13.1430E-03     78.0549E-03    -8.16768E+06    -30.8873E+06    -13.4141E+06    -1.28414E+06    -28.0501E-03     54.8077E-03    -26.7575E-03     79.2887E-03    -28.2085E-03     54.8662E-03    -26.7680E-03     79.0961E-03
             668     14.0213E-03     78.1270E-03    -7.87364E+06    -1.53236E+06    -21.1280E+06    -854.174E+03    -28.5571E-03     55.2201E-03    -26.6630E-03     92.8877E-03    -28.9046E-03     55.5955E-03    -26.7550E-03     92.6617E-03
             669     14.8957E-03     78.2317E-03    -8.44962E+06      61.979E+06    -24.2318E+06     183.322E+03    -32.2040E-03     58.7542E-03    -26.5503E-03     153.460E-03    -33.5111E-03     60.3217E-03    -26.7490E-03     153.247E-03
             670     15.7720E-03     78.4202E-03    -9.37089E+06     138.648E+06     16.1349E+06     423.064E+03    -39.2249E-03     65.8757E-03    -26.6508E-03     253.973E-03    -45.3694E-03     72.4323E-03    -26.7576E-03     254.933E-03
             671     16.6452E-03     78.7237E-03    -6.05818E+06     182.576E+06     85.9635E+06     87.9111E+03    -36.5634E-03     63.4849E-03    -26.9215E-03     257.220E-03    -45.0911E-03     72.3900E-03    -26.7476E-03     261.927E-03
             672     876.134E-06     78.4868E-03    -24.6040E+06    -114.532E+06    -24.4282E+06    -498.909E+03    -26.9463E-03     53.8875E-03    -26.9412E-03     5.70442E-03    -26.8679E-03     53.3861E-03    -26.8616E-03     5.69520E-03
             673     1.75231E-03     78.4945E-03    -23.8809E+06    -113.303E+06    -22.7492E+06    -733.105E+03    -26.9625E-03     53.9064E-03    -26.9438E-03     10.5350E-03    -26.8851E-03     53.4079E-03    -26.8587E-03     10.5203E-03
             674     2.62845E-03     78.5068E-03    -22.6952E+06    -111.275E+06    -19.6877E+06    -1.45790E+06    -26.9874E-03     53.9391E-03    -26.9517E-03     15.6509E-03    -26.9119E-03     53.4451E-03    -26.8559E-03     15.6239E-03
             675     3.50462E-03     78.5242E-03    -21.5205E+06    -106.742E+06    -16.7673E+06    -2.06778E+06    -27.0163E-03     53.9700E-03    -26.9537E-03     20.8581E-03    -26.9466E-03     53.4936E-03    -26.8515E-03     20.8199E-03
             676     4.38081E-03     78.5464E-03    -20.2142E+06    -103.212E+06    -13.3782E+06    -2.12328E+06    -27.0621E-03     54.0201E-03    -26.9580E-03     26.1195E-03    -26.9972E-03     53.5558E-03    -26.8459E-03     26.0765E-03
             677     5.25695E-03     78.5738E-03    -18.5392E+06    -100.331E+06    -9.91333E+06    -2.43629E+06    -27.1202E-03     54.0823E-03    -26.9621E-03     31.4200E-03    -27.0579E-03     53.6268E-03    -26.8393E-03     31.3679E-03
             678     6.13325E-03     78.6060E-03    -16.7257E+06    -95.3839E+06    -7.06052E+06    -2.98457E+06    -27.1889E-03     54.1478E-03    -26.9589E-03     36.7634E-03    -27.1315E-03     53.7129E-03    -26.8316E-03     36.6980E-03
             679     7.00938E-03     78.6436E-03    -15.0233E+06    -90.9256E+06    -4.94596E+06     -3.4922E+06    -27.2716E-03     54.2235E-03    -26.9519E-03     42.1015E-03    -27.2191E-03     53.8092E-03    -26.8230E-03     42.0217E-03
             680     7.88576E-03     78.6859E-03    -13.2893E+06    -85.4919E+06    -3.77664E+06    -3.68396E+06    -27.3624E-03     54.3002E-03    -26.9378E-03     47.4304E-03    -27.3163E-03     53.9144E-03    -26.8135E-03     47.3383E-03
             681     8.76189E-03     78.7338E-03    -11.8376E+06    -81.2375E+06    -2.97686E+06    -3.76560E+06    -27.4905E-03     54.4147E-03    -26.9242E-03     52.7839E-03    -27.4525E-03     54.0549E-03    -26.8041E-03     52.6783E-03
             682     9.63847E-03     78.7860E-03    -10.5009E+06    -77.4873E+06    -3.90938E+06    -3.73357E+06    -27.7077E-03     54.6152E-03    -26.9075E-03     58.0450E-03    -27.6790E-03     54.2855E-03    -26.7994E-03     57.9239E-03
             683     10.5141E-03     78.8441E-03    -9.35365E+06    -71.6850E+06    -6.70862E+06    -3.43051E+06    -27.7971E-03     54.6776E-03    -26.8805E-03     63.0626E-03    -27.7840E-03     54.3963E-03    -26.7966E-03     62.9263E-03
             684     11.3911E-03     78.9061E-03    -8.83912E+06    -59.1422E+06    -6.40115E+06    -2.99836E+06    -27.9758E-03     54.8333E-03    -26.8574E-03     70.1540E-03    -28.0074E-03     54.6421E-03    -26.7909E-03     69.9982E-03
             685     12.2668E-03     78.9774E-03    -8.00239E+06    -43.7383E+06    -6.60854E+06    -2.33291E+06    -28.2298E-03     55.0573E-03    -26.8274E-03     77.8835E-03    -28.3218E-03     54.9848E-03    -26.7855E-03     77.7076E-03
             686     13.1437E-03     79.0544E-03    -7.12784E+06    -31.4723E+06    -13.1203E+06    -1.49211E+06    -28.1651E-03     54.9354E-03    -26.7703E-03     78.9016E-03    -28.3180E-03     54.9893E-03    -26.7799E-03     78.7049E-03
             687     14.0185E-03     79.1273E-03    -8.35030E+06    -2.42630E+06    -21.9007E+06    -841.172E+03    -28.5865E-03     55.2637E-03    -26.6772E-03     92.9321E-03    -28.9329E-03     55.6354E-03    -26.7710E-03     92.7059E-03
             688     14.8963E-03     79.2321E-03    -9.43664E+06     60.6979E+06    -26.9766E+06    -32.1085E+03    -32.1955E-03     58.7494E-03    -26.5539E-03     154.060E-03    -33.5088E-03     60.3230E-03    -26.7632E-03     153.841E-03
             689     15.7723E-03     79.4213E-03    -8.06955E+06     138.853E+06     14.6067E+06     989.532E+03    -38.6148E-03     65.2452E-03    -26.6304E-03     255.685E-03    -44.7918E-03     71.8441E-03    -26.7470E-03     256.711E-03
             690     16.6508E-03     79.7273E-03    -4.84071E+06     183.569E+06     86.2329E+06     502.263E+03    -36.5340E-03     63.4172E-03    -26.8832E-03     257.912E-03    -45.0609E-03     72.3286E-03    -26.7112E-03     262.621E-03
             691     876.166E-06     79.4872E-03    -25.7071E+06    -113.380E+06    -25.1747E+06    -678.821E+03    -26.9487E-03     53.8874E-03    -26.9387E-03     5.71046E-03    -26.8765E-03     53.3944E-03    -26.8629E-03     5.69892E-03
             692     1.75227E-03     79.4947E-03    -24.8805E+06    -112.264E+06    -23.5003E+06    -1.17947E+06    -26.9619E-03     53.9068E-03    -26.9449E-03     10.5336E-03    -26.8899E-03     53.4161E-03    -26.8636E-03     10.5131E-03
             693     2.62845E-03     79.5072E-03    -23.8810E+06    -109.711E+06    -21.2363E+06    -1.76436E+06    -26.9817E-03     53.9293E-03    -26.9476E-03     15.6520E-03    -26.9122E-03     53.4471E-03    -26.8601E-03     15.6210E-03
             694     3.50460E-03     79.5244E-03    -22.7001E+06    -105.881E+06    -18.1141E+06    -2.13930E+06    -27.0126E-03     53.9633E-03    -26.9507E-03     20.8575E-03    -26.9481E-03     53.4949E-03    -26.8549E-03     20.8183E-03
             695     4.38078E-03     79.5467E-03    -21.2155E+06    -102.482E+06    -14.5553E+06    -2.44437E+06    -27.0565E-03     54.0117E-03    -26.9552E-03     26.1170E-03    -26.9959E-03     53.5542E-03    -26.8486E-03     26.0698E-03
             696     5.25703E-03     79.5740E-03    -19.3964E+06    -99.0540E+06    -10.7656E+06    -2.98914E+06    -27.1183E-03     54.0779E-03    -26.9596E-03     31.4129E-03    -27.0609E-03     53.6313E-03    -26.8417E-03     31.3536E-03
             697     6.13314E-03     79.6064E-03    -17.3724E+06    -94.2525E+06    -7.57658E+06    -3.65222E+06    -27.1870E-03     54.1450E-03    -26.9581E-03     36.7512E-03    -27.1337E-03     53.7175E-03    -26.8341E-03     36.6772E-03
             698     7.00950E-03     79.6437E-03    -15.3131E+06    -89.8301E+06    -5.40581E+06    -4.14824E+06    -27.2769E-03     54.2281E-03    -26.9512E-03     42.1023E-03    -27.2267E-03     53.8204E-03    -26.8258E-03     42.0141E-03
             699     7.88556E-03     79.6863E-03    -13.6079E+06    -84.9355E+06    -4.52453E+06    -4.43368E+06    -27.3848E-03     54.3227E-03    -26.9380E-03     47.4071E-03    -27.3400E-03     53.9413E-03    -26.8177E-03     47.3052E-03
             700     8.76208E-03     79.7337E-03    -11.8729E+06    -80.5360E+06    -3.42590E+06    -4.51740E+06    -27.5300E-03     54.4581E-03    -26.9281E-03     52.7392E-03    -27.4926E-03     54.1026E-03    -26.8112E-03     52.6238E-03
             701     9.63792E-03     79.7867E-03    -10.5549E+06    -77.4344E+06    -4.49997E+06    -4.43382E+06    -27.6810E-03     54.5926E-03    -26.9116E-03     58.1534E-03    -27.6516E-03     54.2639E-03    -26.8065E-03     58.0236E-03
             702     10.5145E-03     79.8443E-03    -9.53848E+06    -72.1772E+06    -7.70657E+06    -4.23750E+06    -27.8436E-03     54.7270E-03    -26.8835E-03     63.1235E-03    -27.8294E-03     54.4451E-03    -26.8035E-03     62.9765E-03
             703     11.3904E-03     79.9060E-03    -8.34739E+06    -58.7331E+06    -6.52337E+06    -3.72445E+06    -28.0063E-03     54.8709E-03    -26.8646E-03     70.2373E-03    -28.0359E-03     54.6813E-03    -26.8000E-03     70.0721E-03
             704     12.2669E-03     79.9783E-03    -7.82144E+06    -44.3897E+06    -7.27637E+06    -3.01782E+06    -28.1597E-03     54.9912E-03    -26.8316E-03     77.9423E-03    -28.2482E-03     54.9155E-03    -26.7923E-03     77.7583E-03
             705     13.1428E-03     80.0538E-03    -7.72457E+06    -33.2421E+06    -14.5869E+06    -2.10272E+06    -28.1716E-03     54.9413E-03    -26.7697E-03     79.3833E-03    -28.3235E-03     54.9900E-03    -26.7832E-03     79.1788E-03
             706     14.0201E-03     80.1290E-03    -7.67117E+06    -3.80276E+06    -22.6721E+06    -339.752E+03    -28.5560E-03     55.2315E-03    -26.6755E-03     93.3203E-03    -28.8959E-03     55.5964E-03    -26.7722E-03     93.1015E-03
             707     14.8959E-03     80.2299E-03    -8.77763E+06     59.9802E+06    -28.5681E+06    -110.218E+03    -32.2120E-03     58.7554E-03    -26.5435E-03     154.912E-03    -33.5325E-03     60.3406E-03    -26.7606E-03     154.691E-03
             708     15.7721E-03     80.4247E-03    -8.67752E+06     138.486E+06     12.9350E+06    -454.354E+03    -38.4399E-03     65.0633E-03    -26.6234E-03     253.377E-03    -44.5093E-03     71.5561E-03    -26.7470E-03     254.405E-03
             709     16.6509E-03     80.7201E-03    -4.77001E+06     183.874E+06     86.3726E+06     464.656E+03    -36.1151E-03     63.0024E-03    -26.8873E-03     255.090E-03    -44.5367E-03     71.8095E-03    -26.7152E-03     259.814E-03
             710     876.109E-06     80.4873E-03    -26.7085E+06    -111.968E+06    -26.1366E+06    -653.223E+03    -26.9464E-03     53.8890E-03    -26.9427E-03     5.70531E-03    -26.8798E-03     53.4060E-03    -26.8723E-03     5.69410E-03
             711     1.75230E-03     80.4950E-03     -26.063E+06    -110.690E+06    -24.7960E+06    -1.43173E+06    -26.9577E-03     53.9011E-03    -26.9434E-03     10.5358E-03    -26.8920E-03     53.4218E-03    -26.8691E-03     10.5120E-03
             712     2.62842E-03     80.5074E-03    -25.0333E+06    -108.260E+06    -22.6141E+06    -2.14645E+06    -26.9779E-03     53.9225E-03    -26.9446E-03     15.6522E-03    -26.9143E-03     53.4513E-03    -26.8644E-03     15.6163E-03
             713     3.50461E-03     80.5247E-03    -23.5187E+06    -104.884E+06    -19.1219E+06    -2.61612E+06    -27.0109E-03     53.9601E-03    -26.9492E-03     20.8588E-03    -26.9505E-03     53.4993E-03    -26.8586E-03     20.8134E-03
             714     4.38078E-03     80.5470E-03    -21.5824E+06    -101.270E+06    -14.8167E+06    -3.08546E+06    -27.0588E-03     54.0153E-03    -26.9565E-03     26.1084E-03    -27.0014E-03     53.5647E-03    -26.8524E-03     26.0529E-03
             715     5.25692E-03     80.5743E-03    -19.4386E+06    -97.6354E+06    -11.0843E+06    -3.75624E+06    -27.1137E-03     54.0733E-03    -26.9595E-03     31.4090E-03    -27.0581E-03     53.6342E-03    -26.8452E-03     31.3399E-03
             716     6.13322E-03     80.6066E-03    -17.4224E+06    -92.9486E+06    -7.96765E+06    -4.33780E+06    -27.1874E-03     54.1446E-03    -26.9572E-03     36.7533E-03    -27.1357E-03     53.7242E-03    -26.8370E-03     36.6704E-03
             717     7.00932E-03     80.6440E-03    -15.6583E+06    -88.6881E+06    -5.90625E+06    -4.90397E+06    -27.2792E-03     54.2298E-03    -26.9506E-03     42.0969E-03    -27.2317E-03     53.8290E-03    -26.8288E-03     41.9989E-03
             718     7.88577E-03     80.6865E-03    -13.7494E+06    -84.0769E+06    -5.07913E+06    -5.27472E+06    -27.4110E-03     54.3496E-03    -26.9386E-03     47.4493E-03    -27.3675E-03     53.9735E-03    -26.8221E-03     47.3365E-03
             719     8.76161E-03     80.7341E-03    -12.1789E+06    -80.1092E+06    -4.30453E+06    -5.36881E+06    -27.5299E-03     54.4587E-03    -26.9288E-03     52.8626E-03    -27.4934E-03     54.1070E-03    -26.8165E-03     52.7362E-03
             720     9.63822E-03     80.7868E-03    -10.6654E+06    -77.2389E+06    -5.17582E+06    -5.27797E+06    -27.6005E-03     54.5097E-03    -26.9093E-03     58.1843E-03    -27.5708E-03     54.1830E-03    -26.8077E-03     58.0440E-03
             721     10.5145E-03     80.8443E-03    -9.48195E+06    -72.1275E+06    -8.21386E+06    -5.05206E+06    -27.8183E-03     54.6951E-03    -26.8768E-03     63.4160E-03    -27.8031E-03     54.4141E-03    -26.7995E-03     63.2588E-03
             722     11.3904E-03     80.9073E-03    -8.63880E+06    -58.6716E+06    -7.22335E+06    -4.57332E+06    -28.0466E-03     54.9043E-03    -26.8577E-03     70.4094E-03    -28.0768E-03     54.7165E-03    -26.7962E-03     70.2332E-03
             723     12.2670E-03     80.9770E-03    -7.75030E+06    -45.1059E+06    -7.74510E+06    -3.74403E+06    -28.1359E-03     54.9629E-03    -26.8270E-03     78.0337E-03    -28.2226E-03     54.8844E-03    -26.7891E-03     77.8405E-03
             724     13.1436E-03     81.0556E-03    -7.38108E+06    -34.8179E+06    -15.5727E+06    -2.60766E+06    -28.0662E-03     54.8253E-03    -26.7591E-03     79.3150E-03    -28.2120E-03     54.8664E-03    -26.7757E-03     79.1050E-03
             725     14.0195E-03     81.1271E-03    -7.47902E+06    -5.90170E+06    -23.2807E+06    -1.41092E+06    -28.5316E-03     55.1958E-03    -26.6641E-03     93.0073E-03    -28.8658E-03     55.5500E-03    -26.7611E-03     92.7749E-03
             726     14.8962E-03     81.2325E-03    -7.74517E+06     60.0522E+06    -27.6225E+06     196.839E+03    -32.2413E-03     58.7762E-03    -26.5349E-03     155.441E-03    -33.5602E-03     60.3608E-03    -26.7488E-03     155.227E-03
             727     15.7727E-03     81.4232E-03    -8.71447E+06     138.993E+06     12.5718E+06     489.823E+03    -39.2234E-03     65.8489E-03    -26.6255E-03     254.768E-03    -45.3362E-03     72.3877E-03    -26.7516E-03     255.745E-03
             728     16.6441E-03     81.7237E-03    -5.95466E+06     183.096E+06     84.9915E+06    -308.135E+03    -36.2372E-03     63.1420E-03    -26.9047E-03     255.903E-03    -44.7035E-03     71.9906E-03    -26.7366E-03     260.626E-03
             729     876.163E-06     81.4877E-03    -26.4787E+06    -110.397E+06    -26.4137E+06    -714.340E+03    -26.9476E-03     53.8936E-03    -26.9460E-03     5.70150E-03    -26.8817E-03     53.4185E-03    -26.8796E-03     5.68949E-03
             730     1.75225E-03     81.4952E-03    -25.8988E+06    -108.678E+06    -24.8437E+06    -1.71019E+06    -26.9578E-03     53.9019E-03    -26.9441E-03     10.5372E-03    -26.8941E-03     53.4325E-03    -26.8732E-03     10.5098E-03
             731     2.62844E-03     81.5077E-03    -24.8683E+06    -106.654E+06    -21.9350E+06    -2.51330E+06    -26.9826E-03     53.9322E-03    -26.9496E-03     15.6522E-03    -26.9215E-03     53.4678E-03    -26.8685E-03     15.6116E-03
             732     3.50456E-03     81.5249E-03    -23.5773E+06    -103.472E+06    -19.0020E+06    -3.15325E+06    -27.0140E-03     53.9666E-03    -26.9526E-03     20.8584E-03    -26.9561E-03     53.5128E-03    -26.8634E-03     20.8061E-03
             733     4.38075E-03     81.5473E-03    -21.8153E+06    -99.5524E+06    -15.6975E+06    -4.00208E+06    -27.0540E-03     54.0081E-03    -26.9541E-03     26.1224E-03    -26.9990E-03     53.5678E-03    -26.8566E-03     26.0551E-03
             734     5.25697E-03     81.5745E-03    -19.7493E+06    -96.1974E+06    -11.7278E+06    -4.66306E+06    -27.1120E-03     54.0700E-03    -26.9580E-03     31.4128E-03    -27.0591E-03     53.6396E-03    -26.8486E-03     31.3319E-03
             735     6.13312E-03     81.6068E-03    -17.7064E+06    -91.7355E+06    -8.46298E+06    -5.03271E+06    -27.1789E-03     54.1349E-03    -26.9560E-03     36.7606E-03    -27.1297E-03     53.7217E-03    -26.8396E-03     36.6687E-03
             736     7.00945E-03     81.6443E-03    -15.7100E+06    -87.1008E+06    -6.14269E+06    -5.61628E+06    -27.2812E-03     54.2305E-03    -26.9492E-03     42.1330E-03    -27.2360E-03     53.8380E-03    -26.8309E-03     42.0258E-03
             737     7.88547E-03     81.6867E-03    -14.0441E+06    -83.2285E+06    -5.56748E+06    -6.19428E+06    -27.3766E-03     54.3122E-03    -26.9356E-03     47.5167E-03    -27.3350E-03     53.9414E-03    -26.8224E-03     47.3922E-03
             738     8.76207E-03     81.7345E-03    -12.3493E+06    -79.4556E+06    -4.81941E+06    -6.27723E+06    -27.4697E-03     54.3908E-03    -26.9211E-03     52.9036E-03    -27.4341E-03     54.0433E-03    -26.8121E-03     52.7658E-03
             739     9.63811E-03     81.7868E-03    -10.9134E+06    -76.7486E+06    -5.55620E+06    -6.22470E+06    -27.6264E-03     54.5277E-03    -26.9013E-03     58.2149E-03    -27.5981E-03     54.2043E-03    -26.8020E-03     58.0624E-03
             740     10.5144E-03     81.8447E-03    -9.83931E+06     -72.102E+06    -8.80685E+06    -6.04081E+06    -27.7582E-03     54.6261E-03    -26.8679E-03     63.4499E-03    -27.7439E-03     54.3464E-03    -26.7931E-03     63.2804E-03
             741     11.3912E-03     81.9070E-03    -9.07154E+06    -59.5405E+06    -8.14596E+06    -5.48973E+06    -27.9835E-03     54.8278E-03    -26.8443E-03     70.3512E-03    -28.0130E-03     54.6374E-03    -26.7856E-03     70.1635E-03
             742     12.2667E-03     81.9783E-03    -8.14095E+06    -45.4690E+06    -8.22581E+06    -4.70620E+06    -28.1661E-03     54.9809E-03    -26.8148E-03     77.8949E-03    -28.2535E-03     54.9019E-03    -26.7782E-03     77.6891E-03
             743     13.1433E-03     82.0541E-03    -7.07604E+06    -35.3740E+06    -15.3224E+06    -3.58920E+06    -28.0985E-03     54.8511E-03    -26.7526E-03     79.4880E-03    -28.2427E-03     54.8891E-03    -26.7677E-03     79.2650E-03
             744     14.0198E-03     82.1291E-03    -7.35518E+06    -7.62293E+06    -23.9478E+06    -1.97805E+06    -28.5272E-03     55.1834E-03    -26.6562E-03     93.0373E-03    -28.8574E-03     55.5298E-03    -26.7542E-03     92.7973E-03
             745     14.8965E-03     82.2302E-03    -8.71386E+06     57.6242E+06    -30.8736E+06    -515.729E+03    -32.2109E-03     58.7258E-03    -26.5149E-03     155.702E-03    -33.5301E-03     60.3082E-03    -26.7402E-03     155.477E-03
             746     15.7727E-03     82.4264E-03    -7.16316E+06     139.036E+06     11.4095E+06     808.360E+03    -38.0680E-03     64.6416E-03    -26.5736E-03     255.594E-03    -44.1764E-03     71.1851E-03    -26.7078E-03     256.675E-03
             747     16.6538E-03     82.7255E-03    -4.45799E+06     184.648E+06     85.9845E+06     738.839E+03    -36.5138E-03     63.3497E-03    -26.8359E-03     256.239E-03    -44.9733E-03     72.1995E-03    -26.6672E-03     260.950E-03
             748     876.088E-06     82.4879E-03    -26.3138E+06    -108.412E+06    -26.0698E+06    -1.11777E+06    -26.9456E-03     53.8942E-03    -26.9486E-03     5.69699E-03    -26.8823E-03     53.4282E-03    -26.8836E-03     5.67977E-03
             749     1.75230E-03     82.4956E-03    -25.6107E+06    -106.492E+06    -24.3341E+06    -1.95956E+06    -26.9622E-03     53.9084E-03    -26.9463E-03     10.5391E-03    -26.9009E-03     53.4488E-03    -26.8764E-03     10.5085E-03
             750     2.62838E-03     82.5079E-03    -24.6846E+06    -104.913E+06    -21.7141E+06    -2.72159E+06    -26.9857E-03     53.9378E-03    -26.9521E-03     15.6544E-03    -26.9265E-03     53.4815E-03    -26.8728E-03     15.6111E-03
             751     3.50458E-03     82.5253E-03    -23.2433E+06    -101.405E+06    -18.9872E+06    -3.65917E+06    -27.0117E-03     53.9647E-03    -26.9530E-03     20.8610E-03    -26.9551E-03     53.5206E-03    -26.8672E-03     20.8022E-03
             752     4.38073E-03     82.5475E-03    -21.7151E+06    -97.5482E+06    -15.9965E+06    -4.63996E+06    -27.0484E-03     54.0006E-03    -26.9522E-03     26.1266E-03    -26.9954E-03     53.5706E-03    -26.8592E-03     26.0511E-03
             753     5.25692E-03     82.5748E-03    -20.1240E+06    -94.6530E+06    -12.2964E+06    -5.34229E+06    -27.1076E-03     54.0628E-03    -26.9552E-03     31.4268E-03    -27.0580E-03     53.6414E-03    -26.8503E-03     31.3371E-03
             754     6.13315E-03     82.6071E-03    -18.0752E+06    -90.2169E+06    -8.86197E+06    -6.04268E+06    -27.1739E-03     54.1275E-03    -26.9536E-03     36.7633E-03    -27.1281E-03     53.7230E-03    -26.8409E-03     36.6585E-03
             755     7.00935E-03     82.6445E-03    -15.8884E+06    -85.7610E+06    -6.40348E+06    -6.50446E+06    -27.2454E-03     54.1907E-03    -26.9453E-03     42.1693E-03    -27.2026E-03     53.8056E-03    -26.8299E-03     42.0508E-03
             756     7.88574E-03     82.6871E-03    -14.0101E+06    -81.7352E+06    -5.44102E+06    -6.95891E+06    -27.3490E-03     54.2788E-03    -26.9298E-03     47.5048E-03    -27.3095E-03     53.9152E-03    -26.8182E-03     47.3706E-03
             757     8.76184E-03     82.7343E-03    -12.5019E+06    -78.7896E+06    -5.13787E+06    -7.34203E+06    -27.4590E-03     54.3723E-03    -26.9133E-03     52.8360E-03    -27.4247E-03     54.0288E-03    -26.8066E-03     52.6845E-03
             758     9.63833E-03     82.7874E-03    -11.0169E+06    -76.1969E+06    -6.00632E+06    -7.19350E+06    -27.6015E-03     54.4935E-03    -26.8921E-03     58.2163E-03    -27.5738E-03     54.1737E-03    -26.7956E-03     58.0513E-03
             759     10.5146E-03     82.8446E-03    -9.95978E+06    -71.7135E+06    -9.19933E+06    -6.99723E+06    -27.8144E-03     54.6753E-03    -26.8609E-03     63.4753E-03    -27.8008E-03     54.3985E-03    -26.7885E-03     63.2930E-03
             760     11.3903E-03     82.9076E-03    -8.98996E+06    -60.0294E+06    -8.79286E+06    -6.49303E+06    -27.8840E-03     54.7201E-03    -26.8361E-03     70.2907E-03    -27.9111E-03     54.5276E-03    -26.7800E-03     70.0907E-03
             761     12.2677E-03     82.9780E-03    -8.16722E+06    -46.5269E+06    -9.22872E+06    -5.51198E+06    -28.0447E-03     54.8428E-03    -26.7982E-03     77.9346E-03    -28.1286E-03     54.7594E-03    -26.7650E-03     77.7195E-03
             762     13.1437E-03     83.0551E-03    -8.27598E+06    -36.3764E+06    -16.7481E+06    -4.56799E+06    -28.1776E-03     54.9121E-03    -26.7345E-03     79.6028E-03    -28.3247E-03     54.9492E-03    -26.7535E-03     79.3665E-03
             763     14.0201E-03     83.1282E-03    -7.92585E+06    -10.0255E+06    -25.4281E+06    -2.84541E+06    -28.7405E-03     55.3895E-03    -26.6490E-03     92.8428E-03    -29.0688E-03     55.7278E-03    -26.7501E-03     92.5890E-03
             764     14.8961E-03     83.2315E-03    -7.80574E+06     56.3545E+06    -31.6234E+06    -1.02632E+06    -32.0517E-03     58.5620E-03    -26.5103E-03     155.491E-03    -33.3637E-03     60.1381E-03    -26.7388E-03     155.266E-03
             765     15.7728E-03     83.4256E-03    -8.72868E+06     137.800E+06     9.48604E+06    -578.949E+03    -38.1028E-03     64.6747E-03    -26.5718E-03     253.251E-03    -44.1415E-03     71.1441E-03    -26.7116E-03     254.300E-03
             766     16.6504E-03     83.7198E-03    -5.90136E+06     183.802E+06     84.7115E+06     364.670E+03    -36.2576E-03     63.1050E-03    -26.8474E-03     253.719E-03    -44.6395E-03     71.8730E-03    -26.6818E-03     258.410E-03
             767     876.182E-06     83.4883E-03    -26.0201E+06    -105.945E+06    -25.6913E+06    -1.25881E+06    -26.9483E-03     53.8964E-03    -26.9482E-03     5.70144E-03    -26.8876E-03     53.4419E-03    -26.8853E-03     5.68239E-03
             768     1.75222E-03     83.4958E-03    -25.5161E+06    -104.342E+06    -24.3485E+06    -2.13759E+06    -26.9638E-03     53.9104E-03    -26.9466E-03     10.5372E-03    -26.9052E-03     53.4614E-03    -26.8801E-03     10.5043E-03
             769     2.62843E-03     83.5083E-03    -24.3807E+06    -102.729E+06    -21.8524E+06    -3.11721E+06    -26.9822E-03     53.9330E-03    -26.9508E-03     15.6569E-03    -26.9244E-03     53.4874E-03    -26.8758E-03     15.6084E-03
             770     3.50453E-03     83.5255E-03    -22.8988E+06    -98.9104E+06    -18.7621E+06    -4.30777E+06    -27.0076E-03     53.9594E-03    -26.9517E-03     20.8612E-03    -26.9533E-03     53.5270E-03    -26.8689E-03     20.7940E-03
             771     4.38075E-03     83.5478E-03    -21.2335E+06    -95.7141E+06    -15.2571E+06    -5.08735E+06    -27.0465E-03     54.0001E-03    -26.9536E-03     26.1191E-03    -26.9948E-03     53.5775E-03    -26.8603E-03     26.0377E-03
             772     5.25693E-03     83.5750E-03    -19.5273E+06    -92.6644E+06    -11.9128E+06    -5.81936E+06    -27.0978E-03     54.0514E-03    -26.9536E-03     31.4276E-03    -27.0487E-03     53.6385E-03    -26.8505E-03     31.3318E-03
             773     6.13316E-03     83.6074E-03    -17.7912E+06    -88.1396E+06    -8.87097E+06    -6.86950E+06    -27.1638E-03     54.1128E-03    -26.9490E-03     36.7755E-03    -27.1196E-03     53.7182E-03    -26.8398E-03     36.6599E-03
             774     7.00939E-03     83.6447E-03    -15.9146E+06    -84.5624E+06    -6.58391E+06    -7.48310E+06    -27.2301E-03     54.1705E-03    -26.9404E-03     42.1255E-03    -27.1888E-03     53.7916E-03    -26.8276E-03     41.9943E-03
             775     7.88570E-03     83.6871E-03    -13.9865E+06    -80.2849E+06    -5.64620E+06    -7.80773E+06    -27.3308E-03     54.2538E-03    -26.9230E-03     47.5058E-03    -27.2929E-03     53.8977E-03    -26.8146E-03     47.3606E-03
             776     8.76199E-03     83.7349E-03    -12.2680E+06    -77.6101E+06    -5.14378E+06    -8.22021E+06    -27.4626E-03     54.3699E-03    -26.9073E-03     52.8228E-03    -27.4288E-03     54.0320E-03    -26.8027E-03     52.6599E-03
             777     9.63825E-03     83.7870E-03    -10.9380E+06    -75.7860E+06    -6.52167E+06    -8.24553E+06    -27.6081E-03     54.4939E-03    -26.8858E-03     58.2182E-03    -27.5800E-03     54.1768E-03    -26.7926E-03     58.0396E-03
             778     10.5145E-03     83.8453E-03    -9.79006E+06    -71.3785E+06    -9.59013E+06    -7.90910E+06    -27.7387E-03     54.5913E-03    -26.8526E-03     63.5270E-03    -27.7240E-03     54.3162E-03    -26.7829E-03     63.3334E-03
             779     11.3912E-03     83.9075E-03    -8.97491E+06    -60.3870E+06    -9.36341E+06    -7.43083E+06    -27.8513E-03     54.6755E-03    -26.8243E-03     70.2092E-03    -27.8768E-03     54.4819E-03    -26.7705E-03     69.9974E-03
             780     12.2671E-03     83.9777E-03    -8.19596E+06    -47.7577E+06    -10.1371E+06    -6.57152E+06    -28.0250E-03     54.8098E-03    -26.7848E-03     77.9215E-03    -28.1059E-03     54.7215E-03    -26.7543E-03     77.6928E-03
             781     13.1440E-03     84.0554E-03    -7.50067E+06    -37.5196E+06    -17.2176E+06    -5.17677E+06    -28.2269E-03     54.9501E-03    -26.7232E-03     79.6844E-03    -28.3676E-03     54.9809E-03    -26.7441E-03     79.4401E-03
             782     14.0197E-03     84.1288E-03    -7.89707E+06    -11.6229E+06    -26.0042E+06    -4.08733E+06    -28.8630E-03     55.5071E-03    -26.6441E-03     93.1045E-03    -29.1902E-03     55.8405E-03    -26.7458E-03     92.8334E-03
             783     14.8958E-03     84.2319E-03    -8.76904E+06     54.5658E+06    -32.7923E+06    -1.44759E+06    -32.1077E-03     58.6190E-03    -26.5113E-03     154.820E-03    -33.4086E-03     60.1776E-03    -26.7417E-03     154.591E-03
             784     15.7740E-03     84.4236E-03    -8.95178E+06     137.323E+06     7.20894E+06     897.676E+03    -38.3235E-03     64.8880E-03    -26.5645E-03     255.482E-03    -44.4396E-03     71.4388E-03    -26.7146E-03     256.517E-03
             785     16.6443E-03     84.7270E-03    -5.99925E+06     183.754E+06     82.7980E+06    -181.933E+03    -36.5513E-03     63.3831E-03    -26.8318E-03     258.256E-03    -45.0871E-03     72.3100E-03    -26.6755E-03     262.975E-03
             786     876.065E-06     84.4886E-03    -25.7859E+06    -103.362E+06    -25.5970E+06    -1.27455E+06    -26.9552E-03     53.8977E-03    -26.9426E-03     5.70420E-03    -26.8972E-03     53.4556E-03    -26.8833E-03     5.68495E-03
             787     1.75229E-03     84.4963E-03    -25.1905E+06    -101.790E+06    -24.2223E+06    -2.42099E+06    -26.9600E-03     53.9059E-03    -26.9458E-03     10.5375E-03    -26.9037E-03     53.4690E-03    -26.8828E-03     10.5009E-03
             788     2.62836E-03     84.5086E-03    -24.1823E+06    -100.105E+06    -21.7039E+06    -3.65557E+06    -26.9772E-03     53.9258E-03    -26.9486E-03     15.6549E-03    -26.9224E-03     53.4927E-03    -26.8769E-03     15.5995E-03
             789     3.50458E-03     84.5259E-03    -22.9182E+06    -96.3315E+06    -18.7314E+06    -4.74869E+06    -27.0012E-03     53.9497E-03    -26.9485E-03     20.8611E-03    -26.9507E-03     53.5302E-03    -26.8692E-03     20.7882E-03
             790     4.38071E-03     84.5481E-03    -21.3827E+06    -93.7321E+06    -15.3358E+06    -5.71447E+06    -27.0384E-03     53.9885E-03    -26.9501E-03     26.1150E-03    -26.9902E-03     53.5761E-03    -26.8599E-03     26.0256E-03
             791     5.25694E-03     84.5754E-03    -19.4671E+06    -90.5375E+06    -11.9857E+06    -6.49113E+06    -27.0848E-03     54.0333E-03    -26.9485E-03     31.4266E-03    -27.0383E-03     53.6311E-03    -26.8489E-03     31.3222E-03
             792     6.13316E-03     84.6076E-03    -17.6194E+06    -85.7534E+06    -8.95591E+06    -7.38525E+06    -27.1449E-03     54.0866E-03    -26.9416E-03     36.7742E-03    -27.1032E-03     53.7038E-03    -26.8365E-03     36.6520E-03
             793     7.00945E-03     84.6450E-03    -15.7744E+06    -82.7784E+06    -6.73802E+06    -8.38882E+06    -27.2395E-03     54.1731E-03    -26.9336E-03     42.1222E-03    -27.1999E-03     53.8032E-03    -26.8244E-03     41.9793E-03
             794     7.88564E-03     84.6874E-03    -13.9454E+06    -79.0875E+06    -6.13000E+06    -8.82285E+06    -27.3123E-03     54.2281E-03    -26.9157E-03     47.4929E-03    -27.2753E-03     53.8786E-03    -26.8115E-03     47.3347E-03
             795     8.76208E-03     84.7349E-03    -12.3074E+06    -76.2903E+06    -5.42222E+06    -9.03086E+06    -27.4367E-03     54.3359E-03    -26.8992E-03     52.8547E-03    -27.4046E-03     54.0050E-03    -26.7979E-03     52.6815E-03
             796     9.63829E-03     84.7875E-03    -10.9427E+06    -74.8936E+06    -6.71210E+06    -9.25848E+06    -27.6160E-03     54.4943E-03    -26.8782E-03     58.2938E-03    -27.5890E-03     54.1820E-03    -26.7873E-03     58.1021E-03
             797     10.5146E-03     84.8452E-03    -9.84201E+06    -71.1329E+06    -10.1096E+06    -9.04669E+06    -27.6966E-03     54.5403E-03    -26.8437E-03     63.4370E-03    -27.6816E-03     54.2671E-03    -26.7768E-03     63.2290E-03
             798     11.3909E-03     84.9075E-03    -8.63219E+06    -60.3813E+06    -9.53838E+06    -8.58040E+06    -27.8523E-03     54.6682E-03    -26.8159E-03     70.0521E-03    -27.8758E-03     54.4744E-03    -26.7635E-03     69.8253E-03
             799     12.2676E-03     84.9782E-03    -7.63865E+06    -48.2688E+06    -10.4388E+06    -7.69716E+06    -28.1456E-03     54.9267E-03    -26.7812E-03     77.7926E-03    -28.2228E-03     54.8358E-03    -26.7523E-03     77.5484E-03
             800     13.1438E-03     85.0548E-03    -6.90633E+06    -39.1770E+06    -17.6346E+06    -6.40676E+06    -28.1007E-03     54.8213E-03    -26.7206E-03     79.8102E-03    -28.2353E-03     54.8435E-03    -26.7420E-03     79.5511E-03
             801     14.0203E-03     85.1302E-03    -7.61257E+06    -12.8522E+06    -26.6787E+06    -4.32830E+06    -28.7030E-03     55.3334E-03    -26.6304E-03     93.4090E-03    -29.0258E-03     55.6609E-03    -26.7341E-03     93.1366E-03
             802     14.8968E-03     85.2312E-03    -8.63428E+06     50.6488E+06    -33.8431E+06    -2.16849E+06    -32.4720E-03     58.9774E-03    -26.5054E-03     154.888E-03    -33.7728E-03     60.5255E-03    -26.7355E-03     154.638E-03
             803     15.7706E-03     85.4253E-03    -6.32031E+06     135.488E+06     7.92761E+06     28.9705E+03    -37.3749E-03     63.9286E-03    -26.5537E-03     253.228E-03    -43.3854E-03     70.3742E-03    -26.7014E-03     254.327E-03
             804     16.6608E-03     85.7224E-03    -3.65844E+06     185.832E+06     83.8008E+06     1.08017E+06    -36.2692E-03     63.0676E-03    -26.7984E-03     257.102E-03    -44.7415E-03     71.9437E-03    -26.6436E-03     261.846E-03
             805     876.180E-06     85.4890E-03    -25.5366E+06    -100.513E+06    -25.2844E+06    -1.47472E+06    -26.9469E-03     53.8901E-03    -26.9432E-03     5.70308E-03    -26.8923E-03     53.4614E-03    -26.8869E-03     5.68124E-03
             806     1.75221E-03     85.4965E-03    -24.9279E+06    -98.8440E+06    -23.8229E+06    -2.72342E+06    -26.9555E-03     53.8980E-03    -26.9425E-03     10.5377E-03    -26.9027E-03     53.4749E-03    -26.8821E-03     10.4973E-03
             807     2.62843E-03     85.5090E-03    -23.9498E+06    -97.1393E+06    -21.3617E+06    -4.05348E+06    -26.9722E-03     53.9171E-03    -26.9449E-03     15.6524E-03    -26.9211E-03     53.4981E-03    -26.8761E-03     15.5918E-03
             808     3.50452E-03     85.5261E-03    -22.5495E+06    -93.7361E+06    -18.6165E+06    -5.23993E+06    -26.9924E-03     53.9356E-03    -26.9432E-03     20.8573E-03    -26.9440E-03     53.5284E-03    -26.8677E-03     20.7781E-03
             809     4.38078E-03     85.5484E-03    -20.9300E+06    -91.2530E+06    -15.0894E+06    -6.25957E+06    -27.0276E-03     53.9719E-03    -26.9443E-03     26.1099E-03    -26.9811E-03     53.5710E-03    -26.8571E-03     26.0135E-03
             810     5.25694E-03     85.5756E-03    -19.2395E+06    -88.3372E+06    -11.8627E+06    -7.24956E+06    -27.0725E-03     54.0142E-03    -26.9417E-03     31.4173E-03    -27.0283E-03     53.6225E-03    -26.8450E-03     31.3031E-03
             811     6.13323E-03     85.6079E-03    -17.2798E+06    -83.3898E+06    -9.04248E+06    -8.12875E+06    -27.1294E-03     54.0618E-03    -26.9323E-03     36.7785E-03    -27.0893E-03     53.6905E-03    -26.8315E-03     36.6468E-03
             812     7.00944E-03     85.6452E-03    -15.5330E+06    -80.4669E+06    -6.73055E+06    -9.07139E+06    -27.2152E-03     54.1386E-03    -26.9233E-03     42.1538E-03    -27.1778E-03     53.7798E-03    -26.8178E-03     42.0021E-03
             813     7.88580E-03     85.6876E-03    -14.0120E+06    -77.6456E+06    -6.31876E+06    -9.72114E+06    -27.3201E-03     54.2262E-03    -26.9061E-03     47.4886E-03    -27.2853E-03     53.8843E-03    -26.8048E-03     47.3187E-03
             814     8.76201E-03     85.7349E-03    -12.4889E+06    -74.9368E+06    -5.84546E+06    -10.0292E+06    -27.4276E-03     54.3172E-03    -26.8896E-03     52.8962E-03    -27.3977E-03     53.9939E-03    -26.7921E-03     52.7101E-03
             815     9.63846E-03     85.7878E-03    -11.0391E+06    -73.7520E+06    -6.94623E+06    -10.2765E+06    -27.5429E-03     54.4097E-03    -26.8668E-03     58.2763E-03    -27.5175E-03     54.1034E-03    -26.7786E-03     58.0718E-03
             816     10.5148E-03     85.8452E-03    -9.95200E+06    -70.7942E+06    -10.6993E+06    -10.1614E+06    -27.7342E-03     54.5649E-03    -26.8307E-03     63.5171E-03    -27.7194E-03     54.2945E-03    -26.7672E-03     63.2947E-03
             817     11.3910E-03     85.9078E-03    -8.96373E+06    -60.0573E+06    -10.3785E+06    -9.87068E+06    -27.9441E-03     54.7517E-03    -26.8076E-03     70.1712E-03    -27.9688E-03     54.5614E-03    -26.7594E-03     69.9274E-03
             818     12.2673E-03     85.9779E-03    -7.66312E+06    -48.7604E+06    -11.0485E+06    -9.19089E+06    -28.1627E-03     54.9413E-03    -26.7787E-03     77.9301E-03    -28.2387E-03     54.8491E-03    -26.7521E-03     77.6665E-03
             819     13.1434E-03     86.0558E-03    -6.97172E+06    -40.7481E+06    -18.6142E+06    -7.70900E+06    -28.1505E-03     54.8706E-03    -26.7201E-03     79.5846E-03    -28.2815E-03     54.8862E-03    -26.7440E-03     79.3084E-03
             820     14.0206E-03     86.1282E-03    -6.38374E+06    -16.1118E+06    -26.9833E+06     -5.1838E+06    -28.5930E-03     55.2248E-03    -26.6318E-03     93.2770E-03    -28.9021E-03     55.5323E-03    -26.7341E-03     92.9953E-03
             821     14.8959E-03     86.2343E-03    -6.77258E+06     48.2368E+06    -34.4399E+06    -2.98566E+06    -32.1806E-03     58.6711E-03    -26.4905E-03     155.091E-03    -33.4631E-03     60.2006E-03    -26.7228E-03     154.839E-03
             822     15.7748E-03     86.4237E-03    -8.57843E+06     133.168E+06     4.94340E+06    -1.39368E+06    -39.3821E-03     65.9668E-03    -26.5847E-03     251.520E-03    -45.3834E-03     72.3956E-03    -26.7406E-03     252.412E-03
             823     16.6393E-03     86.7173E-03    -5.81285E+06     184.789E+06     82.4874E+06     766.817E+03    -36.0873E-03     62.9829E-03    -26.8956E-03     255.299E-03    -44.5455E-03     71.8374E-03    -26.7427E-03     260.017E-03
             824     876.069E-06     86.4893E-03    -24.9441E+06    -97.2642E+06    -24.6967E+06    -1.66309E+06    -26.9398E-03     53.8777E-03    -26.9380E-03     5.70706E-03    -26.8878E-03     53.4636E-03    -26.8842E-03     5.68279E-03
             825     1.75230E-03     86.4969E-03    -24.3467E+06    -95.6885E+06    -23.2454E+06    -2.97046E+06    -26.9495E-03     53.8859E-03    -26.9364E-03     10.5346E-03    -26.8992E-03     53.4769E-03    -26.8786E-03     10.4910E-03
             826     2.62837E-03     86.5092E-03    -23.4225E+06    -93.9170E+06    -20.9119E+06    -4.35957E+06    -26.9633E-03     53.9010E-03    -26.9378E-03     15.6497E-03    -26.9148E-03     53.4967E-03    -26.8722E-03     15.5852E-03
             827     3.50461E-03     86.5265E-03    -22.1603E+06    -90.7041E+06    -18.2273E+06    -5.82474E+06    -26.9815E-03     53.9170E-03    -26.9355E-03     20.8539E-03    -26.9361E-03     53.5238E-03    -26.8630E-03     20.7671E-03
             828     4.38073E-03     86.5486E-03    -20.4565E+06    -88.6481E+06    -14.9156E+06    -7.00444E+06    -27.0136E-03     53.9486E-03    -26.9350E-03     26.1095E-03    -26.9688E-03     53.5597E-03    -26.8514E-03     26.0034E-03
             829     5.25701E-03     86.5759E-03    -18.4485E+06    -85.7002E+06    -11.4618E+06    -8.00978E+06    -27.0591E-03     53.9910E-03    -26.9319E-03     31.4162E-03    -27.0154E-03     53.6107E-03    -26.8382E-03     31.2922E-03
             830     6.13321E-03     86.6080E-03    -16.5595E+06    -81.0551E+06    -8.67201E+06    -9.02888E+06    -27.1101E-03     54.0317E-03    -26.9216E-03     36.7845E-03    -27.0703E-03     53.6705E-03    -26.8234E-03     36.6413E-03
             831     7.00958E-03     86.6454E-03    -14.7495E+06    -78.3244E+06    -6.11915E+06    -9.63767E+06    -27.1873E-03     54.0994E-03    -26.9121E-03     42.1580E-03    -27.1499E-03     53.7493E-03    -26.8078E-03     41.9992E-03
             832     7.88583E-03     86.6877E-03    -13.2607E+06    -75.6514E+06    -5.56953E+06    -10.3342E+06    -27.3122E-03     54.2071E-03    -26.8949E-03     47.5251E-03    -27.2776E-03     53.8730E-03    -26.7938E-03     47.3474E-03
             833     8.76216E-03     86.7353E-03    -11.8640E+06    -73.2053E+06    -5.53614E+06    -11.0573E+06    -27.4324E-03     54.3100E-03    -26.8776E-03     52.9186E-03    -27.4024E-03     53.9941E-03    -26.7820E-03     52.7192E-03
             834     9.63842E-03     86.7876E-03    -10.5327E+06    -72.6395E+06    -6.82222E+06    -11.3390E+06    -27.5388E-03     54.3948E-03    -26.8560E-03     58.2417E-03    -27.5127E-03     54.0932E-03    -26.7695E-03     58.0235E-03
             835     10.5149E-03     86.8454E-03    -9.30204E+06    -70.1683E+06    -10.5499E+06    -11.3263E+06    -27.6543E-03     54.4722E-03    -26.8179E-03     63.5270E-03    -27.6372E-03     54.2035E-03    -26.7554E-03     63.2901E-03
             836     11.3912E-03     86.9080E-03    -8.50876E+06    -59.9568E+06    -10.6853E+06    -11.0570E+06    -27.9046E-03     54.6937E-03    -26.7891E-03     70.4743E-03    -27.9265E-03     54.5035E-03    -26.7432E-03     70.2157E-03
             837     12.2674E-03     86.9783E-03    -7.94093E+06    -48.9668E+06    -11.6253E+06    -10.4888E+06    -28.2270E-03     54.9883E-03    -26.7613E-03     78.2569E-03    -28.3035E-03     54.8966E-03    -26.7369E-03     77.9765E-03
             838     13.1443E-03     87.0553E-03    -7.12517E+06    -42.1621E+06    -19.3134E+06    -9.12851E+06    -28.3523E-03     55.0648E-03    -26.7125E-03     79.9808E-03    -28.4818E-03     55.0753E-03    -26.7376E-03     79.6850E-03
             839     14.0189E-03     87.1299E-03      -6.957E+06    -19.2299E+06    -28.2336E+06    -6.83526E+06    -28.6278E-03     55.2597E-03    -26.6319E-03     93.3419E-03    -28.9329E-03     55.5536E-03    -26.7351E-03     93.0395E-03
             840     14.8976E-03     87.2316E-03    -8.12004E+06     44.8795E+06    -37.7480E+06    -3.42086E+06    -32.0526E-03     58.5305E-03    -26.4780E-03     155.198E-03    -33.3232E-03     60.0412E-03    -26.7200E-03     154.940E-03
             841     15.7716E-03     87.4263E-03    -8.32727E+06     131.595E+06     836.249E+03    -146.137E+03    -39.3712E-03     65.9120E-03    -26.5408E-03     256.451E-03    -45.5155E-03     72.4914E-03    -26.7154E-03     257.392E-03
             842     16.6510E-03     87.7293E-03    -5.76607E+06     184.954E+06     80.8053E+06     583.225E+03    -36.5024E-03     63.3472E-03    -26.8449E-03     257.207E-03    -45.0151E-03     72.2621E-03    -26.7007E-03     261.911E-03
             843     876.190E-06     87.4897E-03    -23.9092E+06    -93.6575E+06    -23.6987E+06    -1.82193E+06    -26.9329E-03     53.8612E-03    -26.9283E-03     5.70871E-03    -26.8824E-03     53.4621E-03    -26.8763E-03     5.68238E-03
             844     1.75223E-03     87.4972E-03    -23.3029E+06    -92.2909E+06    -22.3704E+06    -3.26588E+06    -26.9393E-03     53.8664E-03    -26.9271E-03     10.5335E-03    -26.8900E-03     53.4716E-03    -26.8714E-03     10.4860E-03
             845     2.62846E-03     87.5096E-03    -22.2856E+06    -90.5025E+06    -19.9856E+06    -4.72624E+06    -26.9496E-03     53.8769E-03    -26.9273E-03     15.6483E-03    -26.9018E-03     53.4867E-03    -26.8637E-03     15.5791E-03
             846     3.50457E-03     87.5267E-03    -21.0264E+06    -87.2285E+06    -17.3110E+06    -6.25956E+06    -26.9659E-03     53.8894E-03    -26.9236E-03     20.8560E-03    -26.9212E-03     53.5107E-03    -26.8532E-03     20.7636E-03
             847     4.38084E-03     87.5490E-03    -19.6790E+06    -85.7526E+06    -14.2843E+06    -7.64191E+06    -26.9955E-03     53.9173E-03    -26.9218E-03     26.1154E-03    -26.9518E-03     53.5408E-03    -26.8403E-03     26.0012E-03
             848     5.25703E-03     87.5760E-03    -18.1434E+06    -82.8788E+06    -11.2255E+06    -8.78884E+06    -27.0354E-03     53.9516E-03    -26.9162E-03     31.4383E-03    -26.9945E-03     53.5846E-03    -26.8258E-03     31.3043E-03
             849     6.13336E-03     87.6083E-03    -16.2604E+06    -78.3210E+06    -8.21917E+06    -9.89525E+06    -27.0880E-03     53.9940E-03    -26.9060E-03     36.7984E-03    -27.0513E-03     53.6454E-03    -26.8099E-03     36.6440E-03
             850     7.00959E-03     87.6454E-03    -14.2180E+06    -76.5639E+06    -5.79827E+06    -10.6164E+06    -27.1647E-03     54.0607E-03    -26.8960E-03     42.1902E-03    -27.1276E-03     53.7182E-03    -26.7934E-03     42.0189E-03
             851     7.88598E-03     87.6880E-03    -12.2264E+06    -73.3493E+06    -4.86225E+06    -11.0841E+06    -27.2640E-03     54.1408E-03    -26.8768E-03     47.6105E-03    -27.2285E-03     53.8156E-03    -26.7770E-03     47.4234E-03
             852     8.76227E-03     87.7353E-03    -10.7918E+06    -71.3383E+06    -4.76093E+06    -11.7837E+06    -27.4007E-03     54.2584E-03    -26.8577E-03     53.0226E-03    -27.3691E-03     53.9490E-03    -26.7624E-03     52.8141E-03
             853     9.63868E-03     87.7879E-03    -9.57218E+06    -71.3305E+06    -6.25255E+06    -12.2324E+06    -27.5314E-03     54.3669E-03    -26.8354E-03     58.4118E-03    -27.5031E-03     54.0695E-03    -26.7494E-03     58.1824E-03
             854     10.5148E-03     87.8453E-03    -8.73576E+06    -69.4288E+06    -10.3105E+06    -12.2129E+06    -27.6158E-03     54.4121E-03    -26.7963E-03     63.6934E-03    -27.5971E-03     54.1459E-03    -26.7345E-03     63.4454E-03
             855     11.3916E-03     87.9077E-03    -8.22297E+06    -59.5514E+06    -10.7165E+06    -11.9694E+06    -27.7857E-03     54.5479E-03    -26.7622E-03     70.6435E-03    -27.8062E-03     54.3588E-03    -26.7175E-03     70.3743E-03
             856     12.2683E-03     87.9787E-03    -7.50300E+06    -48.4478E+06    -11.2080E+06    -11.5589E+06    -28.2123E-03     54.9448E-03    -26.7326E-03     78.5418E-03    -28.2881E-03     54.8545E-03    -26.7075E-03     78.2478E-03
             857     13.1435E-03     88.0558E-03    -7.52528E+06    -43.6862E+06    -19.6001E+06    -10.5591E+06    -28.4184E-03     55.1055E-03    -26.6871E-03     80.3650E-03    -28.5481E-03     55.1102E-03    -26.7108E-03     80.0501E-03
             858     14.0215E-03     88.1298E-03    -7.87159E+06    -21.9436E+06    -29.1454E+06    -8.31005E+06    -28.7254E-03     55.3379E-03    -26.6125E-03     93.1723E-03    -29.0302E-03     55.6214E-03    -26.7150E-03     92.8493E-03
             859     14.8954E-03     88.2320E-03    -7.56127E+06     40.3165E+06    -37.7311E+06    -3.90046E+06    -31.9859E-03     58.4496E-03    -26.4637E-03     155.999E-03    -33.2609E-03     59.9503E-03    -26.6998E-03     155.734E-03
             860     15.7745E-03     88.4263E-03    -7.19148E+06     128.446E+06    -305.905E+03    -112.049E+03    -37.3299E-03     63.7898E-03    -26.4600E-03     256.473E-03    -43.4024E-03     70.2937E-03    -26.6373E-03     257.610E-03
             861     16.6540E-03     88.7253E-03    -5.16894E+06     185.458E+06     79.5075E+06     595.487E+03    -36.4736E-03     63.1873E-03    -26.7137E-03     254.861E-03    -44.8595E-03     71.9827E-03    -26.5776E-03     259.542E-03
             862     876.084E-06     88.4899E-03    -22.5035E+06    -89.6910E+06    -22.3474E+06    -2.01525E+06    -26.9199E-03     53.8334E-03    -26.9135E-03     5.71141E-03    -26.8701E-03     53.4501E-03    -26.8626E-03     5.68260E-03
             863     1.75234E-03     88.4976E-03    -21.9193E+06    -88.5578E+06    -21.0380E+06    -3.61677E+06    -26.9213E-03     53.8338E-03    -26.9124E-03     10.5350E-03    -26.8724E-03     53.4537E-03    -26.8574E-03     10.4830E-03
             864     2.62842E-03     88.5098E-03    -20.9185E+06    -86.7928E+06    -18.9336E+06    -5.27033E+06    -26.9289E-03     53.8385E-03    -26.9096E-03     15.6546E-03    -26.8811E-03     53.4633E-03    -26.8481E-03     15.5784E-03
             865     3.50470E-03     88.5271E-03    -19.5558E+06    -83.6099E+06    -16.1336E+06    -6.82196E+06    -26.9419E-03     53.8466E-03    -26.9047E-03     20.8656E-03    -26.8968E-03     53.4820E-03    -26.8358E-03     20.7660E-03
             866     4.38086E-03     88.5491E-03    -17.9986E+06    -82.6742E+06    -12.4563E+06    -8.05473E+06    -26.9711E-03     53.8762E-03    -26.9051E-03     26.1209E-03    -26.9262E-03     53.5100E-03    -26.8214E-03     26.0014E-03
             867     5.25718E-03     88.5763E-03    -16.3492E+06    -79.6931E+06    -9.55233E+06    -9.32583E+06    -27.0034E-03     53.9000E-03    -26.8966E-03     31.4571E-03    -26.9606E-03     53.5439E-03    -26.8051E-03     31.3163E-03
             868     6.13342E-03     88.6084E-03    -14.7687E+06    -75.4081E+06    -7.28970E+06    -10.5826E+06    -27.0528E-03     53.9341E-03    -26.8813E-03     36.8552E-03    -27.0142E-03     53.5965E-03    -26.7870E-03     36.6921E-03
             869     7.00981E-03     88.6457E-03    -13.1343E+06    -74.2587E+06    -5.13585E+06    -11.5702E+06    -27.1196E-03     53.9886E-03    -26.8690E-03     42.2688E-03    -27.0813E-03     53.6550E-03    -26.7680E-03     42.0853E-03
             870     7.88614E-03     88.6879E-03    -11.4291E+06    -71.5124E+06    -4.53617E+06    -12.1403E+06    -27.1872E-03     54.0321E-03    -26.8450E-03     47.7345E-03    -27.1507E-03     53.7144E-03    -26.7474E-03     47.5343E-03
             871     8.76264E-03     88.7355E-03    -9.79740E+06    -69.4188E+06    -4.11101E+06    -12.4724E+06    -27.2909E-03     54.1112E-03    -26.8203E-03     53.2363E-03    -27.2578E-03     53.8088E-03    -26.7260E-03     53.0198E-03
             872     9.63895E-03     88.7879E-03    -8.67178E+06    -69.8138E+06    -5.57779E+06    -12.8407E+06    -27.4326E-03     54.2246E-03    -26.7919E-03     58.6446E-03    -27.4027E-03     53.9322E-03    -26.7060E-03     58.4081E-03
             873     10.5158E-03     88.8453E-03    -8.30288E+06    -68.3312E+06    -9.91852E+06    -12.8843E+06    -27.6821E-03     54.4361E-03    -26.7539E-03     63.9729E-03    -27.6636E-03     54.1743E-03    -26.6924E-03     63.7162E-03
             874     11.3917E-03     88.9078E-03    -7.45779E+06    -58.5414E+06    -10.0243E+06    -12.6037E+06    -27.8884E-03     54.6186E-03    -26.7302E-03     70.7287E-03    -27.9077E-03     54.4327E-03    -26.6846E-03     70.4508E-03
             875     12.2681E-03     88.9784E-03    -7.29266E+06    -48.3329E+06    -11.0206E+06    -12.2230E+06    -28.1445E-03     54.8480E-03    -26.7035E-03     78.7496E-03    -28.2198E-03     54.7578E-03    -26.6780E-03     78.4475E-03
             876     13.1455E-03     89.0565E-03    -7.75801E+06    -43.9290E+06    -19.3439E+06    -11.5631E+06    -28.0969E-03     54.7453E-03    -26.6484E-03     80.4440E-03    -28.2256E-03     54.7466E-03    -26.6701E-03     80.1197E-03
             877     14.0195E-03     89.1302E-03    -6.96225E+06    -25.5657E+06    -29.5312E+06    -9.47090E+06    -28.7302E-03     55.2945E-03    -26.5643E-03     93.9989E-03    -29.0279E-03     55.5624E-03    -26.6648E-03     93.6606E-03
             878     14.8986E-03     89.2316E-03    -7.54511E+06     34.7775E+06    -39.6229E+06    -5.06916E+06    -32.0627E-03     58.4813E-03    -26.4186E-03     155.309E-03    -33.3183E-03     59.9485E-03    -26.6562E-03     155.037E-03
             879     15.7745E-03     89.4253E-03    -8.72969E+06     125.300E+06    -4.53417E+06    -1.04733E+06    -37.9332E-03     64.3657E-03    -26.4325E-03     253.970E-03    -43.9443E-03     70.8038E-03    -26.6242E-03     255.009E-03
             880     16.6509E-03     89.7227E-03    -5.72304E+06     185.042E+06     76.7320E+06     95.3984E+03    -36.5560E-03     63.2678E-03    -26.7118E-03     256.279E-03    -44.9925E-03     72.1184E-03    -26.5882E-03     260.975E-03
             881     876.214E-06     89.4904E-03    -20.6264E+06    -85.3450E+06    -20.4562E+06    -2.25354E+06    -26.8957E-03     53.7847E-03    -26.8890E-03     5.71314E-03    -26.8455E-03     53.4177E-03    -26.8377E-03     5.68125E-03
             882     1.75229E-03     89.4978E-03    -20.0298E+06    -84.3776E+06    -19.2188E+06    -4.00412E+06    -26.8945E-03     53.7820E-03    -26.8874E-03     10.5426E-03    -26.8449E-03     53.4174E-03    -26.8322E-03     10.4857E-03
             883     2.62857E-03     89.5102E-03    -19.0331E+06    -82.6520E+06    -17.1769E+06    -5.86641E+06    -26.8987E-03     53.7818E-03    -26.8830E-03     15.6661E-03    -26.8501E-03     53.4219E-03    -26.8215E-03     15.5823E-03
             884     3.50472E-03     89.5272E-03    -17.9573E+06    -80.1670E+06    -14.6487E+06    -7.27724E+06    -26.9057E-03     53.7820E-03    -26.8764E-03     20.8831E-03    -26.8597E-03     53.4303E-03    -26.8073E-03     20.7777E-03
             885     4.38105E-03     89.5495E-03    -16.6945E+06    -79.3179E+06    -11.4273E+06    -8.55383E+06    -26.9256E-03     53.7981E-03    -26.8725E-03     26.1575E-03    -26.8805E-03     53.4453E-03    -26.7904E-03     26.0316E-03
             886     5.25728E-03     89.5764E-03    -15.0096E+06    -76.1726E+06    -8.64443E+06    -10.0540E+06    -26.9490E-03     53.8088E-03    -26.8598E-03     31.5114E-03    -26.9058E-03     53.4670E-03    -26.7708E-03     31.3614E-03
             887     6.13372E-03     89.6086E-03    -13.1131E+06    -72.4385E+06    -6.20392E+06    -11.2957E+06    -26.9808E-03     53.8221E-03    -26.8413E-03     36.9451E-03    -26.9397E-03     53.4953E-03    -26.7483E-03     36.7731E-03
             888     7.01005E-03     89.6457E-03    -11.4225E+06    -71.5601E+06    -3.98409E+06    -12.2180E+06    -27.0376E-03     53.8619E-03    -26.8243E-03     42.3799E-03    -26.9962E-03     53.5375E-03    -26.7239E-03     42.1885E-03
             889     7.88658E-03     89.6880E-03    -10.0123E+06    -69.4805E+06    -3.53947E+06    -12.9279E+06    -27.0962E-03     53.8918E-03    -26.7956E-03     47.8582E-03    -27.0569E-03     53.5805E-03    -26.6980E-03     47.6482E-03
             890     8.76305E-03     89.7352E-03    -8.75307E+06    -67.6470E+06    -3.35968E+06    -13.2836E+06    -27.1634E-03     53.9275E-03    -26.7641E-03     53.3612E-03    -27.1285E-03     53.6311E-03    -26.6701E-03     53.1349E-03
             891     9.63987E-03     89.7878E-03    -7.59048E+06    -68.0707E+06    -4.65458E+06    -13.6057E+06    -27.3965E-03     54.1300E-03    -26.7336E-03     58.7989E-03    -27.3650E-03     53.8434E-03    -26.6471E-03     58.5529E-03
             892     10.5160E-03     89.8452E-03    -6.45356E+06    -66.7616E+06    -8.53821E+06    -13.6375E+06    -27.6423E-03     54.3403E-03    -26.6980E-03     64.1795E-03    -27.6185E-03     54.0814E-03    -26.6345E-03     63.9137E-03
             893     11.3925E-03     89.9083E-03    -6.33072E+06    -58.0408E+06    -9.53285E+06    -13.2529E+06    -27.9553E-03     54.6318E-03    -26.6765E-03     71.1934E-03    -27.9708E-03     54.4465E-03    -26.6308E-03     70.9070E-03
             894     12.2688E-03     89.9780E-03    -6.03673E+06    -48.5197E+06    -10.6620E+06    -12.4896E+06    -28.1521E-03     54.8070E-03    -26.6549E-03     79.2330E-03    -28.2211E-03     54.7133E-03    -26.6291E-03     78.9282E-03
             895     13.1441E-03     90.0570E-03    -5.83065E+06    -44.0381E+06    -18.3246E+06    -11.3728E+06    -27.8544E-03     54.4509E-03    -26.5966E-03     80.4059E-03    -27.9731E-03     54.4458E-03    -26.6159E-03     80.0868E-03
             896     14.0245E-03     90.1281E-03    -8.07296E+06      -27.17E+06    -30.2504E+06    -10.2347E+06    -28.8488E-03     55.3574E-03    -26.5085E-03     94.4436E-03    -29.1507E-03     55.6218E-03    -26.6087E-03     94.0947E-03
             897     14.8967E-03     90.2356E-03    -8.73364E+06     28.6314E+06    -42.2207E+06    -7.22156E+06    -32.6379E-03     59.0242E-03    -26.3863E-03     154.217E-03    -33.8743E-03     60.4537E-03    -26.6263E-03     153.907E-03
             898     15.7739E-03     90.4208E-03    -6.72470E+06     120.491E+06    -8.50826E+06    -2.10044E+06    -38.6442E-03     65.0708E-03    -26.4265E-03     253.948E-03    -44.7186E-03     71.5738E-03    -26.6340E-03     254.914E-03
             899     16.6505E-03     90.7275E-03    -4.41965E+06     185.321E+06     74.5148E+06     660.402E+03    -36.3064E-03     63.0203E-03    -26.7140E-03     258.176E-03    -44.8297E-03     71.9698E-03    -26.6037E-03     262.886E-03
             900     876.144E-06     90.4905E-03    -18.5969E+06    -80.5114E+06    -18.4087E+06    -2.48630E+06    -26.8539E-03     53.7030E-03    -26.8491E-03     5.72240E-03    -26.8035E-03     53.3542E-03    -26.7974E-03     5.68754E-03
             901     1.75245E-03     90.4982E-03    -17.9320E+06    -79.7283E+06    -17.2122E+06    -4.46771E+06    -26.8528E-03     53.6991E-03    -26.8463E-03     10.5541E-03    -26.8023E-03     53.3518E-03    -26.7907E-03     10.4913E-03
             902     2.62860E-03     90.5103E-03    -17.0983E+06    -78.2820E+06    -15.3436E+06    -6.31820E+06    -26.8493E-03     53.6894E-03    -26.8401E-03     15.6878E-03    -26.7999E-03     53.3459E-03    -26.7785E-03     15.5982E-03
             903     3.50494E-03     90.5276E-03    -15.9009E+06    -76.7238E+06    -13.0920E+06    -7.76952E+06    -26.8485E-03     53.6787E-03    -26.8302E-03     20.9172E-03    -26.7995E-03     53.3389E-03    -26.7614E-03     20.8056E-03
             904     4.38119E-03     90.5494E-03    -14.3834E+06    -75.5752E+06    -10.0816E+06    -9.15300E+06    -26.8544E-03     53.6744E-03    -26.8200E-03     26.2148E-03    -26.8051E-03     53.3350E-03    -26.7400E-03     26.0814E-03
             905     5.25764E-03     90.5766E-03    -12.8498E+06    -72.4033E+06    -7.11037E+06    -10.7469E+06    -26.8671E-03     53.6705E-03    -26.8034E-03     31.5951E-03    -26.8208E-03     53.3421E-03    -26.7153E-03     31.4365E-03
             906     6.13399E-03     90.6084E-03    -11.4689E+06    -69.4714E+06    -4.82032E+06    -11.9849E+06    -26.8802E-03     53.6606E-03    -26.7804E-03     37.0353E-03    -26.8371E-03     53.3441E-03    -26.6872E-03     36.8549E-03
             907     7.01061E-03     90.6457E-03    -10.0876E+06    -68.8931E+06    -2.88365E+06    -12.7726E+06    -26.9251E-03     53.6818E-03    -26.7567E-03     42.5158E-03    -26.8824E-03     53.3671E-03    -26.6566E-03     42.3178E-03
             908     7.88708E-03     90.6877E-03    -8.74728E+06    -66.9818E+06    -2.34355E+06    -13.5275E+06    -26.9974E-03     53.7214E-03    -26.7240E-03     47.9767E-03    -26.9570E-03     53.4189E-03    -26.6259E-03     47.7596E-03
             909     8.76380E-03     90.7351E-03    -7.41905E+06    -65.6165E+06    -2.24985E+06    -14.1553E+06    -27.1235E-03     53.8159E-03    -26.6924E-03     53.4889E-03    -27.0863E-03     53.5260E-03    -26.5977E-03     53.2519E-03
             910     9.64022E-03     90.7874E-03    -6.24023E+06    -66.3609E+06    -3.61070E+06    -14.4562E+06    -27.3171E-03     53.9794E-03    -26.6623E-03     59.1501E-03    -27.2825E-03     53.6976E-03    -26.5751E-03     58.8940E-03
             911     10.5168E-03     90.8457E-03    -5.31763E+06    -66.0320E+06    -7.91380E+06    -14.5011E+06    -27.5033E-03     54.1256E-03    -26.6223E-03     64.4816E-03    -27.4753E-03     53.8673E-03    -26.5584E-03     64.2060E-03
             912     11.3937E-03     90.9071E-03    -4.79497E+06    -57.6462E+06    -8.83975E+06    -14.0881E+06    -27.8280E-03     54.4229E-03    -26.5950E-03     71.8222E-03    -27.8371E-03     54.2360E-03    -26.5486E-03     71.5265E-03
             913     12.2695E-03     90.9799E-03    -4.22788E+06    -48.5879E+06    -9.54978E+06    -13.1288E+06    -28.0377E-03     54.6091E-03    -26.5714E-03     79.3694E-03    -28.0977E-03     54.5093E-03    -26.5426E-03     79.0585E-03
             914     13.1478E-03     91.0544E-03    -3.81249E+06    -45.3548E+06    -17.3668E+06    -11.5314E+06    -28.3612E-03     54.8919E-03    -26.5307E-03     80.8319E-03    -28.4724E-03     54.8790E-03    -26.5463E-03     80.5065E-03
             915     14.0201E-03     91.1305E-03    -4.25130E+06    -26.5135E+06    -27.0183E+06    -10.2138E+06    -29.0442E-03     55.5177E-03    -26.4735E-03     94.9308E-03    -29.3316E-03     55.7743E-03    -26.5640E-03     94.5823E-03
             916     14.8996E-03     91.2341E-03    -6.09491E+06     23.9669E+06    -40.1809E+06    -8.14354E+06    -32.7882E-03     59.1510E-03    -26.3628E-03     155.318E-03    -34.0208E-03     60.5636E-03    -26.5896E-03     154.986E-03
             917     15.7739E-03     91.4246E-03    -7.83756E+06     113.373E+06    -12.3864E+06    -3.07418E+06    -39.3143E-03     65.7204E-03    -26.4060E-03     253.442E-03    -45.3501E-03     72.1668E-03    -26.6210E-03     254.386E-03
             918     16.6519E-03     91.7231E-03    -5.05249E+06     184.819E+06     72.0421E+06     592.362E+03    -35.6767E-03     62.3803E-03    -26.7036E-03     255.859E-03    -44.1309E-03     71.2638E-03    -26.6041E-03     260.614E-03
             919     876.302E-06     91.4909E-03    -15.9999E+06    -75.1432E+06    -15.9051E+06    -2.72126E+06    -26.7901E-03     53.5801E-03    -26.7900E-03     5.73320E-03    -26.7382E-03     53.2508E-03    -26.7373E-03     5.69534E-03
             920     1.75246E-03     91.4982E-03    -15.5807E+06    -74.6973E+06    -14.9573E+06    -4.85018E+06    -26.7845E-03     53.5672E-03    -26.7828E-03     10.5745E-03    -26.7328E-03     53.2384E-03    -26.7266E-03     10.5067E-03
             921     2.62884E-03     91.5106E-03    -14.7038E+06    -73.7198E+06    -13.3565E+06    -6.81474E+06    -26.7732E-03     53.5458E-03    -26.7726E-03     15.7219E-03    -26.7214E-03     53.2188E-03    -26.7112E-03     15.6260E-03
             922     3.50511E-03     91.5275E-03    -13.5030E+06    -72.7577E+06    -11.2045E+06    -8.56576E+06    -26.7613E-03     53.5201E-03    -26.7587E-03     20.9680E-03    -26.7088E-03     53.1938E-03    -26.6897E-03     20.8463E-03
             923     4.38159E-03     91.5496E-03    -11.9596E+06    -71.6752E+06    -8.49562E+06    -10.1074E+06    -26.7541E-03     53.4959E-03    -26.7418E-03     26.2918E-03    -26.7006E-03     53.1701E-03    -26.6631E-03     26.1464E-03
             924     5.25799E-03     91.5763E-03    -10.3249E+06    -68.7157E+06    -5.50871E+06    -11.3948E+06    -26.7486E-03     53.4677E-03    -26.7191E-03     31.6964E-03    -26.6973E-03     53.1517E-03    -26.6320E-03     31.5298E-03
             925     6.13463E-03     91.6084E-03    -8.99657E+06    -66.6554E+06    -2.72670E+06    -12.2256E+06    -26.7639E-03     53.4579E-03    -26.6940E-03     37.1462E-03    -26.7154E-03     53.1488E-03    -26.5980E-03     36.9632E-03
             926     7.01116E-03     91.6452E-03    -7.97886E+06    -66.0936E+06    -884.843E+03    -13.0198E+06    -26.7973E-03     53.4627E-03    -26.6654E-03     42.6588E-03    -26.7509E-03     53.1559E-03    -26.5624E-03     42.4583E-03
             927     7.88793E-03     91.6876E-03    -6.84948E+06    -64.1714E+06    -695.937E+03    -14.0825E+06    -26.8867E-03     53.5143E-03    -26.6276E-03     48.1947E-03    -26.8430E-03     53.2205E-03    -26.5281E-03     47.9712E-03
             928     8.76451E-03     91.7345E-03    -5.69793E+06    -63.2997E+06    -784.388E+03    -14.8817E+06    -27.0430E-03     53.6381E-03    -26.5951E-03     53.8646E-03    -27.0025E-03     53.3549E-03    -26.4989E-03     53.6190E-03
             929     9.64121E-03     91.7875E-03    -4.85347E+06    -64.8083E+06    -2.36679E+06    -15.1399E+06    -27.1629E-03     53.7257E-03    -26.5627E-03     59.5204E-03    -27.1249E-03     53.4472E-03    -26.4736E-03     59.2570E-03
             930     10.5182E-03     91.8445E-03    -4.36847E+06    -64.9748E+06    -6.85900E+06    -15.2214E+06    -27.4006E-03     53.9200E-03    -26.5194E-03     64.9819E-03    -27.3706E-03     53.6637E-03    -26.4532E-03     64.6983E-03
             931     11.3942E-03     91.9080E-03    -3.70619E+06    -56.7803E+06    -7.56123E+06    -15.0497E+06    -27.6514E-03     54.1408E-03    -26.4894E-03     72.2509E-03    -27.6572E-03     53.9537E-03    -26.4395E-03     71.9450E-03
             932     12.2719E-03     91.9782E-03    -2.95181E+06    -49.3256E+06    -8.45619E+06    -14.3019E+06    -28.0860E-03     54.5545E-03    -26.4685E-03     79.6791E-03    -28.1397E-03     54.4472E-03    -26.4350E-03     79.3537E-03
             933     13.1464E-03     92.0558E-03    -2.41438E+06    -46.5653E+06    -16.5956E+06    -12.8873E+06    -28.7062E-03     55.1506E-03    -26.4443E-03     81.9905E-03    -28.8118E-03     55.1304E-03    -26.4563E-03     81.6460E-03
             934     14.0249E-03     92.1315E-03    -3.08318E+06    -27.8252E+06    -22.9444E+06    -9.95882E+06    -29.0604E-03     55.4801E-03    -26.4196E-03     95.0991E-03    -29.3420E-03     55.7185E-03    -26.4895E-03     94.7554E-03
             935     14.8991E-03     92.2325E-03    -6.43846E+06     19.5253E+06    -33.4626E+06    -6.04820E+06    -32.6831E-03     59.0079E-03    -26.3248E-03     157.095E-03    -33.9388E-03     60.4071E-03    -26.5111E-03     156.793E-03
             936     15.7755E-03     92.4290E-03    -8.73051E+06     109.307E+06    -12.5141E+06    -2.73927E+06    -39.7954E-03     66.1309E-03    -26.3354E-03     255.897E-03    -45.8287E-03     72.5573E-03    -26.5438E-03     256.825E-03
             937     16.6473E-03     92.7221E-03    -5.65351E+06     183.710E+06     68.5842E+06    -892.086E+03    -35.9763E-03     62.6072E-03    -26.6309E-03     254.907E-03    -44.3854E-03     71.4495E-03    -26.5462E-03     259.643E-03
             938     876.269E-06     92.4908E-03    -12.6237E+06    -69.3874E+06    -12.4599E+06    -2.89460E+06    -26.6938E-03     53.3990E-03    -26.7052E-03     5.74454E-03    -26.6384E-03     53.0886E-03    -26.6486E-03     5.70451E-03
             939     1.75272E-03     92.4984E-03    -12.1657E+06    -69.2993E+06    -11.6876E+06    -5.12367E+06    -26.6844E-03     53.3744E-03    -26.6899E-03     10.6004E-03    -26.6282E-03     53.0629E-03    -26.6303E-03     10.5292E-03
             940     2.62902E-03     92.5104E-03    -11.5086E+06    -68.6951E+06    -10.4803E+06    -7.38606E+06    -26.6631E-03     53.3373E-03    -26.6742E-03     15.7647E-03    -26.6067E-03     53.0266E-03    -26.6103E-03     15.6616E-03
             941     3.50555E-03     92.5275E-03    -10.5700E+06    -68.3260E+06    -8.72829E+06    -9.26407E+06    -26.6392E-03     53.2937E-03    -26.6546E-03     21.0332E-03    -26.5820E-03     52.9818E-03    -26.5838E-03     20.9028E-03
             942     4.38200E-03     92.5492E-03    -9.43165E+06    -67.3849E+06    -6.54660E+06    -11.0158E+06    -26.6151E-03     53.2451E-03    -26.6300E-03     26.3895E-03    -26.5580E-03     52.9342E-03    -26.5513E-03     26.2329E-03
             943     5.25867E-03     92.5762E-03    -8.11346E+06    -65.5523E+06    -3.98685E+06    -12.1505E+06    -26.5987E-03     53.1995E-03    -26.6008E-03     31.8212E-03    -26.5430E-03     52.8938E-03    -26.5139E-03     31.6455E-03
             944     6.13530E-03     92.6078E-03    -6.77506E+06    -64.1619E+06    -1.03913E+06    -12.5200E+06    -26.6051E-03     53.1764E-03    -26.5713E-03     37.3226E-03    -26.5514E-03     52.8739E-03    -26.4737E-03     37.1365E-03
             945     7.01210E-03     92.6450E-03    -5.39458E+06    -62.9614E+06     1.12037E+06    -13.3095E+06    -26.6401E-03     53.1775E-03    -26.5374E-03     42.8860E-03    -26.5880E-03     52.8795E-03    -26.4327E-03     42.6827E-03
             946     7.88889E-03     92.6866E-03    -4.39894E+06    -61.3330E+06     1.26326E+06    -14.2701E+06    -26.7241E-03     53.2194E-03    -26.4952E-03     48.5672E-03    -26.6748E-03     52.9330E-03    -26.3936E-03     48.3426E-03
             947     8.76577E-03     92.7343E-03    -3.86189E+06    -60.8820E+06     948.664E+03    -15.0732E+06    -26.8437E-03     53.3007E-03    -26.4570E-03     54.3003E-03    -26.7996E-03     53.0240E-03    -26.3584E-03     54.0538E-03
             948     9.64270E-03     92.7863E-03    -3.33732E+06    -62.9760E+06    -571.539E+03    -15.5302E+06    -27.0199E-03     53.4418E-03    -26.4219E-03     60.0000E-03    -26.9791E-03     53.1673E-03    -26.3287E-03     59.7330E-03
             949     10.5192E-03     92.8445E-03    -3.28004E+06    -63.6829E+06    -5.62373E+06    -15.5165E+06    -27.2861E-03     53.6629E-03    -26.3767E-03     65.7255E-03    -27.2538E-03     53.4092E-03    -26.3078E-03     65.4398E-03
             950     11.3966E-03     92.9069E-03    -3.51129E+06    -55.8172E+06    -6.72803E+06    -15.3916E+06    -27.5940E-03     53.9433E-03    -26.3493E-03     72.7366E-03    -27.6005E-03     53.7586E-03    -26.2969E-03     72.4280E-03
             951     12.2724E-03     92.9783E-03    -3.79564E+06    -48.6956E+06    -7.73646E+06    -15.2092E+06    -28.2344E-03     54.5755E-03    -26.3411E-03     80.8321E-03    -28.2956E-03     54.4727E-03    -26.3036E-03     80.4947E-03
             952     13.1500E-03     93.0563E-03    -4.66194E+06    -48.9057E+06    -16.6924E+06    -13.3973E+06    -28.6469E-03     54.9755E-03    -26.3286E-03     82.9175E-03    -28.7592E-03     54.9460E-03    -26.3344E-03     82.5683E-03
             953     14.0236E-03     93.1314E-03    -5.96877E+06    -32.1918E+06    -21.8173E+06    -9.45447E+06    -29.0314E-03     55.3491E-03    -26.3177E-03     95.2318E-03    -29.3233E-03     55.5689E-03    -26.3715E-03     94.8949E-03
             954     14.9015E-03     93.2331E-03    -6.84254E+06     16.3060E+06    -28.3736E+06    -5.24699E+06    -32.5656E-03     58.8035E-03    -26.2380E-03     158.120E-03    -33.8344E-03     60.1882E-03    -26.3935E-03     157.835E-03
             955     15.7784E-03     93.4290E-03    -6.58243E+06     107.307E+06    -12.0129E+06    -2.43566E+06    -38.5182E-03     64.6983E-03    -26.1802E-03     257.959E-03    -44.5877E-03     71.1602E-03    -26.3863E-03     259.001E-03
             956     16.6580E-03     93.7288E-03    -4.87996E+06     182.511E+06     65.0548E+06    -1.22794E+06    -36.6973E-03     63.1374E-03    -26.4400E-03     254.845E-03    -45.0734E-03     71.9554E-03    -26.3723E-03     259.483E-03
             957     876.495E-06     93.4909E-03    -9.32606E+06    -63.2835E+06    -9.23956E+06    -3.07768E+06    -26.5584E-03     53.1294E-03    -26.5710E-03     5.75820E-03    -26.4999E-03     52.8400E-03    -26.5119E-03     5.71590E-03
             958     1.75286E-03     93.4981E-03    -8.81380E+06    -63.4836E+06    -8.47624E+06    -5.54382E+06    -26.5400E-03     53.0930E-03    -26.5530E-03     10.6375E-03    -26.4801E-03     52.8011E-03    -26.4906E-03     10.5611E-03
             959     2.62947E-03     93.5103E-03    -8.09315E+06    -63.2620E+06    -7.32050E+06    -7.86049E+06    -26.5087E-03     53.0415E-03    -26.5329E-03     15.8216E-03    -26.4477E-03     52.7485E-03    -26.4660E-03     15.7127E-03
             960     3.50599E-03     93.5270E-03    -7.26344E+06    -63.6215E+06    -5.77513E+06    -9.85846E+06    -26.4709E-03     52.9787E-03    -26.5078E-03     21.1168E-03    -26.4082E-03     52.6811E-03    -26.4339E-03     20.9791E-03
             961     4.38273E-03     93.5489E-03    -6.40913E+06    -62.9350E+06    -4.06169E+06    -11.4666E+06    -26.4298E-03     52.9048E-03    -26.4750E-03     26.5095E-03    -26.3674E-03     52.6080E-03    -26.3948E-03     26.3476E-03
             962     5.25945E-03     93.5754E-03    -5.71486E+06    -62.5418E+06    -2.27985E+06    -12.5048E+06    -26.4007E-03     52.8386E-03    -26.4379E-03     32.0010E-03    -26.3397E-03     52.5419E-03    -26.3503E-03     31.8214E-03
             963     6.13636E-03     93.6073E-03    -4.66914E+06    -61.5712E+06    -211.365E+03    -13.1527E+06    -26.3852E-03     52.7826E-03    -26.3973E-03     37.5786E-03    -26.3258E-03     52.4885E-03    -26.3023E-03     37.3853E-03
             964     7.01332E-03     93.6438E-03    -3.44994E+06    -59.9879E+06     2.16666E+06    -13.7600E+06    -26.4147E-03     52.7711E-03    -26.3564E-03     43.2513E-03    -26.3584E-03     52.4833E-03    -26.2536E-03     43.0434E-03
             965     7.89033E-03     93.6861E-03    -2.65425E+06    -58.9588E+06     2.75239E+06    -14.1548E+06    -26.4879E-03     52.7983E-03    -26.3104E-03     49.0212E-03    -26.4350E-03     52.5187E-03    -26.2073E-03     48.7996E-03
             966     8.76744E-03     93.7329E-03    -2.40188E+06    -58.2602E+06     2.31821E+06    -14.6750E+06    -26.5840E-03     52.8479E-03    -26.2640E-03     54.8361E-03    -26.5377E-03     52.5796E-03    -26.1644E-03     54.5967E-03
             967     9.64445E-03     93.7858E-03    -2.41547E+06    -61.1513E+06     672.512E+03    -15.3406E+06    -26.8051E-03     53.0295E-03    -26.2244E-03     60.7406E-03    -26.7635E-03     52.7603E-03    -26.1288E-03     60.4782E-03
             968     10.5218E-03     93.8431E-03    -2.69567E+06    -62.4325E+06    -4.89262E+06    -15.3100E+06    -27.1822E-03     53.3611E-03    -26.1789E-03     66.5925E-03    -27.1492E-03     53.1111E-03    -26.1090E-03     66.3114E-03
             969     11.3980E-03     93.9068E-03    -3.38126E+06    -54.3651E+06    -6.13646E+06    -15.1047E+06    -27.6492E-03     53.8113E-03    -26.1621E-03     73.5963E-03    -27.6579E-03     53.6328E-03    -26.1090E-03     73.2924E-03
             970     12.2754E-03     93.9773E-03    -4.12237E+06    -47.8441E+06    -6.93111E+06    -14.8609E+06    -28.2112E-03     54.3796E-03    -26.1684E-03     82.0763E-03    -28.2767E-03     54.2807E-03    -26.1277E-03     81.7447E-03
             971     13.1501E-03     94.0573E-03    -5.15508E+06    -51.8557E+06    -17.1836E+06    -12.9390E+06    -28.4320E-03     54.5880E-03    -26.1560E-03     84.0400E-03    -28.5403E-03     54.5437E-03    -26.1592E-03     83.7008E-03
             972     14.0285E-03     94.1309E-03    -5.17802E+06    -35.7245E+06    -23.0914E+06    -9.80074E+06    -29.3345E-03     55.4838E-03    -26.1493E-03     96.6009E-03    -29.6218E-03     55.6929E-03    -26.2055E-03     96.2574E-03
             973     14.9033E-03     94.2339E-03    -4.80679E+06     13.5078E+06    -28.2066E+06    -6.48560E+06    -32.8616E-03     58.9626E-03    -26.1010E-03     157.799E-03    -34.1126E-03     60.3263E-03    -26.2547E-03     157.500E-03
             974     15.7795E-03     94.4282E-03    -5.57053E+06     103.607E+06    -15.0747E+06    -2.88495E+06    -37.9135E-03     63.9518E-03    -26.0382E-03     255.646E-03    -43.9106E-03     70.3405E-03    -26.2557E-03     256.733E-03
             975     16.6580E-03     94.7240E-03    -4.66732E+06     181.110E+06     61.6231E+06    -595.474E+03    -36.9946E-03     63.2939E-03    -26.2993E-03     254.865E-03    -45.3525E-03     72.0995E-03    -26.2470E-03     259.497E-03
             976     876.551E-06     94.4902E-03    -6.17528E+06    -56.7037E+06    -6.13313E+06    -3.30663E+06    -26.3707E-03     52.7416E-03    -26.3710E-03     5.77987E-03    -26.3105E-03     52.4761E-03    -26.3104E-03     5.73473E-03
             977     1.75329E-03     94.4978E-03    -5.76363E+06    -57.1537E+06    -5.62477E+06    -6.01581E+06    -26.3391E-03     52.6958E-03    -26.3567E-03     10.6917E-03    -26.2773E-03     52.4269E-03    -26.2936E-03     10.6094E-03
             978     2.62991E-03     94.5095E-03    -5.15430E+06    -57.6816E+06    -4.63371E+06    -8.41585E+06    -26.2950E-03     52.6278E-03    -26.3328E-03     15.9039E-03    -26.2312E-03     52.3544E-03    -26.2649E-03     15.7882E-03
             979     3.50676E-03     94.5265E-03    -4.36440E+06    -58.6065E+06    -3.28431E+06    -10.4058E+06    -26.2402E-03     52.5417E-03    -26.3015E-03     21.2351E-03    -26.1738E-03     52.2613E-03    -26.2266E-03     21.0908E-03
             980     4.38359E-03     94.5478E-03    -3.52685E+06    -58.8238E+06    -2.07417E+06    -11.8933E+06    -26.1823E-03     52.4423E-03    -26.2600E-03     26.6823E-03    -26.1143E-03     52.1589E-03    -26.1799E-03     26.5156E-03
             981     5.26064E-03     94.5746E-03    -2.62489E+06     -59.351E+06    -563.395E+03    -12.7599E+06    -26.1314E-03     52.3451E-03    -26.2137E-03     32.2385E-03    -26.0618E-03     52.0572E-03    -26.1267E-03     32.0566E-03
             982     6.13775E-03     94.6059E-03    -1.89369E+06    -58.5229E+06     1.08705E+06    -13.5743E+06    -26.1019E-03     52.2643E-03    -26.1624E-03     37.9077E-03    -26.0346E-03     51.9793E-03    -26.0693E-03     37.7103E-03
             983     7.01499E-03     94.6428E-03    -1.30966E+06    -57.7822E+06     3.06816E+06    -13.8869E+06    -26.1091E-03     52.2212E-03    -26.1121E-03     43.6969E-03    -26.0461E-03     51.9396E-03    -26.0111E-03     43.4891E-03
             984     7.89233E-03     94.6844E-03    -910.755E+03    -56.9928E+06     3.96195E+06    -13.8270E+06    -26.1644E-03     52.2231E-03    -26.0587E-03     49.5772E-03    -26.1068E-03     51.9484E-03    -25.9550E-03     49.3619E-03
             985     8.76964E-03     94.7319E-03     -780.86E+03    -55.8864E+06     3.55703E+06    -14.0934E+06    -26.2937E-03     52.2983E-03    -26.0045E-03     55.5001E-03    -26.2438E-03     52.0369E-03    -25.9046E-03     55.2705E-03
             986     9.64725E-03     94.7838E-03    -1.12349E+06    -58.8574E+06     2.26920E+06    -14.5468E+06    -26.6023E-03     52.5684E-03    -25.9662E-03     61.5642E-03    -26.5591E-03     52.3058E-03    -25.8679E-03     61.3143E-03
             987     10.5240E-03     94.8425E-03    -1.50834E+06    -61.0026E+06    -3.54998E+06    -14.9269E+06    -27.0071E-03     52.9314E-03    -25.9244E-03     67.5203E-03    -26.9712E-03     52.6840E-03    -25.8515E-03     67.2468E-03
             988     11.4015E-03     94.9054E-03    -1.82415E+06    -53.2442E+06    -5.30522E+06    -14.7870E+06    -27.5311E-03     53.4409E-03    -25.9098E-03     75.0128E-03    -27.5343E-03     53.2640E-03    -25.8565E-03     74.7156E-03
             989     12.2771E-03     94.9775E-03    -2.51669E+06    -47.9395E+06    -5.92152E+06    -14.1648E+06    -28.1545E-03     54.0804E-03    -25.9260E-03     83.5909E-03    -28.2127E-03     53.9767E-03    -25.8824E-03     83.2710E-03
             990     13.1555E-03     95.0562E-03    -2.93631E+06    -53.5343E+06    -16.3600E+06    -12.4781E+06    -28.6090E-03     54.5392E-03    -25.9301E-03     84.8811E-03    -28.7049E-03     54.4820E-03    -25.9301E-03     84.5489E-03
             991     14.0301E-03     95.1310E-03    -4.01290E+06    -37.1359E+06    -22.9992E+06    -10.5682E+06    -29.8938E-03     55.8482E-03    -25.9544E-03     97.7010E-03    -30.1779E-03     56.0529E-03    -26.0097E-03     97.3442E-03
             992     14.9050E-03     95.2368E-03    -5.15265E+06     8.72580E+06    -28.7347E+06    -7.53480E+06    -33.5492E-03     59.5078E-03    -25.9586E-03     157.208E-03    -34.7850E-03     60.8396E-03    -26.1074E-03     156.888E-03
             993     15.7819E-03     95.4253E-03    -5.41242E+06     99.2874E+06    -17.5867E+06    -3.00847E+06    -39.0871E-03     65.0372E-03    -25.9501E-03     254.180E-03    -45.0764E-03     71.4107E-03    -26.1741E-03     255.164E-03
             994     16.6575E-03     95.7262E-03    -4.60156E+06     180.449E+06     59.3316E+06    -185.259E+03    -37.2019E-03     63.4497E-03    -26.2478E-03     257.367E-03    -45.6864E-03     72.3864E-03    -26.2061E-03     262.042E-03
             995     876.892E-06     95.4896E-03    -1.96235E+06    -49.6573E+06    -2.09974E+06    -3.48748E+06    -26.1129E-03     52.2142E-03    -26.1013E-03     5.81501E-03    -26.0478E-03     51.9720E-03    -26.0370E-03     5.76769E-03
             996     1.75367E-03     95.4966E-03    -1.86195E+06    -50.4699E+06    -1.90288E+06    -6.31181E+06    -26.0683E-03     52.1587E-03    -26.0903E-03     10.7562E-03    -26.0021E-03     51.9121E-03    -26.0240E-03     10.6704E-03
             997     2.63069E-03     95.5087E-03    -1.62601E+06    -51.8450E+06    -1.57199E+06    -8.80364E+06    -26.0066E-03     52.0668E-03    -26.0602E-03     16.0098E-03    -25.9381E-03     51.8130E-03    -25.9905E-03     15.8895E-03
             998     3.50767E-03     95.5251E-03    -1.21046E+06    -53.3808E+06    -1.02787E+06    -10.9338E+06    -25.9336E-03     51.9527E-03    -26.0191E-03     21.3977E-03    -25.8623E-03     51.6906E-03    -25.9451E-03     21.2473E-03
             999     4.38489E-03     95.5467E-03    -624.076E+03    -54.7536E+06    -281.383E+03    -12.4372E+06    -25.8549E-03     51.8237E-03    -25.9688E-03     26.9084E-03    -25.7807E-03     51.5538E-03    -25.8899E-03     26.7356E-03
            1000     5.26216E-03     95.5728E-03     137.725E+03    -55.9878E+06     821.143E+03    -13.4651E+06    -25.7822E-03     51.6942E-03    -25.9121E-03     32.5456E-03    -25.7054E-03     51.4168E-03    -25.8270E-03     32.3559E-03
            1001     6.13963E-03     95.6044E-03     804.297E+03    -55.9894E+06     2.20418E+06    -13.6615E+06    -25.7320E-03     51.5822E-03    -25.8502E-03     38.3250E-03    -25.6561E-03     51.3040E-03    -25.7592E-03     38.1281E-03
            1002     7.01721E-03     95.6407E-03     1.11193E+06    -55.6709E+06     3.99058E+06    -13.7307E+06    -25.7219E-03     51.5112E-03    -25.7893E-03     44.2360E-03    -25.6507E-03     51.2347E-03    -25.6902E-03     44.0322E-03
            1003     7.89487E-03     95.6827E-03     1.44843E+06    -55.6173E+06     5.01817E+06    -13.5550E+06    -25.7690E-03     51.4965E-03    -25.7275E-03     50.2314E-03    -25.7023E-03     51.2230E-03    -25.6239E-03     50.0220E-03
            1004     8.77273E-03     95.7294E-03     1.14509E+06    -54.2106E+06     5.04256E+06    -12.9426E+06    -25.9937E-03     51.6648E-03    -25.6711E-03     56.3768E-03    -25.9380E-03     51.4060E-03    -25.5689E-03     56.1647E-03
            1005     9.65007E-03     95.7824E-03     521.204E+03    -56.1124E+06     4.40902E+06    -13.5558E+06    -26.3390E-03     51.9758E-03    -25.6368E-03     62.6615E-03    -26.2937E-03     51.7204E-03    -25.5341E-03     62.4273E-03
            1006     10.5278E-03     95.8405E-03     86.9344E+03    -59.5872E+06    -1.51834E+06    -14.3035E+06    -26.6971E-03     52.2942E-03    -25.5971E-03     68.8075E-03    -26.6570E-03     52.0472E-03    -25.5184E-03     68.5457E-03
            1007     11.4047E-03     95.9041E-03    -845.095E+03    -52.5883E+06    -4.22302E+06    -14.2927E+06    -27.3840E-03     52.9674E-03    -25.5834E-03     76.6288E-03    -27.3838E-03     52.7898E-03    -25.5270E-03     76.3412E-03
            1008     12.2828E-03     95.9767E-03    -1.19694E+06    -46.9528E+06    -3.31268E+06    -13.9147E+06    -28.3538E-03     53.9809E-03    -25.6272E-03     84.6775E-03    -28.4101E-03     53.8759E-03    -25.5739E-03     84.3621E-03
            1009     13.1572E-03     96.0560E-03    -1.92552E+06    -55.4271E+06    -14.1947E+06    -12.2458E+06    -29.2542E-03     54.9327E-03    -25.6786E-03     86.1240E-03    -29.3479E-03     54.8641E-03    -25.6664E-03     85.7917E-03
            1010     14.0331E-03     96.1324E-03     -3.4608E+06    -38.2414E+06    -21.3247E+06    -10.2164E+06    -30.3566E-03     56.1037E-03    -25.7472E-03     99.2221E-03    -30.6401E-03     56.3010E-03    -25.7933E-03     98.8688E-03
            1011     14.9089E-03     96.2374E-03    -4.79036E+06     5.23312E+06    -25.7535E+06    -8.04214E+06    -34.5578E-03     60.3707E-03    -25.8129E-03     158.037E-03    -35.8023E-03     61.6915E-03    -25.9423E-03     157.686E-03
            1012     15.7816E-03     96.4280E-03    -5.55838E+06     93.3250E+06    -19.2859E+06    -3.34759E+06    -40.6589E-03     66.5277E-03    -25.8689E-03     252.822E-03    -46.6167E-03     72.8531E-03    -26.0925E-03     253.720E-03
            1013     16.6583E-03     96.7241E-03    -4.05655E+06     179.490E+06     57.0340E+06     530.462E+03    -36.7581E-03     62.9586E-03    -26.2005E-03     256.331E-03    -45.2337E-03     71.8916E-03    -26.1697E-03     261.075E-03
            1014     877.097E-06     96.4880E-03     1.74412E+06    -42.3073E+06     1.53041E+06    -3.66040E+06    -25.7494E-03     51.5038E-03    -25.7543E-03     5.86714E-03    -25.6817E-03     51.2876E-03    -25.6879E-03     5.81780E-03
            1015     1.75436E-03     96.4954E-03     1.71214E+06    -43.6099E+06     1.36407E+06    -6.45957E+06    -25.7005E-03     51.4317E-03    -25.7311E-03     10.8386E-03    -25.6310E-03     51.2095E-03    -25.6636E-03     10.7513E-03
            1016     2.63157E-03     96.5069E-03     1.79877E+06    -45.7037E+06     1.21949E+06    -9.10897E+06    -25.6248E-03     51.3186E-03    -25.6938E-03     16.1488E-03    -25.5521E-03     51.0864E-03    -25.6240E-03     16.0252E-03
            1017     3.50901E-03     96.5235E-03     1.92436E+06    -47.9808E+06     1.14402E+06    -11.2887E+06    -25.5321E-03     51.1755E-03    -25.6435E-03     21.6001E-03    -25.4559E-03     50.9325E-03    -25.5710E-03     21.4460E-03
            1018     4.38650E-03     96.5445E-03     2.03536E+06    -50.5232E+06     1.28132E+06    -12.8537E+06    -25.4307E-03     51.0140E-03    -25.5834E-03     27.1894E-03    -25.3514E-03     50.7589E-03    -25.5067E-03     27.0124E-03
            1019     5.26423E-03     96.5708E-03     2.08212E+06    -52.4017E+06     1.58718E+06    -13.8571E+06    -25.3327E-03     50.8470E-03    -25.5143E-03     32.9292E-03    -25.2523E-03     50.5833E-03    -25.4334E-03     32.7360E-03
            1020     6.14207E-03     96.6017E-03     2.28694E+06    -54.2575E+06     2.23871E+06    -14.0148E+06    -25.2611E-03     50.7022E-03    -25.4411E-03     38.8346E-03    -25.1799E-03     50.4300E-03    -25.3545E-03     38.6351E-03
            1021     7.02010E-03     96.6383E-03     2.64318E+06    -53.5802E+06     3.82774E+06    -13.6089E+06    -25.2395E-03     50.6071E-03    -25.3676E-03     44.8924E-03    -25.1627E-03     50.3384E-03    -25.2746E-03     44.6927E-03
            1022     7.89824E-03     96.6796E-03     2.48434E+06    -54.7919E+06     5.40389E+06    -13.0757E+06    -25.3369E-03     50.6409E-03    -25.3040E-03     51.0451E-03    -25.2660E-03     50.3686E-03    -25.2011E-03     50.8448E-03
            1023     8.77630E-03     96.7269E-03     2.43203E+06    -53.6647E+06     5.62747E+06    -12.0364E+06    -25.5779E-03     50.8234E-03    -25.2455E-03     57.5343E-03    -25.5162E-03     50.5635E-03    -25.1431E-03     57.3373E-03
            1024     9.65439E-03     96.7798E-03     1.90706E+06    -53.1754E+06     6.09070E+06    -12.1090E+06    -25.9114E-03     51.1214E-03    -25.2100E-03     63.9647E-03    -25.8643E-03     50.8746E-03    -25.1052E-03     63.7532E-03
            1025     10.5322E-03     96.8380E-03     368.039E+03    -57.9070E+06     926.832E+03    -13.0927E+06    -26.5603E-03     51.7461E-03    -25.1858E-03     70.2311E-03    -26.5237E-03     51.5025E-03    -25.0977E-03     69.9880E-03
            1026     11.4101E-03     96.9022E-03    -754.659E+03    -50.5454E+06    -1.90615E+06    -13.5625E+06    -27.4522E-03     52.6492E-03    -25.1970E-03     78.0925E-03    -27.4569E-03     52.4773E-03    -25.1321E-03     77.8168E-03
            1027     12.2853E-03     96.9761E-03    -1.26685E+06    -46.5277E+06    -869.651E+03    -13.6099E+06    -28.4597E-03     53.7335E-03    -25.2738E-03     86.6066E-03    -28.5201E-03     53.6268E-03    -25.2089E-03     86.2974E-03
            1028     13.1626E-03     97.0561E-03    -2.15614E+06    -57.6798E+06    -13.1487E+06    -11.9124E+06    -29.6783E-03     55.0357E-03    -25.3574E-03     88.9036E-03    -29.7733E-03     54.9564E-03    -25.3364E-03     88.5757E-03
            1029     14.0369E-03     97.1338E-03    -3.37342E+06    -38.8658E+06    -19.0716E+06    -9.76416E+06    -31.1324E-03     56.6129E-03    -25.4805E-03     101.117E-03    -31.4207E-03     56.8065E-03    -25.5146E-03     100.764E-03
            1030     14.9109E-03     97.2386E-03    -4.47034E+06     2.03824E+06    -20.9463E+06    -7.30580E+06    -35.3921E-03     61.0083E-03    -25.6161E-03     160.889E-03    -36.6677E-03     62.3360E-03    -25.7173E-03     160.535E-03
            1031     15.7846E-03     97.4339E-03    -6.80533E+06     87.6494E+06    -18.8258E+06    -3.10790E+06    -42.0130E-03     67.7271E-03    -25.7141E-03     255.589E-03    -48.0267E-03     74.0824E-03    -25.9255E-03     256.422E-03
            1032     16.6563E-03     97.7235E-03    -5.31999E+06     177.936E+06     55.6589E+06    -125.170E+03    -37.1015E-03     63.1817E-03    -26.0803E-03     254.675E-03    -45.5280E-03     72.0597E-03    -26.0523E-03     259.371E-03
            1033     877.589E-06     97.4860E-03     4.62268E+06    -34.7444E+06     4.31643E+06    -3.78418E+06    -25.2699E-03     50.5646E-03    -25.2947E-03     5.92860E-03    -25.2028E-03     50.3781E-03    -25.2294E-03     5.87791E-03
            1034     1.75512E-03     97.4928E-03     4.45410E+06    -36.5908E+06     3.81353E+06    -6.62966E+06    -25.2165E-03     50.4739E-03    -25.2574E-03     10.9438E-03    -25.1470E-03     50.2792E-03    -25.1917E-03     10.8547E-03
            1035     2.63287E-03     97.5046E-03     4.27664E+06    -39.3265E+06     3.17882E+06    -9.35321E+06    -25.1279E-03     50.3404E-03    -25.2124E-03     16.3169E-03    -25.0548E-03     50.1336E-03    -25.1457E-03     16.1909E-03
            1036     3.51065E-03     97.5206E-03     3.98358E+06    -42.6744E+06     2.40944E+06    -11.4400E+06    -25.0142E-03     50.1673E-03    -25.1532E-03     21.8433E-03    -24.9371E-03     49.9459E-03    -25.0850E-03     21.6883E-03
            1037     4.38869E-03     97.5418E-03     3.56558E+06    -46.1525E+06     1.73315E+06    -12.9052E+06    -24.8873E-03     49.9689E-03    -25.0816E-03     27.5251E-03    -24.8071E-03     49.7325E-03    -25.0112E-03     27.3489E-03
            1038     5.26685E-03     97.5674E-03     2.94846E+06    -49.2205E+06     1.31193E+06    -13.5946E+06    -24.7680E-03     49.7689E-03    -25.0010E-03     33.3799E-03    -24.6870E-03     49.5199E-03    -24.9273E-03     33.1918E-03
            1039     6.14524E-03     97.5985E-03     2.22661E+06    -51.9468E+06     1.31895E+06    -13.9357E+06    -24.6816E-03     49.5984E-03    -24.9167E-03     39.4257E-03    -24.6022E-03     49.3385E-03    -24.8380E-03     39.2295E-03
            1040     7.02376E-03     97.6343E-03     1.49473E+06    -52.7946E+06     1.79059E+06    -13.3024E+06    -24.6644E-03     49.4970E-03    -24.8326E-03     45.6612E-03    -24.5908E-03     49.2360E-03    -24.7492E-03     45.4682E-03
            1041     7.90241E-03     97.6762E-03     966.669E+03    -53.8599E+06     3.80079E+06    -12.2150E+06    -24.7966E-03     49.5627E-03    -24.7661E-03     52.1066E-03    -24.7312E-03     49.2985E-03    -24.6704E-03     51.9207E-03
            1042     8.78094E-03     97.7231E-03     492.425E+03    -53.3728E+06     4.42996E+06    -11.7226E+06    -25.0318E-03     49.7396E-03    -24.7078E-03     58.7907E-03    -24.9771E-03     49.4842E-03    -24.6089E-03     58.6018E-03
            1043     9.65955E-03     97.7764E-03    -39.3123E+03    -52.1680E+06     5.59465E+06    -10.5189E+06    -25.5410E-03     50.2196E-03    -24.6786E-03     65.4273E-03    -25.5029E-03     49.9799E-03    -24.5749E-03     65.2405E-03
            1044     10.5378E-03     97.8349E-03    -1.68274E+06    -54.6387E+06     3.18369E+06    -10.8103E+06    -26.4428E-03     51.1277E-03    -24.6849E-03     72.1658E-03    -26.4232E-03     50.8989E-03    -24.5873E-03     71.9556E-03
            1045     11.4140E-03     97.9009E-03    -3.43101E+06    -48.7591E+06    -489.074E+03    -12.3457E+06    -27.3736E-03     52.0958E-03    -24.7222E-03     80.3721E-03    -27.3953E-03     51.9336E-03    -24.6490E-03     80.1158E-03
            1046     12.2926E-03     97.9739E-03    -4.40412E+06    -45.4899E+06     155.366E+03    -13.1244E+06    -28.5333E-03     53.3605E-03    -24.8272E-03     89.1966E-03    -28.6122E-03     53.2619E-03    -24.7541E-03     88.8964E-03
            1047     13.1677E-03     98.0566E-03    -4.83915E+06    -59.5998E+06    -12.4401E+06    -12.0443E+06    -29.9717E-03     54.9200E-03    -24.9483E-03     91.6674E-03    -30.0795E-03     54.8351E-03    -24.9171E-03     91.3393E-03
            1048     14.0422E-03     98.1357E-03    -5.32613E+06    -39.9226E+06    -17.3201E+06    -9.76011E+06    -31.8512E-03     56.9753E-03    -25.1241E-03     104.018E-03    -32.1604E-03     57.1741E-03    -25.1451E-03     103.660E-03
            1049     14.9159E-03     98.2415E-03    -6.48229E+06    -1.99310E+06    -16.9490E+06    -6.78505E+06    -35.9204E-03     61.2462E-03    -25.3258E-03     163.175E-03    -37.2228E-03     62.5676E-03    -25.3982E-03     162.827E-03
            1050     15.7909E-03     98.4364E-03    -6.65163E+06     83.4381E+06    -15.8920E+06    -2.27794E+06    -41.2864E-03     66.7012E-03    -25.4148E-03     258.856E-03    -47.4124E-03     73.1459E-03    -25.6056E-03     259.794E-03
            1051     16.6649E-03     98.7333E-03    -4.79290E+06     178.309E+06     57.1095E+06    -455.116E+03    -38.8300E-03     64.6245E-03    -25.7946E-03     254.951E-03    -47.2695E-03     73.5147E-03    -25.7606E-03     259.474E-03
            1052     878.024E-06     98.4825E-03     6.81495E+06    -27.0998E+06     6.64309E+06    -3.80033E+06    -24.6678E-03     49.3593E-03    -24.6915E-03     5.98027E-03    -24.6041E-03     49.2043E-03    -24.6288E-03     5.92966E-03
            1053     1.75623E-03     98.4897E-03     6.48330E+06    -29.4682E+06     5.62722E+06    -6.65707E+06    -24.6025E-03     49.2536E-03    -24.6511E-03     11.0658E-03    -24.5357E-03     49.0889E-03    -24.5896E-03     10.9770E-03
            1054     2.63441E-03     98.5009E-03     5.80162E+06    -33.0264E+06     4.22346E+06    -9.24566E+06    -24.4977E-03     49.0961E-03    -24.5985E-03     16.5030E-03    -24.4275E-03     48.9170E-03    -24.5379E-03     16.3792E-03
            1055     3.51284E-03     98.5171E-03     4.87707E+06    -37.5121E+06     2.55248E+06    -11.2116E+06    -24.3627E-03     48.8923E-03    -24.5295E-03     22.1115E-03    -24.2887E-03     48.6950E-03    -24.4695E-03     21.9607E-03
            1056     4.39138E-03     98.5375E-03     3.64777E+06    -42.1850E+06     865.582E+03    -12.3532E+06    -24.2145E-03     48.6613E-03    -24.4467E-03     27.8911E-03    -24.1382E-03     48.4455E-03    -24.3865E-03     27.7235E-03
            1057     5.27020E-03     98.5633E-03     2.16243E+06    -46.5133E+06    -444.945E+03    -12.7262E+06    -24.0793E-03     48.4347E-03    -24.3554E-03     33.8753E-03    -24.0032E-03     48.2024E-03    -24.2933E-03     33.7005E-03
            1058     6.14916E-03     98.5936E-03     267.585E+03    -49.7640E+06    -966.367E+03    -12.5211E+06    -23.9878E-03     48.2503E-03    -24.2626E-03     40.0740E-03    -23.9173E-03     48.0069E-03    -24.1956E-03     39.8986E-03
            1059     7.02832E-03     98.6298E-03    -1.75962E+06    -52.3043E+06    -966.542E+03    -11.8846E+06    -23.9914E-03     48.1662E-03    -24.1748E-03     46.5300E-03    -23.9298E-03     47.9155E-03    -24.1013E-03     46.3584E-03
            1060     7.90752E-03     98.6710E-03    -3.24941E+06    -53.0593E+06     461.834E+03    -11.1840E+06    -24.1218E-03     48.2245E-03    -24.1028E-03     53.2529E-03    -24.0725E-03     47.9741E-03    -24.0188E-03     53.0842E-03
            1061     8.78680E-03     98.7186E-03    -4.59617E+06    -52.9638E+06     2.54877E+06    -10.1412E+06    -24.4845E-03     48.5407E-03    -24.0562E-03     60.1197E-03    -24.4516E-03     48.2960E-03    -23.9600E-03     59.9551E-03
            1062     9.66573E-03     98.7714E-03    -5.83700E+06    -52.5553E+06     3.77315E+06    -9.25641E+06    -25.1541E-03     49.1977E-03    -24.0436E-03     67.3089E-03    -25.1402E-03     48.9656E-03    -23.9401E-03     67.1425E-03
            1063     10.5437E-03     98.8322E-03    -6.32357E+06    -52.5958E+06     3.33830E+06     -8.8093E+06    -26.0123E-03     50.0823E-03    -24.0700E-03     74.4668E-03    -26.0170E-03     49.8682E-03    -23.9679E-03     74.2877E-03
            1064     11.4228E-03     98.8973E-03    -7.83048E+06    -45.6007E+06     1.70487E+06    -10.1589E+06    -27.2964E-03     51.4348E-03    -24.1384E-03     82.8428E-03    -27.3470E-03     51.2909E-03    -24.0524E-03     82.6180E-03
            1065     12.2981E-03     98.9731E-03    -8.96614E+06    -42.6154E+06     2.40566E+06    -12.4878E+06    -28.9346E-03     53.2271E-03    -24.2926E-03     91.7491E-03    -29.0452E-03     53.1477E-03    -24.2057E-03     91.4572E-03
            1066     13.1742E-03     99.0562E-03    -9.28660E+06    -61.6173E+06    -11.6662E+06    -12.4440E+06    -30.3743E-03     54.8449E-03    -24.4706E-03     94.2533E-03    -30.5051E-03     54.7579E-03    -24.4261E-03     93.9199E-03
            1067     14.0492E-03     99.1372E-03    -9.24399E+06    -41.0862E+06    -16.1447E+06    -10.8054E+06    -32.3229E-03     57.0204E-03    -24.6975E-03     106.700E-03    -32.6593E-03     57.2250E-03    -24.7053E-03     106.326E-03
            1068     14.9219E-03     99.2459E-03    -8.14116E+06    -5.68897E+06    -12.6153E+06    -7.98328E+06    -36.7033E-03     61.6768E-03    -24.9735E-03     164.127E-03    -38.0273E-03     62.9883E-03    -25.0165E-03     163.752E-03
            1069     15.7940E-03     99.4381E-03    -6.63509E+06     78.3424E+06    -12.0845E+06    -3.44153E+06    -41.7229E-03     66.8485E-03    -25.1256E-03     255.529E-03    -47.7645E-03     73.1796E-03    -25.2900E-03     256.474E-03
            1070     16.6754E-03     99.7317E-03    -4.57398E+06     178.375E+06     59.0183E+06    -436.904E+03    -40.2434E-03     65.8185E-03    -25.5751E-03     251.566E-03    -48.5996E-03     74.6207E-03    -25.5320E-03     255.975E-03
            1071     878.762E-06     99.4783E-03     7.90902E+06    -19.5345E+06     7.61901E+06    -3.63139E+06    -23.9173E-03     47.8529E-03    -23.9356E-03     6.04391E-03    -23.8606E-03     47.7328E-03    -23.8806E-03     5.99579E-03
            1072     1.75747E-03     99.4848E-03     7.15781E+06    -22.6338E+06     6.06579E+06    -6.36644E+06    -23.8428E-03     47.7379E-03    -23.8951E-03     11.1879E-03    -23.7832E-03     47.6057E-03    -23.8423E-03     11.1034E-03
            1073     2.63643E-03     99.4962E-03     5.90974E+06    -27.1299E+06     3.86028E+06    -8.62034E+06    -23.7218E-03     47.5581E-03    -23.8363E-03     16.6933E-03    -23.6590E-03     47.4087E-03    -23.7862E-03     16.5785E-03
            1074     3.51546E-03     99.5117E-03     4.06352E+06    -32.8713E+06     1.20362E+06    -10.1787E+06    -23.5710E-03     47.3304E-03    -23.7594E-03     22.3774E-03    -23.5057E-03     47.1592E-03    -23.7116E-03     22.2412E-03
            1075     4.39477E-03     99.5322E-03     1.69934E+06    -38.9693E+06    -1.60791E+06    -10.8521E+06    -23.4108E-03     47.0789E-03    -23.6681E-03     28.2586E-03    -23.3449E-03     46.8853E-03    -23.6221E-03     28.1121E-03
            1076     5.27423E-03     99.5572E-03    -1.15340E+06    -44.4998E+06    -3.83013E+06    -10.6974E+06    -23.2679E-03     46.8379E-03    -23.5700E-03     34.3662E-03    -23.2059E-03     46.6249E-03    -23.5230E-03     34.2198E-03
            1077     6.15396E-03     99.5878E-03    -4.24357E+06    -48.7479E+06    -4.76173E+06     -9.8457E+06    -23.1866E-03     46.6609E-03    -23.4743E-03     40.7327E-03    -23.1339E-03     46.4339E-03    -23.4213E-03     40.5945E-03
            1078     7.03378E-03     99.6233E-03    -7.14882E+06    -51.2320E+06    -4.09482E+06    -9.24673E+06    -23.2156E-03     46.6058E-03    -23.3902E-03     47.4066E-03    -23.1770E-03     46.3718E-03    -23.3260E-03     47.2723E-03
            1079     7.91370E-03     99.6650E-03    -10.0076E+06    -52.7324E+06    -2.30412E+06    -8.50718E+06    -23.4126E-03     46.7397E-03    -23.3271E-03     54.3407E-03    -23.3923E-03     46.5033E-03    -23.2477E-03     54.2101E-03
            1080     8.79349E-03     99.7121E-03    -12.0577E+06    -52.7244E+06     134.620E+03    -7.83259E+06    -23.8877E-03     47.1826E-03    -23.2948E-03     61.6379E-03    -23.8874E-03     46.9518E-03    -23.2002E-03     61.5073E-03
            1081     9.67272E-03     99.7666E-03    -12.5851E+06    -51.3939E+06     2.50887E+06    -8.07968E+06    -24.6054E-03     47.9065E-03    -23.3011E-03     69.1807E-03    -24.6233E-03     47.6899E-03    -23.1958E-03     69.0342E-03
            1082     10.5523E-03     99.8266E-03    -12.8029E+06    -52.8066E+06     2.23667E+06    -7.86237E+06    -25.7221E-03     49.0757E-03    -23.3537E-03     76.5225E-03    -25.7556E-03     48.8699E-03    -23.2473E-03     76.3599E-03
            1083     11.4292E-03     99.8943E-03    -12.4206E+06    -41.2012E+06     3.64935E+06    -8.47485E+06    -27.3610E-03     50.8307E-03    -23.4696E-03     85.3418E-03    -27.4433E-03     50.7120E-03    -23.3736E-03     85.1417E-03
            1084     12.3068E-03     99.9716E-03    -12.2831E+06    -38.3390E+06     5.24579E+06    -11.5188E+06    -29.1871E-03     52.8672E-03    -23.6801E-03     94.4386E-03    -29.3257E-03     52.8110E-03    -23.5805E-03     94.1604E-03
            1085     13.1818E-03     100.056E-03    -12.2147E+06    -63.3775E+06    -11.6706E+06    -12.8559E+06    -31.1441E-03     55.0639E-03    -23.9198E-03     97.1727E-03    -31.2911E-03     54.9765E-03    -23.8686E-03     96.8309E-03
            1086     14.0549E-03     100.139E-03    -11.1665E+06    -40.8913E+06    -14.6217E+06    -12.3386E+06    -33.2667E-03     57.4973E-03    -24.2305E-03     109.235E-03    -33.6225E-03     57.7107E-03    -24.2281E-03     108.836E-03
            1087     14.9281E-03     100.249E-03    -9.73470E+06    -9.44223E+06    -9.98498E+06    -10.2719E+06    -37.8640E-03     62.4651E-03    -24.6012E-03     165.222E-03    -39.2053E-03     63.7674E-03    -24.6233E-03     164.798E-03
            1088     15.8011E-03     100.443E-03    -8.66948E+06     72.5667E+06    -10.7666E+06    -5.11475E+06    -45.0966E-03     69.9907E-03    -24.8942E-03     255.359E-03    -51.1709E-03     76.3230E-03    -25.0407E-03     256.020E-03
            1089     16.6629E-03     100.734E-03    -5.86107E+06     176.651E+06     59.7144E+06    -1.46296E+06    -41.9706E-03     67.4529E-03    -25.4823E-03     252.082E-03    -50.4187E-03     76.3341E-03    -25.4314E-03     256.364E-03
            1090     879.474E-06     100.472E-03     7.18053E+06    -12.5515E+06     6.78365E+06    -3.21989E+06    -23.0092E-03     46.0316E-03    -23.0224E-03     6.10265E-03    -22.9650E-03     45.9487E-03    -22.9807E-03     6.06017E-03
            1091     1.75911E-03     100.479E-03     5.80285E+06    -16.4882E+06     4.56942E+06    -5.53403E+06    -22.9260E-03     45.9078E-03    -22.9818E-03     11.2903E-03    -22.8799E-03     45.8105E-03    -22.9435E-03     11.2172E-03
            1092     2.63876E-03     100.489E-03      3.6261E+06    -22.2912E+06     1.37777E+06    -7.17110E+06    -22.7977E-03     45.7165E-03    -22.9188E-03     16.8562E-03    -22.7496E-03     45.5981E-03    -22.8848E-03     16.7611E-03
            1093     3.51869E-03     100.505E-03     555.953E+03    -29.4306E+06    -2.35110E+06    -7.88331E+06    -22.6428E-03     45.4807E-03    -22.8379E-03     22.6095E-03    -22.5947E-03     45.3368E-03    -22.8078E-03     22.5042E-03
            1094     4.39873E-03     100.525E-03    -3.41672E+06    -36.9679E+06    -5.93877E+06    -7.73062E+06    -22.4840E-03     45.2300E-03    -22.7459E-03     28.5794E-03    -22.4401E-03     45.0598E-03    -22.7171E-03     28.4748E-03
            1095     5.27906E-03     100.550E-03    -7.90692E+06    -43.6420E+06    -8.59741E+06    -6.89079E+06    -22.3552E-03     45.0059E-03    -22.6507E-03     34.8009E-03    -22.3208E-03     44.8134E-03    -22.6190E-03     34.7057E-03
            1096     6.15951E-03     100.580E-03    -12.1095E+06    -48.2966E+06    -9.36895E+06    -6.07870E+06    -22.3020E-03     44.8641E-03    -22.5620E-03     41.3318E-03    -22.2819E-03     44.6566E-03    -22.5213E-03     41.2447E-03
            1097     7.04014E-03     100.616E-03    -15.7976E+06    -50.6371E+06    -7.78155E+06    -5.29406E+06    -22.3831E-03     44.8746E-03    -22.4914E-03     48.1982E-03    -22.3823E-03     44.6604E-03    -22.4340E-03     48.1178E-03
            1098     7.92071E-03     100.657E-03    -18.3685E+06    -52.2763E+06    -4.78605E+06    -4.98855E+06    -22.6862E-03     45.1346E-03    -22.4484E-03     55.4241E-03    -22.7035E-03     44.9149E-03    -22.3699E-03     55.3424E-03
            1099     8.80103E-03     100.705E-03    -19.2512E+06    -51.0747E+06    -1.40269E+06    -5.85951E+06    -23.2205E-03     45.6564E-03    -22.4359E-03     63.0744E-03    -23.2547E-03     45.4449E-03    -22.3409E-03     62.9734E-03
            1100     9.68131E-03     100.759E-03     -19.038E+06    -49.6742E+06     1.56973E+06    -7.03328E+06    -24.1548E-03     46.6244E-03    -22.4696E-03     70.9057E-03    -24.2043E-03     46.4254E-03    -22.3621E-03     70.7768E-03
            1101     10.5600E-03     100.821E-03    -17.7555E+06    -51.9885E+06     2.09260E+06    -7.54839E+06    -25.5955E-03     48.1622E-03    -22.5667E-03     78.8042E-03    -25.6535E-03     47.9665E-03    -22.4551E-03     78.6491E-03
            1102     11.4387E-03     100.890E-03    -15.8668E+06    -37.7302E+06     4.20317E+06    -8.63648E+06    -27.3349E-03     50.0639E-03    -22.7290E-03     88.1719E-03    -27.4391E-03     49.9656E-03    -22.6302E-03     87.9734E-03
            1103     12.3147E-03     100.969E-03    -13.6912E+06    -33.9128E+06     7.25796E+06    -11.2373E+06    -29.6019E-03     52.6027E-03    -23.0008E-03     97.3606E-03    -29.7585E-03     52.5693E-03    -22.8955E-03     97.0863E-03
            1104     13.1901E-03     101.056E-03    -12.5135E+06    -62.9154E+06    -10.5950E+06    -13.3218E+06    -31.9892E-03     55.3073E-03    -23.3181E-03     100.096E-03    -32.1441E-03     55.2253E-03    -23.2617E-03     99.7452E-03
            1105     14.0629E-03     101.143E-03    -12.1432E+06    -40.0393E+06    -13.6071E+06    -13.4739E+06    -34.5496E-03     58.2731E-03    -23.7235E-03     112.107E-03    -34.9242E-03     58.5021E-03    -23.7158E-03     111.681E-03
            1106     14.9340E-03     101.253E-03    -11.8958E+06    -12.7361E+06    -8.70315E+06    -11.8311E+06    -39.9726E-03     64.1959E-03    -24.2233E-03     167.187E-03    -41.3499E-03     65.5111E-03    -24.2311E-03     166.696E-03
            1107     15.8026E-03     101.450E-03    -10.2492E+06     66.0010E+06    -11.3455E+06    -7.63914E+06    -46.6756E-03     71.2989E-03    -24.6233E-03     257.943E-03    -52.8733E-03     77.7273E-03    -24.7608E-03     258.512E-03
            1108     16.6779E-03     101.748E-03    -6.26140E+06     173.681E+06     59.3805E+06    -3.21466E+06    -43.6325E-03     68.9273E-03    -25.2949E-03     252.235E-03    -52.1185E-03     77.8356E-03    -25.2407E-03     256.326E-03
            1109     880.463E-06     101.464E-03     3.45253E+06    -7.01303E+06     3.19219E+06    -2.31194E+06    -21.9386E-03     43.8956E-03    -21.9570E-03     6.13672E-03    -21.9158E-03     43.8509E-03    -21.9359E-03     6.10628E-03
            1110     1.76091E-03     101.470E-03     1.15520E+06    -11.9426E+06     140.356E+03    -3.60648E+06    -21.8568E-03     43.7699E-03    -21.9131E-03     11.3609E-03    -21.8341E-03     43.7084E-03    -21.8967E-03     11.3132E-03
            1111     2.64158E-03     101.481E-03    -2.45405E+06    -19.3472E+06    -4.00398E+06    -4.19737E+06    -21.7369E-03     43.5886E-03    -21.8517E-03     16.9626E-03    -21.7156E-03     43.5015E-03    -21.8401E-03     16.9067E-03
            1112     3.52233E-03     101.496E-03    -7.16609E+06    -28.0427E+06    -8.45472E+06    -3.74033E+06    -21.5958E-03     43.3725E-03    -21.7767E-03     22.7653E-03    -21.5792E-03     43.2553E-03    -21.7679E-03     22.7147E-03
            1113     4.40335E-03     101.516E-03    -12.5741E+06    -36.7823E+06    -11.9441E+06    -2.57062E+06    -21.4639E-03     43.1607E-03    -21.6968E-03     28.8010E-03    -21.4569E-03     43.0131E-03    -21.6850E-03     28.7646E-03
            1114     5.28448E-03     101.540E-03    -17.8055E+06    -43.6979E+06    -13.6709E+06    -1.55064E+06    -21.3773E-03     42.9965E-03    -21.6192E-03     35.1277E-03    -21.3845E-03     42.8250E-03    -21.5984E-03     35.1033E-03
            1115     6.16580E-03     101.571E-03    -22.1245E+06    -47.8731E+06    -13.1873E+06    -1.22238E+06    -21.3818E-03     42.9336E-03    -21.5518E-03     41.8042E-03    -21.4062E-03     42.7476E-03    -21.5162E-03     41.7821E-03
            1116     7.04713E-03     101.606E-03    -24.6382E+06    -50.3911E+06    -10.4775E+06    -1.37256E+06    -21.5497E-03     43.0548E-03    -21.5052E-03     48.8886E-03    -21.5885E-03     42.8577E-03    -21.4488E-03     48.8616E-03
            1117     7.92840E-03     101.648E-03    -24.8579E+06    -50.1014E+06    -6.10825E+06    -2.81425E+06    -21.9355E-03     43.4216E-03    -21.4862E-03     56.4156E-03    -21.9853E-03     43.2230E-03    -21.4080E-03     56.3651E-03
            1118     8.80945E-03     101.696E-03    -23.6291E+06    -48.7313E+06    -1.59910E+06    -4.79032E+06    -22.6456E-03     44.1510E-03    -21.5054E-03     64.3410E-03    -22.7033E-03     43.9564E-03    -21.4085E-03     64.2572E-03
            1119     9.68976E-03     101.751E-03    -21.9109E+06    -47.3641E+06     1.72506E+06    -6.28186E+06    -23.7986E-03     45.3768E-03    -21.5782E-03     72.7276E-03    -23.8645E-03     45.1917E-03    -21.4691E-03     72.6120E-03
            1120     10.5695E-03     101.815E-03    -19.2753E+06    -49.5629E+06     2.55574E+06    -8.66604E+06    -25.3283E-03     47.0460E-03    -21.7178E-03     81.1464E-03    -25.3964E-03     46.8624E-03    -21.6052E-03     80.9811E-03
            1121     11.4473E-03     101.885E-03    -15.7787E+06    -35.7478E+06     4.83339E+06    -10.0114E+06    -27.3847E-03     49.3125E-03    -21.9278E-03     91.0659E-03    -27.4916E-03     49.2226E-03    -21.8290E-03     90.8526E-03
            1122     12.3246E-03     101.967E-03    -13.6442E+06    -30.0752E+06      8.4267E+06    -11.5384E+06    -30.1617E-03     52.4288E-03    -22.2671E-03     101.091E-03    -30.3278E-03     52.4154E-03    -22.1615E-03     100.813E-03
            1123     13.1978E-03     102.057E-03    -12.5181E+06    -60.7220E+06    -9.01352E+06    -13.7054E+06    -33.0631E-03     55.7427E-03    -22.6797E-03     103.509E-03    -33.2300E-03     55.6760E-03    -22.6186E-03     103.147E-03
            1124     14.0707E-03     102.144E-03    -11.8908E+06    -39.0409E+06    -12.0814E+06    -14.0394E+06    -36.2364E-03     59.4370E-03    -23.2006E-03     115.163E-03    -36.6297E-03     59.6848E-03    -23.1871E-03     114.710E-03
            1125     14.9400E-03     102.262E-03    -10.0909E+06    -14.0168E+06    -6.26381E+06    -13.4426E+06    -42.0863E-03     65.9225E-03    -23.8361E-03     169.957E-03    -43.4964E-03     67.2653E-03    -23.8325E-03     169.398E-03
            1126     15.8082E-03     102.458E-03    -7.25710E+06     59.5143E+06    -12.8848E+06    -10.0260E+06    -47.8119E-03     72.1430E-03    -24.3312E-03     257.252E-03    -53.9648E-03     78.5189E-03    -24.4714E-03     257.771E-03
            1127     16.6754E-03     102.751E-03    -4.67538E+06     168.235E+06     56.1714E+06    -3.93105E+06    -45.2776E-03     70.3681E-03    -25.0904E-03     250.617E-03    -53.7061E-03     79.2144E-03    -25.0467E-03     254.536E-03
            1128     881.453E-06     102.453E-03    -4.35317E+06    -4.40186E+06    -4.13272E+06    -358.399E+03    -20.7321E-03     41.4754E-03    -20.7433E-03     6.14154E-03    -20.7416E-03     41.4657E-03    -20.7512E-03     6.13660E-03
            1129     1.76306E-03     102.460E-03    -7.76360E+06    -10.6263E+06    -7.68781E+06     39.4203E+03    -20.6647E-03     41.3748E-03    -20.7101E-03     11.3641E-03    -20.6771E-03     41.3441E-03    -20.7219E-03     11.3640E-03
            1130     2.64465E-03     102.470E-03    -12.8228E+06    -19.2817E+06    -11.7563E+06     1.07453E+06    -20.5721E-03     41.2363E-03    -20.6643E-03     16.9731E-03    -20.5914E-03     41.1756E-03    -20.6765E-03     16.9860E-03
            1131     3.52647E-03     102.485E-03    -18.6135E+06    -29.1948E+06    -15.3833E+06     2.50328E+06    -20.4754E-03     41.0878E-03    -20.6124E-03     22.8004E-03    -20.5041E-03     40.9913E-03    -20.6200E-03     22.8314E-03
            1132     4.40835E-03     102.505E-03    -24.0179E+06    -38.2083E+06    -17.4574E+06     3.89004E+06    -20.4014E-03     40.9617E-03    -20.5603E-03     28.8889E-03    -20.4413E-03     40.8312E-03    -20.5574E-03     28.9372E-03
            1133     5.29041E-03     102.529E-03    -28.2158E+06    -43.9686E+06    -17.3305E+06     4.23246E+06    -20.3829E-03     40.8956E-03    -20.5128E-03     35.3097E-03    -20.4360E-03     40.7427E-03    -20.4947E-03     35.3614E-03
            1134     6.17250E-03     102.559E-03    -30.5155E+06    -47.0222E+06    -15.1177E+06     3.22865E+06    -20.4730E-03     40.9496E-03    -20.4766E-03     42.1382E-03    -20.5372E-03     40.7823E-03    -20.4398E-03     42.1754E-03
            1135     7.05460E-03     102.595E-03    -30.5229E+06    -48.3554E+06    -11.3581E+06     828.745E+03    -20.7312E-03     41.1910E-03    -20.4598E-03     49.4610E-03    -20.8003E-03     41.0130E-03    -20.4022E-03     49.4646E-03
            1136     7.93653E-03     102.636E-03    -28.7982E+06    -46.6353E+06    -6.64116E+06    -2.24161E+06    -21.2231E-03     41.6929E-03    -20.4698E-03     57.2651E-03    -21.2957E-03     41.5169E-03    -20.3937E-03     57.2247E-03
            1137     8.81811E-03     102.685E-03    -26.3194E+06    -46.2696E+06    -2.33209E+06    -4.68812E+06    -22.1122E-03     42.6375E-03    -20.5253E-03     65.6967E-03    -22.1845E-03     42.4589E-03    -20.4317E-03     65.6173E-03
            1138     9.69892E-03     102.742E-03    -23.0630E+06    -44.2678E+06     1.12146E+06    -7.10235E+06    -23.3662E-03     44.0028E-03    -20.6365E-03     74.5954E-03    -23.4398E-03     43.8340E-03    -20.5333E-03     74.4730E-03
            1139     10.5787E-03     102.807E-03    -19.5331E+06    -45.5157E+06     2.55554E+06    -10.2948E+06    -25.0805E-03     45.9002E-03    -20.8197E-03     83.5118E-03    -25.1542E-03     45.7355E-03    -20.7126E-03     83.3292E-03
            1140     11.4577E-03     102.879E-03    -16.3013E+06    -35.1933E+06     4.06304E+06    -11.9082E+06    -27.5142E-03     48.6000E-03    -21.0858E-03     94.2529E-03    -27.6231E-03     48.5143E-03    -20.9908E-03     94.0176E-03
            1141     12.3334E-03     102.964E-03    -13.5899E+06     -26.994E+06     8.60335E+06    -11.9517E+06    -30.6315E-03     52.1251E-03    -21.4936E-03     104.895E-03    -30.8041E-03     52.1289E-03    -21.3918E-03     104.612E-03
            1142     13.2085E-03     103.057E-03    -12.4075E+06    -56.9561E+06    -7.26104E+06    -14.2784E+06    -34.1696E-03     56.1714E-03    -22.0018E-03     107.805E-03    -34.3513E-03     56.1282E-03    -21.9375E-03     107.429E-03
            1143     14.0772E-03     103.150E-03    -10.6537E+06    -38.2462E+06    -11.3691E+06    -15.4807E+06    -38.2526E-03     60.8951E-03    -22.6426E-03     120.082E-03    -38.6665E-03     61.1688E-03    -22.6285E-03     119.587E-03
            1144     14.9459E-03     103.268E-03    -8.22154E+06    -13.6823E+06    -5.30236E+06    -15.5745E+06    -44.3347E-03     67.7549E-03    -23.4202E-03     173.139E-03    -45.7660E-03     69.1241E-03    -23.4150E-03     172.507E-03
            1145     15.8123E-03     103.470E-03    -6.96750E+06     52.1118E+06    -14.5602E+06    -12.5699E+06    -50.6244E-03     74.6975E-03    -24.0731E-03     256.232E-03    -56.7193E-03     80.9951E-03    -24.2113E-03     256.505E-03
            1146     16.6807E-03     103.759E-03    -5.02182E+06     160.525E+06     52.5994E+06    -4.55608E+06    -47.0734E-03     72.0368E-03    -24.9634E-03     250.281E-03    -55.4918E-03     80.8547E-03    -24.9258E-03     253.995E-03
            1147     882.659E-06     103.441E-03    -17.1006E+06    -7.44118E+06    -15.6631E+06     3.48327E+06    -19.4388E-03     38.8709E-03    -19.4321E-03     6.07817E-03    -19.4908E-03     38.8812E-03    -19.4749E-03     6.12302E-03
            1148     1.76526E-03     103.447E-03    -21.3480E+06    -13.9288E+06    -18.2436E+06     5.85214E+06    -19.4003E-03     38.8281E-03    -19.4278E-03     11.2638E-03    -19.4604E-03     38.8158E-03    -19.4678E-03     11.3391E-03
            1149     2.64802E-03     103.457E-03    -26.3105E+06    -22.9086E+06    -20.2914E+06     8.18849E+06    -19.3608E-03     38.7746E-03    -19.4138E-03     16.8539E-03    -19.4298E-03     38.7276E-03    -19.4439E-03     16.9592E-03
            1150     3.53077E-03     103.472E-03    -31.1812E+06    -32.4984E+06    -21.3274E+06     10.0021E+06    -19.3352E-03     38.7348E-03    -19.3996E-03     22.6921E-03    -19.4133E-03     38.6485E-03    -19.4139E-03     22.8206E-03
            1151     4.41364E-03     103.491E-03    -34.8510E+06    -39.9038E+06    -21.0306E+06     10.2325E+06    -19.3443E-03     38.7298E-03    -19.3855E-03     28.8377E-03    -19.4305E-03     38.6115E-03    -19.3823E-03     28.9688E-03
            1152     5.29651E-03     103.516E-03    -36.1225E+06    -43.4156E+06    -19.1538E+06     8.52128E+06    -19.4125E-03     38.7855E-03    -19.3730E-03     35.3533E-03    -19.5029E-03     38.6490E-03    -19.3534E-03     35.4616E-03
            1153     6.17942E-03     103.546E-03     -35.116E+06    -44.8220E+06    -15.8727E+06     5.45841E+06    -19.5902E-03     38.9600E-03    -19.3697E-03     42.3452E-03    -19.6790E-03     38.8109E-03    -19.3332E-03     42.4126E-03
            1154     7.06222E-03     103.581E-03    -32.9788E+06    -44.3505E+06    -11.7422E+06     1.56371E+06    -19.9310E-03     39.3148E-03    -19.3839E-03     49.8880E-03    -20.0169E-03     39.1603E-03    -19.3305E-03     49.9030E-03
            1155     7.94484E-03     103.624E-03    -30.5502E+06    -42.8112E+06    -7.51404E+06    -2.20283E+06    -20.5447E-03     39.9720E-03    -19.4274E-03     58.0534E-03    -20.6293E-03     39.8180E-03    -19.3586E-03     58.0159E-03
            1156     8.82693E-03     103.673E-03    -27.6055E+06    -42.9604E+06    -3.82918E+06    -5.45777E+06    -21.5048E-03     41.0217E-03    -19.5168E-03     66.9757E-03    -21.5848E-03     40.8621E-03    -19.4337E-03     66.8894E-03
            1157     9.70835E-03     103.731E-03    -23.9453E+06    -39.6585E+06    -108.068E+03    -9.03645E+06    -22.8815E-03     42.5452E-03    -19.6637E-03     76.3788E-03    -22.9626E-03     42.4007E-03    -19.5720E-03     76.2351E-03
            1158     10.5889E-03     103.797E-03    -20.0912E+06    -41.1650E+06     1.92657E+06    -12.3201E+06    -24.8829E-03     44.7772E-03    -19.8943E-03     86.0526E-03    -24.9631E-03     44.6344E-03    -19.7959E-03     85.8475E-03
            1159     11.4668E-03     103.873E-03    -16.8468E+06    -34.2203E+06     3.26296E+06    -13.2539E+06    -27.6847E-03     47.9077E-03    -20.2230E-03     97.6468E-03    -27.7960E-03     47.8283E-03    -20.1326E-03     97.3968E-03
            1160     12.3441E-03     103.961E-03    -14.0248E+06    -25.3885E+06     7.61599E+06    -13.4782E+06    -31.1075E-03     51.8062E-03    -20.6987E-03     109.001E-03    -31.2847E-03     51.8215E-03    -20.6035E-03     108.698E-03
            1161     13.2161E-03     104.059E-03    -11.2146E+06    -52.4882E+06    -5.88629E+06    -15.1023E+06    -35.0428E-03     56.3348E-03    -21.2920E-03     112.779E-03    -35.2334E-03     56.3167E-03    -21.2291E-03     112.388E-03
            1162     14.0883E-03     104.154E-03    -10.5410E+06    -36.9451E+06    -11.3271E+06    -17.0873E+06    -39.8795E-03     61.9131E-03    -22.0336E-03     125.619E-03    -40.3120E-03     62.2103E-03    -22.0213E-03     125.086E-03
            1163     14.9527E-03     104.281E-03    -9.62361E+06    -13.0109E+06    -5.85771E+06    -17.7902E+06    -46.8990E-03     69.8454E-03    -22.9465E-03     177.734E-03    -48.3652E-03     71.2487E-03    -22.9429E-03     177.013E-03
            1164     15.8165E-03     104.479E-03    -8.30788E+06     44.7249E+06    -15.4051E+06    -14.1505E+06    -53.7017E-03     77.4697E-03    -23.7679E-03     259.243E-03    -59.8228E-03     83.7649E-03    -23.8978E-03     259.288E-03
            1165     16.6771E-03     104.774E-03    -4.27514E+06     150.680E+06     50.6116E+06    -5.74392E+06    -49.2155E-03     74.0079E-03    -24.7924E-03     249.940E-03    -57.5689E-03     82.7342E-03    -24.7516E-03     253.360E-03
            1166     883.755E-06     104.425E-03    -33.5818E+06    -19.5363E+06    -30.4963E+06     9.02618E+06    -18.1275E-03     36.2628E-03    -18.1352E-03     5.94548E-03    -18.2229E-03     36.2580E-03    -18.2107E-03     6.06199E-03
            1167     1.76758E-03     104.432E-03    -37.0467E+06    -22.5774E+06    -29.5045E+06     13.5349E+06    -18.1410E-03     36.2931E-03    -18.1522E-03     11.0576E-03    -18.2507E-03     36.2767E-03    -18.2132E-03     11.2323E-03
            1168     2.65130E-03     104.442E-03    -40.3017E+06    -29.3153E+06    -27.9313E+06     15.7283E+06    -18.1683E-03     36.3447E-03    -18.1764E-03     16.6080E-03    -18.2868E-03     36.2970E-03    -18.2151E-03     16.8110E-03
            1169     3.53510E-03     104.457E-03    -41.4837E+06    -36.4775E+06    -25.7540E+06     15.9756E+06    -18.2253E-03     36.4252E-03    -18.2000E-03     22.4645E-03    -18.3425E-03     36.3403E-03    -18.2157E-03     22.6705E-03
            1170     4.41884E-03     104.476E-03    -40.5001E+06    -40.5979E+06    -22.8256E+06     14.1782E+06    -18.3242E-03     36.5449E-03    -18.2207E-03     28.6685E-03    -18.4348E-03     36.4338E-03    -18.2173E-03     28.8511E-03
            1171     5.30258E-03     104.500E-03    -38.6190E+06    -41.3953E+06    -19.6961E+06     10.6347E+06    -18.4819E-03     36.7227E-03    -18.2408E-03     35.2831E-03    -18.5867E-03     36.6005E-03    -18.2233E-03     35.4195E-03
            1172     6.18624E-03     104.530E-03    -36.4700E+06    -41.1824E+06    -16.6002E+06      6.1825E+06    -18.7336E-03     37.0017E-03    -18.2681E-03     42.4102E-03    -18.8330E-03     36.8734E-03    -18.2385E-03     42.4882E-03
            1173     7.06980E-03     104.566E-03    -33.8937E+06    -39.5910E+06    -12.8993E+06     1.53012E+06    -19.1525E-03     37.4655E-03    -18.3130E-03     50.1684E-03    -19.2476E-03     37.3371E-03    -18.2709E-03     50.1845E-03
            1174     7.95305E-03     104.609E-03    -30.8857E+06    -38.7390E+06    -8.94372E+06    -2.57935E+06    -19.8380E-03     38.2277E-03    -18.3897E-03     58.6980E-03    -19.9271E-03     38.0956E-03    -18.3335E-03     58.6577E-03
            1175     8.83578E-03     104.660E-03    -27.6415E+06    -37.8301E+06    -5.05357E+06    -6.72501E+06    -20.8717E-03     39.3830E-03    -18.5113E-03     68.0403E-03    -20.9560E-03     39.2495E-03    -18.4416E-03     67.9405E-03
            1176     9.71782E-03     104.718E-03    -24.2663E+06    -34.4653E+06    -1.14910E+06    -10.8538E+06    -22.3680E-03     41.0610E-03    -18.6930E-03     78.0553E-03    -22.4548E-03     40.9426E-03    -18.6136E-03     77.8917E-03
            1177     10.5983E-03     104.787E-03    -21.2269E+06    -37.1931E+06     668.766E+03    -13.8577E+06    -24.5749E-03     43.5386E-03    -18.9637E-03     88.6534E-03    -24.6625E-03     43.4170E-03    -18.8757E-03     88.4326E-03
            1178     11.4778E-03     104.865E-03    -18.3324E+06    -33.1878E+06     1.49250E+06    -15.3511E+06    -27.6722E-03     47.0132E-03    -19.3409E-03     101.544E-03    -27.7884E-03     46.9422E-03    -19.2588E-03     101.271E-03
            1179     12.3528E-03     104.958E-03    -14.1398E+06    -23.7322E+06     6.49070E+06    -15.5313E+06    -31.4207E-03     51.2934E-03    -19.8728E-03     113.849E-03    -31.5990E-03     51.3187E-03    -19.7854E-03     113.522E-03
            1180     13.2281E-03     105.058E-03    -11.0001E+06    -49.0621E+06    -5.18478E+06    -16.9477E+06    -36.0366E-03     56.5843E-03    -20.5476E-03     119.041E-03    -36.2401E-03     56.5900E-03    -20.4864E-03     118.621E-03
            1181     14.0944E-03     105.163E-03    -8.42180E+06    -33.5666E+06    -8.38858E+06    -18.7694E+06    -41.2291E-03     62.6210E-03    -21.3919E-03     131.886E-03    -41.6751E-03     62.9427E-03    -21.3730E-03     131.317E-03
            1182     14.9621E-03     105.290E-03    -6.98548E+06    -12.2781E+06    -3.11006E+06    -19.2145E+06    -48.7605E-03     71.1695E-03    -22.4090E-03     183.586E-03    -50.2437E-03     72.5939E-03    -22.3966E-03     182.797E-03
            1183     15.8238E-03     105.499E-03    -6.21154E+06     36.3452E+06    -18.9775E+06    -14.1639E+06    -55.7332E-03     79.0519E-03    -23.3187E-03     262.712E-03    -61.7383E-03     85.2192E-03    -23.4572E-03     262.626E-03
            1184     16.6894E-03     105.787E-03    -4.48501E+06     142.104E+06     45.9270E+06    -6.10093E+06    -52.8134E-03     77.3037E-03    -24.4904E-03     250.327E-03    -61.0657E-03     85.9117E-03    -24.4603E-03     253.383E-03
            1185     884.872E-06     105.408E-03    -54.0618E+06    -39.4438E+06    -51.9358E+06     11.3922E+06    -16.9211E-03     33.8665E-03    -16.9454E-03     5.76692E-03    -17.0590E-03     33.8230E-03    -17.0695E-03     5.91398E-03
            1186     1.76964E-03     105.414E-03    -51.0020E+06    -36.5261E+06    -42.9943E+06     18.0954E+06    -16.9663E-03     33.9408E-03    -16.9745E-03     10.7647E-03    -17.1061E-03     33.8944E-03    -17.0625E-03     10.9983E-03
            1187     2.65443E-03     105.424E-03    -48.3468E+06    -36.9656E+06    -34.5819E+06     20.7043E+06    -17.0496E-03     34.0738E-03    -17.0242E-03     16.2785E-03    -17.1876E-03     34.0091E-03    -17.0734E-03     16.5459E-03
            1188     3.53910E-03     105.439E-03    -45.9002E+06    -39.1647E+06    -28.8949E+06     18.9882E+06    -17.1842E-03     34.2564E-03    -17.0722E-03     22.1598E-03    -17.3150E-03     34.1689E-03    -17.0933E-03     22.4050E-03
            1189     4.42376E-03     105.458E-03    -42.6435E+06    -39.7281E+06    -24.9952E+06     14.9470E+06    -17.3566E-03     34.4719E-03    -17.1154E-03     28.3889E-03    -17.4760E-03     34.3713E-03    -17.1209E-03     28.5818E-03
            1190     5.30834E-03     105.482E-03    -38.4931E+06    -38.6165E+06    -21.2354E+06     10.4422E+06    -17.5811E-03     34.7417E-03    -17.1607E-03     35.0523E-03    -17.6869E-03     34.6353E-03    -17.1550E-03     35.1867E-03
            1191     6.19277E-03     105.513E-03    -34.5581E+06    -36.9753E+06    -17.4052E+06     5.94169E+06    -17.9070E-03     35.1229E-03    -17.2159E-03     42.2861E-03    -18.0014E-03     35.0138E-03    -17.1992E-03     42.3617E-03
            1192     7.07701E-03     105.549E-03    -31.7856E+06    -34.9922E+06    -13.5838E+06     1.59345E+06    -18.3966E-03     35.6872E-03    -17.2906E-03     50.2581E-03    -18.4863E-03     35.5792E-03    -17.2617E-03     50.2762E-03
            1193     7.96089E-03     105.593E-03    -29.6988E+06    -33.6387E+06    -9.82984E+06    -2.92863E+06    -19.1307E-03     36.5270E-03    -17.3963E-03     59.0779E-03    -19.2192E-03     36.4191E-03    -17.3536E-03     59.0348E-03
            1194     8.84436E-03     105.644E-03    -26.7713E+06    -31.4520E+06    -5.71572E+06    -8.15228E+06    -20.2204E-03     37.7658E-03    -17.5454E-03     68.8714E-03    -20.3074E-03     37.6626E-03    -17.4895E-03     68.7558E-03
            1195     9.72674E-03     105.705E-03    -23.7248E+06    -30.0499E+06    -1.90646E+06    -11.9214E+06    -21.8032E-03     39.5601E-03    -17.7570E-03     79.5304E-03    -21.8905E-03     39.4621E-03    -17.6885E-03     79.3566E-03
            1196     10.6084E-03     105.775E-03    -21.2934E+06    -33.0271E+06    -99.7657E+03    -14.6623E+06    -24.0844E-03     42.1389E-03    -18.0545E-03     91.1427E-03    -24.1744E-03     42.0363E-03    -17.9762E-03     90.9164E-03
            1197     11.4870E-03     105.857E-03    -18.2712E+06    -29.8256E+06     1.38504E+06    -17.7255E+06    -27.2586E-03     45.7168E-03    -18.4582E-03     105.269E-03    -27.3754E-03     45.6589E-03    -18.3815E-03     104.971E-03
            1198     12.3653E-03     105.952E-03    -14.1884E+06    -22.4982E+06     5.94116E+06    -19.2058E+06    -31.5581E-03     50.5829E-03    -19.0249E-03     118.961E-03    -31.7362E-03     50.6139E-03    -18.9420E-03     118.591E-03
            1199     13.2365E-03     106.060E-03    -9.62823E+06    -46.2189E+06    -3.26397E+06    -19.7455E+06    -36.6510E-03     56.4145E-03    -19.7636E-03     125.820E-03    -36.8582E-03     56.4334E-03    -19.6989E-03     125.363E-03
            1200     14.1074E-03     106.169E-03    -6.76777E+06    -29.6487E+06    -4.84602E+06    -21.3517E+06    -42.4535E-03     63.1436E-03    -20.6902E-03     139.246E-03    -42.9168E-03     63.4924E-03    -20.6616E-03     138.630E-03
            1201     14.9699E-03     106.303E-03    -4.02585E+06    -13.8589E+06    -827.677E+03    -20.1948E+06    -50.3577E-03     72.1545E-03    -21.7968E-03     190.092E-03    -51.8382E-03     73.5745E-03    -21.7750E-03     189.251E-03
            1202     15.8324E-03     106.515E-03    -3.49049E+06     28.1553E+06    -20.4253E+06    -14.1985E+06    -57.4225E-03     80.2093E-03    -22.7868E-03     265.757E-03    -63.1643E-03     86.0981E-03    -22.9246E-03     265.507E-03
            1203     16.6915E-03     106.801E-03    -4.64203E+06     134.311E+06     42.8734E+06    -6.07189E+06    -58.0830E-03     82.2099E-03    -24.1269E-03     254.535E-03    -66.2522E-03     90.7162E-03    -24.1005E-03     257.121E-03
            1204     885.616E-06     106.387E-03    -87.5675E+06    -56.7512E+06    -87.8461E+06     6.10225E+06    -15.8983E-03     31.8205E-03    -15.9221E-03     5.58820E-03    -16.1265E-03     31.7911E-03    -16.1521E-03     5.66694E-03
            1205     1.77136E-03     106.394E-03    -75.6666E+06    -50.7119E+06    -72.2936E+06     11.1136E+06    -15.9319E-03     31.8820E-03    -15.9500E-03     10.4316E-03    -16.1319E-03     31.8429E-03    -16.1283E-03     10.5751E-03
            1206     2.65705E-03     106.404E-03    -60.6486E+06    -45.2211E+06    -53.1117E+06     14.7637E+06    -16.0274E-03     32.0374E-03    -16.0099E-03     15.8185E-03    -16.1881E-03     31.9762E-03    -16.1220E-03     16.0091E-03
            1207     3.54269E-03     106.419E-03    -47.6876E+06    -41.4451E+06    -38.0236E+06     15.1661E+06    -16.2009E-03     32.2712E-03    -16.0704E-03     21.6433E-03    -16.3241E-03     32.1882E-03    -16.1312E-03     21.8391E-03
            1208     4.42814E-03     106.438E-03    -39.7464E+06    -38.8580E+06    -29.1169E+06     13.1115E+06    -16.4360E-03     32.5628E-03    -16.1268E-03     27.8972E-03    -16.5361E-03     32.4682E-03    -16.1584E-03     28.0666E-03
            1209     5.31344E-03     106.463E-03    -36.3281E+06    -35.8978E+06    -23.7932E+06     9.76939E+06    -16.7324E-03     32.9215E-03    -16.1891E-03     34.6030E-03    -16.8276E-03     32.8292E-03    -16.2033E-03     34.7291E-03
            1210     6.19866E-03     106.494E-03    -34.2634E+06    -32.5739E+06    -19.4594E+06     5.25530E+06    -17.1204E-03     33.3864E-03    -16.2660E-03     41.8935E-03    -17.2165E-03     33.3016E-03    -16.2664E-03     41.9607E-03
            1211     7.08357E-03     106.531E-03    -30.7478E+06    -30.1037E+06    -14.8449E+06     229.983E+03    -17.6632E-03     34.0281E-03    -16.3649E-03     49.9953E-03    -17.7526E-03     33.9445E-03    -16.3509E-03     49.9967E-03
            1212     7.96819E-03     106.575E-03    -26.1060E+06    -28.3587E+06    -9.90783E+06    -4.22371E+06    -18.4483E-03     34.9422E-03    -16.4939E-03     59.0782E-03    -18.5257E-03     34.8549E-03    -16.4645E-03     59.0198E-03
            1213     8.85203E-03     106.628E-03    -23.6442E+06    -25.3206E+06    -5.29892E+06    -8.15861E+06    -19.5621E-03     36.2267E-03    -16.6645E-03     69.2634E-03    -19.6415E-03     36.1476E-03    -16.6200E-03     69.1500E-03
            1214     9.73544E-03     106.689E-03    -22.4969E+06    -25.7164E+06    -1.89197E+06    -11.9322E+06    -21.1603E-03     38.0561E-03    -16.8958E-03     80.5342E-03    -21.2454E-03     37.9755E-03    -16.8354E-03     80.3639E-03
            1215     10.6169E-03     106.762E-03    -19.7948E+06    -26.9542E+06     874.827E+03    -16.2007E+06    -23.4371E-03     40.6434E-03    -17.2063E-03     93.0867E-03    -23.5261E-03     40.5639E-03    -17.1341E-03     92.8460E-03
            1216     11.4979E-03     106.846E-03    -16.2563E+06    -25.4065E+06     3.27601E+06    -19.6787E+06    -26.7213E-03     44.3458E-03    -17.6245E-03     108.314E-03    -26.8317E-03     44.2989E-03    -17.5477E-03     107.999E-03
            1217     12.3741E-03     106.947E-03    -14.0611E+06    -20.2603E+06     6.23574E+06    -21.4389E+06    -31.2637E-03     49.4644E-03    -18.2006E-03     123.939E-03    -31.4402E-03     49.5011E-03    -18.1197E-03     123.548E-03
            1218     13.2492E-03     107.060E-03    -11.4197E+06    -42.9150E+06    -2.07627E+06    -24.1244E+06    -36.7191E-03     55.6861E-03    -18.9670E-03     132.162E-03    -36.9377E-03     55.7183E-03    -18.8986E-03     131.655E-03
            1219     14.1164E-03     107.175E-03    -6.98921E+06    -28.4333E+06    -2.32947E+06    -24.3929E+06    -43.3823E-03     63.3322E-03    -19.9500E-03     146.772E-03    -43.8591E-03     63.6908E-03    -19.9102E-03     146.108E-03
            1220     14.9814E-03     107.318E-03    -4.61120E+06    -16.2741E+06    -33.2448E+03    -22.3937E+06    -52.2721E-03     73.4196E-03    -21.1475E-03     195.282E-03    -53.7336E-03     74.8077E-03    -21.1173E-03     194.362E-03
            1221     15.8423E-03     107.530E-03    -2.88351E+06     18.8972E+06    -20.4142E+06    -15.2939E+06    -60.6357E-03     82.9266E-03    -22.2909E-03     266.353E-03    -66.0510E-03     88.4585E-03    -22.4162E-03     265.774E-03
            1222     16.7042E-03     107.824E-03    -5.89586E+06     125.563E+06     42.2415E+06    -4.91661E+06    -63.2337E-03     87.0734E-03    -23.8397E-03     259.910E-03    -71.3118E-03     95.4553E-03    -23.8020E-03     261.985E-03
            1223     886.230E-06     107.365E-03    -109.203E+06    -61.2146E+06    -109.745E+06    -1.70460E+06    -15.1796E-03     30.3774E-03    -15.1978E-03     5.41159E-03    -15.4777E-03     30.3888E-03    -15.4994E-03     5.38947E-03
            1224     1.77246E-03     107.371E-03    -100.567E+06    -56.3504E+06    -99.1351E+06    -2.01428E+06    -15.1845E-03     30.3908E-03    -15.2063E-03     10.0811E-03    -15.4620E-03     30.3986E-03    -15.4744E-03     10.0549E-03
            1225     2.65879E-03     107.382E-03    -86.8180E+06    -50.2105E+06    -84.4910E+06    -1.00318E+06    -15.2128E-03     30.4431E-03    -15.2303E-03     15.2305E-03    -15.4516E-03     30.4405E-03    -15.4541E-03     15.2174E-03
            1226     3.54518E-03     107.397E-03    -70.1154E+06    -44.0613E+06    -68.9815E+06     574.265E+03    -15.3166E-03     30.5750E-03    -15.2585E-03     20.8051E-03    -15.5033E-03     30.5564E-03    -15.4378E-03     20.8124E-03
            1227     4.43156E-03     107.417E-03    -53.3252E+06    -40.1911E+06    -52.2822E+06     2.18083E+06    -15.5431E-03     30.8546E-03    -15.3115E-03     26.8866E-03    -15.6756E-03     30.8067E-03    -15.4373E-03     26.9147E-03
            1228     5.31776E-03     107.442E-03    -39.0715E+06    -35.5224E+06    -35.9423E+06     3.32735E+06    -15.8938E-03     31.2845E-03    -15.3907E-03     33.5672E-03    -15.9856E-03     31.2157E-03    -15.4622E-03     33.6101E-03
            1229     6.20349E-03     107.473E-03    -29.8118E+06    -28.9768E+06    -23.1237E+06     2.25435E+06    -16.3706E-03     31.8576E-03    -15.4870E-03     40.9710E-03    -16.4443E-03     31.7896E-03    -15.5174E-03     40.9997E-03
            1230     7.08905E-03     107.510E-03    -26.1615E+06    -25.3461E+06    -15.3639E+06    -930.095E+03    -17.0015E-03     32.6055E-03    -15.6040E-03     49.2041E-03    -17.0739E-03     32.5396E-03    -15.6061E-03     49.1909E-03
            1231     7.97408E-03     107.556E-03    -25.7013E+06    -23.3196E+06    -10.8027E+06    -4.87322E+06    -17.8165E-03     33.5646E-03    -15.7481E-03     58.4195E-03    -17.8973E-03     33.5027E-03    -15.7311E-03     58.3537E-03
            1232     8.85887E-03     107.609E-03    -23.6433E+06    -20.3707E+06    -5.77605E+06    -8.63044E+06    -18.9083E-03     34.8403E-03    -15.9319E-03     68.8688E-03    -18.9930E-03     34.7854E-03    -15.8970E-03     68.7513E-03
            1233     9.74231E-03     107.673E-03    -20.0724E+06    -20.3418E+06    -798.029E+03    -12.4257E+06    -20.4713E-03     36.6424E-03    -16.1711E-03     80.6855E-03    -20.5511E-03     36.5811E-03    -16.1165E-03     80.5123E-03
            1234     10.6254E-03     107.747E-03    -17.6477E+06    -19.6485E+06     3.18836E+06    -17.0657E+06    -22.7442E-03     39.2284E-03    -16.4842E-03     94.0418E-03    -22.8320E-03     39.1746E-03    -16.4142E-03     93.7954E-03
            1235     11.5054E-03     107.835E-03    -16.2832E+06    -21.3813E+06     4.82863E+06    -20.6802E+06    -26.0593E-03     42.9615E-03    -16.9022E-03     110.495E-03    -26.1705E-03     42.9251E-03    -16.8235E-03     110.175E-03
            1236     12.3848E-03     107.939E-03    -14.6389E+06    -17.9753E+06     6.98784E+06    -21.5948E+06    -30.6571E-03     48.1266E-03    -17.4695E-03     127.842E-03    -30.8303E-03     48.1640E-03    -17.3873E-03     127.460E-03
            1237     13.2581E-03     108.058E-03    -13.7792E+06    -34.3074E+06     1.28133E+06    -25.8840E+06    -36.5332E-03     54.7756E-03    -18.2424E-03     137.659E-03    -36.7706E-03     54.8391E-03    -18.1662E-03     137.140E-03
            1238     14.1285E-03     108.181E-03    -10.9864E+06    -28.9138E+06    -2.44899E+06    -30.2423E+06    -44.2211E-03     63.4800E-03    -19.2589E-03     153.603E-03    -44.7090E-03     63.8342E-03    -19.2133E-03     152.861E-03
            1239     14.9909E-03     108.332E-03    -5.39637E+06    -20.7676E+06     181.845E+03    -25.4173E+06    -55.1017E-03     75.6728E-03    -20.5711E-03     200.231E-03    -56.5293E-03     77.0082E-03    -20.5323E-03     199.194E-03
            1240     15.8472E-03     108.550E-03    -5.48629E+06     6.68017E+06    -17.4822E+06    -16.4977E+06    -65.4777E-03     87.4291E-03    -21.9514E-03     266.889E-03    -70.5161E-03     92.5231E-03    -22.0405E-03     265.905E-03
            1241     16.6978E-03     108.844E-03    -3.90170E+06     112.570E+06     45.1757E+06    -4.20037E+06    -67.0162E-03     90.7155E-03    -23.6992E-03     265.885E-03    -74.9357E-03     98.8906E-03    -23.6309E-03     267.536E-03
            1242     886.565E-06     108.342E-03    -99.5158E+06    -54.6105E+06    -98.6592E+06    -5.01320E+06    -14.8349E-03     29.6766E-03    -14.8417E-03     5.17427E-03    -15.1102E-03     29.6909E-03    -15.1115E-03     5.10931E-03
            1243     1.77314E-03     108.349E-03    -97.3924E+06    -51.5866E+06    -95.0754E+06    -8.64613E+06    -14.8478E-03     29.6935E-03    -14.8457E-03     9.63307E-03    -15.1222E-03     29.7147E-03    -15.1051E-03     9.52103E-03
            1244     2.65974E-03     108.359E-03    -93.2143E+06    -47.3834E+06    -90.0124E+06    -11.7514E+06    -14.8553E-03     29.7072E-03    -14.8520E-03     14.4923E-03    -15.1222E-03     29.7361E-03    -15.0981E-03     14.3400E-03
            1245     3.54641E-03     108.374E-03    -86.1330E+06    -42.8826E+06    -82.7846E+06    -13.4993E+06    -14.8867E-03     29.7466E-03    -14.8599E-03     19.6835E-03    -15.1353E-03     29.7773E-03    -15.0867E-03     19.5085E-03
            1246     4.43313E-03     108.394E-03    -75.4706E+06    -40.4346E+06    -72.4216E+06    -13.7417E+06    -14.9820E-03     29.8638E-03    -14.8818E-03     25.3484E-03    -15.1960E-03     29.8763E-03    -15.0759E-03     25.1702E-03
            1247     5.31982E-03     108.420E-03    -61.0275E+06    -36.3671E+06    -59.5165E+06    -12.7652E+06    -15.1993E-03     30.1172E-03    -14.9178E-03     31.6978E-03    -15.3658E-03     30.1104E-03    -15.0742E-03     31.5322E-03
            1248     6.20661E-03     108.451E-03    -44.8342E+06    -29.2239E+06    -45.5338E+06    -10.1928E+06    -15.6238E-03     30.5987E-03    -14.9749E-03     38.9414E-03    -15.7400E-03     30.5840E-03    -15.0951E-03     38.8090E-03
            1249     7.09272E-03     108.489E-03    -31.2912E+06    -24.5682E+06    -28.7618E+06    -7.05762E+06    -16.3055E-03     31.3970E-03    -15.0915E-03     47.2205E-03    -16.3853E-03     31.3619E-03    -15.1543E-03     47.1281E-03
            1250     7.97839E-03     108.534E-03    -22.5658E+06    -19.3373E+06    -12.8890E+06    -6.66753E+06    -17.2165E-03     32.4745E-03    -15.2580E-03     56.6258E-03    -17.2841E-03     32.4307E-03    -15.2616E-03     56.5373E-03
            1251     8.86307E-03     108.589E-03    -19.0375E+06    -15.7692E+06    -4.18916E+06    -9.34384E+06    -18.3544E-03     33.8036E-03    -15.4492E-03     67.2595E-03    -18.4241E-03     33.7619E-03    -15.4197E-03     67.1341E-03
            1252     9.74781E-03     108.654E-03    -18.4674E+06    -15.0470E+06     829.439E+03    -12.3818E+06    -19.8614E-03     35.5471E-03    -15.6857E-03     79.3740E-03    -19.9410E-03     35.5053E-03    -15.6330E-03     79.2044E-03
            1253     10.6304E-03     108.731E-03    -17.7838E+06    -12.1728E+06     5.46522E+06    -16.4862E+06    -21.9994E-03     37.9876E-03    -15.9882E-03     93.4324E-03    -22.0969E-03     37.9629E-03    -15.9174E-03     93.1993E-03
            1254     11.5128E-03     108.820E-03    -15.3683E+06    -16.2453E+06     7.92576E+06    -21.4400E+06    -25.3232E-03     41.7157E-03    -16.3925E-03     111.015E-03    -25.4324E-03     41.6898E-03    -16.3070E-03     110.695E-03
            1255     12.3908E-03     108.930E-03    -12.1211E+06    -17.7332E+06     9.43211E+06    -21.9714E+06    -30.0060E-03     46.9465E-03    -16.9405E-03     129.840E-03    -30.1547E-03     46.9621E-03    -16.8501E-03     129.467E-03
            1256     13.2670E-03     109.055E-03    -10.6374E+06    -23.2157E+06     8.32794E+06    -24.3740E+06    -36.0679E-03     53.7683E-03    -17.7004E-03     142.068E-03    -36.2956E-03     53.8522E-03    -17.6097E-03     141.585E-03
            1257     14.1354E-03     109.186E-03    -12.9833E+06    -23.2695E+06     1.26933E+06    -30.3674E+06    -44.8974E-03     63.6227E-03    -18.7254E-03     160.466E-03    -45.3837E-03     63.9777E-03    -18.6664E-03     159.726E-03
            1258     14.9979E-03     109.347E-03    -15.4897E+06    -29.6262E+06    -1.69410E+06    -29.8402E+06    -57.5422E-03     77.6592E-03    -20.1170E-03     208.408E-03    -58.9609E-03     78.9240E-03    -20.0600E-03     207.253E-03
            1259     15.8521E-03     109.576E-03    -12.0362E+06    -6.94588E+06    -13.1332E+06    -19.6558E+06    -68.6119E-03     90.2549E-03    -21.6430E-03     273.811E-03    -73.2592E-03     94.8736E-03    -21.6812E-03     272.523E-03
            1260     16.7055E-03     109.871E-03    -8.10641E+06     99.0519E+06     45.5164E+06    -7.37503E+06    -71.2991E-03     94.7941E-03    -23.4950E-03     277.180E-03    -79.0879E-03     102.775E-03    -23.3993E-03     278.246E-03
            1261     886.665E-06     109.319E-03    -79.6660E+06    -44.4348E+06    -78.8195E+06    -5.33791E+06    -14.8499E-03     29.6938E-03    -14.8439E-03     4.80982E-03    -15.0695E-03     29.7015E-03    -15.0580E-03     4.74048E-03
            1262     1.77331E-03     109.325E-03    -77.7799E+06    -41.7325E+06    -74.7864E+06    -9.85519E+06    -14.9191E-03     29.7904E-03    -14.8713E-03     8.94086E-03    -15.1391E-03     29.8031E-03    -15.0719E-03     8.81282E-03
            1263     2.65988E-03     109.336E-03    -75.2994E+06    -39.0441E+06    -69.0720E+06    -14.1478E+06    -15.0089E-03     29.9270E-03    -14.9181E-03     13.4121E-03    -15.2289E-03     29.9414E-03    -15.0977E-03     13.2282E-03
            1264     3.54638E-03     109.351E-03    -73.0735E+06    -36.6383E+06    -64.3246E+06    -17.3759E+06    -15.0814E-03     30.0424E-03    -14.9610E-03     18.1618E-03    -15.3008E-03     30.0589E-03    -15.1235E-03     17.9358E-03
            1265     4.43286E-03     109.371E-03    -71.0544E+06    -35.3038E+06    -61.7144E+06    -20.4070E+06    -15.1380E-03     30.1262E-03    -14.9882E-03     23.3062E-03    -15.3532E-03     30.1428E-03    -15.1426E-03     23.0408E-03
            1266     5.31956E-03     109.396E-03    -67.9204E+06    -32.8870E+06    -59.0512E+06    -23.2167E+06    -15.2290E-03     30.2354E-03    -15.0065E-03     29.0385E-03    -15.4361E-03     30.2559E-03    -15.1555E-03     28.7366E-03
            1267     6.20603E-03     109.428E-03    -61.5993E+06    -29.5777E+06    -54.0188E+06    -23.8981E+06    -15.4302E-03     30.4626E-03    -15.0324E-03     35.6116E-03    -15.6180E-03     30.4834E-03    -15.1703E-03     35.3008E-03
            1268     7.09280E-03     109.466E-03    -49.9685E+06    -26.9420E+06    -43.2353E+06    -21.3843E+06    -15.8387E-03     30.9329E-03    -15.0942E-03     43.3766E-03    -15.9881E-03     30.9346E-03    -15.1988E-03     43.0981E-03
            1269     7.97894E-03     109.513E-03    -35.2408E+06    -18.8987E+06    -28.6645E+06    -18.1352E+06    -16.5616E-03     31.7542E-03    -15.1925E-03     52.6282E-03    -16.6706E-03     31.7540E-03    -15.2574E-03     52.3913E-03
            1270     8.86476E-03     109.568E-03    -22.5240E+06    -15.2600E+06    -12.8438E+06    -14.5224E+06    -17.7355E-03     33.0927E-03    -15.3573E-03     63.4614E-03    -17.8102E-03     33.0706E-03    -15.3667E-03     63.2698E-03
            1271     9.74869E-03     109.635E-03    -14.9274E+06    -11.4429E+06     1.66902E+06    -13.1842E+06    -19.2911E-03     34.8800E-03    -15.5889E-03     75.9285E-03    -19.3574E-03     34.8479E-03    -15.5423E-03     75.7509E-03
            1272     10.6329E-03     109.712E-03    -11.8497E+06    -6.34989E+06     9.75470E+06    -15.3168E+06    -21.4325E-03     37.3045E-03    -15.8721E-03     90.4460E-03    -21.5101E-03     37.2894E-03    -15.7969E-03     90.2329E-03
            1273     11.5143E-03     109.806E-03    -12.9598E+06    -9.26185E+06     12.9873E+06    -18.8642E+06    -24.6162E-03     40.8691E-03    -16.2529E-03     108.842E-03    -24.7197E-03     40.8562E-03    -16.1557E-03     108.565E-03
            1274     12.3946E-03     109.918E-03    -12.7752E+06    -14.4340E+06     13.2850E+06    -23.8279E+06    -29.0650E-03     45.8269E-03    -16.7619E-03     129.256E-03    -29.2060E-03     45.8330E-03    -16.6560E-03     128.876E-03
            1275     13.2701E-03     110.049E-03    -9.97341E+06    -20.9279E+06     12.4300E+06    -23.3171E+06    -35.1042E-03     52.5705E-03    -17.4664E-03     144.401E-03    -35.3045E-03     52.6256E-03    -17.3594E-03     143.956E-03
            1276     14.1417E-03     110.190E-03    -10.9783E+06    -12.3442E+06     9.86464E+06    -24.9465E+06    -44.6494E-03     63.1008E-03    -18.4514E-03     166.760E-03    -45.1087E-03     63.4498E-03    -18.3683E-03     166.112E-03
            1277     15.0037E-03     110.363E-03    -11.1887E+06    -31.4543E+06     3.92073E+06    -29.1578E+06    -57.8416E-03     77.6582E-03    -19.8166E-03     215.728E-03    -59.1282E-03     78.7833E-03    -19.7352E-03     214.591E-03
            1278     15.8595E-03     110.601E-03    -9.55792E+06    -22.2838E+06    -9.51660E+06    -23.0175E+06    -69.4676E-03     90.8180E-03    -21.3504E-03     276.691E-03    -73.4668E-03     94.7327E-03    -21.3518E-03     275.219E-03
            1279     16.7138E-03     110.896E-03    -4.50107E+06     87.4748E+06     46.3899E+06    -9.23941E+06    -75.4554E-03     98.7161E-03    -23.2607E-03     284.690E-03    -82.8281E-03     106.251E-03    -23.1490E-03     285.002E-03
            1280     886.335E-06     110.296E-03    -59.2109E+06    -33.6260E+06    -58.2476E+06    -5.57343E+06    -15.3677E-03     30.7152E-03    -15.3475E-03     4.25810E-03    -15.5306E-03     30.7175E-03    -15.5041E-03     4.18543E-03
            1281     1.77258E-03     110.302E-03    -58.2392E+06    -31.3849E+06    -54.4942E+06    -9.76567E+06    -15.4905E-03     30.8883E-03    -15.3979E-03     7.91284E-03    -15.6573E-03     30.8950E-03    -15.5404E-03     7.78539E-03
            1282     2.65871E-03     110.313E-03    -57.1859E+06    -29.7885E+06    -50.3089E+06    -13.5197E+06    -15.6604E-03     31.1338E-03    -15.4735E-03     11.8394E-03    -15.8305E-03     31.1411E-03    -15.5989E-03     11.6627E-03
            1283     3.54467E-03     110.328E-03    -55.5194E+06    -28.5953E+06    -46.4490E+06    -16.8947E+06    -15.8536E-03     31.4122E-03    -15.5586E-03     15.9666E-03    -16.0230E-03     31.4176E-03    -15.6689E-03     15.7456E-03
            1284     4.43061E-03     110.348E-03    -53.0974E+06    -26.9737E+06    -42.0947E+06    -20.3204E+06    -16.0480E-03     31.6969E-03    -15.6489E-03     20.4079E-03    -16.2144E-03     31.7010E-03    -15.7433E-03     20.1418E-03
            1285     5.31619E-03     110.374E-03    -51.1916E+06    -25.6867E+06    -37.8298E+06    -23.6316E+06    -16.2113E-03     31.9491E-03    -15.7377E-03     25.3460E-03    -16.3767E-03     31.9511E-03    -15.8154E-03     25.0363E-03
            1286     6.20202E-03     110.405E-03    -50.5825E+06    -24.8941E+06    -34.5939E+06    -26.2913E+06    -16.3301E-03     32.1451E-03    -15.8151E-03     31.0248E-03    -16.4987E-03     32.1460E-03    -15.8786E-03     30.6801E-03
            1287     7.08749E-03     110.444E-03    -49.7632E+06    -24.6822E+06    -33.6887E+06    -28.8524E+06    -16.4389E-03     32.3076E-03    -15.8687E-03     37.7464E-03    -16.6056E-03     32.3075E-03    -15.9292E-03     37.3684E-03
            1288     7.97361E-03     110.490E-03    -45.8767E+06    -19.3453E+06    -31.2550E+06    -28.9429E+06    -16.6866E-03     32.5973E-03    -15.9106E-03     45.9504E-03    -16.8456E-03     32.6152E-03    -15.9723E-03     45.5712E-03
            1289     8.85921E-03     110.547E-03    -37.4612E+06    -18.4119E+06    -22.3866E+06    -25.9092E+06    -17.3241E-03     33.3207E-03    -15.9966E-03     56.0803E-03    -17.4557E-03     33.3187E-03    -16.0275E-03     55.7403E-03
            1290     9.74494E-03     110.614E-03    -25.9938E+06    -12.2262E+06    -9.05323E+06    -21.5401E+06    -18.5737E-03     34.7089E-03    -16.1352E-03     68.4852E-03    -18.6776E-03     34.7034E-03    -16.1250E-03     68.2005E-03
            1291     10.6281E-03     110.694E-03    -16.8210E+06    -4.68395E+06     4.39950E+06    -18.3148E+06    -20.7582E-03     37.1156E-03    -16.3574E-03     83.7945E-03    -20.8510E-03     37.1195E-03    -16.3042E-03     83.5468E-03
            1292     11.5105E-03     110.790E-03    -11.0477E+06    -5.23339E+06     15.0831E+06    -17.1369E+06    -23.8458E-03     40.5423E-03    -16.6965E-03     102.780E-03    -23.9370E-03     40.5320E-03    -16.5975E-03     102.535E-03
            1293     12.3904E-03     110.905E-03    -10.8679E+06    -5.00517E+06     18.9889E+06    -21.0363E+06    -27.9119E-03     45.0547E-03    -17.1428E-03     124.252E-03    -28.0401E-03     45.0716E-03    -17.0248E-03     123.928E-03
            1294     13.2682E-03     111.041E-03    -10.7891E+06    -22.9500E+06     14.3849E+06    -24.9528E+06    -33.7041E-03     51.4633E-03    -17.7592E-03     141.999E-03    -33.8650E-03     51.4632E-03    -17.6384E-03     141.566E-03
            1295     14.1399E-03     111.190E-03    -7.82104E+06    -7.96269E+06     15.5689E+06    -21.9104E+06    -43.1999E-03     61.8434E-03    -18.6435E-03     168.208E-03    -43.5769E-03     62.1201E-03    -18.5427E-03     167.651E-03
            1296     15.0042E-03     111.378E-03    -9.09228E+06    -19.8420E+06     9.22339E+06    -27.5496E+06    -56.5649E-03     76.4624E-03    -19.8975E-03     216.552E-03    -57.6491E-03     77.4182E-03    -19.8094E-03     215.504E-03
            1297     15.8620E-03     111.620E-03    -7.03469E+06    -38.0728E+06    -14.5564E+06    -27.3315E+06    -69.9039E-03     91.2766E-03    -21.3727E-03     274.857E-03    -73.1348E-03     94.3908E-03    -21.3801E-03     273.218E-03
            1298     16.7097E-03     111.927E-03    -4.93977E+06     67.8094E+06     35.6765E+06    -11.3335E+06    -76.4248E-03     99.6725E-03    -23.2477E-03     291.940E-03    -83.2247E-03     106.594E-03    -23.1605E-03     291.614E-03
            1299     885.340E-06     111.275E-03    -40.5856E+06    -23.2839E+06    -39.2948E+06    -4.99292E+06    -16.6101E-03     33.1664E-03    -16.5564E-03     3.52485E-03    -16.7224E-03     33.1658E-03    -16.6602E-03     3.45926E-03
            1300     1.77059E-03     111.281E-03    -40.3850E+06    -21.9882E+06    -37.2511E+06    -8.55478E+06    -16.7736E-03     33.4069E-03    -16.6333E-03     6.50546E-03    -16.8900E-03     33.4096E-03    -16.7291E-03     6.39285E-03
            1301     2.65564E-03     111.292E-03    -39.6948E+06    -21.0565E+06    -33.9016E+06    -12.1411E+06    -17.0372E-03     33.7775E-03    -16.7403E-03     9.67708E-03    -17.1565E-03     33.7792E-03    -16.8217E-03     9.51696E-03
            1302     3.54048E-03     111.308E-03    -38.7079E+06    -20.1328E+06    -29.7414E+06    -15.8158E+06    -17.3760E-03     34.2550E-03    -16.8791E-03     12.9761E-03    -17.4981E-03     34.2542E-03    -16.9424E-03     12.7672E-03
            1303     4.42483E-03     111.328E-03    -38.1197E+06    -19.1149E+06    -26.1206E+06    -19.0045E+06    -17.7259E-03     34.7614E-03    -17.0355E-03     16.5230E-03    -17.8524E-03     34.7601E-03    -17.0831E-03     16.2713E-03
            1304     5.30915E-03     111.354E-03    -37.8093E+06    -18.3598E+06    -23.4294E+06    -21.5632E+06    -18.0384E-03     35.2337E-03    -17.1953E-03     20.4771E-03    -18.1690E-03     35.2324E-03    -17.2310E-03     20.1908E-03
            1305     6.19291E-03     111.385E-03    -37.0639E+06    -18.4151E+06    -20.7631E+06    -23.8625E+06    -18.2746E-03     35.6248E-03    -17.3502E-03     25.0279E-03    -18.4060E-03     35.6191E-03    -17.3736E-03     24.7105E-03
            1306     7.07703E-03     111.424E-03    -36.5597E+06    -17.3012E+06    -17.0549E+06    -26.6510E+06    -18.4209E-03     35.9148E-03    -17.4939E-03     30.4261E-03    -18.5577E-03     35.9094E-03    -17.5011E-03     30.0715E-03
            1307     7.96057E-03     111.470E-03    -37.4545E+06    -16.9066E+06    -14.9253E+06    -28.6962E+06    -18.4620E-03     36.0719E-03    -17.6100E-03     37.0747E-03    -18.6078E-03     36.0675E-03    -17.6058E-03     36.6932E-03
            1308     8.84484E-03     111.526E-03    -38.5688E+06    -17.0432E+06    -14.7475E+06    -29.5358E+06    -18.4690E-03     36.1590E-03    -17.6900E-03     45.4052E-03    -18.6211E-03     36.1559E-03    -17.6831E-03     45.0130E-03
            1309     9.72888E-03     111.594E-03    -36.8803E+06    -14.1256E+06    -12.7446E+06    -29.3305E+06    -18.8578E-03     36.6159E-03    -17.7581E-03     56.2852E-03    -19.0093E-03     36.6227E-03    -17.7479E-03     55.8962E-03
            1310     10.6138E-03     111.675E-03    -30.4063E+06    -7.33222E+06    -2.87231E+06    -25.6629E+06    -20.1875E-03     38.0714E-03    -17.8839E-03     70.8843E-03    -20.3321E-03     38.0901E-03    -17.8436E-03     70.5423E-03
            1311     11.4960E-03     111.773E-03    -22.1784E+06    -4.49820E+06     9.50820E+06    -23.0555E+06    -22.6996E-03     40.8088E-03    -18.1091E-03     89.7903E-03    -22.8302E-03     40.8171E-03    -18.0229E-03     89.4772E-03
            1312     12.3763E-03     111.891E-03    -16.3098E+06    -3.41375E+06     18.5168E+06    -19.0335E+06    -26.3754E-03     44.8218E-03    -18.4464E-03     112.119E-03    -26.5075E-03     44.8304E-03    -18.3252E-03     111.842E-03
            1313     13.2538E-03     112.031E-03    -20.7563E+06    -13.6869E+06     16.0617E+06    -20.4246E+06    -31.9597E-03     50.9006E-03    -18.9409E-03     132.577E-03    -32.1392E-03     50.9117E-03    -18.8107E-03     132.239E-03
            1314     14.1271E-03     112.188E-03    -26.7241E+06    -12.6449E+06     11.5837E+06    -24.0060E+06    -41.0223E-03     60.7166E-03    -19.6943E-03     161.298E-03    -41.3768E-03     60.8984E-03    -19.5793E-03     160.784E-03
            1315     14.9937E-03     112.385E-03    -25.5317E+06    -2.78485E+06     15.6381E+06    -27.6188E+06    -54.0858E-03     74.9084E-03    -20.8226E-03     209.836E-03    -54.9974E-03     75.6754E-03    -20.7034E-03     208.911E-03
            1316     15.8497E-03     112.639E-03    -28.0838E+06    -40.0971E+06    -15.1356E+06    -37.3171E+06    -66.0740E-03     88.1933E-03    -22.1193E-03     267.891E-03    -68.5386E-03     90.4607E-03    -22.0961E-03     266.280E-03
            1317     16.7061E-03     112.950E-03    -17.1148E+06     30.5409E+06     7.94054E+06    -25.5963E+06    -70.0790E-03     93.6567E-03    -23.5777E-03     297.387E-03    -75.7913E-03     99.3949E-03    -23.5575E-03     296.665E-03
            1318     883.554E-06     112.256E-03    -24.8359E+06    -14.6699E+06    -24.0172E+06    -3.76382E+06    -18.7892E-03     37.4924E-03    -18.7032E-03     2.57900E-03    -18.8576E-03     37.4897E-03    -18.7660E-03     2.52875E-03
            1319     1.76692E-03     112.263E-03    -25.1346E+06    -13.6312E+06    -22.6000E+06    -7.07582E+06    -19.0228E-03     37.8376E-03    -18.8149E-03     4.70546E-03    -19.0964E-03     37.8385E-03    -18.8716E-03     4.61093E-03
            1320     2.65004E-03     112.275E-03    -25.0531E+06    -12.9101E+06    -19.3046E+06    -10.5094E+06    -19.3878E-03     38.3560E-03    -18.9683E-03     6.93727E-03    -19.4671E-03     38.3559E-03    -19.0097E-03     6.79664E-03
            1321     3.53266E-03     112.291E-03    -25.2605E+06    -12.6732E+06    -15.9058E+06    -13.2704E+06    -19.8354E-03     38.9968E-03    -19.1614E-03     9.25628E-03    -19.9214E-03     38.9936E-03    -19.1860E-03     9.07800E-03
            1322     4.41502E-03     112.311E-03    -25.8335E+06    -12.0561E+06    -13.5980E+06    -15.8128E+06    -20.3365E-03     39.7158E-03    -19.3793E-03     11.7480E-03    -20.4302E-03     39.7136E-03    -19.3924E-03     11.5347E-03
            1323     5.29662E-03     112.338E-03    -26.4588E+06    -11.9054E+06    -11.8481E+06    -18.3528E+06    -20.8416E-03     40.4579E-03    -19.6163E-03     14.5318E-03    -20.9419E-03     40.4555E-03    -19.6199E-03     14.2832E-03
            1324     6.17814E-03     112.370E-03    -27.3089E+06    -12.0062E+06    -9.46851E+06    -20.8022E+06    -21.3053E-03     41.1729E-03    -19.8677E-03     17.7559E-03    -21.4140E-03     41.1686E-03    -19.8580E-03     17.4731E-03
            1325     7.05877E-03     112.408E-03    -28.8633E+06    -11.6839E+06    -7.29518E+06    -22.2763E+06    -21.6764E-03     41.7944E-03    -20.1180E-03     21.6306E-03    -21.7976E-03     41.7917E-03    -20.0957E-03     21.3264E-03
            1326     7.93966E-03     112.455E-03    -30.5259E+06    -11.4263E+06    -5.41072E+06    -23.7572E+06    -21.8863E-03     42.2403E-03    -20.3540E-03     26.3999E-03    -22.0203E-03     42.2397E-03    -20.3202E-03     26.0745E-03
            1327     8.81998E-03     112.510E-03    -31.1316E+06    -12.2056E+06    -3.60201E+06    -26.0108E+06    -21.9454E-03     42.5100E-03    -20.5646E-03     32.4394E-03    -22.0853E-03     42.5049E-03    -20.5198E-03     32.0834E-03
            1328     9.70102E-03     112.577E-03    -31.7636E+06    -11.1572E+06    -1.14909E+06    -27.7667E+06    -21.9615E-03     42.7095E-03    -20.7480E-03     40.4635E-03    -22.1111E-03     42.7082E-03    -20.6915E-03     40.0844E-03
            1329     10.5814E-03     112.657E-03    -32.8728E+06    -9.70366E+06     1.62164E+06    -27.7536E+06    -22.1281E-03     43.0405E-03    -20.9124E-03     51.6662E-03    -22.2903E-03     43.0449E-03    -20.8426E-03     51.2883E-03
            1330     11.4632E-03     112.756E-03    -34.0734E+06    -4.67633E+06     5.89934E+06    -24.8453E+06    -22.8484E-03     43.9271E-03    -21.0787E-03     67.2702E-03    -23.0310E-03     43.9533E-03    -20.9930E-03     66.9318E-03
            1331     12.3440E-03     112.875E-03    -33.1614E+06    -7.84479E+06     11.0422E+06    -21.8786E+06    -24.8015E-03     46.0995E-03    -21.2980E-03     87.7571E-03    -24.9857E-03     46.1052E-03    -21.1833E-03     87.4555E-03
            1332     13.2224E-03     113.018E-03    -28.0043E+06    -10.5643E+06     16.2498E+06    -15.4070E+06    -29.2423E-03     50.8788E-03    -21.6364E-03     110.305E-03    -29.4226E-03     50.8751E-03    -21.4993E-03     110.067E-03
            1333     14.0952E-03     113.183E-03    -27.2593E+06    -4.97234E+06     17.3589E+06    -17.4776E+06    -37.9170E-03     60.1329E-03    -22.2160E-03     141.059E-03    -38.1887E-03     60.2406E-03    -22.0824E-03     140.706E-03
            1334     14.9611E-03     113.387E-03    -34.1599E+06     5.59319E+06     16.9941E+06    -23.5267E+06    -49.1504E-03     72.2748E-03    -23.1244E-03     189.147E-03    -49.7932E-03     72.7676E-03    -22.9980E-03     188.465E-03
            1335     15.8234E-03     113.651E-03    -36.7742E+06    -16.0236E+06     2.61095E+06    -35.3464E+06    -57.0552E-03     81.2233E-03    -24.1681E-03     242.654E-03    -58.6101E-03     82.5838E-03    -24.0785E-03     241.448E-03
            1336     16.6865E-03     113.953E-03    -33.4441E+06     3.45430E+06    -9.72395E+06    -50.2939E+06    -49.4904E-03     74.3092E-03    -24.8188E-03     279.505E-03    -52.9893E-03     77.7353E-03    -24.8240E-03     278.754E-03
            1337     880.684E-06     113.243E-03    -13.0837E+06    -8.07068E+06    -11.7996E+06    -2.54635E+06    -22.1886E-03     44.1758E-03    -21.9872E-03     1.54036E-03    -22.2259E-03     44.1710E-03    -22.0155E-03     1.50538E-03
            1338     1.76117E-03     113.251E-03    -13.2533E+06    -6.63771E+06    -10.2516E+06    -5.26816E+06    -22.4625E-03     44.6476E-03    -22.1852E-03     2.54313E-03    -22.5051E-03     44.6480E-03    -22.2076E-03     2.47106E-03
            1339     2.64116E-03     113.263E-03    -14.1199E+06    -6.37845E+06    -8.12531E+06    -7.66895E+06    -22.8760E-03     45.2553E-03    -22.3793E-03     3.67380E-03    -22.9266E-03     45.2553E-03    -22.3902E-03     3.56854E-03
            1340     3.52086E-03     113.279E-03    -15.0877E+06    -6.80748E+06    -6.16035E+06    -9.80255E+06    -23.4139E-03     46.0278E-03    -22.6139E-03     4.88539E-03    -23.4719E-03     46.0244E-03    -22.6129E-03     4.75012E-03
            1341     4.39974E-03     113.301E-03    -16.1945E+06    -6.38189E+06    -3.93130E+06    -11.6890E+06    -24.0697E-03     46.9625E-03    -22.8928E-03     6.21508E-03    -24.1374E-03     46.9600E-03    -22.8797E-03     6.05269E-03
            1342     5.27822E-03     113.328E-03    -17.9038E+06    -6.07162E+06    -1.48064E+06    -13.6759E+06    -24.8189E-03     48.0365E-03    -23.2176E-03     7.70040E-03    -24.8997E-03     48.0348E-03    -23.1902E-03     7.50922E-03
            1343     6.15557E-03     113.360E-03    -20.3216E+06    -6.85465E+06    -483.144E+03    -15.3212E+06    -25.6058E-03     49.1819E-03    -23.5761E-03     9.43279E-03    -25.6998E-03     49.1789E-03    -23.5391E-03     9.21689E-03
            1344     7.03260E-03     113.400E-03    -22.4514E+06    -7.09239E+06     329.754E+03    -16.9198E+06    -26.3660E-03     50.3274E-03    -23.9614E-03     11.5297E-03    -26.4725E-03     50.3258E-03    -23.9169E-03     11.2894E-03
            1345     7.90840E-03     113.446E-03    -23.9666E+06    -6.45875E+06     2.65050E+06    -18.5722E+06    -27.0871E-03     51.4597E-03    -24.3725E-03     14.0965E-03    -27.2067E-03     51.4608E-03    -24.3152E-03     13.8307E-03
            1346     8.78395E-03     113.502E-03    -26.7175E+06    -6.60782E+06     5.06804E+06    -20.2802E+06    -27.7831E-03     52.5878E-03    -24.8047E-03     17.3739E-03    -27.9214E-03     52.5897E-03    -24.7310E-03     17.0817E-03
            1347     9.65809E-03     113.568E-03    -30.5786E+06    -7.47144E+06     6.58086E+06    -21.3979E+06    -28.3500E-03     53.5989E-03    -25.2489E-03     21.8351E-03    -28.5105E-03     53.6011E-03    -25.1608E-03     21.5245E-03
            1348     10.5324E-03     113.647E-03    -34.1486E+06    -6.79137E+06     8.35337E+06    -22.2855E+06    -28.5193E-03     54.2091E-03    -25.6898E-03     28.0696E-03    -28.7034E-03     54.2183E-03    -25.5886E-03     27.7451E-03
            1349     11.4060E-03     113.743E-03    -36.0952E+06    -7.71211E+06     8.26671E+06    -20.8776E+06    -28.0323E-03     54.1194E-03    -26.0871E-03     37.0476E-03    -28.2261E-03     54.1275E-03    -25.9823E-03     36.7424E-03
            1350     12.2808E-03     113.861E-03    -37.2556E+06    -6.09848E+06     10.9589E+06    -19.4365E+06    -27.1331E-03     53.5620E-03    -26.4288E-03     50.5097E-03    -27.3394E-03     53.5763E-03    -26.3112E-03     50.2285E-03
            1351     13.1568E-03     114.003E-03    -33.2057E+06    -15.4851E+06     14.0542E+06    -20.9236E+06    -28.0701E-03     54.8309E-03    -26.7608E-03     69.5009E-03    -28.2500E-03     54.7919E-03    -26.6200E-03     69.2012E-03
            1352     14.0312E-03     114.174E-03    -26.8020E+06    -3.31975E+06     15.7479E+06    -13.9959E+06    -32.8107E-03     59.9774E-03    -27.1667E-03     99.0342E-03    -33.0054E-03     60.0177E-03    -27.0443E-03     98.7931E-03
            1353     14.8969E-03     114.385E-03    -28.7525E+06     12.3797E+06     18.7126E+06    -9.96929E+06    -41.0260E-03     68.8390E-03    -27.8130E-03     143.623E-03    -41.3868E-03     69.0868E-03    -27.6957E-03     143.309E-03
            1354     15.7602E-03     114.643E-03    -33.8622E+06     17.0203E+06     21.3991E+06    -26.9928E+06    -44.2349E-03     72.7895E-03    -28.5545E-03     188.692E-03    -45.0005E-03     73.4334E-03    -28.4231E-03     187.971E-03
            1355     16.6247E-03     114.946E-03    -79.3295E+06     4.14468E+06    -21.1208E+06    -30.0658E+06    -19.0001E-03     47.3604E-03    -28.3603E-03     204.957E-03    -20.4030E-03     48.5622E-03    -28.3569E-03     204.609E-03
            1356     876.689E-06     114.238E-03    -4.96381E+06    -3.07550E+06    -4.71554E+06    -1.86823E+06    -26.8460E-03     53.7630E-03    -26.9170E-03    -45.5092E-06    -26.8608E-03     53.7605E-03    -26.9289E-03    -71.5452E-06
            1357     1.75282E-03     114.246E-03    -5.76522E+06    -2.29316E+06    -3.28293E+06    -3.04577E+06    -27.1803E-03     54.1526E-03    -26.9723E-03    -59.6595E-06    -27.2023E-03     54.1530E-03    -26.9770E-03    -102.563E-06
            1358     2.62882E-03     114.259E-03    -6.93464E+06    -2.08177E+06    -1.71502E+06    -4.10887E+06    -27.6388E-03     54.7993E-03    -27.1605E-03    -58.7161E-06    -27.6693E-03     54.8002E-03    -27.1560E-03    -117.207E-06
            1359     3.50406E-03     114.276E-03    -8.73333E+06    -2.58412E+06     477.235E+03    -5.45157E+06    -28.2943E-03     55.7209E-03    -27.4266E-03    -29.0586E-06    -28.3364E-03     55.7188E-03    -27.4078E-03    -106.965E-06
            1360     4.37882E-03     114.298E-03    -10.8228E+06    -2.50659E+06     3.06853E+06    -6.69919E+06    -29.1546E-03     56.9255E-03    -27.7709E-03     791.450E-09    -29.2113E-03     56.9231E-03    -27.7362E-03    -95.5916E-06
            1361     5.25233E-03     114.327E-03    -13.1052E+06    -2.12394E+06     4.67389E+06    -7.63331E+06    -30.2256E-03     58.4154E-03    -28.1898E-03     12.3552E-06    -30.2968E-03     58.4159E-03    -28.1444E-03    -98.8407E-06
            1362     6.12502E-03     114.360E-03    -15.7097E+06    -3.00267E+06     5.91358E+06    -8.74777E+06    -31.4888E-03     60.1798E-03    -28.6909E-03    -15.2480E-06    -31.5740E-03     60.1778E-03    -28.6342E-03    -144.114E-06
            1363     6.99594E-03     114.401E-03    -18.9161E+06    -2.77482E+06     7.40550E+06    -10.1803E+06    -32.9013E-03     62.1754E-03    -29.2741E-03    -82.5403E-06    -33.0055E-03     62.1770E-03    -29.2056E-03    -233.874E-06
            1364     7.86581E-03     114.449E-03    -23.0953E+06    -2.63665E+06     8.83501E+06    -11.4281E+06    -34.4876E-03     64.4297E-03    -29.9421E-03    -146.535E-06    -34.6158E-03     64.4359E-03    -29.8606E-03    -318.810E-06
            1365     8.73336E-03     114.505E-03    -27.2400E+06    -3.18772E+06     11.1509E+06    -11.8462E+06    -36.2504E-03     66.9563E-03    -30.7059E-03    -139.105E-06    -36.4029E-03     66.9622E-03    -30.6060E-03    -322.600E-06
            1366     9.59939E-03     114.572E-03    -30.9496E+06    -3.33833E+06     12.8023E+06    -12.9554E+06    -38.0079E-03     69.5648E-03    -31.5569E-03     4.75929E-06    -38.1825E-03     69.5727E-03    -31.4432E-03    -199.565E-06
            1367     10.4625E-03     114.652E-03    -34.9016E+06    -4.03937E+06     12.9563E+06    -13.5801E+06    -39.2608E-03     71.7330E-03    -32.4722E-03     521.418E-06    -39.4560E-03     71.7425E-03    -32.3510E-03     303.058E-06
            1368     11.3242E-03     114.747E-03    -38.8947E+06    -5.74820E+06     11.8186E+06    -14.8080E+06    -39.2395E-03     72.6354E-03    -33.3959E-03     2.03862E-03    -39.4526E-03     72.6431E-03    -33.2720E-03     1.80090E-03
            1369     12.1852E-03     114.859E-03    -40.5817E+06    -5.36775E+06     12.3029E+06    -14.8152E+06    -37.6915E-03     71.9555E-03    -34.2640E-03     5.68121E-03    -37.9167E-03     71.9653E-03    -34.1359E-03     5.44366E-03
            1370     13.0478E-03     114.995E-03    -45.5300E+06    -4.98048E+06     13.8259E+06    -18.8212E+06    -35.2181E-03     70.2672E-03    -35.0490E-03     14.0948E-03    -35.4731E-03     70.2836E-03    -34.9066E-03     13.8088E-03
            1371     13.9098E-03     115.163E-03    -50.2649E+06    -17.4062E+06     45.5685E+03    -18.6282E+06    -33.7231E-03     69.4509E-03    -35.7278E-03     30.5527E-03    -33.9681E-03     69.4324E-03    -35.6294E-03     30.2702E-03
            1372     14.7783E-03     115.368E-03    -41.4903E+06     4.87216E+06     11.3080E+06    -13.5495E+06    -34.8201E-03     71.3551E-03    -36.5350E-03     58.9612E-03    -35.1001E-03     71.4484E-03    -36.4253E-03     58.7094E-03
            1373     15.6339E-03     115.634E-03    -48.0051E+06     34.2379E+06     25.4107E+06    -11.0951E+06    -22.8134E-03     59.8824E-03    -37.0691E-03     86.4885E-03    -23.2466E-03     60.1873E-03    -36.9221E-03     86.2348E-03
            1374     16.5105E-03     115.900E-03    -58.7492E+06     4.03697E+06    -18.5377E+06     12.5865E+06     6.39308E-03     29.8694E-03    -36.2625E-03     80.8726E-03     6.02091E-03     30.0953E-03    -36.2758E-03     80.9995E-03
            1375     16.6533E-03     57.7182E-03    -5.11040E+06     178.544E+06     87.9487E+06     404.768E+03    -36.8425E-03     63.6777E-03    -26.8353E-03     254.076E-03    -45.2281E-03     72.4240E-03    -26.6470E-03     258.731E-03
            1376     15.7733E-03     57.4195E-03    -8.29598E+06     133.204E+06     20.0092E+06     334.858E+03    -37.9002E-03     64.4912E-03    -26.5910E-03     254.252E-03    -43.9931E-03     70.9694E-03    -26.6720E-03     255.335E-03
            1377     14.8971E-03     57.2255E-03    -9.09101E+06     61.4093E+06    -21.4943E+06     571.097E+03    -31.6255E-03     58.1595E-03    -26.5340E-03     154.939E-03    -32.9561E-03     59.7381E-03    -26.7173E-03     154.738E-03
            1378     14.0205E-03     57.1230E-03    -8.44813E+06     3.41373E+06    -18.3536E+06     639.020E+03    -28.2496E-03     54.9183E-03    -26.6688E-03     93.2964E-03    -28.6091E-03     55.3132E-03    -26.7532E-03     93.0936E-03
            1379     13.1424E-03     57.0491E-03    -8.21431E+06    -26.9285E+06    -9.98467E+06     481.414E+03    -28.1855E-03     54.9582E-03    -26.7727E-03     79.8502E-03    -28.3574E-03     55.0343E-03    -26.7716E-03     79.6781E-03
            1380     12.2674E-03     56.9722E-03    -8.16279E+06    -39.7467E+06    -2.83271E+06     521.594E+03    -28.1545E-03     54.9888E-03    -26.8344E-03     77.9671E-03    -28.2588E-03     54.9313E-03    -26.7791E-03     77.8283E-03
            1381     11.3908E-03     56.9017E-03    -8.47831E+06    -55.4072E+06    -2.27103E+06     487.444E+03    -27.9378E-03     54.8070E-03    -26.8693E-03     70.3399E-03    -27.9787E-03     54.6277E-03    -26.7880E-03     70.2296E-03
            1382     10.5143E-03     56.8382E-03    -8.98641E+06    -69.8331E+06    -3.02303E+06     475.463E+03    -27.8513E-03     54.7430E-03    -26.8918E-03     63.2259E-03    -27.8446E-03     54.4654E-03    -26.7926E-03     63.1396E-03
            1383     9.63831E-03     56.7813E-03    -9.56171E+06    -76.8240E+06     100.217E+03     461.419E+03    -27.7305E-03     54.6480E-03    -26.9175E-03     58.0767E-03    -27.7038E-03     54.3144E-03    -26.7917E-03     58.0097E-03
            1384     8.76214E-03     56.7280E-03    -10.7015E+06    -81.6253E+06     1.07734E+06     413.587E+03    -27.5362E-03     54.4677E-03    -26.9316E-03     52.8026E-03    -27.4979E-03     54.0985E-03    -26.7923E-03     52.7509E-03
            1385     7.88577E-03     56.6808E-03    -11.8735E+06    -87.2502E+06     442.873E+03     435.385E+03    -27.3944E-03     54.3368E-03    -26.9423E-03     47.4075E-03    -27.3448E-03     53.9340E-03    -26.7964E-03     47.3686E-03
            1386     7.00962E-03     56.6380E-03    -13.3187E+06    -93.4154E+06    -795.371E+03     336.197E+03    -27.2938E-03     54.2457E-03    -26.9519E-03     42.0765E-03    -27.2351E-03     53.8104E-03    -26.8011E-03     42.0461E-03
            1387     6.13336E-03     56.6008E-03    -14.7629E+06    -97.5501E+06    -3.44017E+06     348.346E+03    -27.1864E-03     54.1383E-03    -26.9519E-03     36.7265E-03    -27.1213E-03     53.6845E-03    -26.8063E-03     36.7042E-03
            1388     5.25713E-03     56.5682E-03    -16.3709E+06    -102.981E+06    -6.64430E+06     513.277E+03    -27.1132E-03     54.0651E-03    -26.9519E-03     31.3918E-03    -27.0410E-03     53.5884E-03    -26.8121E-03     31.3779E-03
            1389     4.38092E-03     56.5412E-03    -18.3255E+06    -108.407E+06    -10.2535E+06     438.194E+03    -27.0526E-03     54.0022E-03    -26.9496E-03     26.0923E-03    -26.9751E-03     53.5046E-03    -26.8171E-03     26.0824E-03
            1390     3.50473E-03     56.5186E-03    -19.9382E+06    -110.718E+06    -14.3471E+06     196.014E+03    -27.0011E-03     53.9404E-03    -26.9393E-03     20.8383E-03    -26.9213E-03     53.4383E-03    -26.8216E-03     20.8294E-03
            1391     2.62853E-03     56.5015E-03    -21.0475E+06    -112.610E+06    -17.8093E+06     76.9185E+03    -26.9634E-03     53.8937E-03    -26.9303E-03     15.6321E-03    -26.8805E-03     53.3879E-03    -26.8255E-03     15.6250E-03
            1392     1.75234E-03     56.4889E-03    -21.9278E+06    -114.020E+06    -20.4611E+06     41.3242E+03    -26.9341E-03     53.8593E-03    -26.9252E-03     10.5192E-03    -26.8491E-03     53.3511E-03    -26.8304E-03     10.5145E-03
            1393     876.182E-06     56.4816E-03    -22.4587E+06    -114.951E+06    -22.1931E+06    -1.37894E+03    -26.9352E-03     53.8515E-03    -26.9163E-03     5.69198E-03    -26.8488E-03     53.3417E-03    -26.8280E-03     5.68922E-03
            1394     16.6506E-03     56.7221E-03    -5.43836E+06     178.342E+06     87.8886E+06    -32.8654E+03    -36.8981E-03     63.7775E-03    -26.8794E-03     256.690E-03    -45.3933E-03     72.6318E-03    -26.6907E-03     261.327E-03
            1395     15.7738E-03     56.4182E-03    -8.60874E+06     133.199E+06     20.1760E+06     974.107E+03    -38.8010E-03     65.4300E-03    -26.6290E-03     256.631E-03    -45.0036E-03     72.0164E-03    -26.7088E-03     257.638E-03
            1396     14.8969E-03     56.2269E-03    -9.19130E+06     61.5835E+06    -20.8584E+06     841.088E+03    -31.8390E-03     58.3924E-03    -26.5534E-03     155.520E-03    -33.1673E-03     59.9672E-03    -26.7337E-03     155.323E-03
            1397     14.0185E-03     56.1234E-03    -7.96719E+06     3.40769E+06    -18.0141E+06     465.038E+03    -28.3611E-03     55.0400E-03    -26.6789E-03     93.6776E-03    -28.7204E-03     55.4354E-03    -26.7623E-03     93.4705E-03
            1398     13.1439E-03     56.0483E-03    -7.86646E+06    -27.2010E+06    -10.3162E+06     487.371E+03    -28.1007E-03     54.8810E-03    -26.7803E-03     79.3706E-03    -28.2685E-03     54.9543E-03    -26.7810E-03     79.1997E-03
            1399     12.2665E-03     55.9724E-03    -8.23869E+06    -39.3734E+06    -2.85041E+06     393.158E+03    -28.2926E-03     55.1335E-03    -26.8409E-03     77.7860E-03    -28.3980E-03     55.0782E-03    -26.7861E-03     77.6446E-03
            1400     11.3909E-03     55.9007E-03    -8.55953E+06    -55.1769E+06    -2.37506E+06     428.126E+03    -28.0881E-03     54.9527E-03    -26.8645E-03     70.2832E-03    -28.1302E-03     54.7754E-03    -26.7840E-03     70.1711E-03
            1401     10.5148E-03     55.8388E-03    -9.07442E+06    -69.9589E+06    -3.14242E+06     505.675E+03    -27.7917E-03     54.6754E-03    -26.8837E-03     63.3149E-03    -27.7848E-03     54.3971E-03    -26.7848E-03     63.2297E-03
            1402     9.63821E-03     55.7803E-03    -9.72175E+06    -76.8201E+06    -48.8044E+03     514.136E+03    -27.6794E-03     54.5930E-03    -26.9136E-03     58.0284E-03    -27.6532E-03     54.2597E-03    -26.7883E-03     57.9623E-03
            1403     8.76208E-03     55.7283E-03    -10.6925E+06    -81.5489E+06     956.363E+03     401.915E+03    -27.5456E-03     54.4744E-03    -26.9288E-03     52.7240E-03    -27.5072E-03     54.1058E-03    -26.7903E-03     52.6721E-03
            1404     7.88588E-03     55.6802E-03    -12.0124E+06    -87.2337E+06     386.812E+03     341.765E+03    -27.3920E-03     54.3315E-03    -26.9395E-03     47.4103E-03    -27.3430E-03     53.9291E-03    -26.7937E-03     47.3702E-03
            1405     7.00961E-03     55.6381E-03    -13.4275E+06    -93.1972E+06    -583.445E+03     307.893E+03    -27.2723E-03     54.2235E-03    -26.9512E-03     42.0699E-03    -27.2148E-03     53.7892E-03    -26.7995E-03     42.0393E-03
            1406     6.13336E-03     55.6004E-03    -15.1459E+06    -97.7166E+06    -3.64951E+06     255.884E+03    -27.1848E-03     54.1360E-03    -26.9513E-03     36.7370E-03    -27.1210E-03     53.6822E-03    -26.8059E-03     36.7136E-03
            1407     5.25715E-03     55.5682E-03    -16.7195E+06    -103.146E+06    -6.79003E+06     466.838E+03    -27.1136E-03     54.0649E-03    -26.9513E-03     31.3871E-03    -27.0426E-03     53.5881E-03    -26.8115E-03     31.3725E-03
            1408     4.38093E-03     55.5407E-03    -18.0661E+06    -108.016E+06    -9.87223E+06     513.975E+03    -27.0543E-03     54.0039E-03    -26.9495E-03     26.0896E-03    -26.9767E-03     53.5073E-03    -26.8161E-03     26.0807E-03
            1409     3.50473E-03     55.5186E-03    -19.5684E+06    -110.412E+06    -14.1063E+06     245.028E+03    -27.0020E-03     53.9400E-03    -26.9380E-03     20.8346E-03    -26.9211E-03     53.4386E-03    -26.8200E-03     20.8263E-03
            1410     2.62853E-03     55.5011E-03    -20.9534E+06    -112.578E+06    -17.8568E+06     79.4764E+03    -26.9640E-03     53.8918E-03    -26.9278E-03     15.6270E-03    -26.8806E-03     53.3861E-03    -26.8235E-03     15.6199E-03
            1411     1.75237E-03     55.4889E-03    -21.8965E+06    -114.022E+06    -20.4766E+06     61.9468E+03    -26.9377E-03     53.8584E-03    -26.9207E-03     10.5072E-03    -26.8526E-03     53.3502E-03    -26.8260E-03     10.5027E-03
            1412     876.138E-06     55.4811E-03    -22.5082E+06    -114.941E+06    -22.1354E+06     88.8377E+03    -26.9320E-03     53.8388E-03    -26.9067E-03     5.70420E-03    -26.8459E-03     53.3290E-03    -26.8181E-03     5.70259E-03
            1413     16.6438E-03     55.7146E-03    -6.02242E+06     177.057E+06     87.2662E+06     87.7903E+03    -36.1566E-03     63.1130E-03    -26.9563E-03     256.537E-03    -44.6373E-03     71.9478E-03    -26.7680E-03     261.272E-03
            1414     15.7714E-03     55.4170E-03    -9.38311E+06     132.426E+06     20.6021E+06     167.558E+03    -39.3096E-03     66.0157E-03    -26.7062E-03     253.423E-03    -45.4005E-03     72.4837E-03    -26.7816E-03     254.363E-03
            1415     14.8949E-03     55.2272E-03    -9.04056E+06     61.9110E+06    -20.4629E+06     237.963E+03    -32.3511E-03     58.9398E-03    -26.5887E-03     154.816E-03    -33.6846E-03     60.5204E-03    -26.7677E-03     154.603E-03
            1416     14.0212E-03     55.1220E-03    -8.30172E+06     3.00014E+06    -18.7819E+06     499.252E+03    -28.7150E-03     55.3979E-03    -26.6829E-03     93.6392E-03    -29.0771E-03     55.7957E-03    -26.7691E-03     93.4287E-03
            1417     13.1428E-03     55.0497E-03    -7.94330E+06    -26.6418E+06    -10.0991E+06     624.767E+03    -28.1039E-03     54.8806E-03    -26.7767E-03     79.7391E-03    -28.2736E-03     54.9568E-03    -26.7771E-03     79.5703E-03
            1418     12.2672E-03     54.9707E-03    -8.26940E+06    -39.1305E+06    -2.77524E+06     505.311E+03    -28.2690E-03     55.1073E-03    -26.8382E-03     77.9605E-03    -28.3753E-03     55.0533E-03    -26.7834E-03     77.8206E-03
            1419     11.3908E-03     54.9012E-03    -8.79154E+06    -55.2093E+06    -2.60873E+06     443.310E+03    -28.1013E-03     54.9623E-03    -26.8610E-03     70.0595E-03    -28.1441E-03     54.7855E-03    -26.7813E-03     69.9474E-03
            1420     10.5144E-03     54.8378E-03    -9.20523E+06    -70.0807E+06    -3.43809E+06     397.221E+03    -27.8275E-03     54.7046E-03    -26.8771E-03     63.2721E-03    -27.8208E-03     54.4264E-03    -26.7794E-03     63.1852E-03
            1421     9.63851E-03     54.7807E-03    -9.80450E+06    -76.6797E+06     40.6279E+03     443.725E+03    -27.6345E-03     54.5431E-03    -26.9085E-03     58.0889E-03    -27.6090E-03     54.2104E-03    -26.7829E-03     58.0222E-03
            1422     8.76207E-03     54.7275E-03    -10.7713E+06    -81.5052E+06     878.038E+03     439.469E+03    -27.5193E-03     54.4454E-03    -26.9261E-03     52.7098E-03    -27.4813E-03     54.0772E-03    -26.7879E-03     52.6584E-03
            1423     7.88591E-03     54.6804E-03    -12.0240E+06    -87.1598E+06     210.233E+03     353.689E+03    -27.3821E-03     54.3199E-03    -26.9378E-03     47.4061E-03    -27.3330E-03     53.9181E-03    -26.7929E-03     47.3662E-03
            1424     7.00957E-03     54.6376E-03    -13.6196E+06    -93.1521E+06    -644.837E+03     329.754E+03    -27.2699E-03     54.2209E-03    -26.9510E-03     42.1046E-03    -27.2133E-03     53.7871E-03    -26.7994E-03     42.0743E-03
            1425     6.13338E-03     54.6004E-03    -15.2677E+06    -97.7024E+06    -3.67518E+06     346.999E+03    -27.1890E-03     54.1399E-03    -26.9509E-03     36.7278E-03    -27.1258E-03     53.6863E-03    -26.8055E-03     36.7055E-03
            1426     5.25713E-03     54.5678E-03    -16.8904E+06    -103.165E+06    -7.11059E+06     210.240E+03    -27.1144E-03     54.0635E-03    -26.9490E-03     31.3912E-03    -27.0438E-03     53.5873E-03    -26.8105E-03     31.3734E-03
            1427     4.38093E-03     54.5407E-03    -18.3491E+06    -107.934E+06    -10.0330E+06     172.325E+03    -27.0551E-03     54.0027E-03    -26.9475E-03     26.0876E-03    -26.9789E-03     53.5071E-03    -26.8146E-03     26.0743E-03
            1428     3.50473E-03     54.5182E-03    -19.6077E+06    -110.237E+06    -13.9592E+06     287.122E+03    -27.0040E-03     53.9400E-03    -26.9360E-03     20.8217E-03    -26.9237E-03     53.4392E-03    -26.8175E-03     20.8140E-03
            1429     2.62856E-03     54.5011E-03    -20.7995E+06    -112.461E+06    -17.7409E+06     242.452E+03    -26.9648E-03     53.8889E-03    -26.9241E-03     15.6170E-03    -26.8810E-03     53.3834E-03    -26.8195E-03     15.6120E-03
            1430     1.75234E-03     54.4885E-03    -21.8054E+06    -113.968E+06    -20.4192E+06     164.266E+03    -26.9406E-03     53.8543E-03    -26.9137E-03     10.5059E-03    -26.8552E-03     53.3461E-03    -26.8190E-03     10.5028E-03
            1431     876.244E-06     54.4811E-03    -22.3488E+06    -114.841E+06    -22.0185E+06     86.9154E+03    -26.9075E-03     53.8206E-03    -26.9131E-03     5.69452E-03    -26.8209E-03     53.3108E-03    -26.8242E-03     5.69289E-03
            1432     16.6515E-03     54.7143E-03    -5.01369E+06     177.304E+06     87.8893E+06     598.392E+03    -36.1719E-03     63.0756E-03    -26.9037E-03     256.249E-03    -44.6436E-03     71.9042E-03    -26.7141E-03     261.006E-03
            1433     15.7719E-03     54.4179E-03    -8.42124E+06     132.064E+06     19.7928E+06    -299.745E+03    -37.9401E-03     64.6143E-03    -26.6742E-03     251.956E-03    -43.9782E-03     71.0340E-03    -26.7545E-03     253.013E-03
            1434     14.8967E-03     54.2248E-03    -9.37892E+06     61.4792E+06    -21.9780E+06     44.6672E+03    -32.2142E-03     58.8043E-03    -26.5901E-03     154.394E-03    -33.5480E-03     60.3867E-03    -26.7755E-03     154.179E-03
            1435     14.0181E-03     54.1232E-03    -8.60555E+06     3.28267E+06    -18.6679E+06     866.948E+03    -28.7398E-03     55.4333E-03    -26.6935E-03     93.3366E-03    -29.1060E-03     55.8348E-03    -26.7791E-03     93.1300E-03
            1436     13.1437E-03     54.0480E-03    -8.19797E+06    -26.0890E+06    -9.83359E+06     613.267E+03    -28.2777E-03     55.0586E-03    -26.7808E-03     79.8352E-03    -28.4508E-03     55.1384E-03    -26.7803E-03     79.6645E-03
            1437     12.2669E-03     53.9716E-03    -8.34826E+06    -39.1988E+06    -2.91560E+06     492.487E+03    -28.3464E-03     55.1789E-03    -26.8325E-03     78.0431E-03    -28.4532E-03     55.1253E-03    -26.7781E-03     77.9025E-03
            1438     11.3907E-03     53.8997E-03    -8.71842E+06    -55.3150E+06    -2.46750E+06     412.689E+03    -28.0512E-03     54.9062E-03    -26.8551E-03     69.8381E-03    -28.0935E-03     54.7284E-03    -26.7746E-03     69.7258E-03
            1439     10.5150E-03     53.8384E-03    -9.22765E+06    -69.7583E+06    -3.46096E+06     345.346E+03    -27.7775E-03     54.6506E-03    -26.8731E-03     63.2042E-03    -27.7713E-03     54.3740E-03    -26.7759E-03     63.1168E-03
            1440     9.63822E-03     53.7799E-03    -9.90629E+06    -76.9948E+06    -329.636E+03     345.966E+03    -27.6411E-03     54.5465E-03    -26.9054E-03     58.1952E-03    -27.6151E-03     54.2129E-03    -26.7810E-03     58.1273E-03
            1441     8.76221E-03     53.7277E-03    -10.7146E+06    -81.4001E+06     910.188E+03     418.519E+03    -27.4870E-03     54.4125E-03    -26.9255E-03     52.7230E-03    -27.4487E-03     54.0446E-03    -26.7874E-03     52.6716E-03
            1442     7.88576E-03     53.6799E-03    -12.0267E+06    -87.0844E+06     66.6965E+03     429.844E+03    -27.3805E-03     54.3188E-03    -26.9383E-03     47.4248E-03    -27.3313E-03     53.9176E-03    -26.7942E-03     47.3859E-03
            1443     7.00964E-03     53.6376E-03    -13.5189E+06    -93.1072E+06    -795.098E+03     393.517E+03    -27.2967E-03     54.2465E-03    -26.9499E-03     42.0863E-03    -27.2395E-03     53.8131E-03    -26.7992E-03     42.0567E-03
            1444     6.13336E-03     53.5999E-03    -15.1114E+06    -97.5276E+06    -3.71593E+06     281.964E+03    -27.1933E-03     54.1413E-03    -26.9480E-03     36.7067E-03    -27.1296E-03     53.6884E-03    -26.8032E-03     36.6835E-03
            1445     5.25716E-03     53.5678E-03    -16.6075E+06    -102.974E+06    -7.02551E+06     123.513E+03    -27.1189E-03     54.0643E-03    -26.9454E-03     31.3605E-03    -27.0473E-03     53.5885E-03    -26.8072E-03     31.3415E-03
            1446     4.38095E-03     53.5403E-03    -18.2043E+06    -108.011E+06    -10.3113E+06     35.1732E+03    -27.0544E-03     53.9962E-03    -26.9418E-03     26.0662E-03    -26.9769E-03     53.5005E-03    -26.8103E-03     26.0511E-03
            1447     3.50476E-03     53.5182E-03    -19.7085E+06    -110.387E+06    -14.1993E+06     113.654E+03    -27.0011E-03     53.9315E-03    -26.9304E-03     20.8081E-03    -26.9207E-03     53.4305E-03    -26.8128E-03     20.7981E-03
            1448     2.62855E-03     53.5007E-03    -20.8407E+06    -112.355E+06    -17.5627E+06     277.159E+03    -26.9614E-03     53.8808E-03    -26.9194E-03     15.6078E-03    -26.8782E-03     53.3757E-03    -26.8141E-03     15.6032E-03
            1449     1.75240E-03     53.4885E-03    -21.6525E+06    -113.766E+06    -20.1934E+06     194.147E+03    -26.9307E-03     53.8406E-03    -26.9099E-03     10.5062E-03    -26.8451E-03     53.3328E-03    -26.8145E-03     10.5035E-03
            1450     876.135E-06     53.4807E-03    -22.1691E+06    -114.681E+06    -21.8162E+06     87.9680E+03    -26.9030E-03     53.8153E-03    -26.9123E-03     5.66370E-03    -26.8161E-03     53.3058E-03    -26.8229E-03     5.66210E-03
            1451     16.6506E-03     53.7190E-03    -5.23992E+06     176.945E+06     87.2171E+06    -7.74838E+03    -36.5858E-03     63.4470E-03    -26.8612E-03     256.930E-03    -45.0758E-03     72.2937E-03    -26.6741E-03     261.626E-03
            1452     15.7731E-03     53.4168E-03    -7.87911E+06     132.055E+06     18.9998E+06     780.126E+03    -37.5487E-03     64.1896E-03    -26.6409E-03     254.736E-03    -43.6573E-03     70.6840E-03    -26.7260E-03     255.835E-03
            1453     14.8947E-03     53.2261E-03    -9.64069E+06     61.5477E+06    -22.2610E+06     911.024E+03    -32.0157E-03     58.6035E-03    -26.5878E-03     155.175E-03    -33.3568E-03     60.1935E-03    -26.7744E-03     154.979E-03
            1454     14.0207E-03     53.1214E-03    -9.62409E+06     3.40692E+06    -19.0654E+06     351.139E+03    -28.8866E-03     55.5812E-03    -26.6946E-03     92.9212E-03    -29.2574E-03     55.9852E-03    -26.7809E-03     92.7055E-03
            1455     13.1429E-03     53.0490E-03    -8.11301E+06    -25.9782E+06    -10.0042E+06     391.979E+03    -28.3572E-03     55.1302E-03    -26.7730E-03     79.5645E-03    -28.5293E-03     55.2102E-03    -26.7736E-03     79.3903E-03
            1456     12.2672E-03     52.9698E-03    -8.43713E+06    -39.3333E+06    -3.14793E+06     473.012E+03    -28.2678E-03     55.0919E-03    -26.8242E-03     77.9280E-03    -28.3738E-03     55.0375E-03    -26.7706E-03     77.7879E-03
            1457     11.3914E-03     52.9004E-03    -8.96508E+06    -55.5456E+06    -2.97351E+06     457.949E+03    -27.9403E-03     54.7928E-03    -26.8525E-03     69.9452E-03    -27.9820E-03     54.6142E-03    -26.7738E-03     69.8347E-03
            1458     10.5142E-03     52.8377E-03    -9.05411E+06    -69.4525E+06    -3.34068E+06     418.242E+03    -27.8255E-03     54.7005E-03    -26.8750E-03     63.3588E-03    -27.8192E-03     54.4251E-03    -26.7778E-03     63.2722E-03
            1459     9.63859E-03     52.7800E-03    -9.81831E+06    -76.7764E+06    -488.089E+03     299.921E+03    -27.6535E-03     54.5572E-03    -26.9037E-03     58.0707E-03    -27.6271E-03     54.2248E-03    -26.7806E-03     58.0023E-03
            1460     8.76200E-03     52.7273E-03    -10.8712E+06    -81.6513E+06     608.480E+03     280.379E+03    -27.4725E-03     54.3966E-03    -26.9241E-03     52.7323E-03    -27.4342E-03     54.0281E-03    -26.7869E-03     52.6792E-03
            1461     7.88589E-03     52.6799E-03    -11.9374E+06    -86.9376E+06     186.205E+03     377.068E+03    -27.4080E-03     54.3452E-03    -26.9371E-03     47.4118E-03    -27.3588E-03     53.9444E-03    -26.7928E-03     47.3720E-03
            1462     7.00959E-03     52.6371E-03    -13.2951E+06    -93.0449E+06    -788.670E+03     344.770E+03    -27.3047E-03     54.2504E-03    -26.9457E-03     42.0298E-03    -27.2465E-03     53.8169E-03    -26.7955E-03     41.9996E-03
            1463     6.13343E-03     52.5999E-03    -14.8767E+06    -97.2887E+06    -3.44628E+06     285.159E+03    -27.2016E-03     54.1447E-03    -26.9431E-03     36.6717E-03    -27.1374E-03     53.6923E-03    -26.7977E-03     36.6485E-03
            1464     5.25719E-03     52.5674E-03    -16.6103E+06    -102.801E+06    -6.87478E+06     109.311E+03    -27.1154E-03     54.0544E-03    -26.9390E-03     31.3363E-03    -27.0442E-03     53.5793E-03    -26.8003E-03     31.3171E-03
            1465     4.38099E-03     52.5403E-03    -18.2142E+06    -108.060E+06    -10.3775E+06     60.0112E+03    -27.0489E-03     53.9830E-03    -26.9341E-03     26.0466E-03    -26.9713E-03     53.4872E-03    -26.8029E-03     26.0318E-03
            1466     3.50477E-03     52.5178E-03    -19.6717E+06    -110.511E+06    -14.3520E+06     100.898E+03    -26.9937E-03     53.9158E-03    -26.9222E-03     20.7932E-03    -26.9127E-03     53.4144E-03    -26.8051E-03     20.7830E-03
            1467     2.62860E-03     52.5007E-03    -20.8129E+06    -112.351E+06    -17.5834E+06     62.8774E+03    -26.9512E-03     53.8634E-03    -26.9122E-03     15.5955E-03    -26.8678E-03     53.3582E-03    -26.8070E-03     15.5882E-03
            1468     1.75235E-03     52.4882E-03    -21.5807E+06    -113.653E+06    -20.0815E+06     104.902E+03    -26.9198E-03     53.8248E-03    -26.9050E-03     10.4941E-03    -26.8342E-03     53.3174E-03    -26.8094E-03     10.4902E-03
            1469     876.235E-06     52.4808E-03    -22.0704E+06    -114.542E+06    -21.6864E+06     64.0341E+03    -26.9104E-03     53.8082E-03    -26.8979E-03     5.66573E-03    -26.8233E-03     53.2991E-03    -26.8082E-03     5.66381E-03
            1470     16.6490E-03     52.7153E-03    -5.40422E+06     176.487E+06     86.6952E+06    -106.589E+03    -36.1030E-03     62.9954E-03    -26.8924E-03     255.508E-03    -44.5219E-03     71.7702E-03    -26.7070E-03     260.240E-03
            1471     15.7721E-03     52.4203E-03    -9.65946E+06     131.160E+06     18.9929E+06     694.904E+03    -38.2427E-03     64.9142E-03    -26.6715E-03     255.306E-03    -44.3452E-03     71.3930E-03    -26.7527E-03     256.374E-03
            1472     14.8961E-03     52.2237E-03    -9.18695E+06     62.0230E+06    -20.8289E+06     1.11972E+06    -32.3732E-03     58.9683E-03    -26.5950E-03     155.618E-03    -33.7221E-03     60.5651E-03    -26.7758E-03     155.412E-03
            1473     14.0185E-03     52.1218E-03    -8.56408E+06     3.51381E+06    -18.8849E+06     377.052E+03    -28.9008E-03     55.5866E-03    -26.6858E-03     92.7664E-03    -29.2628E-03     55.9855E-03    -26.7729E-03     92.5523E-03
            1474     13.1440E-03     52.0477E-03    -8.85536E+06    -26.3378E+06    -10.6582E+06     158.753E+03    -28.4020E-03     55.1626E-03    -26.7607E-03     79.6264E-03    -28.5761E-03     55.2427E-03    -26.7630E-03     79.4493E-03
            1475     12.2675E-03     51.9703E-03    -8.02043E+06    -39.1191E+06    -3.00550E+06     473.763E+03    -28.1097E-03     54.9262E-03    -26.8165E-03     77.6774E-03    -28.2127E-03     54.8706E-03    -26.7632E-03     77.5390E-03
            1476     11.3901E-03     51.9001E-03    -8.42330E+06    -55.4505E+06    -2.71347E+06     449.958E+03    -27.8903E-03     54.7429E-03    -26.8526E-03     69.9542E-03    -27.9297E-03     54.5634E-03    -26.7735E-03     69.8439E-03
            1477     10.5150E-03     51.8371E-03    -9.15559E+06    -69.5846E+06    -3.29766E+06     314.038E+03    -27.8710E-03     54.7460E-03    -26.8750E-03     63.1798E-03    -27.8652E-03     54.4703E-03    -26.7773E-03     63.0914E-03
            1478     9.63833E-03     51.7799E-03    -9.76248E+06    -76.3716E+06    -151.024E+03     331.307E+03    -27.6437E-03     54.5459E-03    -26.9021E-03     57.9429E-03    -27.6181E-03     54.2149E-03    -26.7780E-03     57.8748E-03
            1479     8.76217E-03     51.7272E-03    -10.9140E+06    -81.5412E+06     459.403E+03     165.627E+03    -27.5161E-03     54.4345E-03    -26.9184E-03     52.7646E-03    -27.4780E-03     54.0669E-03    -26.7821E-03     52.7098E-03
            1480     7.88588E-03     51.6794E-03    -11.9977E+06    -87.0757E+06     58.5691E+03     132.650E+03    -27.4137E-03     54.3424E-03    -26.9287E-03     47.3403E-03    -27.3644E-03     53.9412E-03    -26.7847E-03     47.2974E-03
            1481     7.00971E-03     51.6371E-03    -13.2563E+06    -92.9052E+06    -697.120E+03     217.462E+03    -27.2948E-03     54.2317E-03    -26.9369E-03     41.9831E-03    -27.2367E-03     53.7988E-03    -26.7865E-03     41.9511E-03
            1482     6.13345E-03     51.5995E-03    -14.6808E+06    -97.2682E+06    -3.34941E+06     171.164E+03    -27.1942E-03     54.1283E-03    -26.9341E-03     36.6321E-03    -27.1292E-03     53.6756E-03    -26.7886E-03     36.6074E-03
            1483     5.25725E-03     51.5674E-03    -16.1905E+06    -102.677E+06    -6.49689E+06     242.811E+03    -27.1087E-03     54.0395E-03    -26.9307E-03     31.3020E-03    -27.0363E-03     53.5638E-03    -26.7909E-03     31.2845E-03
            1484     4.38102E-03     51.5399E-03    -17.9963E+06    -108.068E+06    -10.1192E+06     206.394E+03    -27.0404E-03     53.9658E-03    -26.9255E-03     26.0257E-03    -26.9620E-03     53.4693E-03    -26.7933E-03     26.0127E-03
            1485     3.50483E-03     51.5178E-03    -19.5503E+06    -110.397E+06    -14.2353E+06     84.1948E+03    -26.9830E-03     53.8959E-03    -26.9129E-03     20.7820E-03    -26.9019E-03     53.3947E-03    -26.7956E-03     20.7716E-03
            1486     2.62859E-03     51.5004E-03    -20.7290E+06    -112.381E+06    -17.6640E+06     8.44122E+03    -26.9401E-03     53.8429E-03    -26.9028E-03     15.5895E-03    -26.8562E-03     53.3376E-03    -26.7981E-03     15.5815E-03
            1487     1.75243E-03     51.4882E-03    -21.6006E+06    -113.701E+06    -20.1628E+06    -18.5957E+03    -26.9123E-03     53.8082E-03    -26.8959E-03     10.4877E-03    -26.8267E-03     53.3007E-03    -26.8005E-03     10.4823E-03
            1488     876.147E-06     51.4804E-03    -22.0699E+06    -114.506E+06    -21.7422E+06     20.3326E+03    -26.9035E-03     53.7895E-03    -26.8860E-03     5.67608E-03    -26.8164E-03     53.2807E-03    -26.7967E-03     5.67359E-03
            1489     16.6492E-03     51.7185E-03    -5.27074E+06     176.793E+06     87.6731E+06     457.715E+03    -35.9469E-03     62.8850E-03    -26.9381E-03     256.071E-03    -44.4154E-03     71.7082E-03    -26.7485E-03     260.832E-03
            1490     15.7712E-03     51.4178E-03    -8.72516E+06     131.465E+06     20.0160E+06     829.492E+03    -39.1589E-03     65.8589E-03    -26.7000E-03     255.600E-03    -45.3129E-03     72.3906E-03    -26.7779E-03     256.622E-03
            1491     14.8958E-03     51.2236E-03    -9.37957E+06     61.5068E+06    -21.1114E+06     522.989E+03    -32.7762E-03     59.3584E-03    -26.5821E-03     154.649E-03    -34.1154E-03     60.9438E-03    -26.7633E-03     154.419E-03
            1492     14.0205E-03     51.1217E-03    -7.99910E+06     3.71512E+06    -18.2715E+06     296.410E+03    -28.7332E-03     55.3983E-03    -26.6651E-03     92.4892E-03    -29.0910E-03     55.7938E-03    -26.7502E-03     92.2760E-03
            1493     13.1432E-03     51.0465E-03    -7.41465E+06    -26.6041E+06    -9.99802E+06     383.444E+03    -28.2724E-03     55.0195E-03    -26.7470E-03     79.1239E-03    -28.4394E-03     55.0946E-03    -26.7477E-03     78.9506E-03
            1494     12.2672E-03     50.9708E-03    -8.09345E+06    -38.9990E+06    -2.57262E+06     385.072E+03    -28.1157E-03     54.9210E-03    -26.8053E-03     77.2196E-03    -28.2197E-03     54.8652E-03    -26.7498E-03     77.0800E-03
            1495     11.3917E-03     50.8996E-03    -8.55220E+06    -55.0166E+06    -2.45722E+06     433.392E+03    -27.8741E-03     54.7127E-03    -26.8387E-03     70.0091E-03    -27.9153E-03     54.5355E-03    -26.7588E-03     69.8986E-03
            1496     10.5145E-03     50.8371E-03    -9.09697E+06    -69.8904E+06    -3.38711E+06     314.520E+03    -27.7242E-03     54.5902E-03    -26.8660E-03     63.1359E-03    -27.7172E-03     54.3126E-03    -26.7684E-03     63.0483E-03
            1497     9.63846E-03     50.7797E-03    -9.68243E+06    -76.3120E+06     14.7889E+03     307.420E+03    -27.6800E-03     54.5776E-03    -26.8977E-03     57.9394E-03    -27.6544E-03     54.2467E-03    -26.7729E-03     57.8707E-03
            1498     8.76224E-03     50.7269E-03    -10.6116E+06    -81.1088E+06     764.466E+03     204.336E+03    -27.5689E-03     54.4775E-03    -26.9086E-03     52.6846E-03    -27.5305E-03     54.1113E-03    -26.7718E-03     52.6300E-03
            1499     7.88605E-03     50.6793E-03    -11.9536E+06    -87.1099E+06    -63.2468E+03     15.2781E+03    -27.3925E-03     54.3075E-03    -26.9150E-03     47.3008E-03    -27.3427E-03     53.9063E-03    -26.7717E-03     47.2564E-03
            1500     7.00977E-03     50.6368E-03    -13.3261E+06    -92.9971E+06    -707.579E+03     23.0514E+03    -27.2740E-03     54.1990E-03    -26.9250E-03     41.9718E-03    -27.2162E-03     53.7657E-03    -26.7744E-03     41.9374E-03
            1501     6.13355E-03     50.5995E-03    -14.8678E+06    -97.2559E+06    -3.38555E+06     89.7743E+03    -27.1737E-03     54.0969E-03    -26.9232E-03     36.6186E-03    -27.1096E-03     53.6446E-03    -26.7775E-03     36.5929E-03
            1502     5.25731E-03     50.5670E-03    -16.5117E+06    -102.864E+06    -6.62364E+06     180.289E+03    -27.0947E-03     54.0153E-03    -26.9206E-03     31.2983E-03    -27.0234E-03     53.5394E-03    -26.7807E-03     31.2800E-03
            1503     4.38109E-03     50.5399E-03    -17.9287E+06    -107.891E+06    -9.85487E+06     263.774E+03    -27.0295E-03     53.9460E-03    -26.9165E-03     26.0189E-03    -26.9514E-03     53.4498E-03    -26.7833E-03     26.0067E-03
            1504     3.50484E-03     50.5175E-03    -19.3979E+06    -110.267E+06    -14.0291E+06     155.313E+03    -26.9711E-03     53.8750E-03    -26.9039E-03     20.7773E-03    -26.8896E-03     53.3739E-03    -26.7861E-03     20.7679E-03
            1505     2.62864E-03     50.5004E-03    -20.6715E+06    -112.338E+06    -17.6059E+06     55.4851E+03    -26.9323E-03     53.8257E-03    -26.8935E-03     15.5863E-03    -26.8482E-03     53.3205E-03    -26.7886E-03     15.5789E-03
            1506     1.75239E-03     50.4878E-03    -21.5871E+06    -113.741E+06    -20.2276E+06     14.1139E+03    -26.9048E-03     53.7900E-03    -26.8852E-03     10.4865E-03    -26.8189E-03     53.2824E-03    -26.7902E-03     10.4815E-03
            1507     876.259E-06     50.4805E-03    -22.1829E+06    -114.581E+06    -21.8060E+06    -13.6606E+03    -26.8908E-03     53.7671E-03    -26.8764E-03     5.67377E-03    -26.8041E-03     53.2582E-03    -26.7871E-03     5.67084E-03
            1508     16.6463E-03     50.7191E-03    -5.61529E+06     176.423E+06     87.6058E+06     389.722E+03    -36.5133E-03     63.4626E-03    -26.9493E-03     256.524E-03    -45.0211E-03     72.3228E-03    -26.7589E-03     261.226E-03
            1509     15.7718E-03     50.4145E-03    -8.82808E+06     131.165E+06     20.5044E+06     401.265E+03    -39.5129E-03     66.1993E-03    -26.6864E-03     254.382E-03    -45.6695E-03     72.7307E-03    -26.7613E-03     255.325E-03
            1510     14.8970E-03     50.2238E-03    -8.60161E+06     61.8338E+06    -20.2271E+06     316.907E+03    -32.5214E-03     59.0802E-03    -26.5587E-03     153.949E-03    -33.8440E-03     60.6504E-03    -26.7370E-03     153.730E-03
            1511     14.0199E-03     50.1208E-03    -7.88515E+06     3.75130E+06    -18.2306E+06     383.335E+03    -28.8785E-03     55.5163E-03    -26.6378E-03     92.6954E-03    -29.2397E-03     55.9157E-03    -26.7230E-03     92.4811E-03
            1512     13.1446E-03     50.0471E-03    -7.78334E+06    -26.8536E+06    -10.4665E+06     562.068E+03    -28.0412E-03     54.7611E-03    -26.7198E-03     78.7601E-03    -28.2077E-03     54.8350E-03    -26.7219E-03     78.5909E-03
            1513     12.2679E-03     49.9701E-03    -7.88409E+06    -38.8170E+06    -2.46908E+06     532.764E+03    -27.9687E-03     54.7598E-03    -26.7911E-03     77.5758E-03    -28.0721E-03     54.7046E-03    -26.7358E-03     77.4390E-03
            1514     11.3909E-03     49.8998E-03    -8.54716E+06     -54.665E+06    -2.38155E+06     429.926E+03    -27.8989E-03     54.7276E-03    -26.8287E-03     70.2011E-03    -27.9412E-03     54.5523E-03    -26.7489E-03     70.0902E-03
            1515     10.5150E-03     49.8371E-03    -8.85374E+06    -69.6939E+06    -3.30160E+06     301.586E+03    -27.7391E-03     54.5930E-03    -26.8539E-03     63.2267E-03    -27.7312E-03     54.3158E-03    -26.7565E-03     63.1391E-03
            1516     9.63850E-03     49.7793E-03    -9.41298E+06    -76.2631E+06     303.200E+03     208.453E+03    -27.6840E-03     54.5689E-03    -26.8850E-03     57.8890E-03    -27.6576E-03     54.2375E-03    -26.7592E-03     57.8189E-03
            1517     8.76240E-03     49.7266E-03    -10.4833E+06    -80.8640E+06     1.06356E+06     257.570E+03    -27.5286E-03     54.4249E-03    -26.8963E-03     52.5824E-03    -27.4903E-03     54.0592E-03    -26.7585E-03     52.5286E-03
            1518     7.88614E-03     49.6792E-03    -11.7674E+06    -86.9820E+06     88.2020E+03     94.7814E+03    -27.3758E-03     54.2793E-03    -26.9035E-03     47.3272E-03    -27.3255E-03     53.8782E-03    -26.7599E-03     47.2839E-03
            1519     7.00986E-03     49.6366E-03    -13.2996E+06    -93.0789E+06    -839.544E+03    -7.26126E+03    -27.2559E-03     54.1694E-03    -26.9134E-03     41.9830E-03    -27.1976E-03     53.7358E-03    -26.7634E-03     41.9483E-03
            1520     6.13362E-03     49.5992E-03    -14.9035E+06    -97.3802E+06    -3.52333E+06     88.2871E+03    -27.1545E-03     54.0675E-03    -26.9130E-03     36.6346E-03    -27.0902E-03     53.6148E-03    -26.7678E-03     36.6090E-03
            1521     5.25732E-03     49.5670E-03    -16.4556E+06    -102.894E+06    -6.74428E+06     113.736E+03    -27.0841E-03     53.9952E-03    -26.9111E-03     31.3031E-03    -27.0122E-03     53.5192E-03    -26.7718E-03     31.2840E-03
            1522     4.38112E-03     49.5396E-03    -18.0902E+06    -107.925E+06    -9.85984E+06     111.519E+03    -27.0183E-03     53.9266E-03    -26.9083E-03     26.0156E-03    -26.9409E-03     53.4305E-03    -26.7749E-03     26.0015E-03
            1523     3.50489E-03     49.5175E-03    -19.4882E+06    -110.139E+06    -13.8501E+06     159.698E+03    -26.9635E-03     53.8598E-03    -26.8963E-03     20.7775E-03    -26.8829E-03     53.3592E-03    -26.7776E-03     20.7681E-03
            1524     2.62864E-03     49.5001E-03    -20.6776E+06    -112.286E+06    -17.5104E+06     122.263E+03    -26.9239E-03     53.8089E-03    -26.8850E-03     15.5851E-03    -26.8401E-03     53.3038E-03    -26.7798E-03     15.5785E-03
            1525     1.75246E-03     49.4879E-03    -21.6243E+06    -113.702E+06    -20.1260E+06     76.1376E+03    -26.8957E-03     53.7723E-03    -26.8767E-03     10.4860E-03    -26.8101E-03     53.2648E-03    -26.7811E-03     10.4818E-03
            1526     876.171E-06     49.4801E-03    -22.1548E+06    -114.624E+06    -21.8241E+06    -9.74311E+03    -26.8792E-03     53.7490E-03    -26.8697E-03     5.67595E-03    -26.7923E-03     53.2398E-03    -26.7805E-03     5.67309E-03
            1527     16.6494E-03     49.7157E-03    -5.76876E+06     176.036E+06     87.6167E+06     454.603E+03    -37.1070E-03     63.9790E-03    -26.8720E-03     255.845E-03    -45.5643E-03     72.7866E-03    -26.6808E-03     260.504E-03
            1528     15.7744E-03     49.4148E-03    -8.31420E+06     131.422E+06     20.5455E+06     29.5512E+03    -38.5020E-03     65.1110E-03    -26.6090E-03     253.206E-03    -44.5777E-03     71.5641E-03    -26.6848E-03     254.215E-03
            1529     14.8957E-03     49.2240E-03    -8.56582E+06     61.4197E+06    -21.0556E+06     66.1547E+03    -32.0448E-03     58.5583E-03    -26.5135E-03     153.958E-03    -33.3677E-03     60.1299E-03    -26.6954E-03     153.748E-03
            1530     14.0210E-03     49.1190E-03    -8.24570E+06     3.84113E+06    -18.2024E+06     747.958E+03    -28.5403E-03     55.1591E-03    -26.6188E-03     92.2254E-03    -28.9006E-03     55.5566E-03    -26.7034E-03     92.0198E-03
            1531     13.1443E-03     49.0479E-03    -7.72719E+06    -26.3139E+06    -10.0022E+06     702.101E+03    -27.8296E-03     54.5483E-03    -26.7187E-03     79.2260E-03    -27.9966E-03     54.6235E-03    -26.7194E-03     79.0606E-03
            1532     12.2671E-03     48.9703E-03    -7.93550E+06    -39.3774E+06    -2.59187E+06     379.467E+03    -28.0765E-03     54.8701E-03    -26.7936E-03     78.2093E-03    -28.1806E-03     54.8138E-03    -26.7380E-03     78.0692E-03
            1533     11.3914E-03     48.8994E-03    -8.26104E+06    -53.9861E+06    -1.53476E+06     328.765E+03    -28.0199E-03     54.8456E-03    -26.8257E-03     69.9648E-03    -28.0632E-03     54.6724E-03    -26.7431E-03     69.8517E-03
            1534     10.5149E-03     48.8370E-03    -8.86804E+06    -69.2225E+06    -3.11292E+06     198.700E+03    -27.8209E-03     54.6598E-03    -26.8389E-03     63.1890E-03    -27.8142E-03     54.3849E-03    -26.7413E-03     63.0995E-03
            1535     9.63889E-03     48.7789E-03    -9.49358E+06    -76.7394E+06     138.120E+03     135.048E+03    -27.5978E-03     54.4667E-03    -26.8689E-03     57.9732E-03    -27.5707E-03     54.1330E-03    -26.7431E-03     57.9027E-03
            1536     8.76248E-03     48.7266E-03    -10.3751E+06    -80.7713E+06     1.39364E+06     270.923E+03    -27.4645E-03     54.3522E-03    -26.8877E-03     52.6602E-03    -27.4261E-03     53.9862E-03    -26.7486E-03     52.6070E-03
            1537     7.88614E-03     48.6789E-03    -11.6798E+06    -86.8015E+06     264.572E+03     197.789E+03    -27.3686E-03     54.2655E-03    -26.8970E-03     47.3473E-03    -27.3183E-03     53.8649E-03    -26.7529E-03     47.3055E-03
            1538     7.00996E-03     48.6365E-03    -13.1707E+06    -93.0985E+06    -793.364E+03     127.682E+03    -27.2477E-03     54.1543E-03    -26.9067E-03     42.0028E-03    -27.1886E-03     53.7204E-03    -26.7565E-03     41.9699E-03
            1539     6.13360E-03     48.5991E-03    -14.8370E+06    -97.4417E+06    -3.65296E+06     89.4775E+03    -27.1540E-03     54.0592E-03    -26.9052E-03     36.6569E-03    -27.0891E-03     53.6063E-03    -26.7607E-03     36.6314E-03
            1540     5.25744E-03     48.5668E-03    -16.4423E+06    -102.899E+06    -6.79986E+06     88.4512E+03    -27.0751E-03     53.9786E-03    -26.9035E-03     31.3010E-03    -27.0031E-03     53.5026E-03    -26.7645E-03     31.2817E-03
            1541     4.38113E-03     48.5396E-03    -17.9997E+06    -107.930E+06    -9.98521E+06     93.7041E+03    -27.0127E-03     53.9129E-03    -26.9002E-03     26.0171E-03    -26.9347E-03     53.4169E-03    -26.7676E-03     26.0028E-03
            1542     3.50491E-03     48.5172E-03    -19.5261E+06    -110.187E+06    -13.8755E+06     89.8581E+03    -26.9581E-03     53.8467E-03    -26.8886E-03     20.7702E-03    -26.8776E-03     53.3459E-03    -26.7699E-03     20.7600E-03
            1543     2.62868E-03     48.5001E-03    -20.7462E+06    -112.194E+06    -17.3526E+06     115.218E+03    -26.9157E-03     53.7933E-03    -26.8776E-03     15.5828E-03    -26.8325E-03     53.2885E-03    -26.7716E-03     15.5763E-03
            1544     1.75243E-03     48.4876E-03    -21.5891E+06    -113.643E+06    -20.0668E+06     38.3719E+03    -26.8862E-03     53.7552E-03    -26.8690E-03     10.4814E-03    -26.8007E-03     53.2478E-03    -26.7733E-03     10.4767E-03
            1545     876.262E-06     48.4802E-03    -22.1236E+06    -114.608E+06    -21.7795E+06     49.3564E+03    -26.8636E-03     53.7345E-03    -26.8708E-03     5.67841E-03    -26.7766E-03     53.2252E-03    -26.7815E-03     5.67631E-03
            1546     16.6540E-03     48.7165E-03    -5.41310E+06     176.124E+06     87.4613E+06     354.486E+03    -37.5776E-03     64.3594E-03    -26.7818E-03     254.499E-03    -45.9649E-03     73.0992E-03    -26.5920E-03     259.077E-03
            1547     15.7735E-03     48.4172E-03    -8.06303E+06     132.017E+06     20.7064E+06     148.802E+03    -37.6746E-03     64.2028E-03    -26.5283E-03     254.530E-03    -43.7732E-03     70.6815E-03    -26.6045E-03     255.629E-03
            1548     14.8989E-03     48.2222E-03    -8.76295E+06     61.2062E+06    -21.0397E+06     305.379E+03    -31.3909E-03     57.8699E-03    -26.4790E-03     154.815E-03    -32.7150E-03     59.4412E-03    -26.6603E-03     154.615E-03
            1549     14.0209E-03     48.1208E-03    -7.92574E+06     3.74097E+06    -17.9485E+06     725.038E+03    -27.8966E-03     54.5234E-03    -26.6268E-03     93.1754E-03    -28.2529E-03     54.9169E-03    -26.7105E-03     92.9768E-03
            1550     13.1430E-03     48.0478E-03    -7.82322E+06    -25.8552E+06    -9.41983E+06     518.146E+03    -28.0921E-03     54.8344E-03    -26.7422E-03     79.6638E-03    -28.2640E-03     54.9139E-03    -26.7405E-03     79.4930E-03
            1551     12.2679E-03     47.9696E-03    -8.10409E+06    -39.0628E+06    -2.55181E+06     310.222E+03    -28.3347E-03     55.1324E-03    -26.7977E-03     77.9997E-03    -28.4408E-03     55.0784E-03    -26.7420E-03     77.8568E-03
            1552     11.3912E-03     47.8994E-03    -8.34564E+06    -54.4178E+06    -1.73266E+06     245.384E+03    -28.0428E-03     54.8620E-03    -26.8192E-03     70.1659E-03    -28.0856E-03     54.6870E-03    -26.7369E-03     70.0517E-03
            1553     10.5153E-03     47.8364E-03    -8.62506E+06    -68.8601E+06    -2.78539E+06     318.135E+03    -27.7935E-03     54.6271E-03    -26.8336E-03     63.2465E-03    -27.7865E-03     54.3531E-03    -26.7352E-03     63.1588E-03
            1554     9.63879E-03     47.7793E-03    -9.57920E+06    -76.8428E+06    -226.519E+03     180.962E+03    -27.5683E-03     54.4320E-03    -26.8637E-03     58.1655E-03    -27.5407E-03     54.0983E-03    -26.7395E-03     58.0961E-03
            1555     8.76239E-03     47.7262E-03    -10.5509E+06    -81.1981E+06     1.27139E+06     177.322E+03    -27.4790E-03     54.3641E-03    -26.8851E-03     52.7798E-03    -27.4407E-03     53.9964E-03    -26.7457E-03     52.7254E-03
            1556     7.88631E-03     47.6789E-03    -11.6836E+06    -86.5363E+06     500.931E+03     322.224E+03    -27.3617E-03     54.2561E-03    -26.8944E-03     47.3326E-03    -27.3121E-03     53.8564E-03    -26.7494E-03     47.2924E-03
            1557     7.00983E-03     47.6363E-03    -13.2282E+06    -93.0562E+06    -975.396E+03     181.556E+03    -27.2558E-03     54.1576E-03    -26.9017E-03     42.0171E-03    -27.1969E-03     53.7241E-03    -26.7525E-03     41.9851E-03
            1558     6.13375E-03     47.5989E-03    -14.7060E+06    -97.4432E+06    -3.70078E+06     129.023E+03    -27.1583E-03     54.0576E-03    -26.8994E-03     36.6386E-03    -27.0926E-03     53.6045E-03    -26.7552E-03     36.6136E-03
            1559     5.25735E-03     47.5667E-03    -16.3729E+06    -102.903E+06    -6.86647E+06     152.802E+03    -27.0734E-03     53.9700E-03    -26.8966E-03     31.3010E-03    -27.0009E-03     53.4940E-03    -26.7580E-03     31.2825E-03
            1560     4.38120E-03     47.5394E-03    -18.0714E+06    -107.902E+06    -9.95870E+06     122.519E+03    -27.0100E-03     53.9031E-03    -26.8931E-03     26.0017E-03    -26.9325E-03     53.4072E-03    -26.7602E-03     25.9878E-03
            1561     3.50492E-03     47.5173E-03    -19.5599E+06    -110.148E+06    -13.8969E+06     60.5915E+03    -26.9520E-03     53.8323E-03    -26.8803E-03     20.7599E-03    -26.8717E-03     53.3318E-03    -26.7617E-03     20.7493E-03
            1562     2.62870E-03     47.4998E-03    -20.7158E+06    -112.180E+06    -17.4182E+06    -14.9603E+03    -26.9090E-03     53.7775E-03    -26.8685E-03     15.5691E-03    -26.8256E-03     53.2728E-03    -26.7629E-03     15.5608E-03
            1563     1.75248E-03     47.4877E-03    -21.5925E+06    -113.634E+06    -20.0963E+06     35.1572E+03    -26.8776E-03     53.7372E-03    -26.8595E-03     10.4732E-03    -26.7921E-03     53.2299E-03    -26.7639E-03     10.4684E-03
            1564     876.193E-06     47.4799E-03    -22.1423E+06    -114.586E+06    -21.7606E+06     42.8627E+03    -26.8652E-03     53.7152E-03    -26.8501E-03     5.65603E-03    -26.7783E-03     53.2061E-03    -26.7606E-03     5.65386E-03
            1565     16.6517E-03     47.7201E-03    -5.33155E+06     175.815E+06     86.9947E+06    -268.208E+03    -37.5916E-03     64.4240E-03    -26.8325E-03     255.272E-03    -46.0183E-03     73.2039E-03    -26.6447E-03     259.829E-03
            1566     15.7764E-03     47.4161E-03    -7.66607E+06     131.835E+06     20.7557E+06     764.045E+03    -38.6059E-03     65.1754E-03    -26.5695E-03     256.908E-03    -44.7804E-03     71.7304E-03    -26.6457E-03     257.913E-03
            1567     14.8969E-03     47.2246E-03    -8.49427E+06     61.2691E+06    -20.2957E+06     1.05205E+06    -31.1715E-03     57.6894E-03    -26.5179E-03     156.298E-03    -32.4966E-03     59.2607E-03    -26.6959E-03     156.117E-03
            1568     14.0185E-03     47.1216E-03    -8.54316E+06     4.07155E+06    -18.0816E+06     295.910E+03    -28.3644E-03     55.0254E-03    -26.6610E-03     94.2327E-03    -28.7288E-03     55.4264E-03    -26.7450E-03     94.0236E-03
            1569     13.1442E-03     47.0459E-03    -8.09936E+06    -25.6939E+06    -10.0496E+06     137.378E+03    -28.4581E-03     55.2076E-03    -26.7495E-03     79.4840E-03    -28.6313E-03     55.2900E-03    -26.7508E-03     79.3053E-03
            1570     12.2674E-03     46.9703E-03    -7.77402E+06    -38.8383E+06    -2.71969E+06     372.660E+03    -28.2660E-03     55.0626E-03    -26.7965E-03     77.9060E-03    -28.3694E-03     55.0084E-03    -26.7426E-03     77.7651E-03
            1571     11.3913E-03     46.8983E-03    -8.27564E+06    -55.0784E+06    -2.18827E+06     316.028E+03    -27.9578E-03     54.7824E-03    -26.8246E-03     70.3400E-03    -27.9984E-03     54.6044E-03    -26.7437E-03     70.2274E-03
            1572     10.5149E-03     46.8368E-03    -8.91809E+06    -68.9620E+06    -2.91389E+06     450.863E+03    -27.7845E-03     54.6297E-03    -26.8451E-03     63.3064E-03    -27.7785E-03     54.3556E-03    -26.7468E-03     63.2207E-03
            1573     9.63862E-03     46.7789E-03    -9.49452E+06    -76.0136E+06    -44.8636E+03     324.471E+03    -27.6994E-03     54.5696E-03    -26.8702E-03     58.2398E-03    -27.6730E-03     54.2398E-03    -26.7464E-03     58.1718E-03
            1574     8.76263E-03     46.7261E-03    -10.6462E+06    -81.4584E+06     869.715E+03     97.8611E+03    -27.5170E-03     54.4000E-03    -26.8830E-03     52.7217E-03    -27.4782E-03     54.0316E-03    -26.7451E-03     52.6663E-03
            1575     7.88607E-03     46.6787E-03    -11.9024E+06    -86.6013E+06     448.724E+03     275.487E+03    -27.3683E-03     54.2596E-03    -26.8912E-03     47.3247E-03    -27.3197E-03     53.8599E-03    -26.7462E-03     47.2841E-03
            1576     7.01009E-03     46.6361E-03    -13.2922E+06    -92.7433E+06    -897.398E+03     248.028E+03    -27.2662E-03     54.1630E-03    -26.8968E-03     41.9741E-03    -27.2081E-03     53.7311E-03    -26.7476E-03     41.9429E-03
            1577     6.13361E-03     46.5989E-03    -14.9625E+06    -97.5709E+06    -3.98825E+06     120.133E+03    -27.1567E-03     54.0487E-03    -26.8920E-03     36.6097E-03    -27.0917E-03     53.5958E-03    -26.7488E-03     36.5846E-03
            1578     5.25753E-03     46.5665E-03    -16.4737E+06    -102.886E+06    -7.05146E+06     223.410E+03    -27.0770E-03     53.9649E-03    -26.8879E-03     31.2672E-03    -27.0047E-03     53.4893E-03    -26.7501E-03     31.2497E-03
            1579     4.38117E-03     46.5394E-03    -18.0026E+06    -107.752E+06    -10.0686E+06     135.084E+03    -27.0037E-03     53.8867E-03    -26.8830E-03     25.9774E-03    -26.9258E-03     53.3916E-03    -26.7510E-03     25.9637E-03
            1580     3.50499E-03     46.5170E-03    -19.4504E+06    -110.065E+06    -13.9043E+06    -7.91060E+03    -26.9467E-03     53.8165E-03    -26.8699E-03     20.7398E-03    -26.8659E-03     53.3163E-03    -26.7516E-03     20.7283E-03
            1581     2.62872E-03     46.5000E-03    -20.7106E+06    -112.237E+06    -17.5508E+06     7.66734E+03    -26.9030E-03     53.7593E-03    -26.8563E-03     15.5480E-03    -26.8193E-03     53.2545E-03    -26.7513E-03     15.5401E-03
            1582     1.75247E-03     46.4874E-03    -21.6569E+06    -113.664E+06    -20.1202E+06     10.7840E+03    -26.8707E-03     53.7158E-03    -26.8451E-03     10.4537E-03    -26.7854E-03     53.2085E-03    -26.7495E-03     10.4487E-03
            1583     876.276E-06     46.4801E-03    -22.1803E+06    -114.563E+06    -21.7846E+06    -24.3498E+03    -26.8619E-03     53.6822E-03    -26.8203E-03     5.64612E-03    -26.7752E-03     53.1733E-03    -26.7309E-03     5.64309E-03
            1584     16.6447E-03     46.7108E-03    -5.44473E+06     175.261E+06     86.0095E+06    -175.975E+03    -36.1803E-03     63.1302E-03    -26.9498E-03     256.388E-03    -44.6500E-03     71.9534E-03    -26.7660E-03     261.125E-03
            1585     15.7712E-03     46.4154E-03    -9.62085E+06     130.272E+06     19.0095E+06    -67.0005E+03    -39.3610E-03     66.0620E-03    -26.7010E-03     254.304E-03    -45.4618E-03     72.5359E-03    -26.7809E-03     255.244E-03
            1586     14.8950E-03     46.2263E-03     -9.4175E+06     61.3994E+06    -20.7627E+06     201.651E+03    -32.5350E-03     59.1205E-03    -26.5856E-03     155.473E-03    -33.8747E-03     60.7050E-03    -26.7647E-03     155.257E-03
            1587     14.0206E-03     46.1194E-03    -7.90704E+06     4.50951E+06    -18.2192E+06     184.718E+03    -28.8972E-03     55.5675E-03    -26.6703E-03     93.7997E-03    -29.2609E-03     55.9720E-03    -26.7565E-03     93.5835E-03
            1588     13.1434E-03     46.0466E-03    -7.46595E+06    -25.9434E+06    -9.99108E+06     384.934E+03    -28.1768E-03     54.9307E-03    -26.7539E-03     79.6389E-03    -28.3442E-03     55.0084E-03    -26.7554E-03     79.4670E-03
            1589     12.2675E-03     45.9693E-03    -8.21504E+06    -39.2529E+06    -3.12952E+06     465.391E+03    -28.2906E-03     55.1007E-03    -26.8102E-03     78.0787E-03    -28.3956E-03     55.0463E-03    -26.7570E-03     77.9384E-03
            1590     11.3912E-03     45.8987E-03    -8.49488E+06    -54.8761E+06    -2.32172E+06     424.118E+03    -27.9911E-03     54.8283E-03    -26.8372E-03     70.2063E-03    -28.0327E-03     54.6517E-03    -26.7569E-03     70.0951E-03
            1591     10.5146E-03     45.8364E-03    -8.89693E+06    -68.6369E+06    -2.92464E+06     432.539E+03    -27.8563E-03     54.7105E-03    -26.8542E-03     63.2720E-03    -27.8507E-03     54.4381E-03    -26.7564E-03     63.1859E-03
            1592     9.63882E-03     45.7783E-03    -9.71221E+06    -75.9448E+06    -197.984E+03     394.035E+03    -27.7747E-03     54.6477E-03    -26.8730E-03     58.0293E-03    -27.7495E-03     54.3189E-03    -26.7498E-03     57.9618E-03
            1593     8.76237E-03     45.7262E-03    -10.7440E+06    -81.1375E+06     636.658E+03     272.073E+03    -27.5482E-03     54.4276E-03    -26.8794E-03     52.6287E-03    -27.5099E-03     54.0613E-03    -26.7430E-03     52.5754E-03
            1594     7.88641E-03     45.6783E-03    -12.0856E+06    -86.7652E+06     4.56919E+03     155.052E+03    -27.3906E-03     54.2747E-03    -26.8841E-03     47.3073E-03    -27.3420E-03     53.8751E-03    -26.7407E-03     47.2651E-03
            1595     7.00990E-03     45.6362E-03    -13.4718E+06    -92.7211E+06    -744.645E+03     258.727E+03    -27.2671E-03     54.1572E-03    -26.8901E-03     41.9233E-03    -27.2102E-03     53.7255E-03    -26.7399E-03     41.8923E-03
            1596     6.13386E-03     45.5986E-03    -15.1086E+06    -97.4196E+06    -3.91281E+06     294.071E+03    -27.1630E-03     54.0457E-03    -26.8827E-03     36.5643E-03    -27.0990E-03     53.5936E-03    -26.7391E-03     36.5415E-03
            1597     5.25744E-03     45.5666E-03    -16.7516E+06    -102.878E+06    -7.35353E+06     70.1659E+03    -27.0704E-03     53.9457E-03    -26.8753E-03     31.2258E-03    -26.9991E-03     53.4710E-03    -26.7386E-03     31.2063E-03
            1598     4.38131E-03     45.5391E-03    -18.1131E+06    -107.579E+06    -10.2149E+06     3.13530E+03    -26.9987E-03     53.8679E-03    -26.8692E-03     25.9438E-03    -26.9214E-03     53.3741E-03    -26.7381E-03     25.9285E-03
            1599     3.50499E-03     45.5171E-03    -19.5198E+06    -110.129E+06    -14.0652E+06     38.3625E+03    -26.9371E-03     53.7918E-03    -26.8548E-03     20.7017E-03    -26.8563E-03     53.2916E-03    -26.7371E-03     20.6909E-03
            1600     2.62878E-03     45.4997E-03    -20.7612E+06    -112.222E+06    -17.5264E+06     55.0051E+03    -26.8922E-03     53.7325E-03    -26.8403E-03     15.5194E-03    -26.8088E-03     53.2279E-03    -26.7351E-03     15.5121E-03
            1601     1.75253E-03     45.4876E-03    -21.6365E+06    -113.633E+06    -20.1732E+06    -4.92279E+03    -26.8546E-03     53.6819E-03    -26.8273E-03     10.4328E-03    -26.7691E-03     53.1748E-03    -26.7320E-03     10.4276E-03
            1602     876.248E-06     45.4797E-03    -22.2391E+06    -114.566E+06    -21.8606E+06    -7.70081E+03    -26.8209E-03     53.6461E-03    -26.8252E-03     5.65143E-03    -26.7344E-03     53.1374E-03    -26.7361E-03     5.64862E-03
            1603     16.6491E-03     45.7106E-03    -5.02507E+06     175.727E+06     86.7754E+06     574.700E+03    -35.3979E-03     62.3497E-03    -26.9518E-03     256.469E-03    -43.8653E-03     71.1715E-03    -26.7654E-03     261.278E-03
            1604     15.7698E-03     45.4150E-03    -9.69331E+06     130.346E+06     18.9276E+06    -528.547E+03    -38.6269E-03     65.3546E-03    -26.7278E-03     251.161E-03    -44.6507E-03     71.7519E-03    -26.8081E-03     252.169E-03
            1605     14.8963E-03     45.2223E-03    -9.71889E+06     60.9768E+06    -21.6860E+06    -846.170E+03    -33.0262E-03     59.6279E-03    -26.6016E-03     154.002E-03    -34.3628E-03     61.2093E-03    -26.7844E-03     153.758E-03
            1606     14.0200E-03     45.1207E-03    -8.22786E+06     4.04660E+06    -18.8048E+06     447.252E+03    -28.8711E-03     55.5418E-03    -26.6706E-03     93.4002E-03    -29.2352E-03     55.9455E-03    -26.7586E-03     93.1875E-03
            1607     13.1432E-03     45.0464E-03    -7.89560E+06    -26.3535E+06    -10.4395E+06     765.961E+03    -28.0662E-03     54.8253E-03    -26.7592E-03     79.7384E-03    -28.2334E-03     54.9013E-03    -26.7617E-03     79.5727E-03
            1608     12.2670E-03     44.9684E-03    -8.12204E+06    -39.2382E+06    -3.12126E+06     471.055E+03    -28.2333E-03     55.0560E-03    -26.8227E-03     77.8686E-03    -28.3379E-03     55.0015E-03    -26.7696E-03     77.7284E-03
            1609     11.3908E-03     44.8989E-03    -8.62426E+06    -54.4245E+06    -2.49217E+06     460.021E+03    -28.1633E-03     55.0074E-03    -26.8441E-03     70.0086E-03    -28.2063E-03     54.8337E-03    -26.7651E-03     69.8968E-03
            1610     10.5152E-03     44.8356E-03    -8.97686E+06    -68.5584E+06    -3.21688E+06     383.297E+03    -27.9746E-03     54.8237E-03    -26.8491E-03     63.1962E-03    -27.9692E-03     54.5524E-03    -26.7527E-03     63.1088E-03
            1611     9.63860E-03     44.7785E-03    -9.75563E+06    -76.0278E+06    -301.237E+03     476.999E+03    -27.7175E-03     54.5833E-03    -26.8658E-03     57.8104E-03    -27.6920E-03     54.2541E-03    -26.7429E-03     57.7442E-03
            1612     8.76265E-03     44.7255E-03    -10.8425E+06    -80.9009E+06     544.306E+03     412.442E+03    -27.5475E-03     54.4210E-03    -26.8735E-03     52.5513E-03    -27.5099E-03     54.0561E-03    -26.7378E-03     52.4999E-03
            1613     7.88621E-03     44.6785E-03    -12.1390E+06    -86.7034E+06    -234.397E+03     216.063E+03    -27.4213E-03     54.2963E-03    -26.8750E-03     47.2355E-03    -27.3727E-03     53.8975E-03    -26.7329E-03     47.1940E-03
            1614     7.01020E-03     44.6357E-03    -13.5957E+06    -92.8351E+06    -1.06335E+06     178.823E+03    -27.2840E-03     54.1609E-03    -26.8769E-03     41.8612E-03    -27.2270E-03     53.7292E-03    -26.7279E-03     41.8292E-03
            1615     6.13378E-03     44.5987E-03    -14.9804E+06    -97.3178E+06    -3.74513E+06     211.483E+03    -27.1637E-03     54.0319E-03    -26.8681E-03     36.4770E-03    -27.0995E-03     53.5798E-03    -26.7240E-03     36.4531E-03
            1616     5.25767E-03     44.5662E-03    -16.4203E+06    -102.557E+06    -7.14540E+06     100.519E+03    -27.0649E-03     53.9230E-03    -26.8581E-03     31.1590E-03    -26.9927E-03     53.4491E-03    -26.7213E-03     31.1400E-03
            1617     4.38131E-03     44.5393E-03    -18.1619E+06    -107.687E+06    -10.3810E+06    -30.3246E+03    -26.9884E-03     53.8377E-03    -26.8493E-03     25.8842E-03    -26.9110E-03     53.3436E-03    -26.7187E-03     25.8684E-03
            1618     3.50512E-03     44.5169E-03    -19.6423E+06    -110.141E+06    -14.1593E+06     21.7527E+03    -26.9223E-03     53.7556E-03    -26.8333E-03     20.6533E-03    -26.8420E-03     53.2556E-03    -26.7159E-03     20.6422E-03
            1619     2.62881E-03     44.4999E-03    -20.7764E+06    -112.198E+06    -17.6309E+06     7.57967E+03    -26.8679E-03     53.6859E-03    -26.8180E-03     15.4846E-03    -26.7844E-03     53.1815E-03    -26.7133E-03     15.4767E-03
            1620     1.75255E-03     44.4873E-03    -21.6438E+06    -113.629E+06    -20.2822E+06     44.4546E+03    -26.8298E-03     53.6363E-03    -26.8065E-03     10.4035E-03    -26.7443E-03     53.1294E-03    -26.7117E-03     10.3989E-03
            1621     876.280E-06     44.4801E-03    -22.1868E+06    -114.522E+06    -21.9229E+06     60.9685E+03    -26.7899E-03     53.6073E-03    -26.8174E-03     5.61544E-03    -26.7032E-03     53.0988E-03    -26.7288E-03     5.61354E-03
            1622     16.6494E-03     44.7153E-03    -4.91418E+06     175.696E+06     87.0498E+06     627.846E+03    -36.3415E-03     63.2215E-03    -26.8800E-03     256.780E-03    -44.8076E-03     72.0415E-03    -26.6924E-03     261.492E-03
            1623     15.7734E-03     44.4130E-03    -7.42157E+06     131.684E+06     20.3724E+06     467.682E+03    -37.9027E-03     64.5616E-03    -26.6589E-03     253.102E-03    -43.9685E-03     71.0094E-03    -26.7372E-03     254.155E-03
            1624     14.8953E-03     44.2227E-03    -8.75198E+06     60.8218E+06    -21.3609E+06     63.7077E+03    -32.0465E-03     58.6316E-03    -26.5850E-03     153.795E-03    -33.3656E-03     60.1974E-03    -26.7673E-03     153.581E-03
            1625     14.0192E-03     44.1193E-03    -9.21900E+06     3.62816E+06    -19.1908E+06     111.066E+03    -28.8325E-03     55.5154E-03    -26.6829E-03     93.0201E-03    -29.1999E-03     55.9186E-03    -26.7707E-03     92.8027E-03
            1626     13.1442E-03     44.0464E-03    -8.59004E+06    -26.4418E+06    -10.8496E+06     302.435E+03    -28.4013E-03     55.1610E-03    -26.7597E-03     79.5709E-03    -28.5734E-03     55.2402E-03    -26.7631E-03     79.3954E-03
            1627     12.2671E-03     43.9687E-03    -8.10657E+06    -38.9627E+06    -2.98630E+06     374.920E+03    -28.2597E-03     55.0708E-03    -26.8111E-03     77.6697E-03    -28.3642E-03     55.0169E-03    -26.7578E-03     77.5285E-03
            1628     11.3911E-03     43.8977E-03    -8.66134E+06    -54.3649E+06    -2.51914E+06     405.206E+03    -28.1172E-03     54.9485E-03    -26.8313E-03     69.7013E-03    -28.1601E-03     54.7750E-03    -26.7526E-03     69.5889E-03
            1629     10.5148E-03     43.8356E-03    -9.42021E+06    -69.0993E+06    -3.76065E+06     442.534E+03    -27.9320E-03     54.7691E-03    -26.8371E-03     62.9669E-03    -27.9271E-03     54.4963E-03    -26.7420E-03     62.8804E-03
            1630     9.63908E-03     43.7779E-03    -9.86100E+06    -75.9475E+06    -447.250E+03     424.549E+03    -27.7057E-03     54.5611E-03    -26.8554E-03     57.7889E-03    -27.6805E-03     54.2326E-03    -26.7332E-03     57.7221E-03
            1631     8.76248E-03     43.7258E-03    -10.8172E+06    -80.7663E+06     492.249E+03     455.131E+03    -27.5672E-03     54.4289E-03    -26.8618E-03     52.4929E-03    -27.5295E-03     54.0647E-03    -26.7265E-03     52.4421E-03
            1632     7.88652E-03     43.6779E-03    -11.9936E+06    -86.4224E+06    -173.206E+03     318.950E+03    -27.4423E-03     54.3019E-03    -26.8596E-03     47.0893E-03    -27.3934E-03     53.9042E-03    -26.7178E-03     47.0492E-03
            1633     7.01015E-03     43.6359E-03    -13.4966E+06    -92.7275E+06    -1.13577E+06     111.130E+03    -27.2960E-03     54.1528E-03    -26.8568E-03     41.7291E-03    -27.2385E-03     53.7216E-03    -26.7085E-03     41.6962E-03
            1634     6.13407E-03     43.5983E-03    -15.0667E+06    -97.3436E+06    -3.85312E+06     16.4699E+03    -27.1555E-03     54.0006E-03    -26.8451E-03     36.3854E-03    -27.0915E-03     53.5487E-03    -26.7014E-03     36.3591E-03
            1635     5.25768E-03     43.5665E-03    -16.6377E+06    -102.504E+06    -7.19987E+06     125.647E+03    -27.0542E-03     53.8870E-03    -26.8328E-03     31.0775E-03    -26.9831E-03     53.4138E-03    -26.6960E-03     31.0588E-03
            1636     4.38151E-03     43.5390E-03    -18.1325E+06    -107.535E+06    -10.5021E+06     84.5888E+03    -26.9698E-03     53.7906E-03    -26.8208E-03     25.8160E-03    -26.8923E-03     53.2974E-03    -26.6911E-03     25.8018E-03
            1637     3.50517E-03     43.5171E-03    -19.5709E+06    -110.217E+06    -14.4160E+06    -49.9768E+03    -26.8974E-03     53.7002E-03    -26.8028E-03     20.5922E-03    -26.8162E-03     53.2001E-03    -26.6867E-03     20.5803E-03
            1638     2.62892E-03     43.4996E-03    -20.7412E+06    -112.226E+06    -17.8478E+06     47.8171E+03    -26.8402E-03     53.6270E-03    -26.7869E-03     15.4327E-03    -26.7562E-03     53.1228E-03    -26.6833E-03     15.4254E-03
            1639     1.75260E-03     43.4876E-03    -21.6755E+06    -113.606E+06    -20.3214E+06     94.6005E+03    -26.8019E-03     53.5768E-03    -26.7749E-03     10.3616E-03    -26.7165E-03     53.0701E-03    -26.6803E-03     10.3577E-03
            1640     876.309E-06     43.4797E-03    -22.2207E+06    -114.439E+06    -21.8212E+06     67.2658E+03    -26.7763E-03     53.5425E-03    -26.7662E-03     5.57879E-03    -26.6900E-03     53.0344E-03    -26.6771E-03     5.57700E-03
            1641     16.6516E-03     43.7156E-03    -5.13929E+06     175.218E+06     86.0777E+06     246.375E+03    -36.8140E-03     63.6809E-03    -26.8669E-03     256.792E-03    -45.2771E-03     72.4982E-03    -26.6831E-03     261.463E-03
            1642     15.7728E-03     43.4145E-03    -8.27123E+06     131.658E+06     20.4414E+06     697.115E+03    -38.2161E-03     64.8564E-03    -26.6403E-03     255.281E-03    -44.3531E-03     71.3721E-03    -26.7170E-03     256.327E-03
            1643     14.8964E-03     43.2226E-03    -8.87164E+06     61.5134E+06    -20.3275E+06     816.345E+03    -31.8845E-03     58.4577E-03    -26.5732E-03     154.221E-03    -33.2011E-03     60.0201E-03    -26.7512E-03     154.019E-03
            1644     14.0197E-03     43.1192E-03    -8.34785E+06     3.35961E+06    -19.0872E+06     274.614E+03    -28.7030E-03     55.3788E-03    -26.6758E-03     92.9499E-03    -29.0640E-03     55.7775E-03    -26.7640E-03     92.7361E-03
            1645     13.1427E-03     43.0453E-03    -8.28414E+06    -26.2649E+06    -10.4391E+06    -35.7208E+03    -28.4871E-03     55.2419E-03    -26.7548E-03     79.2239E-03    -28.6588E-03     55.3213E-03    -26.7569E-03     79.0431E-03
            1646     12.2681E-03     42.9684E-03    -8.32562E+06    -38.6199E+06    -2.99428E+06     282.931E+03    -28.4831E-03     55.2757E-03    -26.7926E-03     77.7360E-03    -28.5895E-03     55.2242E-03    -26.7395E-03     77.5924E-03
            1647     11.3914E-03     42.8977E-03    -8.54920E+06    -54.7529E+06    -2.61948E+06     418.886E+03    -28.0538E-03     54.8596E-03    -26.8058E-03     69.6870E-03    -28.0951E-03     54.6838E-03    -26.7271E-03     69.5753E-03
            1648     10.5154E-03     42.8351E-03    -9.11312E+06    -69.0548E+06    -3.66260E+06     437.780E+03    -27.7770E-03     54.5957E-03    -26.8187E-03     62.8124E-03    -27.7702E-03     54.3220E-03    -26.7236E-03     62.7269E-03
            1649     9.63864E-03     42.7780E-03    -9.80376E+06    -75.9661E+06    -571.269E+03     329.750E+03    -27.7341E-03     54.5740E-03    -26.8398E-03     57.6893E-03    -27.7083E-03     54.2454E-03    -26.7183E-03     57.6213E-03
            1650     8.76296E-03     42.7251E-03    -10.6658E+06    -80.5836E+06     575.745E+03     325.551E+03    -27.6242E-03     54.4648E-03    -26.8406E-03     52.3152E-03    -27.5862E-03     54.1012E-03    -26.7054E-03     52.2625E-03
            1651     7.88655E-03     42.6781E-03    -11.9127E+06    -86.2601E+06    -161.949E+03     344.982E+03    -27.4329E-03     54.2658E-03    -26.8329E-03     46.9325E-03    -27.3837E-03     53.8686E-03    -26.6914E-03     46.8927E-03
            1652     7.01052E-03     42.6354E-03    -13.4222E+06    -92.4461E+06    -1.11213E+06     223.583E+03    -27.2742E-03     54.1026E-03    -26.8283E-03     41.5990E-03    -27.2168E-03     53.6725E-03    -26.6804E-03     41.5676E-03
            1653     6.13412E-03     42.5986E-03    -15.2036E+06    -97.3139E+06    -3.99657E+06     86.7170E+03    -27.1482E-03     53.9622E-03    -26.8140E-03     36.2841E-03    -27.0846E-03     53.5108E-03    -26.6708E-03     36.2587E-03
            1654     5.25797E-03     42.5661E-03    -16.7788E+06    -102.535E+06    -7.37067E+06    -18.4694E+03    -27.0364E-03     53.8347E-03    -26.7983E-03     30.9827E-03    -26.9657E-03     53.3618E-03    -26.6621E-03     30.9623E-03
            1655     4.38160E-03     42.5393E-03    -18.1657E+06    -107.452E+06    -10.7024E+06    -1.19637E+03    -26.9443E-03     53.7274E-03    -26.7831E-03     25.7328E-03    -26.8667E-03     53.2350E-03    -26.6545E-03     25.7176E-03
            1656     3.50535E-03     42.5169E-03    -19.5555E+06    -110.270E+06    -14.6529E+06     112.272E+03    -26.8661E-03     53.6290E-03    -26.7629E-03     20.5161E-03    -26.7845E-03     53.1290E-03    -26.6479E-03     20.5064E-03
            1657     2.62899E-03     42.5000E-03    -20.8539E+06    -112.250E+06    -17.8800E+06     141.809E+03    -26.8070E-03     53.5526E-03    -26.7456E-03     15.3733E-03    -26.7235E-03     53.0485E-03    -26.6420E-03     15.3672E-03
            1658     1.75270E-03     42.4874E-03    -21.6867E+06    -113.495E+06    -20.2821E+06     76.9487E+03    -26.7625E-03     53.4934E-03    -26.7308E-03     10.3219E-03    -26.6774E-03     52.9871E-03    -26.6362E-03     10.3179E-03
            1659     876.342E-06     42.4803E-03    -22.1504E+06    -114.366E+06    -21.8510E+06     27.4423E+03    -26.7395E-03     53.4516E-03    -26.7121E-03     5.56002E-03    -26.6529E-03     52.9437E-03    -26.6234E-03     5.55772E-03
            1660     16.6476E-03     42.7163E-03    -5.87865E+06     174.614E+06     85.9134E+06    -67.5651E+03    -36.6732E-03     63.5849E-03    -26.9117E-03     256.947E-03    -45.1670E-03     72.4286E-03    -26.7268E-03     261.624E-03
            1661     15.7721E-03     42.4124E-03    -8.82851E+06     131.348E+06     20.7086E+06     385.035E+03    -38.9220E-03     65.5907E-03    -26.6687E-03     254.713E-03    -45.0630E-03     72.1067E-03    -26.7428E-03     255.698E-03
            1662     14.8962E-03     42.2233E-03    -9.32897E+06     61.6198E+06    -20.3967E+06     646.955E+03    -32.3097E-03     58.8750E-03    -26.5654E-03     154.370E-03    -33.6326E-03     60.4428E-03    -26.7432E-03     154.160E-03
            1663     14.0198E-03     42.1184E-03    -8.48864E+06     3.74782E+06    -19.1783E+06     411.757E+03    -28.8135E-03     55.4638E-03    -26.6502E-03     92.8649E-03    -29.1760E-03     55.8650E-03    -26.7393E-03     92.6517E-03
            1664     13.1446E-03     42.0454E-03    -7.73929E+06    -26.3177E+06    -10.5220E+06     310.660E+03    -28.2609E-03     54.9923E-03    -26.7314E-03     79.1145E-03    -28.4278E-03     55.0688E-03    -26.7346E-03     78.9408E-03
            1665     12.2671E-03     41.9674E-03    -8.18834E+06    -39.1964E+06    -3.36403E+06     322.363E+03    -28.3703E-03     55.1498E-03    -26.7795E-03     77.6650E-03    -28.4741E-03     55.0951E-03    -26.7276E-03     77.5228E-03
            1666     11.3920E-03     41.8973E-03    -8.54742E+06    -54.7423E+06    -2.79129E+06     409.664E+03    -28.1353E-03     54.9284E-03    -26.7931E-03     69.7416E-03    -28.1763E-03     54.7529E-03    -26.7153E-03     69.6296E-03
            1667     10.5152E-03     41.8355E-03    -8.81657E+06    -68.6076E+06    -3.39306E+06     433.253E+03    -27.9120E-03     54.7092E-03    -26.7972E-03     62.8507E-03    -27.9050E-03     54.4371E-03    -26.7019E-03     62.7645E-03
            1668     9.63948E-03     41.7773E-03    -9.62475E+06    -75.5866E+06    -426.284E+03     388.193E+03    -27.7441E-03     54.5537E-03    -26.8095E-03     57.5611E-03    -27.7181E-03     54.2263E-03    -26.6881E-03     57.4940E-03
            1669     8.76296E-03     41.7252E-03    -10.6658E+06    -80.7754E+06     326.519E+03     250.899E+03    -27.5920E-03     54.3992E-03    -26.8072E-03     52.1544E-03    -27.5532E-03     54.0348E-03    -26.6730E-03     52.1010E-03
            1670     7.88706E-03     41.6776E-03    -11.8286E+06    -86.2138E+06    -159.196E+03     302.945E+03    -27.4148E-03     54.2139E-03    -26.7991E-03     46.8007E-03    -27.3652E-03     53.8167E-03    -26.6578E-03     46.7605E-03
            1671     7.01058E-03     41.6358E-03    -13.2269E+06    -92.3218E+06    -1.17568E+06     359.287E+03    -27.2593E-03     54.0508E-03    -26.7915E-03     41.5006E-03    -27.2009E-03     53.6211E-03    -26.6443E-03     41.4711E-03
            1672     6.13449E-03     41.5982E-03    -14.7941E+06    -97.1055E+06    -3.73931E+06     259.360E+03    -27.1350E-03     53.9100E-03    -26.7750E-03     36.1515E-03    -27.0701E-03     53.4587E-03    -26.6314E-03     36.1286E-03
            1673     5.25810E-03     41.5665E-03    -16.6093E+06    -102.362E+06     -7.2355E+06     60.6373E+03    -27.0155E-03     53.7706E-03    -26.7551E-03     30.8676E-03    -26.9443E-03     53.2981E-03    -26.6188E-03     30.8483E-03
            1674     4.38187E-03     41.5391E-03    -18.3804E+06    -107.644E+06    -10.9406E+06     33.2363E+03    -26.9124E-03     53.6479E-03    -26.7355E-03     25.6255E-03    -26.8352E-03     53.1551E-03    -26.6074E-03     25.6108E-03
            1675     3.50547E-03     41.5174E-03    -19.8418E+06    -110.291E+06    -14.6309E+06     172.427E+03    -26.8271E-03     53.5401E-03    -26.7130E-03     20.4287E-03    -26.7469E-03     53.0403E-03    -26.5974E-03     20.4198E-03
            1676     2.62917E-03     41.4998E-03    -20.8588E+06    -112.101E+06    -17.7567E+06     108.676E+03    -26.7581E-03     53.4511E-03    -26.6930E-03     15.3039E-03    -26.6750E-03     52.9475E-03    -26.5890E-03     15.2975E-03
            1677     1.75276E-03     41.4880E-03    -21.6680E+06    -113.451E+06    -20.2990E+06     57.9162E+03    -26.7077E-03     53.3847E-03    -26.6770E-03     10.2793E-03    -26.6225E-03     52.8787E-03    -26.5826E-03     10.2750E-03
            1678     876.404E-06     41.4801E-03    -22.1432E+06    -114.291E+06    -21.8412E+06     25.8781E+03    -26.6733E-03     53.3445E-03    -26.6712E-03     5.52882E-03    -26.5867E-03     52.8370E-03    -26.5826E-03     5.52653E-03
            1679     16.6481E-03     41.7101E-03    -5.58645E+06     174.806E+06     86.4381E+06     11.9986E+03    -36.5892E-03     63.4881E-03    -26.8989E-03     255.544E-03    -45.0384E-03     72.2874E-03    -26.7120E-03     260.221E-03
            1680     15.7732E-03     41.4151E-03    -8.90143E+06     130.512E+06     20.2000E+06    -23.5749E+03    -38.4562E-03     65.1093E-03    -26.6531E-03     252.949E-03    -44.5157E-03     71.5419E-03    -26.7284E-03     253.963E-03
            1681     14.8958E-03     41.2205E-03    -8.67782E+06     61.4849E+06    -20.4348E+06     490.096E+03    -32.3532E-03     58.9085E-03    -26.5552E-03     154.768E-03    -33.6821E-03     60.4841E-03    -26.7340E-03     154.556E-03
            1682     14.0212E-03     41.1190E-03    -8.12792E+06     4.29285E+06    -18.8237E+06     586.487E+03    -28.9659E-03     55.6020E-03    -26.6361E-03     92.8016E-03    -29.3283E-03     56.0054E-03    -26.7246E-03     92.5889E-03
            1683     13.1434E-03     41.0448E-03    -8.11923E+06    -26.5874E+06    -10.9791E+06     572.236E+03    -28.2526E-03     54.9626E-03    -26.7100E-03     79.4570E-03    -28.4204E-03     55.0391E-03    -26.7146E-03     79.2868E-03
            1684     12.2686E-03     40.9674E-03    -7.78875E+06    -39.3675E+06    -3.29446E+06     477.897E+03    -28.2401E-03     55.0038E-03    -26.7637E-03     77.6504E-03    -28.3414E-03     54.9472E-03    -26.7117E-03     77.5111E-03
            1685     11.3909E-03     40.8971E-03    -8.44165E+06    -54.6402E+06    -2.59076E+06     372.750E+03    -28.1662E-03     54.9463E-03    -26.7801E-03     69.4747E-03    -28.2069E-03     54.7706E-03    -26.7016E-03     69.3622E-03
            1686     10.5160E-03     40.8345E-03    -9.09576E+06    -68.4880E+06    -3.48255E+06     407.145E+03    -28.0534E-03     54.8273E-03    -26.7739E-03     62.6603E-03    -28.0479E-03     54.5565E-03    -26.6789E-03     62.5732E-03
            1687     9.63950E-03     40.7777E-03    -9.52987E+06    -75.4892E+06    -349.377E+03     454.362E+03    -27.7991E-03     54.5745E-03    -26.7754E-03     57.5450E-03    -27.7727E-03     54.2473E-03    -26.6539E-03     57.4788E-03
            1688     8.76358E-03     40.7246E-03    -10.5723E+06    -80.6789E+06     248.193E+03     372.888E+03    -27.5489E-03     54.3173E-03    -26.7684E-03     52.0740E-03    -27.5094E-03     53.9531E-03    -26.6349E-03     52.0226E-03
            1689     7.88707E-03     40.6780E-03    -11.7609E+06    -86.3485E+06    -364.588E+03     263.928E+03    -27.4064E-03     54.1648E-03    -26.7584E-03     46.6752E-03    -27.3559E-03     53.7670E-03    -26.6179E-03     46.6348E-03
            1690     7.01110E-03     40.6353E-03    -13.1306E+06    -92.2783E+06    -1.00327E+06     333.840E+03    -27.2661E-03     54.0131E-03    -26.7470E-03     41.3416E-03    -27.2075E-03     53.5832E-03    -26.5992E-03     41.3119E-03
            1691     6.13467E-03     40.5987E-03    -14.6306E+06    -96.8808E+06    -3.72675E+06     270.459E+03    -27.1114E-03     53.8352E-03    -26.7238E-03     36.0072E-03    -27.0459E-03     53.3846E-03    -26.5808E-03     35.9845E-03
            1692     5.25847E-03     40.5662E-03    -16.1662E+06    -102.389E+06    -6.77210E+06     327.215E+03    -26.9886E-03     53.6902E-03    -26.7016E-03     30.7072E-03    -26.9158E-03     53.2162E-03    -26.5636E-03     30.6914E-03
            1693     4.38207E-03     40.5396E-03    -18.0016E+06    -107.606E+06    -10.3385E+06     409.235E+03    -26.8717E-03     53.5500E-03    -26.6783E-03     25.4878E-03    -26.7936E-03     53.0559E-03    -26.5478E-03     25.4780E-03
            1694     3.50575E-03     40.5172E-03    -19.6737E+06    -110.084E+06    -14.4549E+06     135.357E+03    -26.7733E-03     53.4238E-03    -26.6505E-03     20.3330E-03    -26.6927E-03     52.9245E-03    -26.5346E-03     20.3236E-03
            1695     2.62931E-03     40.5005E-03    -20.8903E+06    -112.069E+06    -17.8107E+06     36.4938E+03    -26.6973E-03     53.3252E-03    -26.6278E-03     15.2245E-03    -26.6143E-03     52.8218E-03    -26.5241E-03     15.2172E-03
            1696     1.75290E-03     40.4879E-03    -21.7075E+06    -113.395E+06    -20.2836E+06     46.8821E+03    -26.6416E-03     53.2529E-03    -26.6114E-03     10.2261E-03    -26.5567E-03     52.7472E-03    -26.5169E-03     10.2217E-03
            1697     876.438E-06     40.4809E-03    -22.2094E+06    -114.238E+06    -21.8359E+06     7.55396E+03    -26.6016E-03     53.2125E-03    -26.6109E-03     5.48566E-03    -26.5155E-03     52.7054E-03    -26.5223E-03     5.48318E-03
            1698     16.6527E-03     40.7132E-03    -5.12610E+06     175.249E+06     87.1412E+06     120.232E+03    -36.7629E-03     63.6282E-03    -26.8653E-03     256.384E-03    -45.2263E-03     72.4428E-03    -26.6763E-03     261.055E-03
            1699     15.7727E-03     40.4146E-03    -7.74015E+06     130.665E+06     20.2385E+06     299.672E+03    -38.2221E-03     64.8459E-03    -26.6238E-03     254.184E-03    -44.2997E-03     71.3011E-03    -26.7008E-03     255.234E-03
            1700     14.8969E-03     40.2209E-03    -8.59107E+06     60.2924E+06    -21.3176E+06     566.327E+03    -32.2741E-03     58.8120E-03    -26.5379E-03     155.025E-03    -33.6004E-03     60.3836E-03    -26.7194E-03     154.812E-03
            1701     14.0192E-03     40.1177E-03    -8.19297E+06     4.18115E+06    -18.3626E+06     755.859E+03    -28.7935E-03     55.4253E-03    -26.6318E-03     92.5715E-03    -29.1543E-03     55.8251E-03    -26.7178E-03     92.3631E-03
            1702     13.1452E-03     40.0447E-03    -7.78250E+06    -25.8805E+06    -10.2861E+06     722.805E+03    -28.4392E-03     55.1425E-03    -26.7032E-03     79.2706E-03    -28.6082E-03     55.2217E-03    -26.7059E-03     79.1004E-03
            1703     12.2673E-03     39.9674E-03    -8.08169E+06    -39.3282E+06    -3.35503E+06     438.605E+03    -28.4150E-03     55.1561E-03    -26.7411E-03     77.6262E-03    -28.5182E-03     55.1007E-03    -26.6891E-03     77.4851E-03
            1704     11.3929E-03     39.8963E-03    -8.29450E+06    -54.5958E+06    -2.67496E+06     353.439E+03    -28.1650E-03     54.9134E-03    -26.7484E-03     69.3933E-03    -28.2045E-03     54.7373E-03    -26.6706E-03     69.2809E-03
            1705     10.5155E-03     39.8348E-03    -8.74985E+06    -68.6863E+06    -3.39556E+06     360.883E+03    -27.9983E-03     54.7411E-03    -26.7428E-03     62.5194E-03    -27.9904E-03     54.4682E-03    -26.6475E-03     62.4324E-03
            1706     9.64008E-03     39.7766E-03    -9.37256E+06    -75.7248E+06    -297.192E+03     456.909E+03    -27.8342E-03     54.5761E-03    -26.7419E-03     57.2729E-03    -27.8067E-03     54.2473E-03    -26.6200E-03     57.2067E-03
            1707     8.76371E-03     39.7253E-03    -10.3021E+06    -80.3103E+06     691.590E+03     460.429E+03    -27.5984E-03     54.3260E-03    -26.7276E-03     51.9195E-03    -27.5587E-03     53.9626E-03    -26.5927E-03     51.8693E-03
            1708     7.88771E-03     39.6773E-03    -11.6553E+06    -86.2525E+06    -229.387E+03     356.603E+03    -27.4142E-03     54.1226E-03    -26.7084E-03     46.5186E-03    -27.3634E-03     53.7249E-03    -26.5676E-03     46.4795E-03
            1709     7.01132E-03     39.6359E-03    -13.0892E+06    -92.3393E+06    -1.01014E+06     283.682E+03    -27.2519E-03     53.9423E-03    -26.6904E-03     41.1476E-03    -27.1929E-03     53.5119E-03    -26.5425E-03     41.1174E-03
            1710     6.13517E-03     39.5983E-03    -14.7408E+06    -96.7398E+06    -3.47380E+06     338.066E+03    -27.0897E-03     53.7519E-03    -26.6622E-03     35.8358E-03    -27.0253E-03     53.3018E-03    -26.5180E-03     35.8140E-03
            1711     5.25877E-03     39.5669E-03    -16.5181E+06    -102.592E+06    -6.68780E+06     406.097E+03    -26.9390E-03     53.5739E-03    -26.6349E-03     30.5493E-03    -26.8677E-03     53.0992E-03    -26.4957E-03     30.5346E-03
            1712     4.38244E-03     39.5395E-03    -17.9972E+06    -107.404E+06    -9.96880E+06     466.813E+03    -26.8153E-03     53.4235E-03    -26.6082E-03     25.3567E-03    -26.7379E-03     52.9299E-03    -26.4763E-03     25.3478E-03
            1713     3.50597E-03     39.5180E-03    -19.4236E+06    -109.711E+06    -14.1670E+06     357.092E+03    -26.7073E-03     53.2838E-03    -26.5765E-03     20.2215E-03    -26.6265E-03     52.7856E-03    -26.4601E-03     20.2151E-03
            1714     2.62953E-03     39.5005E-03    -20.7952E+06    -111.986E+06    -17.7671E+06     109.920E+03    -26.6274E-03     53.1782E-03    -26.5509E-03     15.1403E-03    -26.5441E-03     52.6751E-03    -26.4472E-03     15.1340E-03
            1715     1.75303E-03     39.4888E-03    -21.7433E+06    -113.336E+06    -20.3332E+06     12.3348E+03    -26.5693E-03     53.1000E-03    -26.5307E-03     10.1620E-03    -26.4846E-03     52.5948E-03    -26.4365E-03     10.1572E-03
            1716     876.528E-06     39.4809E-03    -22.2637E+06    -114.227E+06    -21.9711E+06     26.4907E+03    -26.5246E-03     53.0466E-03    -26.5220E-03     5.44976E-03    -26.4386E-03     52.5398E-03    -26.4339E-03     5.44755E-03
            1717     16.6474E-03     39.7136E-03    -5.34814E+06     175.015E+06     86.9282E+06    -128.463E+03    -36.7562E-03     63.6455E-03    -26.8893E-03     256.316E-03    -45.2177E-03     72.4573E-03    -26.7007E-03     260.991E-03
            1718     15.7732E-03     39.4129E-03    -8.71611E+06     130.144E+06     19.9609E+06     203.741E+03    -38.9434E-03     65.5765E-03    -26.6331E-03     254.529E-03    -45.0509E-03     72.0571E-03    -26.7094E-03     255.527E-03
            1719     14.8967E-03     39.2214E-03    -9.16869E+06     60.0612E+06    -21.5077E+06     633.649E+03    -32.2902E-03     58.8172E-03    -26.5271E-03     154.880E-03    -33.6164E-03     60.3866E-03    -26.7084E-03     154.669E-03
            1720     14.0216E-03     39.1171E-03    -8.45085E+06     4.16471E+06    -18.7705E+06     765.255E+03    -28.7135E-03     55.3338E-03    -26.6203E-03     93.0101E-03    -29.0746E-03     55.7342E-03    -26.7080E-03     92.8033E-03
            1721     13.1432E-03     39.0446E-03    -8.11289E+06    -25.7214E+06    -10.4326E+06     634.336E+03    -28.5743E-03     55.2651E-03    -26.6908E-03     79.2049E-03    -28.7450E-03     55.3459E-03    -26.6939E-03     79.0327E-03
            1722     12.2695E-03     38.9661E-03    -7.95998E+06    -38.9274E+06    -3.32131E+06     432.447E+03    -28.5792E-03     55.2958E-03    -26.7166E-03     77.4981E-03    -28.6821E-03     55.2419E-03    -26.6652E-03     77.3564E-03
            1723     11.3916E-03     38.8969E-03    -8.16746E+06    -54.5000E+06    -2.75013E+06     314.234E+03    -28.2594E-03     54.9713E-03    -26.7118E-03     69.3437E-03    -28.2980E-03     54.7953E-03    -26.6347E-03     69.2308E-03
            1724     10.5168E-03     38.8335E-03    -8.42171E+06    -68.7961E+06    -3.20191E+06     362.609E+03    -28.0132E-03     54.7131E-03    -26.6999E-03     62.2702E-03    -28.0035E-03     54.4386E-03    -26.6040E-03     62.1833E-03
            1725     9.64018E-03     38.7774E-03    -9.29119E+06    -75.6609E+06    -204.847E+03     476.056E+03    -27.7938E-03     54.4891E-03    -26.6952E-03     57.0143E-03    -27.7658E-03     54.1601E-03    -26.5731E-03     56.9488E-03
            1726     8.76431E-03     38.7243E-03    -10.3872E+06    -80.2852E+06     801.731E+03     511.011E+03    -27.6395E-03     54.3152E-03    -26.6756E-03     51.6619E-03    -27.6003E-03     53.9517E-03    -26.5401E-03     51.6124E-03
            1727     7.88808E-03     38.6781E-03    -11.5694E+06    -85.9785E+06     68.8796E+03     435.356E+03    -27.4245E-03     54.0720E-03    -26.6474E-03     46.2961E-03    -27.3740E-03     53.6749E-03    -26.5056E-03     46.2582E-03
            1728     7.01190E-03     38.6353E-03    -13.0458E+06    -92.2939E+06    -930.323E+03     323.229E+03    -27.2248E-03     53.8462E-03    -26.6214E-03     40.9569E-03    -27.1656E-03     53.4158E-03    -26.4733E-03     40.9274E-03
            1729     6.13557E-03     38.5990E-03    -14.6170E+06    -96.9243E+06    -3.45221E+06     451.346E+03    -27.0451E-03     53.6331E-03    -26.5880E-03     35.6271E-03    -26.9797E-03     53.1818E-03    -26.4435E-03     35.6070E-03
            1730     5.25922E-03     38.5667E-03    -16.2765E+06    -102.433E+06    -6.67286E+06     527.335E+03    -26.8822E-03     53.4379E-03    -26.5557E-03     30.3886E-03    -26.8100E-03     52.9636E-03    -26.4169E-03     30.3757E-03
            1731     4.38276E-03     38.5404E-03    -18.0689E+06    -107.327E+06    -9.93814E+06     381.426E+03    -26.7478E-03     53.2737E-03    -26.5259E-03     25.2110E-03    -26.6710E-03     52.7805E-03    -26.3938E-03     25.2011E-03
            1732     3.50631E-03     38.5181E-03    -19.5387E+06    -109.449E+06    -13.8302E+06     334.425E+03    -26.6322E-03     53.1243E-03    -26.4920E-03     20.1000E-03    -26.5528E-03     52.6270E-03    -26.3742E-03     20.0934E-03
            1733     2.62975E-03     38.5016E-03    -20.6632E+06    -111.731E+06    -17.5460E+06     249.924E+03    -26.5452E-03     53.0077E-03    -26.4625E-03     15.0504E-03    -26.4619E-03     52.5053E-03    -26.3583E-03     15.0459E-03
            1734     1.75320E-03     38.4890E-03    -21.6656E+06    -113.252E+06    -20.3290E+06     123.468E+03    -26.4807E-03     52.9206E-03    -26.4398E-03     10.0987E-03    -26.3957E-03     52.4156E-03    -26.3459E-03     10.0954E-03
            1735     876.619E-06     38.4821E-03    -22.3296E+06    -114.157E+06    -21.9580E+06     74.3022E+03    -26.4464E-03     52.8638E-03    -26.4174E-03     5.42198E-03    -26.3608E-03     52.3574E-03    -26.3293E-03     5.42041E-03
            1736     16.6498E-03     38.7113E-03    -5.42363E+06     174.806E+06     86.5512E+06     18.1958E+03    -36.5651E-03     63.4603E-03    -26.8952E-03     255.579E-03    -45.0061E-03     72.2516E-03    -26.7080E-03     260.249E-03
            1737     15.7728E-03     38.4129E-03    -9.29524E+06     129.674E+06     19.6251E+06     308.479E+03    -38.8794E-03     65.5235E-03    -26.6441E-03     254.359E-03    -44.9919E-03     72.0064E-03    -26.7205E-03     255.375E-03
            1738     14.8972E-03     38.2201E-03    -9.82216E+06     59.9825E+06    -21.8265E+06     477.934E+03    -32.6395E-03     59.1675E-03    -26.5281E-03     154.646E-03    -33.9710E-03     60.7405E-03    -26.7100E-03     154.426E-03
            1739     14.0192E-03     38.1181E-03    -8.25579E+06     4.05786E+06    -18.9924E+06     504.673E+03    -28.9801E-03     55.5810E-03    -26.6009E-03     92.7549E-03    -29.3388E-03     55.9798E-03    -26.6897E-03     92.5419E-03
            1740     13.1457E-03     38.0424E-03    -7.67342E+06    -25.8142E+06    -10.1962E+06     398.125E+03    -28.5676E-03     55.2306E-03    -26.6630E-03     79.0476E-03    -28.7352E-03     55.3089E-03    -26.6655E-03     78.8729E-03
            1741     12.2677E-03     37.9671E-03    -7.93660E+06    -38.3491E+06    -3.10199E+06     376.166E+03    -28.6805E-03     55.3624E-03    -26.6818E-03     76.9728E-03    -28.7837E-03     55.3102E-03    -26.6302E-03     76.8301E-03
            1742     11.3937E-03     37.8950E-03    -8.29228E+06    -54.4757E+06    -2.68815E+06     402.070E+03    -28.3192E-03     54.9862E-03    -26.6671E-03     68.9454E-03    -28.3582E-03     54.8102E-03    -26.5895E-03     68.8335E-03
            1743     10.5168E-03     37.8345E-03    -8.99262E+06    -69.0172E+06    -3.61625E+06     448.060E+03    -28.0116E-03     54.6583E-03    -26.6467E-03     62.0794E-03    -28.0035E-03     54.3837E-03    -26.5517E-03     61.9940E-03
            1744     9.64106E-03     37.7763E-03    -9.65675E+06    -75.5151E+06    -402.196E+03     500.911E+03    -27.8395E-03     54.4743E-03    -26.6348E-03     56.8910E-03    -27.8131E-03     54.1467E-03    -26.5133E-03     56.8259E-03
            1745     8.76483E-03     37.7250E-03    -10.5851E+06    -80.2636E+06     614.421E+03     496.812E+03    -27.6196E-03     54.2269E-03    -26.6073E-03     51.3796E-03    -27.5809E-03     53.8639E-03    -26.4725E-03     51.3301E-03
            1746     7.88869E-03     37.6774E-03    -11.8167E+06    -85.8195E+06    -55.1974E+03     487.192E+03    -27.4054E-03     53.9784E-03    -26.5731E-03     46.0403E-03    -27.3560E-03     53.5826E-03    -26.4318E-03     46.0032E-03
            1747     7.01247E-03     37.6362E-03    -13.3150E+06    -92.1867E+06    -987.847E+03     442.242E+03    -27.1879E-03     53.7288E-03    -26.5409E-03     40.7268E-03    -27.1300E-03     53.2993E-03    -26.3929E-03     40.6991E-03
            1748     6.13610E-03     37.5989E-03    -14.9133E+06    -97.0548E+06    -3.93574E+06     380.732E+03    -26.9819E-03     53.4827E-03    -26.5008E-03     35.4289E-03    -26.9171E-03     53.0317E-03    -26.3581E-03     35.4081E-03
            1749     5.25968E-03     37.5677E-03    -16.3257E+06    -102.378E+06    -7.00939E+06     486.336E+03    -26.8210E-03     53.2851E-03    -26.4640E-03     30.1975E-03    -26.7486E-03     52.8115E-03    -26.3269E-03     30.1842E-03
            1750     4.38320E-03     37.5405E-03    -17.7541E+06    -107.000E+06    -9.84185E+06     453.981E+03    -26.6734E-03     53.1041E-03    -26.4307E-03     25.0432E-03    -26.5956E-03     52.6119E-03    -26.2990E-03     25.0344E-03
            1751     3.50663E-03     37.5192E-03    -19.3249E+06    -109.360E+06    -13.7442E+06     271.526E+03    -26.5481E-03     52.9412E-03    -26.3931E-03     19.9563E-03    -26.4679E-03     52.4440E-03    -26.2753E-03     19.9490E-03
            1752     2.63003E-03     37.5019E-03    -20.6673E+06    -111.561E+06    -17.3990E+06     288.622E+03    -26.4481E-03     52.8093E-03    -26.3612E-03     14.9370E-03    -26.3653E-03     52.3075E-03    -26.2564E-03     14.9331E-03
            1753     1.75337E-03     37.4903E-03    -21.5919E+06    -113.032E+06    -20.1214E+06     259.243E+03    -26.3744E-03     52.7129E-03    -26.3385E-03     10.0179E-03    -26.2897E-03     52.2086E-03    -26.2439E-03     10.0164E-03
            1754     876.667E-06     37.4824E-03    -22.1607E+06    -113.960E+06    -21.8386E+06     105.899E+03    -26.3469E-03     52.6620E-03    -26.3151E-03     5.39204E-03    -26.2609E-03     52.1561E-03    -26.2270E-03     5.39089E-03
            1755     16.6499E-03     37.7135E-03    -5.23436E+06     174.347E+06     86.3362E+06     499.533E+03    -36.8289E-03     63.7225E-03    -26.8936E-03     256.685E-03    -45.2999E-03     72.5435E-03    -26.7071E-03     261.331E-03
            1756     15.7722E-03     37.4115E-03    -8.56482E+06     129.819E+06     20.3164E+06     615.759E+03    -39.1564E-03     65.7928E-03    -26.6364E-03     254.317E-03    -45.2886E-03     72.2965E-03    -26.7106E-03     255.299E-03
            1757     14.8959E-03     37.2194E-03    -9.04888E+06     60.5131E+06    -20.8533E+06     123.058E+03    -32.7200E-03     59.2281E-03    -26.5081E-03     153.272E-03    -34.0315E-03     60.7828E-03    -26.6870E-03     153.042E-03
            1758     14.0231E-03     37.1166E-03    -8.24853E+06     3.42433E+06    -19.3334E+06     102.948E+03    -29.1923E-03     55.7545E-03    -26.5623E-03     92.4716E-03    -29.5502E-03     56.1514E-03    -26.6520E-03     92.2511E-03
            1759     13.1441E-03     37.0435E-03    -7.49459E+06    -25.4349E+06    -10.1297E+06     413.408E+03    -28.7273E-03     55.3363E-03    -26.6090E-03     78.6586E-03    -28.8946E-03     55.4161E-03    -26.6119E-03     78.4828E-03
            1760     12.2706E-03     36.9646E-03    -8.05774E+06    -38.1973E+06    -3.17901E+06     591.103E+03    -28.5076E-03     55.1314E-03    -26.6238E-03     76.5857E-03    -28.6102E-03     55.0790E-03    -26.5726E-03     76.4474E-03
            1761     11.3932E-03     36.8962E-03    -8.77331E+06    -55.0100E+06    -3.29157E+06      601.08E+03    -28.2299E-03     54.8425E-03    -26.6126E-03     68.8116E-03    -28.2691E-03     54.6648E-03    -26.5366E-03     68.7031E-03
            1762     10.5177E-03     36.8333E-03    -9.12441E+06    -68.8322E+06    -3.70942E+06     518.554E+03    -28.0952E-03     54.6836E-03    -26.5884E-03     61.9813E-03    -28.0878E-03     54.4102E-03    -26.4939E-03     61.8968E-03
            1763     9.64158E-03     36.7769E-03    -9.79788E+06    -75.4824E+06    -548.329E+03     464.930E+03    -27.8868E-03     54.4515E-03    -26.5647E-03     56.5797E-03    -27.8607E-03     54.1242E-03    -26.4437E-03     56.5142E-03
            1764     8.76559E-03     36.7244E-03    -10.7512E+06    -80.1552E+06     472.693E+03     499.740E+03    -27.6017E-03     54.1298E-03    -26.5280E-03     51.1674E-03    -27.5636E-03     53.7676E-03    -26.3939E-03     51.1184E-03
            1765     7.88939E-03     36.6782E-03    -11.9998E+06    -85.7924E+06    -291.211E+03     542.562E+03    -27.3676E-03     53.8547E-03    -26.4871E-03     45.7955E-03    -27.3186E-03     53.4594E-03    -26.3468E-03     45.7596E-03
            1766     7.01307E-03     36.6360E-03    -13.4178E+06    -92.0804E+06    -1.28189E+06     528.824E+03    -27.1347E-03     53.5835E-03    -26.4488E-03     40.4670E-03    -27.0770E-03     53.1549E-03    -26.3022E-03     40.4408E-03
            1767     6.13671E-03     36.5999E-03    -15.0306E+06    -96.9758E+06    -4.14502E+06     480.477E+03    -26.9310E-03     53.3337E-03    -26.4027E-03     35.1996E-03    -26.8664E-03     52.8835E-03    -26.2611E-03     35.1804E-03
            1768     5.26021E-03     36.5679E-03    -16.6595E+06    -102.311E+06    -7.43111E+06     330.359E+03    -26.7471E-03     53.1059E-03    -26.3588E-03     29.9769E-03    -26.6757E-03     52.6337E-03    -26.2234E-03     29.9618E-03
            1769     4.38367E-03     36.5418E-03    -18.0711E+06    -106.806E+06    -10.1654E+06     266.180E+03    -26.5876E-03     52.9077E-03    -26.3201E-03     24.8508E-03    -26.5111E-03     52.4174E-03    -26.1899E-03     24.8397E-03
            1770     3.50704E-03     36.5197E-03    -19.3530E+06    -109.301E+06    -13.8418E+06     330.419E+03    -26.4489E-03     52.7276E-03    -26.2787E-03     19.7885E-03    -26.3687E-03     52.2309E-03    -26.1614E-03     19.7821E-03
            1771     2.63035E-03     36.5033E-03    -20.5520E+06    -111.433E+06    -17.3590E+06     306.403E+03    -26.3377E-03     52.5815E-03    -26.2438E-03     14.8082E-03    -26.2546E-03     52.0802E-03    -26.1392E-03     14.8047E-03
            1772     1.75357E-03     36.4909E-03    -21.4557E+06    -112.775E+06    -19.9352E+06     230.204E+03    -26.2596E-03     52.4786E-03    -26.2190E-03     9.92939E-03    -26.1749E-03     51.9752E-03    -26.1240E-03     9.92759E-03
            1773     876.825E-06     36.4840E-03    -22.0045E+06    -113.684E+06    -21.6171E+06     150.309E+03    -26.2030E-03     52.4199E-03    -26.2169E-03     5.35924E-03    -26.1169E-03     51.9149E-03    -26.1283E-03     5.35868E-03
            1774     16.6476E-03     36.7132E-03    -5.38772E+06     173.755E+06     86.7753E+06     269.348E+03    -37.4108E-03     64.3012E-03    -26.8904E-03     256.268E-03    -45.8701E-03     73.1065E-03    -26.7006E-03     260.858E-03
            1775     15.7741E-03     36.4085E-03    -8.06211E+06     129.963E+06     21.2333E+06     256.884E+03    -39.6036E-03     66.2042E-03    -26.6006E-03     253.284E-03    -45.7136E-03     72.6854E-03    -26.6712E-03     254.206E-03
            1776     14.8997E-03     36.2206E-03    -7.85873E+06     60.8659E+06    -20.2836E+06     311.659E+03    -32.5598E-03     59.0149E-03    -26.4551E-03     153.099E-03    -33.8619E-03     60.5640E-03    -26.6334E-03     152.879E-03
            1777     14.0194E-03     36.1155E-03    -7.93089E+06     3.55730E+06    -19.1345E+06     564.993E+03    -29.2659E-03     55.7731E-03    -26.5072E-03     92.3983E-03    -29.6239E-03     56.1710E-03    -26.5965E-03     92.1829E-03
            1778     13.1481E-03     36.0419E-03    -7.99433E+06    -25.7271E+06    -10.7099E+06     569.289E+03    -28.6213E-03     55.1706E-03    -26.5492E-03     78.3825E-03    -28.7882E-03     55.2487E-03    -26.5539E-03     78.2102E-03
            1779     12.2695E-03     35.9659E-03    -7.88675E+06    -38.4224E+06    -3.05750E+06     705.230E+03    -28.3949E-03     54.9652E-03    -26.5703E-03     76.8994E-03    -28.4961E-03     54.9108E-03    -26.5184E-03     76.7638E-03
            1780     11.3943E-03     35.8950E-03    -8.64708E+06    -54.4443E+06    -3.06181E+06     727.771E+03    -28.3176E-03     54.8732E-03    -26.5555E-03     68.7428E-03    -28.3571E-03     54.6976E-03    -26.4794E-03     68.6359E-03
            1781     10.5183E-03     35.8336E-03    -9.01673E+06    -68.8313E+06    -3.89353E+06     506.500E+03    -28.1669E-03     54.6851E-03    -26.5182E-03     61.6613E-03    -28.1585E-03     54.4116E-03    -26.4248E-03     61.5765E-03
            1782     9.64248E-03     35.7763E-03    -9.66313E+06    -75.4330E+06    -544.436E+03     572.671E+03    -27.8576E-03     54.3441E-03    -26.4865E-03     56.3076E-03    -27.8305E-03     54.0165E-03    -26.3658E-03     56.2440E-03
            1783     8.76627E-03     35.7250E-03    -10.7547E+06    -80.1362E+06     264.552E+03     566.611E+03    -27.6110E-03     54.0524E-03    -26.4415E-03     50.9431E-03    -27.5724E-03     53.6904E-03    -26.3084E-03     50.8953E-03
            1784     7.89012E-03     35.6779E-03    -11.9367E+06    -85.7831E+06    -414.418E+03     534.678E+03    -27.3454E-03     53.7368E-03    -26.3915E-03     45.4845E-03    -27.2957E-03     53.3415E-03    -26.2518E-03     45.4487E-03
            1785     7.01382E-03     35.6370E-03    -13.3576E+06    -91.8978E+06    -1.35956E+06     579.940E+03    -27.0924E-03     53.4369E-03    -26.3445E-03     40.1846E-03    -27.0344E-03     53.0091E-03    -26.1987E-03     40.1593E-03
            1786     6.13736E-03     35.6001E-03    -14.8417E+06    -96.8779E+06    -4.11599E+06     516.704E+03    -26.8730E-03     53.1636E-03    -26.2906E-03     34.9016E-03    -26.8076E-03     52.7135E-03    -26.1491E-03     34.8831E-03
            1787     5.26088E-03     35.5692E-03    -16.3308E+06    -101.951E+06    -7.25983E+06     403.973E+03    -26.6651E-03     52.9042E-03    -26.2391E-03     29.7142E-03    -26.5928E-03     52.4331E-03    -26.1039E-03     29.7003E-03
            1788     4.38421E-03     35.5423E-03    -17.9861E+06    -106.769E+06    -10.4032E+06     212.662E+03    -26.4856E-03     52.6789E-03    -26.1933E-03     24.6255E-03    -26.4084E-03     52.1889E-03    -26.0644E-03     24.6139E-03
            1789     3.50750E-03     35.5212E-03    -19.4417E+06    -109.321E+06    -14.0620E+06     215.539E+03    -26.3318E-03     52.4796E-03    -26.1478E-03     19.6022E-03    -26.2517E-03     51.9832E-03    -26.0314E-03     19.5945E-03
            1790     2.63067E-03     35.5041E-03    -20.5115E+06    -111.259E+06    -17.3373E+06     257.287E+03    -26.2132E-03     52.3233E-03    -26.1101E-03     14.6709E-03    -26.1302E-03     51.8227E-03    -26.0057E-03     14.6669E-03
            1791     1.75384E-03     35.4926E-03    -21.3337E+06    -112.591E+06    -19.8827E+06     190.652E+03    -26.1288E-03     52.2108E-03    -26.0820E-03     9.83924E-03    -26.0437E-03     51.7080E-03    -25.9873E-03     9.83701E-03
            1792     876.894E-06     35.4849E-03    -21.8468E+06    -113.412E+06    -21.4723E+06     83.6007E+03    -26.0573E-03     52.1434E-03    -26.0861E-03     5.30695E-03    -25.9710E-03     51.6393E-03    -25.9974E-03     5.30556E-03
            1793     16.6510E-03     35.7088E-03    -5.20204E+06     173.681E+06     86.6349E+06    -145.986E+03    -37.5856E-03     64.4067E-03    -26.8211E-03     254.511E-03    -45.9610E-03     73.1291E-03    -26.6322E-03     259.052E-03
            1794     15.7749E-03     35.4096E-03    -8.11210E+06     129.327E+06     20.1573E+06     74.6619E+03    -38.4929E-03     65.0388E-03    -26.5459E-03     253.799E-03    -44.5649E-03     71.4826E-03    -26.6208E-03     254.830E-03
            1795     14.8962E-03     35.2188E-03    -9.41713E+06     60.6586E+06    -22.2323E+06     703.057E+03    -33.0044E-03     59.4211E-03    -26.4167E-03     154.261E-03    -34.3326E-03     60.9957E-03    -26.6021E-03     154.038E-03
            1796     14.0261E-03     35.1148E-03    -8.56343E+06     4.38439E+06    -19.5325E+06     903.124E+03    -29.3458E-03     55.8048E-03    -26.4589E-03     92.2329E-03    -29.7056E-03     56.2064E-03    -26.5505E-03     92.0209E-03
            1797     13.1450E-03     35.0425E-03    -7.73534E+06    -26.2173E+06    -10.6702E+06     760.059E+03    -28.3706E-03     54.8771E-03    -26.5065E-03     78.5294E-03    -28.5341E-03     54.9509E-03    -26.5106E-03     78.3621E-03
            1798     12.2713E-03     34.9649E-03    -8.05081E+06    -38.4260E+06    -3.24074E+06     646.847E+03    -28.6636E-03     55.1856E-03    -26.5220E-03     76.7745E-03    -28.7660E-03     55.1324E-03    -26.4709E-03     76.6362E-03
            1799     11.3949E-03     34.8952E-03    -8.27569E+06    -53.8020E+06    -2.75178E+06     664.524E+03    -28.4653E-03     54.9534E-03    -26.4881E-03     68.5859E-03    -28.5043E-03     54.7800E-03    -26.4118E-03     68.4776E-03
            1800     10.5193E-03     34.8328E-03    -8.94323E+06    -68.9145E+06    -4.18874E+06     684.432E+03    -28.1235E-03     54.5625E-03    -26.4390E-03     61.3910E-03    -28.1134E-03     54.2882E-03    -26.3471E-03     61.3093E-03
            1801     9.64308E-03     34.7769E-03    -9.69816E+06    -75.6349E+06    -875.983E+03     615.490E+03    -27.8922E-03     54.2922E-03    -26.4000E-03     56.0758E-03    -27.8642E-03     53.9639E-03    -26.2807E-03     56.0131E-03
            1802     8.76715E-03     34.7245E-03    -10.6400E+06    -80.0648E+06     219.653E+03     642.677E+03    -27.6264E-03     53.9704E-03    -26.3440E-03     50.5428E-03    -27.5870E-03     53.6084E-03    -26.2114E-03     50.4961E-03
            1803     7.89098E-03     34.6789E-03    -11.9136E+06     -85.648E+06    -509.377E+03     597.851E+03    -27.3239E-03     53.6063E-03    -26.2823E-03     45.1123E-03    -27.2740E-03     53.2115E-03    -26.1434E-03     45.0777E-03
            1804     7.01462E-03     34.6371E-03    -13.3291E+06    -91.8112E+06    -1.33459E+06     537.441E+03    -27.0571E-03     53.2821E-03    -26.2250E-03     39.8340E-03    -26.9990E-03     52.8546E-03    -26.0792E-03     39.8083E-03
            1805     6.13822E-03     34.6014E-03    -14.8228E+06    -96.6398E+06    -4.05402E+06     487.347E+03    -26.7904E-03     52.9520E-03    -26.1615E-03     34.5760E-03    -26.7252E-03     52.5028E-03    -26.0202E-03     34.5574E-03
            1806     5.26155E-03     34.5698E-03    -16.3900E+06    -101.781E+06    -7.27751E+06     406.233E+03    -26.5662E-03     52.6688E-03    -26.1026E-03     29.4330E-03    -26.4943E-03     52.1985E-03    -25.9677E-03     29.4193E-03
            1807     4.38487E-03     34.5439E-03    -17.8387E+06    -106.532E+06    -10.4613E+06     349.873E+03    -26.3688E-03     52.4186E-03    -26.0498E-03     24.3720E-03    -26.2910E-03     51.9296E-03    -25.9218E-03     24.3624E-03
            1808     3.50799E-03     34.5222E-03    -19.3083E+06    -109.274E+06    -14.2850E+06     228.779E+03    -26.2012E-03     52.1999E-03    -25.9987E-03     19.3942E-03    -26.1202E-03     51.7038E-03    -25.8836E-03     19.3868E-03
            1809     2.63111E-03     34.5060E-03    -20.4930E+06    -111.149E+06    -17.4497E+06     171.274E+03    -26.0702E-03     52.0278E-03    -25.9576E-03     14.5091E-03    -25.9870E-03     51.5278E-03    -25.8539E-03     14.5040E-03
            1810     1.75407E-03     34.4938E-03    -21.2826E+06    -112.411E+06    -19.8853E+06     131.563E+03    -25.9762E-03     51.9041E-03    -25.9278E-03     9.73467E-03    -25.8912E-03     51.4021E-03    -25.8334E-03     9.73174E-03
            1811     877.090E-06     34.4870E-03    -21.7349E+06    -113.237E+06    -21.4824E+06     77.3311E+03    -25.9204E-03     51.8343E-03    -25.9140E-03     5.25160E-03    -25.8338E-03     51.3310E-03    -25.8257E-03     5.25017E-03
            1812     16.6551E-03     34.7117E-03    -5.16395E+06     173.465E+06     85.6104E+06    -83.9109E+03    -37.7135E-03     64.5432E-03    -26.8297E-03     256.120E-03    -46.1305E-03     73.3095E-03    -26.6457E-03     260.654E-03
            1813     15.7730E-03     34.4126E-03    -9.21953E+06     128.485E+06     19.3625E+06     685.360E+03    -39.4125E-03     65.9555E-03    -26.5430E-03     255.761E-03    -45.5382E-03     72.4483E-03    -26.6192E-03     256.731E-03
            1814     14.9002E-03     34.2144E-03    -9.77752E+06     60.8135E+06    -21.0676E+06     776.395E+03    -33.0010E-03     59.4037E-03    -26.4027E-03     154.106E-03    -34.3296E-03     60.9746E-03    -26.5821E-03     153.878E-03
            1815     14.0204E-03     34.1159E-03    -8.76365E+06     4.52217E+06    -19.5031E+06     766.858E+03    -29.2456E-03     55.6864E-03    -26.4407E-03     91.8090E-03    -29.6027E-03     56.0850E-03    -26.5321E-03     91.5973E-03
            1816     13.1488E-03     34.0414E-03    -8.65431E+06    -25.8063E+06    -11.3848E+06     588.813E+03    -28.8343E-03     55.3048E-03    -26.4705E-03     78.6465E-03    -29.0040E-03     55.3852E-03    -26.4775E-03     78.4732E-03
            1817     12.2710E-03     33.9651E-03    -8.12025E+06    -38.2916E+06    -3.78654E+06     697.444E+03    -28.8467E-03     55.3076E-03    -26.4609E-03     76.7537E-03    -28.9486E-03     55.2557E-03    -26.4126E-03     76.6155E-03
            1818     11.3961E-03     33.8939E-03    -8.32540E+06    -54.3805E+06    -3.17108E+06     757.283E+03    -28.5270E-03     54.9415E-03    -26.4145E-03     68.2513E-03    -28.5643E-03     54.7654E-03    -26.3394E-03     68.1443E-03
            1819     10.5199E-03     33.8337E-03    -8.92008E+06    -68.4843E+06    -4.03217E+06     775.572E+03    -28.2074E-03     54.5611E-03    -26.3537E-03     61.0708E-03    -28.1976E-03     54.2882E-03    -26.2616E-03     60.9906E-03
            1820     9.64417E-03     33.7760E-03    -9.53114E+06    -75.5227E+06    -850.035E+03     611.341E+03    -27.9618E-03     54.2602E-03    -26.2985E-03     55.6356E-03    -27.9329E-03     53.9319E-03    -26.1794E-03     55.5729E-03
            1821     8.76821E-03     33.7256E-03    -10.6281E+06    -80.0501E+06     226.767E+03     640.388E+03    -27.6049E-03     53.8340E-03    -26.2291E-03     50.0388E-03    -27.5652E-03     53.4717E-03    -26.0965E-03     49.9925E-03
            1822     7.89190E-03     33.6789E-03    -11.7950E+06    -85.4810E+06    -522.287E+03     661.541E+03    -27.2893E-03     53.4453E-03    -26.1561E-03     44.7246E-03    -27.2388E-03     53.0511E-03    -26.0176E-03     44.6911E-03
            1823     7.01568E-03     33.6384E-03    -13.1531E+06    -91.7187E+06    -1.38763E+06     550.418E+03    -26.9899E-03     53.0781E-03    -26.0882E-03     39.4199E-03    -26.9308E-03     52.6507E-03    -25.9431E-03     39.3947E-03
            1824     6.13903E-03     33.6020E-03    -14.7489E+06    -96.4660E+06    -4.09721E+06     540.666E+03    -26.7005E-03     52.7162E-03    -26.0156E-03     34.2325E-03    -26.6350E-03     52.2677E-03    -25.8749E-03     34.2149E-03
            1825     5.26242E-03     33.5715E-03    -16.2853E+06    -101.619E+06    -7.30835E+06     450.072E+03    -26.4537E-03     52.4023E-03    -25.9486E-03     29.1057E-03    -26.3814E-03     51.9326E-03    -25.8141E-03     29.0929E-03
            1826     4.38552E-03     33.5451E-03    -17.8738E+06    -106.382E+06    -10.4575E+06     388.154E+03    -26.2380E-03     52.1269E-03    -25.8889E-03     24.0881E-03    -26.1605E-03     51.6386E-03    -25.7610E-03     24.0792E-03
            1827     3.50863E-03     33.5242E-03    -19.2485E+06    -109.041E+06    -14.2306E+06     319.570E+03    -26.0566E-03     51.8878E-03    -25.8312E-03     19.1572E-03    -25.9756E-03     51.3926E-03    -25.7163E-03     19.1512E-03
            1828     2.63152E-03     33.5075E-03    -20.3897E+06    -111.018E+06    -17.5823E+06     203.140E+03    -25.9089E-03     51.6930E-03    -25.7841E-03     14.3254E-03    -25.8252E-03     51.1937E-03    -25.6814E-03     14.3209E-03
            1829     1.75443E-03     33.4961E-03    -21.2760E+06    -112.282E+06    -19.9696E+06     136.881E+03    -25.8054E-03     51.5566E-03    -25.7512E-03     9.61260E-03    -25.7204E-03     51.0553E-03    -25.6574E-03     9.60983E-03
            1830     877.172E-06     33.4885E-03    -21.8213E+06    -113.077E+06    -21.4595E+06     94.7544E+03    -25.7433E-03     51.4785E-03    -25.7352E-03     5.20106E-03    -25.6575E-03     50.9760E-03    -25.6469E-03     5.19990E-03
            1831     16.6416E-03     33.7082E-03    -5.85000E+06     172.596E+06     85.1357E+06     95.1406E+03    -37.7553E-03     64.6338E-03    -26.8784E-03     253.960E-03    -46.1114E-03     73.3349E-03    -26.6945E-03     258.462E-03
            1832     15.7758E-03     33.4055E-03    -8.92954E+06     127.925E+06     19.1383E+06     391.331E+03    -40.4782E-03     67.0257E-03    -26.5475E-03     253.326E-03    -46.5460E-03     73.4602E-03    -26.6244E-03     254.176E-03
            1833     14.8983E-03     33.2186E-03    -8.75342E+06     60.8829E+06    -20.7368E+06     644.892E+03    -32.8093E-03     59.1831E-03    -26.3738E-03     153.498E-03    -34.1216E-03     60.7407E-03    -26.5530E-03     153.270E-03
            1834     14.0248E-03     33.1125E-03    -8.76351E+06     4.60422E+06    -19.4253E+06     456.714E+03    -29.2175E-03     55.6324E-03    -26.4149E-03     91.6405E-03    -29.5738E-03     56.0302E-03    -26.5060E-03     91.4254E-03
            1835     13.1464E-03     33.0420E-03    -8.00947E+06    -25.5035E+06    -11.1686E+06     523.621E+03    -29.1452E-03     55.5773E-03    -26.4321E-03     78.2974E-03    -29.3127E-03     55.6582E-03    -26.4394E-03     78.1207E-03
            1836     12.2728E-03     32.9633E-03    -8.36336E+06    -38.7063E+06    -3.98887E+06     663.534E+03    -29.0796E-03     55.4798E-03    -26.4001E-03     76.6031E-03    -29.1821E-03     55.4266E-03    -26.3518E-03     76.4632E-03
            1837     11.3965E-03     32.8947E-03    -8.67742E+06    -54.1212E+06    -3.27404E+06     829.006E+03    -28.6874E-03     55.0200E-03    -26.3327E-03     67.7644E-03    -28.7260E-03     54.8452E-03    -26.2580E-03     67.6582E-03
            1838     10.5212E-03     32.8326E-03    -8.95258E+06    -68.2120E+06    -3.97738E+06     794.470E+03    -28.3606E-03     54.6114E-03    -26.2508E-03     60.5831E-03    -28.3512E-03     54.3396E-03    -26.1588E-03     60.5028E-03
            1839     9.64543E-03     32.7768E-03    -9.74107E+06    -75.4272E+06    -1.03838E+06     732.416E+03    -27.9531E-03     54.1309E-03    -26.1779E-03     55.1451E-03    -27.9246E-03     53.8031E-03    -26.0596E-03     55.0846E-03
            1840     8.76923E-03     32.7255E-03    -10.5542E+06    -80.0030E+06     61.8829E+03     687.539E+03    -27.5830E-03     53.6796E-03    -26.0965E-03     49.6071E-03    -27.5424E-03     53.3173E-03    -25.9649E-03     49.5619E-03
            1841     7.89320E-03     32.6800E-03    -11.7293E+06    -85.3580E+06    -646.316E+03     683.908E+03    -27.2327E-03     53.2449E-03    -26.0122E-03     44.2657E-03    -27.1816E-03     52.8511E-03    -25.8747E-03     44.2330E-03
            1842     7.01661E-03     32.6390E-03    -13.0742E+06    -91.6144E+06    -1.54638E+06     627.650E+03    -26.8998E-03     52.8342E-03    -25.9344E-03     39.0057E-03    -26.8400E-03     52.4072E-03    -25.7903E-03     38.9821E-03
            1843     6.14013E-03     32.6037E-03    -14.5827E+06    -96.3631E+06    -4.03840E+06     625.095E+03    -26.6089E-03     52.4617E-03    -25.8528E-03     33.8216E-03    -26.5427E-03     52.0134E-03    -25.7121E-03     33.8054E-03
            1844     5.26326E-03     32.5727E-03    -16.2130E+06    -101.374E+06     -7.2685E+06     594.961E+03    -26.3286E-03     52.1042E-03    -25.7755E-03     28.7376E-03    -26.2562E-03     51.6354E-03    -25.6414E-03     28.7270E-03
            1845     4.38638E-03     32.5472E-03    -17.7833E+06    -106.172E+06    -10.4713E+06     450.422E+03    -26.0932E-03     51.8004E-03    -25.7072E-03     23.7694E-03    -26.0155E-03     51.3130E-03    -25.5798E-03     23.7616E-03
            1846     3.50923E-03     32.5259E-03    -19.2163E+06    -108.872E+06    -14.2773E+06     363.328E+03    -25.8917E-03     51.5338E-03    -25.6421E-03     18.8862E-03    -25.8107E-03     51.0394E-03    -25.5277E-03     18.8809E-03
            1847     2.63209E-03     32.5100E-03    -20.4018E+06    -110.815E+06    -17.5711E+06     326.883E+03    -25.7306E-03     51.3194E-03    -25.5888E-03     14.1157E-03    -25.6472E-03     50.8211E-03    -25.4864E-03     14.1130E-03
            1848     1.75472E-03     32.4980E-03    -21.2811E+06    -112.095E+06    -20.0252E+06     217.076E+03    -25.6129E-03     51.1632E-03    -25.5503E-03     9.47462E-03    -25.5281E-03     50.6630E-03    -25.4570E-03     9.47299E-03
            1849     877.438E-06     32.4912E-03    -21.7921E+06    -112.868E+06    -21.5220E+06     123.007E+03    -25.5371E-03     51.0724E-03    -25.5353E-03     5.12442E-03    -25.4513E-03     50.5710E-03    -25.4477E-03     5.12369E-03
            1850     16.6571E-03     32.7056E-03    -4.91161E+06     173.609E+06     86.6206E+06     413.640E+03    -37.9630E-03     64.8119E-03    -26.8489E-03     255.108E-03    -46.3659E-03     73.5624E-03    -26.6604E-03     259.626E-03
            1851     15.7740E-03     32.4074E-03    -7.86696E+06     128.399E+06     19.8895E+06     491.317E+03    -39.7847E-03     66.3123E-03    -26.5276E-03     252.956E-03    -45.8422E-03     72.7398E-03    -26.6029E-03     253.887E-03
            1852     14.9002E-03     32.2147E-03    -8.85952E+06     59.6170E+06    -22.4106E+06     672.919E+03    -33.2242E-03     59.5739E-03    -26.3497E-03     153.061E-03    -34.5257E-03     61.1207E-03    -26.5354E-03     152.827E-03
            1853     14.0226E-03     32.1144E-03    -7.95948E+06     4.75957E+06    -19.3032E+06     768.862E+03    -29.5543E-03     55.9257E-03    -26.3714E-03     91.7782E-03    -29.9076E-03     56.3236E-03    -26.4633E-03     91.5639E-03
            1854     13.1492E-03     32.0393E-03    -7.82470E+06    -25.5187E+06    -11.0670E+06     728.261E+03    -29.2576E-03     55.6296E-03    -26.3720E-03     78.0765E-03    -29.4230E-03     55.7088E-03    -26.3790E-03     77.9022E-03
            1855     12.2727E-03     31.9636E-03    -8.16871E+06    -38.6612E+06    -4.08308E+06       726.2E+03    -29.3346E-03     55.6542E-03    -26.3196E-03     75.6279E-03    -29.4355E-03     55.6007E-03    -26.2721E-03     75.4873E-03
            1856     11.3980E-03     31.8933E-03    -8.79967E+06    -53.9531E+06    -3.40553E+06     818.194E+03    -28.8151E-03     55.0444E-03    -26.2293E-03     67.1592E-03    -28.8535E-03     54.8699E-03    -26.1553E-03     67.0530E-03
            1857     10.5225E-03     31.8329E-03    -9.07949E+06    -68.2901E+06    -4.36769E+06     812.863E+03    -28.3883E-03     54.5183E-03    -26.1300E-03     60.0603E-03    -28.3783E-03     54.2463E-03    -26.0397E-03     59.9807E-03
            1858     9.64651E-03     31.7768E-03    -9.45127E+06    -75.2565E+06    -1.07578E+06     845.313E+03    -27.9698E-03     54.0135E-03    -26.0436E-03     54.6108E-03    -27.9396E-03     53.6857E-03    -25.9262E-03     54.5522E-03
            1859     8.77069E-03     31.7263E-03    -10.4953E+06    -79.8333E+06    -52.3891E+03     819.298E+03    -27.5431E-03     53.4919E-03    -25.9488E-03     49.1014E-03    -27.5018E-03     53.1301E-03    -25.8181E-03     49.0586E-03
            1860     7.89430E-03     31.6808E-03    -11.7096E+06    -85.2899E+06    -763.552E+03     748.485E+03    -27.1698E-03     53.0225E-03    -25.8528E-03     43.7726E-03    -27.1182E-03     52.6289E-03    -25.7159E-03     43.7413E-03
            1861     7.01792E-03     31.6406E-03    -13.1775E+06    -91.3956E+06    -1.61703E+06     735.144E+03    -26.8244E-03     52.5870E-03    -25.7626E-03     38.5346E-03    -26.7651E-03     52.1612E-03    -25.6190E-03     38.5128E-03
            1862     6.14116E-03     31.6050E-03    -14.7278E+06    -96.3209E+06    -4.27728E+06     682.851E+03    -26.4898E-03     52.1584E-03    -25.6686E-03     33.3498E-03    -26.4239E-03     51.7107E-03    -25.5290E-03     33.3348E-03
            1863     5.26435E-03     31.5749E-03    -16.2300E+06    -101.110E+06    -7.47480E+06     682.616E+03    -26.1921E-03     51.7726E-03    -25.5805E-03     28.3263E-03    -26.1198E-03     51.3054E-03    -25.4477E-03     28.3172E-03
            1864     4.38722E-03     31.5491E-03    -17.7591E+06    -105.882E+06    -10.6685E+06     573.399E+03    -25.9299E-03     51.4321E-03    -25.5023E-03     23.4073E-03    -25.8521E-03     50.9464E-03    -25.3763E-03     23.4014E-03
            1865     3.51004E-03     31.5286E-03    -19.2300E+06    -108.713E+06    -14.2970E+06     485.347E+03    -25.7076E-03     51.1376E-03    -25.4300E-03     18.5865E-03    -25.6268E-03     50.6441E-03    -25.3159E-03     18.5831E-03
            1866     2.63260E-03     31.5122E-03    -20.4183E+06    -110.575E+06    -17.5199E+06     404.641E+03    -25.5291E-03     50.8989E-03    -25.3698E-03     13.8802E-03    -25.4462E-03     50.4017E-03    -25.2674E-03     13.8787E-03
            1867     1.75519E-03     31.5010E-03    -21.2605E+06    -111.787E+06    -19.9345E+06     277.871E+03    -25.3987E-03     50.7236E-03    -25.3249E-03     9.31645E-03    -25.3144E-03     50.2247E-03    -25.2316E-03     9.31572E-03
            1868     877.543E-06     31.4937E-03    -21.8080E+06    -112.603E+06     -21.441E+06     134.898E+03    -25.3163E-03     50.6146E-03    -25.2982E-03     5.03725E-03    -25.2311E-03     50.1144E-03    -25.2105E-03     5.03673E-03
            1869     16.6445E-03     31.7039E-03    -5.47556E+06     173.069E+06     86.3175E+06     24.0201E+03    -38.1128E-03     64.9636E-03    -26.8508E-03     256.975E-03    -46.5847E-03     73.7801E-03    -26.6623E-03     261.451E-03
            1870     15.7748E-03     31.4038E-03    -8.90171E+06     127.608E+06     19.8413E+06     344.170E+03    -40.2864E-03     66.8041E-03    -26.5178E-03     252.537E-03    -46.3788E-03     73.2603E-03    -26.5907E-03     253.422E-03
            1871     14.8988E-03     31.2145E-03    -9.11870E+06     59.5207E+06    -21.7629E+06     967.971E+03    -33.4466E-03     59.7614E-03    -26.3148E-03     151.435E-03    -34.7335E-03     61.2904E-03    -26.4967E-03     151.198E-03
            1872     14.0257E-03     31.1124E-03    -8.54976E+06     4.67851E+06    -19.7079E+06     924.758E+03    -29.9148E-03     56.2206E-03    -26.3058E-03     91.0562E-03    -30.2698E-03     56.6190E-03    -26.3987E-03     90.8400E-03
            1873     13.1488E-03     31.0392E-03    -8.34124E+06    -25.2428E+06    -11.7616E+06     709.746E+03    -29.5603E-03     55.8361E-03    -26.2759E-03     77.5463E-03    -29.7277E-03     55.9184E-03    -26.2860E-03     77.3696E-03
            1874     12.2750E-03     30.9617E-03    -8.27468E+06    -38.6365E+06    -4.61692E+06     719.771E+03    -29.3178E-03     55.5235E-03    -26.2057E-03     74.9260E-03    -29.4167E-03     55.4693E-03    -26.1608E-03     74.7865E-03
            1875     11.3994E-03     30.8936E-03    -8.51878E+06    -54.2458E+06    -3.68400E+06     819.361E+03    -28.8174E-03     54.9242E-03    -26.1068E-03     66.5820E-03    -28.8528E-03     54.7475E-03    -26.0342E-03     66.4763E-03
            1876     10.5236E-03     30.8325E-03    -8.92606E+06    -68.0828E+06    -4.22929E+06     877.014E+03    -28.4014E-03     54.3984E-03    -25.9970E-03     59.5432E-03    -28.3904E-03     54.1263E-03    -25.9064E-03     59.4652E-03
            1877     9.64823E-03     30.7773E-03    -9.51871E+06    -75.0904E+06    -1.16940E+06     878.958E+03    -27.9763E-03     53.8715E-03    -25.8952E-03     53.9468E-03    -27.9460E-03     53.5442E-03    -25.7784E-03     53.8892E-03
            1878     8.77199E-03     30.7270E-03    -10.4276E+06    -79.7349E+06    -59.5395E+03     888.144E+03    -27.4990E-03     53.2852E-03    -25.7863E-03     48.5703E-03    -27.4571E-03     52.9234E-03    -25.6558E-03     48.5291E-03
            1879     7.89574E-03     30.6821E-03    -11.6248E+06    -85.0700E+06    -735.756E+03     897.307E+03    -27.1243E-03     52.7999E-03    -25.6757E-03     43.2340E-03    -27.0724E-03     52.4069E-03    -25.5391E-03     43.2051E-03
            1880     7.01923E-03     30.6419E-03    -13.0551E+06    -91.2447E+06    -1.62190E+06     862.439E+03    -26.7363E-03     52.3065E-03    -25.5702E-03     37.9641E-03    -26.6764E-03     51.8810E-03    -25.4271E-03     37.9445E-03
            1881     6.14249E-03     30.6072E-03    -14.6909E+06    -96.1370E+06    -4.35000E+06     834.602E+03    -26.3603E-03     51.8230E-03    -25.4627E-03     32.8536E-03    -26.2942E-03     51.3761E-03    -25.3238E-03     32.8411E-03
            1882     5.26543E-03     30.5768E-03    -16.3213E+06    -100.915E+06    -7.71449E+06     756.299E+03    -26.0372E-03     51.3994E-03    -25.3621E-03     27.8544E-03    -25.9652E-03     50.9335E-03    -25.2307E-03     27.8466E-03
            1883     4.38827E-03     30.5519E-03    -17.8459E+06    -105.588E+06    -10.7682E+06     699.150E+03    -25.7469E-03     51.0205E-03    -25.2736E-03     22.9967E-03    -25.6697E-03     50.5364E-03    -25.1485E-03     22.9928E-03
            1884     3.51081E-03     30.5311E-03    -19.2186E+06    -108.470E+06    -14.2935E+06     568.554E+03    -25.5000E-03     50.6926E-03    -25.1926E-03     18.2441E-03    -25.4195E-03     50.2002E-03    -25.0789E-03     18.2420E-03
            1885     2.63331E-03     30.5155E-03    -20.3538E+06    -110.238E+06    -17.4022E+06     430.842E+03    -25.3031E-03     50.4282E-03    -25.1251E-03     13.6184E-03    -25.2205E-03     49.9324E-03    -25.0227E-03     13.6174E-03
            1886     1.75555E-03     30.5039E-03    -21.2162E+06    -111.482E+06    -19.7885E+06     285.361E+03    -25.1580E-03     50.2319E-03    -25.0739E-03     9.13429E-03    -25.0741E-03     49.7343E-03    -24.9804E-03     9.13378E-03
            1887     877.887E-06     30.4973E-03    -21.6953E+06    -112.288E+06    -21.4306E+06     159.392E+03    -25.0559E-03     50.1055E-03    -25.0496E-03     4.94785E-03    -24.9705E-03     49.6067E-03    -24.9625E-03     4.94770E-03
            1888     16.6532E-03     30.7030E-03    -5.42937E+06     172.393E+06     85.3793E+06     744.549E+03    -38.6633E-03     65.4745E-03    -26.8112E-03     254.439E-03    -46.9834E-03     74.1397E-03    -26.6264E-03     258.810E-03
            1889     15.7756E-03     30.4007E-03    -9.27898E+06     126.980E+06     19.1542E+06     444.929E+03    -40.2475E-03     66.7009E-03    -26.4534E-03     250.475E-03    -46.2443E-03     73.0600E-03    -26.5283E-03     251.321E-03
            1890     14.9024E-03     30.2143E-03    -9.35801E+06     60.6315E+06    -21.3764E+06     476.347E+03    -33.5661E-03     59.8049E-03    -26.2388E-03     150.793E-03    -34.8565E-03     61.3393E-03    -26.4200E-03     150.551E-03
            1891     14.0248E-03     30.1107E-03    -8.89913E+06     4.83918E+06    -20.2556E+06     588.384E+03    -30.2463E-03     56.4509E-03    -26.2045E-03     90.7198E-03    -30.6038E-03     56.8527E-03    -26.2999E-03     90.4955E-03
            1892     13.1523E-03     30.0378E-03    -8.06589E+06    -25.4904E+06    -11.6014E+06     587.216E+03    -29.5079E-03     55.6692E-03    -26.1613E-03     76.9008E-03    -29.6716E-03     55.7474E-03    -26.1706E-03     76.7234E-03
            1893     12.2759E-03     29.9615E-03    -8.00490E+06    -38.6217E+06    -4.37227E+06     830.832E+03    -29.2188E-03     55.3063E-03    -26.0875E-03     74.7763E-03    -29.3152E-03     55.2499E-03    -26.0417E-03     74.6399E-03
            1894     11.4006E-03     29.8930E-03    -8.65557E+06    -54.2849E+06    -3.81892E+06     907.202E+03    -28.9186E-03     54.8957E-03    -25.9771E-03     66.1627E-03    -28.9538E-03     54.7186E-03    -25.9049E-03     66.0583E-03
            1895     10.5256E-03     29.8327E-03    -8.98243E+06    -68.0197E+06    -4.33080E+06     914.760E+03    -28.4445E-03     54.2935E-03    -25.8490E-03     58.8956E-03    -28.4329E-03     54.0211E-03    -25.7590E-03     58.8186E-03
            1896     9.64950E-03     29.7776E-03    -9.49957E+06    -75.1745E+06    -1.25119E+06     863.797E+03    -27.9169E-03     53.6502E-03    -25.7334E-03     53.3710E-03    -27.8855E-03     53.3219E-03    -25.6168E-03     53.3143E-03
            1897     8.77359E-03     29.7282E-03    -10.3310E+06    -79.5944E+06    -132.293E+03     919.433E+03    -27.5296E-03     53.1371E-03    -25.6075E-03     47.9806E-03    -27.4869E-03     52.7756E-03    -25.4778E-03     47.9402E-03
            1898     7.89734E-03     29.6832E-03    -11.5340E+06    -84.9660E+06    -899.573E+03     958.718E+03    -27.0711E-03     52.5477E-03    -25.4766E-03     42.5860E-03    -27.0183E-03     52.1549E-03    -25.3412E-03     42.5585E-03
            1899     7.02073E-03     29.6440E-03    -12.8642E+06    -91.1241E+06    -1.70291E+06     1.00658E+06    -26.6280E-03     51.9832E-03    -25.3552E-03     37.3498E-03    -26.5669E-03     51.5579E-03    -25.2130E-03     37.3326E-03
            1900     6.14385E-03     29.6091E-03    -14.4243E+06    -95.9060E+06    -4.26085E+06     1.02536E+06    -26.2338E-03     51.4668E-03    -25.2330E-03     32.2627E-03    -26.1666E-03     51.0203E-03    -25.0944E-03     32.2531E-03
            1901     5.26676E-03     29.5798E-03    -16.0240E+06    -100.596E+06    -7.43088E+06     949.791E+03    -25.8605E-03     50.9796E-03    -25.1191E-03     27.3182E-03    -25.7877E-03     50.5143E-03    -24.9871E-03     27.3134E-03
            1902     4.38934E-03     29.5546E-03    -17.6122E+06    -105.304E+06    -10.5002E+06     799.673E+03    -25.5393E-03     50.5584E-03    -25.0191E-03     22.5300E-03    -25.4617E-03     50.0749E-03    -24.8934E-03     22.5276E-03
            1903     3.51181E-03     29.5346E-03    -19.0340E+06    -108.071E+06    -14.1276E+06     640.422E+03    -25.2643E-03     50.1924E-03    -24.9281E-03     17.8657E-03    -25.1836E-03     49.7014E-03    -24.8145E-03     17.8648E-03
            1904     2.63396E-03     29.5187E-03    -20.1874E+06    -109.920E+06    -17.3232E+06     441.694E+03    -25.0476E-03     49.9010E-03    -24.8533E-03     13.3330E-03    -24.9648E-03     49.4064E-03    -24.7513E-03     13.3323E-03
            1905     1.75613E-03     29.5078E-03    -21.0183E+06    -111.169E+06    -19.7625E+06     318.707E+03    -24.8869E-03     49.6845E-03    -24.7976E-03     8.93722E-03    -24.8024E-03     49.1881E-03    -24.7048E-03     8.93728E-03
            1906     877.995E-06     29.5007E-03    -21.5972E+06    -111.928E+06    -21.2815E+06     215.540E+03    -24.7730E-03     49.5512E-03    -24.7782E-03     4.83896E-03    -24.6879E-03     49.0538E-03    -24.6910E-03     4.83961E-03
            1907     16.6512E-03     29.7001E-03    -5.42728E+06     172.327E+06     85.8615E+06     693.773E+03    -39.3623E-03     66.0993E-03    -26.7371E-03     253.609E-03    -47.6243E-03     74.7048E-03    -26.5498E-03     257.914E-03
            1908     15.7778E-03     29.4008E-03    -7.87321E+06     128.580E+06     21.2068E+06     1.42555E+06    -39.6428E-03     66.0235E-03    -26.3808E-03     251.932E-03    -45.6302E-03     72.3779E-03    -26.4498E-03     252.864E-03
            1909     14.9004E-03     29.2115E-03    -9.48491E+06     60.5524E+06    -21.7069E+06     704.400E+03    -33.9739E-03     60.1410E-03    -26.1671E-03     151.666E-03    -35.2754E-03     61.6867E-03    -26.3496E-03     151.421E-03
            1910     14.0295E-03     29.1095E-03    -8.51717E+06     5.12549E+06    -20.4333E+06     591.395E+03    -30.4800E-03     56.5906E-03    -26.1107E-03     90.4203E-03    -30.8336E-03     56.9915E-03    -26.2079E-03     90.1936E-03
            1911     13.1519E-03     29.0371E-03    -7.79075E+06    -25.9817E+06    -11.8243E+06     797.561E+03    -29.4328E-03     55.4900E-03    -26.0572E-03     76.9883E-03    -29.5918E-03     55.5634E-03    -26.0674E-03     76.8160E-03
            1912     12.2776E-03     28.9612E-03    -7.85610E+06    -38.8214E+06    -4.47364E+06     860.206E+03    -29.4570E-03     55.4273E-03    -25.9704E-03     74.5994E-03    -29.5518E-03     55.3694E-03    -25.9251E-03     74.4628E-03
            1913     11.4024E-03     28.8923E-03    -8.08907E+06    -54.0188E+06    -3.68309E+06      993.03E+03    -29.0357E-03     54.8722E-03    -25.8365E-03     65.5136E-03    -29.0676E-03     54.6943E-03    -25.7649E-03     65.4107E-03
            1914     10.5270E-03     28.8329E-03    -8.54830E+06    -68.2435E+06    -4.55411E+06     901.350E+03    -28.4356E-03     54.1255E-03    -25.6899E-03     58.1551E-03    -28.4202E-03     53.8508E-03    -25.6013E-03     58.0789E-03
            1915     9.65129E-03     28.7788E-03    -9.09790E+06    -74.8926E+06    -1.18868E+06     952.109E+03    -27.9897E-03     53.5457E-03    -25.5560E-03     52.7932E-03    -27.9563E-03     53.2176E-03    -25.4402E-03     52.7381E-03
            1916     8.77532E-03     28.7288E-03    -10.2537E+06    -79.6483E+06    -356.942E+03     1.00695E+06    -27.5367E-03     52.9432E-03    -25.4065E-03     47.1993E-03    -27.4928E-03     52.5812E-03    -25.2779E-03     47.1605E-03
            1917     7.89908E-03     28.6853E-03    -11.4024E+06    -84.8120E+06    -1.03000E+06     1.03762E+06    -27.0109E-03     52.2654E-03    -25.2545E-03     41.8132E-03    -26.9571E-03     51.8731E-03    -25.1202E-03     41.7874E-03
            1918     7.02239E-03     28.6458E-03    -12.8198E+06    -91.0731E+06    -1.93442E+06     1.10851E+06    -26.5250E-03     51.6386E-03    -25.1137E-03     36.6476E-03    -26.4631E-03     51.2136E-03    -24.9727E-03     36.6323E-03
            1919     6.14549E-03     28.6121E-03    -14.3250E+06    -95.7093E+06    -4.32184E+06     1.22973E+06    -26.0737E-03     51.0486E-03    -24.9749E-03     31.5809E-03    -26.0061E-03     50.6028E-03    -24.8369E-03     31.5744E-03
            1920     5.26816E-03     28.5825E-03    -15.9891E+06    -100.200E+06    -7.48973E+06     1.14464E+06    -25.6604E-03     50.5066E-03    -24.8462E-03     26.7291E-03    -25.5878E-03     50.0433E-03    -24.7152E-03     26.7273E-03
            1921     4.39065E-03     28.5583E-03    -17.4951E+06    -104.868E+06    -10.4442E+06     908.034E+03    -25.3000E-03     50.0349E-03    -24.7349E-03     22.0208E-03    -25.2225E-03     49.5533E-03    -24.6097E-03     22.0203E-03
            1922     3.51276E-03     28.5382E-03    -18.8328E+06    -107.680E+06    -14.0302E+06     690.290E+03    -25.0003E-03     49.6352E-03    -24.6349E-03     17.4510E-03    -24.9192E-03     49.1457E-03    -24.5216E-03     17.4510E-03
            1923     2.63483E-03     28.5230E-03    -19.9632E+06    -109.571E+06    -17.3125E+06     564.944E+03    -24.7622E-03     49.3152E-03    -24.5530E-03     13.0122E-03    -24.6787E-03     48.8220E-03    -24.4517E-03     13.0133E-03
            1924     1.75655E-03     28.5118E-03    -20.9112E+06    -110.795E+06    -19.6507E+06     428.487E+03    -24.5895E-03     49.0827E-03    -24.4932E-03     8.70919E-03    -24.5052E-03     48.5878E-03    -24.4005E-03     8.71081E-03
            1925     878.407E-06     28.5054E-03    -21.4216E+06    -111.515E+06    -21.1209E+06     216.132E+03    -24.4762E-03     48.9381E-03    -24.4619E-03     4.71443E-03    -24.3910E-03     48.4423E-03    -24.3748E-03     4.71517E-03
            1926     16.6552E-03     28.6985E-03    -5.33055E+06     171.727E+06     85.2843E+06     18.9660E+03    -39.6127E-03     66.3722E-03    -26.7595E-03     252.808E-03    -47.8698E-03     74.9726E-03    -26.5743E-03     257.045E-03
            1927     15.7767E-03     28.4019E-03    -8.38814E+06     128.075E+06     20.8860E+06     1.00748E+06    -40.8534E-03     67.2183E-03    -26.3649E-03     252.574E-03    -46.8707E-03     73.5998E-03    -26.4340E-03     253.417E-03
            1928     14.9040E-03     28.2077E-03    -8.49933E+06     60.9173E+06    -20.6825E+06     1.79555E+06    -34.2574E-03     60.3710E-03    -26.1136E-03     151.826E-03    -35.5497E-03     61.9093E-03    -26.2930E-03     151.581E-03
            1929     14.0272E-03     28.1084E-03    -8.13969E+06     5.35666E+06    -20.4610E+06     994.736E+03    -30.5132E-03     56.5537E-03    -26.0404E-03     89.6572E-03    -30.8605E-03     56.9504E-03    -26.1387E-03     89.4361E-03
            1930     13.1542E-03     28.0366E-03    -8.11249E+06    -25.6886E+06    -12.5073E+06     802.791E+03    -29.9118E-03     55.8726E-03    -25.9608E-03     76.4904E-03    -30.0717E-03     55.9488E-03    -25.9743E-03     76.3149E-03
            1931     12.2788E-03     27.9599E-03    -8.06581E+06    -39.4649E+06    -5.72135E+06     798.946E+03    -29.7272E-03     55.5651E-03    -25.8379E-03     74.0947E-03    -29.8192E-03     55.5050E-03    -25.7976E-03     73.9565E-03
            1932     11.4044E-03     27.8921E-03    -7.90013E+06    -54.0817E+06    -4.13023E+06     801.081E+03    -29.1044E-03     54.7869E-03    -25.6825E-03     64.7329E-03    -29.1334E-03     54.6078E-03    -25.6133E-03     64.6283E-03
            1933     10.5287E-03     27.8336E-03    -8.32695E+06    -67.6544E+06    -4.49829E+06     1.16887E+06    -28.5551E-03     54.0700E-03    -25.5149E-03     57.3766E-03    -28.5387E-03     53.7969E-03    -25.4272E-03     57.3044E-03
            1934     9.65323E-03     27.7789E-03    -9.30294E+06    -75.0269E+06    -1.70581E+06     1.13047E+06    -28.0938E-03     53.4454E-03    -25.3516E-03     51.9110E-03    -28.0599E-03     53.1171E-03    -25.2379E-03     51.8585E-03
            1935     8.77738E-03     27.7307E-03    -10.2190E+06    -79.4209E+06    -535.133E+03     1.13288E+06    -27.4928E-03     52.6704E-03    -25.1776E-03     46.2825E-03    -27.4482E-03     52.3092E-03    -25.0503E-03     46.2462E-03
            1936     7.90097E-03     27.6868E-03    -11.4457E+06    -84.7545E+06    -1.20899E+06     1.19552E+06    -26.9346E-03     51.9397E-03    -25.0051E-03     40.9602E-03    -26.8805E-03     51.5475E-03    -24.8716E-03     40.9371E-03
            1937     7.02439E-03     27.6487E-03    -12.8254E+06    -90.9315E+06    -2.07151E+06     1.26837E+06    -26.3982E-03     51.2420E-03    -24.8438E-03     35.8351E-03    -26.3360E-03     50.8175E-03    -24.7037E-03     35.8225E-03
            1938     6.14718E-03     27.6148E-03    -14.3220E+06    -95.6905E+06    -4.79258E+06     1.35540E+06    -25.8827E-03     50.5687E-03    -24.6860E-03     30.8607E-03    -25.8141E-03     50.1235E-03    -24.5505E-03     30.8565E-03
            1939     5.26980E-03     27.5864E-03    -15.6719E+06    -99.6843E+06    -7.59985E+06     1.34980E+06    -25.4328E-03     49.9764E-03    -24.5436E-03     26.0710E-03    -25.3591E-03     49.5152E-03    -24.4143E-03     26.0723E-03
            1940     4.39196E-03     27.5621E-03    -17.1895E+06    -104.316E+06    -10.5093E+06     1.03584E+06    -25.0399E-03     49.4596E-03    -24.4197E-03     21.4580E-03    -24.9614E-03     48.9803E-03    -24.2961E-03     21.4596E-03
            1941     3.51398E-03     27.5428E-03    -18.6284E+06    -107.364E+06    -14.1270E+06     871.503E+03    -24.7104E-03     49.0198E-03    -24.3094E-03     16.9788E-03    -24.6286E-03     48.5317E-03    -24.1973E-03     16.9815E-03
            1942     2.63561E-03     27.5275E-03    -19.8700E+06    -109.117E+06    -17.2104E+06     771.798E+03    -24.4503E-03     48.6699E-03    -24.2196E-03     12.6453E-03    -24.3671E-03     48.1787E-03    -24.1186E-03     12.6493E-03
            1943     1.75728E-03     27.5169E-03    -20.7005E+06    -110.264E+06    -19.4897E+06     499.778E+03    -24.2594E-03     48.4125E-03    -24.1531E-03     8.45379E-03    -24.1750E-03     47.9197E-03    -24.0607E-03     8.45650E-03
            1944     878.564E-06     27.5101E-03    -21.2553E+06    -111.020E+06    -21.0028E+06     317.946E+03    -24.1391E-03     48.2522E-03    -24.1131E-03     4.58496E-03    -24.0540E-03     47.7585E-03    -24.0263E-03     4.58710E-03
            1945     16.6457E-03     27.6937E-03    -5.01516E+06     171.325E+06     84.5294E+06     500.421E+03    -39.7637E-03     66.5755E-03    -26.8118E-03     252.108E-03    -47.9872E-03     75.1442E-03    -26.6303E-03     256.339E-03
            1946     15.7781E-03     27.3954E-03    -9.09988E+06     127.018E+06     19.3725E+06     721.919E+03    -42.2769E-03     68.6425E-03    -26.3657E-03     250.396E-03    -48.2231E-03     74.9512E-03    -26.4398E-03     251.102E-03
            1947     14.9034E-03     27.2084E-03    -9.11200E+06     60.4968E+06    -21.2536E+06     1.12232E+06    -34.6423E-03     60.7001E-03    -26.0578E-03     151.055E-03    -35.9268E-03     62.2286E-03    -26.2386E-03     150.793E-03
            1948     14.0301E-03     27.1056E-03    -8.00602E+06     6.25317E+06    -20.1913E+06     1.30294E+06    -30.8498E-03     56.8066E-03    -25.9568E-03     88.8762E-03    -31.1947E-03     57.2039E-03    -26.0552E-03     88.6566E-03
            1949     13.1550E-03     27.0354E-03    -7.88441E+06    -25.2702E+06    -12.5028E+06     934.631E+03    -30.3063E-03     56.1505E-03    -25.8443E-03     75.4312E-03    -30.4640E-03     56.2268E-03    -25.8587E-03     75.2549E-03
            1950     12.2812E-03     26.9589E-03    -7.79767E+06     -39.638E+06    -5.99724E+06     816.832E+03    -29.8835E-03     55.5743E-03    -25.6908E-03     73.3473E-03    -29.9721E-03     55.5119E-03    -25.6521E-03     73.2095E-03
            1951     11.4057E-03     26.8921E-03    -8.02221E+06    -54.1579E+06    -4.36767E+06     944.062E+03    -29.2865E-03     54.7960E-03    -25.5095E-03     63.6818E-03    -29.3141E-03     54.6155E-03    -25.4412E-03     63.5795E-03
            1952     10.5311E-03     26.8335E-03    -8.60912E+06    -67.3882E+06    -4.57770E+06     1.22563E+06    -28.7437E-03     54.0535E-03    -25.3098E-03     56.3595E-03    -28.7282E-03     53.7814E-03    -25.2225E-03     56.2882E-03
            1953     9.65556E-03     26.7802E-03    -9.28533E+06    -74.9061E+06    -1.78666E+06     1.37606E+06    -28.0796E-03     53.1970E-03    -25.1174E-03     50.8617E-03    -28.0448E-03     52.8685E-03    -25.0042E-03     50.8134E-03
            1954     8.77956E-03     26.7320E-03    -10.2928E+06    -79.3288E+06    -738.976E+03     1.35906E+06    -27.4289E-03     52.3499E-03    -24.9210E-03     45.3325E-03    -27.3838E-03     51.9888E-03    -24.7947E-03     45.3002E-03
            1955     7.90329E-03     26.6893E-03    -11.4970E+06    -84.6760E+06    -1.58707E+06     1.38607E+06    -26.8280E-03     51.5543E-03    -24.7263E-03     40.0674E-03    -26.7731E-03     51.1627E-03    -24.5948E-03     40.0477E-03
            1956     7.02635E-03     26.6513E-03    -12.8696E+06    -90.8461E+06    -2.36933E+06     1.50054E+06    -26.2374E-03     50.7828E-03    -24.5454E-03     34.9563E-03    -26.1748E-03     50.3589E-03    -24.4069E-03     34.9475E-03
            1957     6.14923E-03     26.6186E-03    -14.4529E+06    -95.5671E+06    -5.06603E+06     1.59890E+06    -25.6824E-03     50.0515E-03    -24.3691E-03     30.0538E-03    -25.6140E-03     49.6072E-03    -24.2349E-03     30.0534E-03
            1958     5.27148E-03     26.5903E-03    -16.0654E+06    -99.1553E+06    -8.73835E+06     1.52610E+06    -25.1798E-03     49.3852E-03    -24.2054E-03     25.3465E-03    -25.1070E-03     48.9287E-03    -24.0820E-03     25.3507E-03
            1959     4.39356E-03     26.5669E-03    -17.4526E+06    -103.603E+06    -11.4531E+06     1.26075E+06    -24.7528E-03     48.8206E-03    -24.0678E-03     20.8271E-03    -24.6752E-03     48.3464E-03    -23.9495E-03     20.8320E-03
            1960     3.51516E-03     26.5476E-03    -18.7299E+06    -107.067E+06    -14.1741E+06     1.01073E+06    -24.3945E-03     48.3439E-03    -23.9494E-03     16.4589E-03    -24.3135E-03     47.8574E-03    -23.8378E-03     16.4638E-03
            1961     2.63670E-03     26.5330E-03    -19.6786E+06    -108.528E+06    -17.1075E+06     853.383E+03    -24.1016E-03     47.9510E-03    -23.8494E-03     12.2439E-03    -24.0184E-03     47.4623E-03    -23.7490E-03     12.2493E-03
            1962     1.75781E-03     26.5223E-03    -20.4854E+06    -109.703E+06    -19.4180E+06     647.531E+03    -23.8922E-03     47.6685E-03    -23.7763E-03     8.18826E-03    -23.8077E-03     47.1781E-03    -23.6846E-03     8.19304E-03
            1963     879.047E-06     26.5161E-03    -20.9612E+06    -110.294E+06    -20.6939E+06      380.74E+03    -23.7598E-03     47.4946E-03    -23.7349E-03     4.42869E-03    -23.6747E-03     47.0037E-03    -23.6480E-03     4.43172E-03
            1964     16.6531E-03     26.6865E-03    -5.35104E+06     171.013E+06     85.0263E+06     771.138E+03    -40.0180E-03     66.7983E-03    -26.7803E-03     251.757E-03    -48.2133E-03     75.3352E-03    -26.5954E-03     255.949E-03
            1965     15.7774E-03     26.3931E-03    -8.67484E+06     126.800E+06     19.3625E+06     639.035E+03    -42.1033E-03     68.4176E-03    -26.3143E-03     247.473E-03    -47.9635E-03     74.6411E-03    -26.3888E-03     248.197E-03
            1966     14.9049E-03     26.2046E-03    -8.60303E+06     60.2680E+06    -21.9471E+06     653.954E+03    -35.2906E-03     61.2617E-03    -25.9710E-03     148.760E-03    -36.5559E-03     62.7740E-03    -26.1557E-03     148.477E-03
            1967     14.0309E-03     26.1042E-03    -8.01004E+06     6.51339E+06    -20.2954E+06     1.12806E+06    -31.1067E-03     56.9400E-03    -25.8333E-03     87.7511E-03    -31.4457E-03     57.3325E-03    -25.9326E-03     87.5278E-03
            1968     13.1574E-03     26.0336E-03    -7.45255E+06    -24.9269E+06    -12.2318E+06     1.25972E+06    -30.4178E-03     56.1166E-03    -25.6988E-03     74.6279E-03    -30.5716E-03     56.1909E-03    -25.7130E-03     74.4562E-03
            1969     12.2826E-03     25.9583E-03    -7.42595E+06    -38.9737E+06    -5.65946E+06     997.059E+03    -30.1790E-03     55.6963E-03    -25.5173E-03     72.0369E-03    -30.2658E-03     55.6348E-03    -25.4783E-03     71.9005E-03
            1970     11.4087E-03     25.8916E-03    -8.19341E+06    -54.4071E+06    -4.76346E+06     1.14370E+06    -29.4251E-03     54.7264E-03    -25.3014E-03     62.6649E-03    -29.4508E-03     54.5438E-03    -25.2344E-03     62.5660E-03
            1971     10.5335E-03     25.8339E-03    -8.63298E+06    -68.0622E+06    -4.96764E+06     1.38157E+06    -28.7737E-03     53.8492E-03    -25.0755E-03     55.3210E-03    -28.7555E-03     53.5731E-03    -24.9891E-03     55.2527E-03
            1972     9.65807E-03     25.7813E-03    -9.02035E+06    -74.6612E+06    -1.95583E+06     1.61295E+06    -28.0613E-03     52.9196E-03    -24.8583E-03     49.8506E-03    -28.0242E-03     52.5911E-03    -24.7467E-03     49.8066E-03
            1973     8.78209E-03     25.7341E-03    -9.99832E+06    -79.2717E+06    -877.477E+03     1.69946E+06    -27.3681E-03     52.0063E-03    -24.6382E-03     44.3517E-03    -27.3207E-03     51.6446E-03    -24.5131E-03     44.3248E-03
            1974     7.90557E-03     25.6919E-03    -11.2320E+06    -84.4437E+06    -1.70683E+06     1.68465E+06    -26.7067E-03     51.1268E-03    -24.4200E-03     39.0364E-03    -26.6502E-03     50.7356E-03    -24.2899E-03     39.0216E-03
            1975     7.02876E-03     25.6549E-03    -12.6691E+06    -90.8067E+06    -2.62769E+06     1.73401E+06    -26.0611E-03     50.2782E-03    -24.2171E-03     33.9850E-03    -25.9969E-03     49.8542E-03    -24.0802E-03     33.9801E-03
            1976     6.15125E-03     25.6226E-03    -14.1237E+06    -95.3649E+06    -4.95981E+06     1.93155E+06    -25.4629E-03     49.4846E-03    -24.0217E-03     29.1455E-03    -25.3931E-03     49.0405E-03    -23.8877E-03     29.1501E-03
            1977     5.27350E-03     25.5951E-03    -15.6027E+06    -98.4180E+06    -8.39991E+06     1.81480E+06    -24.9136E-03     48.7525E-03    -23.8389E-03     24.5364E-03    -24.8398E-03     48.2983E-03    -23.7156E-03     24.5449E-03
            1978     4.39516E-03     25.5720E-03    -17.0240E+06    -102.928E+06    -11.1435E+06     1.44577E+06    -24.4359E-03     48.1207E-03    -23.6848E-03     20.1295E-03    -24.3575E-03     47.6487E-03    -23.5665E-03     20.1372E-03
            1979     3.51666E-03     25.5534E-03    -18.3354E+06    -106.525E+06    -14.1382E+06     1.17354E+06    -24.0388E-03     47.5912E-03    -23.5524E-03     15.8906E-03    -23.9565E-03     47.1067E-03    -23.4420E-03     15.8979E-03
            1980     2.63766E-03     25.5390E-03    -19.5840E+06    -108.007E+06    -17.0835E+06     981.128E+03    -23.7206E-03     47.1632E-03    -23.4427E-03     11.8077E-03    -23.6377E-03     46.6769E-03    -23.3431E-03     11.8150E-03
            1981     1.75865E-03     25.5289E-03    -20.3712E+06    -108.941E+06    -19.1292E+06     722.779E+03    -23.4907E-03     46.8526E-03    -23.3620E-03     7.89016E-03    -23.4071E-03     46.3654E-03    -23.2701E-03     7.89609E-03
            1982     879.279E-06     25.5224E-03    -20.7932E+06    -109.508E+06    -20.5301E+06     355.679E+03    -23.3429E-03     46.6564E-03    -23.3136E-03     4.24727E-03    -23.2584E-03     46.1689E-03    -23.2273E-03     4.25009E-03
            1983     16.6517E-03     25.6849E-03    -4.94041E+06     171.094E+06     85.7906E+06     648.760E+03    -41.0137E-03     67.7281E-03    -26.7144E-03     252.100E-03    -49.1870E-03     76.2425E-03    -26.5264E-03     256.147E-03
            1984     15.7793E-03     25.3886E-03    -7.56986E+06     127.222E+06     20.2823E+06     902.427E+03    -42.3078E-03     68.5223E-03    -26.2145E-03     247.282E-03    -48.1506E-03     74.7311E-03    -26.2866E-03     247.976E-03
            1985     14.9075E-03     25.2008E-03    -8.42329E+06     60.0401E+06    -22.2335E+06     1.18105E+06    -35.5396E-03     61.3853E-03    -25.8457E-03     147.012E-03    -36.7786E-03     62.8721E-03    -26.0317E-03     146.727E-03
            1986     14.0341E-03     25.1036E-03     -7.8791E+06     6.31132E+06    -20.6280E+06     1.41814E+06    -31.3187E-03     56.9995E-03    -25.6809E-03     86.6654E-03    -31.6510E-03     57.3861E-03    -25.7817E-03     86.4449E-03
            1987     13.1590E-03     25.0315E-03    -7.80304E+06    -24.8372E+06    -12.7768E+06     1.28524E+06    -30.5837E-03     56.1040E-03    -25.5203E-03     73.8598E-03    -30.7363E-03     56.1778E-03    -25.5369E-03     73.6882E-03
            1988     12.2861E-03     24.9574E-03    -7.86072E+06    -38.5827E+06    -6.27979E+06     1.12927E+06    -30.2931E-03     55.6063E-03    -25.3132E-03     71.0659E-03    -30.3794E-03     55.5460E-03    -25.2773E-03     70.9321E-03
            1989     11.4109E-03     24.8915E-03    -7.89153E+06    -54.6839E+06    -5.19978E+06     1.30953E+06    -29.5612E-03     54.6318E-03    -25.0706E-03     61.7436E-03    -29.5828E-03     54.4464E-03    -25.0059E-03     61.6478E-03
            1990     10.5361E-03     24.8345E-03    -8.16667E+06    -68.3252E+06    -5.23956E+06     1.62849E+06    -28.7630E-03     53.5821E-03    -24.8190E-03     54.2031E-03    -28.7402E-03     53.3029E-03    -24.7343E-03     54.1397E-03
            1991     9.66067E-03     24.7828E-03    -8.80365E+06    -74.7255E+06    -2.30220E+06     1.84157E+06    -28.0711E-03     52.6470E-03    -24.5758E-03     48.7184E-03    -28.0314E-03     52.3174E-03    -24.4662E-03     48.6785E-03
            1992     8.78478E-03     24.7363E-03    -9.73808E+06    -79.0708E+06    -976.816E+03     1.90531E+06    -27.3346E-03     51.6616E-03    -24.3270E-03     43.1534E-03    -27.2854E-03     51.3000E-03    -24.2031E-03     43.1302E-03
            1993     7.90836E-03     24.6951E-03    -10.9875E+06     -84.174E+06    -1.66036E+06     2.04583E+06    -26.5608E-03     50.6433E-03    -24.0825E-03     37.8852E-03    -26.5030E-03     50.2525E-03    -23.9528E-03     37.8760E-03
            1994     7.03120E-03     24.6588E-03    -12.5038E+06    -90.6085E+06    -2.64075E+06     2.08035E+06    -25.8634E-03     49.7197E-03    -23.8563E-03     32.9173E-03    -25.7982E-03     49.2961E-03    -23.7200E-03     32.9177E-03
            1995     6.15371E-03     24.6273E-03    -14.0175E+06    -95.0712E+06    -5.14683E+06     2.04802E+06    -25.2136E-03     48.8518E-03    -23.6381E-03     28.1581E-03    -25.1431E-03     48.4089E-03    -23.5057E-03     28.1650E-03
            1996     5.27555E-03     24.6004E-03    -15.2544E+06    -97.7062E+06    -8.13766E+06     1.95265E+06    -24.6135E-03     48.0502E-03    -23.4367E-03     23.6504E-03    -24.5392E-03     47.5985E-03    -23.3136E-03     23.6612E-03
            1997     4.39712E-03     24.5781E-03    -16.5609E+06    -102.259E+06    -11.0524E+06     1.76518E+06    -24.0855E-03     47.3502E-03    -23.2646E-03     19.3782E-03    -24.0058E-03     46.8806E-03    -23.1476E-03     19.3906E-03
            1998     3.51808E-03     24.5599E-03    -18.0777E+06    -105.898E+06    -14.0358E+06     1.59156E+06    -23.6466E-03     46.7661E-03    -23.1195E-03     15.2765E-03    -23.5641E-03     46.2842E-03    -23.0099E-03     15.2896E-03
            1999     2.63893E-03     24.5460E-03    -19.2650E+06    -107.124E+06    -16.7202E+06     1.18869E+06    -23.3064E-03     46.3060E-03    -22.9996E-03     11.3387E-03    -23.2237E-03     45.8231E-03    -22.9000E-03     11.3490E-03
            2000     1.75938E-03     24.5359E-03    -20.1019E+06    -108.128E+06    -18.9222E+06     700.246E+03    -23.0535E-03     45.9622E-03    -22.9087E-03     7.56499E-03    -22.9700E-03     45.4783E-03    -22.8174E-03     7.57082E-03
            2001     879.806E-06     24.5300E-03    -20.5592E+06    -108.717E+06    -20.3091E+06     384.587E+03    -22.8834E-03     45.7412E-03    -22.8578E-03     4.07537E-03    -22.7992E-03     45.2570E-03    -22.7719E-03     4.07866E-03
            2002     16.6535E-03     24.6808E-03    -5.36614E+06     170.214E+06     85.0732E+06     277.123E+03    -42.0191E-03     68.6930E-03    -26.6739E-03     250.733E-03    -50.0963E-03     77.1088E-03    -26.4876E-03     254.625E-03
            2003     15.7819E-03     24.3835E-03    -8.20697E+06     126.517E+06      20.195E+06     1.09930E+06    -42.9108E-03     69.0422E-03    -26.1314E-03     247.090E-03    -48.7290E-03     75.2219E-03    -26.2020E-03     247.716E-03
            2004     14.9085E-03     24.1988E-03    -9.06711E+06     60.2610E+06    -22.5414E+06     1.63180E+06    -35.7038E-03     61.4371E-03    -25.7332E-03     146.630E-03    -36.9309E-03     62.9112E-03    -25.9202E-03     146.349E-03
            2005     14.0351E-03     24.1004E-03    -8.64440E+06     6.66334E+06    -21.7653E+06     1.51529E+06    -31.9422E-03     57.4729E-03    -25.5306E-03     86.1816E-03    -32.2760E-03     57.8628E-03    -25.6366E-03     85.9563E-03
            2006     13.1630E-03     24.0307E-03    -7.59184E+06    -24.5755E+06    -13.1950E+06     1.28616E+06    -30.8730E-03     56.2047E-03    -25.3317E-03     73.2032E-03    -31.0216E-03     56.2773E-03    -25.3510E-03     73.0311E-03
            2007     12.2873E-03     23.9564E-03    -7.50848E+06    -38.6586E+06    -6.59716E+06     1.23871E+06    -30.4485E-03     55.5436E-03    -25.0951E-03     70.4164E-03    -30.5300E-03     55.4804E-03    -25.0611E-03     70.2854E-03
            2008     11.4141E-03     23.8911E-03    -7.56169E+06    -54.8804E+06    -5.44210E+06     1.46672E+06    -29.7474E-03     54.5683E-03    -24.8209E-03     60.2435E-03    -29.7650E-03     54.3800E-03    -24.7575E-03     60.1503E-03
            2009     10.5391E-03     23.8357E-03    -7.94828E+06    -68.2569E+06    -5.25660E+06     1.77382E+06    -28.8269E-03     53.3627E-03    -24.5359E-03     52.8865E-03    -28.8015E-03     53.0821E-03    -24.4517E-03     52.8263E-03
            2010     9.66370E-03     23.7843E-03    -8.72215E+06    -74.4568E+06    -2.24505E+06     1.99415E+06    -28.0593E-03     52.3212E-03    -24.2619E-03     47.4299E-03    -28.0186E-03     51.9918E-03    -24.1525E-03     47.3932E-03
            2011     8.78789E-03     23.7389E-03    -9.58100E+06    -79.0303E+06    -1.10986E+06     2.09930E+06    -27.2324E-03     51.2162E-03    -23.9837E-03     41.8124E-03    -27.1814E-03     50.8538E-03    -23.8608E-03     41.7930E-03
            2012     7.91120E-03     23.6987E-03    -10.7312E+06    -84.0954E+06    -1.83743E+06     2.33638E+06    -26.4106E-03     50.1226E-03    -23.7120E-03     36.6796E-03    -26.3508E-03     49.7315E-03    -23.5837E-03     36.6753E-03
            2013     7.03407E-03     23.6632E-03    -12.0955E+06    -90.2800E+06    -2.67805E+06     2.56035E+06    -25.6431E-03     49.1036E-03    -23.4605E-03     31.7595E-03    -25.5759E-03     48.6807E-03    -23.3254E-03     31.7671E-03
            2014     6.15621E-03     23.6326E-03    -13.6999E+06    -94.3036E+06    -5.09855E+06     2.30320E+06    -24.9236E-03     48.1437E-03    -23.2201E-03     27.1036E-03    -24.8524E-03     47.7039E-03    -23.0890E-03     27.1146E-03
            2015     5.27794E-03     23.6065E-03    -15.1581E+06    -97.3045E+06    -8.29057E+06     1.99930E+06    -24.2717E-03     47.2713E-03    -22.9996E-03     22.7216E-03    -24.1971E-03     46.8215E-03    -22.8780E-03     22.7338E-03
            2016     4.39901E-03     23.5848E-03    -16.5180E+06    -101.782E+06    -10.8444E+06     2.18187E+06    -23.7072E-03     46.5194E-03    -22.8122E-03     18.5678E-03    -23.6281E-03     46.0518E-03    -22.6949E-03     18.5861E-03
            2017     3.51982E-03     23.5673E-03    -17.7653E+06    -104.804E+06    -13.6270E+06     1.87268E+06    -23.2319E-03     45.8829E-03    -22.6510E-03     14.6118E-03    -23.1499E-03     45.4053E-03    -22.5414E-03     14.6290E-03
            2018     2.64013E-03     23.5537E-03    -18.7680E+06    -106.147E+06    -16.4123E+06     1.28779E+06    -22.8478E-03     45.3668E-03    -22.5190E-03     10.8321E-03    -22.7644E-03     44.8875E-03    -22.4200E-03     10.8439E-03
            2019     1.76029E-03     23.5441E-03    -19.5507E+06    -107.209E+06    -18.5578E+06     896.700E+03    -22.5751E-03     44.9975E-03    -22.4223E-03     7.22020E-03    -22.4908E-03     44.5169E-03    -22.3313E-03     7.22876E-03
            2020     880.143E-06     23.5382E-03    -20.1716E+06    -107.829E+06    -19.9266E+06     478.734E+03    -22.3976E-03     44.7646E-03    -22.3670E-03     3.88272E-03    -22.3133E-03     44.2837E-03    -22.2811E-03     3.88733E-03
            2021     16.6532E-03     23.6743E-03    -5.31619E+06     169.322E+06     84.4642E+06     602.995E+03    -42.7460E-03     69.4077E-03    -26.6617E-03     250.507E-03    -50.7824E-03     77.7814E-03    -26.4772E-03     254.293E-03
            2022     15.7815E-03     23.3785E-03    -8.89179E+06     125.679E+06     20.1784E+06     1.20890E+06    -43.7749E-03     69.8509E-03    -26.0760E-03     245.730E-03    -49.5574E-03     75.9895E-03    -26.1444E-03     246.291E-03
            2023     14.9097E-03     23.1962E-03    -9.01800E+06     60.6181E+06    -22.3514E+06     1.58841E+06    -36.4365E-03     62.0551E-03    -25.6186E-03     144.521E-03    -37.6460E-03     63.5126E-03    -25.8052E-03     144.223E-03
            2024     14.0380E-03     23.0964E-03    -7.69513E+06     6.98643E+06    -21.7586E+06     1.36276E+06    -32.1923E-03     57.5620E-03    -25.3697E-03     84.2526E-03    -32.5121E-03     57.9424E-03    -25.4775E-03     84.0245E-03
            2025     13.1637E-03     23.0302E-03    -7.15600E+06    -23.9922E+06    -12.9368E+06     1.12995E+06    -31.2776E-03     56.4134E-03    -25.1359E-03     71.8427E-03    -31.4221E-03     56.4850E-03    -25.1554E-03     71.6670E-03
            2026     12.2916E-03     22.9546E-03    -7.26862E+06    -38.6489E+06    -6.53725E+06     1.54492E+06    -30.8049E-03     55.6602E-03    -24.8553E-03     69.2313E-03    -30.8834E-03     55.5947E-03    -24.8214E-03     69.1035E-03
            2027     11.4170E-03     22.8915E-03    -7.85466E+06    -55.1676E+06    -5.73424E+06     1.76226E+06    -29.8136E-03     54.3565E-03    -24.5430E-03     58.7698E-03    -29.8292E-03     54.1651E-03    -24.4803E-03     58.6821E-03
            2028     10.5424E-03     22.8365E-03    -8.09411E+06    -68.1885E+06    -5.83058E+06     1.91249E+06    -28.9534E-03     53.1747E-03    -24.2212E-03     51.5551E-03    -28.9266E-03     52.8940E-03    -24.1398E-03     51.4977E-03
            2029     9.66726E-03     22.7864E-03    -8.56830E+06    -74.5044E+06    -2.55832E+06     2.15617E+06    -28.0048E-03     51.9187E-03    -23.9139E-03     46.0260E-03    -27.9616E-03     51.5880E-03    -23.8062E-03     45.9930E-03
            2030     8.79102E-03     22.7421E-03    -9.41691E+06    -78.8455E+06    -1.41673E+06     2.38980E+06    -27.0819E-03     50.6901E-03    -23.6082E-03     40.4785E-03    -27.0290E-03     50.3279E-03    -23.4873E-03     40.4644E-03
            2031     7.91445E-03     22.7028E-03    -10.4348E+06    -84.1640E+06    -2.15536E+06     2.54382E+06    -26.2447E-03     49.5544E-03    -23.3097E-03     35.3494E-03    -26.1822E-03     49.1624E-03    -23.1833E-03     35.3489E-03
            2032     7.03704E-03     22.6684E-03    -11.4980E+06    -89.9904E+06    -2.95697E+06     2.79352E+06    -25.3961E-03     48.4269E-03    -23.0308E-03     30.5200E-03    -25.3254E-03     48.0046E-03    -22.8985E-03     30.5317E-03
            2033     6.15905E-03     22.6387E-03    -12.6535E+06    -93.3285E+06    -4.97943E+06     2.67033E+06    -24.6043E-03     47.3726E-03    -22.7683E-03     25.9727E-03    -24.5291E-03     46.9357E-03    -22.6395E-03     25.9894E-03
            2034     5.28033E-03     22.6135E-03    -14.1981E+06    -96.9175E+06    -7.35044E+06     2.49062E+06    -23.9054E-03     46.4388E-03    -22.5334E-03     21.7037E-03    -23.8277E-03     45.9879E-03    -22.4090E-03     21.7229E-03
            2035     4.40124E-03     22.5924E-03    -15.7461E+06    -101.234E+06    -9.70923E+06     2.39059E+06    -23.2980E-03     45.6271E-03    -22.3292E-03     17.6950E-03    -23.2173E-03     45.1593E-03    -22.2081E-03     17.7165E-03
            2036     3.52154E-03     22.5755E-03    -17.0307E+06    -103.501E+06    -13.1267E+06     2.09136E+06    -22.7781E-03     44.9268E-03    -22.1487E-03     13.9069E-03    -22.6950E-03     44.4538E-03    -22.0396E-03     13.9273E-03
            2037     2.64156E-03     22.5625E-03    -18.2268E+06    -105.126E+06    -16.1451E+06     1.58582E+06    -22.3625E-03     44.3671E-03    -22.0046E-03     10.2942E-03    -22.2782E-03     43.8918E-03    -21.9065E-03     10.3102E-03
            2038     1.76115E-03     22.5532E-03    -19.1491E+06    -106.164E+06    -18.2212E+06     1.13167E+06    -22.0598E-03     43.9616E-03    -21.9018E-03     6.85241E-03    -21.9753E-03     43.4851E-03    -21.8112E-03     6.86420E-03
            2039     880.679E-06     22.5476E-03    -19.6076E+06    -106.667E+06    -19.5012E+06     682.834E+03    -21.8760E-03     43.7210E-03    -21.8450E-03     3.67931E-03    -21.7911E-03     43.2445E-03    -21.7594E-03     3.68667E-03
            2040     16.6527E-03     22.6667E-03    -5.25342E+06     168.631E+06     84.7405E+06     504.405E+03    -43.7572E-03     70.4020E-03    -26.6448E-03     248.556E-03    -51.7087E-03     78.6878E-03    -26.4580E-03     252.190E-03
            2041     15.7829E-03     22.3731E-03    -8.16666E+06     125.405E+06     20.8837E+06     1.04317E+06    -44.8294E-03     70.8149E-03    -25.9855E-03     242.394E-03    -50.4898E-03     76.8310E-03    -26.0511E-03     242.845E-03
            2042     14.9136E-03     22.1901E-03    -8.50576E+06     60.4939E+06    -22.2821E+06     1.53361E+06    -36.9336E-03     62.3940E-03    -25.4604E-03     142.013E-03    -38.1111E-03     63.8207E-03    -25.6472E-03     141.699E-03
            2043     14.0405E-03     22.0962E-03    -7.75419E+06     7.35039E+06    -22.2812E+06     1.57722E+06    -32.4362E-03     57.6053E-03    -25.1690E-03     82.6322E-03    -32.7473E-03     57.9796E-03    -25.2799E-03     82.4071E-03
            2044     13.1680E-03     22.0268E-03    -7.20520E+06    -23.7718E+06    -13.8712E+06     1.53130E+06    -31.5533E-03     56.4525E-03    -24.8992E-03     70.6857E-03    -31.6931E-03     56.5225E-03    -24.9236E-03     70.5156E-03
            2045     12.2942E-03     21.9543E-03    -7.01604E+06    -39.0466E+06    -7.31268E+06     1.75256E+06    -31.0030E-03     55.5863E-03    -24.5832E-03     67.6455E-03    -31.0757E-03     55.5166E-03    -24.5530E-03     67.5214E-03
            2046     11.4204E-03     21.8916E-03    -7.35743E+06    -54.9108E+06    -5.98989E+06     2.15353E+06    -29.9309E-03     54.1669E-03    -24.2361E-03     57.3412E-03    -29.9414E-03     53.9739E-03    -24.1757E-03     57.2606E-03
            2047     10.5461E-03     21.8375E-03    -8.09230E+06    -68.3454E+06    -6.54377E+06     2.21742E+06    -28.9774E-03     52.8564E-03    -23.8790E-03     49.9959E-03    -28.9476E-03     52.5743E-03    -23.8009E-03     49.9442E-03
            2048     9.67069E-03     21.7891E-03    -8.47868E+06    -74.6079E+06    -3.10424E+06     2.31758E+06    -27.9609E-03     51.5000E-03    -23.5391E-03     44.4981E-03    -27.9150E-03     51.1682E-03    -23.4342E-03     44.4688E-03
            2049     8.79472E-03     21.7456E-03    -9.26480E+06    -78.6847E+06    -1.72968E+06     2.59551E+06    -26.9595E-03     50.1617E-03    -23.2021E-03     39.0388E-03    -26.9047E-03     49.7997E-03    -23.0833E-03     39.0288E-03
            2050     7.91783E-03     21.7075E-03    -10.2001E+06    -84.1069E+06    -2.53681E+06     2.80137E+06    -26.0142E-03     48.8896E-03    -22.8754E-03     33.9294E-03    -25.9494E-03     48.4973E-03    -22.7513E-03     33.9337E-03
            2051     7.04029E-03     21.6742E-03    -11.3650E+06    -89.6587E+06    -3.39934E+06     2.90871E+06    -25.1124E-03     47.6837E-03    -22.5713E-03     29.2000E-03    -25.0404E-03     47.2630E-03    -22.4418E-03     29.2143E-03
            2052     6.16198E-03     21.6456E-03    -12.7162E+06    -92.7592E+06    -5.44831E+06     3.02785E+06    -24.2673E-03     46.5525E-03    -22.2851E-03     24.7785E-03    -24.1923E-03     46.1188E-03    -22.1594E-03     24.8007E-03
            2053     5.28308E-03     21.6212E-03    -14.0623E+06    -96.1936E+06    -7.66325E+06     2.96905E+06    -23.5114E-03     45.5405E-03    -22.0291E-03     20.6440E-03    -23.4334E-03     45.0934E-03    -21.9076E-03     20.6701E-03
            2054     4.40348E-03     21.6010E-03    -15.4153E+06    -100.356E+06    -10.0893E+06     2.64291E+06    -22.8479E-03     44.6544E-03    -21.8065E-03     16.7737E-03    -22.7662E-03     44.1909E-03    -21.6890E-03     16.7991E-03
            2055     3.52346E-03     21.5848E-03    -16.6809E+06    -102.496E+06    -12.9878E+06     2.36194E+06    -22.2846E-03     43.8998E-03    -21.6152E-03     13.1519E-03    -22.2013E-03     43.4311E-03    -21.5073E-03     13.1762E-03
            2056     2.64293E-03     21.5722E-03    -17.7431E+06    -103.825E+06    -15.6771E+06     2.01456E+06    -21.8443E-03     43.3063E-03    -21.4620E-03     9.72519E-03    -21.7601E-03     42.8360E-03    -21.3642E-03     9.74703E-03
            2057     1.76220E-03     21.5634E-03    -18.6400E+06    -104.859E+06    -17.7592E+06     1.41249E+06    -21.5225E-03     42.8734E-03    -21.3509E-03     6.47016E-03    -21.4381E-03     42.4020E-03    -21.2606E-03     6.48579E-03
            2058     881.090E-06     21.5580E-03    -19.2258E+06    -105.181E+06    -18.9838E+06     831.699E+03    -21.3208E-03     42.6108E-03    -21.2900E-03     3.49037E-03    -21.2370E-03     42.1404E-03    -21.2045E-03     3.49976E-03
            2059     16.6543E-03     21.6567E-03    -5.02128E+06     168.460E+06     85.1624E+06     438.421E+03    -44.9143E-03     71.4924E-03    -26.5781E-03     246.929E-03    -52.7498E-03     79.6612E-03    -26.3893E-03     250.404E-03
            2060     15.7871E-03     21.3666E-03    -7.86749E+06     124.379E+06     20.0065E+06     955.026E+03    -45.1879E-03     71.0483E-03    -25.8604E-03     240.765E-03    -50.7354E-03     76.9515E-03    -25.9293E-03     241.177E-03
            2061     14.9145E-03     21.1864E-03    -8.29868E+06     60.4786E+06    -23.4068E+06     1.74254E+06    -37.5990E-03     62.8884E-03    -25.2895E-03     140.442E-03    -38.7568E-03     64.2995E-03    -25.4822E-03     140.117E-03
            2062     14.0437E-03     21.0926E-03    -7.92630E+06     8.33010E+06    -22.4102E+06     1.80895E+06    -33.1172E-03     58.0626E-03    -24.9454E-03     80.4698E-03    -33.4209E-03     58.4328E-03    -25.0580E-03     80.2427E-03
            2063     13.1709E-03     21.0255E-03    -7.37505E+06    -24.2892E+06    -14.6043E+06     1.74236E+06    -31.7092E-03     56.3374E-03    -24.6282E-03     69.3547E-03    -31.8435E-03     56.4017E-03    -24.6553E-03     69.1886E-03
            2064     12.2980E-03     20.9531E-03    -6.91676E+06    -39.2955E+06    -7.83709E+06     2.05255E+06    -31.1150E-03     55.3954E-03    -24.2804E-03     66.0253E-03    -31.1822E-03     55.3213E-03    -24.2526E-03     65.9072E-03
            2065     11.4246E-03     20.8918E-03    -7.28362E+06    -54.7822E+06    -6.17449E+06     2.39771E+06    -30.0550E-03     53.9533E-03    -23.8982E-03     55.5208E-03    -30.0626E-03     53.7585E-03    -23.8391E-03     55.4449E-03
            2066     10.5498E-03     20.8394E-03    -7.64253E+06     -68.013E+06    -6.30714E+06     2.53227E+06    -28.8896E-03     52.3990E-03    -23.5093E-03     48.3092E-03    -28.8564E-03     52.1155E-03    -23.4312E-03     48.2639E-03
            2067     9.67464E-03     20.7917E-03    -8.12315E+06    -74.5837E+06    -3.37190E+06     2.56636E+06    -27.8808E-03     51.0188E-03    -23.1381E-03     42.8853E-03    -27.8315E-03     50.6858E-03    -23.0350E-03     42.8609E-03
            2068     8.79853E-03     20.7499E-03    -8.83958E+06    -78.7077E+06    -2.01733E+06     2.79523E+06    -26.8207E-03     49.5896E-03    -22.7689E-03     37.4720E-03    -26.7624E-03     49.2264E-03    -22.6521E-03     37.4661E-03
            2069     7.92153E-03     20.7129E-03    -9.76797E+06    -83.9129E+06    -2.84814E+06     3.12793E+06    -25.7627E-03     48.1755E-03    -22.4128E-03     32.4693E-03    -25.6948E-03     47.7834E-03    -22.2912E-03     32.4793E-03
            2070     7.04370E-03     20.6808E-03    -11.0494E+06    -89.4261E+06    -3.71895E+06     3.41613E+06    -24.8010E-03     46.8850E-03    -22.0840E-03     27.8034E-03    -24.7269E-03     46.4650E-03    -21.9569E-03     27.8254E-03
            2071     6.16514E-03     20.6532E-03    -12.4251E+06    -92.1167E+06    -5.71701E+06     3.42096E+06    -23.9021E-03     45.6763E-03    -21.7741E-03     23.5046E-03    -23.8259E-03     45.2455E-03    -21.6511E-03     23.5328E-03
            2072     5.28583E-03     20.6299E-03    -13.6310E+06    -95.3647E+06    -7.87786E+06     3.19419E+06    -23.0847E-03     44.5819E-03    -21.4972E-03     19.5249E-03    -23.0053E-03     44.1384E-03    -21.3785E-03     19.5547E-03
            2073     4.40594E-03     20.6105E-03    -14.8696E+06    -99.4257E+06    -10.0047E+06     3.06131E+06    -22.3752E-03     43.6334E-03    -21.2582E-03     15.8094E-03    -22.2921E-03     43.1735E-03    -21.1425E-03     15.8408E-03
            2074     3.52543E-03     20.5950E-03    -16.2135E+06    -101.378E+06    -12.8727E+06     2.76483E+06    -21.7738E-03     42.8256E-03    -21.0518E-03     12.3495E-03    -21.6899E-03     42.3616E-03    -20.9457E-03     12.3795E-03
            2075     2.64450E-03     20.5831E-03    -17.3114E+06    -102.409E+06    -15.2468E+06     2.25431E+06    -21.2935E-03     42.1821E-03    -20.8886E-03     9.10887E-03    -21.2099E-03     41.7176E-03    -20.7912E-03     9.13413E-03
            2076     1.76314E-03     20.5747E-03    -18.0124E+06    -103.212E+06    -17.0209E+06     1.62863E+06    -20.9593E-03     41.7280E-03    -20.7687E-03     6.04094E-03    -20.8752E-03     41.2628E-03    -20.6780E-03     6.05957E-03
            2077     881.698E-06     20.5696E-03    -18.4389E+06    -103.455E+06    -18.1539E+06     848.282E+03    -20.7500E-03     41.4353E-03    -20.6853E-03     3.24799E-03    -20.6659E-03     40.9711E-03    -20.5993E-03     3.25771E-03
            2078     16.6573E-03     20.6477E-03    -5.16573E+06     167.714E+06     84.5884E+06     833.146E+03    -45.9432E-03     72.4675E-03    -26.5243E-03     245.830E-03    -53.6591E-03     80.5154E-03    -26.3371E-03     249.121E-03
            2079     15.7852E-03     20.3604E-03    -8.26688E+06     123.603E+06     19.9252E+06     1.28012E+06    -46.3213E-03     72.0665E-03    -25.7453E-03     238.828E-03    -51.8155E-03     77.9125E-03    -25.8129E-03     239.158E-03
            2080     14.9180E-03     20.1795E-03    -9.30743E+06     60.8142E+06    -23.4933E+06     1.37102E+06    -38.4155E-03     63.5146E-03    -25.0992E-03     136.479E-03    -39.5412E-03     64.8915E-03    -25.2913E-03     136.127E-03
            2081     14.0478E-03     20.0898E-03    -8.21246E+06     9.11158E+06    -22.9249E+06     1.66604E+06    -33.3000E-03     57.9977E-03    -24.6977E-03     78.3371E-03    -33.5922E-03     58.3596E-03    -24.8136E-03     78.1102E-03
            2082     13.1754E-03     20.0242E-03    -7.23494E+06    -24.2559E+06    -15.0724E+06     1.73347E+06    -32.1198E-03     56.4608E-03    -24.3410E-03     68.1348E-03    -32.2498E-03     56.5228E-03    -24.3707E-03     67.9672E-03
            2083     12.3022E-03     19.9522E-03    -7.18260E+06    -39.6177E+06    -8.40464E+06     2.13628E+06    -31.2820E-03     55.2324E-03    -23.9504E-03     64.6868E-03    -31.3460E-03     55.1547E-03    -23.9246E-03     64.5715E-03
            2084     11.4285E-03     19.8924E-03    -6.86663E+06    -54.8038E+06    -6.38185E+06     2.54832E+06    -30.0431E-03     53.5775E-03    -23.5344E-03     53.7617E-03    -30.0455E-03     53.3795E-03    -23.4769E-03     53.6903E-03
            2085     10.5543E-03     19.8415E-03    -6.85082E+06    -67.7840E+06    -6.36439E+06     2.71032E+06    -28.8665E-03     51.9797E-03    -23.1133E-03     46.6973E-03    -28.8276E-03     51.6945E-03    -23.0369E-03     46.6565E-03
            2086     9.67870E-03     19.7952E-03    -7.20856E+06    -74.5063E+06    -3.44885E+06     2.97987E+06    -27.7541E-03     50.4642E-03    -22.7101E-03     41.2588E-03    -27.6988E-03     50.1288E-03    -22.6089E-03     41.2419E-03
            2087     8.80250E-03     19.7545E-03    -8.03769E+06    -78.6671E+06    -2.11394E+06     3.23138E+06    -26.6211E-03     48.9331E-03    -22.3120E-03     35.7663E-03    -26.5577E-03     48.5680E-03    -22.1968E-03     35.7678E-03
            2088     7.92537E-03     19.7191E-03    -9.25715E+06    -83.8716E+06    -3.04113E+06     3.59328E+06    -25.5119E-03     47.4393E-03    -21.9275E-03     30.9087E-03    -25.4406E-03     47.0463E-03    -21.8076E-03     30.9261E-03
            2089     7.04732E-03     19.6881E-03    -10.3596E+06    -89.0858E+06    -3.89018E+06     3.88023E+06    -24.4764E-03     46.0476E-03    -21.5711E-03     26.3599E-03    -24.3986E-03     45.6280E-03    -21.4464E-03     26.3892E-03
            2090     6.16846E-03     19.6618E-03    -11.4567E+06    -91.2562E+06    -5.67182E+06     3.85617E+06    -23.5128E-03     44.7501E-03    -21.2373E-03     22.1546E-03    -23.4327E-03     44.3218E-03    -21.1167E-03     22.1895E-03
            2091     5.28881E-03     19.6395E-03    -12.8315E+06    -94.5345E+06    -7.85541E+06     3.70796E+06    -22.6393E-03     43.5785E-03    -20.9392E-03     18.3107E-03    -22.5568E-03     43.1377E-03    -20.8228E-03     18.3479E-03
            2092     4.40843E-03     19.6211E-03    -14.3175E+06    -98.5187E+06    -9.89992E+06     3.58881E+06    -21.8811E-03     42.5633E-03    -20.6822E-03     14.7570E-03    -21.7966E-03     42.1069E-03    -20.5681E-03     14.7958E-03
            2093     3.52752E-03     19.6064E-03    -15.5823E+06    -99.8927E+06    -12.4924E+06     3.21956E+06    -21.2387E-03     41.6985E-03    -20.4598E-03     11.4804E-03    -21.1543E-03     41.2404E-03    -20.3549E-03     11.5168E-03
            2094     2.64608E-03     19.5951E-03    -16.6145E+06    -100.810E+06    -14.8005E+06     2.54503E+06    -20.7275E-03     41.0095E-03    -20.2820E-03     8.45239E-03    -20.6432E-03     40.5513E-03    -20.1858E-03     8.48173E-03
            2095     1.76431E-03     19.5871E-03    -17.4247E+06    -101.330E+06    -16.5392E+06     1.75965E+06    -20.3616E-03     40.5111E-03    -20.1496E-03     5.60342E-03    -20.2779E-03     40.0538E-03    -20.0601E-03     5.62395E-03
            2096     882.196E-06     19.5822E-03    -17.9266E+06    -101.675E+06    -17.7577E+06     928.376E+03    -20.1349E-03     40.1858E-03    -20.0508E-03     2.96375E-03    -20.0514E-03     39.7292E-03    -19.9662E-03     2.97462E-03
            2097     16.6543E-03     19.6437E-03    -5.29410E+06     167.003E+06     84.8976E+06     654.988E+03    -47.9866E-03     74.4585E-03    -26.4719E-03     242.093E-03    -55.5305E-03     82.3304E-03    -26.2819E-03     245.080E-03
            2098     15.7905E-03     19.3459E-03    -8.12041E+06     123.200E+06     21.3621E+06     1.27802E+06    -47.5942E-03     73.1806E-03    -25.5864E-03     234.518E-03    -52.9610E-03     78.8943E-03    -25.6465E-03     234.666E-03
            2099     14.9233E-03     19.1769E-03    -8.48961E+06     60.6504E+06    -23.0295E+06     1.80843E+06    -38.1764E-03     63.0548E-03    -24.8785E-03     133.364E-03    -39.2392E-03     64.3698E-03    -25.0693E-03     133.026E-03
            2100     14.0497E-03     19.0861E-03    -8.24447E+06     9.39646E+06    -23.9150E+06     1.95855E+06    -33.7048E-03     58.1473E-03    -24.4425E-03     77.0092E-03    -33.9895E-03     58.5055E-03    -24.5637E-03     76.7853E-03
            2101     13.1785E-03     19.0220E-03    -7.36042E+06    -23.6487E+06    -15.8423E+06     1.78743E+06    -32.5152E-03     56.5553E-03    -24.0402E-03     66.2660E-03    -32.6401E-03     56.6162E-03    -24.0744E-03     66.0994E-03
            2102     12.3065E-03     18.9516E-03    -6.95764E+06    -40.1770E+06    -9.75268E+06     1.91999E+06    -31.4326E-03     55.0365E-03    -23.6040E-03     63.1133E-03    -31.4894E-03     54.9544E-03    -23.5844E-03     62.9971E-03
            2103     11.4330E-03     18.8934E-03    -6.70864E+06    -55.1832E+06    -7.43390E+06     2.43851E+06    -30.0839E-03     53.2364E-03    -23.1526E-03     52.0105E-03    -30.0802E-03     53.0347E-03    -23.1000E-03     51.9406E-03
            2104     10.5583E-03     18.8439E-03    -6.27722E+06    -67.6787E+06    -6.64790E+06     2.91635E+06    -28.8937E-03     51.5901E-03    -22.6964E-03     44.9056E-03    -28.8498E-03     51.3030E-03    -22.6224E-03     44.8695E-03
            2105     9.68321E-03     18.7990E-03    -6.67380E+06    -74.3970E+06    -3.61512E+06     3.23917E+06    -27.6421E-03     49.8990E-03    -22.2569E-03     39.3736E-03    -27.5826E-03     49.5622E-03    -22.1575E-03     39.3622E-03
            2106     8.80676E-03     18.7600E-03    -7.48330E+06    -78.6494E+06    -2.20282E+06     3.73830E+06    -26.3712E-03     48.2004E-03    -21.8292E-03     33.9806E-03    -26.3038E-03     47.8337E-03    -21.7153E-03     33.9907E-03
            2107     7.92937E-03     18.7258E-03    -8.48336E+06    -83.8380E+06    -3.07331E+06     4.19725E+06    -25.2317E-03     46.6494E-03    -21.4177E-03     29.2055E-03    -25.1558E-03     46.2547E-03    -21.2992E-03     29.2323E-03
            2108     7.05110E-03     18.6964E-03    -9.68124E+06    -88.4783E+06    -4.02328E+06     4.35559E+06    -24.1364E-03     45.1692E-03    -21.0329E-03     24.7767E-03    -24.0553E-03     44.7514E-03    -20.9107E-03     24.8133E-03
            2109     6.17189E-03     18.6712E-03    -10.9471E+06     -90.532E+06    -6.08738E+06     4.37143E+06    -23.1122E-03     43.7840E-03    -20.6718E-03     20.6878E-03    -23.0297E-03     43.3589E-03    -20.5551E-03     20.7304E-03
            2110     5.29188E-03     18.6501E-03    -12.1974E+06    -93.7142E+06    -8.05798E+06     4.49987E+06    -22.1839E-03     42.5342E-03    -20.3502E-03     16.9754E-03    -22.0990E-03     42.0966E-03    -20.2370E-03     17.0237E-03
            2111     4.41115E-03     18.6327E-03    -13.5768E+06    -97.1926E+06    -9.73990E+06     4.27617E+06    -21.3604E-03     41.4334E-03    -20.0730E-03     13.6051E-03    -21.2742E-03     40.9822E-03    -19.9611E-03     13.6535E-03
            2112     3.52972E-03     18.6189E-03    -14.8691E+06    -98.2165E+06    -12.1468E+06     3.64512E+06    -20.6710E-03     40.5051E-03    -19.8341E-03     10.5378E-03    -20.5858E-03     40.0537E-03    -19.7309E-03     10.5801E-03
            2113     2.64778E-03     18.6083E-03    -15.8373E+06    -98.8980E+06    -14.3314E+06     2.91154E+06    -20.1246E-03     39.7672E-03    -19.6425E-03     7.72926E-03    -20.0399E-03     39.3167E-03    -19.5478E-03     7.76365E-03
            2114     1.76540E-03     18.6008E-03    -16.5048E+06    -99.2824E+06    -15.9758E+06     2.01692E+06    -19.7213E-03     39.2235E-03    -19.5022E-03     5.13234E-03    -19.6368E-03     38.7743E-03    -19.4142E-03     5.15639E-03
            2115     882.815E-06     18.5962E-03    -16.9814E+06    -99.6145E+06    -16.8480E+06     1.09030E+06    -19.4814E-03     38.8912E-03    -19.4097E-03     2.68934E-03    -19.3975E-03     38.4422E-03    -19.3249E-03     2.70240E-03
            2116     16.6588E-03     18.6221E-03    -5.65765E+06     166.184E+06     84.7979E+06     338.513E+03    -49.9366E-03     76.3089E-03    -26.3723E-03     239.694E-03    -57.3406E-03     84.0371E-03    -26.1811E-03     242.445E-03
            2117     15.7956E-03     18.3414E-03    -7.68054E+06     122.342E+06     21.0965E+06     1.47949E+06    -47.8057E-03     73.2063E-03    -25.4006E-03     229.955E-03    -52.9605E-03     78.7074E-03    -25.4614E-03     230.054E-03
            2118     14.9220E-03     18.1706E-03    -7.67403E+06     60.8024E+06    -23.8724E+06     2.41603E+06    -38.5106E-03     63.1552E-03    -24.6447E-03     130.726E-03    -39.5281E-03     64.4306E-03    -24.8411E-03     130.395E-03
            2119     14.0554E-03     18.0821E-03    -7.98147E+06     10.0599E+06    -24.6414E+06     2.11443E+06    -34.1930E-03     58.3553E-03    -24.1623E-03     74.0860E-03    -34.4660E-03     58.7073E-03    -24.2886E-03     73.8615E-03
            2120     13.1835E-03     18.0205E-03    -6.79557E+06    -23.3248E+06    -16.5601E+06     1.75139E+06    -32.6049E-03     56.3226E-03    -23.7177E-03     64.4815E-03    -32.7199E-03     56.3788E-03    -23.7569E-03     64.3178E-03
            2121     12.3106E-03     17.9509E-03    -6.27565E+06    -40.3491E+06    -10.3650E+06     1.94106E+06    -31.6796E-03     54.9236E-03    -23.2440E-03     61.1700E-03    -31.7281E-03     54.8367E-03    -23.2282E-03     61.0557E-03
            2122     11.4373E-03     17.8949E-03    -6.52619E+06    -55.4438E+06    -7.71758E+06     2.47720E+06    -30.2292E-03     52.9778E-03    -22.7487E-03     49.8014E-03    -30.2207E-03     52.7718E-03    -22.6974E-03     49.7343E-03
            2123     10.5633E-03     17.8463E-03    -6.73641E+06    -67.7747E+06    -7.29607E+06     2.98097E+06    -28.8425E-03     51.0925E-03    -22.2500E-03     42.8136E-03    -28.7975E-03     50.8042E-03    -22.1784E-03     42.7810E-03
            2124     9.68780E-03     17.8036E-03    -6.83341E+06    -74.6043E+06    -4.49542E+06     3.40227E+06    -27.4790E-03     49.2536E-03    -21.7746E-03     37.2932E-03    -27.4170E-03     48.9156E-03    -21.6790E-03     37.2863E-03
            2125     8.81122E-03     17.7661E-03    -7.23377E+06    -78.8678E+06    -2.73178E+06     3.99351E+06    -26.1564E-03     47.4720E-03    -21.3156E-03     32.0722E-03    -26.0855E-03     47.1035E-03    -21.2044E-03     32.0878E-03
            2126     7.93366E-03     17.7335E-03    -7.86819E+06    -83.8030E+06    -3.32234E+06     4.69928E+06    -24.9346E-03     45.8080E-03    -20.8734E-03     27.2995E-03    -24.8545E-03     45.4121E-03    -20.7570E-03     27.3346E-03
            2127     7.05508E-03     17.7054E-03    -8.79485E+06    -87.7003E+06    -4.31064E+06     5.00012E+06    -23.7699E-03     44.2278E-03    -20.4579E-03     22.9634E-03    -23.6845E-03     43.8124E-03    -20.3395E-03     23.0098E-03
            2128     6.17558E-03     17.6816E-03    -9.93054E+06    -89.9333E+06    -5.84528E+06     5.03806E+06    -22.6829E-03     42.7554E-03    -20.0725E-03     19.0359E-03    -22.5961E-03     42.3310E-03    -19.9569E-03     19.0883E-03
            2129     5.29520E-03     17.6617E-03    -11.1851E+06    -92.9820E+06    -7.55612E+06     5.28582E+06    -21.6893E-03     41.4168E-03    -19.7275E-03     15.4956E-03    -21.6009E-03     40.9805E-03    -19.6143E-03     15.5549E-03
            2130     4.41396E-03     17.6455E-03    -12.5269E+06    -95.3623E+06    -9.36237E+06     5.08222E+06    -20.8082E-03     40.2349E-03    -19.4267E-03     12.3480E-03    -20.7198E-03     39.7906E-03    -19.3171E-03     12.4074E-03
            2131     3.53205E-03     17.6325E-03    -13.7771E+06    -96.1935E+06    -11.5904E+06     4.24142E+06    -20.0664E-03     39.2373E-03    -19.1709E-03     9.51750E-03    -19.9795E-03     38.7935E-03    -19.0694E-03     9.56797E-03
            2132     2.64957E-03     17.6227E-03    -14.7349E+06    -96.7028E+06    -13.4796E+06     3.24110E+06    -19.4790E-03     38.4468E-03    -18.9678E-03     6.95052E-03    -19.3931E-03     38.0044E-03    -18.8736E-03     6.98950E-03
            2133     1.76664E-03     17.6157E-03    -15.3467E+06    -97.0444E+06    -14.8692E+06     2.23762E+06    -19.0478E-03     37.8691E-03    -18.8213E-03     4.58386E-03    -18.9624E-03     37.4278E-03    -18.7327E-03     4.61097E-03
            2134     883.340E-06     17.6115E-03    -15.5708E+06    -97.1916E+06    -15.5147E+06     1.20785E+06    -18.8033E-03     37.5259E-03    -18.7227E-03     2.40842E-03    -18.7178E-03     37.0851E-03    -18.6367E-03     2.42310E-03
            2135     16.6606E-03     17.6056E-03    -4.47911E+06     166.051E+06     84.9169E+06     380.214E+03    -50.9135E-03     77.1972E-03    -26.2837E-03     236.667E-03    -58.0970E-03     84.7085E-03    -26.0934E-03     239.208E-03
            2136     15.7934E-03     17.3327E-03    -8.41069E+06     120.758E+06     20.5910E+06     1.28132E+06    -48.5765E-03     73.8171E-03    -25.2406E-03     225.090E-03    -53.5337E-03     79.1138E-03    -25.3006E-03     225.147E-03
            2137     14.9316E-03     17.1635E-03    -8.37373E+06     60.4474E+06    -24.3266E+06     2.55045E+06    -39.6696E-03     64.0677E-03    -24.3981E-03     127.064E-03    -40.6571E-03     65.3109E-03    -24.5953E-03     126.708E-03
            2138     14.0585E-03     17.0796E-03    -5.90473E+06     11.8376E+06    -24.7072E+06     2.54759E+06    -34.0766E-03     57.9324E-03    -23.8558E-03     71.7225E-03    -34.3250E-03     58.2736E-03    -23.9879E-03     71.5107E-03
            2139     13.1868E-03     17.0184E-03    -6.53673E+06    -23.3248E+06    -17.8638E+06     2.00509E+06    -32.9276E-03     56.3067E-03    -23.3791E-03     63.2402E-03    -33.0355E-03     56.3605E-03    -23.4252E-03     63.0804E-03
            2140     12.3155E-03     16.9504E-03    -6.51776E+06    -40.4772E+06    -11.4611E+06     2.16053E+06    -32.0993E-03     54.9528E-03    -22.8535E-03     58.8239E-03    -32.1427E-03     54.8627E-03    -22.8427E-03     58.7136E-03
            2141     11.4428E-03     16.8961E-03    -6.37135E+06    -55.5481E+06    -8.48681E+06     2.75264E+06    -30.3302E-03     52.6354E-03    -22.3052E-03     47.2826E-03    -30.3160E-03     52.4262E-03    -22.2579E-03     47.2220E-03
            2142     10.5682E-03     16.8498E-03    -6.64582E+06    -68.0224E+06    -8.05626E+06     3.13671E+06    -28.7196E-03     50.4867E-03    -21.7671E-03     40.5192E-03    -28.6701E-03     50.1956E-03    -21.6991E-03     40.4921E-03
            2143     9.69264E-03     16.8087E-03    -6.67545E+06    -74.8240E+06    -5.24055E+06     3.55426E+06    -27.3166E-03     48.5738E-03    -21.2572E-03     35.0474E-03    -27.2506E-03     48.2337E-03    -21.1653E-03     35.0454E-03
            2144     8.81609E-03     16.7729E-03    -7.09751E+06    -79.1667E+06    -3.47196E+06     4.18556E+06    -25.9749E-03     46.7354E-03    -20.7605E-03     29.8230E-03    -25.9006E-03     46.3650E-03    -20.6528E-03     29.8432E-03
            2145     7.93833E-03     16.7419E-03    -7.61998E+06    -83.9442E+06    -3.75179E+06     4.88473E+06    -24.6293E-03     44.9112E-03    -20.2819E-03     25.1368E-03    -24.5462E-03     44.5140E-03    -20.1678E-03     25.1762E-03
            2146     7.05948E-03     16.7155E-03    -8.09898E+06    -86.9484E+06    -4.62675E+06     5.35175E+06    -23.3570E-03     43.1904E-03    -19.8334E-03     20.9468E-03    -23.2683E-03     42.7777E-03    -19.7187E-03     20.9994E-03
            2147     6.17958E-03     16.6931E-03    -8.80494E+06    -89.5291E+06    -5.38720E+06     5.69260E+06    -22.1788E-03     41.6050E-03    -19.4263E-03     17.2098E-03    -22.0872E-03     41.1800E-03    -19.3106E-03     17.2718E-03
            2148     5.29870E-03     16.6746E-03    -9.97474E+06    -92.2076E+06    -6.62966E+06     6.15341E+06    -21.1232E-03     40.1859E-03    -19.0627E-03     13.9101E-03    -21.0310E-03     39.7502E-03    -18.9477E-03     13.9816E-03
            2149     4.41702E-03     16.6595E-03    -11.2463E+06    -93.1529E+06    -8.66276E+06     5.87763E+06    -20.2008E-03     38.9419E-03    -18.7411E-03     11.0099E-03    -20.1101E-03     38.5057E-03    -18.6330E-03     11.0802E-03
            2150     3.53456E-03     16.6476E-03    -12.2682E+06    -93.7443E+06    -10.6397E+06     4.85687E+06    -19.4115E-03     37.8833E-03    -18.4718E-03     8.44427E-03    -19.3218E-03     37.4481E-03    -18.3713E-03     8.50316E-03
            2151     2.65145E-03     16.6384E-03    -13.1368E+06    -94.2340E+06    -12.2101E+06     3.76056E+06    -18.7881E-03     37.0498E-03    -18.2618E-03     6.16438E-03    -18.6996E-03     36.6156E-03    -18.1671E-03     6.21039E-03
            2152     1.76791E-03     16.6321E-03    -13.9584E+06    -94.4285E+06    -13.4074E+06     2.61003E+06    -18.3505E-03     36.4602E-03    -18.1097E-03     4.07118E-03    -18.2640E-03     36.0278E-03    -18.0196E-03     4.10329E-03
            2153     884.081E-06     16.6282E-03    -14.5734E+06    -94.5150E+06    -14.4691E+06     1.38350E+06    -18.0749E-03     36.0908E-03    -18.0160E-03     2.16812E-03    -17.9897E-03     35.6604E-03    -17.9301E-03     2.18516E-03
            2154     16.6611E-03     16.5942E-03    -3.74326E+06     165.500E+06     85.4284E+06     288.325E+03    -52.5938E-03     78.8417E-03    -26.2480E-03     232.854E-03    -59.5394E-03     86.1142E-03    -26.0554E-03     235.129E-03
            2155     15.7999E-03     16.3189E-03    -8.11522E+06     119.075E+06     20.3026E+06     1.70388E+06    -50.3161E-03     75.4085E-03    -25.0924E-03     220.534E-03    -55.0836E-03     80.5114E-03    -25.1518E-03     220.421E-03
            2156     14.9308E-03     16.1565E-03    -9.29297E+06     60.2115E+06    -25.8865E+06     2.77207E+06    -40.2025E-03     64.3552E-03    -24.1527E-03     122.320E-03    -41.1372E-03     65.5460E-03    -24.3560E-03     121.957E-03
            2157     14.0634E-03     16.0778E-03    -8.56718E+06     13.2712E+06    -27.1529E+06     2.80962E+06    -34.7298E-03     58.2728E-03    -23.5430E-03     69.2841E-03    -34.9758E-03     58.6143E-03    -23.6856E-03     69.0761E-03
            2158     13.1922E-03     16.0157E-03    -7.12482E+06    -22.8421E+06    -19.7473E+06     2.38240E+06    -33.5470E-03     56.5471E-03    -23.0001E-03     61.0764E-03    -33.6501E-03     56.6011E-03    -23.0553E-03     60.9208E-03
            2159     12.3208E-03     15.9498E-03    -6.81609E+06    -41.1428E+06    -13.1335E+06     2.52916E+06    -32.2617E-03     54.6794E-03    -22.4178E-03     55.8855E-03    -32.2967E-03     54.5824E-03    -22.4139E-03     55.7840E-03
            2160     11.4479E-03     15.8980E-03    -6.89274E+06    -55.9621E+06    -9.82519E+06     2.95572E+06    -30.3683E-03     52.1934E-03    -21.8251E-03     44.6055E-03    -30.3500E-03     51.9806E-03    -21.7831E-03     44.5515E-03
            2161     10.5738E-03     15.8538E-03    -6.46099E+06    -67.8656E+06    -8.53482E+06     3.28502E+06    -28.7431E-03     49.9858E-03    -21.2427E-03     37.8874E-03    -28.6896E-03     49.6933E-03    -21.1776E-03     37.8652E-03
            2162     9.69818E-03     15.8144E-03    -6.71675E+06    -74.9880E+06    -5.86702E+06     3.77301E+06    -27.2159E-03     47.9007E-03    -20.6848E-03     32.4067E-03    -27.1471E-03     47.5589E-03    -20.5956E-03     32.4103E-03
            2163     8.82143E-03     15.7804E-03    -7.06539E+06    -79.4806E+06    -3.95450E+06     4.42143E+06    -25.7154E-03     45.8613E-03    -20.1459E-03     27.2078E-03    -25.6385E-03     45.4887E-03    -20.0402E-03     27.2335E-03
            2164     7.94349E-03     15.7513E-03    -7.65903E+06    -83.9522E+06    -4.05419E+06     5.04034E+06    -24.2618E-03     43.8927E-03    -19.6308E-03     22.6984E-03    -24.1776E-03     43.4950E-03    -19.5183E-03     22.7418E-03
            2165     7.06429E-03     15.7265E-03    -8.28960E+06    -86.5376E+06     -5.1305E+06     5.53016E+06    -22.8656E-03     42.0157E-03    -19.1502E-03     18.7255E-03    -22.7771E-03     41.6055E-03    -19.0383E-03     18.7820E-03
            2166     6.18393E-03     15.7058E-03    -9.00830E+06    -89.2561E+06    -6.08225E+06     6.16971E+06    -21.5847E-03     40.3045E-03    -18.7198E-03     15.2256E-03    -21.4932E-03     39.8818E-03    -18.6078E-03     15.2949E-03
            2167     5.30252E-03     15.6886E-03    -9.62590E+06    -91.1899E+06    -6.56995E+06     6.54936E+06    -20.4571E-03     38.8009E-03    -18.3438E-03     12.2194E-03    -20.3644E-03     38.3694E-03    -18.2305E-03     12.2969E-03
            2168     4.42020E-03     15.6748E-03    -10.0134E+06    -90.8591E+06    -7.91909E+06     6.22334E+06    -19.4901E-03     37.5053E-03    -18.0151E-03     9.62629E-03    -19.3975E-03     37.0775E-03    -17.9085E-03     9.70173E-03
            2169     3.53712E-03     15.6639E-03    -10.5873E+06    -91.1859E+06    -9.55151E+06     5.44581E+06    -18.6905E-03     36.4340E-03    -17.7435E-03     7.36943E-03    -18.5977E-03     36.0075E-03    -17.6437E-03     7.43637E-03
            2170     2.65341E-03     15.6556E-03    -11.3594E+06    -91.4316E+06    -10.8262E+06     4.44782E+06    -18.0633E-03     35.5959E-03    -17.5327E-03     5.37862E-03    -17.9720E-03     35.1711E-03    -17.4378E-03     5.43380E-03
            2171     1.76916E-03     15.6498E-03    -11.9570E+06    -91.3939E+06    -11.9362E+06     3.18347E+06    -17.6175E-03     34.9989E-03    -17.3814E-03     3.55337E-03    -17.5275E-03     34.5766E-03    -17.2912E-03     3.59308E-03
            2172     884.654E-06     15.6462E-03    -12.3516E+06    -91.3367E+06    -12.7206E+06     1.85412E+06    -17.3389E-03     34.6422E-03    -17.3033E-03     1.87821E-03    -17.2498E-03     34.2220E-03    -17.2166E-03     1.90143E-03
            2173     16.6589E-03     15.5702E-03    -4.28064E+06     164.265E+06     84.0613E+06     470.533E+03    -54.5570E-03     80.7427E-03    -26.1857E-03     227.872E-03    -61.2407E-03     87.7508E-03    -25.9974E-03     229.878E-03
            2174     15.8000E-03     15.3054E-03    -9.32713E+06     117.000E+06     19.2379E+06     1.93579E+06    -51.4952E-03     76.4099E-03    -24.9147E-03     212.075E-03    -55.9712E-03     81.2130E-03    -24.9746E-03     211.808E-03
            2175     14.9375E-03     15.1504E-03    -9.64488E+06     60.5822E+06    -25.5411E+06     3.14897E+06    -40.6956E-03     64.5836E-03    -23.8880E-03     115.867E-03    -41.5583E-03     65.7016E-03    -24.0896E-03     115.506E-03
            2176     14.0671E-03     15.0732E-03    -9.49053E+06     14.3608E+06    -28.1765E+06     2.70188E+06    -35.7010E-03     58.8944E-03    -23.1934E-03     65.8551E-03    -35.9382E-03     59.2307E-03    -23.3413E-03     65.6417E-03
            2177     13.1981E-03     15.0134E-03    -8.17721E+06    -22.6598E+06    -21.2083E+06     2.23051E+06    -34.0540E-03     56.6259E-03    -22.5719E-03     58.5180E-03    -34.1526E-03     56.6767E-03    -22.6332E-03     58.3620E-03
            2178     12.3267E-03     14.9499E-03    -6.94533E+06    -41.3776E+06    -14.2162E+06     2.87335E+06    -32.3462E-03     54.2809E-03    -21.9347E-03     52.8567E-03    -32.3730E-03     54.1776E-03    -21.9357E-03     52.7648E-03
            2179     11.4539E-03     14.9002E-03    -6.95858E+06    -55.7900E+06    -10.0085E+06     3.24340E+06    -30.4780E-03     51.7740E-03    -21.2959E-03     41.4165E-03    -30.4558E-03     51.5581E-03    -21.2550E-03     41.3701E-03
            2180     10.5797E-03     14.8580E-03    -7.20290E+06    -67.8646E+06    -9.07131E+06     3.46232E+06    -28.8296E-03     49.4849E-03    -20.6553E-03     34.7718E-03    -28.7763E-03     49.1915E-03    -20.5918E-03     34.7550E-03
            2181     9.70452E-03     14.8208E-03    -7.12181E+06    -75.1259E+06    -6.34258E+06     3.80937E+06    -27.0990E-03     47.1397E-03    -20.0407E-03     29.3504E-03    -27.0294E-03     46.7965E-03    -19.9531E-03     29.3574E-03
            2182     8.82755E-03     14.7889E-03    -7.28174E+06    -79.8571E+06    -4.09425E+06     4.50759E+06    -25.3699E-03     44.8281E-03    -19.4582E-03     24.3515E-03    -25.2920E-03     44.4528E-03    -19.3524E-03     24.3809E-03
            2183     7.94922E-03     14.7617E-03    -7.61884E+06    -83.8004E+06    -3.94226E+06     5.16934E+06    -23.7816E-03     42.6904E-03    -18.9089E-03     20.0061E-03    -23.6967E-03     42.2925E-03    -18.7960E-03     20.0533E-03
            2184     7.06959E-03     14.7389E-03    -8.17643E+06    -86.4777E+06    -4.26441E+06     5.78885E+06    -22.2735E-03     40.6789E-03    -18.4054E-03     16.2672E-03    -22.1852E-03     40.2670E-03    -18.2895E-03     16.3286E-03
            2185     6.18867E-03     14.7198E-03    -8.76292E+06    -88.7783E+06    -5.03933E+06     6.36608E+06    -20.8992E-03     38.8558E-03    -17.9566E-03     13.0865E-03    -20.8084E-03     38.4333E-03    -17.8403E-03     13.1596E-03
            2186     5.30665E-03     14.7042E-03    -9.05501E+06    -89.6908E+06    -6.31730E+06     6.27358E+06    -19.6966E-03     37.2616E-03    -17.5650E-03     10.3970E-03    -19.6034E-03     36.8363E-03    -17.4534E-03     10.4718E-03
            2187     4.42360E-03     14.6915E-03    -9.06452E+06    -89.1599E+06    -7.63962E+06     6.03641E+06    -18.6838E-03     35.9194E-03    -17.2356E-03     8.12068E-03    -18.5893E-03     35.4983E-03    -17.1314E-03     8.19435E-03
            2188     3.53979E-03     14.6817E-03    -9.12182E+06    -88.7319E+06    -8.58368E+06     5.76168E+06    -17.8920E-03     34.8628E-03    -16.9708E-03     6.17403E-03    -17.7967E-03     34.4450E-03    -16.8719E-03     6.24550E-03
            2189     2.65535E-03     14.6742E-03    -9.28063E+06    -88.4081E+06    -9.25006E+06     4.88539E+06    -17.2928E-03     34.0577E-03    -16.7649E-03     4.48666E-03    -17.1977E-03     33.6426E-03    -16.6695E-03     4.54781E-03
            2190     1.77055E-03     14.6690E-03    -9.46151E+06    -88.0376E+06    -9.80773E+06     3.68260E+06    -16.8462E-03     33.4643E-03    -16.6182E-03     2.94531E-03    -16.7517E-03     33.0521E-03    -16.5258E-03     2.99167E-03
            2191     885.309E-06     14.6658E-03    -9.50180E+06    -87.3579E+06    -9.73336E+06     2.24548E+06    -16.5977E-03     33.1248E-03    -16.5270E-03     1.59932E-03    -16.5045E-03     32.7159E-03    -16.4353E-03     1.62770E-03
            2192     16.6652E-03     14.5490E-03    -4.01764E+06     163.541E+06     85.0160E+06     1.19654E+06    -56.7459E-03     82.7855E-03    -26.0396E-03     222.029E-03    -63.0916E-03     89.4515E-03    -25.8459E-03     223.723E-03
            2193     15.8067E-03     14.2910E-03    -8.83684E+06     116.194E+06     21.4005E+06     2.99083E+06    -51.7804E-03     76.4443E-03    -24.6639E-03     202.318E-03    -55.8937E-03     80.8775E-03    -24.7126E-03     201.987E-03
            2194     14.9402E-03     14.1431E-03    -9.99791E+06     60.7735E+06    -25.3233E+06     3.15362E+06    -41.2099E-03     64.7660E-03    -23.5562E-03     110.091E-03    -42.0036E-03     65.8138E-03    -23.7564E-03     109.730E-03
            2195     14.0742E-03     14.0685E-03    -8.15845E+06     15.3795E+06    -28.3722E+06     2.81939E+06    -36.2495E-03     59.0391E-03    -22.7896E-03     62.7358E-03    -36.4657E-03     59.3634E-03    -22.9420E-03     62.5250E-03
            2196     13.2038E-03     14.0113E-03    -7.68338E+06    -22.3933E+06    -21.3759E+06     2.52380E+06    -34.5300E-03     56.6346E-03    -22.1046E-03     55.3894E-03    -34.6179E-03     56.6779E-03    -22.1679E-03     55.2390E-03
            2197     12.3332E-03     13.9498E-03    -7.78176E+06    -41.4615E+06    -14.8821E+06     2.86102E+06    -32.7291E-03     54.1265E-03    -21.3975E-03     49.3014E-03    -32.7523E-03     54.0183E-03    -21.4005E-03     49.2130E-03
            2198     11.4609E-03     13.9029E-03    -7.40822E+06    -55.8190E+06    -10.1084E+06     3.52881E+06    -30.6532E-03     51.3456E-03    -20.6924E-03     38.0385E-03    -30.6287E-03     51.1261E-03    -20.6512E-03     37.9998E-03
            2199     10.5871E-03     13.8626E-03    -7.28731E+06    -67.3005E+06    -8.60736E+06     3.67291E+06    -28.8069E-03     48.7983E-03    -19.9913E-03     31.3821E-03    -28.7526E-03     48.5043E-03    -19.9262E-03     31.3716E-03
            2200     9.71147E-03     13.8280E-03    -7.38703E+06    -75.2157E+06    -6.31676E+06     3.72792E+06    -26.8912E-03     46.2121E-03    -19.3208E-03     25.9955E-03    -26.8209E-03     45.8669E-03    -19.2326E-03     26.0045E-03
            2201     8.83436E-03     13.7984E-03    -7.57499E+06    -80.3549E+06    -3.76479E+06     4.40011E+06    -24.9826E-03     43.6766E-03    -18.6940E-03     21.2330E-03    -24.9047E-03     43.2975E-03    -18.5853E-03     21.2637E-03
            2202     7.95564E-03     13.7734E-03     -7.9836E+06    -83.5985E+06    -3.59335E+06     5.14053E+06    -23.1990E-03     41.3077E-03    -18.1087E-03     17.1281E-03    -23.1159E-03     40.9100E-03    -17.9939E-03     17.1769E-03
            2203     7.07543E-03     13.7526E-03    -8.30656E+06    -86.4586E+06    -3.23676E+06     5.66066E+06    -21.5833E-03     39.1677E-03    -17.5844E-03     13.6338E-03    -21.4967E-03     38.7541E-03    -17.4632E-03     13.6952E-03
            2204     6.19390E-03     13.7353E-03    -8.55540E+06    -88.0894E+06    -3.52394E+06     6.08921E+06    -20.1271E-03     37.2471E-03    -17.1200E-03     10.7661E-03    -20.0382E-03     36.8253E-03    -16.9975E-03     10.8367E-03
            2205     5.31112E-03     13.7213E-03    -8.80264E+06    -88.0194E+06    -5.75014E+06     5.97424E+06    -18.8703E-03     35.5828E-03    -16.7124E-03     8.39049E-03    -18.7790E-03     35.1644E-03    -16.6008E-03     8.46225E-03
            2206     4.42739E-03     13.7100E-03    -8.88033E+06    -87.7009E+06    -7.37417E+06     5.58709E+06    -17.8329E-03     34.2098E-03    -16.3768E-03     6.44366E-03    -17.7398E-03     33.7951E-03    -16.2737E-03     6.51213E-03
            2207     3.54279E-03     13.7011E-03    -8.39989E+06    -86.6156E+06    -7.62722E+06     5.22983E+06    -17.0176E-03     33.1310E-03    -16.1134E-03     4.83436E-03    -16.9231E-03     32.7213E-03    -16.0138E-03     4.89941E-03
            2208     2.65765E-03     13.6943E-03    -7.70530E+06    -85.5137E+06    -7.37916E+06     4.59973E+06    -16.4129E-03     32.3281E-03    -15.9152E-03     3.47399E-03    -16.3169E-03     31.9224E-03    -15.8169E-03     3.53176E-03
            2209     1.77195E-03     13.6897E-03    -7.03905E+06    -84.4441E+06    -6.74783E+06     3.40839E+06    -15.9997E-03     31.7757E-03    -15.7760E-03     2.27567E-03    -15.9027E-03     31.3735E-03    -15.6771E-03     2.31869E-03
            2210     886.089E-06     13.6868E-03    -6.40347E+06    -83.3001E+06    -6.11368E+06     1.92012E+06    -15.7791E-03     31.4385E-03    -15.6595E-03     1.28101E-03    -15.6815E-03     31.0402E-03    -15.5600E-03     1.30529E-03
            2211     16.6671E-03     13.5221E-03    -4.96286E+06     161.070E+06     85.2682E+06     981.147E+03    -59.2753E-03     85.1525E-03    -25.8771E-03     216.162E-03    -65.2860E-03     91.4709E-03    -25.6771E-03     217.511E-03
            2212     15.8100E-03     13.2783E-03    -7.85799E+06     115.996E+06     25.8942E+06     3.52863E+06    -52.6164E-03     77.0049E-03    -24.3885E-03     193.666E-03    -56.4100E-03     81.1082E-03    -24.4158E-03     193.247E-03
            2213     14.9481E-03     13.1344E-03    -8.74205E+06     62.0047E+06    -22.5646E+06     4.19006E+06    -41.5444E-03     64.7369E-03    -23.1925E-03     104.306E-03    -42.2651E-03     65.7126E-03    -23.3825E-03     103.961E-03
            2214     14.0789E-03     13.0649E-03    -9.28871E+06     16.0507E+06    -29.7117E+06     3.56618E+06    -36.7763E-03     59.1243E-03    -22.3480E-03     59.7654E-03    -36.9806E-03     59.4390E-03    -22.5064E-03     59.5683E-03
            2215     13.2109E-03     13.0078E-03    -8.59320E+06    -21.5293E+06    -22.6485E+06     2.86688E+06    -35.2790E-03     56.8646E-03    -21.5856E-03     52.1421E-03    -35.3622E-03     56.9068E-03    -21.6552E-03     51.9974E-03
            2216     12.3409E-03     12.9507E-03    -7.88984E+06    -41.7993E+06    -15.4679E+06     3.09438E+06    -33.2021E-03     53.9988E-03    -20.7967E-03     45.4270E-03    -33.2173E-03     53.8826E-03    -20.8020E-03     45.3459E-03
            2217     11.4686E-03     12.9055E-03    -7.75140E+06    -55.9468E+06    -10.4080E+06     3.55839E+06    -30.8309E-03     50.8475E-03    -20.0167E-03     34.5402E-03    -30.8032E-03     50.6241E-03    -19.9763E-03     34.5062E-03
            2218     10.5948E-03     12.8683E-03    -7.57523E+06    -66.7647E+06    -8.36627E+06     3.71921E+06    -28.7145E-03     47.9675E-03    -19.2529E-03     27.8461E-03    -28.6600E-03     47.6735E-03    -19.1870E-03     27.8401E-03
            2219     9.71927E-03     12.8361E-03    -7.81122E+06    -75.0608E+06    -5.90949E+06     3.91173E+06    -26.5955E-03     45.1255E-03    -18.5300E-03     22.5561E-03    -26.5263E-03     44.7794E-03    -18.4394E-03     22.5708E-03
            2220     8.84192E-03     12.8092E-03    -8.37745E+06    -80.8227E+06    -3.37891E+06     4.40181E+06    -24.5187E-03     42.3778E-03    -17.8591E-03     17.9968E-03    -24.4435E-03     41.9959E-03    -17.7466E-03     18.0301E-03
            2221     7.96268E-03     12.7865E-03    -8.87439E+06    -83.4143E+06    -3.20585E+06     4.99616E+06    -22.5687E-03     39.8058E-03    -17.2371E-03     14.2055E-03    -22.4902E-03     39.4091E-03    -17.1193E-03     14.2545E-03
            2222     7.08188E-03     12.7678E-03    -9.32991E+06    -86.0334E+06    -3.64829E+06     5.24925E+06    -20.8266E-03     37.5093E-03    -16.6827E-03     10.9990E-03    -20.7447E-03     37.0995E-03    -16.5627E-03     11.0565E-03
            2223     6.19964E-03     12.7525E-03    -9.59639E+06    -87.4217E+06    -3.54895E+06     5.37083E+06    -19.2966E-03     35.4983E-03    -16.2017E-03     8.43731E-03    -19.2135E-03     35.0811E-03    -16.0787E-03     8.49971E-03
            2224     5.31618E-03     12.7401E-03    -9.51258E+06    -86.5122E+06    -4.80197E+06     5.28702E+06    -17.9924E-03     33.7760E-03    -15.7836E-03     6.42145E-03    -17.9081E-03     33.3647E-03    -15.6684E-03     6.48500E-03
            2225     4.43162E-03     12.7301E-03    -9.08888E+06    -85.9106E+06    -6.12120E+06     4.66900E+06    -16.9304E-03     32.3675E-03    -15.4371E-03     4.83027E-03    -16.8427E-03     31.9603E-03    -15.3300E-03     4.88733E-03
            2226     3.54630E-03     12.7223E-03    -8.43321E+06    -84.7523E+06    -6.14803E+06     3.95204E+06    -16.0796E-03     31.2459E-03    -15.1664E-03     3.58500E-03    -15.9901E-03     30.8434E-03    -15.0620E-03     3.63384E-03
            2227     2.66017E-03     12.7163E-03    -7.37773E+06    -83.0592E+06    -5.62404E+06     3.16373E+06    -15.4514E-03     30.4167E-03    -14.9653E-03     2.54633E-03    -15.3598E-03     30.0203E-03    -14.8623E-03     2.58575E-03
            2228     1.77372E-03     12.7121E-03    -6.18067E+06    -81.4312E+06    -5.28055E+06     2.11730E+06    -15.0413E-03     29.8647E-03    -14.8234E-03     1.65853E-03    -14.9466E-03     29.4742E-03    -14.7227E-03     1.68499E-03
            2229     886.934E-06     12.7096E-03    -5.42998E+06    -80.3698E+06    -5.03114E+06     1.07147E+06    -14.8356E-03     29.5285E-03    -14.6930E-03     926.457E-06    -14.7389E-03     29.1418E-03    -14.5937E-03     939.846E-06
            2230     16.6698E-03     12.4968E-03    -5.10411E+06     158.842E+06     84.5468E+06     715.151E+03    -61.4917E-03     87.2164E-03    -25.7248E-03     207.490E-03    -67.1009E-03     93.1272E-03    -25.5250E-03     208.490E-03
            2231     15.8162E-03     12.2594E-03    -8.30708E+06     113.933E+06     26.8670E+06     3.22097E+06    -53.7164E-03     77.8231E-03    -24.1067E-03     182.853E-03    -57.1725E-03     81.5774E-03    -24.1255E-03     182.304E-03
            2232     14.9526E-03     12.1290E-03    -9.47447E+06     62.9934E+06    -19.1156E+06     5.06388E+06    -42.3609E-03     65.1755E-03    -22.8146E-03     98.2323E-03    -43.0219E-03     66.0825E-03    -22.9878E-03     97.8982E-03
            2233     14.0863E-03     12.0589E-03    -8.87736E+06     18.5034E+06    -27.2986E+06     4.24797E+06    -37.6235E-03     59.4964E-03    -21.8729E-03     56.4528E-03    -37.8172E-03     59.8036E-03    -22.0233E-03     56.2660E-03
            2234     13.2182E-03     12.0051E-03    -8.53721E+06    -21.2949E+06    -23.2502E+06     3.34195E+06    -35.8551E-03     56.8695E-03    -21.0144E-03     48.3600E-03    -35.9268E-03     56.9030E-03    -21.0874E-03     48.2262E-03
            2235     12.3487E-03     11.9506E-03    -8.52287E+06    -42.1662E+06    -16.0001E+06     3.52863E+06    -33.6349E-03     53.7804E-03    -20.1455E-03     41.4361E-03    -33.6447E-03     53.6569E-03    -20.1520E-03     41.3656E-03
            2236     11.4773E-03     11.9092E-03    -8.10485E+06    -55.2135E+06    -10.3589E+06     3.66199E+06    -31.0064E-03     50.2944E-03    -19.2880E-03     30.8411E-03    -30.9776E-03     50.0711E-03    -19.2480E-03     30.8130E-03
            2237     10.6034E-03     11.8744E-03    -8.37797E+06    -66.6434E+06    -8.35049E+06     3.78781E+06    -28.5584E-03     47.0185E-03    -18.4601E-03     24.2568E-03    -28.5054E-03     46.7236E-03    -18.3931E-03     24.2560E-03
            2238     9.72767E-03     11.8455E-03    -8.78652E+06    -75.0618E+06    -5.36543E+06     4.24127E+06    -26.1852E-03     43.8753E-03    -17.6901E-03     19.1643E-03    -26.1201E-03     43.5282E-03    -17.5953E-03     19.1866E-03
            2239     8.84975E-03     11.8212E-03    -9.44518E+06    -80.6889E+06    -2.75365E+06     4.53841E+06    -23.9325E-03     40.9141E-03    -16.9816E-03     14.9591E-03    -23.8628E-03     40.5325E-03    -16.8646E-03     14.9966E-03
            2240     7.97015E-03     11.8012E-03    -10.0921E+06    -83.1698E+06    -2.82008E+06     4.66538E+06    -21.8663E-03     38.1954E-03    -16.3291E-03     11.5426E-03    -21.7943E-03     37.8005E-03    -16.2080E-03     11.5890E-03
            2241     7.08869E-03     11.7847E-03    -10.4505E+06    -85.2662E+06    -3.37846E+06     4.69293E+06    -20.0081E-03     35.7602E-03    -15.7521E-03     8.76854E-03    -19.9331E-03     35.3552E-03    -15.6302E-03     8.81992E-03
            2242     6.20574E-03     11.7715E-03    -10.5856E+06    -86.4364E+06    -2.99846E+06     4.37221E+06    -18.4160E-03     33.6739E-03    -15.2579E-03     6.60451E-03    -18.3399E-03     33.2621E-03    -15.1322E-03     6.65468E-03
            2243     5.32143E-03     11.7607E-03    -10.4512E+06    -85.1413E+06    -3.50479E+06     3.79740E+06    -17.0804E-03     31.9129E-03    -14.8325E-03     4.96224E-03    -17.0046E-03     31.5079E-03    -14.7114E-03     5.00690E-03
            2244     4.43611E-03     11.7521E-03    -10.0386E+06    -84.2238E+06    -4.50668E+06     3.18255E+06    -15.9881E-03     30.4671E-03    -14.4790E-03     3.69830E-03    -15.9099E-03     30.0673E-03    -14.3648E-03     3.73633E-03
            2245     3.54981E-03     11.7454E-03    -9.48355E+06    -82.9151E+06    -5.32224E+06     2.28247E+06    -15.1352E-03     29.3310E-03    -14.1958E-03     2.73792E-03    -15.0548E-03     28.9380E-03    -14.0885E-03     2.76527E-03
            2246     2.66299E-03     11.7402E-03    -8.83906E+06    -81.2840E+06    -6.21649E+06     1.29930E+06    -14.4965E-03     28.4733E-03    -13.9769E-03     1.95102E-03    -14.4139E-03     28.0888E-03    -13.8773E-03     1.96637E-03
            2247     1.77555E-03     11.7366E-03    -8.21025E+06    -79.8298E+06    -7.05246E+06     699.364E+03    -14.0500E-03     27.8700E-03    -13.8200E-03     1.26908E-03    -13.9651E-03     27.4930E-03    -13.7276E-03     1.27722E-03
            2248     887.850E-06     11.7343E-03    -7.75284E+06    -78.9072E+06    -7.45048E+06     377.844E+03    -13.8150E-03     27.5102E-03    -13.6952E-03     694.704E-06    -13.7285E-03     27.1377E-03    -13.6068E-03     699.125E-06
            2249     16.6728E-03     11.4618E-03    -5.33918E+06     156.618E+06     84.2411E+06     1.26219E+06    -63.0732E-03     88.6335E-03    -25.5602E-03     199.204E-03    -68.2714E-03     94.1253E-03    -25.3584E-03     199.902E-03
            2250     15.8201E-03     11.2450E-03    -9.01541E+06     111.958E+06     28.1760E+06     4.17721E+06    -54.7221E-03     78.5546E-03    -23.8324E-03     171.270E-03    -57.7905E-03     81.9082E-03    -23.8408E-03     170.630E-03
            2251     14.9592E-03     11.1185E-03    -10.5014E+06     63.7214E+06    -16.4023E+06     4.45995E+06    -43.6501E-03     66.0797E-03    -22.4295E-03     92.3868E-03    -44.2600E-03     66.9266E-03    -22.5887E-03     92.0423E-03
            2252     14.0943E-03     11.0543E-03    -9.14418E+06     20.6596E+06    -25.8897E+06     4.17712E+06    -38.7526E-03     60.1212E-03    -21.3686E-03     53.3287E-03    -38.9365E-03     60.4214E-03    -21.5147E-03     53.1432E-03
            2253     13.2265E-03     11.0020E-03    -8.60630E+06    -20.5894E+06    -23.6864E+06     4.61261E+06    -36.5161E-03     56.9219E-03    -20.4059E-03     45.1785E-03    -36.5783E-03     56.9495E-03    -20.4820E-03     45.0672E-03
            2254     12.3576E-03     10.9512E-03    -8.88155E+06    -41.9158E+06    -15.9657E+06      4.2792E+06    -33.9797E-03     53.4366E-03    -19.4569E-03     37.1227E-03    -33.9846E-03     53.3078E-03    -19.4631E-03     37.0678E-03
            2255     11.4859E-03     10.9130E-03    -9.12615E+06    -54.6370E+06    -10.1490E+06     3.94367E+06    -30.9905E-03     49.5211E-03    -18.5306E-03     27.0559E-03    -30.9639E-03     49.2979E-03    -18.4889E-03     27.0370E-03
            2256     10.6123E-03     10.8819E-03    -9.29809E+06    -66.4311E+06    -7.78877E+06     3.93566E+06    -28.2533E-03     45.9048E-03    -17.6515E-03     20.8125E-03    -28.2038E-03     45.6092E-03    -17.5806E-03     20.8178E-03
            2257     9.73608E-03     10.8560E-03     -9.5076E+06    -75.0998E+06    -4.40040E+06     4.32140E+06    -25.5956E-03     42.4435E-03    -16.8478E-03     16.1623E-03    -25.5341E-03     42.0945E-03    -16.7471E-03     16.1888E-03
            2258     8.85780E-03     10.8348E-03    -10.0383E+06    -80.0288E+06    -1.45246E+06     4.43570E+06    -23.1730E-03     39.2935E-03    -16.1204E-03     12.4612E-03    -23.1085E-03     38.9135E-03    -15.9971E-03     12.4995E-03
            2259     7.97730E-03     10.8174E-03    -10.6223E+06    -82.5950E+06    -640.778E+03     4.13624E+06    -20.9928E-03     36.4581E-03    -15.4653E-03     9.55571E-03    -20.9271E-03     36.0634E-03    -15.3333E-03     9.59657E-03
            2260     7.09514E-03     10.8035E-03    -11.0499E+06    -84.3613E+06    -1.04274E+06     3.80198E+06    -19.0928E-03     33.9828E-03    -14.8900E-03     7.31133E-03    -19.0253E-03     33.5796E-03    -14.7568E-03     7.35191E-03
            2261     6.21129E-03     10.7922E-03    -11.2925E+06    -84.9168E+06    -1.52379E+06     3.04419E+06    -17.4929E-03     31.8893E-03    -14.3964E-03     5.61585E-03    -17.4247E-03     31.4840E-03    -14.2645E-03     5.64921E-03
            2262     5.32626E-03     10.7831E-03    -11.4327E+06    -83.9630E+06    -2.34048E+06     2.22884E+06    -16.1736E-03     30.1507E-03    -13.9772E-03     4.30495E-03    -16.1060E-03     29.7513E-03    -13.8506E-03     4.32945E-03
            2263     4.44003E-03     10.7759E-03    -11.5511E+06    -82.8710E+06    -3.97640E+06     1.52018E+06    -15.1100E-03     28.7359E-03    -13.6258E-03     3.30001E-03    -15.0421E-03     28.3443E-03    -13.5088E-03     3.31656E-03
            2264     3.55308E-03     10.7702E-03    -11.5528E+06    -81.4816E+06    -6.42963E+06     651.388E+03    -14.2802E-03     27.6156E-03    -13.3354E-03     2.51088E-03    -14.2106E-03     27.2344E-03    -13.2327E-03     2.51709E-03
            2265     2.66534E-03     10.7660E-03    -11.5689E+06    -80.3736E+06    -8.84326E+06     9.41008E+03    -13.6465E-03     26.7525E-03    -13.1060E-03     1.83445E-03    -13.5751E-03     26.3803E-03    -13.0169E-03     1.83306E-03
            2266     1.77722E-03     10.7628E-03    -11.5861E+06    -79.4425E+06    -10.3718E+06    -234.682E+03    -13.1929E-03     26.1307E-03    -12.9378E-03     1.22022E-03    -13.1206E-03     25.7653E-03    -12.8577E-03     1.21623E-03
            2267     888.711E-06     10.7610E-03    -11.5134E+06    -78.7060E+06    -10.9957E+06    -177.139E+03    -12.9247E-03     25.7316E-03    -12.8068E-03     645.399E-06    -12.8522E-03     25.3707E-03    -12.7310E-03     642.611E-06
            2268     16.6750E-03     10.4262E-03    -5.45551E+06     154.097E+06     84.6650E+06     1.69905E+06    -64.5306E-03     89.9435E-03    -25.4129E-03     192.475E-03    -69.3412E-03     95.0371E-03    -25.2051E-03     192.888E-03
            2269     15.8247E-03     10.2274E-03    -9.09651E+06     109.766E+06     30.2984E+06     3.55371E+06    -56.1856E-03     79.7558E-03    -23.5703E-03     158.212E-03    -58.8513E-03     82.6928E-03    -23.5647E-03     157.461E-03
            2270     14.9650E-03     10.1071E-03    -9.37093E+06     63.9480E+06    -15.1302E+06     4.70140E+06    -44.8504E-03     66.8830E-03    -22.0327E-03     85.7019E-03    -45.3983E-03     67.6693E-03    -22.1874E-03     85.3570E-03
            2271     14.1003E-03     10.0492E-03    -10.0338E+06     21.4424E+06    -26.8775E+06     5.19573E+06    -39.8960E-03     60.7507E-03    -20.8547E-03     49.6360E-03    -40.0676E-03     61.0411E-03    -21.0057E-03     49.4677E-03
            2272     13.2345E-03     9.99761E-03    -10.3214E+06    -19.4856E+06    -23.8579E+06     5.45787E+06    -37.4732E-03     57.2619E-03    -19.7888E-03     41.2988E-03    -37.5365E-03     57.2891E-03    -19.8648E-03     41.2018E-03
            2273     12.3665E-03     9.95260E-03    -9.84906E+06    -40.5847E+06    -15.1101E+06     4.96835E+06    -34.1034E-03     52.8603E-03    -18.7569E-03     32.6345E-03    -34.1094E-03     52.7315E-03    -18.7593E-03     32.5957E-03
            2274     11.4950E-03     9.91757E-03    -10.0362E+06    -53.7509E+06    -9.22628E+06     4.28290E+06    -30.6207E-03     48.4038E-03    -17.7830E-03     23.5397E-03    -30.5978E-03     48.1814E-03    -17.7367E-03     23.5314E-03
            2275     10.6208E-03     9.89034E-03    -10.0290E+06    -66.0477E+06    -6.44108E+06     3.85848E+06    -27.5916E-03     44.4759E-03    -16.8843E-03     17.7808E-03    -27.5464E-03     44.1796E-03    -16.8062E-03     17.7893E-03
            2276     9.74402E-03     9.86804E-03    -10.1714E+06    -75.0816E+06    -2.85468E+06     3.84841E+06    -24.7479E-03     40.8267E-03    -16.0788E-03     13.8592E-03    -24.6912E-03     40.4758E-03    -15.9695E-03     13.8824E-03
            2277     8.86473E-03     9.84995E-03    -10.2264E+06    -79.1285E+06     623.304E+03     3.76012E+06    -22.1644E-03     37.5310E-03    -15.3666E-03     10.8204E-03    -22.1047E-03     37.1524E-03    -15.2339E-03     10.8517E-03
            2278     7.98349E-03     9.83547E-03    -10.6192E+06    -81.6795E+06     2.26921E+06     3.34925E+06    -19.9306E-03     34.6760E-03    -14.7454E-03     8.54716E-03    -19.8704E-03     34.2816E-03    -14.6002E-03     8.57885E-03
            2279     7.10023E-03     9.82385E-03    -11.2473E+06    -83.2793E+06     1.98128E+06     2.73112E+06    -18.0745E-03     32.2835E-03    -14.2090E-03     6.86175E-03    -18.0139E-03     31.8817E-03    -14.0621E-03     6.88900E-03
            2280     6.21565E-03     9.81455E-03    -11.9399E+06    -83.2824E+06     267.312E+03     1.77431E+06    -16.5596E-03     30.3087E-03    -13.7491E-03     5.60543E-03    -16.4997E-03     29.9100E-03    -13.6097E-03     5.62258E-03
            2281     5.32966E-03     9.80714E-03    -12.5590E+06    -82.9478E+06    -1.92281E+06     790.264E+03    -15.3428E-03     28.7048E-03    -13.3620E-03     4.59088E-03    -15.2830E-03     28.3116E-03    -13.2332E-03     4.59686E-03
            2282     4.44287E-03     9.80123E-03    -13.0129E+06     -81.852E+06    -4.80893E+06     51.8032E+03    -14.3843E-03     27.4206E-03    -13.0363E-03     3.76071E-03    -14.3240E-03     27.0375E-03    -12.9228E-03     3.75826E-03
            2283     3.55517E-03     9.79664E-03    -13.4828E+06    -80.8243E+06    -8.19160E+06    -521.340E+03    -13.6279E-03     26.3948E-03    -12.7669E-03     3.02430E-03    -13.5665E-03     26.0223E-03    -12.6711E-03     3.01531E-03
            2284     2.66698E-03     9.79310E-03    -13.9117E+06    -80.2469E+06    -11.0878E+06    -730.670E+03    -13.0500E-03     25.6050E-03    -12.5551E-03     2.30821E-03    -12.9872E-03     25.2401E-03    -12.4740E-03     2.29720E-03
            2285     1.77822E-03     9.79067E-03    -14.2512E+06    -79.7451E+06    -13.0092E+06    -728.684E+03    -12.6358E-03     25.0344E-03    -12.3986E-03     1.58947E-03    -12.5727E-03     24.6753E-03    -12.3273E-03     1.57906E-03
            2286     889.235E-06     9.78909E-03    -14.4619E+06    -79.3608E+06    -14.0226E+06    -576.154E+03    -12.3812E-03     24.6613E-03    -12.2801E-03     857.039E-06    -12.3181E-03     24.3059E-03    -12.2142E-03     849.075E-06
            2287     16.6765E-03     9.38935E-03    -4.75964E+06     151.886E+06     84.6929E+06     1.93037E+06    -66.8479E-03     92.1196E-03    -25.2716E-03     185.747E-03    -71.3043E-03     96.8535E-03    -25.0615E-03     185.851E-03
            2288     15.8295E-03     9.20439E-03    -8.14333E+06     107.375E+06     31.5209E+06     3.56107E+06    -57.8005E-03     81.0889E-03    -23.2884E-03     143.707E-03    -60.0929E-03     83.6441E-03    -23.2747E-03     142.847E-03
            2289     14.9718E-03     9.09831E-03    -10.0278E+06     63.3338E+06    -13.4942E+06     5.86531E+06    -46.2248E-03     67.8401E-03    -21.6153E-03     77.4957E-03    -46.7193E-03     68.5639E-03    -21.7601E-03     77.1613E-03
            2290     14.1083E-03     9.04085E-03    -10.7423E+06     22.7881E+06    -25.2075E+06     6.70109E+06    -40.9608E-03     61.2805E-03    -20.3196E-03     45.0748E-03    -41.1252E-03     61.5611E-03    -20.4631E-03     44.9296E-03
            2291     13.2437E-03     8.99417E-03    -10.6974E+06    -18.0787E+06    -21.9840E+06     6.22163E+06    -37.7351E-03     56.9041E-03    -19.1690E-03     36.3800E-03    -37.7951E-03     56.9261E-03    -19.2372E-03     36.3002E-03
            2292     12.3750E-03     8.95392E-03    -10.7197E+06    -38.9764E+06    -12.9632E+06     5.27090E+06    -33.7118E-03     51.8060E-03    -18.0942E-03     28.3258E-03    -33.7216E-03     51.6775E-03    -18.0870E-03     28.2994E-03
            2293     11.5032E-03     8.92378E-03    -10.7043E+06    -52.2288E+06    -6.69309E+06     4.17462E+06    -29.8174E-03     46.9306E-03    -17.1133E-03     20.4831E-03    -29.8008E-03     46.7104E-03    -17.0555E-03     20.4796E-03
            2294     10.6280E-03     8.90031E-03    -10.8093E+06    -65.1708E+06    -3.88035E+06     3.37349E+06    -26.4610E-03     42.6992E-03    -16.2381E-03     15.6290E-03    -26.4234E-03     42.4033E-03    -16.1474E-03     15.6357E-03
            2295     9.75023E-03     8.88172E-03    -10.7535E+06    -74.6605E+06    -165.747E+03     2.88691E+06    -23.5046E-03     38.9855E-03    -15.4809E-03     12.5102E-03    -23.4547E-03     38.6330E-03    -15.3578E-03     12.5237E-03
            2296     8.87000E-03     8.86695E-03    -10.9368E+06    -78.5342E+06     2.52209E+06     2.64519E+06    -20.8910E-03     35.7202E-03    -14.8292E-03     10.3099E-03    -20.8384E-03     35.3427E-03    -14.6868E-03     10.3284E-03
            2297     7.98740E-03     8.85519E-03    -11.3052E+06    -80.6440E+06     3.67829E+06     2.26228E+06    -18.7298E-03     33.0116E-03    -14.2817E-03     8.73588E-03    -18.6766E-03     32.6213E-03    -14.1300E-03     8.75445E-03
            2298     7.10328E-03     8.84582E-03    -11.8973E+06    -82.0427E+06     3.71260E+06     1.41551E+06    -17.0250E-03     30.8536E-03    -13.8286E-03     7.59678E-03    -16.9721E-03     30.4565E-03    -13.6738E-03     7.60751E-03
            2299     6.21761E-03     8.83832E-03    -12.4632E+06    -81.9115E+06     1.73859E+06     416.644E+03    -15.7017E-03     29.1494E-03    -13.4477E-03     6.65832E-03    -15.6486E-03     28.7562E-03    -13.3022E-03     6.65819E-03
            2300     5.33112E-03     8.83232E-03    -13.1162E+06    -82.0484E+06    -1.84950E+06    -512.663E+03    -14.6829E-03     27.8123E-03    -13.1295E-03     5.83210E-03    -14.6273E-03     27.4243E-03    -13.0007E-03     5.82141E-03
            2301     4.44361E-03     8.82759E-03    -13.8199E+06    -81.3957E+06    -5.70591E+06    -1.17168E+06    -13.9027E-03     26.7700E-03    -12.8673E-03     5.03071E-03    -13.8458E-03     26.3917E-03    -12.7578E-03     5.01256E-03
            2302     3.55567E-03     8.82382E-03    -14.4148E+06    -80.8614E+06    -9.03770E+06    -1.35608E+06    -13.3066E-03     25.9642E-03    -12.6576E-03     4.18614E-03    -13.2485E-03     25.5941E-03    -12.5647E-03     4.16645E-03
            2303     2.66709E-03     8.82108E-03    -14.9402E+06    -80.6904E+06    -11.9277E+06    -1.31434E+06    -12.8573E-03     25.3529E-03    -12.4956E-03     3.27604E-03    -12.7978E-03     24.9885E-03    -12.4165E-03     3.25756E-03
            2304     1.77831E-03     8.81902E-03    -15.2590E+06    -80.5090E+06    -13.9784E+06    -1.09346E+06    -12.5360E-03     24.9181E-03    -12.3821E-03     2.28760E-03    -12.4754E-03     24.5580E-03    -12.3131E-03     2.27254E-03
            2305     889.173E-06     8.81795E-03    -15.4888E+06    -80.4922E+06    -15.1324E+06    -656.460E+03    -12.3620E-03     24.6708E-03    -12.3088E-03     1.25537E-03    -12.3008E-03     24.3128E-03    -12.2453E-03     1.24640E-03
            2306     16.6802E-03     8.34804E-03    -4.94712E+06     148.861E+06     83.3830E+06     1.70339E+06    -68.8464E-03     93.9423E-03    -25.0960E-03     177.713E-03    -72.9274E-03     98.2937E-03    -24.8877E-03     177.528E-03
            2307     15.8344E-03     8.18125E-03    -8.78289E+06     104.409E+06     33.1968E+06     4.67102E+06    -58.7279E-03     81.7374E-03    -23.0095E-03     129.689E-03    -60.6705E-03     83.9253E-03    -22.9822E-03     128.808E-03
            2308     14.9783E-03     8.08578E-03    -11.1962E+06     62.7251E+06    -8.82529E+06     7.44377E+06    -47.8292E-03     69.0584E-03    -21.2292E-03     70.6876E-03    -48.2852E-03     69.7240E-03    -21.3481E-03     70.3732E-03
            2309     14.1173E-03     8.03304E-03    -12.0768E+06     23.7271E+06    -22.4688E+06     8.15702E+06    -41.8582E-03     61.6688E-03    -19.8107E-03     41.5271E-03    -42.0200E-03     61.9378E-03    -19.9399E-03     41.4083E-03
            2310     13.2514E-03     7.99144E-03    -12.0795E+06    -15.7539E+06    -19.5950E+06     7.06325E+06    -37.3617E-03     55.9638E-03    -18.6020E-03     32.3142E-03    -37.4258E-03     55.9864E-03    -18.6596E-03     32.2579E-03
            2311     12.3826E-03     7.95656E-03    -12.2611E+06    -36.6433E+06    -9.96491E+06     5.19369E+06    -32.6712E-03     50.2078E-03    -17.5366E-03     24.6520E-03    -32.6913E-03     50.0836E-03    -17.5155E-03     24.6347E-03
            2312     11.5095E-03     7.93152E-03    -11.9667E+06    -50.4450E+06    -3.49664E+06     3.39589E+06    -28.3592E-03     44.9658E-03    -16.6066E-03     18.2981E-03    -28.3540E-03     44.7495E-03    -16.5336E-03     18.2916E-03
            2313     10.6332E-03     7.91217E-03    -11.7260E+06    -63.9653E+06    -478.565E+03     2.23744E+06    -24.8185E-03     40.6358E-03    -15.8173E-03     14.7768E-03    -24.7912E-03     40.3414E-03    -15.7099E-03     14.7735E-03
            2314     9.75384E-03     7.89737E-03    -11.5057E+06    -73.8119E+06     3.21672E+06     1.48755E+06    -21.8759E-03     37.0445E-03    -15.1685E-03     12.6472E-03    -21.8357E-03     36.6921E-03    -15.0287E-03     12.6454E-03
            2315     8.87197E-03     7.88562E-03    -11.3320E+06    -78.1537E+06     5.99379E+06     1.03129E+06    -19.4566E-03     34.0939E-03    -14.6373E-03     11.1883E-03    -19.4115E-03     33.7138E-03    -14.4776E-03     11.1876E-03
            2316     7.98837E-03     7.87648E-03    -11.4437E+06    -79.8731E+06     6.32785E+06     661.967E+03    -17.5452E-03     31.7520E-03    -14.2069E-03     10.2187E-03    -17.4976E-03     31.3620E-03    -14.0428E-03     10.2176E-03
            2317     7.10303E-03     7.86894E-03    -11.7787E+06    -80.6987E+06     5.04000E+06    -215.406E+03    -16.1247E-03     29.9899E-03    -13.8652E-03     9.40896E-03    -16.0751E-03     29.5974E-03    -13.7059E-03     9.39925E-03
            2318     6.21687E-03     7.86292E-03    -12.3716E+06    -81.0392E+06     2.57705E+06    -1.24341E+06    -15.0872E-03     28.6824E-03    -13.5952E-03     8.59969E-03    -15.0361E-03     28.2923E-03    -13.4468E-03     8.57857E-03
            2319     5.32965E-03     7.85804E-03    -12.8928E+06    -81.5151E+06    -1.24263E+06    -1.90472E+06    -14.3484E-03     27.7273E-03    -13.3790E-03     7.72146E-03    -14.2934E-03     27.3408E-03    -13.2483E-03     7.69312E-03
            2320     4.44213E-03     7.85410E-03    -13.3905E+06    -81.4413E+06    -5.23943E+06    -2.25831E+06    -13.8162E-03     27.0243E-03    -13.2081E-03     6.73682E-03    -13.7579E-03     26.6445E-03    -13.0968E-03     6.70492E-03
            2321     3.55400E-03     7.85105E-03    -13.8586E+06    -81.4660E+06    -8.41389E+06    -2.29699E+06    -13.4368E-03     26.5158E-03    -13.0790E-03     5.61976E-03    -13.3760E-03     26.1410E-03    -12.9828E-03     5.58814E-03
            2322     2.66579E-03     7.84866E-03    -14.0878E+06    -81.5916E+06    -11.0316E+06    -2.00346E+06    -13.1676E-03     26.1520E-03    -12.9844E-03     4.37747E-03    -13.1039E-03     25.7805E-03    -12.9008E-03     4.35027E-03
            2323     1.77721E-03     7.84709E-03    -14.3568E+06    -81.8066E+06    -12.9959E+06    -1.48123E+06    -12.9936E-03     25.9156E-03    -12.9220E-03     3.03411E-03    -12.9279E-03     25.5462E-03    -12.8476E-03     3.01416E-03
            2324     888.637E-06     7.84598E-03    -14.5003E+06    -81.9725E+06    -13.9918E+06    -855.979E+03    -12.9079E-03     25.7925E-03    -12.8846E-03     1.67027E-03    -12.8412E-03     25.4240E-03    -12.8147E-03     1.65878E-03
            2325     16.6842E-03     7.30588E-03    -4.20655E+06     146.448E+06     83.3951E+06     2.60128E+06    -70.4020E-03     95.3386E-03    -24.9367E-03     170.157E-03    -74.1076E-03     99.3090E-03    -24.7259E-03     169.751E-03
            2326     15.8379E-03     7.15822E-03    -9.17078E+06     100.646E+06     34.9786E+06     5.40074E+06    -59.7004E-03     82.4632E-03    -22.7628E-03     116.891E-03    -61.3397E-03     84.3277E-03    -22.7205E-03     116.014E-03
            2327     14.9829E-03     7.07002E-03    -12.7347E+06     60.6416E+06    -4.55014E+06     8.89000E+06    -48.9402E-03     69.8353E-03    -20.8950E-03     62.0977E-03    -49.3523E-03     70.4319E-03    -20.9872E-03     61.8098E-03
            2328     14.1224E-03     7.02556E-03    -14.6155E+06     25.2734E+06    -18.8188E+06     9.94452E+06    -41.8355E-03     61.2396E-03    -19.4041E-03     36.5387E-03    -42.0014E-03     61.4986E-03    -19.5136E-03     36.4589E-03
            2329     13.2580E-03     6.98879E-03    -16.0915E+06    -11.8434E+06    -16.7387E+06     7.67157E+06    -36.3708E-03     54.5621E-03    -18.1913E-03     28.5504E-03    -36.4561E-03     54.5975E-03    -18.2345E-03     28.5169E-03
            2330     12.3878E-03     6.96165E-03    -15.7257E+06    -32.8386E+06    -6.33560E+06     4.10794E+06    -30.8426E-03     48.0384E-03    -17.1958E-03     22.2503E-03    -30.8866E-03     47.9288E-03    -17.1571E-03     22.2307E-03
            2331     11.5129E-03     6.94101E-03    -15.0279E+06    -48.3052E+06    -354.366E+03     1.52549E+06    -26.1934E-03     42.5819E-03    -16.3885E-03     17.9816E-03    -26.2096E-03     42.3746E-03    -16.2985E-03     17.9589E-03
            2332     10.6344E-03     6.92657E-03    -13.9219E+06    -63.0530E+06     2.74901E+06     126.858E+03    -22.8007E-03     38.5535E-03    -15.7528E-03     15.8321E-03    -22.7899E-03     38.2617E-03    -15.6275E-03     15.8064E-03
            2333     9.75318E-03     6.91460E-03    -12.9317E+06    -72.9505E+06     6.52831E+06    -856.669E+03    -20.1636E-03     35.4274E-03    -15.2639E-03     14.3868E-03    -20.1363E-03     35.0765E-03    -15.1067E-03     14.3577E-03
            2334     8.87011E-03     6.90591E-03    -12.3012E+06    -77.8103E+06     9.22521E+06    -1.45642E+06    -18.1297E-03     33.0202E-03    -14.8905E-03     13.4626E-03    -18.0945E-03     32.6384E-03    -14.7137E-03     13.4316E-03
            2335     7.98514E-03     6.89851E-03    -11.8020E+06    -79.5946E+06     8.59932E+06    -1.83643E+06    -16.6806E-03     31.2813E-03    -14.6008E-03     12.6870E-03    -16.6385E-03     30.8899E-03    -14.4252E-03     12.6547E-03
            2336     7.09944E-03     6.89259E-03    -11.5430E+06    -79.7800E+06     5.99670E+06    -2.29565E+06    -15.6442E-03     30.0256E-03    -14.3814E-03     11.8748E-03    -15.5961E-03     29.6359E-03    -14.2190E-03     11.8390E-03
            2337     6.21262E-03     6.88752E-03    -11.6479E+06    -80.5970E+06     3.04953E+06    -3.07240E+06    -14.9694E-03     29.1934E-03    -14.2240E-03     10.8615E-03    -14.9159E-03     28.8036E-03    -14.0750E-03     10.8174E-03
            2338     5.32570E-03     6.88333E-03    -11.7911E+06    -81.4849E+06    -353.714E+03    -3.68371E+06    -14.5308E-03     28.6396E-03    -14.1088E-03     9.66056E-03    -14.4717E-03     28.2503E-03    -13.9753E-03     9.60974E-03
            2339     4.43820E-03     6.87993E-03    -11.7082E+06    -82.1274E+06    -3.73626E+06    -3.82944E+06    -14.2541E-03     28.2785E-03    -14.0245E-03     8.31672E-03    -14.1884E-03     27.8906E-03    -13.9071E-03     8.26492E-03
            2340     3.55078E-03     6.87711E-03    -11.5518E+06    -82.6703E+06    -6.58625E+06    -3.45350E+06    -14.0785E-03     28.0440E-03    -13.9655E-03     6.82367E-03    -14.0070E-03     27.6570E-03    -13.8618E-03     6.77741E-03
            2341     2.66303E-03     6.87508E-03    -11.7464E+06    -83.1641E+06    -8.83385E+06    -2.77219E+06    -13.9771E-03     27.9033E-03    -13.9262E-03     5.23369E-03    -13.9026E-03     27.5174E-03    -13.8327E-03     5.19676E-03
            2342     1.77545E-03     6.87346E-03    -11.9073E+06    -83.5194E+06    -10.3816E+06    -1.96990E+06    -13.9253E-03     27.8243E-03    -13.8990E-03     3.58441E-03    -13.8488E-03     27.4391E-03    -13.8126E-03     3.55828E-03
            2343     887.732E-06     6.87261E-03    -11.9959E+06    -83.9664E+06    -11.6077E+06    -1.13026E+06    -13.8761E-03     27.7674E-03    -13.8913E-03     1.96115E-03    -13.7976E-03     27.3818E-03    -13.8102E-03     1.94619E-03
            2344     16.6849E-03     6.26917E-03    -5.01825E+06     142.747E+06     83.3952E+06     3.61419E+06    -72.9110E-03     97.7601E-03    -24.8491E-03     161.528E-03    -76.2634E-03     101.361E-03    -24.6318E-03     160.892E-03
            2345     15.8412E-03     6.12669E-03    -9.24937E+06     96.8502E+06     38.1668E+06     7.47255E+06    -61.4075E-03     83.9560E-03    -22.5485E-03     102.642E-03    -62.7654E-03     85.5167E-03    -22.4847E-03     101.758E-03
            2346     14.9902E-03     6.05760E-03    -15.0009E+06     56.8250E+06     1.15779E+06     11.4469E+06    -48.5853E-03     69.2076E-03    -20.6223E-03     52.0585E-03    -48.9504E-03     69.7194E-03    -20.6771E-03     51.8362E-03
            2347     14.1281E-03     6.01683E-03    -18.4164E+06     27.9696E+06    -13.1859E+06     12.7012E+06    -39.9088E-03     59.0735E-03    -19.1647E-03     32.4410E-03    -40.0892E-03     59.3268E-03    -19.2444E-03     32.4267E-03
            2348     13.2607E-03     5.98971E-03    -19.6762E+06    -3.98306E+06    -11.7147E+06     7.87525E+06    -33.8774E-03     51.9418E-03    -18.0644E-03     26.7030E-03    -33.9919E-03     52.0068E-03    -18.0887E-03     26.6938E-03
            2349     12.3882E-03     5.96757E-03    -19.8474E+06    -28.4109E+06    -2.17794E+06     1.90491E+06    -28.2181E-03     45.4557E-03    -17.2376E-03     22.1062E-03    -28.2920E-03     45.3651E-03    -17.1785E-03     22.0705E-03
            2350     11.5109E-03     5.95451E-03    -18.6691E+06    -45.9838E+06     3.05434E+06    -1.43600E+06    -23.8272E-03     40.4455E-03    -16.6182E-03     20.1640E-03    -23.8688E-03     40.2489E-03    -16.5092E-03     20.1107E-03
            2351     10.6301E-03     5.94162E-03    -17.1663E+06    -62.0164E+06     5.70901E+06    -3.35270E+06    -20.9741E-03     37.1442E-03    -16.1701E-03     18.6546E-03    -20.9848E-03     36.8574E-03    -16.0267E-03     18.5884E-03
            2352     9.74781E-03     5.93392E-03    -15.6436E+06    -72.4321E+06     8.09390E+06    -4.31846E+06    -18.8611E-03     34.7102E-03    -15.8491E-03     17.3900E-03    -18.8500E-03     34.3631E-03    -15.6809E-03     17.3190E-03
            2353     8.86313E-03     5.92631E-03    -14.3585E+06    -77.7857E+06     9.32071E+06    -4.97563E+06    -17.4203E-03     33.0430E-03    -15.6227E-03     16.4501E-03    -17.3954E-03     32.6640E-03    -15.4425E-03     16.3755E-03
            2354     7.97822E-03     5.92075E-03    -12.9747E+06    -79.7950E+06     8.39652E+06    -5.36917E+06    -16.4858E-03     31.9447E-03    -15.4589E-03     15.3650E-03    -16.4488E-03     31.5540E-03    -15.2824E-03     15.2884E-03
            2355     7.09205E-03     5.91551E-03    -11.6906E+06    -80.0167E+06     5.75224E+06    -5.45079E+06    -15.9015E-03     31.2402E-03    -15.3388E-03     14.1117E-03    -15.8534E-03     30.8498E-03    -15.1770E-03     14.0360E-03
            2356     6.20606E-03     5.91106E-03    -10.5893E+06    -80.7269E+06     2.87814E+06    -5.52884E+06    -15.5284E-03     30.7857E-03    -15.2573E-03     12.6368E-03    -15.4692E-03     30.3939E-03    -15.1105E-03     12.5616E-03
            2357     5.31940E-03     5.90723E-03    -10.0580E+06    -82.1191E+06    -612.993E+03    -5.70922E+06    -15.3300E-03     30.5307E-03    -15.2007E-03     10.9904E-03    -15.2608E-03     30.1359E-03    -15.0701E-03     10.9139E-03
            2358     4.43302E-03     5.90395E-03    -9.87652E+06    -83.6352E+06    -3.91878E+06    -5.43058E+06    -15.2161E-03     30.3778E-03    -15.1617E-03     9.24135E-03    -15.1388E-03     29.9798E-03    -15.0457E-03     9.16923E-03
            2359     3.54629E-03     5.90136E-03    -9.93616E+06    -84.7357E+06    -6.24076E+06    -4.52757E+06    -15.1597E-03     30.2971E-03    -15.1374E-03     7.43089E-03    -15.0777E-03     29.8970E-03    -15.0313E-03     7.37101E-03
            2360     2.65983E-03     5.89922E-03    -9.95869E+06    -85.2581E+06    -7.72568E+06    -3.50767E+06    -15.1314E-03     30.2528E-03    -15.1214E-03     5.60025E-03    -15.0465E-03     29.8521E-03    -15.0220E-03     5.55398E-03
            2361     1.77315E-03     5.89778E-03    -10.0761E+06    -85.8735E+06    -9.16302E+06    -2.41124E+06    -15.1108E-03     30.2206E-03    -15.1098E-03     3.79985E-03    -15.0235E-03     29.8191E-03    -15.0165E-03     3.76811E-03
            2362     886.592E-06     5.89679E-03    -10.1675E+06    -86.3176E+06    -10.0487E+06    -1.24629E+06    -15.0929E-03     30.2086E-03    -15.1157E-03     2.05605E-03    -15.0041E-03     29.8063E-03    -15.0260E-03     2.03964E-03
            2363     16.6846E-03     5.21497E-03    -6.89361E+06     137.351E+06     82.3285E+06     4.50434E+06    -75.3229E-03     100.129E-03    -24.8064E-03     152.364E-03    -78.3108E-03     103.344E-03    -24.5840E-03     151.496E-03
            2364     15.8478E-03     5.10184E-03    -13.3726E+06     90.2924E+06     40.7974E+06     11.2698E+06    -61.6523E-03     84.0874E-03    -22.4351E-03     88.2825E-03    -62.7563E-03     85.3492E-03    -22.3426E-03     87.5037E-03
            2365     14.9916E-03     5.04003E-03    -17.9678E+06     54.3455E+06     10.2696E+06     15.8697E+06    -46.2608E-03     66.8282E-03    -20.5674E-03     43.8971E-03    -46.5911E-03     67.2598E-03    -20.5688E-03     43.7969E-03
            2366     14.1279E-03     5.01705E-03    -21.6810E+06     32.8220E+06    -5.47481E+06     14.2342E+06    -36.1073E-03     55.3748E-03    -19.2675E-03     31.1791E-03    -36.3083E-03     55.6321E-03    -19.3110E-03     31.2241E-03
            2367     13.2566E-03     4.98922E-03    -22.3265E+06     5.58469E+06    -6.64293E+06     6.85654E+06    -30.0205E-03     48.4197E-03    -18.3993E-03     28.3785E-03    -30.1635E-03     48.5232E-03    -18.4082E-03     28.3817E-03
            2368     12.3816E-03     4.97991E-03    -21.7785E+06    -22.3587E+06     2.44158E+06    -623.074E+03    -25.6236E-03     43.4435E-03    -17.8199E-03     24.6836E-03    -25.7201E-03     43.3766E-03    -17.7437E-03     24.6273E-03
            2369     11.5014E-03     4.96656E-03    -21.2707E+06    -43.1529E+06     5.73670E+06    -4.87757E+06    -22.2117E-03     39.6071E-03    -17.3954E-03     23.6191E-03    -22.2730E-03     39.4233E-03    -17.2733E-03     23.5273E-03
            2370     10.6204E-03     4.95968E-03    -19.9661E+06    -60.9010E+06     7.21008E+06    -7.63576E+06    -19.9821E-03     37.0935E-03    -17.1113E-03     22.2670E-03    -20.0098E-03     36.8132E-03    -16.9580E-03     22.1495E-03
            2371     9.73632E-03     4.95180E-03    -17.9808E+06    -72.3734E+06     7.71369E+06    -9.12592E+06    -18.6518E-03     35.5679E-03    -16.9161E-03     20.4447E-03    -18.6514E-03     35.2244E-03    -16.7466E-03     20.3141E-03
            2372     8.85286E-03     4.94682E-03    -15.2378E+06    -78.2685E+06     7.68843E+06    -9.65084E+06    -17.7572E-03     34.5359E-03    -16.7788E-03     18.9516E-03    -17.7332E-03     34.1577E-03    -16.6048E-03     18.8182E-03
            2373     7.96752E-03     4.94118E-03    -13.0550E+06    -80.8128E+06     6.53079E+06    -9.66194E+06    -17.2807E-03     33.9580E-03    -16.6773E-03     17.1993E-03    -17.2397E-03     33.5647E-03    -16.5086E-03     17.0683E-03
            2374     7.08304E-03     4.93672E-03    -11.1049E+06    -81.3761E+06     3.53412E+06    -9.31526E+06    -16.9676E-03     33.5585E-03    -16.5909E-03     15.2877E-03    -16.9112E-03     33.1634E-03    -16.4392E-03     15.1629E-03
            2375     6.19753E-03     4.93251E-03    -9.53513E+06    -82.3742E+06     500.498E+03    -8.52494E+06    -16.7734E-03     33.2970E-03    -16.5236E-03     13.3505E-03    -16.7030E-03     32.8987E-03    -16.3878E-03     13.2372E-03
            2376     5.31252E-03     4.92873E-03    -8.78922E+06    -84.0491E+06    -2.81989E+06    -7.28698E+06    -16.6392E-03     33.1083E-03    -16.4691E-03     11.2819E-03    -16.5576E-03     32.7052E-03    -16.3486E-03     11.1854E-03
            2377     4.42703E-03     4.92570E-03     -9.0811E+06    -85.9327E+06    -5.89842E+06    -6.00953E+06    -16.5451E-03     32.9712E-03    -16.4261E-03     9.28530E-03    -16.4576E-03     32.5634E-03    -16.3178E-03     9.20599E-03
            2378     3.54182E-03     4.92298E-03    -9.59676E+06    -87.1135E+06    -7.78123E+06    -5.01834E+06    -16.4753E-03     32.8694E-03    -16.3941E-03     7.34788E-03    -16.3858E-03     32.4591E-03    -16.2928E-03     7.28186E-03
            2379     2.65631E-03     4.92105E-03    -9.93822E+06    -87.9686E+06    -9.13218E+06    -3.84681E+06    -16.4154E-03     32.7848E-03    -16.3694E-03     5.46552E-03    -16.3244E-03     32.3726E-03    -16.2731E-03     5.41500E-03
            2380     1.77095E-03     4.91951E-03    -10.2252E+06    -88.5833E+06    -10.0276E+06    -2.43945E+06    -16.3695E-03     32.7232E-03    -16.3538E-03     3.66393E-03    -16.2777E-03     32.3096E-03    -16.2606E-03     3.63190E-03
            2381     885.435E-06     4.91868E-03    -10.3658E+06    -88.8223E+06    -10.3944E+06    -1.30559E+06    -16.3421E-03     32.6971E-03    -16.3550E-03     1.98259E-03    -16.2501E-03     32.2831E-03    -16.2632E-03     1.96546E-03
            2382     16.6880E-03     4.17307E-03    -7.34932E+06     129.605E+06     78.8470E+06     7.99571E+06    -77.0594E-03     101.892E-03    -24.8321E-03     141.172E-03    -79.5660E-03     104.607E-03    -24.6152E-03     140.109E-03
            2383     15.8431E-03     4.06507E-03    -15.4167E+06     83.3078E+06     44.9876E+06     14.8620E+06    -58.2698E-03     80.7998E-03    -22.5300E-03     71.5210E-03    -59.1311E-03     81.7751E-03    -22.4035E-03     70.9495E-03
            2384     14.9902E-03     4.03611E-03    -18.2409E+06     54.5152E+06     23.4522E+06     17.7081E+06    -40.6062E-03     61.5475E-03    -20.9413E-03     36.6255E-03    -40.9031E-03     61.9073E-03    -20.8766E-03     36.6380E-03
            2385     14.1197E-03     4.01240E-03    -18.6933E+06     41.2297E+06     6.51831E+06     13.6953E+06    -31.3876E-03     51.3357E-03    -19.9480E-03     34.9141E-03    -31.5945E-03     51.6042E-03    -19.9481E-03     34.9891E-03
            2386     13.2448E-03     4.00125E-03    -19.8423E+06     16.4440E+06     479.065E+03     5.29932E+06    -27.2044E-03     46.5411E-03    -19.3368E-03     31.9077E-03    -27.3545E-03     46.6781E-03    -19.3294E-03     31.9110E-03
            2387     12.3650E-03     3.98590E-03    -20.4942E+06    -16.6727E+06     5.54491E+06    -3.06261E+06    -23.9075E-03     42.8741E-03    -18.9666E-03     28.2188E-03    -24.0068E-03     42.8257E-03    -18.8850E-03     28.1417E-03
            2388     11.4873E-03     3.98355E-03    -19.7563E+06    -39.7695E+06     6.15843E+06    -8.59167E+06    -22.0425E-03     40.7277E-03    -18.6852E-03     26.8127E-03    -22.1000E-03     40.5560E-03    -18.5681E-03     26.6780E-03
            2389     10.6037E-03     3.97353E-03    -18.0946E+06    -59.0088E+06     5.11356E+06    -12.0951E+06    -20.6206E-03     39.0948E-03    -18.4742E-03     24.7764E-03    -20.6375E-03     38.8229E-03    -18.3368E-03     24.6048E-03
            2390     9.72287E-03     3.96984E-03    -15.7645E+06    -72.7969E+06     4.25076E+06    -14.2538E+06    -19.7721E-03     38.0904E-03    -18.3183E-03     22.1145E-03    -19.7543E-03     37.7457E-03    -18.1686E-03     21.9199E-03
            2391     8.83873E-03     3.96386E-03    -13.3409E+06    -79.7904E+06     3.04577E+06    -14.5985E+06    -19.3490E-03     37.5318E-03    -18.1828E-03     19.8377E-03    -19.3062E-03     37.1493E-03    -18.0325E-03     19.6418E-03
            2392     7.95654E-03     3.95944E-03    -10.9482E+06    -83.0933E+06     1.35860E+06    -13.8330E+06    -18.9575E-03     37.0149E-03    -18.0575E-03     17.3512E-03    -18.8948E-03     36.6143E-03    -17.9143E-03     17.1674E-03
            2393     7.07248E-03     3.95503E-03    -9.29115E+06    -84.1540E+06    -1.42390E+06    -12.4346E+06    -18.6923E-03     36.6304E-03    -17.9381E-03     15.0365E-03    -18.6154E-03     36.2257E-03    -17.8097E-03     14.8722E-03
            2394     6.18939E-03     3.95101E-03    -8.65345E+06    -85.8594E+06    -4.15275E+06    -10.3789E+06    -18.4531E-03     36.2825E-03    -17.8294E-03     12.7239E-03    -18.3663E-03     35.8721E-03    -17.7131E-03     12.5872E-03
            2395     5.30537E-03     3.94764E-03    -8.76613E+06    -87.5891E+06    -6.41573E+06    -7.91107E+06    -18.2055E-03     35.9395E-03    -17.7340E-03     10.5585E-03    -18.1133E-03     35.5237E-03    -17.6264E-03     10.4544E-03
            2396     4.42163E-03     3.94459E-03    -9.03922E+06    -88.6477E+06    -7.90263E+06    -5.97120E+06    -17.9980E-03     35.6513E-03    -17.6533E-03     8.54307E-03    -17.9034E-03     35.2327E-03    -17.5512E-03     8.46455E-03
            2397     3.53740E-03     3.94223E-03    -9.54792E+06    -89.6636E+06    -9.44298E+06    -4.56203E+06    -17.8110E-03     35.3957E-03    -17.5847E-03     6.66480E-03    -17.7152E-03     34.9750E-03    -17.4881E-03     6.60487E-03
            2398     2.65325E-03     3.94027E-03    -10.4587E+06    -90.7038E+06    -10.7073E+06    -3.30109E+06    -17.6626E-03     35.1943E-03    -17.5317E-03     4.90623E-03    -17.5680E-03     34.7715E-03    -17.4386E-03     4.86288E-03
            2399     1.76885E-03     3.93898E-03    -11.0740E+06    -91.1458E+06    -11.1829E+06    -2.21314E+06    -17.5578E-03     35.0516E-03    -17.4938E-03     3.27204E-03    -17.4649E-03     34.6281E-03    -17.4015E-03     3.24302E-03
            2400     884.490E-06     3.93803E-03    -11.2738E+06    -91.2947E+06    -11.4097E+06    -1.15069E+06    -17.4776E-03     34.9560E-03    -17.4784E-03     1.76805E-03    -17.3851E-03     34.5324E-03    -17.3867E-03     1.75296E-03
            2401     16.6851E-03     3.12242E-03    -7.02444E+06     120.164E+06     75.8807E+06     11.3032E+06    -77.4188E-03     102.538E-03    -25.1196E-03     123.991E-03    -79.2896E-03     104.597E-03    -24.9042E-03     122.828E-03
            2402     15.8451E-03     3.04120E-03    -10.4944E+06     79.1006E+06     52.1675E+06     16.6172E+06    -49.4325E-03     72.5107E-03    -23.0782E-03     58.0668E-03    -50.0276E-03     73.2029E-03    -22.9168E-03     57.7595E-03
            2403     14.9750E-03     3.03488E-03    -12.0943E+06     57.8316E+06     36.6878E+06     16.0982E+06    -32.9903E-03     54.9811E-03    -21.9908E-03     39.1337E-03    -33.2481E-03     55.2958E-03    -21.8737E-03     39.2099E-03
            2404     14.0978E-03     3.01851E-03    -11.2389E+06     50.6295E+06     21.4358E+06     11.2696E+06    -29.2167E-03     50.5633E-03    -21.3466E-03     42.9303E-03    -29.4130E-03     50.8372E-03    -21.2966E-03     42.9995E-03
            2405     13.2235E-03     3.00294E-03    -10.4580E+06     26.5074E+06     8.94982E+06     3.47999E+06    -27.0280E-03     47.8879E-03    -20.8599E-03     34.8323E-03    -27.1497E-03     48.0407E-03    -20.8385E-03     34.8277E-03
            2406     12.3471E-03     3.00140E-03    -10.8010E+06    -10.0457E+06     3.36471E+06    -4.84533E+06    -24.5457E-03     45.0731E-03    -20.5274E-03     30.7610E-03    -24.5991E-03     45.0425E-03    -20.4804E-03     30.6695E-03
            2407     11.4642E-03     2.99068E-03    -10.2532E+06    -36.0784E+06    -718.460E+03    -11.1991E+06    -23.6257E-03     43.8887E-03    -20.2631E-03     27.8200E-03    -23.6290E-03     43.7293E-03    -20.1995E-03     27.6564E-03
            2408     10.5882E-03     2.98872E-03    -9.57056E+06    -57.4643E+06    -4.81737E+06    -15.0837E+06    -22.9220E-03     42.9385E-03    -20.0165E-03     24.2347E-03    -22.8827E-03     42.6748E-03    -19.9433E-03     24.0274E-03
            2409     9.70523E-03     2.98218E-03    -8.84007E+06    -73.3472E+06    -7.12407E+06    -17.1113E+06    -22.1890E-03     41.9825E-03    -19.7935E-03     21.3294E-03    -22.1185E-03     41.6405E-03    -19.7100E-03     21.1000E-03
            2410     8.82663E-03     2.97823E-03    -8.02253E+06    -82.3158E+06    -7.24407E+06    -17.4503E+06    -21.7026E-03     41.2912E-03    -19.5886E-03     18.2083E-03    -21.6140E-03     40.9026E-03    -19.4938E-03     17.9771E-03
            2411     7.94437E-03     2.97405E-03    -7.31237E+06    -86.9418E+06    -7.73827E+06    -15.9861E+06    -21.1850E-03     40.5707E-03    -19.3857E-03     15.6320E-03    -21.0850E-03     40.1583E-03    -19.2877E-03     15.4215E-03
            2412     7.06374E-03     2.96999E-03    -7.37914E+06    -88.7053E+06    -8.59286E+06    -13.1602E+06    -20.6955E-03     39.8864E-03    -19.1909E-03     13.1184E-03    -20.5918E-03     39.4663E-03    -19.0945E-03     12.9455E-03
            2413     6.18144E-03     2.96670E-03    -8.18930E+06    -90.4965E+06    -9.71722E+06    -10.0129E+06    -20.1940E-03     39.2061E-03    -19.0122E-03     10.8814E-03    -20.0899E-03     38.7798E-03    -18.9177E-03     10.7500E-03
            2414     5.29946E-03     2.96359E-03    -9.02565E+06    -91.4691E+06    -10.3035E+06    -7.54629E+06    -19.7508E-03     38.6054E-03    -18.8546E-03     8.90553E-03    -19.6485E-03     38.1762E-03    -18.7604E-03     8.80659E-03
            2415     4.41666E-03     2.96112E-03    -9.63101E+06    -91.8542E+06    -10.4800E+06    -5.50198E+06    -19.3493E-03     38.0685E-03    -18.7192E-03     7.12332E-03    -19.2492E-03     37.6384E-03    -18.6244E-03     7.05120E-03
            2416     3.53385E-03     2.95896E-03    -10.3140E+06    -92.4353E+06    -11.0482E+06    -3.61954E+06    -19.0172E-03     37.6224E-03    -18.6052E-03     5.49313E-03    -18.9188E-03     37.1912E-03    -18.5115E-03     5.44561E-03
            2417     2.65054E-03     2.95742E-03    -10.9230E+06    -92.7863E+06    -11.4542E+06    -2.39165E+06    -18.7528E-03     37.2677E-03    -18.5150E-03     4.00971E-03    -18.6563E-03     36.8362E-03    -18.4218E-03     3.97828E-03
            2418     1.76720E-03     2.95616E-03    -11.5842E+06    -93.1785E+06    -11.9328E+06    -1.62664E+06    -18.5604E-03     37.0081E-03    -18.4477E-03     2.65755E-03    -18.4660E-03     36.5763E-03    -18.3554E-03     2.63619E-03
            2419     883.601E-06     2.95553E-03    -11.9876E+06    -93.4157E+06    -12.1781E+06    -917.596E+03    -18.4298E-03     36.8411E-03    -18.4113E-03     1.42727E-03    -18.3366E-03     36.4091E-03    -18.3193E-03     1.41524E-03
            2420     16.6791E-03     2.06596E-03    -5.12123E+06     110.055E+06     74.1027E+06     11.2891E+06    -71.8645E-03     98.0980E-03    -26.2335E-03     107.367E-03    -73.1291E-03     99.5312E-03    -26.0152E-03     106.373E-03
            2421     15.8188E-03     2.03907E-03    -2.06555E+06     77.9221E+06     60.9969E+06     15.9546E+06    -40.5642E-03     65.1942E-03    -24.6299E-03     57.8163E-03    -40.9480E-03     65.6729E-03    -24.4350E-03     57.7486E-03
            2422     14.9410E-03     2.03818E-03    -2.40212E+06     65.5583E+06     47.9288E+06     12.4314E+06    -32.7268E-03     56.5896E-03    -23.8628E-03     49.3600E-03    -32.9437E-03     56.8902E-03    -23.7147E-03     49.4335E-03
            2423     14.0713E-03     2.01502E-03    -1.67753E+06     56.9738E+06     25.6159E+06     5.54153E+06    -31.8598E-03     55.0786E-03    -23.2187E-03     44.6351E-03    -32.0093E-03     55.3495E-03    -23.1708E-03     44.6503E-03
            2424     13.1973E-03     2.00980E-03     933.370E+03     32.4644E+06     2.16164E+06     1.17618E+06    -29.3452E-03     51.9793E-03    -22.6341E-03     33.0864E-03    -29.4003E-03     52.1463E-03    -22.6717E-03     33.0685E-03
            2425     12.3203E-03     2.00488E-03     2.57177E+06    -1.77763E+06    -8.36132E+06    -4.59448E+06    -28.1248E-03     50.3164E-03    -22.1916E-03     28.3107E-03    -28.1026E-03     50.3206E-03    -22.2346E-03     28.2303E-03
            2426     11.4485E-03     1.99980E-03     1.57833E+06    -32.7761E+06    -14.5297E+06    -10.6511E+06    -26.9037E-03     48.7068E-03    -21.8031E-03     23.9819E-03    -26.8303E-03     48.5643E-03    -21.8305E-03     23.8305E-03
            2427     10.5676E-03     1.99545E-03     402.025E+03    -56.5298E+06    -21.2824E+06    -13.9859E+06    -25.9463E-03     47.3758E-03    -21.4294E-03     19.8158E-03    -25.8332E-03     47.1247E-03    -21.4545E-03     19.6262E-03
            2428     9.69396E-03     1.99184E-03    -656.557E+03    -73.8467E+06    -24.5782E+06    -15.6471E+06    -25.1380E-03     46.2169E-03    -21.0789E-03     16.9512E-03    -24.9996E-03     45.8850E-03    -21.0938E-03     16.7430E-03
            2429     8.81340E-03     1.98843E-03    -2.32041E+06    -85.1999E+06    -23.6206E+06    -15.7538E+06    -24.1726E-03     44.9338E-03    -20.7612E-03     14.2052E-03    -24.0270E-03     44.5458E-03    -20.7524E-03     13.9976E-03
            2430     7.93600E-03     1.98487E-03    -4.21228E+06    -91.4646E+06    -21.0403E+06    -14.0975E+06    -23.3784E-03     43.8451E-03    -20.4667E-03     11.8509E-03    -23.2367E-03     43.4246E-03    -20.4332E-03     11.6660E-03
            2431     7.05568E-03     1.98219E-03    -5.89287E+06    -94.4005E+06    -18.2246E+06    -10.9993E+06    -22.5052E-03     42.6978E-03    -20.1925E-03     9.77703E-03    -22.3716E-03     42.2609E-03    -20.1382E-03     9.63302E-03
            2432     6.17575E-03     1.97944E-03    -7.31982E+06    -94.8436E+06    -15.8711E+06    -7.89761E+06    -21.7220E-03     41.6669E-03    -19.9449E-03     8.00914E-03    -21.5982E-03     41.2264E-03    -19.8761E-03     7.90576E-03
            2433     5.29452E-03     1.97731E-03    -8.69805E+06    -94.8616E+06    -14.3015E+06    -5.76568E+06    -21.0372E-03     40.7631E-03    -19.7259E-03     6.46558E-03    -20.9225E-03     40.3222E-03    -19.6473E-03     6.39014E-03
            2434     4.41312E-03     1.97534E-03    -10.0616E+06    -94.9423E+06    -13.4082E+06    -4.00901E+06    -20.4504E-03     39.9879E-03    -19.5374E-03     5.12013E-03    -20.3437E-03     39.5472E-03    -19.4522E-03     5.06765E-03
            2435     3.53096E-03     1.97386E-03    -10.9475E+06    -94.7581E+06    -12.6642E+06    -2.67905E+06    -19.9674E-03     39.3489E-03    -19.3815E-03     3.92184E-03    -19.8664E-03     38.9093E-03    -19.2915E-03     3.88673E-03
            2436     2.64865E-03     1.97261E-03    -11.4734E+06    -94.5225E+06    -12.1505E+06    -1.64900E+06    -19.5946E-03     38.8519E-03    -19.2574E-03     2.85129E-03    -19.4973E-03     38.4136E-03    -19.1644E-03     2.82964E-03
            2437     1.76589E-03     1.97183E-03    -11.8705E+06    -94.5018E+06    -12.0616E+06    -895.364E+03    -19.3208E-03     38.4850E-03    -19.1643E-03     1.87353E-03    -19.2256E-03     38.0472E-03    -19.0703E-03     1.86174E-03
            2438     883.036E-06     1.97122E-03    -12.2431E+06    -94.7938E+06    -12.5058E+06    -501.731E+03    -19.1375E-03     38.2503E-03    -19.1128E-03     993.252E-06    -19.0431E-03     37.8123E-03    -19.0201E-03     986.646E-06
            2439     16.6335E-03     1.03608E-03     2.14342E+06     102.528E+06     77.2550E+06     9.04920E+06    -67.5773E-03     96.2943E-03    -28.7170E-03     90.9219E-03    -68.2987E-03     97.1707E-03    -28.4825E-03     90.3097E-03
            2440     15.7670E-03     1.03833E-03     3.47330E+06     80.8659E+06     66.6049E+06     7.86676E+06    -47.4498E-03     74.5568E-03    -27.1070E-03     55.0075E-03    -47.7099E-03     74.9194E-03    -26.8963E-03     54.9854E-03
            2441     14.9071E-03     1.02275E-03     5.74680E+06     72.6785E+06     48.8578E+06     4.78313E+06    -42.6338E-03     68.5836E-03    -25.9497E-03     42.4008E-03    -42.7969E-03     68.8818E-03    -25.8192E-03     42.4161E-03
            2442     14.0428E-03     1.01136E-03     8.07660E+06     59.4304E+06     17.4892E+06     2.17840E+06    -37.4285E-03     62.3509E-03    -24.9224E-03     30.3890E-03    -37.5072E-03     62.6184E-03    -24.9329E-03     30.3868E-03
            2443     13.1725E-03     1.00855E-03     10.4213E+06     36.4629E+06    -10.0057E+06     27.8122E+03    -33.6271E-03     57.7386E-03    -24.1115E-03     21.1804E-03    -33.6165E-03     57.9230E-03    -24.2295E-03     21.1642E-03
            2444     12.3046E-03     1.00317E-03     11.3561E+06     3.23842E+06    -22.3560E+06    -3.18112E+06    -31.9370E-03     55.4270E-03    -23.4899E-03     17.0192E-03    -31.8543E-03     55.4608E-03    -23.6229E-03     16.9663E-03
            2445     11.4293E-03     1.00243E-03     10.4399E+06    -30.2567E+06    -29.0545E+06    -6.22186E+06    -30.2444E-03     53.1862E-03    -22.9418E-03     13.9490E-03    -30.1072E-03     53.0628E-03    -23.0583E-03     13.8612E-03
            2446     10.5596E-03     998.790E-06     8.06543E+06    -55.3132E+06    -36.1453E+06    -8.48820E+06    -28.7142E-03     51.1397E-03    -22.4255E-03     11.6408E-03    -28.5418E-03     50.9043E-03    -22.5377E-03     11.5261E-03
            2447     9.68110E-03     997.368E-06     5.09925E+06    -74.8483E+06    -39.2191E+06      -9.373E+06    -27.4029E-03     49.3619E-03    -21.9590E-03     9.28572E-03    -27.2123E-03     49.0374E-03    -22.0539E-03     9.16163E-03
            2448     8.80749E-03     994.956E-06     1.56285E+06    -87.3070E+06    -37.4603E+06    -9.12014E+06    -26.1302E-03     47.6706E-03    -21.5403E-03     7.85103E-03    -25.9417E-03     47.2862E-03    -21.6033E-03     7.73111E-03
            2449     7.92884E-03     993.348E-06    -2.05814E+06    -95.0498E+06    -31.8547E+06    -8.21321E+06    -24.8825E-03     46.0558E-03    -21.1733E-03     6.39526E-03    -24.7088E-03     45.6298E-03    -21.1918E-03     6.28776E-03
            2450     7.05121E-03     991.629E-06    -5.04755E+06    -98.9560E+06    -25.5366E+06    -6.43160E+06    -23.7679E-03     44.6136E-03    -20.8457E-03     5.24905E-03    -23.6127E-03     44.1632E-03    -20.8226E-03     5.16501E-03
            2451     6.17156E-03     990.373E-06    -7.26875E+06    -98.1770E+06    -20.2797E+06    -4.40177E+06    -22.7683E-03     43.3159E-03    -20.5476E-03     4.26938E-03    -22.6329E-03     42.8650E-03    -20.4961E-03     4.21187E-03
            2452     5.29163E-03     989.081E-06    -9.05498E+06     -97.356E+06    -16.7708E+06    -2.82828E+06    -21.8980E-03     42.1819E-03    -20.2839E-03     3.42156E-03    -21.7778E-03     41.7326E-03    -20.2134E-03     3.38456E-03
            2453     4.41066E-03     988.127E-06    -10.3088E+06    -96.7393E+06    -14.8937E+06    -1.97285E+06    -21.1717E-03     41.2271E-03    -20.0554E-03     2.68172E-03    -21.0614E-03     40.7800E-03    -19.9747E-03     2.65590E-03
            2454     3.52934E-03     987.268E-06    -11.1746E+06    -96.2501E+06    -13.8136E+06    -1.41416E+06    -20.5772E-03     40.4433E-03    -19.8661E-03     2.04880E-03    -20.4735E-03     39.9983E-03    -19.7794E-03     2.03029E-03
            2455     2.64732E-03     986.662E-06    -11.7240E+06    -95.7269E+06    -12.8287E+06    -902.569E+03    -20.1187E-03     39.8378E-03    -19.7190E-03     1.48536E-03    -20.0200E-03     39.3947E-03    -19.6274E-03     1.47353E-03
            2456     1.76515E-03     986.164E-06    -12.0122E+06    -95.3941E+06    -12.3488E+06    -434.266E+03    -19.7917E-03     39.4031E-03    -19.6115E-03     972.614E-06    -19.6955E-03     38.9615E-03    -19.5175E-03     966.894E-06
            2457     882.602E-06     985.977E-06    -12.2925E+06    -95.3410E+06    -12.2718E+06    -43.5372E+03    -19.6029E-03     39.1354E-03    -19.5326E-03     512.635E-06    -19.5082E-03     38.6944E-03    -19.4379E-03     512.023E-06


