********************************************************************************
Field Output Report, written Tue May 28 19:51:31 2024

Source 1
---------

   ODB: G:/Abaqus_calc_2019/1740/Vel_20/odb/zeides_2a_40_red_2500_cal_30_vel_20_fric_025.odb
   Step: Step-1
   Frame: Increment  11205062: Step Time =   0.8847

Loc 1 : Nodal values from source 1

Output sorted by column "Nodal Label".

Field Output reported at nodes for region: DIE_2A_40_D0_36-1.Region_1
   Computation algorithm: EXTRAPOLATE_COMPUTE_AVERAGE
   Averaged at nodes
   Averaging regions: ODB_REGIONS

      Node Label     COORD.COOR1     COORD.COOR2
                          @Loc 1          @Loc 1
-------------------------------------------------
               1     18.1173E-03     207.331E-03


Field Output reported at nodes for region: DIE_2A_40_D0_36-1.Region_2
   Computation algorithm: EXTRAPOLATE_COMPUTE_AVERAGE
   Averaged at nodes
   Averaging regions: ODB_REGIONS

      Node Label     COORD.COOR1     COORD.COOR2
                          @Loc 1          @Loc 1
-------------------------------------------------
               1     18.1173E-03     207.331E-03


Field Output reported at nodes for part: WIRE-1
   Computation algorithm: EXTRAPOLATE_COMPUTE_AVERAGE
   Averaged at nodes
   Averaging regions: ODB_REGIONS

      Node Label     COORD.COOR1     COORD.COOR2           S.S11           S.S22           S.S33           S.S12         PE.PE11         PE.PE22         PE.PE33         PE.PE12         LE.LE11         LE.LE22         LE.LE33         LE.LE12
                          @Loc 1          @Loc 1          @Loc 1          @Loc 1          @Loc 1          @Loc 1          @Loc 1          @Loc 1          @Loc 1          @Loc 1          @Loc 1          @Loc 1          @Loc 1          @Loc 1
-------------------------------------------------------------------------------------------------------------------------------------------------------------------------------------------------------------------------------------------------
               1    -272.617E-09     96.4189E-03    -132.176E+06    -252.092E+06    -134.573E+06     187.861E+03    -296.676E-03     592.305E-03    -295.629E-03     15.5300E-03    -296.820E-03     591.476E-03    -295.744E-03     12.2503E-03
               2     13.3919E-03     101.361E-03    -1.99155E+06     54.2105E+06     80.5959E+06    -46.7737E+03    -293.179E-03     589.235E-03    -296.057E-03     74.8786E-03    -296.198E-03     592.206E-03    -295.729E-03     45.2495E-03
               3     13.5024E-03     201.061E-03    -33.8502E+06     73.7897E+06     84.6753E+06    -25.5538E+06     114.586E-03     184.306E-03    -298.892E-03    -435.679E-06     114.793E-03     185.191E-03    -298.527E-03    -751.681E-06
               4    -28.6916E-06     193.021E-03    -79.5253E+06    -82.8308E+06    -96.9444E+06    -12.1744E+06    -283.816E-03     590.628E-03    -306.812E-03    -86.8712E-03    -284.869E-03     589.433E-03    -307.061E-03    -88.1846E-03
               5     1.15677E-06     9.46465E-15    -62.9220E+06    -204.827E+06    -62.0303E+06     1.24224E+06    -248.992E-03     497.964E-03    -248.972E-03    -248.086E-06    -248.915E-03     497.122E-03    -248.894E-03    -416.500E-06
               6     13.1736E-03     9.46465E-15     7.75346E+06     87.8430E+06     92.3479E+06     10.6103E+06    -704.932E-03         1.00213    -297.199E-03     235.977E-03    -711.945E-03         1.00920    -296.876E-03     175.472E-03
               7     668.707E-06     96.4437E-03    -132.553E+06    -248.345E+06    -131.710E+06     237.214E+03    -296.495E-03     592.382E-03    -295.886E-03     26.6811E-03    -296.754E-03     591.671E-03    -295.993E-03     21.2581E-03
               8     1.33802E-03     96.4995E-03    -130.686E+06    -235.600E+06    -122.425E+06     303.441E+03    -296.460E-03     592.616E-03    -296.156E-03     49.9739E-03    -297.059E-03     592.270E-03    -296.237E-03     39.9444E-03
               9     2.00780E-03     96.5917E-03    -125.476E+06    -215.295E+06    -107.461E+06     405.722E+03    -296.791E-03     592.971E-03    -296.180E-03     74.1200E-03    -297.951E-03     593.233E-03    -296.223E-03     59.1512E-03
              10     2.67678E-03     96.7187E-03    -118.526E+06    -195.736E+06    -88.2013E+06     730.638E+03    -297.164E-03     593.372E-03    -296.208E-03     98.0926E-03    -299.106E-03     594.454E-03    -296.194E-03     78.0687E-03
              11     3.34637E-03     96.8809E-03    -109.988E+06    -166.415E+06    -67.1647E+06     923.450E+03    -297.624E-03     593.836E-03    -296.211E-03     122.222E-03    -300.605E-03     596.030E-03    -296.146E-03     96.9477E-03
              12     4.01620E-03     97.0779E-03    -100.990E+06    -128.238E+06    -45.8452E+06     970.347E+03    -298.155E-03     594.348E-03    -296.193E-03     146.169E-03    -302.436E-03     597.948E-03    -296.090E-03     115.530E-03
              13     4.68596E-03     97.3094E-03    -91.1698E+06    -90.9040E+06    -23.6726E+06     1.12355E+06    -298.696E-03     594.871E-03    -296.175E-03     169.591E-03    -304.534E-03     600.131E-03    -296.029E-03     133.468E-03
              14     5.35583E-03     97.5740E-03    -80.4689E+06    -50.8055E+06    -2.15412E+06     1.29603E+06    -299.371E-03     595.525E-03    -296.154E-03     192.241E-03    -307.002E-03     602.695E-03    -295.974E-03     150.606E-03
              15     6.02472E-03     97.8703E-03    -70.5408E+06    -23.6639E+06     15.4309E+06     1.76443E+06    -300.182E-03     596.337E-03    -296.155E-03     214.014E-03    -309.811E-03     605.588E-03    -295.942E-03     166.895E-03
              16     6.69478E-03     98.1995E-03    -62.0001E+06    -12.2615E+06     26.6002E+06     2.42534E+06    -300.790E-03     596.958E-03    -296.169E-03     233.986E-03    -312.506E-03     608.334E-03    -295.928E-03     181.727E-03
              17     7.36480E-03     98.5526E-03    -53.8801E+06    -3.37871E+06     36.4130E+06     1.48728E+06    -300.844E-03     597.018E-03    -296.174E-03     250.508E-03    -314.557E-03     610.422E-03    -295.909E-03     193.833E-03
              18     8.03387E-03     98.9284E-03    -45.9885E+06     2.28851E+06     46.9482E+06    -728.710E+03    -300.534E-03     596.706E-03    -296.172E-03     261.735E-03    -315.938E-03     611.819E-03    -295.874E-03     201.542E-03
              19     8.70429E-03     99.3110E-03    -39.4115E+06     7.13244E+06     55.5005E+06    -1.02598E+06    -300.337E-03     596.515E-03    -296.178E-03     266.375E-03    -316.859E-03     612.761E-03    -295.853E-03     203.885E-03
              20     9.37252E-03     99.6972E-03    -33.0147E+06     21.4516E+06     64.6740E+06     330.033E+03    -299.673E-03     595.873E-03    -296.200E-03     264.602E-03    -316.589E-03     612.560E-03    -295.860E-03     201.292E-03
              21     10.0417E-03     100.075E-03    -26.3593E+06     29.1019E+06     70.8474E+06     680.362E+03    -297.754E-03     593.953E-03    -296.199E-03     256.098E-03    -314.216E-03     610.219E-03    -295.849E-03     193.659E-03
              22     10.7115E-03     100.422E-03    -19.6679E+06     30.4125E+06     71.0159E+06     90.0628E+03    -296.027E-03     592.165E-03    -296.138E-03     241.462E-03    -311.311E-03     607.282E-03    -295.798E-03     181.078E-03
              23     11.3847E-03     100.747E-03    -14.0639E+06     41.6859E+06     70.9100E+06    -31.9450E+03    -295.274E-03     591.347E-03    -296.073E-03     215.981E-03    -308.370E-03     604.335E-03    -295.759E-03     159.576E-03
              24     12.0525E-03     101.019E-03    -9.18802E+06     53.9556E+06     76.7636E+06     235.297E+03    -294.227E-03     590.296E-03    -296.070E-03     194.826E-03    -305.727E-03     601.733E-03    -295.751E-03     141.164E-03
              25     12.7235E-03     101.280E-03    -4.17214E+06     56.6090E+06     81.2946E+06     158.935E+03    -293.331E-03     589.401E-03    -296.070E-03     132.701E-03    -300.525E-03     596.546E-03    -295.740E-03     91.0284E-03
              26     13.3922E-03     103.076E-03    -1.72176E+06     54.3929E+06     80.5811E+06     264.528E+03    -292.589E-03     588.646E-03    -296.057E-03     75.8162E-03    -295.626E-03     591.637E-03    -295.731E-03     46.1992E-03
              27     13.3925E-03     104.784E-03    -2.71969E+06      53.369E+06     78.6074E+06    -331.420E+03    -293.324E-03     589.352E-03    -296.028E-03     74.7827E-03    -296.373E-03     592.353E-03    -295.708E-03     44.9022E-03
              28     13.3917E-03     106.498E-03    -2.53474E+06     53.9887E+06     81.2066E+06    -192.473E+03    -293.831E-03     589.864E-03    -296.033E-03     73.1615E-03    -296.820E-03     592.800E-03    -295.701E-03     43.5120E-03
              29     13.3926E-03     108.212E-03    -1.46186E+06     54.8109E+06     81.3583E+06     525.097E+03    -293.352E-03     589.395E-03    -296.044E-03     73.6022E-03    -296.311E-03     592.308E-03    -295.714E-03     44.2345E-03
              30     13.3915E-03     109.926E-03    -1.11938E+06     54.7606E+06     79.4730E+06     245.627E+03    -292.825E-03     588.874E-03    -296.049E-03     73.4364E-03    -295.826E-03     591.835E-03    -295.730E-03     43.7465E-03
              31     13.3926E-03     111.632E-03    -2.43639E+06     53.8917E+06     79.7714E+06    -387.380E+03    -293.083E-03     589.122E-03    -296.039E-03     74.3209E-03    -296.119E-03     592.109E-03    -295.715E-03     44.5206E-03
              32     13.3920E-03     113.356E-03    -2.26843E+06     54.1742E+06     80.6678E+06    -121.050E+03    -293.545E-03     589.591E-03    -296.046E-03     75.3733E-03    -296.586E-03     592.583E-03    -295.718E-03     45.6209E-03
              33     13.3914E-03     115.063E-03    -2.39339E+06     54.2748E+06     81.2008E+06     399.729E+03    -293.906E-03     589.938E-03    -296.032E-03     76.3420E-03    -296.969E-03     592.950E-03    -295.701E-03     46.5051E-03
              34     13.3937E-03     116.775E-03    -1.65783E+06     55.0347E+06     81.9288E+06    -8.88881E+03    -293.965E-03     589.962E-03    -295.997E-03     72.0233E-03    -296.941E-03     592.889E-03    -295.665E-03     42.2965E-03
              35     13.3914E-03     118.491E-03    -1.85456E+06     54.8652E+06     82.1227E+06    -311.049E+03    -293.197E-03     589.227E-03    -296.030E-03     72.9320E-03    -296.211E-03     592.190E-03    -295.696E-03     43.1335E-03
              36     13.3931E-03     120.206E-03    -2.40703E+06     54.4376E+06     82.5127E+06    -204.635E+03    -293.119E-03     589.159E-03    -296.040E-03     76.2270E-03    -296.202E-03     592.187E-03    -295.703E-03     46.3442E-03
              37     13.3919E-03     121.917E-03    -1.69744E+06     55.1701E+06     82.9434E+06    -69.3030E+03    -293.261E-03     589.276E-03    -296.016E-03     75.0354E-03    -296.305E-03     592.270E-03    -295.679E-03     45.2504E-03
              38     13.3936E-03     123.629E-03    -2.18918E+06     54.3470E+06     81.9430E+06     154.804E+03    -292.983E-03     589.006E-03    -296.023E-03     73.9507E-03    -295.991E-03     591.962E-03    -295.689E-03     44.3318E-03
              39     13.3911E-03     125.343E-03    -2.53014E+06     53.7321E+06     83.1565E+06     324.115E+03    -293.600E-03     589.654E-03    -296.054E-03     74.2398E-03    -296.610E-03     592.605E-03    -295.713E-03     44.5937E-03
              40     13.3923E-03     127.055E-03    -1.50562E+06     59.3535E+06     84.5745E+06     1.76519E+06    -293.620E-03     589.664E-03    -296.044E-03     74.0312E-03    -296.632E-03     592.636E-03    -295.705E-03     44.4041E-03
              41     13.3928E-03     128.768E-03    -2.18014E+06     63.5851E+06     83.3516E+06    -507.699E+03    -293.402E-03     589.409E-03    -296.006E-03     73.6535E-03    -296.439E-03     592.422E-03    -295.679E-03     43.8414E-03
              42     13.3923E-03     130.482E-03    -2.36050E+06     58.7012E+06     83.1876E+06    -1.58074E+06    -293.743E-03     589.737E-03    -295.994E-03     75.3834E-03    -296.809E-03     592.762E-03    -295.660E-03     45.5276E-03
              43     13.3934E-03     132.200E-03    -2.00239E+06     54.6945E+06     84.1040E+06     207.245E+03    -293.191E-03     589.209E-03    -296.019E-03     75.8216E-03    -296.251E-03     592.212E-03    -295.675E-03     46.0898E-03
              44     13.3916E-03     133.908E-03    -3.20896E+06     54.0076E+06     84.3241E+06    -43.9206E+03    -292.915E-03     588.958E-03    -296.043E-03     75.8564E-03    -295.972E-03     591.951E-03    -295.695E-03     46.1993E-03
              45     13.3934E-03     135.621E-03    -1.36981E+06     55.3681E+06     85.8955E+06     668.123E+03    -292.799E-03     588.844E-03    -296.045E-03     74.4651E-03    -295.808E-03     591.795E-03    -295.694E-03     44.9714E-03
              46     13.3919E-03     137.332E-03    -1.34605E+06     59.6176E+06     85.0010E+06     1.09254E+06    -292.952E-03     588.962E-03    -296.011E-03     74.4445E-03    -295.975E-03     591.946E-03    -295.670E-03     44.7879E-03
              47     13.3942E-03     139.042E-03    -4.08134E+06     62.2785E+06     82.6835E+06    -25.0335E+03    -293.397E-03     589.369E-03    -295.972E-03     72.4997E-03    -296.392E-03     592.330E-03    -295.643E-03     42.9128E-03
              48     13.3919E-03     140.758E-03    -2.58846E+06     59.0810E+06     85.1589E+06    -1.95419E+06    -293.459E-03     589.500E-03    -296.041E-03     70.6964E-03    -296.417E-03     592.412E-03    -295.697E-03     41.1205E-03
              49     13.3911E-03     142.469E-03    -347.886E+03     56.8322E+06     85.8510E+06     155.589E+03    -292.354E-03     588.401E-03    -296.048E-03     74.8908E-03    -295.387E-03     591.386E-03    -295.700E-03     45.2456E-03
              50     13.3964E-03     144.182E-03    -2.03801E+06     56.8164E+06     84.0207E+06     111.012E+03    -292.778E-03     588.763E-03    -295.985E-03     75.1999E-03    -295.828E-03     591.763E-03    -295.644E-03     45.4954E-03
              51     13.3890E-03     145.899E-03    -2.44163E+06     52.9474E+06     84.9916E+06    -854.532E+03    -293.533E-03     589.575E-03    -296.042E-03     74.4208E-03    -296.565E-03     592.539E-03    -295.690E-03     44.6909E-03
              52     13.3951E-03     147.606E-03    -1.87508E+06     53.0443E+06     85.0515E+06     839.251E+03    -291.881E-03     587.937E-03    -296.056E-03     75.1746E-03    -294.916E-03     590.907E-03    -295.705E-03     45.6213E-03
              53     13.3918E-03     149.316E-03    -3.04719E+06     55.1749E+06     84.9738E+06    -92.0316E+03    -292.033E-03     588.056E-03    -296.023E-03     73.5163E-03    -295.048E-03     591.010E-03    -295.673E-03     43.9809E-03
              54     13.3937E-03     151.030E-03    -2.65461E+06     55.7412E+06     86.4874E+06     271.159E+03    -292.087E-03     588.116E-03    -296.029E-03     74.2504E-03    -295.108E-03     591.075E-03    -295.673E-03     44.7843E-03
              55     13.3932E-03     152.738E-03    -1.75213E+06     57.0166E+06     87.1076E+06     52.6603E+03    -291.556E-03     587.580E-03    -296.025E-03     74.4180E-03    -294.579E-03     590.547E-03    -295.669E-03     44.9687E-03
              56     13.3932E-03     154.450E-03    -1.60450E+06     55.8765E+06     85.8091E+06     322.133E+03    -291.292E-03     587.328E-03    -296.036E-03     73.5113E-03    -294.293E-03     590.273E-03    -295.686E-03     44.1253E-03
              57     13.3931E-03     156.155E-03    -2.79355E+06     57.6960E+06     86.6171E+06     826.110E+03    -290.086E-03     586.153E-03    -296.067E-03     72.9809E-03    -293.079E-03     589.090E-03    -295.713E-03     43.7815E-03
              58     13.3935E-03     157.863E-03    -2.31711E+06     60.5115E+06     89.5057E+06     104.502E+03    -289.267E-03     585.354E-03    -296.086E-03     73.5253E-03    -292.283E-03     588.317E-03    -295.723E-03     44.3303E-03
              59     13.3934E-03     159.570E-03    -1.88606E+06     64.8883E+06     92.1522E+06     1.54981E+06    -288.156E-03     584.278E-03    -296.123E-03     72.5531E-03    -291.157E-03     587.236E-03    -295.753E-03     43.5411E-03
              60     13.3930E-03     161.270E-03    -1.72820E+06     72.8895E+06     92.4178E+06     1.60233E+06    -285.542E-03     581.647E-03    -296.105E-03     71.2808E-03    -288.508E-03     584.597E-03    -295.746E-03     42.6328E-03
              61     13.3977E-03     162.961E-03    -3.05996E+06     77.1696E+06     92.6163E+06     114.563E+03    -284.182E-03     580.167E-03    -295.984E-03     70.7680E-03    -287.157E-03     583.136E-03    -295.629E-03     42.1834E-03
              62     13.3966E-03     164.668E-03    -2.56686E+06     80.0043E+06     96.7684E+06     29.0130E+03    -282.239E-03     578.056E-03    -295.817E-03     73.0504E-03    -285.281E-03     581.092E-03    -295.445E-03     44.4825E-03
              63     13.4064E-03     166.351E-03    -1.99156E+06     80.4523E+06     97.4823E+06     74.1996E+03    -278.323E-03     573.763E-03    -295.441E-03     78.1743E-03    -281.463E-03     576.900E-03    -295.067E-03     49.7469E-03
              64     13.4132E-03     168.038E-03    -3.34542E+06     81.6360E+06     100.279E+06     452.862E+03    -276.558E-03     571.388E-03    -294.830E-03     80.4493E-03    -279.744E-03     574.561E-03    -294.443E-03     52.1646E-03
              65     13.4250E-03     169.722E-03    -2.10755E+06     84.6912E+06     103.258E+06     1.85887E+06    -275.276E-03     569.302E-03    -294.027E-03     84.8821E-03    -278.563E-03     572.583E-03    -293.630E-03     56.4381E-03
              66     13.4389E-03     171.396E-03    -3.10977E+06      87.244E+06     102.850E+06      1.0726E+06    -276.501E-03     569.456E-03    -292.955E-03     88.2559E-03    -279.892E-03     572.848E-03    -292.563E-03     59.2560E-03
              67     13.4534E-03     173.080E-03    -2.38297E+06     95.8055E+06     109.383E+06     2.25674E+06    -281.699E-03     573.379E-03    -291.681E-03     91.9311E-03    -285.167E-03     576.863E-03    -291.269E-03     62.3330E-03
              68     13.4713E-03     174.777E-03    -2.22832E+06     94.8043E+06     113.406E+06    -1.31473E+06    -288.715E-03     579.050E-03    -290.335E-03     97.0396E-03    -292.290E-03     582.626E-03    -289.902E-03     66.4521E-03
              69     13.4835E-03     176.486E-03     478.003E+03     91.3407E+06     118.571E+06     3.36540E+06    -300.600E-03     589.633E-03    -289.032E-03     102.068E-03    -304.297E-03     593.313E-03    -288.573E-03     69.9720E-03
              70     13.4954E-03     178.213E-03     -6.9284E+06     98.2016E+06     122.830E+06     2.22024E+06    -317.510E-03     605.327E-03    -287.817E-03     104.881E-03    -321.172E-03     608.960E-03    -287.336E-03     72.0581E-03
              71     13.5026E-03     179.983E-03    -255.948E+03     109.024E+06     127.694E+06     3.57051E+06    -336.587E-03     623.416E-03    -286.829E-03     106.837E-03    -340.122E-03     626.971E-03    -286.349E-03     73.3289E-03
              72     13.5042E-03     181.778E-03    -7.12360E+06     112.585E+06     126.565E+06    -162.363E+03    -356.310E-03     642.503E-03    -286.193E-03     109.846E-03    -359.918E-03     646.122E-03    -285.713E-03     74.7376E-03
              73     13.5025E-03     183.608E-03    -285.341E+03     120.906E+06     127.308E+06    -142.026E+03    -372.927E-03     658.716E-03    -285.788E-03     113.890E-03    -376.560E-03     662.410E-03    -285.327E-03     77.4728E-03
              74     13.5044E-03     185.460E-03    -5.23575E+06     110.150E+06     113.844E+06    -3.21762E+06    -385.227E-03     670.721E-03    -285.495E-03     117.176E-03    -388.903E-03     674.442E-03    -285.078E-03     79.4777E-03
              75     13.5006E-03     187.327E-03    -978.184E+03     75.9991E+06     100.243E+06    -5.09288E+06    -394.324E-03     679.609E-03    -285.286E-03     118.742E-03    -397.969E-03     683.231E-03    -284.893E-03     79.8329E-03
              76     13.5050E-03     189.202E-03    -2.05648E+06     62.3890E+06     95.5989E+06     1.94394E+06    -400.474E-03     685.634E-03    -285.160E-03     115.952E-03    -404.046E-03     689.142E-03    -284.769E-03     76.5628E-03
              77     13.4988E-03     191.090E-03    -3.07006E+06     59.2346E+06     89.8378E+06    -5.68136E+06    -403.603E-03     688.697E-03    -285.094E-03     113.704E-03    -407.079E-03     692.111E-03    -284.726E-03     74.2340E-03
              78     13.5052E-03     192.977E-03     6.39978E+06     47.4342E+06     107.657E+06    -1.39634E+06    -408.328E-03     693.848E-03    -285.520E-03     102.519E-03    -411.167E-03     696.573E-03    -285.060E-03     68.3014E-03
              79     13.4753E-03     194.912E-03    -17.5516E+06     2.59112E+06     118.154E+06     6.98512E+06    -381.622E-03     668.300E-03    -286.677E-03     92.6966E-03    -384.507E-03     670.791E-03    -286.065E-03     59.4240E-03
              80     13.5074E-03     196.634E-03    -983.851E+03     25.4559E+06     166.056E+06     13.5846E+06    -319.723E-03     607.359E-03    -287.636E-03     107.951E-03    -323.524E-03     610.760E-03    -286.841E-03     73.8224E-03
              81     13.5108E-03     198.384E-03     18.8871E+06     36.1888E+06     183.665E+06    -9.38744E+06    -264.224E-03     552.440E-03    -288.215E-03     138.035E-03    -268.767E-03     556.650E-03    -287.377E-03     108.318E-03
              82     13.5203E-03     200.052E-03    -2.11180E+06     32.1564E+06     119.073E+06    -28.2585E+06    -62.5929E-03     356.308E-03    -293.715E-03     78.0835E-03    -64.9314E-03     359.009E-03    -293.163E-03     63.5609E-03
              83     12.2888E-03     200.911E-03    -23.5148E+06    -24.6698E+06     99.2303E+06    -8.24643E+06     70.6253E-03     237.526E-03    -308.151E-03    -60.8426E-03     70.7612E-03     237.644E-03    -307.585E-03    -61.3029E-03
              84     11.4718E-03     200.375E-03    -826.672E+03    -34.4823E+06     166.544E+06    -7.68855E+06     55.3914E-03     269.249E-03    -324.641E-03    -103.296E-03     55.2113E-03     269.018E-03    -323.757E-03    -104.160E-03
              85     10.6184E-03     199.841E-03     749.321E+03     6.92689E+06     193.875E+06    -13.7032E+06     83.2908E-03     256.618E-03    -339.909E-03    -90.1479E-03     83.0171E-03     256.676E-03    -338.951E-03    -91.3765E-03
              86     9.77157E-03     199.256E-03    -7.17741E+06    -15.4420E+06     169.955E+06    -13.5375E+06     82.0339E-03     272.726E-03    -354.760E-03    -130.262E-03     82.0002E-03     272.580E-03    -353.877E-03    -131.963E-03
              87     8.99955E-03     198.635E-03    -13.3850E+06    -7.90898E+06     153.692E+06    -19.2472E+06     80.2282E-03     286.410E-03    -366.638E-03    -202.645E-03     80.5124E-03     285.918E-03    -365.838E-03    -204.925E-03
              88     8.26855E-03     198.015E-03    -19.5657E+06    -17.1115E+06     130.982E+06    -24.6994E+06     77.6186E-03     297.275E-03    -374.893E-03    -282.230E-03     78.5362E-03     296.129E-03    -374.185E-03    -285.335E-03
              89     7.59014E-03     197.392E-03    -23.5780E+06    -1.39815E+06     117.306E+06    -30.9311E+06     72.8805E-03     306.348E-03    -379.229E-03    -359.936E-03     74.4661E-03     304.489E-03    -378.606E-03    -363.846E-03
              90     6.95543E-03     196.779E-03    -35.0998E+06    -14.6864E+06     80.5557E+06    -30.7754E+06     63.0224E-03     316.530E-03    -379.553E-03    -429.067E-03     65.2559E-03     313.802E-03    -379.078E-03    -433.564E-03
              91     6.35382E-03     196.194E-03    -45.8505E+06    -44.5966E+06     40.0559E+06    -37.0592E+06     45.5970E-03     330.746E-03    -376.343E-03    -494.451E-03     48.4932E-03     327.019E-03    -376.012E-03    -499.757E-03
              92     5.77520E-03     195.650E-03    -55.4412E+06    -48.7063E+06     21.1995E+06    -46.0140E+06     19.4014E-03     350.862E-03    -370.263E-03    -551.304E-03     22.6979E-03     346.395E-03    -370.006E-03    -557.478E-03
              93     5.21231E-03     195.150E-03    -63.2899E+06    -48.0791E+06     5.45643E+06    -53.6427E+06    -15.1085E-03     377.089E-03    -361.981E-03    -593.304E-03    -11.6780E-03     372.126E-03    -361.792E-03    -600.373E-03
              94     4.65542E-03     194.704E-03    -72.9184E+06    -53.1009E+06    -12.4084E+06    -56.7982E+06    -56.9552E-03     409.212E-03    -352.257E-03    -614.242E-03    -53.6857E-03     404.027E-03    -352.136E-03    -622.128E-03
              95     4.10168E-03     194.308E-03    -81.7049E+06    -55.6832E+06    -26.6751E+06    -58.0889E+06    -102.844E-03     444.725E-03    -341.881E-03    -608.693E-03    -100.049E-03     439.645E-03    -341.815E-03    -617.205E-03
              96     3.54292E-03     193.970E-03    -88.3662E+06    -53.4907E+06    -39.0082E+06    -57.5181E+06    -149.557E-03     481.195E-03    -331.638E-03    -574.549E-03    -147.506E-03     476.554E-03    -331.628E-03    -583.287E-03
              97     2.97770E-03     193.685E-03    -93.6522E+06    -55.4442E+06    -52.8622E+06    -55.6009E+06    -193.191E-03     515.340E-03    -322.150E-03    -513.863E-03    -191.987E-03     511.373E-03    -322.198E-03    -522.349E-03
              98     2.40039E-03     193.453E-03    -95.6188E+06    -54.2359E+06    -68.0351E+06    -50.8193E+06    -230.303E-03     544.139E-03    -313.836E-03    -432.838E-03    -229.924E-03     540.936E-03    -313.959E-03    -440.569E-03
              99     1.81269E-03     193.274E-03    -96.0725E+06    -55.1989E+06    -85.7579E+06    -41.6606E+06    -259.382E-03     566.330E-03    -306.948E-03    -335.398E-03    -259.745E-03     563.825E-03    -307.157E-03    -341.957E-03
             100     1.21760E-03     193.143E-03    -90.3635E+06    -45.2408E+06    -96.7015E+06    -32.7461E+06    -279.259E-03     581.022E-03    -301.763E-03    -227.332E-03    -280.162E-03     579.167E-03    -302.050E-03    -232.403E-03
             101     612.072E-06     193.067E-03    -81.7669E+06    -54.9651E+06    -97.3735E+06    -21.2805E+06    -285.317E-03     588.544E-03    -303.227E-03    -129.493E-03    -286.404E-03     587.204E-03    -303.515E-03    -132.262E-03
             102     16.6219E-06     191.314E-03    -142.490E+06    -112.642E+06    -142.231E+06    -12.4548E+06    -235.383E-03     475.326E-03    -239.943E-03    -46.4454E-03    -236.268E-03     474.570E-03    -240.284E-03    -47.4679E-03
             103    -5.50197E-06     189.957E-03    -247.718E+06    -176.235E+06    -241.685E+06    -14.4995E+06    -159.423E-03     313.837E-03    -154.414E-03     3.04522E-03    -160.147E-03     313.571E-03    -155.008E-03     2.52236E-03
             104     2.52535E-06     188.722E-03    -331.868E+06    -236.011E+06    -334.246E+06    -11.5343E+06    -130.044E-03     258.345E-03    -128.301E-03     19.9377E-03    -130.883E-03     258.124E-03    -129.148E-03     19.7334E-03
             105     3.11330E-06     187.508E-03    -310.376E+06    -261.879E+06    -306.999E+06     1.12760E+06    -132.608E-03     259.423E-03    -126.814E-03     30.4279E-03    -133.337E-03     259.004E-03    -127.520E-03     30.4505E-03
             106     19.7835E-09     186.271E-03    -203.241E+06    -245.835E+06    -200.509E+06     7.26316E+06    -149.049E-03     293.983E-03    -144.934E-03     33.4522E-03    -149.442E-03     293.318E-03    -145.285E-03     33.4782E-03
             107     2.89967E-06     184.972E-03    -152.503E+06    -227.003E+06    -150.759E+06     454.227E+03    -176.177E-03     349.351E-03    -173.174E-03     33.9116E-03    -176.437E-03     348.625E-03    -173.377E-03     33.6601E-03
             108    -1.49389E-06     183.584E-03    -135.149E+06    -226.636E+06    -136.043E+06    -1.11847E+06    -206.226E-03     411.374E-03    -205.148E-03     31.2035E-03    -206.426E-03     410.610E-03    -205.304E-03     30.6278E-03
             109     1.49929E-06     182.113E-03    -119.729E+06    -230.223E+06    -121.579E+06    -218.831E+03    -235.667E-03     471.311E-03    -235.644E-03     28.0381E-03    -235.812E-03     470.499E-03    -235.744E-03     26.9749E-03
             110    -1.60462E-06     180.549E-03    -118.509E+06    -236.237E+06    -119.545E+06    -1.80657E+06    -261.614E-03     523.122E-03    -261.508E-03     24.4969E-03    -261.740E-03     522.295E-03    -261.591E-03     22.8319E-03
             111     1.73651E-06     178.911E-03    -130.974E+06    -248.742E+06    -133.770E+06    -1.55814E+06    -281.327E-03     561.951E-03    -280.624E-03     21.9636E-03    -281.472E-03     561.118E-03    -280.742E-03     19.7868E-03
             112    -1.06552E-06     177.223E-03    -139.005E+06    -259.144E+06    -143.686E+06    -999.500E+03    -293.900E-03     588.734E-03    -294.834E-03     20.3182E-03    -294.055E-03     587.886E-03    -294.975E-03     17.6248E-03
             113    -990.660E-09     175.495E-03    -151.629E+06    -266.545E+06    -150.433E+06    -724.783E+03    -301.873E-03     605.122E-03    -303.249E-03     17.6153E-03    -302.067E-03     604.268E-03    -303.395E-03     14.6363E-03
             114     1.13742E-06     173.748E-03    -155.840E+06    -273.782E+06    -157.394E+06    -1.05274E+06    -307.591E-03     613.631E-03    -306.041E-03     17.2854E-03    -307.790E-03     612.764E-03    -306.205E-03     13.8932E-03
             115     683.513E-09     171.994E-03    -160.526E+06    -284.894E+06    -158.226E+06    -1.69498E+06    -308.794E-03     615.942E-03    -307.148E-03     16.5343E-03    -309.002E-03     615.029E-03    -307.293E-03     12.9394E-03
             116    -358.496E-09     170.241E-03    -156.302E+06    -293.365E+06    -159.004E+06    -1.42474E+06    -307.731E-03     614.061E-03    -306.330E-03     15.2343E-03    -307.901E-03     613.097E-03    -306.473E-03     11.7408E-03
             117     1.83279E-06     168.493E-03    -155.074E+06    -303.123E+06    -156.872E+06    -1.15876E+06    -306.392E-03     611.592E-03    -305.200E-03     15.8770E-03    -306.546E-03     610.578E-03    -305.320E-03     12.3026E-03
             118    -1.78342E-06     166.749E-03    -152.813E+06    -306.092E+06    -150.852E+06     1.05576E+06    -304.517E-03     608.882E-03    -304.365E-03     15.1057E-03    -304.661E-03     607.838E-03    -304.454E-03     11.6512E-03
             119     1.91920E-06     165.010E-03    -145.477E+06    -300.743E+06    -145.951E+06     584.399E+03    -303.268E-03     605.043E-03    -301.775E-03     14.1791E-03    -303.387E-03     604.004E-03    -301.857E-03     10.8847E-03
             120    -94.9313E-09     163.282E-03    -146.581E+06    -304.528E+06    -147.652E+06    -909.825E+03    -302.015E-03     602.159E-03    -300.144E-03     15.4599E-03    -302.135E-03     601.108E-03    -300.228E-03     12.0902E-03
             121     712.778E-09     161.550E-03    -144.936E+06    -303.580E+06    -145.238E+06     697.418E+03    -300.158E-03     600.017E-03    -299.858E-03     16.0303E-03    -300.278E-03     598.966E-03    -299.934E-03     12.6575E-03
             122    -979.412E-09     159.825E-03    -144.874E+06    -301.321E+06    -144.212E+06     17.9707E+03    -297.971E-03     597.418E-03    -299.447E-03     16.8175E-03    -298.097E-03     596.379E-03    -299.521E-03     13.4032E-03
             123    -775.259E-09     158.110E-03    -141.325E+06    -295.634E+06    -138.918E+06     1.71139E+06    -297.747E-03     596.257E-03    -298.510E-03     15.8823E-03    -297.873E-03     595.235E-03    -298.571E-03     12.3751E-03
             124     1.49551E-06     156.388E-03    -136.891E+06    -290.434E+06    -137.930E+06    -793.237E+03    -298.724E-03     595.605E-03    -296.881E-03     15.5948E-03    -298.830E-03     594.596E-03    -296.952E-03     12.3504E-03
             125     192.632E-09     154.671E-03    -137.800E+06    -290.410E+06    -140.496E+06     351.516E+03    -297.527E-03     594.539E-03    -297.012E-03     17.0185E-03    -297.635E-03     593.536E-03    -297.093E-03     13.8204E-03
             126    -1.28355E-06     152.955E-03    -144.292E+06    -286.448E+06    -139.555E+06     1.95524E+06    -296.859E-03     594.045E-03    -297.186E-03     16.0792E-03    -297.008E-03     593.072E-03    -297.259E-03     12.7717E-03
             127     1.92896E-06     151.242E-03    -136.595E+06    -281.028E+06    -140.697E+06    -318.142E+03    -297.954E-03     593.946E-03    -295.992E-03     16.1291E-03    -298.072E-03     592.992E-03    -296.090E-03     12.7280E-03
             128    -31.1037E-09     149.522E-03    -137.533E+06    -280.764E+06    -137.143E+06    -487.611E+03    -297.114E-03     593.231E-03    -296.117E-03     17.0410E-03    -297.245E-03     592.276E-03    -296.196E-03     13.6063E-03
             129    -587.402E-09     147.812E-03    -142.399E+06    -282.730E+06    -140.610E+06     252.131E+03    -296.109E-03     592.789E-03    -296.680E-03     16.2376E-03    -296.253E-03     591.833E-03    -296.767E-03     12.9826E-03
             130     406.322E-09     146.098E-03    -134.016E+06    -274.945E+06    -136.239E+06     1.61447E+06    -296.856E-03     593.093E-03    -296.237E-03     16.1952E-03    -296.976E-03     592.157E-03    -296.325E-03     12.9416E-03
             131     533.737E-09     144.379E-03    -136.336E+06    -274.285E+06    -136.578E+06    -1.27099E+06    -296.661E-03     592.419E-03    -295.758E-03     16.4095E-03    -296.794E-03     591.492E-03    -295.846E-03     13.0144E-03
             132    -317.642E-09     142.676E-03    -143.045E+06    -278.704E+06    -138.900E+06    -290.698E+03    -296.676E-03     592.332E-03    -295.655E-03     15.9934E-03    -296.835E-03     591.397E-03    -295.738E-03     12.4835E-03
             133     1.46561E-06     140.954E-03    -136.903E+06    -271.318E+06    -137.361E+06     1.49372E+06    -297.138E-03     592.120E-03    -294.983E-03     15.8695E-03    -297.275E-03     591.208E-03    -295.078E-03     12.6117E-03
             134     222.758E-09     139.246E-03    -137.077E+06    -271.350E+06    -140.833E+06    -493.764E+03    -296.062E-03     591.394E-03    -295.331E-03     16.7501E-03    -296.193E-03     590.484E-03    -295.443E-03     13.6413E-03
             135    -1.02823E-06     137.537E-03    -140.226E+06    -273.700E+06    -137.124E+06     635.211E+03    -295.842E-03     592.482E-03    -296.640E-03     15.4608E-03    -295.992E-03     591.562E-03    -296.725E-03     12.1454E-03
             136     754.633E-09     135.820E-03    -137.373E+06    -269.896E+06    -137.434E+06    -454.036E+03    -296.953E-03     593.008E-03    -296.055E-03     14.8774E-03    -297.091E-03     592.100E-03    -296.151E-03     11.6182E-03
             137     686.616E-09     134.105E-03    -136.200E+06    -269.769E+06    -140.418E+06    -149.231E+03    -296.976E-03     592.693E-03    -295.716E-03     16.7509E-03    -297.108E-03     591.792E-03    -295.830E-03     13.4755E-03
             138    -538.048E-09     132.392E-03    -140.846E+06    -268.436E+06    -139.631E+06     608.703E+03    -296.819E-03     592.710E-03    -295.891E-03     16.5018E-03    -296.978E-03     591.823E-03    -295.996E-03     13.1477E-03
             139     1.58951E-06     130.677E-03    -139.983E+06    -267.238E+06    -140.345E+06    -372.544E+03    -297.218E-03     592.348E-03    -295.130E-03     16.2142E-03    -297.372E-03     591.466E-03    -295.242E-03     12.9050E-03
             140     99.5409E-09     128.967E-03    -136.918E+06    -267.382E+06    -137.866E+06     408.075E+03    -296.837E-03     592.094E-03    -295.257E-03     15.9544E-03    -296.980E-03     591.204E-03    -295.360E-03     12.6256E-03
             141     273.659E-09     127.255E-03    -135.956E+06    -267.097E+06    -135.507E+06    -193.649E+03    -295.855E-03     592.184E-03    -296.329E-03     15.8115E-03    -295.994E-03     591.289E-03    -296.423E-03     12.5653E-03
             142    -1.32476E-06     125.539E-03    -134.527E+06    -265.665E+06    -134.301E+06     422.242E+03    -295.182E-03     591.920E-03    -296.738E-03     16.3757E-03    -295.317E-03     591.027E-03    -296.830E-03     13.1888E-03
             143     235.885E-09     123.827E-03    -138.957E+06    -266.717E+06    -136.825E+06     40.0342E+03    -295.918E-03     591.966E-03    -296.048E-03     16.7166E-03    -296.073E-03     591.080E-03    -296.144E-03     13.4294E-03
             144     637.507E-09     122.116E-03    -135.032E+06    -262.034E+06    -137.416E+06     1.05130E+06    -297.156E-03     592.641E-03    -295.485E-03     16.7121E-03    -297.301E-03     591.777E-03    -295.597E-03     13.2666E-03
             145     653.041E-09     120.400E-03    -136.579E+06    -257.087E+06    -134.016E+06    -235.787E+03    -296.905E-03     592.664E-03    -295.759E-03     16.7806E-03    -297.068E-03     591.820E-03    -295.858E-03     13.4183E-03
             146    -444.337E-09     118.688E-03    -137.012E+06    -260.052E+06    -139.674E+06    -379.198E+03    -295.918E-03     592.275E-03    -296.357E-03     16.5930E-03    -296.069E-03     591.423E-03    -296.480E-03     13.3260E-03
             147    -432.572E-09     116.976E-03    -137.947E+06    -258.355E+06    -135.307E+06     1.02413E+06    -295.940E-03     591.911E-03    -295.972E-03     15.9504E-03    -296.105E-03     591.064E-03    -296.073E-03     12.6178E-03
             148     1.24655E-06     115.263E-03    -133.925E+06    -259.487E+06    -135.691E+06    -1.37916E+06    -296.676E-03     591.903E-03    -295.227E-03     16.6533E-03    -296.820E-03     591.046E-03    -295.335E-03     13.2895E-03
             149    -190.528E-09     113.551E-03    -133.714E+06    -260.798E+06    -133.360E+06     1.28778E+06    -295.972E-03     592.373E-03    -296.401E-03     16.7368E-03    -296.115E-03     591.504E-03    -296.496E-03     13.4849E-03
             150    -1.49574E-06     111.839E-03    -133.392E+06    -257.317E+06    -131.864E+06    -129.786E+03    -295.341E-03     592.466E-03    -297.125E-03     15.5258E-03    -295.486E-03     591.609E-03    -297.218E-03     12.2893E-03
             151     765.224E-09     110.124E-03    -132.778E+06    -256.621E+06    -134.460E+06      117.92E+03    -296.140E-03     592.205E-03    -296.065E-03     16.0419E-03    -296.282E-03     591.356E-03    -296.172E-03     12.7302E-03
             152     4.20654E-09     108.411E-03    -134.651E+06    -254.448E+06    -132.867E+06      7.0355E+03    -297.019E-03     592.228E-03    -295.209E-03     16.5080E-03    -297.175E-03     591.390E-03    -295.309E-03     13.2393E-03
             153     1.60834E-06     106.698E-03    -132.321E+06    -253.732E+06    -136.643E+06    -265.585E+03    -297.086E-03     592.523E-03    -295.438E-03     16.9003E-03    -297.229E-03     591.695E-03    -295.561E-03     13.4960E-03
             154    -1.10910E-06     104.985E-03    -138.315E+06    -254.068E+06    -134.162E+06     751.039E+03    -296.043E-03     592.575E-03    -296.532E-03     16.5604E-03    -296.219E-03     591.749E-03    -296.634E-03     13.1845E-03
             155    -60.8851E-09     103.272E-03    -134.772E+06    -253.944E+06    -136.164E+06    -572.227E+03    -296.238E-03     592.438E-03    -296.200E-03     15.9722E-03    -296.391E-03     591.608E-03    -296.318E-03     12.6582E-03
             156     1.22334E-06     101.556E-03    -135.562E+06    -254.960E+06    -134.750E+06     394.063E+03    -297.128E-03     592.400E-03    -295.272E-03     16.9815E-03    -297.288E-03     591.567E-03    -295.380E-03     13.6108E-03
             157     45.5716E-09     99.8456E-03    -134.582E+06    -254.137E+06    -134.215E+06    -778.175E+03    -296.752E-03     592.024E-03    -295.272E-03     16.4086E-03    -296.911E-03     591.194E-03    -295.380E-03     12.8912E-03
             158     623.800E-09     98.1344E-03    -134.122E+06    -253.844E+06    -134.988E+06     346.902E+03    -296.468E-03     592.135E-03    -295.666E-03     16.1425E-03    -296.622E-03     591.304E-03    -295.779E-03     12.7671E-03
             159     1.26157E-06     94.7088E-03    -136.720E+06    -254.560E+06    -134.855E+06    -200.550E+03    -296.228E-03     592.091E-03    -295.863E-03     16.4328E-03    -296.394E-03     591.263E-03    -295.970E-03     13.0177E-03
             160    -1.79560E-06     92.9924E-03    -133.075E+06    -251.756E+06    -133.099E+06     757.455E+03    -295.453E-03     592.028E-03    -296.574E-03     16.8263E-03    -295.607E-03     591.204E-03    -296.682E-03     13.5207E-03
             161     772.242E-09     91.2806E-03    -132.032E+06    -249.843E+06    -131.818E+06    -221.081E+03    -296.311E-03     591.808E-03    -295.497E-03     15.7158E-03    -296.460E-03     590.986E-03    -295.602E-03     12.4901E-03
             162     1.29909E-06     89.5727E-03    -130.929E+06    -250.995E+06    -133.520E+06     305.611E+03    -298.028E-03     592.654E-03    -294.626E-03     16.0528E-03    -298.172E-03     591.831E-03    -294.740E-03     12.6938E-03
             163     1.11598E-06     87.8528E-03    -131.447E+06    -247.927E+06    -131.309E+06     169.829E+03    -297.498E-03     592.995E-03    -295.498E-03     16.3889E-03    -297.652E-03     592.185E-03    -295.604E-03     13.0252E-03
             164    -904.635E-09     86.1415E-03    -131.558E+06    -248.321E+06    -132.078E+06    -432.831E+03    -296.000E-03     592.234E-03    -296.234E-03     16.5964E-03    -296.151E-03     591.422E-03    -296.343E-03     13.3202E-03
             165     318.105E-09     84.4277E-03    -133.432E+06    -249.850E+06    -132.259E+06     629.848E+03    -295.831E-03     592.149E-03    -296.318E-03     16.2599E-03    -295.990E-03     591.333E-03    -296.424E-03     12.9490E-03
             166    -423.612E-09     82.7166E-03    -134.150E+06    -249.884E+06    -131.735E+06    -414.827E+03    -296.015E-03     592.230E-03    -296.214E-03     16.2646E-03    -296.178E-03     591.413E-03    -296.316E-03     12.9385E-03
             167     233.187E-09     81.0013E-03    -129.100E+06    -249.958E+06    -131.219E+06     342.667E+03    -296.417E-03     592.431E-03    -296.014E-03     16.5081E-03    -296.555E-03     591.605E-03    -296.120E-03     13.2460E-03
             168     423.029E-09     79.2888E-03    -129.083E+06    -248.201E+06    -130.434E+06     365.183E+03    -296.130E-03     592.421E-03    -296.290E-03     17.0805E-03    -296.273E-03     591.604E-03    -296.395E-03     13.8130E-03
             169    -1.36981E-06     77.5744E-03    -134.052E+06    -248.101E+06    -132.728E+06    -330.222E+03    -295.656E-03     591.966E-03    -296.310E-03     16.3302E-03    -295.819E-03     591.160E-03    -296.420E-03     13.0193E-03
             170     1.39967E-06     75.8656E-03    -136.320E+06    -248.421E+06    -135.429E+06     372.886E+03    -296.730E-03     592.064E-03    -295.334E-03     15.7714E-03    -296.901E-03     591.264E-03    -295.453E-03     12.4058E-03
             171     405.968E-09     74.1506E-03    -134.009E+06    -245.902E+06    -134.746E+06     17.1175E+03    -297.270E-03     592.616E-03    -295.347E-03     16.3130E-03    -297.434E-03     591.824E-03    -295.470E-03     12.9827E-03
             172     305.798E-09     72.4365E-03    -132.312E+06    -246.949E+06    -134.008E+06    -558.138E+03    -295.921E-03     592.448E-03    -296.528E-03     16.5722E-03    -296.075E-03     591.646E-03    -296.648E-03     13.3143E-03
             173    -1.90257E-06     70.7235E-03    -134.122E+06    -249.245E+06    -132.819E+06     95.2714E+03    -295.627E-03     591.963E-03    -296.336E-03     15.7022E-03    -295.787E-03     591.152E-03    -296.444E-03     12.3899E-03
             174     2.51797E-06     69.0128E-03    -131.419E+06    -248.004E+06    -133.186E+06    -130.607E+03    -297.416E-03     592.397E-03    -294.981E-03     15.9721E-03    -297.565E-03     591.589E-03    -295.097E-03     12.5823E-03
             175     64.3292E-09     67.2964E-03    -133.510E+06    -246.598E+06    -131.878E+06    -14.9423E+03    -296.753E-03     592.354E-03    -295.602E-03     17.1540E-03    -296.918E-03     591.555E-03    -295.710E-03     13.8397E-03
             176    -1.15787E-06     65.5839E-03    -134.246E+06    -247.711E+06    -132.795E+06     113.747E+03    -295.336E-03     591.712E-03    -296.377E-03     16.4047E-03    -295.500E-03     590.908E-03    -296.487E-03     13.1471E-03
             177     815.076E-09     63.8748E-03    -132.018E+06    -246.747E+06    -133.000E+06     350.969E+03    -296.272E-03     591.917E-03    -295.645E-03     16.1416E-03    -296.428E-03     591.115E-03    -295.761E-03     12.7810E-03
             178     313.116E-09     62.1585E-03    -132.026E+06    -246.014E+06    -133.183E+06    -8.52744E+03    -296.646E-03     591.887E-03    -295.241E-03     16.4689E-03    -296.803E-03     591.089E-03    -295.359E-03     13.1521E-03
             179     376.748E-09     60.4489E-03    -133.502E+06    -245.912E+06    -132.400E+06     4.78094E+03    -296.140E-03     591.624E-03    -295.483E-03     16.7454E-03    -296.307E-03     590.829E-03    -295.595E-03     13.3629E-03
             180    -231.753E-09     58.7360E-03    -134.492E+06    -246.977E+06    -133.831E+06    -191.784E+03    -296.117E-03     591.971E-03    -295.854E-03     16.0493E-03    -296.284E-03     591.173E-03    -295.970E-03     12.7241E-03
             181     399.100E-09     57.0255E-03    -129.334E+06    -244.821E+06    -132.994E+06     566.280E+03    -295.942E-03     591.871E-03    -295.929E-03     15.6696E-03    -296.085E-03     591.073E-03    -296.051E-03     12.3994E-03
             182    -623.410E-09     55.3098E-03    -133.612E+06    -244.369E+06    -130.063E+06    -375.811E+03    -295.569E-03     591.199E-03    -295.630E-03     16.3050E-03    -295.740E-03     590.406E-03    -295.732E-03     13.0174E-03
             183     745.997E-09     53.6011E-03    -131.700E+06    -247.090E+06    -134.697E+06    -491.754E+03    -295.125E-03     590.706E-03    -295.581E-03     16.5025E-03    -295.274E-03     589.903E-03    -295.706E-03     13.2582E-03
             184    -1.56324E-06     51.8913E-03    -134.117E+06    -246.956E+06    -132.213E+06     525.052E+03    -295.357E-03     590.868E-03    -295.510E-03     15.9527E-03    -295.523E-03     590.067E-03    -295.619E-03     12.6179E-03
             185     2.14671E-06     50.1800E-03    -131.843E+06    -246.219E+06    -133.506E+06    -162.751E+03    -295.822E-03     591.202E-03    -295.381E-03     16.0598E-03    -295.975E-03     590.405E-03    -295.500E-03     12.7231E-03
             186    -2.20149E-06     48.4690E-03    -132.680E+06    -244.857E+06    -130.652E+06     455.818E+03    -295.109E-03     590.678E-03    -295.569E-03     16.6252E-03    -295.274E-03     589.886E-03    -295.675E-03     13.2769E-03
             187     1.60266E-06     46.7552E-03    -132.324E+06    -246.402E+06    -132.720E+06    -954.771E+03    -295.512E-03     590.624E-03    -295.113E-03     17.8533E-03    -295.673E-03     589.830E-03    -295.227E-03     14.4214E-03
             188    -544.711E-09     45.0472E-03    -131.930E+06    -245.352E+06    -132.200E+06     1.26015E+06    -295.316E-03     590.445E-03    -295.129E-03     17.2847E-03    -295.477E-03     589.652E-03    -295.243E-03     13.9363E-03
             189    -331.565E-09     43.3401E-03    -131.551E+06    -242.417E+06    -130.590E+06    -471.209E+03    -294.438E-03     589.296E-03    -294.858E-03     15.0549E-03    -294.599E-03     588.509E-03    -294.969E-03     11.7765E-03
             190     621.019E-09     41.6342E-03    -132.801E+06    -245.832E+06    -134.550E+06    -81.6005E+03    -294.682E-03     588.684E-03    -294.002E-03     15.0594E-03    -294.837E-03     587.887E-03    -294.126E-03     11.8101E-03
             191    -49.2032E-09     39.9253E-03    -132.681E+06    -242.862E+06    -132.490E+06     840.015E+03    -293.633E-03     588.138E-03    -294.505E-03     15.8765E-03    -293.796E-03     587.354E-03    -294.623E-03     12.6375E-03
             192    -1.73715E-06     38.2206E-03    -131.470E+06    -241.697E+06    -132.436E+06    -795.140E+03    -293.574E-03     587.648E-03    -294.075E-03     15.5749E-03    -293.733E-03     586.871E-03    -294.196E-03     12.2158E-03
             193     2.80524E-06     36.5145E-03    -133.865E+06    -243.239E+06    -132.985E+06     170.297E+03    -294.312E-03     587.162E-03    -292.850E-03     16.0863E-03    -294.481E-03     586.383E-03    -292.968E-03     12.7348E-03
             194    -1.95084E-06     34.8115E-03    -132.854E+06    -240.602E+06    -132.569E+06     519.600E+03    -294.058E-03     586.353E-03    -292.296E-03     15.5004E-03    -294.221E-03     585.581E-03    -292.417E-03     12.3683E-03
             195     3.41650E-06     33.1104E-03    -130.064E+06    -238.797E+06    -132.381E+06     645.706E+03    -294.263E-03     585.726E-03    -291.462E-03     14.9177E-03    -294.413E-03     584.955E-03    -291.589E-03     11.8719E-03
             196    -1.18293E-06     31.4081E-03    -130.539E+06    -237.660E+06    -130.545E+06    -401.976E+03    -292.275E-03     584.761E-03    -292.486E-03     15.9447E-03    -292.435E-03     583.996E-03    -292.604E-03     12.8129E-03
             197    -1.38719E-06     29.7094E-03    -132.885E+06    -238.239E+06    -129.512E+06     286.267E+03    -290.785E-03     582.938E-03    -292.152E-03     13.9801E-03    -290.955E-03     582.168E-03    -292.262E-03     10.8784E-03
             198     2.12563E-06     28.0141E-03    -128.585E+06    -236.489E+06    -131.157E+06     473.054E+03    -290.668E-03     580.354E-03    -289.686E-03     13.9928E-03    -290.814E-03     579.588E-03    -289.813E-03     11.0073E-03
             199    -1.59344E-06     26.3256E-03    -127.684E+06    -233.418E+06    -126.439E+06     512.914E+03    -288.226E-03     577.405E-03    -289.179E-03     13.6691E-03    -288.378E-03     576.645E-03    -289.288E-03     10.6964E-03
             200    -242.533E-09     24.6402E-03    -124.132E+06    -230.423E+06    -124.983E+06    -124.291E+03    -286.342E-03     573.402E-03    -287.060E-03     11.8635E-03    -286.478E-03     572.643E-03    -287.170E-03     9.09470E-03
             201     1.09612E-06     22.9617E-03    -123.376E+06    -230.767E+06    -125.057E+06    -151.581E+03    -283.503E-03     567.386E-03    -283.883E-03     12.3933E-03    -283.631E-03     566.621E-03    -283.995E-03     9.84587E-03
             202    -2.50748E-06     21.2987E-03    -126.888E+06    -230.442E+06    -124.709E+06     582.864E+03    -278.289E-03     558.746E-03    -280.457E-03     10.4508E-03    -278.432E-03     557.983E-03    -280.562E-03     8.04935E-03
             203     983.537E-09     19.6506E-03    -124.070E+06    -226.338E+06    -124.785E+06     435.197E+03    -273.304E-03     547.092E-03    -273.789E-03     8.27779E-03    -273.435E-03     546.340E-03    -273.905E-03     6.08851E-03
             204    -103.281E-09     18.0249E-03    -124.976E+06    -227.009E+06    -125.446E+06    -408.759E+03    -266.353E-03     532.310E-03    -265.957E-03     7.72359E-03    -266.487E-03     531.554E-03    -266.073E-03     5.67189E-03
             205    -215.510E-09     16.4241E-03    -123.107E+06    -225.011E+06    -123.187E+06     1.03573E+06    -256.963E-03     514.754E-03    -257.791E-03     6.25821E-03    -257.091E-03     513.997E-03    -257.902E-03     4.47292E-03
             206    -586.008E-09     14.8562E-03    -118.308E+06    -221.800E+06    -117.901E+06     -94.837E+03    -247.035E-03     495.004E-03    -247.968E-03     4.24231E-03    -247.147E-03     494.242E-03    -248.065E-03     2.75176E-03
             207     126.007E-09     13.3180E-03    -118.752E+06    -225.902E+06    -119.596E+06    -672.247E+03    -237.215E-03     474.221E-03    -237.006E-03     2.49709E-03    -237.317E-03     473.440E-03    -237.105E-03     1.20883E-03
             208     675.403E-09     11.8151E-03    -120.922E+06    -222.871E+06    -120.823E+06     1.37593E+06    -226.496E-03     453.547E-03    -227.052E-03     2.04818E-03    -226.611E-03     452.787E-03    -227.157E-03     863.756E-06
             209    -2.24715E-06     10.3365E-03    -117.840E+06    -212.506E+06    -117.142E+06     1.76611E+06    -216.016E-03     432.860E-03    -216.843E-03     172.370E-06    -216.134E-03     432.140E-03    -216.950E-03    -894.719E-06
             210     2.68073E-06     8.89571E-03    -111.320E+06    -203.698E+06    -111.535E+06     1.30385E+06    -207.296E-03     414.819E-03    -207.523E-03     1.37601E-03    -207.400E-03     414.130E-03    -207.624E-03     342.256E-06
             211    -3.42614E-06     7.46867E-03    -106.966E+06    -196.585E+06    -106.789E+06     714.016E+03    -203.530E-03     407.878E-03    -204.349E-03     3.84709E-03    -203.630E-03     407.215E-03    -204.442E-03     2.76936E-03
             212     2.97687E-06     6.05308E-03    -113.792E+06    -196.217E+06    -112.154E+06    -664.373E+03    -209.551E-03     418.918E-03    -209.366E-03     6.96120E-03    -209.684E-03     418.272E-03    -209.478E-03     5.89860E-03
             213    -2.21720E-06     4.58908E-03    -116.477E+06    -205.993E+06    -115.868E+06    -2.22887E+06    -221.611E-03     442.981E-03    -221.369E-03     9.45052E-03    -221.741E-03     442.291E-03    -221.481E-03     8.49420E-03
             214     1.85618E-06     3.09815E-03    -91.6893E+06    -213.439E+06    -92.3712E+06    -5.73869E+03    -235.348E-03     470.456E-03    -235.109E-03     8.63540E-03    -235.372E-03     469.656E-03    -235.128E-03     7.91402E-03
             215    -1.14171E-06     1.55851E-03    -68.2744E+06    -209.351E+06    -67.8389E+06     1.33941E+06    -245.785E-03     491.066E-03    -245.281E-03     4.32043E-03    -245.726E-03     490.216E-03    -245.218E-03     3.93428E-03
             216     701.490E-06     9.46465E-15    -62.6498E+06    -200.898E+06    -61.2151E+06     1.22854E+06    -249.059E-03     498.062E-03    -249.003E-03     2.68309E-03    -248.991E-03     497.237E-03    -248.927E-03     2.37097E-03
             217     1.39972E-03     9.46465E-15    -62.3943E+06    -190.450E+06    -59.0202E+06     1.71411E+06    -248.874E-03     497.881E-03    -249.007E-03     7.20143E-03    -248.829E-03     497.108E-03    -248.936E-03     6.55187E-03
             218     2.10184E-03     9.46465E-15    -61.9247E+06    -174.959E+06    -55.4725E+06     1.31787E+06    -248.549E-03     497.475E-03    -248.926E-03     10.3354E-03    -248.534E-03     496.779E-03    -248.860E-03     9.32177E-03
             219     2.80212E-03     9.46465E-15    -60.0007E+06    -152.910E+06    -49.7358E+06    -333.482E+03    -248.442E-03     497.275E-03    -248.833E-03     13.7180E-03    -248.466E-03     496.685E-03    -248.773E-03     12.3542E-03
             220     3.50262E-03     9.46465E-15    -55.9784E+06    -119.910E+06    -40.8682E+06    -2.16112E+06    -248.131E-03     496.876E-03    -248.744E-03     17.9923E-03    -248.206E-03     496.443E-03    -248.693E-03     16.2624E-03
             221     4.20287E-03     9.46465E-15    -49.4129E+06    -76.2667E+06    -29.5117E+06    -5.18672E+06    -247.760E-03     496.391E-03    -248.631E-03     21.7365E-03    -247.893E-03     496.163E-03    -248.596E-03     19.6373E-03
             222     4.90561E-03     9.46465E-15    -40.6573E+06    -41.1213E+06    -16.7793E+06    -6.12456E+06    -248.041E-03     496.602E-03    -248.560E-03     24.6907E-03    -248.214E-03     496.531E-03    -248.525E-03     22.2404E-03
             223     5.60534E-03     9.46465E-15    -32.4838E+06    -25.8665E+06    -5.93898E+06    -4.40021E+06    -249.034E-03     497.644E-03    -248.610E-03     28.3920E-03    -249.222E-03     497.641E-03    -248.555E-03     25.5472E-03
             224     6.30535E-03     9.46465E-15    -27.0142E+06    -19.1396E+06     1.92656E+06    -1.49533E+06    -250.688E-03     499.492E-03    -248.804E-03     31.8744E-03    -250.890E-03     499.524E-03    -248.727E-03     28.6796E-03
             225     7.00454E-03     9.46465E-15    -23.8338E+06    -13.6797E+06     10.2365E+06     2.05524E+06    -253.529E-03     502.724E-03    -249.195E-03     34.4632E-03    -253.757E-03     502.788E-03    -249.089E-03     30.8902E-03
             226     7.70094E-03     9.46465E-15    -22.8636E+06    -9.33874E+06     19.4485E+06     3.43670E+06    -257.761E-03     507.611E-03    -249.849E-03     37.0696E-03    -258.027E-03     507.705E-03    -249.706E-03     33.0548E-03
             227     8.39376E-03     9.46465E-15    -22.0007E+06    -3.90809E+06     32.7651E+06     3.10824E+06    -264.010E-03     514.864E-03    -250.854E-03     41.7223E-03    -264.344E-03     515.011E-03    -250.653E-03     36.9270E-03
             228     9.08050E-03     9.46465E-15    -19.8567E+06     2.63139E+06     47.9965E+06     1.78381E+06    -273.161E-03     525.464E-03    -252.303E-03     45.2617E-03    -273.564E-03     525.669E-03    -252.038E-03     39.5293E-03
             229     9.76386E-03     9.46465E-15    -15.9950E+06     8.45427E+06     57.4895E+06     147.944E+03    -287.467E-03     541.804E-03    -254.337E-03     48.0901E-03    -287.937E-03     542.086E-03    -254.039E-03     41.0610E-03
             230     10.4333E-03     9.46465E-15    -12.2251E+06     16.1725E+06     62.0491E+06    -1.59253E+06    -310.456E-03     567.721E-03    -257.265E-03     51.9141E-03    -311.011E-03     568.120E-03    -256.961E-03     43.0422E-03
             231     11.0859E-03     9.46465E-15    -9.42804E+06     26.7705E+06     66.6817E+06    -396.335E+03    -346.773E-03     608.330E-03    -261.557E-03     65.5566E-03    -347.536E-03     608.981E-03    -261.249E-03     53.8218E-03
             232     11.7000E-03     9.46465E-15    -8.71366E+06     38.9641E+06     70.2420E+06     1.18789E+06    -404.106E-03     671.935E-03    -267.829E-03     84.8622E-03    -405.306E-03     673.090E-03    -267.521E-03     67.2173E-03
             233     12.2925E-03     9.46465E-15    -11.3394E+06     49.6730E+06     69.9979E+06     1.50111E+06    -495.534E-03     772.486E-03    -276.953E-03     84.4684E-03    -497.066E-03     774.069E-03    -276.658E-03     58.4945E-03
             234     12.8308E-03     9.46465E-15    -2.58950E+06     70.9234E+06     80.7953E+06     6.55491E+06    -628.429E-03     918.208E-03    -289.779E-03     156.529E-03    -632.735E-03     922.593E-03    -289.474E-03     111.094E-03
             235     13.3608E-03     2.84639E-03    -1.95430E+06     76.9554E+06     72.1605E+06    -2.40471E+06    -587.779E-03     883.601E-03    -295.822E-03     220.739E-03    -595.980E-03     891.810E-03    -295.570E-03     158.806E-03
             236     13.3561E-03     4.75332E-03    -6.81908E+06     64.5638E+06     60.1857E+06    -5.97816E+06    -440.154E-03     734.978E-03    -294.824E-03     177.129E-03    -447.605E-03     742.411E-03    -294.606E-03     121.625E-03
             237     13.3762E-03     6.63830E-03    -1.05973E+06     64.0199E+06     71.4608E+06     459.599E+03    -389.035E-03     684.365E-03    -295.330E-03     143.662E-03    -394.778E-03     690.113E-03    -295.064E-03     96.8758E-03
             238     13.3742E-03     8.46146E-03    -2.96355E+06     60.4062E+06     73.4818E+06    -1.73525E+06    -363.507E-03     658.964E-03    -295.457E-03     132.517E-03    -369.079E-03     664.524E-03    -295.173E-03     88.0422E-03
             239     13.3825E-03     10.2877E-03    -1.62794E+06     59.3208E+06     75.9145E+06     482.673E+03    -351.844E-03     647.219E-03    -295.375E-03     126.353E-03    -356.863E-03     652.221E-03    -295.079E-03     84.5629E-03
             240     13.3876E-03     12.0779E-03    -1.71348E+06     61.5208E+06     76.9409E+06     533.878E+03    -340.807E-03     636.168E-03    -295.361E-03     114.368E-03    -345.312E-03     640.662E-03    -295.063E-03     75.1893E-03
             241     13.3834E-03     13.8648E-03    -3.57149E+06     58.1922E+06     75.6630E+06    -1.37198E+06    -329.704E-03     625.321E-03    -295.617E-03     104.844E-03    -333.866E-03     629.457E-03    -295.317E-03     67.7241E-03
             242     13.3872E-03     15.6162E-03     -877.01E+03     55.5598E+06     75.8137E+06    -725.340E+03    -317.009E-03     612.893E-03    -295.885E-03     100.201E-03    -320.948E-03     616.806E-03    -295.585E-03     65.0190E-03
             243     13.3864E-03     17.3527E-03    -1.30531E+06     54.2473E+06     75.9156E+06    -203.981E+03    -307.705E-03     603.814E-03    -296.109E-03     89.8398E-03    -311.300E-03     607.377E-03    -295.806E-03     56.6785E-03
             244     13.3846E-03     19.0796E-03    -2.05372E+06     52.9592E+06     76.5259E+06    -277.991E+03    -301.198E-03     597.564E-03    -296.366E-03     84.5687E-03    -304.599E-03     600.924E-03    -296.057E-03     52.8311E-03
             245     13.3844E-03     20.7978E-03    -1.27925E+06     52.8603E+06     75.4181E+06     650.257E+03    -295.646E-03     592.128E-03    -296.482E-03     82.2104E-03    -298.919E-03     595.366E-03    -296.179E-03     51.4943E-03
             246     13.3877E-03     22.5030E-03    -1.81092E+06     48.7779E+06     75.5715E+06    -2.00471E+06    -294.333E-03     590.778E-03    -296.446E-03     78.7167E-03    -297.496E-03     593.889E-03    -296.136E-03     48.3545E-03
             247     13.3853E-03     24.2220E-03    -1.81581E+06     42.2129E+06     77.2554E+06    -921.637E+03    -295.572E-03     592.007E-03    -296.435E-03     75.3279E-03    -298.619E-03     594.973E-03    -296.107E-03     45.2467E-03
             248     13.3866E-03     25.9419E-03    -2.72972E+06     44.8122E+06     75.4503E+06     2.28906E+06    -294.556E-03     590.981E-03    -296.424E-03     77.7716E-03    -297.637E-03     593.993E-03    -296.108E-03     47.8768E-03
             249     13.3879E-03     27.6536E-03    -2.49567E+06     49.5494E+06     75.2695E+06    -53.1076E+03    -294.364E-03     590.692E-03    -296.328E-03     78.5211E-03    -297.477E-03     593.754E-03    -296.019E-03     48.4297E-03
             250     13.3889E-03     29.3683E-03    -1.40395E+06     48.8709E+06     77.7072E+06    -348.353E+03    -295.585E-03     591.812E-03    -296.227E-03     76.1099E-03    -298.661E-03     594.831E-03    -295.907E-03     45.8504E-03
             251     13.3896E-03     31.0864E-03    -1.74612E+06     50.8767E+06     76.2026E+06     651.091E+03    -295.534E-03     591.688E-03    -296.154E-03     75.1706E-03    -298.585E-03     594.692E-03    -295.845E-03     45.0026E-03
             252     13.3905E-03     32.8040E-03    -2.25863E+06     52.8304E+06     76.0837E+06     169.633E+03    -295.417E-03     591.524E-03    -296.107E-03     76.1531E-03    -298.481E-03     594.547E-03    -295.800E-03     46.0535E-03
             253     13.3906E-03     34.5215E-03    -1.84752E+06     53.6212E+06      77.806E+06     482.676E+03    -296.251E-03     592.317E-03    -296.067E-03     77.1889E-03    -299.331E-03     595.356E-03    -295.753E-03     47.0541E-03
             254     13.3909E-03     36.2427E-03    -2.15904E+06     53.0986E+06      76.618E+06     191.932E+03    -296.046E-03     592.106E-03    -296.059E-03     76.4093E-03    -299.115E-03     595.133E-03    -295.750E-03     46.2353E-03
             255     13.3906E-03     37.9558E-03    -2.36117E+06     49.1970E+06     77.1777E+06    -1.54410E+06    -295.032E-03     591.089E-03    -296.057E-03     76.8302E-03    -298.131E-03     594.131E-03    -295.739E-03     46.5247E-03
             256     13.3928E-03     39.6706E-03    -1.69828E+06     46.6453E+06     77.7116E+06    -396.379E+03    -295.574E-03     591.608E-03    -296.035E-03     75.5267E-03    -298.625E-03     594.594E-03    -295.711E-03     45.3974E-03
             257     13.3894E-03     41.3932E-03    -2.64656E+06     46.5350E+06     77.3170E+06     682.247E+03    -295.154E-03     591.233E-03    -296.079E-03     75.3815E-03    -298.190E-03     594.201E-03    -295.756E-03     45.4106E-03
             258     13.3922E-03     43.1037E-03    -1.70362E+06     47.3699E+06     77.2910E+06     71.0790E+03    -293.933E-03     589.989E-03    -296.056E-03     77.5199E-03    -297.043E-03     593.037E-03    -295.736E-03     47.3270E-03
             259     13.3927E-03     44.8143E-03    -1.84648E+06     47.5786E+06     77.3536E+06    -659.487E+03    -294.678E-03     590.661E-03    -295.983E-03     74.1837E-03    -297.733E-03     593.654E-03    -295.663E-03     43.9480E-03
             260     13.3916E-03     46.5360E-03    -1.49315E+06     44.9329E+06     77.3488E+06    -958.350E+03    -294.795E-03     590.801E-03    -296.006E-03     74.8260E-03    -297.837E-03     593.772E-03    -295.682E-03     44.7171E-03
             261     13.3923E-03     48.2504E-03    -2.83674E+06     39.9012E+06     75.0769E+06    -621.323E+03    -294.286E-03     590.319E-03    -296.033E-03     77.0706E-03    -297.355E-03     593.301E-03    -295.711E-03     47.0623E-03
             262     13.3912E-03     49.9650E-03    -2.47257E+06     36.2276E+06     76.2113E+06    -278.849E+03    -294.579E-03     590.631E-03    -296.052E-03     76.7006E-03    -297.637E-03     593.588E-03    -295.719E-03     46.6867E-03
             263     13.3918E-03     51.6794E-03    -1.55943E+06     37.0859E+06     77.2487E+06     839.286E+03    -293.969E-03     590.040E-03    -296.070E-03     75.2039E-03    -296.994E-03     592.967E-03    -295.735E-03     45.2988E-03
             264     13.3917E-03     53.3892E-03    -1.17237E+06     40.7873E+06     76.8974E+06     754.721E+03    -292.850E-03     588.914E-03    -296.064E-03     74.6008E-03    -295.861E-03     591.843E-03    -295.737E-03     44.8199E-03
             265     13.3928E-03     55.1032E-03    -1.97412E+06     44.1848E+06     76.8758E+06     632.714E+03    -293.599E-03     589.624E-03    -296.025E-03     75.9261E-03    -296.666E-03     592.618E-03    -295.702E-03     45.9137E-03
             266     13.3915E-03     56.8186E-03    -2.41947E+06     47.8042E+06     77.4152E+06     291.692E+03    -294.027E-03     590.033E-03    -296.006E-03     75.2267E-03    -297.107E-03     593.050E-03    -295.685E-03     45.0701E-03
             267     13.3932E-03     58.5304E-03    -1.04552E+06     47.4155E+06     78.3971E+06    -665.984E+03    -293.346E-03     589.365E-03    -296.019E-03     75.1746E-03    -296.420E-03     592.376E-03    -295.695E-03     45.0443E-03
             268     13.3916E-03     60.2442E-03    -1.87912E+06     45.5961E+06     78.1552E+06     146.384E+03    -294.150E-03     590.154E-03    -296.005E-03     75.6042E-03    -297.209E-03     593.142E-03    -295.677E-03     45.5704E-03
             269     13.3930E-03     61.9596E-03    -2.37186E+06     49.2935E+06     78.1843E+06     1.10258E+06    -294.455E-03     590.461E-03    -296.006E-03     74.9365E-03    -297.512E-03     593.458E-03    -295.683E-03     44.9287E-03
             270     13.3910E-03     63.6758E-03    -2.17305E+06     53.5538E+06     78.6170E+06     537.072E+03    -293.209E-03     589.254E-03    -296.045E-03     75.8104E-03    -296.308E-03     592.308E-03    -295.727E-03     45.7709E-03
             271     13.3930E-03     65.3857E-03    -2.63726E+06     52.5991E+06     75.6299E+06    -798.503E+03    -293.673E-03     589.707E-03    -296.034E-03     77.2792E-03    -296.800E-03     592.793E-03    -295.729E-03     47.1162E-03
             272     13.3903E-03     67.1030E-03     -1.9666E+06     50.1192E+06     76.5231E+06    -454.831E+03    -293.651E-03     589.697E-03    -296.045E-03     75.8830E-03    -296.734E-03     592.729E-03    -295.733E-03     45.8305E-03
             273     13.3935E-03     68.8129E-03    -1.60178E+06     50.6309E+06     77.8410E+06     562.444E+03    -291.975E-03     588.050E-03    -296.076E-03     76.5561E-03    -295.070E-03     591.094E-03    -295.758E-03     46.6886E-03
             274     13.3908E-03     70.5245E-03    -1.97357E+06     53.7097E+06     78.4106E+06     1.17678E+06    -293.546E-03     589.579E-03    -296.033E-03     77.5083E-03    -296.667E-03     592.656E-03    -295.716E-03     47.4537E-03
             275     13.3930E-03     72.2375E-03    -2.82193E+06     53.4539E+06     80.8834E+06    -527.338E+03    -294.535E-03     590.558E-03    -296.023E-03     74.7852E-03    -297.560E-03     593.528E-03    -295.692E-03     44.9909E-03
             276     13.3912E-03     73.9553E-03    -1.89389E+06     46.3077E+06     79.8864E+06    -1.64822E+06    -292.774E-03     588.852E-03    -296.078E-03     74.5414E-03    -295.788E-03     591.793E-03    -295.743E-03     44.8428E-03
             277     13.3923E-03     75.6610E-03    -1.30882E+06     42.7319E+06     78.5536E+06     69.8135E+03    -293.087E-03     589.165E-03    -296.078E-03     76.0799E-03    -296.157E-03     592.154E-03    -295.745E-03     46.1051E-03
             278     13.3914E-03     77.3783E-03    -2.31375E+06     45.3830E+06     77.0721E+06     849.509E+03    -294.057E-03     590.107E-03    -296.050E-03     74.1282E-03    -297.071E-03     593.050E-03    -295.727E-03     44.2797E-03
             279     13.3918E-03     79.0903E-03    -1.90134E+06     49.4886E+06     76.7449E+06     552.199E+03    -293.130E-03     589.202E-03    -296.071E-03     73.2175E-03    -296.135E-03     592.152E-03    -295.757E-03     43.4022E-03
             280     13.3916E-03     80.8001E-03    -2.08681E+06     51.2953E+06     78.8583E+06    -735.968E+03    -292.859E-03     588.922E-03    -296.062E-03     74.8830E-03    -295.914E-03     591.922E-03    -295.740E-03     44.9648E-03
             281     13.3929E-03     82.5181E-03    -1.54396E+06     49.1766E+06     78.1062E+06    -250.378E+03    -293.703E-03     589.714E-03    -296.011E-03     76.4024E-03    -296.762E-03     592.716E-03    -295.690E-03     46.5293E-03
             282     13.3920E-03     84.2324E-03    -3.25417E+06     48.1102E+06     76.3946E+06    -94.9185E+03    -294.047E-03     590.069E-03    -296.022E-03     76.3371E-03    -297.136E-03     593.095E-03    -295.705E-03     46.2828E-03
             283     13.3911E-03     85.9454E-03    -1.99107E+06     48.8308E+06     79.0795E+06    -204.606E+03    -293.430E-03     589.474E-03    -296.044E-03     76.5044E-03    -296.514E-03     592.495E-03    -295.717E-03     46.5651E-03
             284     13.3940E-03     87.6548E-03    -1.01610E+06     48.6267E+06     79.1839E+06     474.445E+03    -292.870E-03     588.899E-03    -296.029E-03     74.7429E-03    -295.878E-03     591.846E-03    -295.702E-03     45.1217E-03
             285     13.3906E-03     89.3706E-03    -2.36399E+06     47.2177E+06     78.0100E+06     102.309E+03    -293.478E-03     589.536E-03    -296.058E-03     74.0509E-03    -296.489E-03     592.480E-03    -295.732E-03     44.2966E-03
             286     13.3920E-03     91.0802E-03    -2.12232E+06     47.6256E+06     79.5947E+06     61.7133E+03    -293.611E-03     589.675E-03    -296.065E-03     75.3222E-03    -296.648E-03     592.644E-03    -295.733E-03     45.5145E-03
             287     13.3925E-03     92.7966E-03    -2.34664E+06     50.6767E+06     78.9641E+06     984.713E+03    -292.803E-03     588.849E-03    -296.046E-03     74.9884E-03    -295.839E-03     591.827E-03    -295.721E-03     45.2755E-03
             288     13.3918E-03     94.5093E-03    -1.56472E+06     54.3231E+06     79.7570E+06     117.680E+03    -292.317E-03     588.378E-03    -296.061E-03     75.1892E-03    -295.390E-03     591.408E-03    -295.739E-03     45.2740E-03
             289     13.3924E-03     96.2124E-03    -1.81632E+06     54.1194E+06     79.4490E+06    -576.552E+03    -293.669E-03     589.687E-03    -296.018E-03     73.8418E-03    -296.679E-03     592.652E-03    -295.697E-03     44.0578E-03
             290     13.3924E-03     97.9340E-03    -2.22371E+06     53.7465E+06     78.8561E+06     553.411E+03    -294.496E-03     590.487E-03    -295.991E-03     72.8756E-03    -297.453E-03     593.399E-03    -295.672E-03     43.3096E-03
             291     13.3920E-03     99.6498E-03    -2.47599E+06     53.7780E+06     80.0328E+06     43.1409E+03    -293.900E-03     589.929E-03    -296.029E-03     75.2071E-03    -296.945E-03     592.924E-03    -295.703E-03     45.3797E-03
             292     669.589E-06     98.1564E-03    -133.337E+06    -249.225E+06    -131.699E+06     264.345E+03    -296.401E-03     592.279E-03    -295.878E-03     27.2870E-03    -296.665E-03     591.567E-03    -295.982E-03     21.8271E-03
             293     1.33891E-03     98.2129E-03    -130.285E+06    -235.896E+06    -122.075E+06     133.020E+03    -296.493E-03     592.609E-03    -296.116E-03     50.3981E-03    -297.093E-03     592.263E-03    -296.196E-03     40.3541E-03
             294     2.00770E-03     98.3048E-03    -125.085E+06    -215.748E+06    -107.068E+06     151.402E+03    -296.739E-03     592.891E-03    -296.151E-03     74.2775E-03    -297.898E-03     593.150E-03    -296.192E-03     59.2974E-03
             295     2.67742E-03     98.4319E-03    -118.195E+06    -196.576E+06    -88.0624E+06     120.638E+03    -297.087E-03     593.256E-03    -296.169E-03     98.2692E-03    -299.033E-03     594.340E-03    -296.152E-03     78.2071E-03
             296     3.34687E-03     98.5935E-03    -110.027E+06    -167.403E+06    -67.7389E+06     283.854E+03    -297.632E-03     593.801E-03    -296.169E-03     122.297E-03    -300.617E-03     595.997E-03    -296.105E-03     96.9697E-03
             297     4.01616E-03     98.7910E-03    -101.125E+06    -128.633E+06    -46.4364E+06     730.074E+03    -298.169E-03     594.330E-03    -296.161E-03     145.902E-03    -302.446E-03     597.926E-03    -296.060E-03     115.254E-03
             298     4.68570E-03     99.0216E-03    -91.7981E+06    -91.1761E+06    -24.4362E+06     404.089E+03    -298.825E-03     594.987E-03    -296.161E-03     169.232E-03    -304.658E-03     600.241E-03    -296.018E-03     133.076E-03
             299     5.35525E-03     99.2868E-03    -82.8928E+06    -52.0489E+06    -4.54197E+06     31.1128E+03    -299.586E-03     595.752E-03    -296.166E-03     191.897E-03    -307.220E-03     602.920E-03    -295.993E-03     150.193E-03
             300     6.02521E-03     99.5846E-03    -73.6980E+06    -26.5178E+06     12.8368E+06     179.032E+03    -300.202E-03     596.390E-03    -296.188E-03     213.668E-03    -309.831E-03     605.626E-03    -295.979E-03     166.521E-03
             301     6.69435E-03     99.9119E-03    -63.9470E+06    -14.6864E+06     25.2907E+06     480.365E+03    -300.586E-03     596.786E-03    -296.200E-03     233.678E-03    -312.309E-03     608.157E-03    -295.960E-03     181.378E-03
             302     7.36327E-03     100.266E-03    -54.5564E+06    -1.07523E+06     36.5355E+06     1.21686E+06    -300.692E-03     596.885E-03    -296.192E-03     250.151E-03    -314.423E-03     610.312E-03    -295.929E-03     193.415E-03
             303     8.03396E-03     100.639E-03    -46.8980E+06     6.55706E+06     46.5813E+06     1.35852E+06    -300.720E-03     596.910E-03    -296.190E-03     261.601E-03    -316.119E-03     612.030E-03    -295.898E-03     201.429E-03
             304     8.70288E-03     101.026E-03    -40.2345E+06     8.68449E+06     54.7443E+06     318.631E+03    -300.403E-03     596.602E-03    -296.199E-03     267.216E-03    -316.939E-03     612.868E-03    -295.880E-03     204.787E-03
             305     9.37222E-03     101.412E-03    -32.7497E+06     19.1885E+06     64.7031E+06    -82.4407E+03    -299.025E-03     595.217E-03    -296.192E-03     266.007E-03    -315.957E-03     611.913E-03    -295.848E-03     202.902E-03
             306     10.0437E-03     101.784E-03    -25.5370E+06     28.2354E+06     71.2448E+06     424.437E+03    -297.559E-03     593.708E-03    -296.150E-03     256.368E-03    -314.017E-03     609.969E-03    -295.797E-03     194.013E-03
             307     10.7155E-03     102.137E-03    -19.3767E+06     31.5498E+06     71.1518E+06    -39.9349E+03    -296.809E-03     592.918E-03    -296.110E-03     240.380E-03    -312.091E-03     608.038E-03    -295.772E-03     179.762E-03
             308     11.3811E-03     102.461E-03    -14.2173E+06     41.2926E+06     70.5938E+06    -527.170E+03    -295.721E-03     591.814E-03    -296.093E-03     215.530E-03    -308.819E-03     604.804E-03    -295.779E-03     158.978E-03
             309     12.0508E-03     102.735E-03    -9.34127E+06     53.8164E+06     76.4321E+06    -382.555E+03    -294.110E-03     590.208E-03    -296.099E-03     195.587E-03    -305.651E-03     601.686E-03    -295.781E-03     141.868E-03
             310     12.7198E-03     102.987E-03    -4.24237E+06     56.4779E+06     80.8267E+06    -60.9628E+03    -292.939E-03     589.020E-03    -296.081E-03     133.673E-03    -300.177E-03     596.209E-03    -295.753E-03     91.9457E-03
             311     669.320E-06     99.8688E-03    -133.326E+06    -249.366E+06    -131.199E+06    -298.298E+03    -296.587E-03     592.266E-03    -295.679E-03     27.1939E-03    -296.852E-03     591.554E-03    -295.780E-03     21.6419E-03
             312     1.33837E-03     99.9263E-03    -130.186E+06    -236.081E+06    -122.089E+06     39.2671E+03    -296.436E-03     592.540E-03    -296.104E-03     49.9602E-03    -297.032E-03     592.190E-03    -296.183E-03     39.9229E-03
             313     2.00800E-03     100.018E-03    -125.176E+06    -216.022E+06    -107.431E+06    -110.219E+03    -296.616E-03     592.734E-03    -296.117E-03     73.9441E-03    -297.772E-03     592.990E-03    -296.160E-03     58.9759E-03
             314     2.67729E-03     100.144E-03    -118.493E+06    -196.548E+06    -88.6798E+06    -37.0058E+03    -297.122E-03     593.252E-03    -296.131E-03     98.1020E-03    -299.067E-03     594.337E-03    -296.117E-03     78.0294E-03
             315     3.34664E-03     100.307E-03    -110.756E+06    -167.648E+06    -68.4996E+06    -5.84329E+03    -297.725E-03     593.880E-03    -296.154E-03     122.058E-03    -300.708E-03     596.073E-03    -296.093E-03     96.7339E-03
             316     4.01626E-03     100.504E-03    -101.579E+06    -129.607E+06    -47.2013E+06     2.35541E+03    -298.355E-03     594.531E-03    -296.176E-03     145.657E-03    -302.631E-03     598.123E-03    -296.077E-03     114.966E-03
             317     4.68584E-03     100.735E-03    -92.0836E+06    -92.1375E+06    -25.4269E+06     411.107E+03    -299.081E-03     595.289E-03    -296.208E-03     169.097E-03    -304.913E-03     600.541E-03    -296.068E-03     132.889E-03
             318     5.35499E-03     101.001E-03    -82.4560E+06    -52.0511E+06    -3.86664E+06     1.14473E+06    -299.619E-03     595.852E-03    -296.233E-03     191.866E-03    -307.260E-03     603.027E-03    -296.057E-03     150.138E-03
             319     6.02399E-03     101.297E-03    -72.4974E+06    -25.9681E+06     15.0155E+06     794.112E+03    -300.026E-03     596.273E-03    -296.246E-03     213.871E-03    -309.668E-03     605.521E-03    -296.029E-03     166.725E-03
             320     6.69387E-03     101.626E-03    -63.0551E+06    -14.5628E+06     27.2674E+06     65.6480E+03    -300.391E-03     596.621E-03    -296.230E-03     234.076E-03    -312.117E-03     607.993E-03    -295.981E-03     181.836E-03
             321     7.36460E-03     101.979E-03    -54.2968E+06    -4.31119E+06     37.3726E+06     910.956E+03    -300.783E-03     596.989E-03    -296.207E-03     250.638E-03    -314.507E-03     610.397E-03    -295.935E-03     193.946E-03
             322     8.03334E-03     102.354E-03    -45.7487E+06     5.29671E+06     47.6366E+06     2.38541E+06    -300.749E-03     596.944E-03    -296.195E-03     262.280E-03    -316.151E-03     612.065E-03    -295.898E-03     202.165E-03
             323     8.70332E-03     102.739E-03    -37.3682E+06     13.3490E+06     57.4505E+06     2.44166E+06    -299.859E-03     596.031E-03    -296.172E-03     267.754E-03    -316.398E-03     612.319E-03    -295.850E-03     205.502E-03
             324     9.37497E-03     103.124E-03    -30.4712E+06     21.4365E+06     66.5279E+06     669.704E+03    -298.963E-03     595.108E-03    -296.145E-03     265.030E-03    -315.851E-03     611.771E-03    -295.799E-03     201.978E-03
             325     10.0442E-03     103.498E-03    -24.9782E+06     27.0172E+06     71.5534E+06    -122.209E+03    -298.222E-03     594.359E-03    -296.137E-03     255.219E-03    -314.655E-03     610.592E-03    -295.782E-03     192.674E-03
             326     10.7100E-03     103.851E-03    -18.9662E+06     32.3040E+06     71.9157E+06     477.091E+03    -296.885E-03     593.012E-03    -296.127E-03     240.853E-03    -312.190E-03     608.155E-03    -295.787E-03     180.192E-03
             327     11.3827E-03     104.174E-03    -13.5123E+06     42.8579E+06     71.3550E+06     297.076E+03    -295.053E-03     591.137E-03    -296.084E-03     216.925E-03    -308.178E-03     604.159E-03    -295.770E-03     160.542E-03
             328     12.0535E-03     104.447E-03    -8.92365E+06     54.1361E+06     76.3389E+06     9.08391E+03    -293.903E-03     589.956E-03    -296.053E-03     196.724E-03    -305.457E-03     601.449E-03    -295.737E-03     143.135E-03
             329     12.7242E-03     104.703E-03    -4.53537E+06     56.1686E+06     79.8547E+06    -116.855E+03    -293.507E-03     589.547E-03    -296.039E-03     133.445E-03    -300.746E-03     596.737E-03    -295.715E-03     91.6289E-03
             330     669.128E-06     101.583E-03    -134.198E+06    -249.745E+06    -131.834E+06     207.010E+03    -296.701E-03     592.415E-03    -295.714E-03     27.6097E-03    -296.970E-03     591.705E-03    -295.817E-03     22.0988E-03
             331     1.33845E-03     101.639E-03    -131.077E+06    -236.016E+06    -122.913E+06     106.212E+03    -296.364E-03     592.510E-03    -296.146E-03     50.0663E-03    -296.964E-03     592.164E-03    -296.228E-03     40.0110E-03
             332     2.00789E-03     101.730E-03    -126.315E+06    -215.755E+06    -108.247E+06     70.6163E+03    -296.698E-03     592.839E-03    -296.142E-03     73.8171E-03    -297.857E-03     593.098E-03    -296.187E-03     58.8580E-03
             333     2.67737E-03     101.857E-03    -119.399E+06    -196.175E+06    -89.2294E+06    -320.426E+03    -297.214E-03     593.389E-03    -296.175E-03     97.8707E-03    -299.160E-03     594.473E-03    -296.163E-03     77.7998E-03
             334     3.34673E-03     102.020E-03    -111.122E+06    -167.261E+06    -68.6869E+06    -555.006E+03    -297.790E-03     594.000E-03    -296.210E-03     121.796E-03    -300.767E-03     596.188E-03    -296.150E-03     96.4845E-03
             335     4.01593E-03     102.217E-03    -102.395E+06    -129.938E+06    -47.6840E+06    -745.590E+03    -298.484E-03     594.725E-03    -296.241E-03     145.640E-03    -302.767E-03     598.321E-03    -296.142E-03     114.894E-03
             336     4.68482E-03     102.449E-03    -92.7464E+06    -94.0124E+06    -25.9144E+06    -516.346E+03    -298.998E-03     595.268E-03    -296.270E-03     169.229E-03    -304.834E-03     600.516E-03    -296.128E-03     133.012E-03
             337     5.35446E-03     102.714E-03    -82.2132E+06    -53.8452E+06    -4.48776E+06     116.844E+03    -299.352E-03     595.610E-03    -296.259E-03     192.385E-03    -306.999E-03     602.787E-03    -296.084E-03     150.695E-03
             338     6.02470E-03     103.011E-03    -72.0430E+06    -25.3010E+06     14.6617E+06     876.682E+03    -299.852E-03     596.085E-03    -296.232E-03     214.443E-03    -309.502E-03     605.346E-03    -296.018E-03     167.338E-03
             339     6.69466E-03     103.338E-03    -62.6267E+06    -13.1655E+06     27.2992E+06     1.17265E+06    -300.444E-03     596.649E-03    -296.205E-03     234.254E-03    -312.172E-03     608.029E-03    -295.959E-03     182.029E-03
             340     7.36367E-03     103.692E-03    -54.3160E+06    -6.66117E+06     36.7100E+06     557.883E+03    -300.789E-03     596.975E-03    -296.187E-03     250.817E-03    -314.522E-03     610.386E-03    -295.915E-03     194.077E-03
             341     8.03402E-03     104.067E-03    -46.7228E+06     2.47853E+06     46.9251E+06     619.556E+03    -300.511E-03     596.682E-03    -296.172E-03     261.942E-03    -315.910E-03     611.788E-03    -295.873E-03     201.820E-03
             342     8.70466E-03     104.450E-03    -38.9606E+06     13.4713E+06     56.8183E+06     423.782E+03    -300.112E-03     596.270E-03    -296.159E-03     266.665E-03    -316.634E-03     612.537E-03    -295.838E-03     204.295E-03
             343     9.37286E-03     104.837E-03    -31.6387E+06     21.8828E+06     65.7132E+06     605.547E+03    -299.359E-03     595.525E-03    -296.166E-03     264.395E-03    -316.244E-03     612.185E-03    -295.824E-03     201.216E-03
             344     10.0415E-03     105.212E-03    -24.3772E+06     27.8198E+06     71.8405E+06     1.10107E+06    -297.695E-03     593.851E-03    -296.157E-03     255.869E-03    -314.130E-03     610.090E-03    -295.802E-03     193.473E-03
             345     10.7154E-03     105.565E-03    -18.4756E+06     32.8951E+06     72.3003E+06     806.479E+03    -296.097E-03     592.192E-03    -296.095E-03     241.666E-03    -311.382E-03     607.318E-03    -295.754E-03     181.288E-03
             346     11.3833E-03     105.887E-03    -13.2713E+06     43.5659E+06     72.0455E+06     555.076E+03    -295.110E-03     591.138E-03    -296.027E-03     216.571E-03    -308.209E-03     604.135E-03    -295.711E-03     160.253E-03
             347     12.0528E-03     106.159E-03    -8.63165E+06     54.6347E+06     77.4790E+06     391.064E+03    -294.253E-03     590.270E-03    -296.017E-03     195.837E-03    -305.795E-03     601.750E-03    -295.696E-03     142.153E-03
             348     12.7213E-03     106.418E-03    -4.87892E+06     56.1445E+06     81.2376E+06     132.361E+03    -293.814E-03     589.844E-03    -296.030E-03     132.312E-03    -301.022E-03     596.998E-03    -295.698E-03     90.5782E-03
             349     669.289E-06     103.295E-03    -134.288E+06    -249.582E+06    -133.110E+06    -336.862E+03    -296.236E-03     592.416E-03    -296.180E-03     26.9973E-03    -296.501E-03     591.705E-03    -296.289E-03     21.5327E-03
             350     1.33873E-03     103.352E-03    -131.639E+06    -236.074E+06    -123.653E+06    -123.799E+03    -296.452E-03     592.619E-03    -296.167E-03     49.8761E-03    -297.053E-03     592.273E-03    -296.252E-03     39.8228E-03
             351     2.00768E-03     103.443E-03    -126.560E+06    -215.275E+06    -108.500E+06    -42.3069E+03    -296.877E-03     593.078E-03    -296.202E-03     73.8266E-03    -298.039E-03     593.342E-03    -296.249E-03     58.8406E-03
             352     2.67675E-03     103.571E-03    -119.871E+06    -195.317E+06    -89.1930E+06    -134.956E+03    -297.296E-03     593.552E-03    -296.256E-03     97.9040E-03    -299.244E-03     594.640E-03    -296.245E-03     77.8377E-03
             353     3.34607E-03     103.733E-03    -112.070E+06    -166.579E+06    -68.9041E+06    -559.079E+03    -297.779E-03     594.060E-03    -296.281E-03     122.052E-03    -300.768E-03     596.260E-03    -296.222E-03     96.7180E-03
             354     4.01546E-03     103.931E-03    -103.445E+06    -129.318E+06    -47.9974E+06    -750.832E+03    -298.282E-03     594.560E-03    -296.278E-03     146.212E-03    -302.579E-03     598.170E-03    -296.181E-03     115.491E-03
             355     4.68527E-03     104.162E-03    -94.1438E+06    -93.0549E+06    -26.0872E+06    -1.01960E+06    -298.735E-03     594.997E-03    -296.261E-03     169.682E-03    -304.584E-03     600.257E-03    -296.120E-03     133.518E-03
             356     5.35524E-03     104.426E-03    -84.7647E+06    -54.6199E+06    -5.89302E+06    -1.78816E+06    -299.227E-03     595.447E-03    -296.220E-03     192.555E-03    -306.884E-03     602.627E-03    -296.048E-03     150.856E-03
             357     6.02488E-03     104.724E-03    -74.6277E+06    -27.9437E+06     12.3748E+06    -1.42358E+06    -299.858E-03     596.048E-03    -296.191E-03     214.271E-03    -309.503E-03     605.294E-03    -295.980E-03     167.147E-03
             358     6.69443E-03     105.051E-03    -64.6724E+06    -15.6264E+06     24.9523E+06    -829.096E+03    -300.582E-03     596.757E-03    -296.175E-03     234.306E-03    -312.324E-03     608.142E-03    -295.934E-03     181.995E-03
             359     7.36449E-03     105.406E-03    -55.6695E+06    -6.62068E+06     35.1906E+06    -265.125E+03    -300.851E-03     597.023E-03    -296.171E-03     250.495E-03    -314.586E-03     610.435E-03    -295.905E-03     193.718E-03
             360     8.03421E-03     105.778E-03    -47.3279E+06     2.48634E+06     45.5883E+06    -21.2255E+03    -300.786E-03     596.965E-03    -296.178E-03     261.351E-03    -316.175E-03     612.062E-03    -295.885E-03     201.145E-03
             361     8.70268E-03     106.165E-03    -39.7739E+06     12.5690E+06     55.2407E+06    -254.207E+03    -300.297E-03     596.483E-03    -296.186E-03     266.886E-03    -316.826E-03     612.756E-03    -295.871E-03     204.458E-03
             362     9.37271E-03     106.551E-03    -32.3017E+06     19.6121E+06     64.8408E+06     502.081E+03    -298.855E-03     595.034E-03    -296.179E-03     265.358E-03    -315.760E-03     611.706E-03    -295.836E-03     202.304E-03
             363     10.0447E-03     106.924E-03    -25.7780E+06     27.8788E+06     70.7875E+06     784.415E+03    -297.502E-03     593.636E-03    -296.134E-03     256.066E-03    -313.951E-03     609.887E-03    -295.783E-03     193.705E-03
             364     10.7120E-03     107.274E-03    -19.8986E+06     34.4555E+06     71.3718E+06    -231.741E+03    -296.577E-03     592.665E-03    -296.088E-03     239.953E-03    -311.819E-03     607.751E-03    -295.752E-03     179.460E-03
             365     11.3841E-03     107.600E-03    -14.4892E+06     41.7048E+06     70.9953E+06    -245.950E+03    -295.385E-03     591.448E-03    -296.063E-03     214.473E-03    -308.423E-03     604.377E-03    -295.747E-03     158.068E-03
             366     12.0530E-03     107.875E-03    -8.95966E+06     54.4392E+06     77.9859E+06     301.716E+03    -293.945E-03     590.012E-03    -296.066E-03     194.431E-03    -305.447E-03     601.448E-03    -295.743E-03     140.772E-03
             367     12.7236E-03     108.130E-03    -3.59653E+06     57.3733E+06     82.6123E+06     262.717E+03    -293.278E-03     589.338E-03    -296.060E-03     131.984E-03    -300.453E-03     596.465E-03    -295.725E-03     90.4225E-03
             368     669.087E-06     105.009E-03    -135.730E+06    -249.352E+06    -131.563E+06     246.186E+03    -296.212E-03     592.607E-03    -296.395E-03     27.2330E-03    -296.487E-03     591.898E-03    -296.494E-03     21.7626E-03
             369     1.33811E-03     105.065E-03    -131.224E+06    -235.912E+06    -123.013E+06    -46.7414E+03    -296.493E-03     592.745E-03    -296.252E-03     49.9399E-03    -297.092E-03     592.398E-03    -296.335E-03     39.9197E-03
             370     2.00762E-03     105.157E-03    -126.512E+06    -215.491E+06    -108.415E+06     172.176E+03    -296.786E-03     593.035E-03    -296.248E-03     74.0581E-03    -297.950E-03     593.298E-03    -296.294E-03     59.0772E-03
             371     2.67696E-03     105.284E-03    -119.763E+06    -195.137E+06    -89.1603E+06     324.912E+03    -297.223E-03     593.486E-03    -296.263E-03     98.3329E-03    -299.178E-03     594.582E-03    -296.253E-03     78.2548E-03
             372     3.34629E-03     105.446E-03    -111.562E+06    -165.699E+06    -68.2296E+06     285.951E+03    -297.693E-03     593.959E-03    -296.266E-03     122.593E-03    -300.693E-03     596.173E-03    -296.205E-03     97.2544E-03
             373     4.01592E-03     105.644E-03    -102.665E+06    -128.423E+06    -46.6629E+06     155.664E+03    -298.108E-03     594.350E-03    -296.242E-03     146.288E-03    -302.399E-03     597.956E-03    -296.140E-03     115.638E-03
             374     4.68573E-03     105.875E-03    -93.3960E+06    -91.3010E+06    -24.9416E+06    -135.089E+03    -298.667E-03     594.878E-03    -296.211E-03     169.555E-03    -304.516E-03     600.143E-03    -296.068E-03     133.403E-03
             375     5.35506E-03     106.140E-03    -83.5973E+06    -52.1713E+06    -3.62303E+06    -597.388E+03    -299.357E-03     595.543E-03    -296.186E-03     192.335E-03    -307.011E-03     602.726E-03    -296.008E-03     150.630E-03
             376     6.02486E-03     106.436E-03    -74.2077E+06    -27.8416E+06     14.0597E+06    -1.38158E+06    -300.101E-03     596.287E-03    -296.186E-03     214.279E-03    -309.761E-03     605.544E-03    -295.967E-03     167.077E-03
             377     6.69477E-03     106.765E-03    -65.3969E+06    -16.6532E+06     25.0611E+06    -1.52731E+06    -300.656E-03     596.843E-03    -296.187E-03     233.968E-03    -312.389E-03     608.212E-03    -295.943E-03     181.641E-03
             378     7.36402E-03     107.119E-03    -57.0395E+06    -7.09147E+06     33.3257E+06    -1.61888E+06    -300.875E-03     597.056E-03    -296.182E-03     250.105E-03    -314.583E-03     610.440E-03    -295.922E-03     193.376E-03
             379     8.03310E-03     107.493E-03    -48.8032E+06     1.25742E+06     43.3965E+06    -1.98029E+06    -300.726E-03     596.908E-03    -296.182E-03     262.122E-03    -316.145E-03     612.033E-03    -295.896E-03     201.876E-03
             380     8.70346E-03     107.878E-03    -40.6317E+06     10.3946E+06     54.5735E+06    -1.02570E+06    -299.897E-03     596.068E-03    -296.170E-03     267.645E-03    -316.446E-03     612.351E-03    -295.854E-03     205.309E-03
             381     9.37426E-03     108.262E-03    -33.1591E+06     17.9507E+06     63.1316E+06    -336.959E+03    -299.074E-03     595.222E-03    -296.148E-03     265.025E-03    -315.975E-03     611.885E-03    -295.810E-03     201.911E-03
             382     10.0429E-03     108.636E-03    -26.0212E+06     28.0371E+06     69.6349E+06    -283.292E+03    -298.370E-03     594.518E-03    -296.148E-03     255.083E-03    -314.802E-03     610.756E-03    -295.803E-03     192.501E-03
             383     10.7137E-03     108.992E-03    -19.8307E+06      35.313E+06     71.2628E+06    -26.2319E+03    -297.049E-03     593.204E-03    -296.154E-03     239.816E-03    -312.309E-03     608.312E-03    -295.820E-03     179.172E-03
             384     11.3797E-03     109.312E-03    -14.4822E+06     42.0331E+06     70.6158E+06    -374.329E+03    -295.093E-03     591.222E-03    -296.130E-03     215.683E-03    -308.196E-03     604.218E-03    -295.817E-03     159.231E-03
             385     12.0506E-03     109.586E-03    -9.22561E+06     53.8455E+06     75.7821E+06    -721.037E+03    -293.675E-03     589.774E-03    -296.099E-03     195.986E-03    -305.222E-03     601.259E-03    -295.785E-03     142.349E-03
             386     12.7205E-03     109.841E-03    -3.79991E+06     56.7282E+06     79.7706E+06    -142.497E+03    -293.101E-03     589.170E-03    -296.069E-03     132.579E-03    -300.308E-03     596.334E-03    -295.747E-03     90.8639E-03
             387     669.146E-06     106.723E-03    -132.628E+06    -249.295E+06    -132.460E+06     183.420E+03    -296.751E-03     592.594E-03    -295.844E-03     27.4281E-03    -297.010E-03     591.883E-03    -295.952E-03     21.9375E-03
             388     1.33849E-03     106.778E-03    -130.836E+06    -236.408E+06    -122.144E+06     419.658E+03    -296.457E-03     592.697E-03    -296.239E-03     50.1144E-03    -297.058E-03     592.348E-03    -296.318E-03     40.0724E-03
             389     2.00759E-03     106.870E-03    -125.390E+06    -215.948E+06    -107.204E+06     406.390E+03    -296.649E-03     592.861E-03    -296.212E-03     74.2468E-03    -297.810E-03     593.121E-03    -296.253E-03     59.2657E-03
             390     2.67713E-03     106.997E-03    -118.341E+06    -195.306E+06    -87.9722E+06     426.893E+03    -297.128E-03     593.331E-03    -296.203E-03     98.4283E-03    -299.080E-03     594.425E-03    -296.188E-03     78.3471E-03
             391     3.34668E-03     107.160E-03    -110.167E+06    -165.921E+06    -67.1197E+06     549.899E+03    -297.689E-03     593.896E-03    -296.207E-03     122.312E-03    -300.675E-03     596.097E-03    -296.143E-03     97.0097E-03
             392     4.01611E-03     107.356E-03    -101.133E+06    -128.317E+06    -45.3435E+06     710.879E+03    -298.170E-03     594.373E-03    -296.203E-03     145.874E-03    -302.453E-03     597.973E-03    -296.097E-03     115.211E-03
             393     4.68555E-03     107.587E-03    -91.4031E+06    -90.6297E+06    -22.9199E+06     603.551E+03    -298.733E-03     594.926E-03    -296.193E-03     169.422E-03    -304.576E-03     600.189E-03    -296.044E-03     133.254E-03
             394     5.35557E-03     107.853E-03    -81.6727E+06    -51.2255E+06    -2.07916E+06     825.844E+03    -299.487E-03     595.670E-03    -296.182E-03     192.232E-03    -307.136E-03     602.853E-03    -296.000E-03     150.523E-03
             395     6.02506E-03     108.150E-03    -72.3479E+06    -26.0790E+06     15.8924E+06     881.225E+03    -300.227E-03     596.425E-03    -296.198E-03     214.157E-03    -309.878E-03     605.680E-03    -295.976E-03     166.973E-03
             396     6.69384E-03     108.479E-03    -63.0342E+06    -14.3216E+06     27.9140E+06     582.790E+03    -300.581E-03     596.783E-03    -296.202E-03     234.128E-03    -312.299E-03     608.146E-03    -295.951E-03     181.906E-03
             397     7.36377E-03     108.831E-03    -54.1154E+06    -4.53391E+06     36.2362E+06    -402.657E+03    -300.686E-03     596.860E-03    -296.174E-03     250.989E-03    -314.414E-03     610.275E-03    -295.908E-03     194.316E-03
             398     8.03434E-03     109.207E-03    -46.0104E+06     2.09315E+06     46.6990E+06    -693.527E+03    -300.519E-03     596.673E-03    -296.154E-03     262.406E-03    -315.935E-03     611.798E-03    -295.857E-03     202.252E-03
             399     8.70447E-03     109.589E-03    -38.8046E+06     9.00511E+06     57.4086E+06    -319.368E+03    -300.255E-03     596.410E-03    -296.155E-03     266.849E-03    -316.778E-03     612.660E-03    -295.825E-03     204.464E-03
             400     9.37342E-03     109.976E-03    -31.9967E+06     18.3332E+06     65.3539E+06     -874.82E+03    -299.866E-03     596.044E-03    -296.178E-03     264.664E-03    -316.763E-03     612.703E-03    -295.831E-03     201.366E-03
             401     10.0424E-03     110.352E-03    -25.1006E+06     27.1962E+06     70.9589E+06    -791.471E+03    -298.310E-03     594.510E-03    -296.201E-03     255.605E-03    -314.767E-03     610.770E-03    -295.849E-03     192.983E-03
             402     10.7102E-03     110.702E-03    -18.4519E+06     34.2088E+06     71.6740E+06     49.9773E+03    -296.250E-03     592.414E-03    -296.164E-03     241.347E-03    -311.552E-03     607.564E-03    -295.828E-03     180.849E-03
             403     11.3839E-03     111.027E-03    -12.6613E+06     43.6385E+06     70.1990E+06     58.0414E+03    -295.142E-03     591.237E-03    -296.095E-03     216.950E-03    -308.267E-03     604.268E-03    -295.788E-03     160.548E-03
             404     12.0538E-03     111.297E-03    -8.50204E+06     54.2927E+06     74.9060E+06    -21.0673E+03    -293.982E-03     590.052E-03    -296.069E-03     196.229E-03    -305.541E-03     601.555E-03    -295.761E-03     142.527E-03
             405     12.7231E-03     111.560E-03    -4.73948E+06     55.9956E+06     79.5809E+06    -68.8848E+03    -293.084E-03     589.140E-03    -296.056E-03     133.075E-03    -300.317E-03     596.324E-03    -295.733E-03     91.3116E-03
             406     669.319E-06     108.436E-03    -133.197E+06    -250.463E+06    -130.312E+06     59.6714E+03    -296.655E-03     592.314E-03    -295.659E-03     27.2655E-03    -296.918E-03     591.593E-03    -295.754E-03     21.8281E-03
             407     1.33835E-03     108.492E-03    -129.515E+06    -237.147E+06    -121.207E+06     337.221E+03    -296.417E-03     592.536E-03    -296.119E-03     50.0890E-03    -297.012E-03     592.180E-03    -296.193E-03     40.0421E-03
             408     2.00802E-03     108.583E-03    -124.356E+06    -216.479E+06    -106.130E+06     471.313E+03    -296.795E-03     592.943E-03    -296.149E-03     74.0996E-03    -297.952E-03     593.198E-03    -296.185E-03     59.0995E-03
             409     2.67738E-03     108.710E-03    -117.822E+06    -195.979E+06    -87.2987E+06     567.081E+03    -297.231E-03     593.424E-03    -296.193E-03     98.0163E-03    -299.174E-03     594.506E-03    -296.175E-03     77.9419E-03
             410     3.34654E-03     108.873E-03    -109.918E+06    -166.461E+06    -66.5647E+06     759.038E+03    -297.616E-03     593.826E-03    -296.210E-03     121.928E-03    -300.595E-03     596.017E-03    -296.142E-03     96.6456E-03
             411     4.01603E-03     109.069E-03    -100.979E+06    -128.446E+06    -44.7848E+06     776.518E+03    -298.139E-03     594.339E-03    -296.199E-03     145.780E-03    -302.422E-03     597.936E-03    -296.091E-03     115.111E-03
             412     4.68578E-03     109.300E-03    -91.8168E+06    -91.2777E+06    -22.7532E+06      1.1042E+06    -298.843E-03     595.039E-03    -296.196E-03     169.352E-03    -304.680E-03     600.291E-03    -296.044E-03     133.212E-03
             413     5.35508E-03     109.565E-03    -82.1561E+06    -52.0834E+06    -2.16100E+06     893.099E+03    -299.562E-03     595.755E-03    -296.193E-03     192.457E-03    -307.212E-03     602.935E-03    -296.010E-03     150.757E-03
             414     6.02427E-03     109.864E-03    -71.5619E+06    -25.5739E+06     16.1324E+06     653.173E+03    -300.004E-03     596.197E-03    -296.193E-03     214.368E-03    -309.641E-03     605.443E-03    -295.972E-03     167.271E-03
             415     6.69500E-03     110.190E-03    -61.4781E+06    -13.2282E+06     28.6862E+06     605.825E+03    -300.340E-03     596.511E-03    -296.171E-03     234.319E-03    -312.063E-03     607.885E-03    -295.919E-03     182.124E-03
             416     7.36506E-03     110.545E-03    -52.7151E+06    -3.18406E+06     37.5085E+06     797.726E+03    -300.733E-03     596.874E-03    -296.141E-03     250.533E-03    -314.452E-03     610.285E-03    -295.872E-03     193.840E-03
             417     8.03446E-03     110.918E-03    -45.2725E+06     3.09167E+06     47.2071E+06     702.750E+03    -300.885E-03     597.035E-03    -296.149E-03     261.323E-03    -316.268E-03     612.131E-03    -295.852E-03     201.121E-03
             418     8.70346E-03     111.304E-03    -38.4383E+06     10.4665E+06     57.4352E+06    -37.1487E+03    -300.608E-03     596.793E-03    -296.185E-03     266.603E-03    -317.133E-03     613.052E-03    -295.858E-03     204.103E-03
             419     9.37241E-03     111.690E-03    -31.2569E+06     19.2491E+06     66.3894E+06    -46.5548E+03    -299.306E-03     595.508E-03    -296.202E-03     265.420E-03    -316.201E-03     612.167E-03    -295.852E-03     202.307E-03
             420     10.0423E-03     112.065E-03    -24.6203E+06     27.3127E+06     72.0889E+06    -233.063E+03    -297.499E-03     593.665E-03    -296.166E-03     256.809E-03    -313.972E-03     609.938E-03    -295.809E-03     194.442E-03
             421     10.7151E-03     112.415E-03    -19.0968E+06     33.4727E+06     71.7896E+06    -807.850E+03    -296.514E-03     592.617E-03    -296.103E-03     241.507E-03    -311.836E-03     607.782E-03    -295.765E-03     180.926E-03
             422     11.3826E-03     112.738E-03    -13.9996E+06     42.1211E+06     70.5128E+06    -170.331E+03    -295.654E-03     591.720E-03    -296.066E-03     216.242E-03    -308.771E-03     604.732E-03    -295.754E-03     159.715E-03
             423     12.0502E-03     113.016E-03    -9.03283E+06     54.2251E+06     76.7069E+06     252.786E+03    -293.915E-03     589.982E-03    -296.068E-03     194.641E-03    -305.429E-03     601.434E-03    -295.750E-03     140.983E-03
             424     12.7222E-03     113.262E-03    -4.44538E+06     56.5554E+06     81.3107E+06    -180.712E+03    -293.186E-03     589.247E-03    -296.061E-03     132.294E-03    -300.384E-03     596.394E-03    -295.730E-03     90.5851E-03
             425     669.319E-06     110.149E-03    -131.955E+06    -251.717E+06    -130.529E+06     293.442E+03    -296.185E-03     592.260E-03    -296.075E-03     26.8884E-03    -296.437E-03     591.530E-03    -296.172E-03     21.4668E-03
             426     1.33902E-03     110.204E-03    -129.086E+06    -238.401E+06    -120.524E+06     563.756E+03    -296.478E-03     592.592E-03    -296.114E-03     49.7329E-03    -297.065E-03     592.225E-03    -296.184E-03     39.7267E-03
             427     2.00783E-03     110.296E-03    -124.026E+06    -217.646E+06    -105.533E+06     857.385E+03    -296.871E-03     593.044E-03    -296.173E-03     73.8747E-03    -298.023E-03     593.289E-03    -296.205E-03     58.8841E-03
             428     2.67666E-03     110.424E-03    -117.317E+06    -196.384E+06    -86.2749E+06     1.10985E+06    -297.147E-03     593.361E-03    -296.215E-03     98.0471E-03    -299.086E-03     594.437E-03    -296.191E-03     78.0111E-03
             429     3.34640E-03     110.585E-03    -109.173E+06    -167.200E+06    -65.6610E+06     1.24909E+06    -297.522E-03     593.728E-03    -296.206E-03     122.219E-03    -300.503E-03     595.918E-03    -296.133E-03     96.9493E-03
             430     4.01619E-03     110.782E-03    -100.336E+06    -129.609E+06    -44.2800E+06     1.89297E+06    -298.175E-03     594.359E-03    -296.184E-03     146.076E-03    -302.452E-03     597.948E-03    -296.072E-03     115.441E-03
             431     4.68557E-03     111.013E-03    -91.0497E+06    -91.9286E+06    -22.1681E+06     2.10336E+06    -298.976E-03     595.164E-03    -296.188E-03     169.673E-03    -304.816E-03     600.418E-03    -296.033E-03     133.528E-03
             432     5.35517E-03     111.279E-03    -81.1610E+06    -50.2350E+06    -409.416E+03     1.52040E+06    -299.492E-03     595.681E-03    -296.189E-03     192.582E-03    -307.140E-03     602.864E-03    -296.001E-03     150.925E-03
             433     6.02553E-03     111.576E-03    -71.7069E+06    -24.0876E+06     17.4441E+06     500.639E+03    -299.912E-03     596.095E-03    -296.184E-03     214.029E-03    -309.556E-03     605.349E-03    -295.957E-03     166.920E-03
             434     6.69472E-03     111.903E-03    -62.8510E+06    -13.9490E+06     28.2027E+06     35.0073E+03    -300.527E-03     596.701E-03    -296.173E-03     233.584E-03    -312.249E-03     608.068E-03    -295.921E-03     181.286E-03
             435     7.36406E-03     112.258E-03    -54.5822E+06    -4.71837E+06     35.5461E+06     265.964E+03    -300.934E-03     597.101E-03    -296.167E-03     249.866E-03    -314.631E-03     610.484E-03    -295.903E-03     193.150E-03
             436     8.03337E-03     112.632E-03    -46.6454E+06     3.13549E+06     45.7287E+06     241.844E+03    -300.902E-03     597.085E-03    -296.183E-03     261.758E-03    -316.295E-03     612.191E-03    -295.891E-03     201.555E-03
             437     8.70285E-03     113.018E-03    -38.8060E+06     11.9893E+06     57.2162E+06     300.212E+03    -300.143E-03     596.335E-03    -296.191E-03     267.689E-03    -316.693E-03     612.623E-03    -295.866E-03     205.317E-03
             438     9.37343E-03     113.403E-03    -31.8206E+06     19.7537E+06     64.9979E+06     305.117E+03    -298.722E-03     594.880E-03    -296.157E-03     265.426E-03    -315.614E-03     611.540E-03    -295.815E-03     202.449E-03
             439     10.0452E-03     113.775E-03    -25.5257E+06     28.2467E+06     70.1578E+06    -380.663E+03    -297.701E-03     593.813E-03    -296.113E-03     255.628E-03    -314.123E-03     610.042E-03    -295.766E-03     193.249E-03
             440     10.7126E-03     114.130E-03    -19.4263E+06     32.9895E+06     71.5817E+06    -728.283E+03    -296.788E-03     592.875E-03    -296.087E-03     240.430E-03    -312.059E-03     607.987E-03    -295.749E-03     179.842E-03
             441     11.3819E-03     114.455E-03    -13.9696E+06     40.9064E+06     71.8741E+06    -387.739E+03    -294.880E-03     590.928E-03    -296.048E-03     216.816E-03    -308.005E-03     603.940E-03    -295.727E-03     160.458E-03
             442     12.0547E-03     114.725E-03    -8.91359E+06     54.6133E+06     78.0384E+06    -173.492E+03    -293.991E-03     590.010E-03    -296.018E-03     197.268E-03    -305.585E-03     601.539E-03    -295.694E-03     143.584E-03
             443     12.7218E-03     114.981E-03    -4.34837E+06     56.8953E+06     82.0845E+06     224.305E+03    -294.122E-03     590.148E-03    -296.026E-03     134.412E-03    -301.385E-03     597.359E-03    -295.692E-03     92.5156E-03
             444     669.177E-06     111.861E-03    -132.299E+06    -253.081E+06    -129.469E+06     306.658E+03    -295.836E-03     592.501E-03    -296.664E-03     26.7759E-03    -296.091E-03     591.764E-03    -296.753E-03     21.3602E-03
             445     1.33802E-03     111.918E-03    -129.126E+06    -239.786E+06    -120.555E+06     650.249E+03    -296.418E-03     592.614E-03    -296.196E-03     50.0801E-03    -297.008E-03     592.244E-03    -296.264E-03     40.0305E-03
             446     2.00746E-03     112.010E-03    -123.849E+06    -219.000E+06    -105.398E+06     772.935E+03    -296.593E-03     592.762E-03    -296.169E-03     74.2157E-03    -297.743E-03     593.001E-03    -296.199E-03     59.2523E-03
             447     2.67761E-03     112.136E-03    -116.594E+06    -198.006E+06    -85.9973E+06     1.47964E+06    -296.984E-03     593.131E-03    -296.147E-03     98.3349E-03    -298.921E-03     594.201E-03    -296.121E-03     78.3170E-03
             448     3.34700E-03     112.298E-03    -108.684E+06    -168.622E+06    -65.1712E+06     2.05135E+06    -297.649E-03     593.791E-03    -296.142E-03     122.307E-03    -300.621E-03     595.968E-03    -296.066E-03     97.0660E-03
             449     4.01635E-03     112.495E-03    -99.8328E+06    -131.551E+06    -44.0868E+06     1.76451E+06    -298.403E-03     594.561E-03    -296.158E-03     146.123E-03    -302.677E-03     598.142E-03    -296.043E-03     115.458E-03
             450     4.68596E-03     112.727E-03    -89.8166E+06    -93.2646E+06    -21.7798E+06     2.11654E+06    -299.037E-03     595.225E-03    -296.188E-03     169.466E-03    -304.870E-03     600.472E-03    -296.032E-03     133.283E-03
             451     5.35540E-03     112.992E-03    -80.2256E+06    -49.4873E+06     423.761E+03     3.23520E+06    -299.468E-03     595.667E-03    -296.199E-03     191.951E-03    -307.106E-03     602.844E-03    -296.009E-03     150.301E-03
             452     6.02450E-03     113.289E-03    -71.0351E+06    -21.7491E+06     18.6615E+06     3.02298E+06    -300.044E-03     596.249E-03    -296.205E-03     213.780E-03    -309.686E-03     605.507E-03    -295.977E-03     166.675E-03
             453     6.69417E-03     113.617E-03    -62.1658E+06    -12.2763E+06     29.5204E+06     1.93284E+06    -300.638E-03     596.842E-03    -296.204E-03     233.989E-03    -312.362E-03     608.216E-03    -295.948E-03     181.744E-03
             454     7.36369E-03     113.971E-03    -53.6738E+06    -3.80222E+06     37.4509E+06     1.13203E+06    -300.884E-03     597.074E-03    -296.190E-03     250.852E-03    -314.611E-03     610.488E-03    -295.920E-03     194.162E-03
             455     8.03385E-03     114.345E-03    -45.9906E+06     3.56794E+06     47.3456E+06     1.01984E+06    -300.642E-03     596.822E-03    -296.180E-03     262.451E-03    -316.050E-03     611.941E-03    -295.881E-03     202.337E-03
             456     8.70433E-03     114.731E-03    -38.8937E+06     12.0484E+06     57.6116E+06     1.12634E+06    -299.918E-03     596.081E-03    -296.163E-03     267.092E-03    -316.440E-03     612.341E-03    -295.836E-03     204.818E-03
             457     9.37441E-03     115.115E-03    -31.7918E+06     22.1062E+06     66.0190E+06     47.4876E+03    -299.154E-03     595.302E-03    -296.148E-03     264.301E-03    -316.029E-03     611.951E-03    -295.804E-03     201.188E-03
             458     10.0419E-03     115.489E-03    -24.8671E+06     29.5281E+06     72.0338E+06    -589.516E+03    -297.876E-03     594.014E-03    -296.138E-03     255.591E-03    -314.303E-03     610.248E-03    -295.785E-03     193.148E-03
             459     10.7126E-03     115.844E-03    -18.2324E+06     32.3862E+06     72.9691E+06     222.575E+03    -295.874E-03     591.958E-03    -296.083E-03     241.414E-03    -311.138E-03     607.060E-03    -295.739E-03     181.114E-03
             460     11.3848E-03     116.163E-03    -13.2187E+06     41.0700E+06     71.8624E+06     365.745E+03    -294.597E-03     590.591E-03    -295.994E-03     216.287E-03    -307.654E-03     603.539E-03    -295.675E-03     160.148E-03
             461     12.0538E-03     116.438E-03    -9.16081E+06     54.1908E+06     77.1119E+06     265.135E+03    -294.270E-03     590.236E-03    -295.966E-03     195.951E-03    -305.770E-03     601.672E-03    -295.646E-03     142.384E-03
             462     12.7248E-03     116.699E-03    -4.30856E+06     56.8753E+06     81.9803E+06     243.081E+03    -294.069E-03     590.058E-03    -295.988E-03     132.001E-03    -301.255E-03     597.193E-03    -295.655E-03     90.2556E-03
             463     669.120E-06     113.575E-03    -132.761E+06    -255.073E+06    -130.307E+06     871.614E+03    -296.118E-03     592.392E-03    -296.274E-03     27.5414E-03    -296.376E-03     591.651E-03    -296.363E-03     22.0599E-03
             464     1.33875E-03     113.631E-03    -129.297E+06    -240.622E+06    -120.744E+06     629.646E+03    -296.251E-03     592.366E-03    -296.116E-03     50.2129E-03    -296.840E-03     591.993E-03    -296.183E-03     40.1541E-03
             465     2.00843E-03     113.722E-03    -123.992E+06    -220.442E+06    -105.610E+06     922.300E+03    -296.529E-03     592.602E-03    -296.073E-03     74.0743E-03    -297.675E-03     592.831E-03    -296.101E-03     59.1543E-03
             466     2.67743E-03     113.848E-03    -117.286E+06    -200.666E+06    -86.6929E+06     1.11042E+06    -297.181E-03     593.273E-03    -296.092E-03     97.9724E-03    -299.113E-03     594.327E-03    -296.064E-03     77.9263E-03
             467     3.34697E-03     114.011E-03    -108.548E+06    -170.884E+06    -65.7112E+06     1.53183E+06    -297.868E-03     594.014E-03    -296.147E-03     121.785E-03    -300.831E-03     596.176E-03    -296.070E-03     96.4967E-03
             468     4.01630E-03     114.208E-03    -99.6060E+06    -132.393E+06    -44.1583E+06     1.81142E+06    -298.491E-03     594.687E-03    -296.196E-03     145.701E-03    -302.758E-03     598.258E-03    -296.080E-03     115.026E-03
             469     4.68525E-03     114.440E-03    -90.7693E+06    -95.4226E+06    -22.6643E+06     2.14790E+06    -298.949E-03     595.175E-03    -296.226E-03     169.183E-03    -304.774E-03     600.405E-03    -296.070E-03     133.035E-03
             470     5.35480E-03     114.705E-03    -80.5439E+06    -52.8195E+06    -1.38581E+06     2.95772E+06    -299.380E-03     595.597E-03    -296.217E-03     192.198E-03    -307.020E-03     602.768E-03    -296.031E-03     150.538E-03
             471     6.02483E-03     115.003E-03    -70.0636E+06    -21.9845E+06     18.0656E+06     3.98529E+06    -299.936E-03     596.137E-03    -296.201E-03     214.405E-03    -309.575E-03     605.397E-03    -295.977E-03     167.361E-03
             472     6.69462E-03     115.330E-03    -60.8978E+06    -9.91316E+06     30.3786E+06     4.08786E+06    -300.490E-03     596.670E-03    -296.180E-03     234.429E-03    -312.213E-03     608.053E-03    -295.925E-03     182.286E-03
             473     7.36482E-03     115.684E-03    -53.2738E+06    -1.91294E+06     38.3117E+06     3.76554E+06    -300.828E-03     596.985E-03    -296.157E-03     250.719E-03    -314.553E-03     610.403E-03    -295.885E-03     194.072E-03
             474     8.03422E-03     116.058E-03    -46.3840E+06     6.65752E+06     47.9572E+06     2.60559E+06    -300.671E-03     596.823E-03    -296.152E-03     261.840E-03    -316.077E-03     611.948E-03    -295.855E-03     201.719E-03
             475     8.70348E-03     116.443E-03    -38.8668E+06     13.9709E+06     58.0187E+06     450.885E+03    -300.171E-03     596.326E-03    -296.155E-03     266.952E-03    -316.704E-03     612.603E-03    -295.829E-03     204.574E-03
             476     9.37243E-03     116.829E-03    -31.1386E+06     22.8483E+06     67.6843E+06     60.3350E+03    -299.175E-03     595.328E-03    -296.153E-03     265.449E-03    -316.091E-03     612.019E-03    -295.803E-03     202.308E-03
             477     10.0436E-03     117.204E-03    -24.3716E+06     30.1165E+06     74.3463E+06     912.097E+03    -297.384E-03     593.506E-03    -296.122E-03     256.298E-03    -313.848E-03     609.775E-03    -295.758E-03     193.956E-03
             478     10.7149E-03     117.551E-03    -19.6257E+06     32.1957E+06     73.6130E+06     910.120E+03    -296.076E-03     592.131E-03    -296.054E-03     240.582E-03    -311.315E-03     607.200E-03    -295.705E-03     180.276E-03
             479     11.3837E-03     117.878E-03    -14.6800E+06     41.5958E+06     72.5428E+06     489.822E+03    -295.764E-03     591.777E-03    -296.013E-03     215.429E-03    -308.796E-03     604.695E-03    -295.689E-03     159.116E-03
             480     12.0527E-03     118.151E-03    -9.18278E+06     54.4836E+06     78.2391E+06     205.602E+03    -294.515E-03     590.547E-03    -296.032E-03     194.790E-03    -306.007E-03     601.974E-03    -295.707E-03     141.149E-03
             481     12.7212E-03     118.410E-03    -4.41901E+06     56.8402E+06     82.2799E+06    -210.183E+03    -293.268E-03     589.309E-03    -296.041E-03     131.623E-03    -300.464E-03     596.452E-03    -295.706E-03     89.8670E-03
             482     669.522E-06     115.288E-03    -132.858E+06    -255.449E+06    -132.404E+06    -672.237E+03    -296.433E-03     592.029E-03    -295.596E-03     27.2804E-03    -296.686E-03     591.288E-03    -295.695E-03     21.7713E-03
             483     1.33861E-03     115.343E-03    -130.182E+06    -242.495E+06    -122.558E+06     334.040E+03    -296.366E-03     592.362E-03    -295.996E-03     49.7730E-03    -296.951E-03     591.980E-03    -296.068E-03     39.7305E-03
             484     2.00792E-03     115.434E-03    -125.380E+06    -221.818E+06    -107.143E+06     648.613E+03    -296.811E-03     592.877E-03    -296.066E-03     73.7625E-03    -297.957E-03     593.101E-03    -296.098E-03     58.8189E-03
             485     2.67749E-03     115.562E-03    -118.400E+06    -201.550E+06    -87.9833E+06     648.701E+03    -297.405E-03     593.561E-03    -296.156E-03     97.8529E-03    -299.338E-03     594.614E-03    -296.132E-03     77.7860E-03
             486     3.34630E-03     115.724E-03    -110.622E+06    -172.749E+06    -67.8563E+06     651.524E+03    -297.912E-03     594.140E-03    -296.227E-03     121.900E-03    -300.889E-03     596.307E-03    -296.156E-03     96.5521E-03
             487     4.01549E-03     115.922E-03    -101.613E+06    -134.308E+06    -46.5289E+06     1.35666E+06    -298.244E-03     594.488E-03    -296.244E-03     145.976E-03    -302.516E-03     598.058E-03    -296.135E-03     115.333E-03
             488     4.68547E-03     116.153E-03    -91.7760E+06    -96.7327E+06    -24.1917E+06     1.94510E+06    -298.688E-03     594.913E-03    -296.225E-03     169.680E-03    -304.519E-03     600.145E-03    -296.073E-03     133.587E-03
             489     5.35534E-03     116.418E-03    -82.2565E+06    -55.8154E+06     -3.2021E+06     1.99155E+06    -299.342E-03     595.533E-03    -296.191E-03     192.607E-03    -306.990E-03     602.700E-03    -296.007E-03     150.940E-03
             490     6.02506E-03     116.715E-03    -72.8094E+06    -25.4554E+06     15.3065E+06     2.76172E+06    -299.998E-03     596.174E-03    -296.176E-03     214.121E-03    -309.640E-03     605.422E-03    -295.957E-03     167.032E-03
             491     6.69502E-03     117.043E-03    -63.7406E+06    -11.7580E+06     27.2567E+06     3.93932E+06    -300.484E-03     596.649E-03    -296.165E-03     233.706E-03    -312.195E-03     608.014E-03    -295.919E-03     181.545E-03
             492     7.36408E-03     117.398E-03    -55.4265E+06    -1.14174E+06     36.4443E+06     3.81328E+06    -300.671E-03     596.817E-03    -296.146E-03     250.248E-03    -314.382E-03     610.222E-03    -295.882E-03     193.646E-03
             493     8.03395E-03     117.771E-03    -46.5423E+06     11.0093E+06     48.2708E+06     2.28630E+06    -300.593E-03     596.729E-03    -296.136E-03     262.039E-03    -316.011E-03     611.881E-03    -295.844E-03     201.905E-03
             494     8.70406E-03     118.157E-03    -38.7313E+06     17.3023E+06     58.9928E+06     1.15892E+06    -299.983E-03     596.113E-03    -296.130E-03     267.552E-03    -316.543E-03     612.426E-03    -295.804E-03     205.198E-03
             495     9.37473E-03     118.542E-03    -32.8156E+06     21.7428E+06     67.5102E+06     1.53027E+06    -298.681E-03     594.787E-03    -296.105E-03     265.381E-03    -315.582E-03     611.452E-03    -295.752E-03     202.439E-03
             496     10.0447E-03     118.914E-03    -27.0352E+06     28.6859E+06     72.9616E+06     1.72935E+06    -297.880E-03     593.955E-03    -296.074E-03     255.741E-03    -314.338E-03     610.206E-03    -295.712E-03     193.325E-03
             497     10.7128E-03     119.267E-03    -20.2868E+06     33.6633E+06     74.0339E+06     475.850E+03    -297.556E-03     593.637E-03    -296.081E-03     240.016E-03    -312.840E-03     608.754E-03    -295.731E-03     179.255E-03
             498     11.3825E-03     119.590E-03    -14.1951E+06     42.9295E+06     73.9878E+06    -62.5618E+03    -295.855E-03     591.953E-03    -296.099E-03     215.355E-03    -308.953E-03     604.939E-03    -295.770E-03     158.789E-03
             499     12.0516E-03     119.869E-03    -9.04728E+06     54.7976E+06     79.6155E+06     12.5045E+03    -293.600E-03     589.696E-03    -296.095E-03     195.325E-03    -305.132E-03     601.159E-03    -295.764E-03     141.734E-03
             500     12.7227E-03     120.119E-03    -4.21692E+06     57.1897E+06     83.7276E+06    -190.403E+03    -292.938E-03     589.004E-03    -296.066E-03     133.477E-03    -300.162E-03     596.173E-03    -295.724E-03     91.7642E-03
             501     669.380E-06     117.000E-03    -136.430E+06    -254.991E+06    -132.653E+06     438.507E+03    -296.093E-03     592.078E-03    -295.985E-03     26.8660E-03    -296.361E-03     591.342E-03    -296.081E-03     21.4120E-03
             502     1.33896E-03     117.056E-03    -132.724E+06    -242.339E+06    -124.259E+06    -462.134E+03    -296.538E-03     592.592E-03    -296.054E-03     49.7690E-03    -297.134E-03     592.217E-03    -296.131E-03     39.7184E-03
             503     2.00788E-03     117.148E-03    -127.423E+06    -221.993E+06    -110.026E+06    -786.580E+03    -296.986E-03     593.145E-03    -296.160E-03     73.8543E-03    -298.140E-03     593.379E-03    -296.203E-03     58.8461E-03
             504     2.67675E-03     117.275E-03    -120.345E+06    -202.851E+06    -90.9705E+06    -390.915E+03    -297.269E-03     593.504E-03    -296.235E-03     98.1137E-03    -299.211E-03     594.562E-03    -296.221E-03     78.0229E-03
             505     3.34634E-03     117.438E-03    -111.903E+06    -173.659E+06    -69.8655E+06     318.554E+03    -297.596E-03     593.838E-03    -296.242E-03     122.337E-03    -300.577E-03     596.008E-03    -296.177E-03     97.0312E-03
             506     4.01609E-03     117.634E-03    -103.043E+06    -136.124E+06    -48.5007E+06     841.009E+03    -298.107E-03     594.319E-03    -296.212E-03     146.248E-03    -302.385E-03     597.889E-03    -296.108E-03     115.614E-03
             507     4.68587E-03     117.866E-03    -94.1668E+06    -99.6277E+06    -27.0233E+06     1.59554E+06    -298.774E-03     594.965E-03    -296.191E-03     169.519E-03    -304.607E-03     600.189E-03    -296.045E-03     133.388E-03
             508     5.35552E-03     118.131E-03    -85.1137E+06    -57.7257E+06    -5.80970E+06     2.41587E+06    -299.478E-03     595.658E-03    -296.180E-03     192.084E-03    -307.118E-03     602.808E-03    -296.002E-03     150.424E-03
             509     6.02487E-03     118.429E-03    -75.9774E+06    -27.3196E+06     12.6550E+06     2.62699E+06    -300.046E-03     596.229E-03    -296.183E-03     213.934E-03    -309.700E-03     605.479E-03    -295.970E-03     166.817E-03
             510     6.69379E-03     118.756E-03    -66.3419E+06    -13.0422E+06     24.8163E+06     1.86473E+06    -300.387E-03     596.556E-03    -296.169E-03     234.112E-03    -312.129E-03     607.944E-03    -295.929E-03     181.892E-03
             511     7.36440E-03     119.110E-03    -55.8540E+06    -1.99352E+06     35.9677E+06     902.426E+03    -300.565E-03     596.706E-03    -296.141E-03     250.780E-03    -314.296E-03     610.127E-03    -295.877E-03     194.133E-03
             512     8.03459E-03     119.484E-03    -47.2822E+06     10.1318E+06     48.3039E+06     1.78895E+06    -300.389E-03     596.506E-03    -296.117E-03     262.161E-03    -315.799E-03     611.645E-03    -295.822E-03     202.096E-03
             513     8.70427E-03     119.869E-03    -40.4905E+06     17.9340E+06     58.4942E+06     3.09627E+06    -299.786E-03     595.881E-03    -296.094E-03     266.981E-03    -316.313E-03     612.158E-03    -295.769E-03     204.787E-03
             514     9.37410E-03     120.253E-03    -33.0942E+06     22.7190E+06     67.2240E+06     2.34406E+06    -299.222E-03     595.314E-03    -296.092E-03     264.268E-03    -316.107E-03     611.967E-03    -295.740E-03     201.182E-03
             515     10.0441E-03     120.627E-03    -25.8054E+06     30.2963E+06     73.5265E+06     892.362E+03    -298.667E-03     594.787E-03    -296.120E-03     255.020E-03    -315.120E-03     611.042E-03    -295.759E-03     192.325E-03
             516     10.7135E-03     120.984E-03    -19.6442E+06     35.8318E+06     74.8897E+06     557.335E+03    -297.196E-03     593.340E-03    -296.145E-03     240.219E-03    -312.494E-03     608.479E-03    -295.794E-03     179.485E-03
             517     11.3805E-03     121.306E-03    -14.4537E+06     43.6314E+06     74.1647E+06     177.546E+03    -294.854E-03     590.969E-03    -296.115E-03     216.401E-03    -307.991E-03     603.994E-03    -295.786E-03     159.999E-03
             518     12.0526E-03     121.575E-03    -9.28664E+06     54.4674E+06     79.0455E+06    -108.245E+03    -293.412E-03     589.478E-03    -296.066E-03     196.663E-03    -304.957E-03     600.954E-03    -295.736E-03     143.174E-03
             519     12.7228E-03     121.835E-03    -4.19387E+06     57.1965E+06     83.3176E+06     66.4539E+03    -293.230E-03     589.263E-03    -296.033E-03     133.439E-03    -300.434E-03     596.413E-03    -295.693E-03     91.8038E-03
             520     669.219E-06     118.712E-03    -136.380E+06    -254.624E+06    -135.402E+06    -331.472E+03    -296.176E-03     592.442E-03    -296.266E-03     27.3396E-03    -296.442E-03     591.713E-03    -296.376E-03     21.8851E-03
             521     1.33817E-03     118.769E-03    -133.674E+06    -240.737E+06    -125.267E+06    -304.158E+03    -296.540E-03     592.735E-03    -296.195E-03     50.0538E-03    -297.144E-03     592.373E-03    -296.279E-03     39.9703E-03
             522     2.00745E-03     118.862E-03    -128.983E+06    -220.497E+06    -110.790E+06     -590.05E+03    -296.762E-03     592.980E-03    -296.218E-03     74.1512E-03    -297.929E-03     593.228E-03    -296.265E-03     59.1429E-03
             523     2.67698E-03     118.988E-03    -122.594E+06    -201.952E+06    -92.2520E+06    -1.45847E+06    -297.062E-03     593.281E-03    -296.219E-03     98.3899E-03    -299.019E-03     594.353E-03    -296.210E-03     78.2905E-03
             524     3.34670E-03     119.150E-03    -114.477E+06    -176.147E+06    -72.6876E+06    -1.20598E+06    -297.546E-03     593.745E-03    -296.199E-03     122.230E-03    -300.530E-03     595.908E-03    -296.141E-03     96.9032E-03
             525     4.01641E-03     119.347E-03    -105.796E+06    -139.635E+06    -51.8718E+06     476.726E+03    -298.267E-03     594.454E-03    -296.188E-03     145.794E-03    -302.543E-03     598.010E-03    -296.091E-03     115.125E-03
             526     4.68547E-03     119.579E-03    -96.2697E+06    -101.498E+06    -29.7632E+06     1.03527E+06    -298.954E-03     595.153E-03    -296.200E-03     169.260E-03    -304.787E-03     600.371E-03    -296.062E-03     133.099E-03
             527     5.35470E-03     119.844E-03    -85.7247E+06    -60.5952E+06    -8.52795E+06     1.33648E+06    -299.397E-03     595.591E-03    -296.194E-03     192.359E-03    -307.041E-03     602.740E-03    -296.024E-03     150.694E-03
             528     6.02455E-03     120.142E-03    -74.5213E+06    -28.2920E+06     11.4573E+06     1.96663E+06    -299.778E-03     595.948E-03    -296.170E-03     214.375E-03    -309.424E-03     605.196E-03    -295.964E-03     167.319E-03
             529     6.69545E-03     120.469E-03    -64.3792E+06    -10.2366E+06     26.2343E+06     1.36688E+06    -300.294E-03     596.433E-03    -296.139E-03     234.301E-03    -312.036E-03     607.834E-03    -295.900E-03     182.088E-03
             530     7.36472E-03     120.823E-03    -56.7034E+06    -2.55979E+06     36.2910E+06     757.276E+03    -300.664E-03     596.781E-03    -296.117E-03     250.657E-03    -314.400E-03     610.202E-03    -295.850E-03     193.982E-03
             531     8.03412E-03     121.197E-03    -48.7873E+06     6.02708E+06     47.0575E+06     1.62271E+06    -300.508E-03     596.615E-03    -296.107E-03     261.680E-03    -315.897E-03     611.716E-03    -295.810E-03     201.632E-03
             532     8.70478E-03     121.581E-03    -40.1639E+06     16.4275E+06     58.2010E+06     2.35048E+06    -300.262E-03     596.375E-03    -296.113E-03     266.437E-03    -316.773E-03     612.632E-03    -295.787E-03     204.122E-03
             533     9.37434E-03     121.968E-03    -32.8474E+06     24.5858E+06     67.3827E+06     1.85634E+06    -299.883E-03     596.034E-03    -296.152E-03     264.375E-03    -316.801E-03     612.727E-03    -295.803E-03     201.047E-03
             534     10.0417E-03     122.343E-03    -26.4553E+06     32.9850E+06     73.2679E+06     1.32310E+06    -298.183E-03     594.359E-03    -296.177E-03     255.988E-03    -314.663E-03     610.651E-03    -295.820E-03     193.415E-03
             535     10.7104E-03     122.696E-03    -19.9983E+06     38.1237E+06     75.4902E+06     1.08078E+06    -295.782E-03     591.911E-03    -296.130E-03     241.754E-03    -311.097E-03     607.072E-03    -295.779E-03     181.410E-03
             536     11.3852E-03     123.016E-03    -14.3369E+06     44.5312E+06     74.5429E+06     186.076E+03    -294.892E-03     590.940E-03    -296.048E-03     216.782E-03    -308.023E-03     603.962E-03    -295.719E-03     160.443E-03
             537     12.0538E-03     123.291E-03    -9.35510E+06     54.2409E+06     78.1909E+06    -681.343E+03    -294.366E-03     590.394E-03    -296.028E-03     195.559E-03    -305.913E-03     601.873E-03    -295.702E-03     141.776E-03
             538     12.7227E-03     123.547E-03    -4.46651E+06     56.6426E+06     82.4546E+06    -307.587E+03    -293.332E-03     589.366E-03    -296.034E-03     132.318E-03    -300.548E-03     596.528E-03    -295.697E-03     90.5516E-03
             539     669.201E-06     120.426E-03    -135.845E+06    -254.017E+06    -133.091E+06     -40.769E+03    -296.631E-03     592.645E-03    -296.013E-03     27.5288E-03    -296.901E-03     591.917E-03    -296.113E-03     22.0152E-03
             540     1.33840E-03     120.483E-03    -133.132E+06    -241.430E+06    -125.245E+06     384.913E+03    -296.385E-03     592.625E-03    -296.240E-03     50.2659E-03    -296.988E-03     592.262E-03    -296.323E-03     40.1686E-03
             541     2.00787E-03     120.574E-03    -127.781E+06    -219.532E+06    -109.331E+06     637.245E+03    -296.559E-03     592.745E-03    -296.187E-03     74.1595E-03    -297.724E-03     592.995E-03    -296.230E-03     59.1698E-03
             542     2.67749E-03     120.701E-03    -121.309E+06    -198.957E+06    -90.0156E+06     299.964E+03    -297.061E-03     593.230E-03    -296.168E-03     98.1458E-03    -299.013E-03     594.306E-03    -296.154E-03     78.0976E-03
             543     3.34659E-03     120.863E-03    -114.504E+06    -177.875E+06    -70.1225E+06     207.600E+03    -297.817E-03     594.013E-03    -296.196E-03     122.235E-03    -300.805E-03     596.167E-03    -296.123E-03     96.8983E-03
             544     4.01556E-03     121.060E-03    -105.775E+06    -141.721E+06    -50.8132E+06     118.380E+03    -298.421E-03     594.637E-03    -296.216E-03     146.054E-03    -302.705E-03     598.189E-03    -296.111E-03     115.336E-03
             545     4.68538E-03     121.292E-03    -95.7938E+06    -100.444E+06    -30.7104E+06      -539.3E+03    -298.772E-03     594.978E-03    -296.206E-03     169.507E-03    -304.606E-03     600.205E-03    -296.075E-03     133.356E-03
             546     5.35541E-03     121.557E-03    -85.8053E+06    -61.9627E+06    -9.77913E+06    -1.18518E+06    -299.193E-03     595.366E-03    -296.174E-03     192.512E-03    -306.832E-03     602.510E-03    -296.008E-03     150.855E-03
             547     6.02553E-03     121.854E-03    -75.8436E+06    -30.4591E+06     9.97706E+06    -1.36990E+06    -299.804E-03     595.947E-03    -296.144E-03     214.202E-03    -309.448E-03     605.185E-03    -295.940E-03     167.079E-03
             548     6.69450E-03     122.181E-03    -66.0532E+06    -13.0384E+06     24.2116E+06    -305.826E+03    -300.358E-03     596.482E-03    -296.124E-03     233.863E-03    -312.089E-03     607.862E-03    -295.888E-03     181.619E-03
             549     7.36458E-03     122.536E-03    -56.6933E+06    -3.07376E+06     35.1098E+06     1.49703E+06    -300.695E-03     596.807E-03    -296.112E-03     250.234E-03    -314.408E-03     610.206E-03    -295.849E-03     193.599E-03
             550     8.03485E-03     122.909E-03    -48.6860E+06     5.46248E+06     46.4603E+06     1.65391E+06    -300.885E-03     597.010E-03    -296.125E-03     261.437E-03    -316.273E-03     612.110E-03    -295.830E-03     201.293E-03
             551     8.70336E-03     123.295E-03    -42.0094E+06     15.7237E+06     56.6369E+06     1.01415E+06    -300.593E-03     596.748E-03    -296.155E-03     266.954E-03    -317.147E-03     613.045E-03    -295.834E-03     204.479E-03
             552     9.37182E-03     123.682E-03    -34.9702E+06     24.5282E+06     65.4561E+06     1.19047E+06    -299.209E-03     595.375E-03    -296.166E-03     265.906E-03    -316.157E-03     612.096E-03    -295.823E-03     202.771E-03
             553     10.0432E-03     124.057E-03    -26.9447E+06     33.5383E+06     72.8142E+06     968.935E+03    -297.225E-03     593.348E-03    -296.123E-03     256.822E-03    -313.704E-03     609.639E-03    -295.768E-03     194.567E-03
             554     10.7168E-03     124.405E-03    -19.9027E+06     39.4335E+06     75.2864E+06    -211.024E+03    -296.228E-03     592.286E-03    -296.058E-03     241.190E-03    -311.541E-03     607.450E-03    -295.710E-03     180.705E-03
             555     11.3829E-03     124.731E-03    -13.6214E+06     44.7335E+06     74.1556E+06    -569.516E+03    -295.679E-03     591.702E-03    -296.023E-03     216.123E-03    -308.803E-03     604.721E-03    -295.697E-03     159.541E-03
             556     12.0514E-03     125.006E-03    -8.27291E+06     54.6641E+06     78.7071E+06     92.9360E+03    -294.398E-03     590.434E-03    -296.036E-03     195.401E-03    -305.958E-03     601.930E-03    -295.710E-03     141.565E-03
             557     12.7219E-03     125.258E-03    -4.42481E+06     56.7075E+06     83.4001E+06     277.231E+03    -293.615E-03     589.670E-03    -296.055E-03     132.521E-03    -300.849E-03     596.848E-03    -295.714E-03     90.7115E-03
             558     668.894E-06     122.139E-03    -135.253E+06    -256.617E+06    -134.012E+06     1.18756E+06    -296.695E-03     592.552E-03    -295.857E-03     27.3744E-03    -296.956E-03     591.812E-03    -295.959E-03     21.8345E-03
             559     1.33846E-03     122.196E-03    -132.909E+06    -242.090E+06    -124.116E+06     1.09673E+06    -296.305E-03     592.499E-03    -296.194E-03     49.9851E-03    -296.906E-03     592.128E-03    -296.271E-03     39.9199E-03
             560     2.00783E-03     122.287E-03    -127.637E+06    -221.498E+06    -109.027E+06     1.32431E+06    -296.625E-03     592.776E-03    -296.152E-03     73.9351E-03    -297.785E-03     593.013E-03    -296.191E-03     58.9622E-03
             561     2.67706E-03     122.414E-03    -121.000E+06    -200.220E+06    -89.6482E+06     2.40871E+06    -297.151E-03     593.314E-03    -296.163E-03     98.0466E-03    -299.097E-03     594.380E-03    -296.146E-03     78.0393E-03
             562     3.34676E-03     122.576E-03    -112.595E+06    -176.405E+06    -68.3252E+06     2.07870E+06    -297.726E-03     593.919E-03    -296.193E-03     122.374E-03    -300.709E-03     596.074E-03    -296.115E-03     97.0945E-03
             563     4.01631E-03     122.774E-03    -103.952E+06    -139.311E+06    -47.7452E+06     901.207E+03    -298.253E-03     594.446E-03    -296.193E-03     146.327E-03    -302.538E-03     598.006E-03    -296.079E-03     115.651E-03
             564     4.68555E-03     123.005E-03    -95.4402E+06    -98.3100E+06    -27.4544E+06     191.518E+03    -298.771E-03     594.947E-03    -296.176E-03     169.652E-03    -304.620E-03     600.187E-03    -296.032E-03     133.491E-03
             565     5.35532E-03     123.269E-03    -86.5767E+06    -59.0418E+06    -7.14203E+06    -834.858E+03    -299.359E-03     595.517E-03    -296.158E-03     192.354E-03    -307.011E-03     602.673E-03    -295.982E-03     150.651E-03
             566     6.02470E-03     123.567E-03     -77.638E+06    -29.4744E+06     11.3612E+06    -1.86634E+06    -299.930E-03     596.079E-03    -296.149E-03     214.200E-03    -309.595E-03     605.331E-03    -295.937E-03     167.022E-03
             567     6.69490E-03     123.895E-03    -68.4132E+06    -16.4896E+06     23.8827E+06    -2.13731E+06    -300.513E-03     596.655E-03    -296.143E-03     234.035E-03    -312.255E-03     608.027E-03    -295.900E-03     181.741E-03
             568     7.36462E-03     124.248E-03    -59.2767E+06    -7.68656E+06     31.9075E+06    -1.40011E+06    -300.980E-03     597.117E-03    -296.137E-03     250.157E-03    -314.693E-03     610.500E-03    -295.880E-03     193.433E-03
             569     8.03358E-03     124.623E-03    -50.5543E+06     3.22087E+06     42.3643E+06    -248.881E+03    -300.923E-03     597.077E-03    -296.154E-03     261.608E-03    -316.323E-03     612.186E-03    -295.873E-03     201.393E-03
             570     8.70346E-03     125.009E-03    -41.5489E+06     15.6029E+06     55.0840E+06     439.469E+03    -299.980E-03     596.141E-03    -296.162E-03     267.334E-03    -316.532E-03     612.442E-03    -295.849E-03     204.974E-03
             571     9.37480E-03     125.395E-03    -32.5543E+06     25.0036E+06     66.0408E+06     269.404E+03    -298.430E-03     594.558E-03    -296.129E-03     265.199E-03    -315.328E-03     611.238E-03    -295.787E-03     202.252E-03
             572     10.0455E-03     125.766E-03    -24.9899E+06     33.8554E+06     73.2328E+06    -406.871E+03    -297.469E-03     593.549E-03    -296.080E-03     255.236E-03    -313.887E-03     609.786E-03    -295.727E-03     192.903E-03
             573     10.7116E-03     126.120E-03    -18.9289E+06     39.8913E+06     75.5797E+06    -1.06560E+06    -296.924E-03     592.982E-03    -296.058E-03     240.520E-03    -312.189E-03     608.102E-03    -295.710E-03     179.953E-03
             574     11.3828E-03     126.445E-03    -13.3578E+06     44.0820E+06     74.3755E+06    -758.101E+03    -295.470E-03     591.509E-03    -296.039E-03     216.487E-03    -308.573E-03     604.506E-03    -295.712E-03     160.060E-03
             575     12.0545E-03     126.717E-03    -8.31927E+06     51.3371E+06     78.5702E+06     892.459E+03    -294.149E-03     590.186E-03    -296.036E-03     195.860E-03    -305.699E-03     601.660E-03    -295.706E-03     142.163E-03
             576     12.7230E-03     126.975E-03    -3.73986E+06     57.4101E+06     84.2232E+06     1.89996E+06    -293.750E-03     589.797E-03    -296.047E-03     132.554E-03    -300.962E-03     596.955E-03    -295.703E-03     90.8254E-03
             577     669.561E-06     123.853E-03    -136.262E+06    -259.887E+06    -133.840E+06     251.979E+03    -296.117E-03     592.152E-03    -296.036E-03     27.3956E-03    -296.377E-03     591.395E-03    -296.130E-03     21.9281E-03
             578     1.33845E-03     123.908E-03    -131.916E+06    -244.576E+06    -124.189E+06     1.19087E+06    -296.425E-03     592.478E-03    -296.053E-03     50.1363E-03    -297.017E-03     592.093E-03    -296.128E-03     40.0826E-03
             579     2.00792E-03     124.000E-03    -127.332E+06    -224.444E+06    -108.847E+06     2.09472E+06    -296.753E-03     592.855E-03    -296.102E-03     74.2321E-03    -297.910E-03     593.079E-03    -296.136E-03     59.2681E-03
             580     2.67737E-03     124.127E-03    -120.425E+06    -203.834E+06    -90.3221E+06     2.47320E+06    -297.211E-03     593.356E-03    -296.144E-03     98.3135E-03    -299.155E-03     594.410E-03    -296.126E-03     78.2712E-03
             581     3.34648E-03     124.289E-03    -112.498E+06    -175.309E+06    -70.2797E+06     2.23167E+06    -297.612E-03     593.772E-03    -296.159E-03     122.373E-03    -300.592E-03     595.933E-03    -296.093E-03     97.1121E-03
             582     4.01625E-03     124.486E-03    -103.585E+06    -137.896E+06    -47.5840E+06     1.80377E+06    -298.069E-03     594.219E-03    -296.150E-03     146.024E-03    -302.345E-03     597.775E-03    -296.038E-03     115.409E-03
             583     4.68633E-03     124.718E-03    -93.8685E+06    -98.5989E+06    -23.9583E+06     2.08223E+06    -298.820E-03     594.967E-03    -296.147E-03     169.471E-03    -304.660E-03     600.193E-03    -295.988E-03     133.341E-03
             584     5.35540E-03     124.983E-03     -84.164E+06    -54.8819E+06    -1.78547E+06     2.17871E+06    -299.568E-03     595.720E-03    -296.152E-03     192.421E-03    -307.227E-03     602.890E-03    -295.959E-03     150.736E-03
             585     6.02529E-03     125.279E-03    -74.4296E+06    -25.5022E+06     16.6595E+06     1.41748E+06    -300.146E-03     596.314E-03    -296.168E-03     214.075E-03    -309.804E-03     605.569E-03    -295.940E-03     166.926E-03
             586     6.69484E-03     125.607E-03    -65.4434E+06    -13.8534E+06     27.8471E+06     887.480E+03    -300.713E-03     596.892E-03    -296.179E-03     233.721E-03    -312.437E-03     608.254E-03    -295.925E-03     181.452E-03
             587     7.36383E-03     125.962E-03    -57.2634E+06    -6.46909E+06     35.6282E+06    -340.446E+03    -301.017E-03     597.202E-03    -296.185E-03     250.337E-03    -314.734E-03     610.590E-03    -295.914E-03     193.613E-03
             588     8.03355E-03     126.336E-03    -48.9778E+06     893.787E+03     44.7230E+06    -1.69909E+06    -300.602E-03     596.783E-03    -296.181E-03     262.080E-03    -316.007E-03     611.888E-03    -295.888E-03     201.922E-03
             589     8.70368E-03     126.721E-03    -40.3282E+06     13.6648E+06     57.2408E+06    -1.62605E+06    -299.648E-03     595.808E-03    -296.160E-03     267.031E-03    -316.183E-03     612.082E-03    -295.835E-03     204.746E-03
             590     9.37323E-03     127.105E-03    -33.0075E+06     26.1103E+06     67.4181E+06    -1.75781E+06    -298.859E-03     594.990E-03    -296.130E-03     264.634E-03    -315.759E-03     611.670E-03    -295.783E-03     201.545E-03
             591     10.0421E-03     127.480E-03    -26.1969E+06     33.5588E+06     72.7057E+06    -1.92411E+06    -298.049E-03     594.160E-03    -296.112E-03     255.796E-03    -314.496E-03     610.423E-03    -295.759E-03     193.288E-03
             592     10.7148E-03     127.835E-03    -19.3643E+06     38.5204E+06     75.8592E+06    -828.896E+03    -296.669E-03     592.767E-03    -296.098E-03     240.712E-03    -311.909E-03     607.856E-03    -295.747E-03     180.305E-03
             593     11.3840E-03     128.157E-03    -15.1133E+06     42.4993E+06     74.4094E+06     693.659E+03    -295.138E-03     591.198E-03    -296.061E-03     215.491E-03    -308.176E-03     604.118E-03    -295.728E-03     159.318E-03
             594     12.0516E-03     128.432E-03    -11.6252E+06     48.7124E+06     76.8406E+06     903.844E+03    -293.907E-03     589.944E-03    -296.037E-03     195.549E-03    -305.415E-03     601.360E-03    -295.706E-03     142.031E-03
             595     12.7220E-03     128.687E-03    -5.78545E+06     58.1168E+06     82.3518E+06     37.1266E+03    -293.384E-03     589.406E-03    -296.023E-03     132.574E-03    -300.596E-03     596.566E-03    -295.687E-03     90.8482E-03
             596     669.447E-06     125.565E-03    -134.302E+06    -261.155E+06    -132.333E+06     448.016E+03    -295.619E-03     591.949E-03    -296.331E-03     27.1538E-03    -295.868E-03     591.180E-03    -296.419E-03     21.7377E-03
             597     1.33914E-03     125.621E-03    -131.473E+06    -248.235E+06    -123.712E+06     614.067E+03    -296.362E-03     592.322E-03    -295.960E-03     50.0166E-03    -296.947E-03     591.918E-03    -296.028E-03     39.9413E-03
             598     2.00814E-03     125.712E-03    -125.452E+06    -227.806E+06    -108.299E+06     1.26481E+06    -296.819E-03     592.857E-03    -296.038E-03     74.1281E-03    -297.961E-03     593.059E-03    -296.067E-03     59.1480E-03
             599     2.67734E-03     125.840E-03    -118.384E+06    -206.658E+06    -89.1646E+06     1.76365E+06    -297.195E-03     593.300E-03    -296.106E-03     98.2570E-03    -299.125E-03     594.336E-03    -296.080E-03     78.2078E-03
             600     3.34702E-03     126.002E-03    -109.982E+06    -176.442E+06    -67.6493E+06     2.56054E+06    -297.662E-03     593.798E-03    -296.136E-03     122.225E-03    -300.625E-03     595.940E-03    -296.059E-03     96.9982E-03
             601     4.01640E-03     126.199E-03    -100.745E+06    -138.550E+06    -45.1041E+06     2.72819E+06    -298.266E-03     594.414E-03    -296.149E-03     145.983E-03    -302.530E-03     597.960E-03    -296.027E-03     115.363E-03
             602     4.68562E-03     126.430E-03    -91.1456E+06    -100.290E+06    -22.3899E+06     2.78208E+06    -298.948E-03     595.116E-03    -296.168E-03     169.221E-03    -304.766E-03     600.320E-03    -296.003E-03     133.093E-03
             603     5.35581E-03     126.696E-03    -80.9744E+06    -55.8283E+06    -4.53012E+03     3.79620E+06    -299.582E-03     595.767E-03    -296.185E-03     191.731E-03    -307.205E-03     602.904E-03    -295.986E-03     150.086E-03
             604     6.02490E-03     126.993E-03    -71.3107E+06    -24.0377E+06     19.2001E+06     4.45716E+06    -300.211E-03     596.419E-03    -296.208E-03     213.571E-03    -309.838E-03     605.652E-03    -295.974E-03     166.478E-03
             605     6.69384E-03     127.321E-03    -62.1188E+06    -10.7341E+06     30.9247E+06     3.67229E+06    -300.607E-03     596.821E-03    -296.215E-03     233.940E-03    -312.336E-03     608.203E-03    -295.954E-03     181.706E-03
             606     7.36410E-03     127.675E-03    -53.4436E+06    -1.34863E+06     39.4898E+06     2.61289E+06    -300.597E-03     596.786E-03    -296.190E-03     250.772E-03    -314.333E-03     610.214E-03    -295.913E-03     194.110E-03
             607     8.03416E-03     128.050E-03    -46.3282E+06     5.58979E+06     48.6258E+06     1.75817E+06    -300.295E-03     596.449E-03    -296.154E-03     262.112E-03    -315.692E-03     611.561E-03    -295.852E-03     202.104E-03
             608     8.70406E-03     128.433E-03    -40.1956E+06     15.4682E+06     59.2256E+06     147.875E+03    -300.013E-03     596.144E-03    -296.131E-03     267.488E-03    -316.570E-03     612.441E-03    -295.799E-03     205.177E-03
             609     9.37422E-03     128.819E-03    -33.7117E+06     28.2342E+06     69.2617E+06    -1.02081E+06    -299.551E-03     595.686E-03    -296.134E-03     265.555E-03    -316.512E-03     612.426E-03    -295.780E-03     202.289E-03
             610     10.0445E-03     129.194E-03    -27.6965E+06     34.5268E+06     74.0534E+06    -1.34495E+06    -298.403E-03     594.551E-03    -296.148E-03     255.805E-03    -314.879E-03     610.837E-03    -295.788E-03     193.205E-03
             611     10.7116E-03     129.546E-03    -23.0190E+06     36.0854E+06     74.5647E+06    -943.170E+03    -296.684E-03     592.830E-03    -296.146E-03     239.837E-03    -311.933E-03     607.910E-03    -295.792E-03     179.361E-03
             612     11.3815E-03     129.870E-03    -17.2743E+06     39.0450E+06     72.8042E+06    -298.317E+03    -294.826E-03     590.928E-03    -296.103E-03     215.253E-03    -307.883E-03     603.851E-03    -295.770E-03     159.008E-03
             613     12.0538E-03     130.143E-03    -10.0933E+06     50.8189E+06     77.4572E+06    -542.028E+03    -293.236E-03     589.285E-03    -296.049E-03     195.559E-03    -304.727E-03     600.696E-03    -295.721E-03     142.140E-03
             614     12.7241E-03     130.400E-03    -4.48990E+06     59.2791E+06     83.1892E+06    -1.38278E+06    -293.142E-03     589.154E-03    -296.011E-03     133.252E-03    -300.348E-03     596.313E-03    -295.675E-03     91.6015E-03
             615     669.098E-06     127.276E-03    -134.614E+06    -262.617E+06    -132.135E+06     125.657E+03    -295.974E-03     592.155E-03    -296.181E-03     27.0562E-03    -296.224E-03     591.380E-03    -296.266E-03     21.6115E-03
             616     1.33856E-03     127.333E-03    -131.181E+06    -249.385E+06    -122.672E+06     365.251E+03    -296.306E-03     592.341E-03    -296.035E-03     50.1067E-03    -296.888E-03     591.928E-03    -296.097E-03     40.0512E-03
             617     2.00804E-03     127.426E-03    -126.193E+06    -229.397E+06    -108.268E+06     123.029E+03    -296.737E-03     592.798E-03    -296.062E-03     73.9167E-03    -297.877E-03     592.991E-03    -296.088E-03     58.9432E-03
             618     2.67756E-03     127.552E-03    -119.159E+06    -208.648E+06    -89.1358E+06     494.941E+03    -297.206E-03     593.324E-03    -296.118E-03     97.9148E-03    -299.130E-03     594.342E-03    -296.088E-03     77.8825E-03
             619     3.34679E-03     127.715E-03    -110.571E+06    -178.758E+06    -67.8398E+06     1.03059E+06    -297.808E-03     593.974E-03    -296.166E-03     121.792E-03    -300.767E-03     596.102E-03    -296.085E-03     96.5120E-03
             620     4.01638E-03     127.912E-03    -101.433E+06    -140.767E+06    -46.0845E+06     1.71799E+06    -298.471E-03     594.679E-03    -296.208E-03     145.421E-03    -302.724E-03     598.205E-03    -296.087E-03     114.766E-03
             621     4.68583E-03     128.144E-03    -91.8094E+06    -102.884E+06    -23.7696E+06     2.59531E+06    -299.025E-03     595.270E-03    -296.245E-03     168.876E-03    -304.834E-03     600.457E-03    -296.081E-03     132.744E-03
             622     5.35439E-03     128.409E-03    -82.3253E+06    -61.2499E+06    -3.00053E+06     3.62415E+06    -299.472E-03     595.719E-03    -296.247E-03     191.994E-03    -307.098E-03     602.844E-03    -296.054E-03     150.341E-03
             623     6.02425E-03     128.707E-03    -72.3633E+06    -26.2229E+06     16.7050E+06     4.66512E+06    -299.842E-03     596.070E-03    -296.228E-03     214.191E-03    -309.489E-03     605.318E-03    -296.001E-03     167.128E-03
             624     6.69481E-03     129.034E-03    -63.0203E+06    -8.61085E+06     30.7120E+06     4.44452E+06    -300.213E-03     596.404E-03    -296.191E-03     234.419E-03    -311.963E-03     607.810E-03    -295.934E-03     182.253E-03
             625     7.36431E-03     129.388E-03    -55.1649E+06     450.345E+03     38.6918E+06     3.96829E+06    -300.431E-03     596.567E-03    -296.136E-03     250.886E-03    -314.168E-03     609.998E-03    -295.863E-03     194.331E-03
             626     8.03446E-03     129.760E-03    -47.1590E+06     10.1786E+06     48.1902E+06     3.17241E+06    -300.551E-03     596.655E-03    -296.104E-03     262.001E-03    -315.963E-03     611.796E-03    -295.810E-03     201.929E-03
             627     8.70485E-03     130.146E-03    -39.6841E+06     19.6213E+06     59.2843E+06     1.87567E+06    -300.510E-03     596.632E-03    -296.122E-03     266.784E-03    -317.065E-03     612.943E-03    -295.796E-03     204.298E-03
             628     9.37378E-03     130.533E-03    -32.9431E+06     29.2044E+06     69.4951E+06     1.97495E+06    -299.703E-03     595.870E-03    -296.167E-03     264.272E-03    -316.620E-03     612.573E-03    -295.814E-03     200.978E-03
             629     10.0418E-03     130.908E-03    -26.7740E+06     37.0023E+06     75.9746E+06     2.10181E+06    -298.068E-03     594.258E-03    -296.190E-03     255.266E-03    -314.526E-03     610.531E-03    -295.825E-03     192.778E-03
             630     10.7128E-03     131.261E-03    -20.2159E+06     39.3876E+06     77.6791E+06     928.470E+03    -296.264E-03     592.426E-03    -296.162E-03     241.023E-03    -311.571E-03     607.575E-03    -295.801E-03     180.585E-03
             631     11.3829E-03     131.581E-03    -13.1268E+06     40.3820E+06     75.9997E+06    -1.13509E+06    -294.879E-03     590.978E-03    -296.099E-03     216.859E-03    -308.010E-03     603.985E-03    -295.758E-03     160.480E-03
             632     12.0515E-03     131.855E-03    -7.64437E+06     51.2787E+06     79.9615E+06    -1.99506E+06    -293.715E-03     589.771E-03    -296.056E-03     195.788E-03    -305.239E-03     601.218E-03    -295.719E-03     142.152E-03
             633     12.7223E-03     132.109E-03    -3.75873E+06     57.6096E+06     84.8004E+06    -615.967E+03    -293.151E-03     589.185E-03    -296.034E-03     133.130E-03    -300.358E-03     596.338E-03    -295.689E-03     91.4399E-03
             634     669.538E-06     128.989E-03    -136.163E+06    -262.723E+06    -134.176E+06     155.615E+03    -296.648E-03     592.339E-03    -295.691E-03     27.1525E-03    -296.904E-03     591.569E-03    -295.783E-03     21.6668E-03
             635     1.33860E-03     129.046E-03    -133.247E+06    -249.529E+06    -124.623E+06    -147.725E+03    -296.488E-03     592.633E-03    -296.145E-03     50.0481E-03    -297.077E-03     592.225E-03    -296.213E-03     39.9866E-03
             636     2.00797E-03     129.138E-03    -128.070E+06    -229.101E+06    -109.840E+06    -111.321E+03    -296.743E-03     592.919E-03    -296.176E-03     73.7280E-03    -297.889E-03     593.115E-03    -296.207E-03     58.7632E-03
             637     2.67709E-03     129.266E-03    -121.319E+06    -209.141E+06    -90.6737E+06    -127.465E+03    -297.318E-03     593.539E-03    -296.221E-03     97.6495E-03    -299.245E-03     594.556E-03    -296.195E-03     77.6111E-03
             638     3.34650E-03     129.427E-03    -113.647E+06    -180.560E+06    -70.8445E+06    -49.8678E+03    -297.922E-03     594.192E-03    -296.270E-03     121.741E-03    -300.890E-03     596.321E-03    -296.198E-03     96.4205E-03
             639     4.01521E-03     129.626E-03    -105.062E+06    -143.264E+06    -50.0896E+06     562.714E+03    -298.337E-03     594.626E-03    -296.290E-03     145.700E-03    -302.602E-03     598.155E-03    -296.180E-03     115.043E-03
             640     4.68452E-03     129.856E-03    -95.9292E+06    -106.616E+06    -28.4993E+06     1.38063E+06    -298.717E-03     594.992E-03    -296.275E-03     169.602E-03    -304.547E-03     600.186E-03    -296.124E-03     133.490E-03
             641     5.35517E-03     130.123E-03    -85.9436E+06    -65.9453E+06    -7.18808E+06     2.22143E+06    -299.182E-03     595.408E-03    -296.226E-03     192.810E-03    -306.828E-03     602.536E-03    -296.042E-03     151.188E-03
             642     6.02511E-03     130.418E-03    -75.8204E+06    -30.3879E+06     12.0287E+06     2.79121E+06    -299.719E-03     595.892E-03    -296.173E-03     214.641E-03    -309.387E-03     605.148E-03    -295.959E-03     167.559E-03
             643     6.69463E-03     130.747E-03    -65.9337E+06    -9.34064E+06     26.3697E+06     3.86656E+06    -300.222E-03     596.352E-03    -296.130E-03     234.176E-03    -311.965E-03     607.751E-03    -295.889E-03     182.030E-03
             644     7.36528E-03     131.100E-03    -56.6019E+06     1.64917E+06     36.8572E+06     3.97064E+06    -300.737E-03     596.845E-03    -296.108E-03     250.032E-03    -314.450E-03     610.256E-03    -295.844E-03     193.430E-03
             645     8.03508E-03     131.475E-03    -48.9018E+06     12.9583E+06     47.7799E+06     2.31745E+06    -301.091E-03     597.223E-03    -296.132E-03     261.203E-03    -316.515E-03     612.381E-03    -295.841E-03     200.902E-03
             646     8.70295E-03     131.860E-03    -41.5349E+06     20.2604E+06     59.0721E+06     1.77446E+06    -300.667E-03     596.856E-03    -296.189E-03     266.534E-03    -317.229E-03     613.171E-03    -295.863E-03     203.994E-03
             647     9.37199E-03     132.247E-03    -33.4730E+06     27.4623E+06     68.7746E+06     1.70165E+06    -299.207E-03     595.422E-03    -296.214E-03     265.192E-03    -316.150E-03     612.144E-03    -295.862E-03     202.005E-03
             648     10.0429E-03     132.621E-03    -24.7221E+06     38.2331E+06     76.5872E+06     1.28543E+06    -297.311E-03     593.490E-03    -296.179E-03     256.342E-03    -313.794E-03     609.799E-03    -295.816E-03     193.995E-03
             649     10.7133E-03     132.971E-03    -16.9162E+06     42.1284E+06     79.5437E+06     1.04260E+06    -295.978E-03     592.091E-03    -296.114E-03     241.140E-03    -311.277E-03     607.250E-03    -295.753E-03     180.740E-03
             650     11.3836E-03     133.296E-03    -12.3301E+06     43.3260E+06     77.7739E+06     352.005E+03    -295.214E-03     591.272E-03    -296.058E-03     216.303E-03    -308.321E-03     604.263E-03    -295.714E-03     159.914E-03
             651     12.0543E-03     133.569E-03    -9.11579E+06     52.1472E+06     81.3333E+06     31.8697E+03    -294.375E-03     590.427E-03    -296.052E-03     195.683E-03    -305.914E-03     601.883E-03    -295.708E-03     141.977E-03
             652     12.7223E-03     133.825E-03    -5.15685E+06     56.7064E+06     85.4966E+06     102.354E+03    -293.397E-03     589.452E-03    -296.055E-03     133.430E-03    -300.640E-03     596.630E-03    -295.703E-03     91.6627E-03
             653     669.112E-06     130.703E-03    -138.437E+06    -262.425E+06    -136.316E+06    -145.782E+03    -296.859E-03     592.535E-03    -295.676E-03     27.2320E-03    -297.122E-03     591.772E-03    -295.777E-03     21.7634E-03
             654     1.33821E-03     130.760E-03    -135.307E+06    -249.041E+06    -126.590E+06     5.76667E+03    -296.625E-03     592.875E-03    -296.251E-03     50.0492E-03    -297.222E-03     592.475E-03    -296.326E-03     39.9883E-03
             655     2.00729E-03     130.851E-03    -130.621E+06    -229.182E+06    -112.111E+06    -168.161E+03    -296.932E-03     593.230E-03    -296.299E-03     73.8912E-03    -298.088E-03     593.435E-03    -296.337E-03     58.9092E-03
             656     2.67679E-03     130.979E-03    -123.820E+06    -210.140E+06    -92.9769E+06     127.134E+03    -297.289E-03     593.624E-03    -296.335E-03     97.9891E-03    -299.232E-03     594.651E-03    -296.315E-03     77.9225E-03
             657     3.34565E-03     131.142E-03    -116.160E+06    -181.365E+06    -72.8523E+06     627.456E+03    -297.566E-03     593.885E-03    -296.320E-03     122.267E-03    -300.546E-03     596.021E-03    -296.253E-03     97.0096E-03
             658     4.01588E-03     131.338E-03    -107.761E+06    -144.056E+06    -52.3735E+06     726.668E+03    -297.965E-03     594.224E-03    -296.259E-03     146.490E-03    -302.256E-03     597.773E-03    -296.156E-03     115.852E-03
             659     4.68609E-03     131.570E-03    -98.4676E+06    -107.731E+06    -31.1008E+06     709.379E+03    -298.615E-03     594.819E-03    -296.204E-03     170.010E-03    -304.465E-03     600.027E-03    -296.060E-03     133.869E-03
             660     5.35539E-03     131.834E-03    -88.7864E+06    -67.5473E+06    -10.4979E+06     314.713E+03    -299.291E-03     595.453E-03    -296.162E-03     192.541E-03    -306.944E-03     602.582E-03    -295.988E-03     150.855E-03
             661     6.02528E-03     132.132E-03    -78.9238E+06    -32.9543E+06     8.20841E+06     268.877E+03    -299.910E-03     596.050E-03    -296.140E-03     213.863E-03    -309.556E-03     605.275E-03    -295.937E-03     166.751E-03
             662     6.69530E-03     132.459E-03    -69.1122E+06    -12.8377E+06     21.8922E+06     708.584E+03    -300.589E-03     596.726E-03    -296.137E-03     233.386E-03    -312.320E-03     608.103E-03    -295.909E-03     181.118E-03
             663     7.36412E-03     132.813E-03    -59.7093E+06    -385.754E+03     33.6621E+06     941.579E+03    -301.179E-03     597.344E-03    -296.166E-03     249.803E-03    -314.920E-03     610.775E-03    -295.910E-03     192.959E-03
             664     8.03243E-03     133.189E-03    -50.4691E+06     12.6134E+06     46.3985E+06     1.43324E+06    -300.976E-03     597.180E-03    -296.204E-03     261.619E-03    -316.405E-03     612.341E-03    -295.918E-03     201.365E-03
             665     8.70300E-03     133.574E-03    -40.8846E+06     20.5782E+06     58.2749E+06     1.27480E+06    -299.920E-03     596.130E-03    -296.210E-03     267.552E-03    -316.485E-03     612.454E-03    -295.889E-03     205.224E-03
             666     9.37372E-03     133.960E-03    -32.1191E+06     29.0323E+06     69.1124E+06    -113.615E+03    -298.543E-03     594.715E-03    -296.173E-03     265.751E-03    -315.474E-03     611.435E-03    -295.823E-03     202.763E-03
             667     10.0440E-03     134.332E-03    -25.4919E+06     36.8991E+06     75.6121E+06    -490.091E+03    -297.494E-03     593.613E-03    -296.119E-03     256.214E-03    -313.971E-03     609.911E-03    -295.758E-03     193.825E-03
             668     10.7138E-03     134.685E-03    -20.4278E+06     40.4157E+06     77.3104E+06    -5.15318E+03    -296.686E-03     592.774E-03    -296.088E-03     240.687E-03    -312.003E-03     607.937E-03    -295.730E-03     180.072E-03
             669     11.3831E-03     135.007E-03    -14.5655E+06     44.1482E+06     76.6526E+06     998.250E+03    -295.529E-03     591.599E-03    -296.071E-03     215.625E-03    -308.645E-03     604.599E-03    -295.730E-03     159.114E-03
             670     12.0516E-03     135.283E-03    -8.77829E+06     52.8971E+06     80.8938E+06     1.28001E+06    -294.038E-03     590.109E-03    -296.071E-03     194.800E-03    -305.571E-03     601.564E-03    -295.730E-03     141.069E-03
             671     12.7227E-03     135.537E-03    -3.99594E+06     57.8197E+06     85.9148E+06     608.832E+03    -293.008E-03     589.070E-03    -296.062E-03     132.195E-03    -300.220E-03     596.223E-03    -295.710E-03     90.5198E-03
             672     669.163E-06     132.416E-03    -139.399E+06    -263.482E+06    -136.326E+06     269.268E+03    -296.599E-03     592.695E-03    -296.096E-03     27.3816E-03    -296.865E-03     591.927E-03    -296.193E-03     21.9115E-03
             673     1.33846E-03     132.473E-03    -135.638E+06    -249.383E+06    -126.866E+06     443.441E+03    -296.528E-03     592.820E-03    -296.292E-03     50.2424E-03    -297.125E-03     592.417E-03    -296.368E-03     40.2337E-03
             674     2.00760E-03     132.565E-03    -130.853E+06    -229.694E+06    -112.359E+06     916.102E+03    -296.839E-03     593.123E-03    -296.284E-03     74.4687E-03    -298.002E-03     593.332E-03    -296.323E-03     59.5010E-03
             675     2.67636E-03     132.692E-03    -124.517E+06    -211.153E+06    -93.5076E+06     1.05856E+06    -297.115E-03     593.398E-03    -296.282E-03     98.6947E-03    -299.071E-03     594.433E-03    -296.263E-03     78.6191E-03
             676     3.34673E-03     132.853E-03    -116.199E+06    -181.736E+06    -72.9140E+06     1.23069E+06    -297.477E-03     593.723E-03    -296.246E-03     122.452E-03    -300.467E-03     595.868E-03    -296.179E-03     97.1565E-03
             677     4.01634E-03     133.051E-03    -107.162E+06    -144.200E+06    -52.1762E+06     1.11402E+06    -298.059E-03     594.261E-03    -296.202E-03     145.908E-03    -302.341E-03     597.802E-03    -296.098E-03     115.239E-03
             678     4.68566E-03     133.282E-03    -97.8655E+06    -107.753E+06    -31.0170E+06     1.07223E+06    -298.804E-03     594.990E-03    -296.186E-03     169.130E-03    -304.635E-03     600.181E-03    -296.043E-03     132.963E-03
             679     5.35549E-03     133.548E-03    -88.6688E+06    -65.7016E+06    -9.70550E+06     954.876E+03    -299.523E-03     595.709E-03    -296.186E-03     191.883E-03    -307.166E-03     602.832E-03    -296.011E-03     150.167E-03
             680     6.02461E-03     133.845E-03    -79.4166E+06    -31.5347E+06     9.75085E+06     370.414E+03    -300.147E-03     596.348E-03    -296.201E-03     213.508E-03    -309.789E-03     605.567E-03    -295.991E-03     166.365E-03
             681     6.69385E-03     134.172E-03    -69.9282E+06    -13.6832E+06     22.8084E+06    -1.21604E+06    -300.752E-03     596.966E-03    -296.213E-03     233.700E-03    -312.489E-03     608.339E-03    -295.978E-03     181.392E-03
             682     7.36325E-03     134.528E-03    -59.8153E+06    -2.34095E+06     34.2320E+06    -1.85334E+06    -300.883E-03     597.101E-03    -296.218E-03     250.863E-03    -314.638E-03     610.537E-03    -295.957E-03     194.096E-03
             683     8.03391E-03     134.901E-03    -49.5639E+06     9.39384E+06     47.6234E+06    -1.20915E+06    -300.396E-03     596.599E-03    -296.203E-03     262.717E-03    -315.834E-03     611.756E-03    -295.907E-03     202.615E-03
             684     8.70368E-03     135.287E-03    -40.6983E+06     20.4666E+06     59.2635E+06    -1.30958E+06    -299.647E-03     595.808E-03    -296.161E-03     267.770E-03    -316.211E-03     612.128E-03    -295.836E-03     205.501E-03
             685     9.37402E-03     135.670E-03    -33.7143E+06     29.7989E+06     68.6163E+06    -642.865E+03    -298.922E-03     595.050E-03    -296.128E-03     265.018E-03    -315.845E-03     611.759E-03    -295.779E-03     201.931E-03
             686     10.0440E-03     136.046E-03    -27.3016E+06     35.3038E+06     75.1474E+06     295.534E+03    -297.960E-03     594.081E-03    -296.120E-03     255.302E-03    -314.428E-03     610.359E-03    -295.756E-03     192.774E-03
             687     10.7132E-03     136.398E-03    -20.4836E+06     40.1354E+06     77.9940E+06     270.480E+03    -296.760E-03     592.874E-03    -296.114E-03     240.477E-03    -312.066E-03     608.024E-03    -295.752E-03     179.868E-03
             688     11.3823E-03     136.723E-03    -14.3052E+06     44.3880E+06     76.2384E+06     144.167E+03    -295.297E-03     591.380E-03    -296.082E-03     216.411E-03    -308.425E-03     604.392E-03    -295.745E-03     159.978E-03
             689     12.0526E-03     136.996E-03    -9.16055E+06     50.9503E+06     79.0311E+06     681.631E+03    -293.781E-03     589.836E-03    -296.056E-03     196.505E-03    -305.361E-03     601.336E-03    -295.721E-03     142.838E-03
             690     12.7218E-03     137.249E-03    -4.07917E+06     58.1308E+06     84.4869E+06     1.17008E+06    -293.069E-03     589.101E-03    -296.032E-03     133.334E-03    -300.313E-03     596.292E-03    -295.688E-03     91.6228E-03
             691     669.008E-06     134.130E-03    -136.238E+06    -264.472E+06    -136.779E+06     190.411E+03    -296.662E-03     592.656E-03    -295.994E-03     27.4503E-03    -296.909E-03     591.877E-03    -296.097E-03     22.0612E-03
             692     1.33819E-03     134.186E-03    -134.902E+06    -251.554E+06    -127.352E+06     598.072E+03    -296.404E-03     592.648E-03    -296.244E-03     50.2467E-03    -296.996E-03     592.238E-03    -296.320E-03     40.2124E-03
             693     2.00776E-03     134.278E-03    -129.991E+06    -231.518E+06    -112.190E+06     1.21335E+06    -296.587E-03     592.782E-03    -296.195E-03     74.2141E-03    -297.743E-03     592.980E-03    -296.232E-03     59.2220E-03
             694     2.67803E-03     134.405E-03    -122.821E+06    -210.708E+06    -92.7145E+06     1.38700E+06    -297.102E-03     593.283E-03    -296.182E-03     98.0587E-03    -299.041E-03     594.308E-03    -296.162E-03     78.0132E-03
             695     3.34667E-03     134.567E-03    -114.751E+06    -182.262E+06    -72.3772E+06     982.225E+03    -297.794E-03     593.996E-03    -296.202E-03     121.854E-03    -300.771E-03     596.129E-03    -296.133E-03     96.5106E-03
             696     4.01571E-03     134.764E-03    -105.705E+06    -144.858E+06    -50.7383E+06     1.21542E+06    -298.388E-03     594.619E-03    -296.230E-03     145.627E-03    -302.659E-03     598.147E-03    -296.121E-03     114.934E-03
             697     4.68535E-03     134.995E-03    -96.0811E+06    -108.488E+06    -28.8165E+06     1.33529E+06    -298.953E-03     595.202E-03    -296.249E-03     169.337E-03    -304.782E-03     600.388E-03    -296.096E-03     133.166E-03
             698     5.35449E-03     135.261E-03    -85.3605E+06    -67.4179E+06    -7.28155E+06     2.13036E+06    -299.505E-03     595.749E-03    -296.244E-03     192.248E-03    -307.125E-03     602.848E-03    -296.059E-03     150.620E-03
             699     6.02448E-03     135.558E-03    -74.4056E+06    -28.7344E+06     14.3207E+06     2.33572E+06    -300.142E-03     596.382E-03    -296.240E-03     214.420E-03    -309.787E-03     605.620E-03    -296.019E-03     167.325E-03
             700     6.69396E-03     135.887E-03    -64.2526E+06    -7.76009E+06     29.8029E+06     984.193E+03    -300.508E-03     596.735E-03    -296.228E-03     234.678E-03    -312.257E-03     608.143E-03    -295.974E-03     182.463E-03
             701     7.36425E-03     136.240E-03    -55.3696E+06     50.2211E+03     38.5724E+06    -612.589E+03    -300.492E-03     596.678E-03    -296.186E-03     251.260E-03    -314.240E-03     610.117E-03    -295.913E-03     194.624E-03
             702     8.03411E-03     136.614E-03    -47.9443E+06     9.73422E+06     48.8310E+06    -1.44202E+06    -300.380E-03     596.529E-03    -296.148E-03     262.246E-03    -315.815E-03     611.686E-03    -295.849E-03     202.080E-03
             703     8.70468E-03     136.998E-03    -41.8434E+06     19.7272E+06     60.1239E+06    -679.625E+03    -300.139E-03     596.283E-03    -296.144E-03     266.677E-03    -316.683E-03     612.575E-03    -295.812E-03     204.302E-03
             704     9.37391E-03     137.385E-03    -35.2491E+06     27.7607E+06     69.6278E+06     202.544E+03    -299.355E-03     595.515E-03    -296.161E-03     264.467E-03    -316.278E-03     612.210E-03    -295.802E-03     201.272E-03
             705     10.0425E-03     137.759E-03    -27.5441E+06     35.4751E+06     76.3150E+06     158.501E+03    -297.894E-03     594.058E-03    -296.163E-03     255.489E-03    -314.372E-03     610.343E-03    -295.793E-03     192.970E-03
             706     10.7127E-03     138.111E-03    -20.6470E+06     39.9042E+06     78.1191E+06    -203.059E+03    -296.325E-03     592.455E-03    -296.130E-03     241.011E-03    -311.615E-03     607.587E-03    -295.767E-03     180.591E-03
             707     11.3834E-03     138.436E-03    -15.7870E+06     44.0433E+06     75.6830E+06    -218.717E+03    -294.657E-03     590.718E-03    -296.060E-03     216.100E-03    -307.755E-03     603.696E-03    -295.723E-03     159.857E-03
             708     12.0540E-03     138.706E-03    -10.6316E+06     49.8496E+06     78.6490E+06    -140.870E+03    -293.568E-03     589.582E-03    -296.014E-03     195.790E-03    -305.098E-03     601.023E-03    -295.677E-03     142.242E-03
             709     12.7246E-03     138.966E-03    -5.64141E+06     57.3854E+06     83.2235E+06    -60.0533E+03    -293.400E-03     589.392E-03    -295.991E-03     132.198E-03    -300.593E-03     596.527E-03    -295.650E-03     90.5852E-03
             710     669.322E-06     135.843E-03    -136.940E+06    -265.955E+06    -135.397E+06     192.233E+03    -296.549E-03     592.737E-03    -296.188E-03     26.3059E-03    -296.798E-03     591.949E-03    -296.280E-03     20.8839E-03
             711     1.33864E-03     135.900E-03    -134.328E+06    -252.999E+06    -126.678E+06     421.079E+03    -296.283E-03     592.546E-03    -296.263E-03     49.8742E-03    -296.871E-03     592.127E-03    -296.335E-03     39.8076E-03
             712     2.00786E-03     135.990E-03    -129.066E+06    -232.648E+06    -111.750E+06     97.3259E+03    -296.700E-03     592.901E-03    -296.201E-03     73.8545E-03    -297.845E-03     593.086E-03    -296.235E-03     58.8662E-03
             713     2.67656E-03     136.118E-03    -122.114E+06    -211.624E+06    -92.9631E+06     435.755E+03    -297.197E-03     593.410E-03    -296.213E-03     97.8314E-03    -299.128E-03     594.426E-03    -296.194E-03     77.7802E-03
             714     3.34634E-03     136.280E-03    -114.043E+06    -182.289E+06    -71.7195E+06     741.815E+03    -297.673E-03     593.901E-03    -296.228E-03     121.977E-03    -300.641E-03     596.025E-03    -296.157E-03     96.7015E-03
             715     4.01601E-03     136.477E-03    -105.010E+06    -145.976E+06    -49.7478E+06     673.195E+03    -298.334E-03     594.566E-03    -296.232E-03     146.217E-03    -302.608E-03     598.093E-03    -296.117E-03     115.549E-03
             716     4.68519E-03     136.709E-03    -94.8388E+06    -109.332E+06    -27.1869E+06     608.938E+03    -298.973E-03     595.212E-03    -296.239E-03     169.908E-03    -304.794E-03     600.387E-03    -296.079E-03     133.779E-03
             717     5.35526E-03     136.973E-03    -84.4083E+06    -69.4574E+06    -6.30287E+06    -133.322E+03    -299.507E-03     595.734E-03    -296.226E-03     192.826E-03    -307.131E-03     602.829E-03    -296.035E-03     151.189E-03
             718     6.02477E-03     137.271E-03    -73.8433E+06    -31.3774E+06     13.8945E+06     129.120E+03    -299.970E-03     596.173E-03    -296.204E-03     214.763E-03    -309.624E-03     605.414E-03    -295.982E-03     167.628E-03
             719     6.69496E-03     137.599E-03    -64.0355E+06    -7.50356E+06     29.3513E+06     2.49278E+06    -300.336E-03     596.513E-03    -296.178E-03     234.159E-03    -312.088E-03     607.927E-03    -295.927E-03     181.924E-03
             720     7.36472E-03     137.952E-03    -57.1755E+06     5.03443E+06     38.9383E+06     2.78328E+06    -300.710E-03     596.865E-03    -296.156E-03     250.185E-03    -314.457E-03     610.314E-03    -295.885E-03     193.492E-03
             721     8.03459E-03     138.328E-03    -51.4533E+06     14.9767E+06     49.5320E+06     443.555E+03    -300.805E-03     596.973E-03    -296.167E-03     261.234E-03    -316.233E-03     612.128E-03    -295.867E-03     201.015E-03
             722     8.70311E-03     138.711E-03    -43.7210E+06     19.1465E+06     60.4903E+06    -756.463E+03    -300.292E-03     596.493E-03    -296.200E-03     266.314E-03    -316.845E-03     612.782E-03    -295.862E-03     203.857E-03
             723     9.37245E-03     139.099E-03    -34.7521E+06     26.6656E+06     70.1883E+06    -732.423E+03    -299.042E-03     595.250E-03    -296.208E-03     264.639E-03    -315.960E-03     611.936E-03    -295.846E-03     201.491E-03
             724     10.0436E-03     139.471E-03    -27.4481E+06     34.6564E+06     75.9075E+06    -397.188E+03    -297.637E-03     593.818E-03    -296.181E-03     255.639E-03    -314.100E-03     610.087E-03    -295.812E-03     193.205E-03
             725     10.7134E-03     139.825E-03    -21.6586E+06     39.7021E+06     77.6156E+06     404.482E+03    -296.138E-03     592.272E-03    -296.134E-03     240.249E-03    -311.406E-03     607.380E-03    -295.772E-03     179.861E-03
             726     11.3831E-03     140.146E-03    -15.2390E+06     44.6865E+06     77.1037E+06     415.949E+03    -294.731E-03     590.805E-03    -296.074E-03     215.173E-03    -307.800E-03     603.755E-03    -295.731E-03     158.917E-03
             727     12.0528E-03     140.420E-03    -9.78375E+06     51.0766E+06     80.1692E+06     -68.805E+03    -293.974E-03     590.020E-03    -296.046E-03     194.919E-03    -305.485E-03     601.445E-03    -295.705E-03     141.288E-03
             728     12.7220E-03     140.676E-03    -5.20830E+06     57.5324E+06     84.7459E+06    -1.08282E+06    -293.587E-03     589.633E-03    -296.046E-03     130.617E-03    -300.761E-03     596.747E-03    -295.698E-03     88.9427E-03
             729     668.411E-06     137.557E-03    -138.637E+06    -267.628E+06    -135.117E+06     165.452E+03    -296.102E-03     592.530E-03    -296.428E-03     26.8358E-03    -296.361E-03     591.740E-03    -296.515E-03     21.3321E-03
             730     1.33808E-03     137.611E-03    -134.569E+06    -253.065E+06    -126.600E+06     140.222E+03    -296.461E-03     592.674E-03    -296.213E-03     50.0705E-03    -297.045E-03     592.249E-03    -296.284E-03     40.0677E-03
             731     2.00766E-03     137.704E-03    -129.499E+06    -233.262E+06    -111.462E+06     330.628E+03    -296.737E-03     592.944E-03    -296.207E-03     74.1463E-03    -297.881E-03     593.124E-03    -296.239E-03     59.2531E-03
             732     2.67724E-03     137.831E-03    -123.250E+06    -212.344E+06    -92.5802E+06     145.367E+03    -297.089E-03     593.295E-03    -296.206E-03     98.3627E-03    -299.028E-03     594.311E-03    -296.183E-03     78.3276E-03
             733     3.34666E-03     137.992E-03    -114.731E+06    -182.740E+06    -71.6919E+06     117.316E+03    -297.575E-03     593.768E-03    -296.193E-03     122.398E-03    -300.551E-03     595.896E-03    -296.120E-03     97.1255E-03
             734     4.01626E-03     138.190E-03    -105.330E+06    -146.467E+06    -49.8768E+06    -289.482E+03    -298.265E-03     594.450E-03    -296.184E-03     146.317E-03    -302.538E-03     597.974E-03    -296.069E-03     115.644E-03
             735     4.68609E-03     138.422E-03    -96.1287E+06    -109.635E+06    -27.9151E+06    -279.096E+03    -298.963E-03     595.156E-03    -296.193E-03     169.560E-03    -304.785E-03     600.329E-03    -296.035E-03     133.408E-03
             736     5.35530E-03     138.686E-03    -87.3912E+06    -66.8917E+06    -6.44258E+06    -310.226E+03    -299.554E-03     595.753E-03    -296.199E-03     192.336E-03    -307.201E-03     602.871E-03    -296.008E-03     150.622E-03
             737     6.02501E-03     138.985E-03    -79.4120E+06    -33.2490E+06     11.9115E+06    -938.262E+03    -300.033E-03     596.234E-03    -296.201E-03     213.954E-03    -309.693E-03     605.459E-03    -295.978E-03     166.782E-03
             738     6.69452E-03     139.311E-03    -70.3441E+06    -14.3543E+06     24.0583E+06    -466.922E+03    -300.576E-03     596.772E-03    -296.196E-03     233.486E-03    -312.328E-03     608.154E-03    -295.952E-03     181.145E-03
             739     7.36382E-03     139.667E-03    -59.3161E+06     4.16443E+06     36.2732E+06     1.36932E+06    -301.022E-03     597.228E-03    -296.205E-03     249.721E-03    -314.769E-03     610.673E-03    -295.944E-03     192.914E-03
             740     8.03281E-03     140.039E-03    -48.2698E+06     18.7276E+06     51.1660E+06     2.44871E+06    -300.810E-03     597.047E-03    -296.237E-03     261.203E-03    -316.225E-03     612.209E-03    -295.938E-03     201.017E-03
             741     8.70299E-03     140.427E-03    -39.4381E+06     22.9801E+06     62.4180E+06     1.42104E+06    -299.935E-03     596.182E-03    -296.247E-03     266.672E-03    -316.485E-03     612.492E-03    -295.911E-03     204.309E-03
             742     9.37354E-03     140.809E-03    -32.7439E+06     26.7713E+06     69.7265E+06     664.275E+03    -298.900E-03     595.126E-03    -296.227E-03     264.744E-03    -315.817E-03     611.820E-03    -295.869E-03     201.620E-03
             743     10.0425E-03     141.185E-03    -25.8842E+06     33.2560E+06     75.7125E+06     1.20123E+06    -297.609E-03     593.805E-03    -296.196E-03     255.452E-03    -314.056E-03     610.059E-03    -295.828E-03     193.041E-03
             744     10.7122E-03     141.536E-03    -18.6051E+06     40.8794E+06     79.1794E+06     1.10877E+06    -296.323E-03     592.479E-03    -296.156E-03     240.105E-03    -311.573E-03     607.579E-03    -295.793E-03     179.707E-03
             745     11.3826E-03     141.859E-03    -12.8869E+06     45.0492E+06     77.5999E+06     508.003E+03    -295.424E-03     591.541E-03    -296.117E-03     215.317E-03    -308.500E-03     604.506E-03    -295.776E-03     158.918E-03
             746     12.0524E-03     142.133E-03    -8.04920E+06     52.8391E+06     80.8862E+06     339.417E+03    -293.941E-03     590.047E-03    -296.105E-03     195.057E-03    -305.477E-03     601.507E-03    -295.766E-03     141.373E-03
             747     12.7217E-03     142.392E-03    -2.90665E+06     58.7260E+06     86.1510E+06     279.903E+03    -292.617E-03     588.696E-03    -296.079E-03     132.803E-03    -299.841E-03     595.868E-03    -295.729E-03     91.1361E-03
             748     670.629E-06     139.270E-03    -136.721E+06    -267.345E+06    -137.125E+06    -189.851E+03    -296.288E-03     591.904E-03    -295.615E-03     27.3555E-03    -296.533E-03     591.112E-03    -295.715E-03     21.9913E-03
             749     1.33889E-03     139.326E-03    -135.001E+06    -254.427E+06    -126.900E+06     452.119E+03    -296.580E-03     592.563E-03    -295.983E-03     50.2480E-03    -297.168E-03     592.137E-03    -296.053E-03     40.2196E-03
             750     2.00779E-03     139.416E-03    -130.254E+06    -233.354E+06    -111.165E+06     644.872E+03    -296.715E-03     592.798E-03    -296.083E-03     74.3868E-03    -297.866E-03     592.981E-03    -296.111E-03     59.4663E-03
             751     2.67744E-03     139.543E-03    -122.915E+06    -212.115E+06    -91.6853E+06     372.842E+03    -297.083E-03     593.195E-03    -296.112E-03     98.2329E-03    -299.019E-03     594.208E-03    -296.085E-03     78.2176E-03
             752     3.34693E-03     139.705E-03    -114.998E+06    -183.185E+06    -71.5145E+06     238.732E+03    -297.793E-03     593.932E-03    -296.139E-03     122.340E-03    -300.777E-03     596.064E-03    -296.064E-03     96.9913E-03
             753     4.01624E-03     139.903E-03    -106.504E+06    -146.269E+06    -50.1364E+06     590.994E+03    -298.505E-03     594.687E-03    -296.182E-03     146.009E-03    -302.786E-03     598.216E-03    -296.066E-03     115.279E-03
             754     4.68543E-03     140.135E-03    -97.6126E+06    -109.429E+06    -28.2244E+06     761.654E+03    -299.077E-03     595.304E-03    -296.227E-03     169.102E-03    -304.913E-03     600.487E-03    -296.068E-03     132.881E-03
             755     5.35501E-03     140.400E-03    -88.0896E+06    -67.3012E+06    -7.31921E+06     1.53467E+06    -299.640E-03     595.887E-03    -296.248E-03     191.833E-03    -307.282E-03     603.000E-03    -296.059E-03     150.093E-03
             756     6.02441E-03     140.697E-03    -77.2835E+06    -30.3605E+06     13.4038E+06     1.74448E+06    -300.193E-03     596.460E-03    -296.267E-03     213.507E-03    -309.832E-03     605.678E-03    -296.043E-03     166.372E-03
             757     6.69381E-03     141.025E-03    -67.1525E+06    -11.3788E+06     28.0286E+06    -702.795E+03    -300.736E-03     597.018E-03    -296.282E-03     233.551E-03    -312.472E-03     608.394E-03    -296.028E-03     181.234E-03
             758     7.36334E-03     141.380E-03    -57.3783E+06    -1.05319E+06     37.2828E+06    -2.31834E+06    -300.991E-03     597.275E-03    -296.284E-03     250.237E-03    -314.731E-03     610.700E-03    -296.013E-03     193.414E-03
             759     8.03309E-03     141.755E-03    -48.4653E+06     11.9379E+06     47.7405E+06    -166.204E+03    -300.557E-03     596.833E-03    -296.276E-03     261.437E-03    -315.973E-03     611.981E-03    -295.984E-03     201.235E-03
             760     8.70304E-03     142.137E-03    -40.8586E+06     24.4127E+06     59.4243E+06     2.25167E+06    -299.833E-03     596.093E-03    -296.260E-03     266.470E-03    -316.374E-03     612.403E-03    -295.939E-03     204.143E-03
             761     9.37238E-03     142.524E-03    -33.7660E+06     28.9481E+06     68.8860E+06     1.55155E+06    -298.959E-03     595.206E-03    -296.247E-03     264.478E-03    -315.863E-03     611.893E-03    -295.895E-03     201.382E-03
             762     10.0427E-03     142.897E-03    -26.6372E+06     33.1351E+06     75.1075E+06    -67.6663E+03    -297.792E-03     594.022E-03    -296.230E-03     255.044E-03    -314.230E-03     610.265E-03    -295.864E-03     192.580E-03
             763     10.7135E-03     143.249E-03    -19.7408E+06     39.9397E+06     77.8712E+06    -282.412E+03    -296.655E-03     592.864E-03    -296.209E-03     239.380E-03    -311.901E-03     607.956E-03    -295.849E-03     178.847E-03
             764     11.3820E-03     143.574E-03    -14.5632E+06     43.4344E+06     75.9741E+06     997.861E+03    -295.003E-03     591.173E-03    -296.171E-03     215.013E-03    -308.080E-03     604.132E-03    -295.833E-03     158.665E-03
             765     12.0504E-03     143.847E-03    -9.59759E+06     54.5927E+06     79.9642E+06     672.142E+03    -292.675E-03     588.782E-03    -296.108E-03     195.491E-03    -304.209E-03     600.245E-03    -295.773E-03     142.042E-03
             766     12.7231E-03     144.098E-03    -4.48279E+06     60.4047E+06     84.8802E+06    -231.893E+03    -292.125E-03     588.154E-03    -296.029E-03     133.181E-03    -299.349E-03     595.330E-03    -295.686E-03     91.6132E-03
             767     668.576E-06     140.982E-03    -137.656E+06    -268.071E+06    -134.963E+06     1.05598E+06    -296.540E-03     592.015E-03    -295.474E-03     26.6893E-03    -296.790E-03     591.217E-03    -295.561E-03     21.2881E-03
             768     1.33891E-03     141.037E-03    -135.138E+06    -255.173E+06    -125.937E+06     348.740E+03    -296.235E-03     592.206E-03    -295.970E-03     49.7299E-03    -296.823E-03     591.773E-03    -296.034E-03     39.6967E-03
             769     2.00858E-03     141.130E-03    -128.925E+06    -233.511E+06    -110.625E+06     443.697E+03    -296.765E-03     592.779E-03    -296.014E-03     73.8044E-03    -297.908E-03     592.956E-03    -296.041E-03     58.8399E-03
             770     2.67757E-03     141.256E-03    -122.344E+06    -213.019E+06    -91.5290E+06     902.236E+03    -297.350E-03     593.456E-03    -296.106E-03     97.8346E-03    -299.284E-03     594.465E-03    -296.077E-03     77.7605E-03
             771     3.34692E-03     141.418E-03    -114.537E+06    -184.032E+06    -70.8324E+06     1.38476E+06    -298.027E-03     594.222E-03    -296.195E-03     121.917E-03    -301.005E-03     596.346E-03    -296.117E-03     96.5405E-03
             772     4.01597E-03     141.617E-03    -105.834E+06    -146.849E+06    -49.5022E+06     1.89192E+06    -298.616E-03     594.881E-03    -296.265E-03     145.585E-03    -302.890E-03     598.402E-03    -296.146E-03     114.854E-03
             773     4.68516E-03     141.848E-03    -96.0426E+06    -109.572E+06    -27.3094E+06     2.13098E+06    -299.174E-03     595.490E-03    -296.316E-03     169.008E-03    -305.001E-03     600.666E-03    -296.155E-03     132.798E-03
             774     5.35445E-03     142.113E-03    -85.3656E+06    -68.1437E+06    -5.70602E+06     1.35503E+06    -299.728E-03     596.067E-03    -296.340E-03     191.857E-03    -307.358E-03     603.169E-03    -296.145E-03     150.102E-03
             775     6.02382E-03     142.411E-03    -74.4511E+06    -29.7339E+06     15.0734E+06     768.839E+03    -300.216E-03     596.566E-03    -296.351E-03     213.645E-03    -309.849E-03     605.787E-03    -296.124E-03     166.474E-03
             776     6.69349E-03     142.738E-03    -64.7051E+06    -7.69033E+06     29.5467E+06     1.13484E+06    -300.617E-03     596.963E-03    -296.346E-03     233.705E-03    -312.347E-03     608.350E-03    -296.093E-03     181.441E-03
             777     7.36301E-03     143.094E-03    -58.1522E+06     1.46897E+06     38.4436E+06     1.20094E+06    -300.656E-03     596.979E-03    -296.323E-03     250.193E-03    -314.391E-03     610.402E-03    -296.049E-03     193.512E-03
             778     8.03284E-03     143.466E-03    -52.5119E+06     9.43426E+06     48.1551E+06     229.332E+03    -300.527E-03     596.831E-03    -296.304E-03     261.421E-03    -315.948E-03     611.959E-03    -296.001E-03     201.279E-03
             779     8.70239E-03     143.851E-03    -44.2418E+06     20.0973E+06     59.9784E+06    -531.605E+03    -300.250E-03     596.554E-03    -296.304E-03     266.509E-03    -316.805E-03     612.849E-03    -295.969E-03     204.087E-03
             780     9.37254E-03     144.236E-03    -34.7118E+06     32.4355E+06     71.1027E+06    -1.03820E+06    -299.310E-03     595.624E-03    -296.314E-03     263.899E-03    -316.217E-03     612.318E-03    -295.956E-03     200.673E-03
             781     10.0422E-03     144.610E-03    -28.0648E+06     34.7393E+06     75.1987E+06    -1.26459E+06    -298.014E-03     594.330E-03    -296.316E-03     254.287E-03    -314.457E-03     610.579E-03    -295.950E-03     191.685E-03
             782     10.7096E-03     144.964E-03    -23.2561E+06     36.6491E+06     75.6737E+06    -279.525E+03    -295.990E-03     592.271E-03    -296.281E-03     239.571E-03    -311.269E-03     607.378E-03    -295.922E-03     179.094E-03
             783     11.3801E-03     145.285E-03    -16.8841E+06     42.7072E+06     75.0676E+06     52.5925E+03    -293.668E-03     589.845E-03    -296.177E-03     216.068E-03    -306.771E-03     602.822E-03    -295.839E-03     159.955E-03
             784     12.0543E-03     145.556E-03    -10.0335E+06     56.5386E+06     80.1320E+06    -544.165E+03    -292.902E-03     588.978E-03    -296.077E-03     195.309E-03    -304.429E-03     600.438E-03    -295.743E-03     141.832E-03
             785     12.7242E-03     145.810E-03    -4.61817E+06     60.9039E+06     85.7190E+06    -921.789E+03    -293.299E-03     589.343E-03    -296.044E-03     131.935E-03    -300.506E-03     596.502E-03    -295.697E-03     90.2022E-03
             786     669.490E-06     142.692E-03    -138.683E+06    -270.730E+06    -134.800E+06        -255.063    -296.505E-03     592.413E-03    -295.908E-03     27.0352E-03    -296.760E-03     591.606E-03    -295.989E-03     21.4990E-03
             787     1.33857E-03     142.751E-03    -132.909E+06    -255.113E+06    -124.965E+06     560.226E+03    -296.430E-03     592.595E-03    -296.165E-03     49.6905E-03    -297.002E-03     592.152E-03    -296.227E-03     39.7193E-03
             788     2.00762E-03     142.842E-03    -128.572E+06    -235.713E+06    -110.439E+06     1.12822E+06    -296.807E-03     592.995E-03    -296.189E-03     73.3713E-03    -297.942E-03     593.158E-03    -296.213E-03     58.4213E-03
             789     2.67720E-03     142.969E-03    -121.750E+06    -214.403E+06    -90.9463E+06     1.64869E+06    -297.491E-03     593.754E-03    -296.262E-03     97.6264E-03    -299.420E-03     594.753E-03    -296.230E-03     77.5312E-03
             790     3.34583E-03     143.132E-03    -113.428E+06    -185.181E+06    -69.9039E+06     1.61915E+06    -298.095E-03     594.439E-03    -296.344E-03     121.821E-03    -301.061E-03     596.548E-03    -296.260E-03     96.4837E-03
             791     4.01517E-03     143.330E-03    -103.934E+06    -148.075E+06    -48.2401E+06     1.62114E+06    -298.528E-03     594.916E-03    -296.387E-03     145.595E-03    -302.789E-03     598.421E-03    -296.263E-03     114.890E-03
             792     4.68473E-03     143.562E-03    -94.1419E+06    -110.744E+06    -26.2337E+06     1.72972E+06    -299.120E-03     595.527E-03    -296.407E-03     169.178E-03    -304.940E-03     600.695E-03    -296.241E-03     132.966E-03
             793     5.35399E-03     143.828E-03    -84.3979E+06    -67.4498E+06    -4.08093E+06     1.85148E+06    -299.698E-03     596.109E-03    -296.411E-03     192.052E-03    -307.326E-03     603.210E-03    -296.211E-03     150.330E-03
             794     6.02357E-03     144.124E-03    -75.8094E+06    -29.3001E+06     16.0562E+06     1.88223E+06    -300.188E-03     596.596E-03    -296.408E-03     213.935E-03    -309.839E-03     605.828E-03    -296.176E-03     166.781E-03
             795     6.69299E-03     144.453E-03    -67.6682E+06    -9.43617E+06     28.4505E+06     2.28613E+06    -300.560E-03     596.947E-03    -296.387E-03     233.783E-03    -312.306E-03     608.338E-03    -296.133E-03     181.522E-03
             796     7.36297E-03     144.806E-03    -57.3699E+06     2.93332E+06     39.2019E+06     3.05034E+06    -300.764E-03     597.130E-03    -296.366E-03     249.724E-03    -314.482E-03     610.541E-03    -296.091E-03     193.049E-03
             797     8.03308E-03     145.180E-03    -46.3852E+06     12.0211E+06     51.2401E+06     3.28263E+06    -300.871E-03     597.243E-03    -296.372E-03     260.541E-03    -316.244E-03     612.345E-03    -296.066E-03     200.348E-03
             798     8.70264E-03     145.565E-03    -38.5582E+06     24.8778E+06     62.6699E+06     2.00353E+06    -300.377E-03     596.772E-03    -296.394E-03     265.158E-03    -316.882E-03     613.047E-03    -296.061E-03     202.684E-03
             799     9.37112E-03     145.950E-03    -33.1061E+06     34.8996E+06     71.8378E+06     857.751E+03    -299.176E-03     595.586E-03    -296.410E-03     263.421E-03    -316.071E-03     612.278E-03    -296.053E-03     200.215E-03
             800     10.0394E-03     146.325E-03    -26.2214E+06     33.1302E+06     76.3259E+06     1.92719E+06    -297.121E-03     593.494E-03    -296.373E-03     255.485E-03    -313.569E-03     609.746E-03    -296.002E-03     193.174E-03
             801     10.7117E-03     146.676E-03    -19.0141E+06     38.1716E+06     78.9918E+06     1.86095E+06    -295.165E-03     591.433E-03    -296.268E-03     240.974E-03    -310.449E-03     606.556E-03    -295.901E-03     180.783E-03
             802     11.3845E-03     146.993E-03    -12.9340E+06     46.9334E+06     78.5919E+06    -166.090E+03    -294.523E-03     590.679E-03    -296.156E-03     215.298E-03    -307.597E-03     603.645E-03    -295.812E-03     159.076E-03
             803     12.0520E-03     147.269E-03    -8.34801E+06     56.8151E+06     82.0765E+06    -979.850E+03    -293.857E-03     589.970E-03    -296.113E-03     194.284E-03    -305.354E-03     601.401E-03    -295.773E-03     140.661E-03
             804     12.7193E-03     147.527E-03    -4.25628E+06     58.3935E+06     85.9697E+06     89.3888E+03    -292.556E-03     588.642E-03    -296.086E-03     132.546E-03    -299.763E-03     595.792E-03    -295.735E-03     90.9182E-03
             805     669.417E-06     144.408E-03    -135.386E+06    -270.759E+06    -134.073E+06    -477.798E+03    -296.677E-03     592.708E-03    -296.032E-03     27.0617E-03    -296.915E-03     591.894E-03    -296.113E-03     21.5723E-03
             806     1.33796E-03     144.463E-03    -132.854E+06    -258.124E+06    -125.021E+06     852.851E+03    -296.733E-03     593.074E-03    -296.341E-03     49.7262E-03    -297.304E-03     592.619E-03    -296.399E-03     39.7072E-03
             807     2.00747E-03     144.555E-03    -128.044E+06    -237.391E+06    -109.625E+06     1.23140E+06    -297.003E-03     593.395E-03    -296.393E-03     73.9094E-03    -298.140E-03     593.554E-03    -296.411E-03     58.9273E-03
             808     2.67623E-03     144.683E-03    -120.740E+06    -215.827E+06    -90.4978E+06     999.426E+03    -297.491E-03     593.923E-03    -296.432E-03     98.1931E-03    -299.419E-03     594.918E-03    -296.396E-03     78.0929E-03
             809     3.34593E-03     144.846E-03    -112.200E+06    -185.910E+06    -69.4633E+06     1.25786E+06    -297.960E-03     594.417E-03    -296.457E-03     122.129E-03    -300.920E-03     596.521E-03    -296.372E-03     96.8179E-03
             810     4.01515E-03     145.044E-03    -103.600E+06    -149.568E+06    -47.8123E+06     1.70639E+06    -298.526E-03     594.991E-03    -296.465E-03     145.922E-03    -302.786E-03     598.491E-03    -296.337E-03     115.233E-03
             811     4.68433E-03     145.275E-03     -94.654E+06    -112.184E+06    -25.7441E+06     2.09721E+06    -299.129E-03     595.599E-03    -296.470E-03     169.406E-03    -304.950E-03     600.760E-03    -296.299E-03     133.213E-03
             812     5.35402E-03     145.541E-03    -85.1454E+06    -69.2175E+06    -4.40551E+06     2.81325E+06    -299.684E-03     596.145E-03    -296.462E-03     192.012E-03    -307.307E-03     603.234E-03    -296.260E-03     150.322E-03
             813     6.02349E-03     145.838E-03    -74.5630E+06    -31.1337E+06     16.5573E+06     3.90576E+06    -300.264E-03     596.724E-03    -296.460E-03     213.634E-03    -309.901E-03     605.938E-03    -296.224E-03     166.481E-03
             814     6.69320E-03     146.166E-03    -63.0110E+06    -8.04153E+06     32.5732E+06     3.58728E+06    -300.816E-03     597.281E-03    -296.466E-03     233.028E-03    -312.531E-03     608.650E-03    -296.200E-03     180.718E-03
             815     7.36248E-03     146.519E-03    -53.7814E+06     2.08484E+06     41.3334E+06      2.4186E+06    -301.262E-03     597.740E-03    -296.478E-03     248.885E-03    -314.952E-03     611.127E-03    -296.197E-03     192.066E-03
             816     8.03079E-03     146.894E-03    -47.1659E+06     9.38491E+06     49.1005E+06     2.91414E+06    -301.041E-03     597.542E-03    -296.501E-03     260.171E-03    -316.410E-03     612.635E-03    -296.200E-03     199.898E-03
             817     8.69936E-03     147.278E-03    -40.3601E+06     29.1938E+06     61.1488E+06     3.62642E+06    -299.929E-03     596.425E-03    -296.496E-03     265.841E-03    -316.456E-03     612.735E-03    -296.174E-03     203.493E-03
             818     9.36982E-03     147.664E-03    -32.8266E+06     35.9723E+06     71.3571E+06     3.51072E+06    -298.227E-03     594.674E-03    -296.447E-03     264.631E-03    -315.139E-03     611.390E-03    -296.095E-03     201.694E-03
             819     10.0424E-03     148.036E-03    -25.2907E+06     32.0816E+06     76.9340E+06     2.54784E+06    -296.519E-03     592.875E-03    -296.357E-03     254.910E-03    -312.929E-03     609.086E-03    -295.982E-03     192.764E-03
             820     10.7136E-03     148.383E-03    -18.5843E+06     41.3172E+06     80.4051E+06     1.40624E+06    -295.868E-03     592.131E-03    -296.263E-03     238.955E-03    -311.082E-03     607.193E-03    -295.894E-03     178.642E-03
             821     11.3803E-03     148.711E-03    -13.9796E+06     50.5579E+06     79.5937E+06     719.590E+03    -295.053E-03     591.254E-03    -296.201E-03     214.381E-03    -308.113E-03     604.212E-03    -295.856E-03     158.057E-03
             822     12.0499E-03     148.981E-03    -10.2902E+06     57.1474E+06     82.0609E+06     355.529E+03    -292.963E-03     589.113E-03    -296.150E-03     195.072E-03    -304.493E-03     600.571E-03    -295.808E-03     141.623E-03
             823     12.7249E-03     149.235E-03    -5.65000E+06     56.9479E+06     85.2968E+06     137.453E+03    -291.900E-03     587.974E-03    -296.074E-03     132.515E-03    -299.116E-03     595.125E-03    -295.722E-03     91.0351E-03
             824     668.569E-06     146.121E-03    -135.392E+06    -272.177E+06    -133.688E+06     1.44518E+06    -296.658E-03     593.005E-03    -296.347E-03     27.1416E-03    -296.895E-03     592.183E-03    -296.424E-03     21.7273E-03
             825     1.33847E-03     146.178E-03    -133.786E+06    -259.911E+06    -124.644E+06     807.654E+03    -296.706E-03     593.161E-03    -296.455E-03     49.9902E-03    -297.282E-03     592.702E-03    -296.508E-03     39.9416E-03
             826     2.00705E-03     146.269E-03    -127.688E+06    -238.385E+06    -109.463E+06     595.941E+03    -297.110E-03     593.582E-03    -296.471E-03     74.1083E-03    -298.247E-03     593.736E-03    -296.488E-03     59.1050E-03
             827     2.67660E-03     146.397E-03    -121.191E+06    -217.196E+06    -90.7004E+06     947.850E+03    -297.476E-03     593.978E-03    -296.501E-03     98.3740E-03    -299.403E-03     594.966E-03    -296.464E-03     78.2990E-03
             828     3.34539E-03     146.560E-03    -113.465E+06    -188.021E+06    -70.1587E+06     1.41350E+06    -297.982E-03     594.493E-03    -296.511E-03     122.218E-03    -300.948E-03     596.592E-03    -296.424E-03     96.8933E-03
             829     4.01497E-03     146.757E-03    -104.602E+06    -151.077E+06    -48.1653E+06     1.98543E+06    -298.643E-03     595.165E-03    -296.522E-03     145.849E-03    -302.908E-03     598.663E-03    -296.392E-03     115.118E-03
             830     4.68436E-03     146.990E-03    -94.9903E+06    -113.747E+06    -25.9370E+06     2.28672E+06    -299.272E-03     595.815E-03    -296.543E-03     168.960E-03    -305.084E-03     600.961E-03    -296.370E-03     132.738E-03
             831     5.35350E-03     147.254E-03    -84.6462E+06    -71.8358E+06    -4.50881E+06     2.67264E+06    -299.903E-03     596.460E-03    -296.557E-03     191.531E-03    -307.519E-03     603.533E-03    -296.352E-03     149.757E-03
             832     6.02280E-03     147.553E-03    -74.3461E+06    -32.7569E+06     16.2895E+06     2.39562E+06    -300.550E-03     597.131E-03    -296.581E-03     212.912E-03    -310.170E-03     606.323E-03    -296.344E-03     165.659E-03
             833     6.69177E-03     147.880E-03    -65.5919E+06    -9.64680E+06     29.5880E+06     2.45904E+06    -301.051E-03     597.653E-03    -296.602E-03     232.400E-03    -312.752E-03     609.001E-03    -296.345E-03     180.038E-03
             834     7.36044E-03     148.235E-03    -58.5764E+06     502.144E+03     36.4287E+06     3.95318E+06    -301.113E-03     597.715E-03    -296.602E-03     249.126E-03    -314.817E-03     611.108E-03    -296.336E-03     192.364E-03
             835     8.03018E-03     148.608E-03    -50.9755E+06     11.3062E+06     47.2168E+06     3.51551E+06    -300.463E-03     597.047E-03    -296.584E-03     261.017E-03    -315.868E-03     612.174E-03    -296.291E-03     200.875E-03
             836     8.70128E-03     148.992E-03    -42.3851E+06     27.7584E+06     61.9566E+06     2.21713E+06    -299.355E-03     595.891E-03    -296.535E-03     266.302E-03    -315.894E-03     612.197E-03    -296.204E-03     204.076E-03
             837     9.37198E-03     149.375E-03    -33.7923E+06     34.4155E+06     72.4486E+06     2.24750E+06    -298.193E-03     594.659E-03    -296.466E-03     263.260E-03    -315.057E-03     611.315E-03    -296.105E-03     200.329E-03
             838     10.0413E-03     149.746E-03    -26.7362E+06     35.3861E+06     77.5237E+06     1.78201E+06    -297.319E-03     593.728E-03    -296.409E-03     253.162E-03    -313.702E-03     609.918E-03    -296.034E-03     190.776E-03
             839     10.7088E-03     150.099E-03    -20.7174E+06     42.0538E+06     79.9680E+06     1.22744E+06    -296.031E-03     592.386E-03    -296.355E-03     238.999E-03    -311.269E-03     607.468E-03    -295.986E-03     178.599E-03
             840     11.3810E-03     150.422E-03    -14.2383E+06     50.2514E+06     79.7216E+06     1.58896E+06    -293.850E-03     590.107E-03    -296.258E-03     215.022E-03    -306.946E-03     603.100E-03    -295.911E-03     158.847E-03
             841     12.0539E-03     150.692E-03    -8.40817E+06     59.0972E+06     83.7586E+06     1.74934E+06    -292.311E-03     588.466E-03    -296.155E-03     194.160E-03    -303.833E-03     599.924E-03    -295.809E-03     140.737E-03
             842     12.7205E-03     150.946E-03    -4.22914E+06     58.7926E+06     87.4121E+06     876.971E+03    -292.039E-03     588.112E-03    -296.073E-03     131.851E-03    -299.231E-03     595.244E-03    -295.715E-03     90.3709E-03
             843     669.450E-06     147.835E-03    -138.610E+06    -275.583E+06    -135.738E+06     252.093E+03    -296.434E-03     593.001E-03    -296.568E-03     27.2769E-03    -296.680E-03     592.171E-03    -296.646E-03     21.8308E-03
             844     1.33780E-03     147.891E-03    -133.172E+06    -259.885E+06    -124.921E+06     422.011E+03    -296.850E-03     593.332E-03    -296.482E-03     50.1167E-03    -297.424E-03     592.872E-03    -296.536E-03     40.0465E-03
             845     2.00731E-03     147.983E-03    -128.978E+06    -239.855E+06    -110.534E+06     904.915E+03    -297.172E-03     593.700E-03    -296.528E-03     74.0219E-03    -298.311E-03     593.850E-03    -296.546E-03     59.0181E-03
             846     2.67606E-03     148.111E-03    -122.411E+06    -219.162E+06    -91.0969E+06     1.62518E+06    -297.642E-03     594.221E-03    -296.579E-03     97.9650E-03    -299.567E-03     595.198E-03    -296.539E-03     77.8845E-03
             847     3.34580E-03     148.274E-03    -114.461E+06    -189.672E+06    -70.1572E+06     2.00674E+06    -298.198E-03     594.819E-03    -296.621E-03     121.742E-03    -301.165E-03     596.909E-03    -296.531E-03     96.3708E-03
             848     4.01447E-03     148.472E-03    -105.442E+06    -152.462E+06    -48.9462E+06     1.84731E+06    -298.819E-03     595.472E-03    -296.653E-03     145.371E-03    -303.083E-03     598.962E-03    -296.523E-03     114.571E-03
             849     4.68341E-03     148.704E-03    -95.6507E+06    -115.169E+06    -26.9856E+06     1.98409E+06    -299.457E-03     596.144E-03    -296.687E-03     168.508E-03    -305.264E-03     601.281E-03    -296.517E-03     132.232E-03
             850     5.35258E-03     148.969E-03    -86.1796E+06    -73.6344E+06    -6.25678E+06     2.19229E+06    -300.148E-03     596.861E-03    -296.713E-03     191.300E-03    -307.759E-03     603.922E-03    -296.513E-03     149.488E-03
             851     6.02142E-03     149.267E-03    -77.4378E+06    -34.8280E+06     12.6797E+06     3.24894E+06    -300.674E-03     597.408E-03    -296.734E-03     213.070E-03    -310.300E-03     606.598E-03    -296.508E-03     165.825E-03
             852     6.69035E-03     149.595E-03    -69.0308E+06    -11.5352E+06     26.3178E+06     4.99271E+06    -300.873E-03     597.606E-03    -296.733E-03     232.952E-03    -312.592E-03     608.962E-03    -296.484E-03     180.670E-03
             853     7.36040E-03     149.948E-03    -59.8666E+06    -844.384E+03     36.8053E+06     4.70572E+06    -300.682E-03     597.383E-03    -296.701E-03     249.310E-03    -314.387E-03     610.766E-03    -296.429E-03     192.651E-03
             854     8.03064E-03     150.321E-03    -50.6901E+06     16.3790E+06     50.0978E+06     2.51068E+06    -300.149E-03     596.799E-03    -296.650E-03     260.036E-03    -315.527E-03     611.910E-03    -296.350E-03     199.925E-03
             855     8.69998E-03     150.704E-03    -42.1548E+06     28.4165E+06     62.5703E+06     1.04401E+06    -299.498E-03     596.102E-03    -296.605E-03     264.398E-03    -315.991E-03     612.366E-03    -296.272E-03     202.044E-03
             856     9.36946E-03     151.088E-03    -34.2333E+06     30.7472E+06     71.7564E+06     1.56313E+06    -298.689E-03     595.264E-03    -296.576E-03     261.925E-03    -315.511E-03     611.866E-03    -296.212E-03     198.850E-03
             857     10.0387E-03     151.461E-03    -27.1616E+06     37.3505E+06     78.2236E+06     2.09148E+06    -297.187E-03     593.717E-03    -296.530E-03     253.328E-03    -313.563E-03     609.902E-03    -296.153E-03     191.025E-03
             858     10.7109E-03     151.811E-03    -20.5739E+06     43.3944E+06     80.5283E+06     1.57112E+06    -295.184E-03     591.620E-03    -296.436E-03     238.867E-03    -310.418E-03     606.701E-03    -296.066E-03     178.624E-03
             859     11.3810E-03     152.131E-03    -15.0649E+06     47.4914E+06     79.2744E+06     1.56193E+06    -293.506E-03     589.811E-03    -296.305E-03     213.884E-03    -306.558E-03     602.747E-03    -295.955E-03     157.800E-03
             860     12.0492E-03     152.403E-03    -10.4840E+06     59.3635E+06     83.3055E+06     1.85859E+06    -292.114E-03     588.300E-03    -296.186E-03     193.668E-03    -303.612E-03     599.730E-03    -295.840E-03     140.350E-03
             861     12.7237E-03     152.656E-03    -4.90856E+06     63.0421E+06     87.8947E+06     935.514E+03    -291.492E-03     587.574E-03    -296.081E-03     131.991E-03    -298.691E-03     594.724E-03    -295.726E-03     90.5901E-03
             862     668.913E-06     149.550E-03    -136.987E+06    -275.786E+06    -135.179E+06    -144.005E+03    -296.929E-03     593.281E-03    -296.352E-03     27.4355E-03    -297.169E-03     592.448E-03    -296.429E-03     21.8998E-03
             863     1.33824E-03     149.606E-03    -134.952E+06    -262.658E+06    -126.967E+06     751.998E+03    -296.925E-03     593.530E-03    -296.605E-03     49.8126E-03    -297.499E-03     593.061E-03    -296.664E-03     39.7577E-03
             864     2.00686E-03     149.698E-03    -130.123E+06    -241.907E+06    -111.352E+06     1.46661E+06    -297.374E-03     594.033E-03    -296.659E-03     73.8385E-03    -298.512E-03     594.173E-03    -296.676E-03     58.8350E-03
             865     2.67600E-03     149.826E-03    -123.072E+06    -221.348E+06    -91.8049E+06     1.59046E+06    -297.906E-03     594.645E-03    -296.739E-03     97.7658E-03    -299.832E-03     595.614E-03    -296.699E-03     77.6258E-03
             866     3.34410E-03     149.988E-03    -114.685E+06    -191.912E+06    -71.2683E+06     2.14238E+06    -298.435E-03     595.234E-03    -296.799E-03     121.740E-03    -301.399E-03     597.316E-03    -296.711E-03     96.3293E-03
             867     4.01346E-03     150.186E-03    -105.981E+06    -153.736E+06    -50.1041E+06     2.81807E+06    -298.979E-03     595.811E-03    -296.832E-03     145.390E-03    -303.239E-03     599.294E-03    -296.706E-03     114.606E-03
             868     4.68260E-03     150.418E-03    -97.2918E+06    -116.367E+06    -28.4897E+06     3.19030E+06    -299.612E-03     596.473E-03    -296.861E-03     168.685E-03    -305.426E-03     601.611E-03    -296.693E-03     132.411E-03
             869     5.35147E-03     150.684E-03    -88.6345E+06    -75.3770E+06    -8.36110E+06     3.65289E+06    -300.187E-03     597.059E-03    -296.872E-03     191.563E-03    -307.806E-03     604.120E-03    -296.676E-03     149.775E-03
             870     6.02072E-03     150.982E-03    -79.2517E+06    -38.3659E+06     11.1624E+06     4.38640E+06    -300.528E-03     597.398E-03    -296.870E-03     213.166E-03    -310.151E-03     606.572E-03    -296.644E-03     165.968E-03
             871     6.69064E-03     151.310E-03    -68.4779E+06    -12.7839E+06     27.3716E+06     4.44821E+06    -300.743E-03     597.594E-03    -296.851E-03     232.454E-03    -312.456E-03     608.940E-03    -296.597E-03     180.111E-03
             872     7.35984E-03     151.663E-03    -58.2649E+06     713.364E+03     38.5383E+06     3.97925E+06    -300.756E-03     597.577E-03    -296.820E-03     248.028E-03    -314.443E-03     610.947E-03    -296.544E-03     191.229E-03
             873     8.02887E-03     152.035E-03    -49.8252E+06     19.9479E+06     51.7093E+06     3.46289E+06    -300.443E-03     597.235E-03    -296.792E-03     258.792E-03    -315.792E-03     612.328E-03    -296.490E-03     198.591E-03
             874     8.69872E-03     152.418E-03    -42.4161E+06     29.2498E+06     63.7640E+06     2.61392E+06    -299.798E-03     596.573E-03    -296.774E-03     263.786E-03    -316.259E-03     612.802E-03    -296.436E-03     201.437E-03
             875     9.36818E-03     152.801E-03    -35.6971E+06     29.5629E+06     72.1361E+06     2.29610E+06    -298.415E-03     595.153E-03    -296.738E-03     261.832E-03    -315.224E-03     611.732E-03    -296.369E-03     198.854E-03
             876     10.0391E-03     153.173E-03    -29.1215E+06     39.0518E+06     79.0298E+06     1.69631E+06    -296.519E-03     593.171E-03    -296.653E-03     252.566E-03    -312.867E-03     609.326E-03    -296.272E-03     190.411E-03
             877     10.7083E-03     153.521E-03    -22.7140E+06     43.7982E+06     80.7329E+06     1.14009E+06    -294.850E-03     591.377E-03    -296.527E-03     237.608E-03    -310.024E-03     606.391E-03    -296.154E-03     177.525E-03
             878     11.3788E-03     153.843E-03    -17.0373E+06     45.7690E+06     78.2154E+06     1.16414E+06    -293.143E-03     589.514E-03    -296.371E-03     213.510E-03    -306.168E-03     602.414E-03    -296.022E-03     157.564E-03
             879     12.0525E-03     154.112E-03    -10.1942E+06     60.9808E+06      83.216E+06     618.964E+03    -291.683E-03     587.908E-03    -296.225E-03     193.618E-03    -303.182E-03     599.346E-03    -295.882E-03     140.346E-03
             880     12.7212E-03     154.365E-03    -3.93863E+06     65.4984E+06     87.8416E+06     201.614E+03    -291.239E-03     587.338E-03    -296.099E-03     131.357E-03    -298.427E-03     594.490E-03    -295.749E-03     89.9743E-03
             881     668.554E-06     151.263E-03    -137.188E+06    -278.195E+06    -137.287E+06     391.690E+03    -297.418E-03     593.855E-03    -296.437E-03     26.9333E-03    -297.651E-03     593.013E-03    -296.521E-03     21.4131E-03
             882     1.33747E-03     151.320E-03    -135.537E+06    -265.539E+06    -127.055E+06     1.41174E+06    -297.099E-03     593.977E-03    -296.877E-03     49.7393E-03    -297.671E-03     593.494E-03    -296.931E-03     39.6769E-03
             883     2.00650E-03     151.413E-03    -130.232E+06    -244.073E+06    -111.722E+06     1.58643E+06    -297.508E-03     594.397E-03    -296.889E-03     73.7654E-03    -298.643E-03     594.527E-03    -296.905E-03     58.7408E-03
             884     2.67497E-03     151.541E-03    -123.369E+06    -223.309E+06    -92.7479E+06     2.10253E+06    -297.975E-03     594.908E-03    -296.933E-03     97.7983E-03    -299.895E-03     595.867E-03    -296.894E-03     77.6787E-03
             885     3.34457E-03     151.704E-03    -115.834E+06    -194.554E+06    -72.5215E+06     2.62866E+06    -298.567E-03     595.539E-03    -296.971E-03     121.875E-03    -301.532E-03     597.611E-03    -296.884E-03     96.4709E-03
             886     4.01303E-03     151.902E-03    -107.004E+06    -156.805E+06    -51.2799E+06     3.32106E+06    -299.133E-03     596.131E-03    -296.998E-03     145.434E-03    -303.391E-03     599.601E-03    -296.872E-03     114.642E-03
             887     4.68186E-03     152.134E-03    -97.6140E+06    -119.353E+06    -29.4371E+06     4.19469E+06    -299.770E-03     596.794E-03    -297.024E-03     168.822E-03    -305.591E-03     601.930E-03    -296.857E-03     132.490E-03
             888     5.35096E-03     152.400E-03    -87.8390E+06    -77.6088E+06    -7.45164E+06     5.25329E+06    -300.297E-03     597.339E-03    -297.042E-03     191.167E-03    -307.914E-03     604.390E-03    -296.839E-03     149.302E-03
             889     6.02017E-03     152.697E-03    -77.4654E+06    -38.4249E+06     14.5551E+06     5.13519E+06    -300.611E-03     597.664E-03    -297.053E-03     212.242E-03    -310.220E-03     606.820E-03    -296.812E-03     164.973E-03
             890     6.68874E-03     153.025E-03    -68.2229E+06    -12.5845E+06     29.4668E+06     3.99725E+06    -300.903E-03     597.942E-03    -297.039E-03     231.556E-03    -312.594E-03     609.261E-03    -296.774E-03     179.156E-03
             891     7.35782E-03     153.377E-03    -59.5979E+06     25.7444E+03     38.2072E+06     3.52616E+06    -301.063E-03     598.078E-03    -297.015E-03     247.298E-03    -314.718E-03     611.411E-03    -296.738E-03     190.467E-03
             892     8.02747E-03     153.749E-03    -51.1078E+06     18.6539E+06     50.4871E+06     4.25829E+06    -300.723E-03     597.724E-03    -297.001E-03     258.132E-03    -316.049E-03     612.787E-03    -296.701E-03     197.873E-03
             893     8.69658E-03     154.131E-03    -43.3032E+06     31.0585E+06     63.2555E+06     5.00927E+06    -299.546E-03     596.523E-03    -296.977E-03     262.701E-03    -315.963E-03     612.713E-03    -296.643E-03     200.439E-03
             894     9.36675E-03     154.514E-03    -35.2110E+06     33.1103E+06     73.1496E+06     3.34795E+06    -297.921E-03     594.837E-03    -296.916E-03     260.533E-03    -314.672E-03     611.368E-03    -296.547E-03     197.685E-03
             895     10.0365E-03     154.883E-03    -27.2920E+06     40.8060E+06     80.5182E+06     2.05640E+06    -296.274E-03     593.082E-03    -296.808E-03     251.513E-03    -312.585E-03     609.207E-03    -296.425E-03     189.378E-03
             896     10.7079E-03     155.234E-03    -19.9515E+06     43.6875E+06     82.4411E+06     2.03810E+06    -294.431E-03     591.096E-03    -296.665E-03     236.538E-03    -309.575E-03     606.085E-03    -296.287E-03     176.478E-03
             897     11.3797E-03     155.551E-03    -13.0729E+06     47.0558E+06     80.8222E+06     1.59401E+06    -292.623E-03     589.108E-03    -296.485E-03     211.861E-03    -305.585E-03     601.956E-03    -296.130E-03     156.005E-03
             898     12.0489E-03     155.822E-03    -8.40402E+06     62.6361E+06     84.7685E+06     1.08198E+06    -291.232E-03     587.544E-03    -296.312E-03     192.194E-03    -302.686E-03     598.945E-03    -295.967E-03     138.986E-03
             899     12.7219E-03     156.076E-03    -4.74296E+06     66.2298E+06     88.3478E+06     943.693E+03    -290.354E-03     586.506E-03    -296.152E-03     130.637E-03    -297.536E-03     593.651E-03    -295.800E-03     89.3557E-03
             900     668.830E-06     152.980E-03    -141.022E+06    -281.735E+06    -135.674E+06     1.35038E+06    -297.115E-03     594.254E-03    -297.139E-03     26.9150E-03    -297.362E-03     593.395E-03    -297.204E-03     21.4647E-03
             901     1.33722E-03     153.035E-03    -135.383E+06    -268.020E+06    -126.418E+06     974.796E+03    -297.448E-03     594.557E-03    -297.109E-03     49.9984E-03    -298.020E-03     594.064E-03    -297.156E-03     39.8935E-03
             902     2.00575E-03     153.129E-03    -130.172E+06    -246.960E+06    -112.439E+06     1.84088E+06    -297.654E-03     594.780E-03    -297.126E-03     73.8473E-03    -298.782E-03     594.896E-03    -297.142E-03     58.8086E-03
             903     2.67501E-03     153.256E-03    -123.786E+06    -226.117E+06    -93.5236E+06     2.80112E+06    -298.119E-03     595.265E-03    -297.147E-03     97.7054E-03    -300.038E-03     596.214E-03    -297.107E-03     77.5637E-03
             904     3.34311E-03     153.420E-03    -115.657E+06    -196.774E+06    -72.1893E+06     3.42161E+06    -298.704E-03     595.881E-03    -297.177E-03     121.595E-03    -301.664E-03     597.941E-03    -297.085E-03     96.1439E-03
             905     4.01219E-03     153.617E-03    -107.065E+06    -159.724E+06    -50.7112E+06     3.75105E+06    -299.373E-03     596.582E-03    -297.210E-03     145.018E-03    -303.629E-03     600.039E-03    -297.076E-03     114.147E-03
             906     4.68115E-03     153.850E-03    -97.8440E+06    -122.897E+06    -29.0607E+06     4.27078E+06    -300.064E-03     597.318E-03    -297.254E-03     168.147E-03    -305.872E-03     602.427E-03    -297.079E-03     131.735E-03
             907     5.34958E-03     154.116E-03    -87.2181E+06    -80.9981E+06    -6.72196E+06     4.67801E+06    -300.501E-03     597.789E-03    -297.288E-03     190.289E-03    -308.093E-03     604.804E-03    -297.078E-03     148.365E-03
             908     6.01801E-03     154.412E-03    -77.0410E+06    -41.5620E+06     14.2090E+06     5.69580E+06    -300.886E-03     598.190E-03    -297.304E-03     211.547E-03    -310.467E-03     607.308E-03    -297.061E-03     164.230E-03
             909     6.68751E-03     154.740E-03    -67.7392E+06    -12.2568E+06     29.8139E+06     6.66271E+06    -301.191E-03     598.492E-03    -297.301E-03     230.639E-03    -312.835E-03     609.766E-03    -297.036E-03     178.272E-03
             910     7.35682E-03     155.092E-03    -59.2517E+06     3.02351E+06     40.7287E+06     5.93796E+06    -301.209E-03     598.503E-03    -297.293E-03     246.103E-03    -314.820E-03     611.796E-03    -297.008E-03     189.289E-03
             911     8.02513E-03     155.465E-03    -51.2257E+06     16.7457E+06     52.8253E+06     4.88542E+06    -300.584E-03     597.863E-03    -297.279E-03     256.980E-03    -315.864E-03     612.867E-03    -296.965E-03     196.760E-03
             912     8.69445E-03     155.845E-03    -42.1108E+06     30.7707E+06     65.6696E+06     4.45308E+06    -299.368E-03     596.601E-03    -297.232E-03     261.708E-03    -315.758E-03     612.759E-03    -296.888E-03     199.424E-03
             913     9.36445E-03     156.225E-03    -33.5252E+06     37.1659E+06     75.3124E+06     4.02429E+06    -297.880E-03     595.032E-03    -297.151E-03     259.355E-03    -314.604E-03     611.549E-03    -296.780E-03     196.462E-03
             914     10.0353E-03     156.596E-03    -26.4061E+06     42.3637E+06     81.7414E+06     3.10200E+06    -295.857E-03     592.886E-03    -297.029E-03     249.894E-03    -312.113E-03     608.961E-03    -296.643E-03     187.828E-03
             915     10.7053E-03     156.942E-03    -20.9501E+06     45.2410E+06     82.8761E+06     2.45129E+06    -293.759E-03     590.610E-03    -296.852E-03     235.040E-03    -308.869E-03     605.566E-03    -296.472E-03     175.039E-03
             916     11.3755E-03     157.261E-03    -16.3081E+06     48.5653E+06     80.6216E+06     1.93571E+06    -292.152E-03     588.788E-03    -296.636E-03     211.575E-03    -305.120E-03     601.637E-03    -296.280E-03     155.750E-03
             917     12.0486E-03     157.531E-03    -11.1559E+06     62.8209E+06     85.4360E+06     1.11478E+06    -290.281E-03     586.703E-03    -296.422E-03     192.325E-03    -301.743E-03     598.101E-03    -296.070E-03     139.313E-03
             918     12.7200E-03     157.782E-03    -5.54085E+06     67.0942E+06     90.2568E+06     365.142E+03    -289.189E-03     585.393E-03    -296.203E-03     130.822E-03    -296.385E-03     592.545E-03    -295.841E-03     89.6922E-03
             919     668.497E-06     154.696E-03    -137.468E+06    -284.790E+06    -136.739E+06     954.141E+03    -297.567E-03     594.730E-03    -297.163E-03     27.3858E-03    -297.791E-03     593.853E-03    -297.235E-03     21.9662E-03
             920     1.33706E-03     154.753E-03    -135.481E+06    -270.957E+06    -127.069E+06     1.58994E+06    -297.682E-03     595.022E-03    -297.340E-03     49.7138E-03    -298.249E-03     594.515E-03    -297.386E-03     39.5802E-03
             921     2.00565E-03     154.845E-03    -130.755E+06    -250.826E+06    -112.605E+06     2.13954E+06    -297.943E-03     595.318E-03    -297.375E-03     73.5601E-03    -299.071E-03     595.418E-03    -297.385E-03     58.4705E-03
             922     2.67379E-03     154.972E-03    -123.548E+06    -229.762E+06    -93.1179E+06     2.83621E+06    -298.442E-03     595.857E-03    -297.416E-03     97.6242E-03    -300.359E-03     596.791E-03    -297.369E-03     77.4040E-03
             923     3.34282E-03     155.136E-03    -115.154E+06    -200.694E+06    -71.9155E+06     3.58215E+06    -299.078E-03     596.544E-03    -297.465E-03     121.282E-03    -302.026E-03     598.579E-03    -297.367E-03     95.7772E-03
             924     4.01125E-03     155.334E-03    -106.259E+06    -162.941E+06    -49.9432E+06     4.84771E+06    -299.811E-03     597.335E-03    -297.524E-03     144.645E-03    -304.058E-03     600.771E-03    -297.384E-03     113.711E-03
             925     4.67901E-03     155.568E-03    -96.8080E+06    -124.651E+06    -27.3553E+06     5.43717E+06    -300.366E-03     597.953E-03    -297.587E-03     167.507E-03    -306.151E-03     603.032E-03    -297.403E-03     131.079E-03
             926     5.34776E-03     155.832E-03    -87.8749E+06    -83.8710E+06    -6.83132E+06     5.59318E+06    -300.789E-03     598.410E-03    -297.621E-03     189.624E-03    -308.358E-03     605.389E-03    -297.406E-03     147.686E-03
             927     6.01691E-03     156.130E-03    -78.8437E+06    -45.8180E+06     13.3601E+06     6.39034E+06    -301.279E-03     598.928E-03    -297.649E-03     210.519E-03    -310.828E-03     607.996E-03    -297.402E-03     163.137E-03
             928     6.68485E-03     156.456E-03    -68.9672E+06    -14.4940E+06     30.1022E+06     6.91593E+06    -301.518E-03     599.186E-03    -297.668E-03     229.378E-03    -313.138E-03     610.423E-03    -297.396E-03     176.889E-03
             929     7.35278E-03     156.809E-03    -59.5530E+06     4.26801E+06     41.2553E+06     6.72410E+06    -301.194E-03     598.850E-03    -297.656E-03     244.981E-03    -314.786E-03     612.126E-03    -297.370E-03     188.092E-03
             930     8.02248E-03     157.179E-03    -50.6382E+06     18.3843E+06     52.8762E+06     5.81434E+06    -300.365E-03     597.981E-03    -297.616E-03     255.457E-03    -315.584E-03     612.932E-03    -297.305E-03     195.270E-03
             931     8.69259E-03     157.560E-03    -43.2607E+06     31.5769E+06     65.2155E+06     4.58273E+06    -299.303E-03     596.858E-03    -297.555E-03     259.795E-03    -315.624E-03     612.948E-03    -297.212E-03     197.501E-03
             932     9.36174E-03     157.940E-03    -37.3207E+06     38.3214E+06     74.6836E+06     4.07686E+06    -297.508E-03     594.969E-03    -297.461E-03     257.224E-03    -314.169E-03     611.417E-03    -297.089E-03     194.396E-03
             933     10.0311E-03     158.307E-03    -29.8721E+06     44.5193E+06     81.8135E+06     3.06530E+06    -295.076E-03     592.376E-03    -297.300E-03     248.550E-03    -311.283E-03     608.398E-03    -296.912E-03     186.664E-03
             934     10.7030E-03     158.652E-03    -21.7003E+06     44.3980E+06     83.8157E+06     2.50931E+06    -293.082E-03     590.154E-03    -297.072E-03     234.505E-03    -308.149E-03     605.059E-03    -296.686E-03     174.694E-03
             935     11.3762E-03     158.970E-03    -14.2605E+06     50.6229E+06     83.0828E+06     2.61487E+06    -291.211E-03     588.010E-03    -296.799E-03     210.792E-03    -304.152E-03     600.840E-03    -296.437E-03     155.135E-03
             936     12.0472E-03     159.238E-03    -7.73507E+06     65.4323E+06     88.8163E+06     1.82491E+06    -289.288E-03     585.819E-03    -296.531E-03     190.701E-03    -300.695E-03     597.174E-03    -296.171E-03     137.869E-03
             937     12.7215E-03     159.486E-03    -3.39302E+06     67.5417E+06     93.0485E+06     1.46872E+06    -288.309E-03     584.574E-03    -296.266E-03     129.286E-03    -295.442E-03     591.666E-03    -295.893E-03     88.3575E-03
             938     668.289E-06     156.413E-03    -137.364E+06    -288.156E+06    -136.927E+06     11.6975E+03    -298.258E-03     595.562E-03    -297.304E-03     26.7870E-03    -298.478E-03     594.670E-03    -297.372E-03     21.2804E-03
             939     1.33640E-03     156.470E-03    -135.508E+06    -275.133E+06    -128.391E+06     1.54687E+06    -297.940E-03     595.665E-03    -297.724E-03     49.4634E-03    -298.497E-03     595.136E-03    -297.771E-03     39.2971E-03
             940     2.00470E-03     156.562E-03    -130.266E+06    -253.464E+06    -111.966E+06     2.25165E+06    -298.362E-03     596.110E-03    -297.748E-03     73.1690E-03    -299.485E-03     596.195E-03    -297.751E-03     58.0228E-03
             941     2.67335E-03     156.690E-03    -123.268E+06    -233.845E+06    -92.5272E+06     2.65703E+06    -298.921E-03     596.739E-03    -297.818E-03     96.9869E-03    -300.822E-03     597.641E-03    -297.763E-03     76.7194E-03
             942     3.34119E-03     156.853E-03    -115.370E+06    -205.313E+06    -72.0661E+06     3.80017E+06    -299.542E-03     597.432E-03    -297.890E-03     120.529E-03    -302.473E-03     599.434E-03    -297.786E-03     94.9963E-03
             943     4.00902E-03     157.053E-03    -106.438E+06    -167.815E+06    -50.6990E+06     4.82536E+06    -300.139E-03     598.091E-03    -297.952E-03     144.076E-03    -304.365E-03     601.490E-03    -297.808E-03     113.097E-03
             944     4.67780E-03     157.285E-03    -96.7344E+06    -129.101E+06    -28.2932E+06     6.28556E+06    -300.760E-03     598.773E-03    -298.013E-03     166.693E-03    -306.520E-03     603.813E-03    -297.827E-03     130.207E-03
             945     5.34588E-03     157.551E-03    -87.1601E+06    -87.2904E+06    -6.49658E+06     7.92007E+06    -301.396E-03     599.469E-03    -298.074E-03     188.395E-03    -308.933E-03     606.406E-03    -297.853E-03     146.347E-03
             946     6.01317E-03     157.848E-03    -77.2130E+06    -48.2370E+06     15.0581E+06     9.04954E+06    -301.693E-03     599.826E-03    -298.134E-03     209.155E-03    -311.213E-03     608.858E-03    -297.877E-03     161.651E-03
             947     6.68164E-03     158.174E-03    -67.8086E+06    -14.2202E+06     31.9896E+06     8.89523E+06    -301.599E-03     599.748E-03    -298.149E-03     228.102E-03    -313.190E-03     610.955E-03    -297.870E-03     175.533E-03
             948     7.35089E-03     158.526E-03    -59.4592E+06     3.88932E+06     42.4730E+06     7.94378E+06    -301.237E-03     599.356E-03    -298.119E-03     243.241E-03    -314.757E-03     612.555E-03    -297.826E-03     186.369E-03
             949     8.01933E-03     158.895E-03    -52.0875E+06     19.2827E+06     53.5413E+06     7.59111E+06    -300.470E-03     598.539E-03    -298.068E-03     253.382E-03    -315.613E-03     613.410E-03    -297.753E-03     193.203E-03
             950     8.68738E-03     159.274E-03    -44.1310E+06     34.6908E+06     65.9704E+06     6.85019E+06    -298.877E-03     596.856E-03    -297.979E-03     258.147E-03    -315.123E-03     612.877E-03    -297.635E-03     196.002E-03
             951     9.35732E-03     159.652E-03    -34.4035E+06     40.7408E+06     77.5434E+06     5.31060E+06    -296.616E-03     594.444E-03    -297.828E-03     256.068E-03    -313.200E-03     610.825E-03    -297.449E-03     193.465E-03
             952     10.0297E-03     160.016E-03    -25.9201E+06     46.8822E+06     86.1180E+06     4.32496E+06    -294.466E-03     592.074E-03    -297.608E-03     247.179E-03    -310.612E-03     608.045E-03    -297.208E-03     185.411E-03
             953     10.7012E-03     160.361E-03    -19.3592E+06     45.7309E+06     87.4560E+06     3.13208E+06    -292.463E-03     589.800E-03    -297.337E-03     232.540E-03    -307.454E-03     604.632E-03    -296.938E-03     172.859E-03
             954     11.3716E-03     160.677E-03    -14.1600E+06     51.0037E+06     85.0688E+06     2.25293E+06    -290.010E-03     587.017E-03    -297.008E-03     208.555E-03    -302.873E-03     599.765E-03    -296.636E-03     153.130E-03
             955     12.0459E-03     160.942E-03    -10.1721E+06     64.5009E+06     88.2218E+06     3.43476E+06    -288.012E-03     584.674E-03    -296.662E-03     190.141E-03    -299.433E-03     596.032E-03    -296.299E-03     137.472E-03
             956     12.7173E-03     161.192E-03    -4.89612E+06     70.9846E+06     92.4465E+06     2.94718E+06    -286.486E-03     582.788E-03    -296.302E-03     129.136E-03    -293.643E-03     589.912E-03    -295.936E-03     88.4162E-03
             957     667.605E-06     158.132E-03    -140.279E+06    -291.403E+06    -136.636E+06     1.10725E+06    -298.026E-03     596.346E-03    -298.320E-03     26.8969E-03    -298.257E-03     595.441E-03    -298.377E-03     21.3013E-03
             958     1.33597E-03     158.189E-03    -136.770E+06    -278.873E+06    -128.584E+06     981.705E+03    -298.541E-03     596.705E-03    -298.163E-03     49.5142E-03    -299.097E-03     596.158E-03    -298.203E-03     39.3645E-03
             959     2.00388E-03     158.281E-03    -131.138E+06    -257.943E+06    -113.122E+06     2.18530E+06    -299.062E-03     597.318E-03    -298.256E-03     72.9778E-03    -300.177E-03     597.380E-03    -298.258E-03     57.8067E-03
             960     2.67121E-03     158.409E-03    -124.669E+06    -237.861E+06    -93.3981E+06     3.11391E+06    -299.588E-03     597.967E-03    -298.378E-03     96.5219E-03    -301.485E-03     598.848E-03    -298.320E-03     76.2021E-03
             961     3.33913E-03     158.573E-03    -116.801E+06    -209.520E+06    -73.1510E+06     3.70672E+06    -300.099E-03     598.569E-03    -298.471E-03     120.021E-03    -303.025E-03     600.549E-03    -298.363E-03     94.3954E-03
             962     4.00744E-03     158.772E-03    -107.823E+06    -172.083E+06    -52.0444E+06     4.64248E+06    -300.697E-03     599.238E-03    -298.541E-03     142.989E-03    -304.906E-03     602.604E-03    -298.395E-03     111.903E-03
             963     4.67476E-03     159.005E-03    -98.3633E+06    -135.557E+06    -30.6252E+06     5.69937E+06    -301.387E-03     600.008E-03    -298.621E-03     165.383E-03    -307.130E-03     605.009E-03    -298.435E-03     128.700E-03
             964     5.34193E-03     159.271E-03    -88.3714E+06    -94.5662E+06    -9.17038E+06     7.63429E+06    -301.856E-03     600.551E-03    -298.696E-03     187.078E-03    -309.364E-03     607.436E-03    -298.476E-03     144.867E-03
             965     6.01006E-03     159.567E-03    -78.7262E+06    -53.3192E+06     11.7585E+06     9.12189E+06    -301.990E-03     600.734E-03    -298.744E-03     207.735E-03    -311.469E-03     609.710E-03    -298.494E-03     160.132E-03
             966     6.67790E-03     159.893E-03    -69.2459E+06    -16.6112E+06     29.3724E+06     10.1195E+06    -301.866E-03     600.614E-03    -298.749E-03     226.072E-03    -313.386E-03     611.745E-03    -298.477E-03     173.445E-03
             967     7.34548E-03     160.243E-03    -60.1320E+06     3.82726E+06     41.5370E+06     11.1172E+06    -301.344E-03     600.059E-03    -298.715E-03     240.849E-03    -314.780E-03     613.175E-03    -298.425E-03     183.968E-03
             968     8.01389E-03     160.612E-03    -51.4156E+06     21.0644E+06     54.1875E+06     10.4546E+06    -300.030E-03     598.661E-03    -298.632E-03     251.353E-03    -315.084E-03     613.451E-03    -298.317E-03     191.288E-03
             969     8.68414E-03     160.988E-03    -43.4390E+06     38.6377E+06     69.2740E+06     8.26293E+06    -298.036E-03     596.519E-03    -298.482E-03     255.954E-03    -314.168E-03     612.433E-03    -298.129E-03     194.058E-03
             970     9.35552E-03     161.364E-03    -37.0918E+06     45.9862E+06     80.8749E+06     5.22185E+06    -295.931E-03     594.201E-03    -298.269E-03     253.307E-03    -312.414E-03     610.480E-03    -297.878E-03     190.862E-03
             971     10.0253E-03     161.727E-03    -31.2420E+06     48.2590E+06     87.2654E+06     3.04487E+06    -293.756E-03     591.758E-03    -298.002E-03     244.375E-03    -309.817E-03     607.626E-03    -297.590E-03     182.726E-03
             972     10.6961E-03     162.069E-03    -24.5895E+06     48.3757E+06     88.5834E+06     2.14800E+06    -291.016E-03     588.676E-03    -297.659E-03     230.564E-03    -305.937E-03     603.424E-03    -297.251E-03     171.204E-03
             973     11.3707E-03     162.382E-03    -18.2452E+06     47.8193E+06     84.4484E+06     2.80678E+06    -288.145E-03     585.366E-03    -297.221E-03     207.973E-03    -300.984E-03     598.065E-03    -296.841E-03     152.897E-03
             974     12.0439E-03     162.644E-03    -11.7647E+06     62.1542E+06     88.1000E+06     3.50381E+06    -285.619E-03     582.360E-03    -296.741E-03     191.041E-03    -297.063E-03     593.727E-03    -296.373E-03     138.738E-03
             975     12.7210E-03     162.896E-03    -5.56701E+06     77.5523E+06     94.0220E+06     1.68075E+06    -284.265E-03     580.509E-03    -296.244E-03     129.600E-03    -291.444E-03     587.671E-03    -295.878E-03     89.1693E-03
             976     668.297E-06     159.853E-03    -141.969E+06    -295.507E+06    -139.497E+06     855.654E+03    -298.551E-03     597.676E-03    -299.125E-03     26.7475E-03    -298.777E-03     596.754E-03    -299.188E-03     21.2079E-03
             977     1.33524E-03     159.909E-03    -138.460E+06    -281.850E+06    -129.258E+06     1.66106E+06    -299.296E-03     598.157E-03    -298.861E-03     48.7536E-03    -299.854E-03     597.598E-03    -298.898E-03     38.5410E-03
             978     2.00241E-03     160.003E-03    -134.255E+06    -262.424E+06    -115.077E+06     1.92221E+06    -299.719E-03     598.690E-03    -298.971E-03     72.4847E-03    -300.836E-03     598.733E-03    -298.971E-03     57.2284E-03
             979     2.66990E-03     160.131E-03    -126.761E+06    -241.956E+06    -95.6555E+06     2.99096E+06    -300.321E-03     599.416E-03    -299.094E-03     95.9229E-03    -302.217E-03     600.280E-03    -299.038E-03     75.5036E-03
             980     3.33708E-03     160.295E-03    -118.586E+06    -213.136E+06    -74.9398E+06     3.90996E+06    -300.996E-03     600.216E-03    -299.220E-03     119.126E-03    -303.921E-03     602.180E-03    -299.113E-03     93.3259E-03
             981     4.00357E-03     160.494E-03    -109.729E+06    -176.833E+06    -54.1313E+06     4.40052E+06    -301.582E-03     600.914E-03    -299.333E-03     141.923E-03    -305.784E-03     604.257E-03    -299.188E-03     110.633E-03
             982     4.67065E-03     160.727E-03    -100.529E+06    -141.199E+06    -32.8756E+06     5.44807E+06    -302.037E-03     601.466E-03    -299.429E-03     164.413E-03    -307.763E-03     606.429E-03    -299.243E-03     127.585E-03
             983     5.33820E-03     160.992E-03    -91.4232E+06    -102.418E+06    -13.0384E+06     7.00263E+06    -302.372E-03     601.863E-03    -299.491E-03     185.653E-03    -309.847E-03     608.687E-03    -299.275E-03     143.298E-03
             984     6.00520E-03     161.288E-03    -82.2668E+06    -59.8125E+06     7.25285E+06     8.97875E+06    -302.453E-03     601.981E-03    -299.528E-03     205.538E-03    -311.871E-03     610.873E-03    -299.285E-03     157.805E-03
             985     6.67243E-03     161.614E-03    -73.2868E+06    -20.8985E+06     25.8764E+06     9.87370E+06    -302.079E-03     601.601E-03    -299.522E-03     223.815E-03    -313.529E-03     612.642E-03    -299.256E-03     171.121E-03
             986     7.34038E-03     161.963E-03    -64.2093E+06    -381.330E+03     38.7929E+06     9.61535E+06    -301.135E-03     600.586E-03    -299.451E-03     238.889E-03    -314.513E-03     613.622E-03    -299.163E-03     181.959E-03
             987     8.00927E-03     162.328E-03    -55.4697E+06     20.0092E+06     52.0814E+06     9.85115E+06    -299.585E-03     598.894E-03    -299.309E-03     248.593E-03    -314.547E-03     613.579E-03    -298.997E-03     188.564E-03
             988     8.67881E-03     162.701E-03    -48.0497E+06     42.7010E+06     67.9839E+06     9.85184E+06    -297.547E-03     596.657E-03    -299.109E-03     252.170E-03    -313.555E-03     612.448E-03    -298.762E-03     190.359E-03
             989     9.34784E-03     163.076E-03    -40.8253E+06     53.0952E+06     81.2611E+06     8.29128E+06    -295.016E-03     593.859E-03    -298.843E-03     250.053E-03    -311.374E-03     610.026E-03    -298.455E-03     187.857E-03
             990     10.0199E-03     163.436E-03    -33.2391E+06     56.9763E+06     89.3288E+06     4.45225E+06    -291.845E-03     590.315E-03    -298.470E-03     242.326E-03    -307.788E-03     606.083E-03    -298.058E-03     181.193E-03
             991     10.6939E-03     163.776E-03    -25.3640E+06     49.6656E+06     89.8712E+06     1.35573E+06    -288.512E-03     586.487E-03    -297.975E-03     229.107E-03    -303.328E-03     601.129E-03    -297.561E-03     170.315E-03
             992     11.3679E-03     164.082E-03    -17.1589E+06     41.4537E+06     84.1584E+06     1.76243E+06    -285.704E-03     583.079E-03    -297.375E-03     207.291E-03    -298.463E-03     595.680E-03    -296.989E-03     152.699E-03
             993     12.0448E-03     164.347E-03    -10.8608E+06     63.0063E+06     89.2891E+06     2.30356E+06    -283.038E-03     579.783E-03    -296.745E-03     189.612E-03    -294.384E-03     591.055E-03    -296.374E-03     137.840E-03
             994     12.7221E-03     164.585E-03    -5.63885E+06     82.4914E+06     97.4477E+06     957.547E+03    -281.918E-03     578.045E-03    -296.127E-03     129.380E-03    -289.069E-03     585.186E-03    -295.751E-03     89.2536E-03
             995     666.046E-06     161.576E-03    -144.261E+06    -299.344E+06    -141.906E+06     916.656E+03    -300.036E-03     599.931E-03    -299.895E-03     26.4217E-03    -300.265E-03     598.997E-03    -299.961E-03     20.8416E-03
             996     1.33331E-03     161.633E-03    -140.625E+06    -285.105E+06    -131.754E+06     1.23430E+06    -300.113E-03     600.041E-03    -299.928E-03     48.5337E-03    -300.672E-03     599.471E-03    -299.970E-03     38.2552E-03
             997     2.00042E-03     161.726E-03    -135.363E+06    -264.841E+06    -116.804E+06     1.78217E+06    -300.563E-03     600.524E-03    -299.961E-03     71.8426E-03    -301.677E-03     600.556E-03    -299.964E-03     56.5066E-03
             998     2.66713E-03     161.855E-03    -128.885E+06    -245.994E+06    -98.6035E+06     2.62594E+06    -301.223E-03     601.285E-03    -300.062E-03     95.0722E-03    -303.114E-03     602.131E-03    -300.012E-03     74.5070E-03
             999     3.33333E-03     162.020E-03    -120.163E+06    -217.665E+06    -77.9142E+06     3.36207E+06    -301.920E-03     602.110E-03    -300.190E-03     118.245E-03    -304.832E-03     604.048E-03    -300.089E-03     92.2932E-03
            1000     4.00005E-03     162.219E-03    -111.399E+06    -181.929E+06    -56.6076E+06     4.35180E+06    -302.504E-03     602.816E-03    -300.312E-03     140.930E-03    -306.689E-03     606.123E-03    -300.170E-03     109.487E-03
            1001     4.66660E-03     162.451E-03    -102.418E+06    -147.370E+06    -35.3165E+06     5.97049E+06    -302.926E-03     603.346E-03    -300.420E-03     162.721E-03    -308.614E-03     608.249E-03    -300.234E-03     125.743E-03
            1002     5.33268E-03     162.717E-03    -93.2419E+06    -109.247E+06    -14.8773E+06     7.68905E+06    -303.048E-03     603.536E-03    -300.487E-03     183.751E-03    -310.480E-03     610.291E-03    -300.268E-03     141.226E-03
            1003     5.99896E-03     163.013E-03    -83.9049E+06    -68.4657E+06     5.25240E+06     9.86571E+06    -302.921E-03     603.428E-03    -300.507E-03     203.800E-03    -312.292E-03     612.243E-03    -300.259E-03     155.896E-03
            1004     6.66607E-03     163.335E-03    -74.1565E+06    -23.7552E+06     25.1292E+06     11.2750E+06    -302.207E-03     602.667E-03    -300.460E-03     221.490E-03    -313.588E-03     613.627E-03    -300.192E-03     168.701E-03
            1005     7.33403E-03     163.682E-03    -65.2572E+06     2.30683E+06     40.0321E+06     10.0937E+06    -300.945E-03     601.286E-03    -300.341E-03     235.657E-03    -314.208E-03     614.209E-03    -300.049E-03     178.744E-03
            1006     8.00235E-03     164.045E-03    -56.2967E+06     15.3039E+06     52.6412E+06     9.48123E+06    -299.217E-03     599.366E-03    -300.148E-03     245.357E-03    -314.030E-03     613.880E-03    -299.826E-03     185.428E-03
            1007     8.67076E-03     164.418E-03    -45.9843E+06     39.2931E+06     68.3503E+06     11.1170E+06    -296.649E-03     596.505E-03    -299.856E-03     250.105E-03    -312.525E-03     612.159E-03    -299.504E-03     188.546E-03
            1008     9.34273E-03     164.786E-03    -35.4659E+06     57.9679E+06     83.2816E+06     11.2354E+06    -293.323E-03     592.768E-03    -299.445E-03     248.910E-03    -309.550E-03     608.834E-03    -299.061E-03     187.237E-03
            1009     10.0154E-03     165.144E-03    -26.5146E+06     66.1033E+06     94.7652E+06     9.76595E+06    -289.388E-03     588.290E-03    -298.902E-03     240.843E-03    -305.167E-03     603.935E-03    -298.486E-03     180.499E-03
            1010     10.6903E-03     165.475E-03    -20.9533E+06     60.2707E+06     97.4915E+06     6.92052E+06    -285.780E-03     584.009E-03    -298.229E-03     228.172E-03    -300.491E-03     598.577E-03    -297.799E-03     170.159E-03
            1011     11.3676E-03     165.783E-03    -17.0660E+06     42.4638E+06     87.8375E+06     2.80035E+06    -282.894E-03     580.341E-03    -297.447E-03     207.105E-03    -295.567E-03     592.849E-03    -297.044E-03     153.279E-03
            1012     12.0451E-03     166.038E-03    -11.6540E+06     62.6215E+06     92.1422E+06     1.16666E+06    -280.140E-03     576.782E-03    -296.642E-03     190.773E-03    -291.446E-03     588.002E-03    -296.255E-03     139.711E-03
            1013     12.7231E-03     166.282E-03    -5.20927E+06     86.0878E+06     100.668E+06     691.606E+03    -278.552E-03     574.399E-03    -295.847E-03     133.352E-03    -285.782E-03     581.624E-03    -295.461E-03     93.5655E-03
            1014     666.382E-06     163.303E-03    -145.422E+06    -300.975E+06    -144.292E+06    -282.447E+03    -301.595E-03     602.196E-03    -300.601E-03     26.2835E-03    -301.823E-03     601.259E-03    -300.676E-03     20.6943E-03
            1015     1.33231E-03     163.360E-03    -142.139E+06    -288.189E+06    -134.709E+06     945.137E+03    -301.396E-03     602.482E-03    -301.086E-03     48.4564E-03    -301.952E-03     601.900E-03    -301.135E-03     38.1369E-03
            1016     1.99796E-03     163.453E-03    -136.968E+06    -267.645E+06    -119.303E+06     1.63952E+06    -301.874E-03     603.044E-03    -301.170E-03     71.4064E-03    -302.986E-03     603.066E-03    -301.180E-03     55.9580E-03
            1017     2.66369E-03     163.583E-03    -130.133E+06    -247.837E+06    -100.366E+06     1.35025E+06    -302.422E-03     603.718E-03    -301.296E-03     94.4630E-03    -304.310E-03     604.555E-03    -301.249E-03     73.7310E-03
            1018     3.32980E-03     163.748E-03    -122.292E+06    -222.182E+06    -80.8800E+06     1.73311E+06    -302.978E-03     604.395E-03    -301.417E-03     116.973E-03    -305.870E-03     606.299E-03    -301.322E-03     90.8573E-03
            1019     3.99531E-03     163.947E-03    -113.519E+06    -188.809E+06    -59.8979E+06     3.72833E+06    -303.493E-03     605.022E-03    -301.530E-03     139.209E-03    -307.642E-03     608.271E-03    -301.391E-03     107.605E-03
            1020     4.66028E-03     164.180E-03    -104.010E+06    -154.655E+06    -37.9637E+06     5.46524E+06    -303.783E-03     605.407E-03    -301.623E-03     161.094E-03    -309.435E-03     610.250E-03    -301.438E-03     123.909E-03
            1021     5.32605E-03     164.444E-03    -93.3870E+06    -115.963E+06    -16.2827E+06     6.84409E+06    -303.716E-03     605.379E-03    -301.663E-03     182.090E-03    -311.094E-03     612.062E-03    -301.441E-03     139.382E-03
            1022     5.99286E-03     164.738E-03    -81.9787E+06    -78.5842E+06     4.09701E+06     8.37462E+06    -303.346E-03     604.987E-03    -301.642E-03     201.698E-03    -312.625E-03     613.685E-03    -301.388E-03     153.652E-03
            1023     6.65906E-03     165.061E-03    -70.9879E+06    -32.0853E+06     24.3839E+06     11.4006E+06    -302.362E-03     603.900E-03    -301.538E-03     218.831E-03    -313.618E-03     614.719E-03    -301.267E-03     165.996E-03
            1024     7.32587E-03     165.403E-03    -60.1824E+06     5.31949E+06     41.9594E+06     13.2661E+06    -300.617E-03     601.951E-03    -301.334E-03     233.497E-03    -313.754E-03     614.771E-03    -301.044E-03     176.732E-03
            1025     7.99405E-03     165.765E-03    -50.7000E+06     13.9675E+06     53.3982E+06     12.3864E+06    -298.079E-03     599.088E-03    -301.008E-03     243.970E-03    -312.730E-03     613.454E-03    -300.688E-03     184.462E-03
            1026     8.66576E-03     166.130E-03    -43.1784E+06     34.7378E+06     66.7096E+06     11.9583E+06    -294.752E-03     595.281E-03    -300.529E-03     248.947E-03    -310.440E-03     610.746E-03    -300.183E-03     188.062E-03
            1027     9.33743E-03     166.497E-03    -36.9616E+06     58.8411E+06     82.3685E+06     11.9470E+06    -290.793E-03     590.699E-03    -299.906E-03     247.975E-03    -306.848E-03     606.594E-03    -299.526E-03     187.182E-03
            1028     10.0123E-03     166.846E-03    -30.7975E+06     65.8538E+06     95.1462E+06     12.0763E+06    -286.662E-03     585.819E-03    -299.157E-03     240.876E-03    -302.327E-03     601.333E-03    -298.732E-03     181.463E-03
            1029     10.6896E-03     167.174E-03    -23.4239E+06     72.0702E+06     103.732E+06     9.46643E+06    -282.909E-03     581.193E-03    -298.284E-03     229.379E-03    -297.586E-03     595.742E-03    -297.836E-03     172.247E-03
            1030     11.3683E-03     167.475E-03    -15.9661E+06     52.9470E+06     94.8195E+06     4.97633E+06    -279.529E-03     576.822E-03    -297.294E-03     208.905E-03    -292.156E-03     589.306E-03    -296.873E-03     156.063E-03
            1031     12.0494E-03     167.729E-03    -10.2198E+06     63.4574E+06     96.3489E+06     2.72019E+06    -276.379E-03     572.655E-03    -296.276E-03     193.319E-03    -287.660E-03     583.845E-03    -295.871E-03     143.188E-03
            1032     12.7344E-03     167.964E-03    -5.63847E+06     89.1900E+06     104.997E+06     1.35285E+06    -275.700E-03     571.007E-03    -295.307E-03     135.967E-03    -282.964E-03     578.263E-03    -294.903E-03     96.6661E-03
            1033     665.085E-06     165.035E-03    -146.274E+06    -300.065E+06    -144.139E+06     103.394E+03    -303.028E-03     605.203E-03    -302.176E-03     24.9760E-03    -303.256E-03     604.267E-03    -302.249E-03     19.3838E-03
            1034     1.33004E-03     165.092E-03    -144.026E+06    -290.507E+06    -136.092E+06    -168.252E+03    -302.889E-03     605.496E-03    -302.607E-03     47.3925E-03    -303.446E-03     604.905E-03    -302.657E-03     36.9422E-03
            1035     1.99513E-03     165.186E-03    -137.792E+06    -269.940E+06    -121.068E+06     293.940E+03    -303.297E-03     605.982E-03    -302.685E-03     70.4765E-03    -304.401E-03     605.989E-03    -302.699E-03     54.8710E-03
            1036     2.66002E-03     165.315E-03    -131.212E+06    -247.492E+06    -102.062E+06     375.895E+03    -303.826E-03     606.624E-03    -302.798E-03     93.2553E-03    -305.705E-03     607.455E-03    -302.759E-03     72.3470E-03
            1037     3.32421E-03     165.480E-03    -123.473E+06    -225.605E+06    -81.5716E+06     707.517E+03    -304.201E-03     607.113E-03    -302.913E-03     115.782E-03    -307.081E-03     608.990E-03    -302.814E-03     89.4576E-03
            1038     3.98874E-03     165.679E-03    -114.290E+06    -195.892E+06    -61.4268E+06     1.61311E+06    -304.449E-03     607.425E-03    -302.977E-03     138.203E-03    -308.575E-03     610.628E-03    -302.834E-03     106.368E-03
            1039     4.65443E-03     165.911E-03    -103.871E+06    -159.246E+06    -40.5124E+06     2.39243E+06    -304.538E-03     607.532E-03    -302.994E-03     159.637E-03    -310.136E-03     612.313E-03    -302.815E-03     122.289E-03
            1040     5.31972E-03     166.175E-03    -93.0483E+06    -123.517E+06    -19.8043E+06     3.34538E+06    -304.362E-03     607.331E-03    -302.969E-03     180.205E-03    -311.659E-03     613.916E-03    -302.754E-03     137.359E-03
            1041     5.98415E-03     166.468E-03    -83.0939E+06    -88.8966E+06    -496.686E+03     5.57022E+06    -303.445E-03     606.308E-03    -302.863E-03     199.865E-03    -312.607E-03     614.861E-03    -302.616E-03     151.885E-03
            1042     6.65071E-03     166.787E-03    -73.6684E+06    -44.7185E+06     18.7319E+06     8.32046E+06    -301.686E-03     604.302E-03    -302.616E-03     217.881E-03    -312.816E-03     614.958E-03    -302.351E-03     165.338E-03
            1043     7.31881E-03     167.127E-03    -64.9978E+06    -2.57089E+06     35.3849E+06     10.8286E+06    -299.311E-03     601.519E-03    -302.208E-03     233.166E-03    -312.333E-03     614.198E-03    -301.933E-03     176.842E-03
            1044     7.98936E-03     167.482E-03    -57.8276E+06     12.0311E+06     45.9103E+06     12.4608E+06    -296.208E-03     597.859E-03    -301.651E-03     243.810E-03    -310.731E-03     612.087E-03    -301.356E-03     185.026E-03
            1045     8.66000E-03     167.844E-03    -51.0295E+06     32.9728E+06     58.0533E+06     12.1567E+06    -292.219E-03     593.142E-03    -300.923E-03     249.410E-03    -307.766E-03     608.457E-03    -300.607E-03     189.498E-03
            1046     9.33541E-03     168.201E-03    -43.3714E+06     57.0101E+06     75.7897E+06     12.0452E+06    -287.633E-03     587.676E-03    -300.043E-03     249.140E-03    -303.538E-03     603.410E-03    -299.684E-03     189.541E-03
            1047     10.0134E-03     168.546E-03    -34.3300E+06     66.3491E+06     93.1973E+06     10.6384E+06    -283.318E-03     582.358E-03    -299.040E-03     243.161E-03    -298.840E-03     597.724E-03    -298.620E-03     185.053E-03
            1048     10.6927E-03     168.869E-03    -24.7392E+06     79.0941E+06     106.576E+06     8.36160E+06    -279.404E-03     577.326E-03    -297.922E-03     232.713E-03    -293.970E-03     591.776E-03    -297.468E-03     176.937E-03
            1049     11.3748E-03     169.163E-03    -18.0456E+06     61.5228E+06     97.9664E+06     5.85980E+06    -276.229E-03     572.937E-03    -296.708E-03     213.259E-03    -288.870E-03     585.449E-03    -296.281E-03     161.457E-03
            1050     12.0589E-03     169.409E-03    -12.5486E+06     67.6271E+06     97.3881E+06     2.74744E+06    -274.445E-03     569.984E-03    -295.539E-03     197.391E-03    -285.802E-03     581.254E-03    -295.132E-03     147.755E-03
            1051     12.7410E-03     169.645E-03    -5.61722E+06     91.0890E+06     106.850E+06     1.77227E+06    -274.588E-03     569.102E-03    -294.514E-03     139.789E-03    -281.927E-03     576.435E-03    -294.104E-03     100.539E-03
            1052     663.488E-06     166.773E-03    -150.178E+06    -300.657E+06    -146.606E+06     370.944E+03    -304.526E-03     608.932E-03    -304.405E-03     25.5337E-03    -304.775E-03     608.007E-03    -304.484E-03     19.7678E-03
            1053     1.32731E-03     166.830E-03    -146.278E+06    -288.769E+06    -137.086E+06    -678.731E+03    -304.620E-03     609.073E-03    -304.453E-03     47.2141E-03    -305.189E-03     608.495E-03    -304.507E-03     36.6235E-03
            1054     1.99121E-03     166.923E-03    -141.828E+06    -271.212E+06    -124.161E+06    -848.576E+03    -304.827E-03     609.294E-03    -304.466E-03     70.0591E-03    -305.943E-03     609.303E-03    -304.488E-03     54.3039E-03
            1055     2.65468E-03     167.054E-03    -134.563E+06    -247.095E+06    -106.074E+06    -724.187E+03    -305.008E-03     609.483E-03    -304.475E-03     92.8517E-03    -306.890E-03     610.318E-03    -304.452E-03     71.8165E-03
            1056     3.31892E-03     167.217E-03    -126.197E+06    -226.343E+06    -84.9887E+06    -1.05855E+06    -305.250E-03     609.731E-03    -304.482E-03     115.513E-03    -308.124E-03     611.601E-03    -304.395E-03     89.0764E-03
            1057     3.98343E-03     167.416E-03    -116.734E+06    -197.909E+06    -64.2710E+06    -1.94219E+06    -305.477E-03     609.938E-03    -304.461E-03     137.680E-03    -309.577E-03     613.107E-03    -304.327E-03     105.745E-03
            1058     4.64683E-03     167.647E-03    -107.025E+06    -162.777E+06    -45.1272E+06    -1.87637E+06    -305.241E-03     609.628E-03    -304.387E-03     159.038E-03    -310.801E-03     614.362E-03    -304.222E-03     121.629E-03
            1059     5.31105E-03     167.909E-03    -98.3658E+06    -131.156E+06    -26.3782E+06     111.670E+03    -304.287E-03     608.509E-03    -304.223E-03     180.198E-03    -311.532E-03     615.016E-03    -304.022E-03     137.483E-03
            1060     5.97760E-03     168.200E-03    -89.5843E+06    -96.8241E+06    -8.00714E+06     2.27983E+06    -302.593E-03     606.498E-03    -303.905E-03     200.325E-03    -311.678E-03     614.945E-03    -303.675E-03     152.737E-03
            1061     6.64516E-03     168.513E-03    -80.3103E+06    -58.5254E+06     9.89585E+06     5.20350E+06    -300.294E-03     603.706E-03    -303.412E-03     218.718E-03    -311.306E-03     614.197E-03    -303.161E-03     166.784E-03
            1062     7.31475E-03     168.850E-03    -71.1518E+06    -16.0348E+06     28.0662E+06     9.72679E+06    -297.251E-03     599.992E-03    -302.741E-03     233.936E-03    -310.088E-03     612.439E-03    -302.474E-03     178.599E-03
            1063     7.98545E-03     169.198E-03    -61.7933E+06     10.9158E+06     42.5544E+06     11.5332E+06    -293.323E-03     595.208E-03    -301.885E-03     245.228E-03    -307.644E-03     609.226E-03    -301.599E-03     187.746E-03
            1064     8.66132E-03     169.553E-03    -51.5398E+06     30.2629E+06     56.8327E+06     11.3221E+06    -288.738E-03     589.578E-03    -300.840E-03     251.851E-03    -304.036E-03     604.636E-03    -300.525E-03     193.566E-03
            1065     9.33868E-03     169.902E-03    -41.1573E+06     54.3186E+06     75.1726E+06     11.4744E+06    -284.040E-03     583.678E-03    -299.637E-03     252.656E-03    -299.684E-03     599.150E-03    -299.281E-03     194.827E-03
            1066     10.0189E-03     170.240E-03    -32.3655E+06     69.3501E+06     92.5566E+06     11.0932E+06    -279.598E-03     577.927E-03    -298.329E-03     247.879E-03    -294.903E-03     593.096E-03    -297.920E-03     191.604E-03
            1067     10.7029E-03     170.556E-03    -25.9035E+06     82.4903E+06     106.983E+06     10.7212E+06    -275.857E-03     572.818E-03    -296.961E-03     237.941E-03    -290.282E-03     587.134E-03    -296.508E-03     183.868E-03
            1068     11.3888E-03     170.844E-03    -19.2182E+06     71.7291E+06     102.747E+06     7.10320E+06    -274.152E-03     569.739E-03    -295.587E-03     219.004E-03    -286.772E-03     582.247E-03    -295.149E-03     168.313E-03
            1069     12.0728E-03     171.091E-03    -11.5882E+06     74.3782E+06     101.490E+06     2.58263E+06    -274.436E-03     568.808E-03    -294.372E-03     204.478E-03    -285.905E-03     580.206E-03    -293.956E-03     155.147E-03
            1070     12.7571E-03     171.327E-03    -5.56758E+06     91.7308E+06     106.972E+06     1.23309E+06    -275.675E-03     569.073E-03    -293.398E-03     145.507E-03    -283.165E-03     576.558E-03    -292.988E-03     105.898E-03
            1071     662.848E-06     168.517E-03    -154.017E+06    -298.689E+06    -153.360E+06    -1.04699E+06    -306.285E-03     611.821E-03    -305.536E-03     26.3547E-03    -306.549E-03     610.924E-03    -305.647E-03     20.5140E-03
            1072     1.32523E-03     168.574E-03    -151.101E+06    -286.152E+06    -142.846E+06    -1.12950E+06    -306.353E-03     612.290E-03    -305.937E-03     48.2013E-03    -306.947E-03     611.746E-03    -306.017E-03     37.5349E-03
            1073     1.98744E-03     168.667E-03    -146.453E+06    -268.632E+06    -128.656E+06    -2.35005E+06    -306.460E-03     612.474E-03    -306.014E-03     70.9004E-03    -307.599E-03     612.512E-03    -306.056E-03     55.0508E-03
            1074     2.65089E-03     168.796E-03    -139.528E+06    -246.411E+06    -112.045E+06    -3.03509E+06    -306.341E-03     612.336E-03    -305.996E-03     93.1013E-03    -308.231E-03     613.181E-03    -305.996E-03     72.0057E-03
            1075     3.31418E-03     168.959E-03    -131.263E+06    -223.154E+06    -92.3298E+06    -3.82244E+06    -306.267E-03     612.183E-03    -305.916E-03     115.379E-03    -309.134E-03     614.060E-03    -305.864E-03     88.9300E-03
            1076     3.97685E-03     169.158E-03    -122.966E+06    -195.787E+06    -71.6658E+06    -5.15115E+06    -305.842E-03     611.607E-03    -305.765E-03     137.827E-03    -309.916E-03     614.757E-03    -305.661E-03     106.047E-03
            1077     4.64137E-03     169.386E-03    -114.451E+06    -165.534E+06    -51.4010E+06    -4.98529E+06    -304.744E-03     610.229E-03    -305.485E-03     160.141E-03    -310.272E-03     614.912E-03    -305.336E-03     123.088E-03
            1078     5.30710E-03     169.645E-03    -104.341E+06    -137.159E+06    -32.1408E+06    -3.82150E+06    -303.060E-03     608.098E-03    -305.037E-03     181.993E-03    -310.235E-03     614.509E-03    -304.848E-03     139.874E-03
            1079     5.97381E-03     169.930E-03    -93.3351E+06    -105.508E+06    -14.3377E+06    -1.83151E+06    -300.866E-03     605.271E-03    -304.405E-03     202.672E-03    -309.839E-03     613.580E-03    -304.188E-03     155.888E-03
            1080     6.64275E-03     170.240E-03    -82.8145E+06    -71.7027E+06     3.21769E+06     1.37667E+06    -298.038E-03     601.629E-03    -303.591E-03     221.852E-03    -308.881E-03     611.914E-03    -303.350E-03     171.055E-03
            1081     7.31371E-03     170.568E-03    -71.6532E+06    -32.6572E+06     22.4324E+06     5.89791E+06    -294.167E-03     596.741E-03    -302.574E-03     238.196E-03    -306.777E-03     608.916E-03    -302.311E-03     184.433E-03
            1082     7.98962E-03     170.910E-03    -60.6587E+06     7.81305E+06     40.9923E+06     9.27463E+06    -289.531E-03     590.867E-03    -301.335E-03     250.476E-03    -303.616E-03     604.645E-03    -301.054E-03     194.892E-03
            1083     8.66709E-03     171.255E-03    -52.2718E+06     28.3418E+06     54.8730E+06     9.70736E+06    -284.808E-03     584.726E-03    -299.918E-03     257.725E-03    -299.838E-03     599.511E-03    -299.609E-03     201.566E-03
            1084     9.34942E-03     171.597E-03    -45.6894E+06     50.3823E+06     69.0013E+06     10.0358E+06    -280.217E-03     578.591E-03    -298.374E-03     259.220E-03    -295.592E-03     593.783E-03    -298.036E-03     203.596E-03
            1085     10.0347E-03     171.927E-03    -38.5684E+06     70.9094E+06     85.9371E+06     10.1038E+06    -276.243E-03     573.038E-03    -296.794E-03     254.592E-03    -291.332E-03     587.991E-03    -296.411E-03     200.352E-03
            1086     10.7213E-03     172.236E-03    -28.5967E+06     82.6651E+06     104.866E+06     8.28076E+06    -274.016E-03     569.301E-03    -295.285E-03     245.013E-03    -288.292E-03     583.465E-03    -294.839E-03     192.448E-03
            1087     11.4075E-03     172.523E-03    -18.5742E+06     81.9232E+06     108.905E+06     5.03933E+06    -274.295E-03     568.200E-03    -293.905E-03     226.409E-03    -286.868E-03     580.682E-03    -293.452E-03     176.603E-03
            1088     12.0936E-03     172.771E-03    -10.8366E+06     78.2654E+06     105.532E+06     2.81995E+06    -276.004E-03     568.780E-03    -292.776E-03     211.249E-03    -287.538E-03     580.247E-03    -292.346E-03     162.083E-03
            1089     12.7759E-03     173.010E-03    -4.67447E+06     91.2547E+06     109.104E+06     2.48740E+06    -279.312E-03     571.300E-03    -291.989E-03     150.469E-03    -286.898E-03     578.878E-03    -291.569E-03     110.430E-03
            1090     662.088E-06     170.265E-03    -157.569E+06    -290.607E+06    -157.488E+06    -2.40582E+06    -307.531E-03     614.232E-03    -306.701E-03     25.9928E-03    -307.814E-03     613.382E-03    -306.838E-03     20.2054E-03
            1091     1.32415E-03     170.324E-03    -155.428E+06    -280.923E+06    -149.026E+06    -4.00404E+06    -307.410E-03     614.513E-03    -307.103E-03     48.1850E-03    -308.017E-03     614.003E-03    -307.215E-03     37.5354E-03
            1092     1.98616E-03     170.417E-03    -149.197E+06    -263.509E+06    -133.672E+06    -4.49637E+06    -307.428E-03     614.547E-03    -307.119E-03     70.9615E-03    -308.561E-03     614.602E-03    -307.189E-03     55.2401E-03
            1093     2.64733E-03     170.544E-03    -143.144E+06    -242.445E+06    -116.800E+06    -5.46753E+06    -307.167E-03     614.197E-03    -307.029E-03     94.2039E-03    -309.058E-03     615.057E-03    -307.054E-03     73.2588E-03
            1094     3.30925E-03     170.706E-03    -135.455E+06    -219.224E+06    -97.8574E+06    -6.62117E+06    -306.427E-03     613.229E-03    -306.802E-03     117.781E-03    -309.296E-03     615.123E-03    -306.777E-03     91.5789E-03
            1095     3.97352E-03     170.900E-03    -126.525E+06    -191.998E+06    -76.7923E+06    -6.87039E+06    -304.969E-03     611.357E-03    -306.388E-03     140.924E-03    -309.031E-03     614.510E-03    -306.310E-03     109.658E-03
            1096     4.63868E-03     171.126E-03    -116.564E+06    -163.837E+06    -55.0247E+06    -7.29151E+06    -303.016E-03     608.780E-03    -305.764E-03     163.817E-03    -308.486E-03     613.415E-03    -305.633E-03     127.580E-03
            1097     5.30580E-03     171.379E-03    -106.779E+06    -138.638E+06    -35.1950E+06    -7.92938E+06    -300.761E-03     605.705E-03    -304.945E-03     186.381E-03    -307.839E-03     612.015E-03    -304.765E-03     145.359E-03
            1098     5.97551E-03     171.659E-03    -97.0280E+06    -112.098E+06    -18.4542E+06    -7.45561E+06    -297.912E-03     601.834E-03    -303.923E-03     208.205E-03    -306.750E-03     609.984E-03    -303.712E-03     162.857E-03
            1099     6.64763E-03     171.962E-03    -86.1790E+06    -81.7000E+06    -1.95191E+06    -5.38343E+06    -294.118E-03     596.799E-03    -302.681E-03     228.518E-03    -304.763E-03     606.853E-03    -302.447E-03     179.619E-03
            1100     7.32401E-03     172.283E-03    -76.1297E+06    -46.9200E+06     15.4500E+06    -1.92365E+06    -289.711E-03     590.925E-03    -301.214E-03     245.999E-03    -302.068E-03     602.799E-03    -300.958E-03     194.483E-03
            1101     8.00249E-03     172.614E-03    -66.6341E+06    -6.50117E+06     32.3995E+06     3.54379E+06    -285.242E-03     584.796E-03    -299.554E-03     259.169E-03    -299.027E-03     598.227E-03    -299.286E-03     206.078E-03
            1102     8.68622E-03     172.951E-03    -57.7328E+06     25.0354E+06     46.1453E+06     7.51202E+06    -280.940E-03     578.719E-03    -297.779E-03     266.987E-03    -295.679E-03     593.207E-03    -297.501E-03     213.353E-03
            1103     9.37145E-03     173.284E-03    -48.7963E+06     46.6100E+06     60.5600E+06     8.71695E+06    -277.280E-03     573.269E-03    -295.990E-03     268.610E-03    -292.349E-03     588.154E-03    -295.684E-03     215.385E-03
            1104     10.0590E-03     173.607E-03    -38.5220E+06     72.5836E+06     82.0380E+06     8.47323E+06    -275.021E-03     569.325E-03    -294.304E-03     263.710E-03    -289.842E-03     584.028E-03    -293.943E-03     211.406E-03
            1105     10.7474E-03     173.912E-03    -29.5679E+06     88.5017E+06     102.994E+06     4.85802E+06    -275.115E-03     567.954E-03    -292.839E-03     253.980E-03    -289.229E-03     581.979E-03    -292.410E-03     202.644E-03
            1106     11.4349E-03     174.202E-03    -22.0996E+06     82.1773E+06     111.326E+06     3.64014E+06    -277.670E-03     569.351E-03    -291.681E-03     234.803E-03    -290.233E-03     581.805E-03    -291.212E-03     185.381E-03
            1107     12.1168E-03     174.453E-03    -15.5335E+06     83.8171E+06     111.608E+06     2.82598E+06    -280.958E-03     571.825E-03    -290.867E-03     217.570E-03    -292.619E-03     583.405E-03    -290.408E-03     167.884E-03
            1108     12.7970E-03     174.696E-03    -7.55507E+06     93.8419E+06     112.533E+06    -511.045E+03    -285.588E-03     576.028E-03    -290.440E-03     155.422E-03    -293.300E-03     583.722E-03    -290.003E-03     114.435E-03
            1109     660.918E-06     172.018E-03    -157.613E+06    -280.460E+06    -155.109E+06    -2.54263E+06    -308.273E-03     615.763E-03    -307.490E-03     27.0432E-03    -308.573E-03     614.959E-03    -307.630E-03     21.3122E-03
            1110     1.32193E-03     172.076E-03    -153.860E+06    -271.844E+06    -146.516E+06    -4.00886E+06    -307.490E-03     615.204E-03    -307.714E-03     49.4006E-03    -308.096E-03     614.724E-03    -307.829E-03     39.0251E-03
            1111     1.98350E-03     172.168E-03    -149.859E+06    -256.718E+06    -133.713E+06    -5.56514E+06    -306.889E-03     614.298E-03    -307.409E-03     73.2406E-03    -308.024E-03     614.377E-03    -307.488E-03     57.8701E-03
            1112     2.64678E-03     172.294E-03    -143.402E+06    -234.814E+06    -117.109E+06    -7.12920E+06    -305.995E-03     612.966E-03    -306.971E-03     97.7013E-03    -307.879E-03     613.847E-03    -307.008E-03     77.2945E-03
            1113     3.31110E-03     172.453E-03    -136.126E+06    -212.556E+06    -97.9701E+06    -8.68760E+06    -304.598E-03     610.972E-03    -306.374E-03     122.360E-03    -307.446E-03     612.866E-03    -306.358E-03     96.9741E-03
            1114     3.97587E-03     172.643E-03    -127.236E+06    -187.263E+06    -78.3242E+06    -9.54596E+06    -302.577E-03     608.146E-03    -305.569E-03     146.597E-03    -306.595E-03     611.274E-03    -305.505E-03     116.397E-03
            1115     4.64365E-03     172.861E-03    -118.035E+06    -161.258E+06    -58.1786E+06    -9.80276E+06    -300.039E-03     604.585E-03    -304.546E-03     170.859E-03    -305.443E-03     609.166E-03    -304.432E-03     135.980E-03
            1116     5.31393E-03     173.109E-03    -108.787E+06    -135.195E+06    -37.2244E+06    -10.1724E+06    -296.940E-03     600.246E-03    -303.306E-03     194.760E-03    -303.911E-03     606.458E-03    -303.138E-03     155.551E-03
            1117     5.98673E-03     173.381E-03    -99.7292E+06    -110.642E+06    -19.2355E+06    -10.8199E+06    -293.180E-03     595.005E-03    -301.825E-03     217.881E-03    -301.852E-03     602.985E-03    -301.616E-03     174.839E-03
            1118     6.66369E-03     173.675E-03    -90.8955E+06    -85.9418E+06    -4.42061E+06    -10.4360E+06    -289.020E-03     589.131E-03    -300.111E-03     239.178E-03    -299.432E-03     598.926E-03    -299.877E-03     192.933E-03
            1119     7.34416E-03     173.985E-03    -81.2544E+06    -56.4333E+06     9.88709E+06    -8.31666E+06    -284.876E-03     583.093E-03    -298.216E-03     257.253E-03    -296.920E-03     594.618E-03    -297.967E-03     208.602E-03
            1120     8.02954E-03     174.309E-03    -70.6283E+06    -24.0193E+06     24.4872E+06    -4.05161E+06    -281.045E-03     577.270E-03    -296.225E-03     270.633E-03    -294.424E-03     590.241E-03    -295.965E-03     220.508E-03
            1121     8.71594E-03     174.637E-03    -58.7406E+06     14.8110E+06     41.5910E+06     1.58699E+06    -278.005E-03     572.244E-03    -294.238E-03     278.335E-03    -292.299E-03     586.259E-03    -293.966E-03     227.568E-03
            1122     9.40586E-03     174.965E-03    -47.4669E+06     43.5999E+06     58.0983E+06     4.42066E+06    -276.432E-03     568.820E-03    -292.387E-03     279.562E-03    -291.090E-03     583.294E-03    -292.091E-03     228.739E-03
            1123     10.0956E-03     175.284E-03    -38.4021E+06     72.0438E+06     75.9252E+06     4.65832E+06    -276.876E-03     567.678E-03    -290.802E-03     274.392E-03    -291.384E-03     582.086E-03    -290.472E-03     223.751E-03
            1124     10.7829E-03     175.591E-03    -29.7789E+06     94.9667E+06     97.2737E+06     4.26079E+06    -279.794E-03     569.418E-03    -289.624E-03     264.411E-03    -293.748E-03     583.322E-03    -289.232E-03     213.905E-03
            1125     11.4654E-03     175.884E-03    -20.3761E+06     82.1757E+06     111.678E+06     2.41610E+06    -284.314E-03     573.236E-03    -288.922E-03     244.981E-03    -296.880E-03     585.698E-03    -288.453E-03     195.485E-03
            1126     12.1444E-03     176.145E-03    -9.15716E+06     86.7628E+06     121.218E+06     1.71902E+06    -289.879E-03     578.530E-03    -288.651E-03     227.497E-03    -301.736E-03     590.313E-03    -288.157E-03     176.627E-03
            1127     12.8170E-03     176.393E-03    -1.10159E+06     98.5132E+06     122.781E+06     2.96486E+06    -296.819E-03     585.644E-03    -288.824E-03     162.696E-03    -304.740E-03     593.556E-03    -288.352E-03     120.055E-03
            1128     661.496E-06     173.773E-03    -155.122E+06    -271.145E+06    -153.568E+06    -1.42679E+06    -306.917E-03     613.205E-03    -306.289E-03     28.7269E-03    -307.221E-03     612.442E-03    -306.439E-03     23.2270E-03
            1129     1.32390E-03     173.828E-03    -151.905E+06    -262.692E+06    -143.523E+06    -3.37244E+06    -305.688E-03     611.976E-03    -306.289E-03     52.6980E-03    -306.301E-03     611.533E-03    -306.405E-03     42.7293E-03
            1130     1.98749E-03     173.917E-03    -146.748E+06    -247.331E+06    -129.462E+06    -5.53585E+06    -304.438E-03     610.128E-03    -305.690E-03     77.9052E-03    -305.570E-03     610.235E-03    -305.766E-03     63.1960E-03
            1131     2.65157E-03     174.039E-03    -140.425E+06    -226.288E+06    -112.560E+06    -6.87840E+06    -302.843E-03     607.736E-03    -304.893E-03     103.358E-03    -304.702E-03     608.618E-03    -304.924E-03     83.9577E-03
            1132     3.31759E-03     174.193E-03    -132.874E+06    -203.517E+06    -93.5460E+06    -8.50713E+06    -300.635E-03     604.521E-03    -303.886E-03     128.853E-03    -303.416E-03     606.377E-03    -303.866E-03     104.918E-03
            1133     3.98704E-03     174.377E-03    -125.144E+06    -180.631E+06    -74.6475E+06    -9.95913E+06    -297.889E-03     600.524E-03    -302.636E-03     154.666E-03    -301.804E-03     603.569E-03    -302.566E-03     126.307E-03
            1134     4.65832E-03     174.589E-03    -116.503E+06    -156.902E+06    -55.6993E+06    -10.5389E+06    -294.699E-03     595.842E-03    -301.143E-03     180.879E-03    -299.958E-03     600.289E-03    -301.025E-03     148.290E-03
            1135     5.33290E-03     174.828E-03    -107.408E+06    -131.637E+06    -36.2600E+06    -10.0834E+06    -290.928E-03     590.339E-03    -299.411E-03     206.683E-03    -297.697E-03     596.361E-03    -299.246E-03     170.259E-03
            1136     6.01231E-03     175.090E-03    -98.8431E+06    -106.203E+06    -17.1859E+06    -9.41659E+06    -286.967E-03     584.426E-03    -297.460E-03     231.319E-03    -295.366E-03     592.144E-03    -297.248E-03     191.505E-03
            1137     6.69536E-03     175.374E-03    -90.7755E+06    -81.9738E+06    -627.841E+03    -10.0675E+06    -283.424E-03     578.778E-03    -295.354E-03     253.893E-03    -293.511E-03     588.251E-03    -295.107E-03     211.066E-03
            1138     7.38175E-03     175.677E-03    -82.3798E+06    -57.1633E+06     12.7822E+06    -10.8122E+06    -280.493E-03     573.684E-03    -293.191E-03     272.787E-03    -292.179E-03     584.835E-03    -292.925E-03     227.472E-03
            1139     8.06980E-03     175.991E-03    -73.1018E+06    -29.7802E+06     26.2948E+06    -10.6613E+06    -278.351E-03     569.435E-03    -291.085E-03     286.217E-03    -291.355E-03     581.997E-03    -290.804E-03     239.132E-03
            1140     8.76176E-03     176.314E-03    -63.1790E+06     2.73760E+06     40.1868E+06    -8.74524E+06    -277.740E-03     566.891E-03    -289.150E-03     293.321E-03    -291.649E-03     580.468E-03    -288.862E-03     245.097E-03
            1141     9.45182E-03     176.639E-03    -51.7652E+06     37.6712E+06     54.5029E+06    -5.79216E+06    -279.057E-03     566.584E-03    -287.527E-03     293.267E-03    -293.360E-03     580.679E-03    -287.234E-03     244.337E-03
            1142     10.1401E-03     176.959E-03    -39.9228E+06     66.5737E+06     71.0035E+06    -3.35055E+06    -282.471E-03     568.823E-03    -286.353E-03     287.125E-03    -296.664E-03     582.907E-03    -286.036E-03     237.713E-03
            1143     10.8245E-03     177.274E-03    -28.4318E+06     91.5590E+06     92.1217E+06    -559.639E+03    -287.909E-03     573.623E-03    -285.714E-03     276.770E-03    -301.642E-03     587.316E-03    -285.345E-03     226.830E-03
            1144     11.5042E-03     177.577E-03    -19.1016E+06     85.4567E+06     106.644E+06    -78.9681E+03    -294.801E-03     580.448E-03    -285.647E-03     256.021E-03    -307.333E-03     592.910E-03    -285.210E-03     206.099E-03
            1145     12.1773E-03     177.845E-03    -15.5613E+06     81.6557E+06     115.412E+06     750.080E+03    -303.213E-03     589.351E-03    -286.138E-03     237.329E-03    -315.269E-03     601.311E-03    -285.657E-03     184.726E-03
            1146     12.8415E-03     178.120E-03    -11.2269E+06     97.5876E+06     122.275E+06     2.37216E+06    -312.690E-03     599.858E-03    -287.167E-03     169.026E-03    -320.767E-03     607.890E-03    -286.681E-03     124.802E-03
            1147     664.572E-06     175.518E-03    -150.159E+06    -263.076E+06    -147.611E+06    -1.67212E+06    -301.781E-03     604.479E-03    -302.699E-03     30.2541E-03    -302.076E-03     603.734E-03    -302.837E-03     25.1923E-03
            1148     1.32942E-03     175.571E-03    -146.747E+06    -253.035E+06    -138.980E+06    -3.46537E+06    -300.968E-03     602.772E-03    -301.803E-03     56.1687E-03    -301.563E-03     602.346E-03    -301.919E-03     46.9131E-03
            1149     1.99551E-03     175.655E-03    -141.590E+06    -238.490E+06    -124.341E+06    -4.98218E+06    -299.244E-03     600.222E-03    -300.979E-03     83.3595E-03    -300.334E-03     600.320E-03    -301.049E-03     69.8509E-03
            1150     2.66432E-03     175.772E-03    -134.750E+06    -219.528E+06    -106.180E+06    -6.24757E+06    -296.896E-03     596.762E-03    -299.866E-03     111.116E-03    -298.682E-03     597.593E-03    -299.883E-03     93.3848E-03
            1151     3.33535E-03     175.919E-03    -127.043E+06    -196.251E+06    -86.6734E+06    -6.57692E+06    -293.865E-03     592.311E-03    -298.446E-03     138.864E-03    -296.537E-03     594.081E-03    -298.410E-03     117.103E-03
            1152     4.00891E-03     176.094E-03    -118.811E+06    -173.000E+06    -66.1111E+06    -7.07541E+06    -290.390E-03     587.123E-03    -296.733E-03     167.263E-03    -294.151E-03     590.034E-03    -296.640E-03     141.613E-03
            1153     4.68699E-03     176.298E-03    -111.123E+06    -150.431E+06    -46.9784E+06     -7.5511E+06    -286.727E-03     581.486E-03    -294.758E-03     195.599E-03    -291.762E-03     585.721E-03    -294.614E-03     166.276E-03
            1154     5.36946E-03     176.526E-03    -102.943E+06    -126.717E+06    -28.9218E+06    -7.71140E+06    -283.216E-03     575.803E-03    -292.587E-03     223.073E-03    -289.688E-03     581.536E-03    -292.398E-03     190.301E-03
            1155     6.05504E-03     176.780E-03    -92.5925E+06    -101.693E+06    -9.88468E+06    -7.77687E+06    -280.236E-03     570.552E-03    -290.316E-03     248.834E-03    -288.270E-03     577.919E-03    -290.083E-03     212.803E-03
            1156     6.74425E-03     177.056E-03    -82.0508E+06    -75.6506E+06     8.75309E+06    -7.27391E+06    -278.089E-03     566.132E-03    -288.043E-03     272.076E-03    -287.743E-03     575.196E-03    -287.771E-03     233.079E-03
            1157     7.43607E-03     177.353E-03    -72.0797E+06    -50.1002E+06     25.5372E+06    -7.23573E+06    -277.276E-03     563.160E-03    -285.884E-03     291.189E-03    -288.488E-03     573.861E-03    -285.579E-03     249.521E-03
            1158     8.12995E-03     177.664E-03    -62.4734E+06    -23.9095E+06     40.5145E+06    -7.62845E+06    -278.264E-03     562.243E-03    -283.979E-03     304.348E-03    -290.798E-03     574.352E-03    -283.652E-03     260.384E-03
            1159     8.82087E-03     177.986E-03    -53.1980E+06     3.85333E+06     53.6588E+06    -8.65117E+06    -281.245E-03     563.710E-03    -282.465E-03     310.907E-03    -294.717E-03     576.851E-03    -282.125E-03     265.074E-03
            1160     9.51077E-03     178.314E-03    -44.0862E+06     37.6925E+06     68.1828E+06    -9.12980E+06    -285.990E-03     567.444E-03    -281.454E-03     309.773E-03    -299.895E-03     581.132E-03    -281.104E-03     262.503E-03
            1161     10.1957E-03     178.642E-03    -35.4607E+06     57.2614E+06     81.7038E+06    -6.77593E+06    -292.662E-03     573.698E-03    -281.037E-03     302.433E-03    -306.531E-03     587.413E-03    -280.660E-03     253.908E-03
            1162     10.8749E-03     178.965E-03    -28.7569E+06     80.5408E+06     95.4443E+06    -162.784E+03    -301.059E-03     582.297E-03    -281.239E-03     289.255E-03    -314.557E-03     595.709E-03    -280.836E-03     239.384E-03
            1163     11.5469E-03     179.282E-03    -24.4225E+06     94.3397E+06     109.431E+06     1.07881E+06    -310.774E-03     592.885E-03    -282.111E-03     265.619E-03    -323.277E-03     605.326E-03    -281.665E-03     214.558E-03
            1164     12.2071E-03     179.572E-03    -15.1500E+06     78.4376E+06     113.227E+06    -1.15137E+06    -321.602E-03     605.218E-03    -283.616E-03     245.022E-03    -333.715E-03     617.234E-03    -283.142E-03     190.082E-03
            1165     12.8596E-03     179.862E-03    -4.04244E+06     90.6598E+06     119.717E+06     1.72000E+06    -331.895E-03     617.560E-03    -285.665E-03     173.263E-03    -339.895E-03     625.526E-03    -285.192E-03     127.342E-03
            1166     669.181E-06     177.242E-03    -139.244E+06    -255.420E+06    -139.461E+06    -1.45133E+06    -293.585E-03     587.922E-03    -294.337E-03     33.5958E-03    -293.842E-03     587.173E-03    -294.462E-03     29.1785E-03
            1167     1.34009E-03     177.292E-03    -137.967E+06    -245.462E+06    -129.673E+06    -2.20422E+06    -292.375E-03     585.775E-03    -293.400E-03     61.5474E-03    -292.922E-03     585.327E-03    -293.493E-03     53.5376E-03
            1168     2.01271E-03     177.371E-03    -133.826E+06    -230.928E+06    -116.314E+06    -3.69363E+06    -290.123E-03     582.455E-03    -292.332E-03     91.4507E-03    -291.140E-03     582.503E-03    -292.384E-03     79.7138E-03
            1169     2.68718E-03     177.481E-03    -127.592E+06    -212.615E+06    -98.4978E+06    -4.91344E+06    -286.958E-03     577.829E-03    -290.871E-03     121.872E-03    -288.626E-03     578.563E-03    -290.870E-03     106.513E-03
            1170     3.36561E-03     177.619E-03    -119.559E+06    -191.472E+06    -78.2276E+06    -5.41968E+06    -283.409E-03     572.453E-03    -289.044E-03     152.581E-03    -285.907E-03     574.060E-03    -288.984E-03     133.755E-03
            1171     4.04845E-03     177.786E-03    -110.434E+06    -168.635E+06    -56.7556E+06    -4.89869E+06    -279.974E-03     566.919E-03    -286.945E-03     183.544E-03    -283.477E-03     569.584E-03    -286.824E-03     161.415E-03
            1172     4.73489E-03     177.979E-03    -100.115E+06    -144.007E+06    -34.8999E+06    -4.38370E+06    -276.925E-03     561.603E-03    -284.677E-03     213.832E-03    -281.614E-03     565.514E-03    -284.498E-03     188.461E-03
            1173     5.42464E-03     178.200E-03    -88.8890E+06    -119.501E+06    -14.5943E+06    -5.48210E+06    -274.722E-03     557.067E-03    -282.345E-03     242.941E-03    -280.769E-03     562.405E-03    -282.116E-03     214.299E-03
            1174     6.11797E-03     178.447E-03    -78.1150E+06    -96.6332E+06     3.44853E+06    -6.02497E+06    -273.771E-03     553.844E-03    -280.072E-03     270.164E-03    -281.327E-03     560.760E-03    -279.802E-03     238.261E-03
            1175     6.81311E-03     178.718E-03    -67.1281E+06    -73.0076E+06     21.0854E+06    -4.66295E+06    -274.446E-03     552.438E-03    -277.992E-03     294.029E-03    -283.580E-03     561.008E-03    -277.684E-03     258.950E-03
            1176     7.50947E-03     179.012E-03    -57.2093E+06    -46.9484E+06     38.6465E+06    -2.00534E+06    -277.050E-03     553.291E-03    -276.241E-03     312.812E-03    -287.711E-03     563.468E-03    -275.897E-03     274.711E-03
            1177     8.20350E-03     179.326E-03    -49.9778E+06    -17.2504E+06     55.2674E+06    -313.606E+03    -282.002E-03     556.962E-03    -274.959E-03     325.052E-03    -294.001E-03     568.563E-03    -274.586E-03     284.070E-03
            1178     8.89603E-03     179.655E-03    -44.2368E+06     16.2669E+06     71.3308E+06    -1.12119E+06    -289.024E-03     563.296E-03    -274.272E-03     329.889E-03    -302.003E-03     575.974E-03    -273.875E-03     286.310E-03
            1179     9.58135E-03     179.993E-03    -39.1696E+06     43.4693E+06     83.6892E+06    -2.38150E+06    -297.810E-03     572.064E-03    -274.254E-03     326.602E-03    -311.293E-03     585.327E-03    -273.842E-03     280.670E-03
            1180     10.2604E-03     180.332E-03    -34.5418E+06     53.6184E+06     89.9703E+06    -1.82511E+06    -308.650E-03     583.610E-03    -274.960E-03     316.113E-03    -322.166E-03     596.944E-03    -274.538E-03     267.868E-03
            1181     10.9298E-03     180.676E-03    -26.8766E+06     70.8486E+06     99.3147E+06    -401.900E+03    -320.408E-03     596.811E-03    -276.403E-03     299.248E-03    -333.627E-03     609.909E-03    -275.970E-03     248.465E-03
            1182     11.5879E-03     181.012E-03    -15.8144E+06     98.4068E+06     119.068E+06     3.23684E+06    -332.016E-03     610.582E-03    -278.566E-03     273.778E-03    -344.420E-03     622.944E-03    -278.090E-03     220.701E-03
            1183     12.2377E-03     181.326E-03    -10.8365E+06     83.8212E+06     117.847E+06     1.93550E+06    -343.881E-03     625.183E-03    -281.302E-03     251.357E-03    -355.960E-03     637.187E-03    -280.818E-03     193.820E-03
            1184     12.8751E-03     181.644E-03    -9.27261E+06     85.5041E+06     115.562E+06    -1.21571E+06    -353.128E-03     637.613E-03    -284.485E-03     177.058E-03    -361.111E-03     645.538E-03    -284.018E-03     128.962E-03
            1185     678.885E-06     178.931E-03    -130.964E+06    -247.244E+06    -130.435E+06    -2.29555E+06    -280.565E-03     561.073E-03    -280.508E-03     36.9110E-03    -280.796E-03     560.319E-03    -280.612E-03     33.3456E-03
            1186     1.35809E-03     178.976E-03    -128.181E+06    -240.471E+06    -120.572E+06    -3.18706E+06    -278.682E-03     558.552E-03    -279.871E-03     68.5958E-03    -279.164E-03     558.052E-03    -279.939E-03     62.1026E-03
            1187     2.03948E-03     179.050E-03    -121.643E+06    -225.371E+06    -104.714E+06    -2.92591E+06    -276.011E-03     554.606E-03    -278.595E-03     102.105E-03    -276.906E-03     554.549E-03    -278.616E-03     92.6209E-03
            1188     2.72483E-03     179.151E-03    -114.096E+06    -205.537E+06    -85.1918E+06    -3.27413E+06    -272.861E-03     549.768E-03    -276.907E-03     135.859E-03    -274.337E-03     550.333E-03    -276.870E-03     123.465E-03
            1189     3.41385E-03     179.281E-03    -105.607E+06    -187.228E+06    -64.3615E+06    -4.10159E+06    -269.893E-03     544.823E-03    -274.931E-03     169.557E-03    -272.108E-03     546.164E-03    -274.828E-03     154.283E-03
            1190     4.10607E-03     179.439E-03    -95.3657E+06    -164.962E+06    -43.4539E+06    -4.18250E+06    -267.524E-03     540.313E-03    -272.789E-03     202.677E-03    -270.648E-03     542.618E-03    -272.629E-03     184.531E-03
            1191     4.80198E-03     179.625E-03    -84.7451E+06    -139.709E+06    -23.4031E+06    -4.01900E+06    -266.216E-03     536.824E-03    -270.609E-03     235.186E-03    -270.447E-03     540.309E-03    -270.400E-03     214.031E-03
            1192     5.50090E-03     179.841E-03    -75.4238E+06    -116.046E+06    -4.01548E+06    -2.87008E+06    -266.490E-03     535.028E-03    -268.538E-03     265.906E-03    -272.007E-03     539.863E-03    -268.280E-03     241.632E-03
            1193     6.20136E-03     180.085E-03    -67.9695E+06    -91.7972E+06     14.5197E+06    -890.843E+03    -268.828E-03     535.549E-03    -266.722E-03     293.867E-03    -275.800E-03     541.904E-03    -266.418E-03     266.300E-03
            1194     6.90212E-03     180.359E-03    -63.1563E+06    -71.3877E+06     30.1465E+06     940.222E+03    -273.626E-03     538.939E-03    -265.313E-03     317.782E-03    -282.172E-03     546.916E-03    -264.967E-03     286.656E-03
            1195     7.59997E-03     180.658E-03    -59.4662E+06    -48.0174E+06     44.2408E+06     3.14805E+06    -281.022E-03     545.478E-03    -264.456E-03     335.982E-03    -291.130E-03     555.078E-03    -264.079E-03     301.172E-03
            1196     8.29501E-03     180.983E-03    -54.5624E+06    -12.1435E+06     60.2349E+06     4.91832E+06    -290.814E-03     555.090E-03    -264.275E-03     346.771E-03    -302.316E-03     566.187E-03    -263.877E-03     308.268E-03
            1197     8.98113E-03     181.326E-03    -49.5021E+06     28.3820E+06     75.8992E+06     5.29096E+06    -302.491E-03     567.356E-03    -264.864E-03     348.305E-03    -315.033E-03     579.615E-03    -264.454E-03     306.222E-03
            1198     9.66094E-03     181.681E-03    -44.0904E+06     49.3543E+06     83.7193E+06     3.40563E+06    -316.154E-03     582.434E-03    -266.279E-03     341.131E-03    -329.230E-03     595.302E-03    -265.868E-03     295.589E-03
            1199     10.3281E-03     182.046E-03    -35.9449E+06     57.9386E+06     89.1347E+06     -61.023E+03    -330.736E-03     599.271E-03    -268.535E-03     326.482E-03    -343.858E-03     612.229E-03    -268.121E-03     277.570E-03
            1200     10.9832E-03     182.412E-03    -28.0659E+06     73.2517E+06     96.9840E+06    -2.98827E+06    -344.653E-03     616.203E-03    -271.551E-03     306.329E-03    -357.595E-03     629.041E-03    -271.131E-03     253.730E-03
            1201     11.6287E-03     182.774E-03    -23.3385E+06     87.5293E+06     108.968E+06    -4.05197E+06    -357.257E-03     632.482E-03    -275.225E-03     278.153E-03    -369.500E-03     644.651E-03    -274.774E-03     222.323E-03
            1202     12.2603E-03     183.116E-03    -14.1039E+06     77.6362E+06     108.567E+06     780.993E+03    -367.127E-03     646.445E-03    -279.318E-03     253.431E-03    -379.055E-03     658.293E-03    -278.868E-03     193.056E-03
            1203     12.8843E-03     183.458E-03    -3.49537E+06     91.2923E+06     113.338E+06     2.59993E+06    -372.041E-03     655.643E-03    -283.602E-03     179.860E-03    -379.962E-03     663.552E-03    -283.162E-03     129.793E-03
            1204     691.133E-06     180.565E-03    -117.805E+06    -237.416E+06    -115.716E+06    -2.46917E+06    -260.944E-03     522.163E-03    -261.220E-03     41.6799E-03    -261.135E-03     521.387E-03    -261.283E-03     39.0396E-03
            1205     1.38444E-03     180.607E-03    -115.097E+06    -235.352E+06    -106.191E+06    -3.16859E+06    -259.295E-03     519.692E-03    -260.397E-03     77.3656E-03    -259.687E-03     519.105E-03    -260.420E-03     72.6375E-03
            1206     2.08040E-03     180.674E-03    -110.160E+06    -221.267E+06    -93.6125E+06    -3.38280E+06    -257.174E-03     516.316E-03    -259.142E-03     114.333E-03    -257.912E-03     516.109E-03    -259.129E-03     107.366E-03
            1207     2.77880E-03     180.769E-03    -103.442E+06    -201.221E+06    -77.0892E+06    -3.30447E+06    -255.221E-03     512.828E-03    -257.607E-03     151.344E-03    -256.449E-03     513.161E-03    -257.551E-03     142.130E-03
            1208     3.47981E-03     180.892E-03    -96.2038E+06    -182.455E+06    -57.6265E+06    -2.77748E+06    -254.021E-03     509.965E-03    -255.944E-03     188.123E-03    -255.893E-03     510.983E-03    -255.828E-03     176.582E-03
            1209     4.18396E-03     181.045E-03    -89.6500E+06    -161.545E+06    -38.7347E+06    -2.26726E+06    -254.017E-03     508.287E-03    -254.270E-03     224.082E-03    -256.719E-03     510.183E-03    -254.100E-03     210.009E-03
            1210     4.89020E-03     181.229E-03    -84.5182E+06    -139.132E+06    -20.7416E+06    -426.128E+03    -255.882E-03     508.611E-03    -252.729E-03     258.482E-03    -259.615E-03     511.590E-03    -252.508E-03     241.626E-03
            1211     5.59741E-03     181.446E-03    -80.6254E+06    -116.509E+06    -2.84683E+06     3.28382E+06    -260.207E-03     511.699E-03    -251.491E-03     289.966E-03    -265.154E-03     515.942E-03    -251.220E-03     270.065E-03
            1212     6.30357E-03     181.695E-03    -77.7140E+06    -92.1811E+06     14.1707E+06     7.29520E+06    -267.297E-03     518.014E-03    -250.717E-03     317.843E-03    -273.663E-03     523.732E-03    -250.400E-03     294.419E-03
            1213     7.00677E-03     181.978E-03    -74.6330E+06    -69.2101E+06     29.4812E+06     9.78608E+06    -277.296E-03     527.850E-03    -250.554E-03     340.747E-03    -285.229E-03     535.191E-03    -250.198E-03     313.253E-03
            1214     7.70540E-03     182.293E-03    -69.0303E+06    -44.0226E+06     43.8096E+06     9.40796E+06    -290.226E-03     541.359E-03    -251.133E-03     357.010E-03    -299.738E-03     550.355E-03    -250.750E-03     324.995E-03
            1215     8.39425E-03     182.637E-03    -62.8384E+06    -5.60936E+06     58.1515E+06     8.90884E+06    -305.480E-03     558.033E-03    -252.553E-03     364.857E-03    -316.433E-03     568.592E-03    -252.163E-03     328.108E-03
            1216     9.07518E-03     183.005E-03    -55.7728E+06     35.6129E+06     71.4804E+06     8.35686E+06    -322.617E-03     577.510E-03    -254.893E-03     362.802E-03    -334.677E-03     589.314E-03    -254.506E-03     321.233E-03
            1217     9.74050E-03     183.389E-03    -47.3150E+06     63.1298E+06     81.4861E+06     3.74078E+06    -340.533E-03     598.702E-03    -258.169E-03     351.836E-03    -353.190E-03     611.203E-03    -257.784E-03     305.638E-03
            1218     10.3933E-03     183.786E-03    -41.0816E+06     70.9404E+06     84.7852E+06    -2.67200E+06    -357.307E-03     619.583E-03    -262.277E-03     333.271E-03    -370.059E-03     632.219E-03    -261.896E-03     282.759E-03
            1219     11.0341E-03     184.180E-03    -33.5525E+06     71.8494E+06      88.134E+06    -5.31041E+06    -372.393E-03     639.456E-03    -267.063E-03     310.299E-03    -385.032E-03     651.995E-03    -266.678E-03     255.219E-03
            1220     11.6596E-03     184.577E-03    -23.0967E+06     90.2633E+06     102.852E+06    -4.70398E+06    -383.526E-03     655.861E-03    -272.336E-03     280.516E-03    -395.506E-03     667.797E-03    -271.919E-03     221.935E-03
            1221     12.2769E-03     184.941E-03    -15.4998E+06     74.4268E+06     96.7059E+06    -9.33106E+06    -388.453E-03     666.164E-03    -277.711E-03     255.412E-03    -400.256E-03     677.903E-03    -277.313E-03     192.058E-03
            1222     12.8911E-03     185.297E-03    -9.14307E+06     76.5724E+06     96.8467E+06    -8.80283E+06    -387.323E-03     670.250E-03    -282.927E-03     182.686E-03    -395.269E-03     678.158E-03    -282.540E-03     130.318E-03
            1223     710.370E-06     182.127E-03    -119.256E+06    -231.178E+06    -117.007E+06    -597.908E+03    -235.557E-03     471.062E-03    -235.505E-03     47.0225E-03    -235.750E-03     470.285E-03    -235.582E-03     45.3531E-03
            1224     1.42128E-03     182.166E-03    -116.509E+06    -229.345E+06    -106.632E+06    -1.79385E+06    -235.114E-03     470.196E-03    -235.082E-03     86.2262E-03    -235.454E-03     469.556E-03    -235.113E-03     83.2171E-03
            1225     2.13317E-03     182.230E-03    -112.281E+06    -217.764E+06    -94.6760E+06    -2.20737E+06    -234.790E-03     469.197E-03    -234.407E-03     126.924E-03    -235.394E-03     468.848E-03    -234.401E-03     122.374E-03
            1226     2.84706E-03     182.322E-03    -108.628E+06    -199.501E+06    -81.2017E+06    -959.152E+03    -235.247E-03     468.847E-03    -233.600E-03     167.427E-03    -236.248E-03     468.943E-03    -233.559E-03     161.233E-03
            1227     3.56297E-03     182.444E-03    -105.399E+06    -181.219E+06    -64.9709E+06     1.16284E+06    -237.039E-03     469.853E-03    -232.814E-03     206.926E-03    -238.586E-03     470.533E-03    -232.723E-03     198.899E-03
            1228     4.27952E-03     182.598E-03    -103.048E+06    -162.767E+06    -45.9815E+06     4.94930E+06    -241.105E-03     473.318E-03    -232.212E-03     244.802E-03    -243.382E-03     474.757E-03    -232.057E-03     234.613E-03
            1229     4.99558E-03     182.788E-03    -100.666E+06    -142.009E+06    -26.3001E+06     9.25294E+06    -247.906E-03     479.870E-03    -231.964E-03     279.916E-03    -251.105E-03     482.268E-03    -231.744E-03     267.163E-03
            1230     5.70927E-03     183.014E-03    -97.4976E+06    -119.845E+06    -8.48341E+06     13.0315E+06    -257.617E-03     489.826E-03    -232.209E-03     311.473E-03    -261.956E-03     493.414E-03    -231.936E-03     295.568E-03
            1231     6.41894E-03     183.278E-03    -92.8607E+06    -93.8821E+06     7.58255E+06     15.5081E+06    -270.517E-03     503.598E-03    -233.082E-03     338.513E-03    -276.216E-03     508.619E-03    -232.773E-03     318.737E-03
            1232     7.12193E-03     183.582E-03    -85.5876E+06    -64.5034E+06     23.2443E+06     14.7445E+06    -286.657E-03     521.380E-03    -234.723E-03     359.870E-03    -293.917E-03     528.055E-03    -234.389E-03     335.342E-03
            1233     7.81474E-03     183.922E-03    -78.0726E+06    -34.4282E+06     37.7335E+06     11.7672E+06    -305.613E-03     542.868E-03    -237.255E-03     373.475E-03    -314.489E-03     551.260E-03    -236.904E-03     343.485E-03
            1234     8.49769E-03     184.298E-03    -70.0132E+06     4.99634E+06     53.5705E+06     7.96254E+06    -326.386E-03     567.139E-03    -240.754E-03     377.382E-03    -336.753E-03     577.151E-03    -240.391E-03     341.477E-03
            1235     9.16384E-03     184.700E-03    -58.7212E+06     43.0972E+06     66.9676E+06     3.21037E+06    -347.881E-03     593.097E-03    -245.216E-03     371.998E-03    -359.407E-03     604.406E-03    -244.859E-03     330.045E-03
            1236     9.81632E-03     185.126E-03    -46.0719E+06     73.7798E+06     78.9836E+06    -329.778E+03    -368.478E-03     619.059E-03    -250.580E-03     357.336E-03    -380.625E-03     631.107E-03    -250.226E-03     309.826E-03
            1237     10.4534E-03     185.556E-03    -35.1370E+06     83.4491E+06     85.1509E+06    -1.75380E+06    -386.503E-03     643.185E-03    -256.682E-03     335.081E-03    -398.783E-03     655.418E-03    -256.327E-03     282.427E-03
            1238     11.0746E-03     185.991E-03    -27.1470E+06     84.4025E+06     89.3179E+06    -6.17224E+06    -400.050E-03     663.317E-03    -263.267E-03     310.360E-03    -412.262E-03     675.493E-03    -262.903E-03     252.649E-03
            1239     11.6870E-03     186.415E-03    -18.5113E+06     92.6552E+06     101.255E+06    -12.3648E+06    -406.390E-03     676.403E-03    -270.013E-03     279.421E-03    -417.978E-03     687.973E-03    -269.615E-03     218.373E-03
            1240     12.2932E-03     186.799E-03    -7.57500E+06     74.9620E+06     97.0612E+06    -10.8565E+06    -405.509E-03     681.997E-03    -276.487E-03     253.085E-03    -417.014E-03     693.465E-03    -276.100E-03     187.568E-03
            1241     12.8963E-03     187.160E-03    -1.52661E+06     66.3448E+06     93.4746E+06    -6.05717E+06    -398.965E-03     681.406E-03    -282.441E-03     182.077E-03    -406.793E-03     689.195E-03    -282.068E-03     128.043E-03
            1242     732.467E-06     183.603E-03    -133.952E+06    -228.236E+06    -132.930E+06    -1.10835E+06    -206.461E-03     411.904E-03    -205.443E-03     51.3415E-03    -206.687E-03     411.153E-03    -205.583E-03     50.4591E-03
            1243     1.46411E-03     183.642E-03    -131.650E+06    -226.112E+06    -124.166E+06    -569.966E+03    -207.656E-03     413.489E-03    -205.833E-03     94.0943E-03    -207.979E-03     412.829E-03    -205.935E-03     92.4694E-03
            1244     2.19653E-03     183.708E-03    -129.581E+06    -219.310E+06    -111.191E+06     1.58313E+06    -210.325E-03     416.415E-03    -206.090E-03     138.782E-03    -210.833E-03     415.944E-03    -206.140E-03     136.244E-03
            1245     2.92799E-03     183.804E-03    -127.546E+06    -204.339E+06    -94.5906E+06     6.30577E+06    -214.691E-03     421.206E-03    -206.514E-03     182.114E-03    -215.498E-03     421.060E-03    -206.506E-03     178.501E-03
            1246     3.65804E-03     183.932E-03    -125.778E+06    -185.638E+06    -75.2166E+06     11.1779E+06    -221.451E-03     428.673E-03    -207.222E-03     223.571E-03    -222.697E-03     428.999E-03    -207.147E-03     218.560E-03
            1247     4.38606E-03     184.098E-03    -122.995E+06    -169.037E+06    -55.5730E+06     14.8477E+06    -231.127E-03     439.469E-03    -208.342E-03     262.316E-03    -232.973E-03     440.421E-03    -208.196E-03     255.449E-03
            1248     5.10964E-03     184.303E-03    -117.492E+06    -146.453E+06    -36.2675E+06     17.7089E+06    -243.878E-03     453.862E-03    -209.984E-03     297.303E-03    -246.523E-03     455.671E-03    -209.782E-03     287.973E-03
            1249     5.82749E-03     184.549E-03    -108.983E+06    -122.123E+06    -17.8195E+06     18.2146E+06    -259.953E-03     472.223E-03    -212.271E-03     327.887E-03    -263.635E-03     475.145E-03    -212.025E-03     315.263E-03
            1250     6.53707E-03     184.839E-03    -97.8844E+06    -91.5323E+06     372.748E+03     17.2510E+06    -279.363E-03     494.684E-03    -215.321E-03     352.804E-03    -284.333E-03     499.001E-03    -215.044E-03     335.912E-03
            1251     7.23611E-03     185.173E-03    -86.0658E+06    -56.7458E+06     17.8811E+06     14.8033E+06    -301.823E-03     521.072E-03    -219.248E-03     370.784E-03    -308.299E-03     527.019E-03    -218.952E-03     348.556E-03
            1252     7.92276E-03     185.553E-03    -74.6789E+06    -20.6945E+06     35.2964E+06     11.4512E+06    -326.321E-03     550.462E-03    -224.141E-03     380.158E-03    -334.389E-03     558.125E-03    -223.826E-03     351.645E-03
            1253     8.59125E-03     185.970E-03    -61.2649E+06     22.8978E+06     56.0427E+06     6.12623E+06    -351.282E-03     581.290E-03    -230.008E-03     380.348E-03    -360.849E-03     590.598E-03    -229.672E-03     344.915E-03
            1254     9.24509E-03     186.420E-03    -48.0313E+06     57.5189E+06     68.6866E+06    -516.178E+03    -375.414E-03     612.159E-03    -236.744E-03     371.675E-03    -386.146E-03     622.764E-03    -236.415E-03     329.241E-03
            1255     9.88112E-03     186.887E-03    -37.4763E+06     77.3500E+06     74.6229E+06    -3.52425E+06    -397.038E-03     641.264E-03    -244.226E-03     353.743E-03    -408.403E-03     652.590E-03    -243.910E-03     304.938E-03
            1256     10.4996E-03     187.367E-03    -26.8929E+06     89.3565E+06     85.6189E+06    -5.84930E+06    -413.714E-03     665.970E-03    -252.255E-03     330.016E-03    -425.318E-03     677.574E-03    -251.918E-03     275.380E-03
            1257     11.1066E-03     187.834E-03    -15.9622E+06     103.460E+06     99.1131E+06    -9.81567E+06    -422.950E-03     683.391E-03    -260.441E-03     304.606E-03    -434.559E-03     695.041E-03    -260.073E-03     244.888E-03
            1258     11.7049E-03     188.285E-03    -7.23425E+06     95.3749E+06     106.750E+06    -9.62125E+06    -423.594E-03     691.968E-03    -268.374E-03     273.965E-03    -434.699E-03     703.085E-03    -267.968E-03     211.160E-03
            1259     12.3000E-03     188.678E-03    -5.78753E+06     63.0811E+06     98.3959E+06    -7.16423E+06    -417.349E-03     693.022E-03    -275.673E-03     247.781E-03    -428.425E-03     704.018E-03    -275.264E-03     181.252E-03
            1260     12.8998E-03     189.041E-03    -4.80974E+06     55.9221E+06     92.5651E+06    -2.44097E+06    -406.699E-03     688.835E-03    -282.136E-03     177.636E-03    -414.231E-03     696.280E-03    -281.748E-03     123.252E-03
            1261     755.494E-06     184.990E-03    -153.941E+06    -231.872E+06    -149.777E+06     3.07099E+06    -176.744E-03     350.922E-03    -174.177E-03     55.2124E-03    -177.018E-03     350.187E-03    -174.367E-03     54.8840E-03
            1262     1.51136E-03     185.033E-03    -157.162E+06    -231.706E+06    -144.979E+06     7.44512E+06    -179.930E-03     355.677E-03    -175.747E-03     100.347E-03    -180.273E-03     354.994E-03    -175.908E-03     99.7432E-03
            1263     2.26345E-03     185.108E-03    -158.883E+06    -225.746E+06    -133.106E+06     10.1985E+06    -186.494E-03     363.665E-03    -177.171E-03     147.053E-03    -186.965E-03     363.103E-03    -177.279E-03     145.973E-03
            1264     3.01246E-03     185.215E-03    -156.365E+06    -213.883E+06    -114.488E+06     12.7634E+06    -196.057E-03     375.227E-03    -179.170E-03     192.064E-03    -196.728E-03     374.879E-03    -179.206E-03     190.280E-03
            1265     3.75655E-03     185.361E-03    -148.394E+06    -193.986E+06    -91.9109E+06     15.6469E+06    -208.964E-03     390.742E-03    -181.777E-03     234.604E-03    -209.942E-03     390.750E-03    -181.741E-03     231.752E-03
            1266     4.49315E-03     185.548E-03    -136.028E+06    -174.488E+06    -68.7305E+06     16.3737E+06    -225.039E-03     410.073E-03    -185.033E-03     273.287E-03    -226.463E-03     410.589E-03    -184.927E-03     268.822E-03
            1267     5.22227E-03     185.778E-03    -121.648E+06    -148.980E+06    -47.2597E+06     15.6101E+06    -244.491E-03     433.460E-03    -188.969E-03     307.304E-03    -246.578E-03     434.734E-03    -188.813E-03     300.453E-03
            1268     5.94087E-03     186.057E-03    -106.101E+06    -119.459E+06    -26.3882E+06     13.5470E+06    -267.522E-03     461.213E-03    -193.691E-03     335.229E-03    -270.516E-03     463.508E-03    -193.496E-03     325.038E-03
            1269     6.64701E-03     186.384E-03    -89.7057E+06    -89.1050E+06    -6.15575E+06     10.3479E+06    -293.583E-03     492.887E-03    -199.305E-03     355.886E-03    -297.740E-03     496.464E-03    -199.076E-03     341.179E-03
            1270     7.33781E-03     186.762E-03    -73.8292E+06    -52.0314E+06     14.4769E+06     9.42281E+06    -321.546E-03     527.398E-03    -205.853E-03     368.633E-03    -327.076E-03     532.483E-03    -205.598E-03     348.249E-03
            1271     8.01041E-03     187.188E-03    -58.1014E+06    -9.98815E+06     36.7724E+06     7.27197E+06    -349.777E-03     563.097E-03    -213.320E-03     372.796E-03    -356.764E-03     569.780E-03    -213.038E-03     345.699E-03
            1272     8.66749E-03     187.656E-03    -43.6075E+06     35.0278E+06     60.2266E+06     4.75514E+06    -376.880E-03     598.513E-03    -221.633E-03     367.989E-03    -385.255E-03     606.727E-03    -221.319E-03     333.455E-03
            1273     9.30471E-03     188.156E-03    -33.3533E+06     73.8174E+06     74.8030E+06     2.88716E+06    -401.208E-03     631.825E-03    -230.617E-03     355.084E-03    -410.680E-03     641.265E-03    -230.302E-03     313.113E-03
            1274     9.92361E-03     188.679E-03    -26.3743E+06     86.9972E+06     78.3660E+06     428.500E+03    -420.402E-03     660.444E-03    -240.042E-03     336.383E-03    -430.570E-03     670.632E-03    -239.738E-03     287.530E-03
            1275     10.5293E-03     189.199E-03    -20.6141E+06     106.935E+06     92.8589E+06    -3.25895E+06    -432.400E-03     682.017E-03    -249.617E-03     314.507E-03    -442.997E-03     692.674E-03    -249.278E-03     259.531E-03
            1276     11.1237E-03     189.705E-03    -16.9003E+06     115.958E+06     109.878E+06    -8.54693E+06    -436.395E-03     695.334E-03    -258.939E-03     291.075E-03    -447.129E-03     706.115E-03    -258.533E-03     231.366E-03
            1277     11.7148E-03     190.170E-03    -16.7694E+06     85.8017E+06     108.883E+06    -8.36162E+06    -432.299E-03     699.894E-03    -267.595E-03     263.180E-03    -442.709E-03     710.239E-03    -267.151E-03     200.620E-03
            1278     12.3079E-03     190.575E-03    -13.9619E+06     53.0427E+06     105.696E+06    -3.96717E+06    -422.373E-03     697.724E-03    -275.351E-03     238.684E-03    -432.856E-03     708.040E-03    -274.879E-03     172.700E-03
            1279     12.9018E-03     190.927E-03    -6.70704E+06     48.6967E+06     98.4888E+06    -3.80492E+06    -410.076E-03     692.119E-03    -282.043E-03     171.872E-03    -417.233E-03     699.139E-03    -281.612E-03     117.925E-03
            1280     779.563E-06     186.294E-03    -200.914E+06    -251.116E+06    -194.453E+06     9.99358E+06    -150.557E-03     297.135E-03    -146.577E-03     54.9538E-03    -150.944E-03     296.436E-03    -146.894E-03     54.9834E-03
            1281     1.55409E-03     186.347E-03    -195.344E+06     -245.26E+06    -178.173E+06     14.0155E+06    -156.084E-03     305.410E-03    -149.326E-03     100.212E-03    -156.492E-03     304.731E-03    -149.578E-03     100.173E-03
            1282     2.32542E-03     186.436E-03    -186.355E+06    -230.831E+06    -156.152E+06     13.7401E+06    -166.416E-03     318.388E-03    -151.972E-03     147.284E-03    -166.875E-03     317.789E-03    -152.148E-03     147.000E-03
            1283     3.08912E-03     186.565E-03    -173.343E+06    -218.464E+06    -132.505E+06     10.9491E+06    -181.219E-03     336.742E-03    -155.522E-03     192.816E-03    -181.763E-03     336.262E-03    -155.617E-03     192.049E-03
            1284     3.84332E-03     186.737E-03    -157.636E+06    -197.607E+06    -108.764E+06     7.75375E+06    -199.996E-03     359.989E-03    -159.994E-03     234.998E-03    -200.724E-03     359.769E-03    -160.022E-03     233.370E-03
            1285     4.58752E-03     186.955E-03    -140.870E+06    -174.363E+06    -85.4807E+06     4.18187E+06    -222.656E-03     388.038E-03    -165.382E-03     272.132E-03    -223.722E-03     388.245E-03    -165.353E-03     269.060E-03
            1286     5.31827E-03     187.222E-03    -123.968E+06    -146.882E+06    -62.7221E+06    -447.067E+03    -249.114E-03     420.832E-03    -171.718E-03     302.802E-03    -250.715E-03     421.680E-03    -171.638E-03     297.502E-03
            1287     6.03405E-03     187.543E-03    -106.668E+06    -116.673E+06    -40.8791E+06    -5.40267E+06    -278.623E-03     457.657E-03    -179.034E-03     325.590E-03    -280.969E-03     459.367E-03    -178.915E-03     317.079E-03
            1288     6.73176E-03     187.919E-03    -90.2327E+06    -90.1007E+06    -19.7189E+06    -9.26789E+06    -310.069E-03     497.412E-03    -187.343E-03     340.045E-03    -313.369E-03     500.174E-03    -187.180E-03     327.149E-03
            1289     7.41034E-03     188.349E-03    -74.7606E+06    -59.7463E+06     2.32156E+06    -11.7291E+06    -341.584E-03     538.162E-03    -196.578E-03     345.844E-03    -345.997E-03     542.137E-03    -196.372E-03     327.391E-03
            1290     8.07083E-03     188.830E-03    -60.2232E+06    -16.0259E+06     25.8726E+06    -12.6640E+06    -371.395E-03     577.999E-03    -206.604E-03     342.775E-03    -376.977E-03     583.281E-03    -206.364E-03     317.817E-03
            1291     8.70943E-03     189.352E-03    -47.8860E+06     20.3657E+06     47.8857E+06    -12.1656E+06    -397.813E-03     615.064E-03    -217.251E-03     332.600E-03    -404.502E-03     621.558E-03    -216.972E-03     300.445E-03
            1292     9.32926E-03     189.909E-03    -37.6274E+06     55.6256E+06     65.8324E+06    -5.05084E+06    -418.494E-03     646.704E-03    -228.210E-03     317.962E-03    -426.126E-03     654.242E-03    -227.907E-03     278.665E-03
            1293     9.93566E-03     190.476E-03    -30.1435E+06     88.0912E+06     78.5495E+06     890.508E+03    -431.734E-03     670.832E-03    -239.098E-03     301.202E-03    -440.106E-03     679.206E-03    -238.789E-03     255.272E-03
            1294     10.5306E-03     191.042E-03    -26.6153E+06     120.323E+06     98.7870E+06    -60.6249E+03    -437.101E-03     686.688E-03    -249.587E-03     284.125E-03    -446.138E-03     695.787E-03    -249.229E-03     231.919E-03
            1295     11.1222E-03     191.573E-03    -24.0592E+06     125.361E+06     116.585E+06     1.67054E+06    -435.459E-03     694.797E-03    -259.338E-03     266.231E-03    -444.947E-03     704.317E-03    -258.902E-03     208.932E-03
            1296     11.7121E-03     192.060E-03    -18.5685E+06     95.8906E+06     125.790E+06     556.498E+03    -428.557E-03     696.678E-03    -268.121E-03     243.001E-03    -437.868E-03     705.905E-03    -267.604E-03     183.325E-03
            1297     12.3022E-03     192.464E-03    -10.9318E+06     57.5477E+06     123.787E+06    -7.43755E+06    -418.076E-03     693.875E-03    -275.800E-03     222.225E-03    -427.498E-03     703.105E-03    -275.248E-03     159.254E-03
            1298     12.9004E-03     192.820E-03    -286.739E+03     38.3825E+06     111.193E+06    -6.64746E+06    -410.235E-03     692.666E-03    -282.431E-03     158.892E-03    -416.564E-03     698.810E-03    -281.930E-03     108.815E-03
            1299     792.745E-06     187.537E-03    -302.165E+06    -260.322E+06    -296.452E+06    -2.42982E+06    -133.844E-03     262.761E-03    -128.917E-03     49.5491E-03    -134.553E-03     262.323E-03    -129.584E-03     49.5086E-03
            1300     1.58330E-03     187.603E-03    -280.495E+06    -247.495E+06    -267.030E+06    -8.62079E+06    -140.265E-03     272.678E-03    -132.414E-03     90.3124E-03    -140.933E-03     272.236E-03    -132.983E-03     90.1440E-03
            1301     2.36650E-03     187.710E-03    -253.131E+06    -227.228E+06    -227.494E+06    -14.8188E+06    -153.238E-03     289.093E-03    -135.854E-03     133.441E-03    -153.876E-03     288.681E-03    -136.295E-03     133.067E-03
            1302     3.14070E-03     187.865E-03    -224.483E+06    -214.399E+06    -188.895E+06    -21.7950E+06    -171.186E-03     311.746E-03    -140.560E-03     175.093E-03    -171.817E-03     311.369E-03    -140.868E-03     174.319E-03
            1303     3.90283E-03     188.070E-03    -196.591E+06    -196.163E+06    -154.981E+06    -27.1932E+06    -194.062E-03     340.539E-03    -146.477E-03     213.229E-03    -194.762E-03     340.307E-03    -146.683E-03     211.778E-03
            1304     4.64929E-03     188.327E-03    -170.204E+06    -172.331E+06    -124.402E+06    -32.6201E+06    -221.996E-03     375.648E-03    -153.652E-03     245.856E-03    -222.886E-03     375.706E-03    -153.778E-03     243.246E-03
            1305     5.37757E-03     188.642E-03    -143.602E+06    -146.592E+06    -94.6855E+06    -37.9399E+06    -253.885E-03     416.014E-03    -162.129E-03     270.356E-03    -255.105E-03     416.511E-03    -162.181E-03     265.886E-03
            1306     6.08511E-03     189.013E-03    -120.140E+06    -123.914E+06    -65.4929E+06    -39.2255E+06    -287.814E-03     459.665E-03    -171.852E-03     285.473E-03    -289.524E-03     460.738E-03    -171.825E-03     278.283E-03
            1307     6.77156E-03     189.445E-03    -101.157E+06    -99.3952E+06    -37.5589E+06    -37.7654E+06    -321.941E-03     504.610E-03    -182.668E-03     290.982E-03    -324.284E-03     506.389E-03    -182.565E-03     280.108E-03
            1308     7.43588E-03     189.932E-03    -84.2550E+06    -69.7070E+06    -10.0555E+06    -38.3356E+06    -354.121E-03     548.505E-03    -194.384E-03     286.875E-03    -357.170E-03     551.076E-03    -194.211E-03     271.308E-03
            1309     8.07645E-03     190.469E-03    -68.8643E+06    -37.3995E+06     14.7092E+06    -37.2898E+06    -381.894E-03     588.601E-03    -206.707E-03     276.072E-03    -385.664E-03     591.986E-03    -206.479E-03     254.995E-03
            1310     8.69818E-03     191.049E-03    -56.7114E+06    -7.52667E+06     35.8914E+06    -29.7775E+06    -403.206E-03     622.451E-03    -219.245E-03     262.391E-03    -407.676E-03     626.615E-03    -218.972E-03     235.404E-03
            1311     9.30571E-03     191.652E-03    -46.8349E+06     9.90477E+06     51.7412E+06    -19.4317E+06    -416.759E-03     648.306E-03    -231.548E-03     248.008E-03    -421.873E-03     653.161E-03    -231.235E-03     214.953E-03
            1312     9.90168E-03     192.264E-03    -38.6059E+06     58.2758E+06     71.5596E+06    -7.55552E+06    -421.862E-03     665.002E-03    -243.140E-03     234.920E-03    -427.653E-03     670.671E-03    -242.811E-03     195.989E-03
            1313     10.4954E-03     192.856E-03    -29.8249E+06     119.202E+06     103.978E+06     898.362E+03    -420.018E-03     673.727E-03    -253.709E-03     224.638E-03    -426.566E-03     680.305E-03    -253.319E-03     180.035E-03
            1314     11.0880E-03     193.417E-03    -16.8528E+06     140.996E+06     132.928E+06     4.28969E+06    -414.098E-03     677.156E-03    -263.057E-03     215.159E-03    -421.388E-03     684.514E-03    -262.573E-03     164.796E-03
            1315     11.6847E-03     193.914E-03    -3.96764E+06     117.615E+06     128.979E+06     10.1240E+06    -405.492E-03     676.532E-03    -271.040E-03     201.319E-03    -413.181E-03     684.261E-03    -270.560E-03     146.315E-03
            1316     12.2869E-03     194.342E-03     672.118E+03     79.4763E+06     134.051E+06     5.04340E+06    -399.735E-03     677.748E-03    -278.013E-03     185.729E-03    -407.571E-03     685.489E-03    -277.459E-03     127.800E-03
            1317     12.8893E-03     194.685E-03    -8.90050E+06     34.1106E+06     135.895E+06     1.30572E+06    -390.264E-03     674.277E-03    -284.013E-03     135.777E-03    -395.675E-03     679.389E-03    -283.370E-03     89.5795E-03
            1318     795.221E-06     188.754E-03    -326.693E+06    -227.606E+06    -324.057E+06    -20.3499E+06    -132.224E-03     261.759E-03    -129.534E-03     34.1400E-03    -133.070E-03     261.559E-03    -130.351E-03     33.7742E-03
            1319     1.58698E-03     188.829E-03    -311.461E+06    -214.688E+06    -297.445E+06    -37.6427E+06    -139.394E-03     271.764E-03    -132.370E-03     63.0275E-03    -140.232E-03     271.576E-03    -133.095E-03     62.3204E-03
            1320     2.37171E-03     188.956E-03    -286.939E+06    -201.027E+06    -260.473E+06    -52.2321E+06    -151.647E-03     287.933E-03    -136.286E-03     92.6560E-03    -152.460E-03     287.752E-03    -136.881E-03     91.5553E-03
            1321     3.14529E-03     189.136E-03    -257.668E+06    -191.727E+06    -223.939E+06    -64.2305E+06    -168.824E-03     310.461E-03    -141.637E-03     121.282E-03    -169.609E-03     310.287E-03    -142.105E-03     119.670E-03
            1322     3.90525E-03     189.374E-03    -226.202E+06    -181.893E+06    -192.438E+06    -75.2647E+06    -191.377E-03     339.876E-03    -148.499E-03     146.421E-03    -192.152E-03     339.750E-03    -148.870E-03     144.105E-03
            1323     4.64727E-03     189.673E-03    -194.092E+06    -164.489E+06    -161.399E+06    -83.5497E+06    -218.588E-03     375.563E-03    -156.975E-03     165.797E-03    -219.403E-03     375.568E-03    -157.263E-03     162.503E-03
            1324     5.36734E-03     190.037E-03    -167.386E+06    -149.712E+06    -134.515E+06    -87.4967E+06    -248.931E-03     415.965E-03    -167.034E-03     177.229E-03    -249.861E-03     416.160E-03    -167.246E-03     172.534E-03
            1325     6.06313E-03     190.465E-03    -145.987E+06    -143.685E+06    -111.823E+06    -86.8528E+06    -280.592E-03     459.139E-03    -178.547E-03     179.294E-03    -281.696E-03     459.543E-03    -178.686E-03     172.665E-03
            1326     6.73286E-03     190.952E-03    -127.743E+06    -127.289E+06    -87.0127E+06    -85.0644E+06    -310.982E-03     502.261E-03    -191.279E-03     172.288E-03    -312.312E-03     502.943E-03    -191.344E-03     163.138E-03
            1327     7.37671E-03     191.497E-03    -113.071E+06    -97.2216E+06    -61.0203E+06    -84.5460E+06    -336.993E-03     541.813E-03    -204.820E-03     158.952E-03    -338.589E-03     542.846E-03    -204.820E-03     146.620E-03
            1328     7.99915E-03     192.088E-03    -100.964E+06    -79.6184E+06    -40.8153E+06    -84.4634E+06    -356.448E-03     575.064E-03    -218.616E-03     143.723E-03    -358.297E-03     576.396E-03    -218.558E-03     127.684E-03
            1329     8.60527E-03     192.710E-03    -90.9367E+06    -76.6086E+06    -28.4749E+06    -76.9167E+06    -368.471E-03     600.509E-03    -232.038E-03     130.757E-03    -370.539E-03     602.077E-03    -231.937E-03     110.965E-03
            1330     9.19934E-03     193.353E-03    -83.3670E+06    -66.5968E+06     540.785E+03    -64.8294E+06    -373.194E-03     617.763E-03    -244.569E-03     123.247E-03    -375.562E-03     619.621E-03    -244.349E-03     99.8418E-03
            1331     9.79211E-03     193.989E-03    -73.1424E+06    -30.2358E+06     34.7799E+06    -58.0352E+06    -372.180E-03     627.816E-03    -255.637E-03     121.675E-03    -374.989E-03     630.193E-03    -255.313E-03     94.2227E-03
            1332     10.3874E-03     194.605E-03    -56.4643E+06     42.0847E+06     74.4540E+06    -46.9473E+06    -367.422E-03     632.398E-03    -264.976E-03     123.851E-03    -370.807E-03     635.557E-03    -264.583E-03     92.1930E-03
            1333     10.9919E-03     195.180E-03    -42.8984E+06     89.2805E+06     122.828E+06    -30.9244E+06    -360.124E-03     632.777E-03    -272.652E-03     129.094E-03    -364.251E-03     636.758E-03    -272.106E-03     93.1119E-03
            1334     11.6019E-03     195.705E-03    -30.6812E+06     87.8564E+06     128.288E+06    -21.6194E+06    -353.562E-03     632.143E-03    -278.581E-03     136.346E-03    -358.684E-03     637.142E-03    -278.022E-03     93.8389E-03
            1335     12.2195E-03     196.134E-03    -15.7040E+06     59.8001E+06     131.301E+06    -3.04127E+06    -347.324E-03     630.449E-03    -283.125E-03     154.209E-03    -353.424E-03     636.365E-03    -282.532E-03     107.709E-03
            1336     12.8281E-03     196.553E-03    -4.94600E+06     28.9498E+06     156.742E+06     13.5533E+06    -331.586E-03     617.981E-03    -286.395E-03     138.131E-03    -336.731E-03     622.774E-03    -285.646E-03     97.9012E-03
            1337     778.073E-06     189.994E-03    -242.913E+06    -165.872E+06    -235.704E+06    -23.2752E+06    -159.637E-03     316.324E-03    -156.687E-03     1.59061E-03    -160.364E-03     316.084E-03    -157.273E-03     780.619E-06
            1338     1.55031E-03     190.080E-03    -231.155E+06    -151.953E+06    -216.089E+06    -42.8211E+06    -162.430E-03     323.076E-03    -160.647E-03     440.763E-06    -163.143E-03     322.846E-03    -161.172E-03    -1.06325E-03
            1339     2.31535E-03     190.218E-03    -215.393E+06    -148.395E+06    -192.856E+06    -61.2264E+06    -169.285E-03     334.080E-03    -164.795E-03     1.26658E-03    -169.947E-03     333.798E-03    -165.232E-03    -1.06787E-03
            1340     3.07074E-03     190.417E-03    -196.988E+06    -145.497E+06    -174.102E+06    -75.4802E+06    -179.456E-03     350.092E-03    -170.636E-03     757.406E-06    -180.042E-03     349.749E-03    -171.010E-03    -2.48038E-03
            1341     3.80951E-03     190.680E-03    -178.853E+06    -137.068E+06    -155.229E+06    -89.9631E+06    -192.342E-03     370.684E-03    -178.342E-03    -2.57345E-03    -192.851E-03     370.305E-03    -178.660E-03    -6.85773E-03
            1342     4.52763E-03     191.011E-03    -164.430E+06    -132.897E+06    -138.886E+06    -99.4301E+06    -206.837E-03     394.730E-03    -187.893E-03    -9.78349E-03    -207.264E-03     394.288E-03    -188.156E-03    -15.2100E-03
            1343     5.22310E-03     191.409E-03    -153.487E+06    -131.691E+06    -125.554E+06    -102.506E+06    -221.549E-03     420.693E-03    -199.144E-03    -22.0211E-03    -221.877E-03     420.157E-03    -199.358E-03    -28.7241E-03
            1344     5.89313E-03     191.876E-03    -143.545E+06    -130.415E+06    -114.216E+06    -105.951E+06    -235.124E-03     446.969E-03    -211.845E-03    -38.3459E-03    -235.319E-03     446.320E-03    -212.019E-03    -46.5509E-03
            1345     6.53638E-03     192.406E-03    -134.063E+06    -125.895E+06    -101.801E+06    -107.885E+06    -245.776E-03     471.340E-03    -225.563E-03    -55.9693E-03    -245.826E-03     470.590E-03    -225.695E-03    -65.7623E-03
            1346     7.15605E-03     192.990E-03    -125.584E+06    -106.042E+06    -84.4335E+06    -108.226E+06    -251.870E-03     491.490E-03    -239.620E-03    -71.2472E-03    -251.827E-03     490.739E-03    -239.706E-03    -82.6439E-03
            1347     7.75889E-03     193.612E-03    -118.707E+06    -83.6471E+06    -62.2724E+06    -107.236E+06    -253.562E-03     506.811E-03    -253.248E-03    -80.8120E-03    -253.487E-03     506.123E-03    -253.266E-03    -93.7765E-03
            1348     8.35059E-03     194.263E-03    -110.779E+06    -97.5283E+06    -51.0209E+06    -105.292E+06    -251.138E-03     516.763E-03    -265.625E-03    -81.2844E-03    -251.030E-03     516.048E-03    -265.578E-03    -95.6934E-03
            1349     8.94560E-03     194.921E-03    -100.590E+06    -105.743E+06    -24.5368E+06    -93.9844E+06    -245.433E-03     521.507E-03    -276.075E-03    -70.3413E-03    -245.432E-03     520.890E-03    -275.898E-03    -85.5496E-03
            1350     9.54878E-03     195.582E-03    -86.3757E+06    -79.1027E+06     16.4526E+06    -87.2061E+06    -240.484E-03     524.583E-03    -284.098E-03    -48.3788E-03    -240.798E-03     524.379E-03    -283.776E-03    -64.3351E-03
            1351     10.1648E-03     196.217E-03    -74.5779E+06    -46.7546E+06     47.3639E+06    -81.7272E+06    -238.563E-03     528.055E-03    -289.492E-03    -17.2716E-03    -239.311E-03     528.423E-03    -289.079E-03    -34.3790E-03
            1352     10.7927E-03     196.817E-03    -64.0927E+06    -8.52547E+06     92.5408E+06    -63.2083E+06    -239.378E-03     531.803E-03    -292.425E-03     22.3482E-03    -240.702E-03     532.809E-03    -291.857E-03     4.06092E-03
            1353     11.4468E-03     197.351E-03    -45.1815E+06     28.8544E+06     138.618E+06    -45.5663E+06    -241.241E-03     534.259E-03    -293.018E-03     76.9573E-03    -243.389E-03     536.144E-03    -292.302E-03     56.3965E-03
            1354     12.1102E-03     197.845E-03    -37.1740E+06     20.0725E+06     148.138E+06    -20.7082E+06    -238.901E-03     530.420E-03    -291.519E-03     140.339E-03    -242.440E-03     533.583E-03    -290.753E-03     116.642E-03
            1355     12.8420E-03     198.182E-03    -10.7732E+06     14.2996E+06     161.346E+06    -6.89691E+06    -250.053E-03     539.311E-03    -289.258E-03     154.559E-03    -254.537E-03     543.358E-03    -288.456E-03     127.086E-03
            1356     724.088E-06     191.353E-03    -142.434E+06    -93.7670E+06    -142.890E+06    -21.6140E+06    -234.426E-03     474.810E-03    -240.384E-03    -74.6034E-03    -235.326E-03     473.994E-03    -240.756E-03    -76.5432E-03
            1357     1.44678E-03     191.439E-03    -138.137E+06    -80.7706E+06    -134.504E+06    -37.0981E+06    -230.136E-03     472.834E-03    -242.699E-03    -134.836E-03    -230.911E-03     471.757E-03    -243.054E-03    -138.388E-03
            1358     2.16281E-03     191.581E-03    -130.963E+06    -86.0131E+06    -118.144E+06    -50.2886E+06    -221.735E-03     469.111E-03    -247.376E-03    -197.930E-03    -222.180E-03     467.646E-03    -247.652E-03    -202.781E-03
            1359     2.86386E-03     191.786E-03    -124.404E+06    -86.0024E+06    -102.880E+06    -61.8280E+06    -209.532E-03     463.422E-03    -253.890E-03    -256.875E-03    -209.542E-03     461.539E-03    -254.099E-03    -262.911E-03
            1360     3.54835E-03     192.055E-03    -117.962E+06    -80.8965E+06    -86.8164E+06    -70.4847E+06    -193.427E-03     455.568E-03    -262.141E-03    -308.611E-03    -192.955E-03     453.250E-03    -262.287E-03    -315.654E-03
            1361     4.21333E-03     192.390E-03    -112.797E+06    -80.9923E+06    -73.9554E+06    -74.8338E+06    -173.854E-03     445.789E-03    -271.935E-03    -350.849E-03    -172.871E-03     443.035E-03    -272.024E-03    -358.655E-03
            1362     4.85432E-03     192.792E-03    -106.092E+06    -84.1479E+06    -62.5593E+06    -76.0802E+06    -151.799E-03     434.765E-03    -282.965E-03    -381.131E-03    -150.323E-03     431.657E-03    -283.002E-03    -389.504E-03
            1363     5.47163E-03     193.256E-03    -98.2387E+06    -79.2554E+06    -48.5752E+06    -76.9255E+06    -128.482E-03     423.236E-03    -294.753E-03    -396.978E-03    -126.626E-03     419.949E-03    -294.739E-03    -405.770E-03
            1364     6.06863E-03     193.780E-03    -90.0935E+06    -76.3958E+06    -34.5768E+06    -75.8098E+06    -105.158E-03     411.752E-03    -306.594E-03    -397.188E-03    -103.063E-03     408.446E-03    -306.526E-03    -406.217E-03
            1365     6.65342E-03     194.351E-03    -82.2174E+06    -68.6984E+06    -18.5526E+06    -70.9238E+06    -83.8291E-03     401.518E-03    -317.689E-03    -382.916E-03    -81.6830E-03     398.402E-03    -317.563E-03    -391.945E-03
            1366     7.23180E-03     194.964E-03    -74.3522E+06    -51.3593E+06     5.69989E+06    -64.4529E+06    -65.7149E-03     392.961E-03    -327.246E-03    -355.665E-03    -63.7260E-03     390.244E-03    -327.036E-03    -364.538E-03
            1367     7.81732E-03     195.602E-03    -64.6058E+06    -37.9992E+06     35.7904E+06    -59.5296E+06    -51.3442E-03     385.809E-03    -334.465E-03    -318.120E-03    -49.6700E-03     383.607E-03    -334.137E-03    -326.771E-03
            1368     8.41713E-03     196.253E-03    -52.1944E+06    -45.0318E+06     58.6565E+06    -56.0026E+06    -40.5939E-03     379.204E-03    -338.611E-03    -272.394E-03    -39.2804E-03     377.481E-03    -338.176E-03    -280.616E-03
            1369     9.04584E-03     196.900E-03    -43.3395E+06    -40.4710E+06     81.4882E+06    -48.1404E+06    -34.5257E-03     373.788E-03    -339.262E-03    -215.511E-03    -33.7209E-03     372.678E-03    -338.733E-03    -222.753E-03
            1370     9.70797E-03     197.555E-03    -35.4417E+06    -33.8235E+06     105.624E+06    -42.2476E+06    -33.3701E-03     369.747E-03    -336.377E-03    -150.243E-03    -33.0811E-03     369.218E-03    -335.748E-03    -156.466E-03
            1371     10.4232E-03     198.179E-03    -27.6402E+06    -25.3189E+06     130.399E+06    -36.3709E+06    -36.8929E-03     367.052E-03    -330.159E-03    -81.9419E-03    -37.0159E-03     366.978E-03    -329.430E-03    -87.6131E-03
            1372     11.1697E-03     198.773E-03    -25.4855E+06    -555.340E+03     159.452E+06    -33.2383E+06    -39.9204E-03     360.954E-03    -321.034E-03    -18.5198E-03    -40.4695E-03     361.266E-03    -320.199E-03    -23.4292E-03
            1373     11.9929E-03     199.261E-03    -14.0573E+06    -11.9948E+06     169.053E+06    -11.0339E+06    -56.9335E-03     367.534E-03    -310.600E-03     13.4906E-03    -57.8808E-03     368.079E-03    -309.717E-03     8.29523E-03
            1374     12.7706E-03     199.699E-03    -2.71938E+06     244.909E+03     142.238E+06    -6.82183E+06    -68.3737E-03     367.927E-03    -299.553E-03     47.5682E-03    -70.1158E-03     369.610E-03    -298.839E-03     37.2851E-03
            1375     12.7213E-03     99.5627E-03    -4.68780E+06     56.0327E+06     80.3871E+06     205.721E+03    -293.767E-03     589.798E-03    -296.030E-03     133.122E-03    -300.963E-03     596.942E-03    -295.703E-03     91.4206E-03
            1376     12.0533E-03     99.3076E-03    -8.69795E+06     54.2040E+06     76.3811E+06     473.778E+03    -293.687E-03     589.724E-03    -296.037E-03     195.750E-03    -305.184E-03     601.161E-03    -295.721E-03     142.285E-03
            1377     11.3810E-03     99.0326E-03    -13.2696E+06     42.3470E+06     70.9626E+06     839.304E+03    -294.539E-03     590.621E-03    -296.082E-03     215.960E-03    -307.624E-03     603.603E-03    -295.769E-03     159.692E-03
            1378     10.7126E-03     98.7143E-03    -18.4801E+06     30.7086E+06     71.2591E+06     515.690E+03    -296.531E-03     592.676E-03    -296.145E-03     239.877E-03    -311.782E-03     607.764E-03    -295.807E-03     179.302E-03
            1379     10.0427E-03     98.3574E-03    -23.9369E+06     27.4181E+06     71.2340E+06     71.6646E+03    -298.336E-03     594.491E-03    -296.155E-03     254.673E-03    -314.751E-03     610.712E-03    -295.804E-03     192.052E-03
            1380     9.37470E-03     97.9835E-03    -30.0021E+06     22.1406E+06     65.7818E+06     1.06387E+06    -299.115E-03     595.260E-03    -296.145E-03     264.411E-03    -315.993E-03     611.919E-03    -295.805E-03     201.282E-03
            1381     8.70341E-03     97.5993E-03    -37.2120E+06     10.8110E+06     56.1062E+06     1.36439E+06    -299.830E-03     595.991E-03    -296.161E-03     267.157E-03    -316.357E-03     612.262E-03    -295.842E-03     204.847E-03
            1382     8.03404E-03     97.2143E-03    -46.8818E+06     1.24144E+06     43.9548E+06     615.586E+03    -300.778E-03     596.948E-03    -296.170E-03     262.284E-03    -316.187E-03     612.067E-03    -295.884E-03     202.108E-03
            1383     7.36353E-03     96.8403E-03    -55.2414E+06    -5.64940E+06     33.9026E+06     155.630E+03    -301.109E-03     597.270E-03    -296.162E-03     250.712E-03    -314.820E-03     610.667E-03    -295.904E-03     194.010E-03
            1384     6.69431E-03     96.4842E-03    -62.5621E+06    -13.4738E+06     27.2117E+06     123.257E+03    -300.652E-03     596.818E-03    -296.166E-03     233.953E-03    -312.361E-03     608.178E-03    -295.920E-03     181.718E-03
            1385     6.02562E-03     96.1581E-03    -71.9241E+06    -24.4911E+06     16.2138E+06     1.05463E+06    -299.869E-03     596.049E-03    -296.180E-03     214.215E-03    -309.508E-03     605.299E-03    -295.959E-03     167.131E-03
            1386     5.35484E-03     95.8610E-03    -81.9726E+06    -49.8494E+06    -2.40654E+06     1.91887E+06    -299.323E-03     595.521E-03    -296.198E-03     192.590E-03    -306.971E-03     602.709E-03    -296.019E-03     150.971E-03
            1387     4.68525E-03     95.5964E-03    -91.7517E+06    -89.7804E+06    -23.7787E+06     1.71751E+06    -298.923E-03     595.135E-03    -296.213E-03     169.516E-03    -304.762E-03     600.399E-03    -296.068E-03     133.381E-03
            1388     4.01573E-03     95.3650E-03    -101.189E+06    -127.255E+06    -45.6108E+06     1.26038E+06    -298.364E-03     594.562E-03    -296.198E-03     145.719E-03    -302.642E-03     598.162E-03    -296.095E-03     115.061E-03
            1389     3.34657E-03     95.1677E-03    -110.229E+06    -165.292E+06    -66.9742E+06     1.09971E+06    -297.790E-03     593.958E-03    -296.168E-03     121.501E-03    -300.762E-03     596.146E-03    -296.104E-03     96.2445E-03
            1390     2.67738E-03     95.0059E-03    -118.123E+06    -194.438E+06    -87.4861E+06     783.674E+03    -297.262E-03     593.371E-03    -296.109E-03     97.3915E-03    -299.199E-03     594.452E-03    -296.093E-03     77.3456E-03
            1391     2.00777E-03     94.8781E-03    -124.873E+06    -214.306E+06    -106.711E+06     587.553E+03    -296.728E-03     592.757E-03    -296.029E-03     73.3273E-03    -297.881E-03     593.015E-03    -296.071E-03     58.3815E-03
            1392     1.33903E-03     94.7869E-03    -129.267E+06    -234.144E+06    -121.092E+06     295.516E+03    -296.251E-03     592.243E-03    -295.991E-03     49.5295E-03    -296.843E-03     591.896E-03    -296.070E-03     39.5216E-03
            1393     669.975E-06     94.7300E-03    -133.647E+06    -248.347E+06    -130.761E+06    -124.186E+03    -296.137E-03     592.063E-03    -295.926E-03     27.1419E-03    -296.405E-03     591.355E-03    -296.026E-03     21.6335E-03
            1394     12.7243E-03     97.8506E-03    -4.04487E+06     56.3921E+06     79.6745E+06     46.2512E+03    -293.569E-03     589.566E-03    -295.997E-03     131.705E-03    -300.733E-03     596.685E-03    -295.674E-03     90.1248E-03
            1395     12.0524E-03     97.5951E-03    -8.25365E+06     53.1453E+06     75.9732E+06    -223.919E+03    -293.375E-03     589.390E-03    -296.014E-03     194.739E-03    -304.851E-03     600.804E-03    -295.700E-03     141.268E-03
            1396     11.3834E-03     97.3240E-03    -12.9413E+06     41.1821E+06     70.6587E+06     290.488E+03    -295.132E-03     591.175E-03    -296.043E-03     214.796E-03    -308.162E-03     604.100E-03    -295.731E-03     158.493E-03
            1397     10.7129E-03     96.9962E-03    -18.0885E+06     31.7986E+06     71.3115E+06     331.659E+03    -296.762E-03     592.837E-03    -296.075E-03     239.979E-03    -311.989E-03     607.906E-03    -295.738E-03     179.475E-03
            1398     10.0454E-03     96.6456E-03    -24.2925E+06     25.5789E+06     70.3998E+06     566.097E+03    -297.670E-03     593.779E-03    -296.109E-03     256.055E-03    -314.098E-03     610.007E-03    -295.759E-03     193.694E-03
            1399     9.37298E-03     96.2723E-03    -31.5686E+06     19.5792E+06     63.3738E+06     1.28191E+06    -298.725E-03     594.871E-03    -296.145E-03     265.602E-03    -315.640E-03     611.559E-03    -295.811E-03     202.567E-03
            1400     8.70346E-03     95.8868E-03    -39.8719E+06     12.4088E+06     53.0269E+06     1.97867E+06    -300.099E-03     596.265E-03    -296.166E-03     267.216E-03    -316.625E-03     612.540E-03    -295.861E-03     204.893E-03
            1401     8.03310E-03     95.5007E-03    -46.5362E+06     4.71202E+06     43.8298E+06     1.63559E+06    -300.958E-03     597.121E-03    -296.163E-03     261.728E-03    -316.336E-03     612.224E-03    -295.884E-03     201.576E-03
            1402     7.36491E-03     95.1260E-03    -53.6284E+06    -3.76278E+06     35.0687E+06     533.416E+03    -300.966E-03     597.121E-03    -296.155E-03     250.459E-03    -314.679E-03     610.528E-03    -295.896E-03     193.727E-03
            1403     6.69529E-03     94.7723E-03    -63.5119E+06    -13.9753E+06     25.8971E+06     688.585E+03    -300.371E-03     596.544E-03    -296.173E-03     234.047E-03    -312.082E-03     607.905E-03    -295.931E-03     181.874E-03
            1404     6.02394E-03     94.4453E-03    -73.7553E+06    -26.0398E+06     13.6075E+06     444.884E+03    -299.895E-03     596.092E-03    -296.197E-03     214.058E-03    -309.529E-03     605.333E-03    -295.985E-03     166.977E-03
            1405     5.35494E-03     94.1480E-03    -83.3151E+06    -51.1453E+06    -4.19494E+06     127.255E+03    -299.601E-03     595.795E-03    -296.194E-03     191.913E-03    -307.242E-03     602.971E-03    -296.020E-03     150.205E-03
            1406     4.68557E-03     93.8827E-03    -92.3796E+06    -89.8802E+06    -24.1845E+06     518.492E+03    -299.074E-03     595.241E-03    -296.168E-03     168.574E-03    -304.895E-03     600.486E-03    -296.024E-03     132.419E-03
            1407     4.01657E-03     93.6515E-03    -101.170E+06    -126.447E+06    -45.3948E+06     544.041E+03    -298.374E-03     594.494E-03    -296.120E-03     145.233E-03    -302.648E-03     598.092E-03    -296.017E-03     114.550E-03
            1408     3.34719E-03     93.4546E-03    -109.562E+06    -164.425E+06    -66.3352E+06     497.812E+03    -297.774E-03     593.845E-03    -296.071E-03     121.740E-03    -300.755E-03     596.046E-03    -296.006E-03     96.4167E-03
            1409     2.67796E-03     93.2926E-03    -117.433E+06    -193.910E+06    -86.8185E+06     415.404E+03    -297.208E-03     593.210E-03    -296.002E-03     97.9806E-03    -299.155E-03     594.303E-03    -295.984E-03     77.8857E-03
            1410     2.00905E-03     93.1661E-03    -123.835E+06    -213.071E+06    -105.611E+06     263.467E+03    -296.610E-03     592.537E-03    -295.927E-03     74.0942E-03    -297.770E-03     592.807E-03    -295.967E-03     59.1060E-03
            1411     1.33891E-03     93.0748E-03    -129.225E+06    -233.628E+06    -120.567E+06     282.544E+03    -296.130E-03     592.041E-03    -295.912E-03     50.1051E-03    -296.728E-03     591.701E-03    -295.988E-03     40.0729E-03
            1412     668.601E-06     93.0189E-03    -132.441E+06    -247.258E+06    -130.016E+06     598.929E+03    -295.691E-03     591.940E-03    -296.248E-03     27.4818E-03    -295.956E-03     591.235E-03    -296.348E-03     22.0379E-03
            1413     12.7230E-03     96.1408E-03    -4.08513E+06     56.4790E+06     80.1521E+06    -371.082E+03    -293.677E-03     589.699E-03    -296.022E-03     132.977E-03    -300.922E-03     596.898E-03    -295.698E-03     91.1279E-03
            1414     12.0535E-03     95.8833E-03    -9.03332E+06     52.5324E+06     75.5422E+06    -63.4932E+03    -294.259E-03     590.275E-03    -296.016E-03     196.377E-03    -305.813E-03     601.764E-03    -295.701E-03     142.701E-03
            1415     11.3838E-03     95.6084E-03    -14.4317E+06     39.7529E+06     69.2732E+06     251.122E+03    -295.319E-03     591.342E-03    -296.024E-03     216.956E-03    -308.413E-03     604.325E-03    -295.714E-03     160.651E-03
            1416     10.7151E-03     95.2861E-03    -20.4083E+06     32.6499E+06     70.0180E+06     736.308E+03    -296.199E-03     592.283E-03    -296.084E-03     242.140E-03    -311.509E-03     607.433E-03    -295.752E-03     181.757E-03
            1417     10.0413E-03     94.9332E-03    -26.7454E+06     26.0323E+06     69.2812E+06     488.107E+03    -297.543E-03     593.699E-03    -296.156E-03     256.684E-03    -314.008E-03     609.960E-03    -295.808E-03     194.347E-03
            1418     9.37307E-03     94.5591E-03    -32.8234E+06     16.9458E+06     63.5046E+06     289.833E+03    -299.279E-03     595.468E-03    -296.189E-03     265.243E-03    -316.181E-03     612.130E-03    -295.849E-03     202.115E-03
            1419     8.70341E-03     94.1729E-03    -38.2654E+06     11.6047E+06     55.9879E+06     534.947E+03    -300.489E-03     596.671E-03    -296.182E-03     267.192E-03    -317.015E-03     612.940E-03    -295.863E-03     204.791E-03
            1420     8.03498E-03     93.7878E-03    -44.4007E+06     4.83759E+06     48.1114E+06     1.01543E+06    -300.956E-03     597.127E-03    -296.171E-03     262.207E-03    -316.352E-03     612.243E-03    -295.873E-03     202.040E-03
            1421     7.36393E-03     93.4127E-03    -52.8798E+06    -4.19534E+06     37.8766E+06     2.22317E+06    -300.837E-03     597.005E-03    -296.169E-03     250.511E-03    -314.537E-03     610.394E-03    -295.896E-03     193.882E-03
            1422     6.69353E-03     93.0596E-03    -61.4293E+06    -12.7075E+06     27.6127E+06     2.51443E+06    -300.582E-03     596.751E-03    -296.169E-03     233.429E-03    -312.275E-03     608.100E-03    -295.923E-03     181.234E-03
            1423     6.02531E-03     92.7320E-03    -69.7865E+06    -22.9383E+06     16.5530E+06     2.10078E+06    -300.274E-03     596.423E-03    -296.149E-03     213.249E-03    -309.887E-03     605.659E-03    -295.932E-03     166.114E-03
            1424     5.35570E-03     92.4342E-03    -79.8412E+06    -49.3427E+06    -1.39384E+06     1.39499E+06    -299.609E-03     595.716E-03    -296.107E-03     191.443E-03    -307.231E-03     602.883E-03    -295.927E-03     149.737E-03
            1425     4.68657E-03     92.1694E-03    -90.1479E+06    -88.8100E+06    -22.6267E+06     1.01725E+06    -298.789E-03     594.873E-03    -296.085E-03     168.852E-03    -304.608E-03     600.123E-03    -295.938E-03     132.744E-03
            1426     4.01671E-03     91.9391E-03    -99.9423E+06    -125.896E+06    -44.9784E+06     654.249E+03    -298.122E-03     594.195E-03    -296.073E-03     145.873E-03    -302.399E-03     597.801E-03    -295.970E-03     115.224E-03
            1427     3.34705E-03     91.7418E-03    -108.934E+06    -164.560E+06    -66.4740E+06     119.950E+03    -297.504E-03     593.584E-03    -296.080E-03     122.420E-03    -300.495E-03     595.797E-03    -296.016E-03     97.0838E-03
            1428     2.67744E-03     91.5800E-03    -116.796E+06    -193.543E+06    -86.6334E+06     119.868E+03    -296.937E-03     593.033E-03    -296.096E-03     98.6052E-03    -298.889E-03     594.134E-03    -296.079E-03     78.5107E-03
            1429     2.00737E-03     91.4535E-03    -123.864E+06    -213.022E+06    -105.640E+06     301.084E+03    -296.598E-03     592.706E-03    -296.108E-03     74.6554E-03    -297.768E-03     592.986E-03    -296.148E-03     59.6120E-03
            1430     1.33857E-03     91.3625E-03    -128.814E+06    -233.281E+06    -120.962E+06     358.997E+03    -296.506E-03     592.582E-03    -296.076E-03     50.3595E-03    -297.105E-03     592.246E-03    -296.155E-03     40.3194E-03
            1431     670.189E-06     91.3063E-03    -131.273E+06    -246.009E+06    -129.746E+06    -43.5292E+03    -296.409E-03     592.174E-03    -295.765E-03     26.9586E-03    -296.668E-03     591.471E-03    -295.867E-03     21.5603E-03
            1432     12.7202E-03     94.4204E-03    -4.82898E+06     55.6506E+06     79.1453E+06     314.160E+03    -293.184E-03     589.258E-03    -296.075E-03     132.939E-03    -300.422E-03     596.448E-03    -295.753E-03     91.0368E-03
            1433     12.0524E-03     94.1702E-03    -10.3699E+06     51.4003E+06     73.7866E+06     418.393E+03    -294.262E-03     590.342E-03    -296.080E-03     196.413E-03    -305.820E-03     601.833E-03    -295.771E-03     142.683E-03
            1434     11.3822E-03     93.8952E-03    -15.3544E+06     39.3035E+06     68.1669E+06     1.10879E+06    -295.084E-03     591.185E-03    -296.101E-03     217.661E-03    -308.247E-03     604.236E-03    -295.795E-03     161.215E-03
            1435     10.7101E-03     93.5733E-03    -20.6007E+06     34.3291E+06     69.4877E+06     1.15380E+06    -296.611E-03     592.766E-03    -296.154E-03     241.618E-03    -311.962E-03     607.964E-03    -295.827E-03     180.971E-03
            1436     10.0437E-03     93.2197E-03    -25.9574E+06     28.4460E+06     69.4199E+06    -66.3400E+03    -298.139E-03     594.325E-03    -296.186E-03     255.805E-03    -314.598E-03     610.592E-03    -295.843E-03     193.260E-03
            1437     9.37316E-03     92.8460E-03    -32.1864E+06     17.1287E+06     64.1754E+06    -1.13904E+06    -299.407E-03     595.603E-03    -296.196E-03     265.124E-03    -316.299E-03     612.255E-03    -295.853E-03     201.960E-03
            1438     8.70366E-03     92.4591E-03    -39.1367E+06     9.25525E+06     55.5410E+06    -1.67857E+06    -300.470E-03     596.656E-03    -296.186E-03     267.471E-03    -317.008E-03     612.927E-03    -295.865E-03     205.025E-03
            1439     8.03282E-03     92.0737E-03    -47.3430E+06     570.760E+03     44.3778E+06    -957.050E+03    -301.002E-03     597.163E-03    -296.161E-03     261.738E-03    -316.388E-03     612.254E-03    -295.871E-03     201.527E-03
            1440     7.36431E-03     91.7000E-03    -54.6606E+06    -6.86418E+06     35.0804E+06    -147.575E+03    -301.079E-03     597.213E-03    -296.134E-03     249.711E-03    -314.769E-03     610.583E-03    -295.869E-03     192.979E-03
            1441     6.69582E-03     91.3463E-03    -61.5031E+06    -13.9796E+06     27.5423E+06     125.222E+03    -300.806E-03     596.912E-03    -296.106E-03     233.128E-03    -312.498E-03     608.257E-03    -295.859E-03     180.836E-03
            1442     6.02565E-03     91.0181E-03    -70.2117E+06    -23.8501E+06     17.1004E+06     1.27184E+06    -300.114E-03     596.194E-03    -296.079E-03     213.775E-03    -309.745E-03     605.441E-03    -295.857E-03     166.633E-03
            1443     5.35647E-03     90.7215E-03    -79.5585E+06    -47.3509E+06     210.268E+03     2.46233E+06    -299.188E-03     595.265E-03    -296.077E-03     192.311E-03    -306.830E-03     602.457E-03    -295.892E-03     150.696E-03
            1444     4.68599E-03     90.4576E-03    -89.5119E+06    -86.0465E+06    -21.6423E+06     2.04282E+06    -298.522E-03     594.631E-03    -296.109E-03     169.800E-03    -304.361E-03     599.910E-03    -295.963E-03     133.724E-03
            1445     4.01626E-03     90.2260E-03    -99.3228E+06    -123.969E+06    -44.5657E+06     1.46454E+06    -298.050E-03     594.191E-03    -296.141E-03     146.397E-03    -302.337E-03     597.815E-03    -296.040E-03     115.765E-03
            1446     3.34673E-03     90.0295E-03    -108.435E+06    -163.160E+06    -66.2583E+06     980.826E+03    -297.494E-03     593.670E-03    -296.176E-03     122.361E-03    -300.478E-03     595.882E-03    -296.113E-03     97.0783E-03
            1447     2.67684E-03     89.8678E-03    -116.885E+06    -193.551E+06    -87.2534E+06     528.086E+03    -297.006E-03     593.211E-03    -296.204E-03     98.1945E-03    -298.952E-03     594.307E-03    -296.191E-03     78.1152E-03
            1448     2.00778E-03     89.7404E-03    -123.555E+06    -212.980E+06    -106.136E+06     490.842E+03    -296.658E-03     592.883E-03    -296.225E-03     73.9599E-03    -297.815E-03     593.153E-03    -296.268E-03     58.9679E-03
            1449     1.33814E-03     89.6486E-03    -128.680E+06    -232.267E+06    -120.395E+06     306.680E+03    -296.448E-03     592.710E-03    -296.262E-03     50.1960E-03    -297.046E-03     592.375E-03    -296.340E-03     40.1562E-03
            1450     668.675E-06     89.5921E-03    -131.045E+06    -245.779E+06    -129.933E+06     257.808E+03    -297.210E-03     592.664E-03    -295.454E-03     27.2573E-03    -297.470E-03     591.964E-03    -295.557E-03     21.7737E-03
            1451     12.7231E-03     92.7111E-03    -4.34717E+06     54.5303E+06     79.3187E+06     1.53169E+06    -292.722E-03     588.794E-03    -296.072E-03     132.635E-03    -299.907E-03     595.927E-03    -295.748E-03     91.0313E-03
            1452     12.0508E-03     92.4548E-03    -8.71017E+06     51.4285E+06     74.5365E+06     2.55770E+06    -293.648E-03     589.752E-03    -296.104E-03     194.444E-03    -305.103E-03     601.142E-03    -295.793E-03     140.975E-03
            1453     11.3809E-03     92.1842E-03    -13.3499E+06     40.3649E+06     69.3060E+06     2.01192E+06    -295.358E-03     591.480E-03    -296.122E-03     215.034E-03    -308.418E-03     604.435E-03    -295.814E-03     158.626E-03
            1454     10.7139E-03     91.8580E-03    -18.4606E+06     36.8409E+06     71.0913E+06     635.465E+03    -296.651E-03     592.804E-03    -296.153E-03     240.314E-03    -311.930E-03     607.942E-03    -295.824E-03     179.722E-03
            1455     10.0422E-03     91.5062E-03    -24.3286E+06     31.0132E+06     70.6468E+06    -136.866E+03    -298.062E-03     594.242E-03    -296.180E-03     255.801E-03    -314.513E-03     610.511E-03    -295.836E-03     193.269E-03
            1456     9.37303E-03     91.1327E-03    -31.0858E+06     18.6544E+06     63.9437E+06    -319.161E+03    -299.658E-03     595.835E-03    -296.177E-03     265.080E-03    -316.567E-03     612.514E-03    -295.839E-03     201.800E-03
            1457     8.70311E-03     90.7455E-03    -39.0155E+06     8.83838E+06     54.2158E+06    -59.7236E+03    -300.633E-03     596.772E-03    -296.139E-03     266.263E-03    -317.131E-03     613.005E-03    -295.824E-03     203.798E-03
            1458     8.03510E-03     90.3605E-03    -46.1000E+06     935.623E+03     43.4737E+06    -693.846E+03    -300.904E-03     596.996E-03    -296.092E-03     260.750E-03    -316.251E-03     612.057E-03    -295.809E-03     200.559E-03
            1459     7.36518E-03     89.9863E-03    -53.4490E+06    -7.57438E+06     34.0237E+06    -1.34488E+06    -300.850E-03     596.919E-03    -296.070E-03     249.956E-03    -314.541E-03     610.295E-03    -295.811E-03     193.227E-03
            1460     6.69498E-03     89.6322E-03    -62.7333E+06    -16.4431E+06     26.0306E+06    -619.048E+03    -300.418E-03     596.500E-03    -296.081E-03     234.168E-03    -312.134E-03     607.859E-03    -295.836E-03     181.933E-03
            1461     6.02581E-03     89.3061E-03    -72.5169E+06    -26.9058E+06     14.0526E+06     163.394E+03    -299.688E-03     595.797E-03    -296.109E-03     214.643E-03    -309.337E-03     605.052E-03    -295.894E-03     167.566E-03
            1462     5.35497E-03     89.0090E-03    -82.1631E+06    -49.1909E+06    -3.40373E+06     657.154E+03    -299.045E-03     595.199E-03    -296.154E-03     192.801E-03    -306.697E-03     602.394E-03    -295.981E-03     151.209E-03
            1463     4.68549E-03     88.7453E-03    -91.2534E+06     -85.402E+06    -23.4799E+06     881.429E+03    -298.641E-03     594.850E-03    -296.209E-03     170.054E-03    -304.496E-03     600.146E-03    -296.070E-03     133.919E-03
            1464     4.01583E-03     88.5127E-03    -99.9769E+06    -122.441E+06    -45.0578E+06     977.973E+03    -298.172E-03     594.415E-03    -296.243E-03     146.358E-03    -302.464E-03     598.048E-03    -296.145E-03     115.709E-03
            1465     3.34617E-03     88.3170E-03    -108.499E+06    -161.988E+06    -66.0939E+06     1.23192E+06    -297.729E-03     593.992E-03    -296.263E-03     122.233E-03    -300.710E-03     596.204E-03    -296.201E-03     96.9579E-03
            1466     2.67728E-03     88.1541E-03    -116.271E+06    -192.639E+06    -86.5552E+06     1.10308E+06    -297.304E-03     593.550E-03    -296.246E-03     98.2512E-03    -299.251E-03     594.651E-03    -296.231E-03     78.1571E-03
            1467     2.00777E-03     88.0278E-03    -122.970E+06    -211.656E+06    -105.682E+06     771.927E+03    -296.760E-03     592.977E-03    -296.217E-03     74.0652E-03    -297.916E-03     593.252E-03    -296.260E-03     59.0942E-03
            1468     1.33852E-03     87.9356E-03    -128.201E+06    -231.519E+06    -120.186E+06     359.616E+03    -296.325E-03     592.594E-03    -296.269E-03     50.0946E-03    -296.921E-03     592.262E-03    -296.348E-03     40.0491E-03
            1469     668.987E-06     87.8791E-03    -130.870E+06    -244.219E+06    -128.607E+06     185.392E+03    -296.831E-03     592.742E-03    -295.911E-03     27.2653E-03    -297.095E-03     592.048E-03    -296.010E-03     21.7744E-03
            1470     12.7217E-03     91.0016E-03    -3.63640E+06     51.4485E+06     80.9471E+06     744.799E+03    -293.471E-03     589.547E-03    -296.076E-03     133.210E-03    -300.666E-03     596.677E-03    -295.741E-03     91.5209E-03
            1471     12.0528E-03     90.7423E-03    -6.83597E+06     50.8417E+06     77.9537E+06     2.08409E+06    -293.957E-03     590.043E-03    -296.086E-03     195.320E-03    -305.445E-03     601.462E-03    -295.760E-03     141.781E-03
            1472     11.3841E-03     90.4698E-03    -10.9882E+06     43.0152E+06     72.7899E+06     2.29043E+06    -295.321E-03     591.417E-03    -296.095E-03     215.891E-03    -308.407E-03     604.404E-03    -295.778E-03     159.496E-03
            1473     10.7120E-03     90.1462E-03    -16.2543E+06     39.2465E+06     73.7783E+06     1.58954E+06    -296.700E-03     592.827E-03    -296.127E-03     240.883E-03    -311.979E-03     607.974E-03    -295.791E-03     180.341E-03
            1474     10.0429E-03     89.7940E-03    -22.9844E+06     32.1155E+06     72.1391E+06     1.26726E+06    -298.354E-03     594.492E-03    -296.138E-03     255.137E-03    -314.771E-03     610.732E-03    -295.791E-03     192.594E-03
            1475     9.37338E-03     89.4170E-03    -30.3268E+06     19.2556E+06     64.8188E+06     1.31197E+06    -299.714E-03     595.821E-03    -296.107E-03     263.714E-03    -316.563E-03     612.443E-03    -295.767E-03     200.501E-03
            1476     8.70562E-03     89.0322E-03    -36.9733E+06     10.2033E+06     56.5779E+06     1.10694E+06    -300.254E-03     596.328E-03    -296.074E-03     266.367E-03    -316.755E-03     612.571E-03    -295.753E-03     203.989E-03
            1477     8.03486E-03     88.6476E-03    -44.3865E+06     3.22966E+06     45.7595E+06     1.19075E+06    -300.527E-03     596.590E-03    -296.062E-03     262.060E-03    -315.920E-03     611.704E-03    -295.774E-03     201.946E-03
            1478     7.36506E-03     88.2741E-03    -53.1623E+06    -6.31656E+06     34.5138E+06     1.42697E+06    -300.494E-03     596.578E-03    -296.084E-03     250.953E-03    -314.192E-03     609.965E-03    -295.826E-03     194.398E-03
            1479     6.69512E-03     87.9206E-03    -62.3932E+06    -16.5747E+06     25.0303E+06     879.539E+03    -300.123E-03     596.262E-03    -296.139E-03     234.483E-03    -311.827E-03     607.614E-03    -295.900E-03     182.365E-03
            1480     6.02421E-03     87.5929E-03    -71.8908E+06    -26.9540E+06     12.5924E+06     687.103E+03    -299.634E-03     595.827E-03    -296.193E-03     214.366E-03    -309.264E-03     605.069E-03    -295.987E-03     167.339E-03
            1481     5.35498E-03     87.2973E-03    -81.5717E+06    -49.3036E+06    -4.91806E+06     321.996E+03    -299.253E-03     595.489E-03    -296.236E-03     192.506E-03    -306.894E-03     602.679E-03    -296.071E-03     150.867E-03
            1482     4.68500E-03     87.0312E-03    -91.1466E+06    -86.1618E+06    -24.8746E+06    -3.36800E+03    -298.789E-03     595.064E-03    -296.275E-03     169.636E-03    -304.634E-03     600.351E-03    -296.142E-03     133.470E-03
            1483     4.01548E-03     86.8005E-03    -100.194E+06    -122.971E+06    -45.9893E+06     260.281E+03    -298.206E-03     594.509E-03    -296.303E-03     146.099E-03    -302.489E-03     598.133E-03    -296.209E-03     115.451E-03
            1484     3.34623E-03     86.6025E-03    -108.627E+06    -162.117E+06    -66.4103E+06     365.724E+03    -297.786E-03     594.113E-03    -296.327E-03     122.367E-03    -300.771E-03     596.329E-03    -296.267E-03     97.0557E-03
            1485     2.67664E-03     86.4411E-03    -116.390E+06    -192.132E+06    -85.7178E+06     649.901E+03    -297.362E-03     593.681E-03    -296.319E-03     98.3154E-03    -299.312E-03     594.784E-03    -296.300E-03     78.2136E-03
            1486     2.00758E-03     86.3137E-03    -122.897E+06    -210.093E+06    -104.436E+06     755.230E+03    -296.923E-03     593.195E-03    -296.272E-03     74.1341E-03    -298.084E-03     593.477E-03    -296.312E-03     59.1426E-03
            1487     1.33833E-03     86.2231E-03    -127.756E+06    -229.819E+06    -120.012E+06     387.425E+03    -296.628E-03     592.838E-03    -296.210E-03     50.2485E-03    -297.226E-03     592.515E-03    -296.292E-03     40.1867E-03
            1488     669.421E-06     86.1648E-03    -130.643E+06    -243.713E+06    -129.378E+06    -151.158E+03    -296.250E-03     592.452E-03    -296.202E-03     27.5271E-03    -296.512E-03     591.762E-03    -296.306E-03     22.0635E-03
            1489     12.7221E-03     89.2830E-03    -4.15120E+06     50.8574E+06     79.6223E+06    -460.176E+03    -293.557E-03     589.624E-03    -296.067E-03     132.305E-03    -300.738E-03     596.741E-03    -295.737E-03     90.5539E-03
            1490     12.0525E-03     89.0319E-03    -9.00495E+06     48.6390E+06     76.3719E+06    -1.11974E+06    -294.081E-03     590.154E-03    -296.073E-03     195.713E-03    -305.595E-03     601.587E-03    -295.749E-03     142.056E-03
            1491     11.3807E-03     88.7544E-03    -13.9987E+06     40.9534E+06     71.2246E+06    -447.419E+03    -295.451E-03     591.526E-03    -296.075E-03     215.859E-03    -308.541E-03     604.505E-03    -295.758E-03     159.407E-03
            1492     10.7132E-03     88.4342E-03    -18.4345E+06     38.0152E+06     72.6776E+06     653.516E+03    -297.259E-03     593.335E-03    -296.076E-03     239.839E-03    -312.531E-03     608.466E-03    -295.741E-03     179.133E-03
            1493     10.0443E-03     88.0772E-03    -24.0761E+06     31.2452E+06     71.9986E+06     1.50132E+06    -298.341E-03     594.403E-03    -296.062E-03     255.094E-03    -314.774E-03     610.653E-03    -295.712E-03     192.555E-03
            1494     9.37614E-03     87.7055E-03    -30.5167E+06     21.0336E+06     65.6803E+06     1.53922E+06    -298.950E-03     595.013E-03    -296.063E-03     265.133E-03    -315.837E-03     611.675E-03    -295.721E-03     202.130E-03
            1495     8.70387E-03     87.3199E-03    -37.7132E+06     11.2745E+06     56.2923E+06     1.40668E+06    -299.795E-03     595.886E-03    -296.091E-03     267.889E-03    -316.326E-03     612.160E-03    -295.771E-03     205.667E-03
            1496     8.03426E-03     86.9350E-03    -45.7323E+06     2.27629E+06     44.3832E+06     1.96156E+06    -300.384E-03     596.505E-03    -296.121E-03     262.500E-03    -315.769E-03     611.607E-03    -295.836E-03     202.503E-03
            1497     7.36394E-03     86.5615E-03    -53.3877E+06    -5.59022E+06     34.1199E+06     2.14680E+06    -300.503E-03     596.663E-03    -296.160E-03     250.966E-03    -314.206E-03     610.057E-03    -295.904E-03     194.415E-03
            1498     6.69386E-03     86.2074E-03    -61.6951E+06    -14.8272E+06     25.2268E+06     2.16731E+06    -300.263E-03     596.477E-03    -296.214E-03     234.347E-03    -311.966E-03     607.836E-03    -295.977E-03     182.230E-03
            1499     6.02474E-03     85.8811E-03    -70.9223E+06    -25.3707E+06     13.3683E+06     1.58257E+06    -299.885E-03     596.140E-03    -296.255E-03     214.278E-03    -309.515E-03     605.389E-03    -296.049E-03     167.213E-03
            1500     5.35444E-03     85.5831E-03    -80.2766E+06    -47.5596E+06    -3.12728E+06     918.422E+03    -299.486E-03     595.764E-03    -296.278E-03     192.455E-03    -307.131E-03     602.965E-03    -296.108E-03     150.754E-03
            1501     4.68528E-03     85.3186E-03    -90.1382E+06    -84.9969E+06    -23.6171E+06     903.484E+03    -298.908E-03     595.202E-03    -296.294E-03     169.352E-03    -304.742E-03     600.482E-03    -296.158E-03     133.216E-03
            1502     4.01562E-03     85.0870E-03    -99.8654E+06    -122.849E+06    -45.4723E+06     244.673E+03    -298.275E-03     594.578E-03    -296.304E-03     145.820E-03    -302.552E-03     598.197E-03    -296.208E-03     115.155E-03
            1503     3.34577E-03     84.8896E-03    -108.773E+06    -162.403E+06    -66.0818E+06    -61.9385E+03    -297.725E-03     594.048E-03    -296.322E-03     121.966E-03    -300.707E-03     596.258E-03    -296.259E-03     96.6414E-03
            1504     2.67676E-03     84.7267E-03    -116.353E+06    -191.922E+06    -85.4721E+06    -13.2267E+03    -297.260E-03     593.583E-03    -296.323E-03     97.7965E-03    -299.201E-03     594.677E-03    -296.304E-03     77.7196E-03
            1505     2.00739E-03     84.6007E-03    -123.295E+06    -210.063E+06    -104.614E+06    -331.601E+03    -296.953E-03     593.230E-03    -296.278E-03     73.8281E-03    -298.113E-03     593.511E-03    -296.317E-03     58.8161E-03
            1506     1.33848E-03     84.5082E-03    -128.761E+06    -229.525E+06    -120.035E+06    -213.649E+03    -296.655E-03     592.850E-03    -296.195E-03     50.0063E-03    -297.258E-03     592.529E-03    -296.275E-03     39.9110E-03
            1507     669.262E-06     84.4528E-03    -132.082E+06    -243.941E+06    -129.205E+06     264.447E+03    -296.148E-03     592.379E-03    -296.230E-03     27.2269E-03    -296.418E-03     591.689E-03    -296.331E-03     21.7293E-03
            1508     12.7225E-03     87.5743E-03    -3.50681E+06     51.5477E+06     79.3309E+06     47.5767E+03    -293.247E-03     589.289E-03    -296.042E-03     132.912E-03    -300.438E-03     596.420E-03    -295.715E-03     91.1991E-03
            1509     12.0520E-03     87.3157E-03    -8.51479E+06     49.1296E+06     74.8340E+06    -170.317E+03    -294.517E-03     590.552E-03    -296.036E-03     194.952E-03    -305.997E-03     601.960E-03    -295.721E-03     141.257E-03
            1510     11.3848E-03     87.0446E-03    -14.8200E+06     39.3296E+06     68.3868E+06    -794.313E+03    -295.925E-03     591.927E-03    -296.002E-03     215.087E-03    -308.991E-03     604.882E-03    -295.696E-03     158.552E-03
            1511     10.7144E-03     86.7161E-03    -20.5438E+06     35.0876E+06     69.7314E+06    -1.08400E+06    -296.589E-03     592.601E-03    -296.011E-03     240.632E-03    -311.888E-03     607.749E-03    -295.684E-03     180.030E-03
            1512     10.0453E-03     86.3669E-03    -25.4300E+06     29.7937E+06     70.3650E+06    -142.561E+03    -297.344E-03     593.411E-03    -296.067E-03     256.760E-03    -313.817E-03     609.695E-03    -295.721E-03     194.430E-03
            1513     9.37213E-03     85.9929E-03    -31.8400E+06     19.5885E+06     63.7608E+06     585.884E+03    -298.784E-03     594.908E-03    -296.124E-03     266.197E-03    -315.699E-03     611.595E-03    -295.788E-03     203.210E-03
            1514     8.70380E-03     85.6068E-03    -38.8623E+06     10.0130E+06     54.7296E+06     1.57365E+06    -299.935E-03     596.099E-03    -296.165E-03     267.594E-03    -316.452E-03     612.355E-03    -295.849E-03     205.364E-03
            1515     8.03351E-03     85.2226E-03    -46.1028E+06     2.71148E+06     43.4005E+06     1.75633E+06    -300.452E-03     596.639E-03    -296.187E-03     262.205E-03    -315.833E-03     611.741E-03    -295.907E-03     202.179E-03
            1516     7.36385E-03     84.8487E-03    -54.0014E+06    -4.65887E+06     32.7815E+06     1.20850E+06    -300.640E-03     596.857E-03    -296.216E-03     250.747E-03    -314.355E-03     610.268E-03    -295.967E-03     194.106E-03
            1517     6.69409E-03     84.4951E-03    -62.1088E+06    -14.3414E+06     25.8171E+06     1.47825E+06    -300.475E-03     596.737E-03    -296.262E-03     233.987E-03    -312.178E-03     608.094E-03    -296.022E-03     181.818E-03
            1518     6.02367E-03     84.1670E-03    -70.7076E+06    -24.3747E+06     15.8120E+06     1.42990E+06    -300.108E-03     596.393E-03    -296.286E-03     214.039E-03    -309.736E-03     605.638E-03    -296.069E-03     166.927E-03
            1519     5.35478E-03     83.8701E-03    -80.4225E+06    -46.3629E+06    -1.21096E+06     1.02814E+06    -299.590E-03     595.873E-03    -296.282E-03     192.126E-03    -307.238E-03     603.073E-03    -296.105E-03     150.405E-03
            1520     4.68495E-03     83.6046E-03    -90.1460E+06    -83.5862E+06    -21.8434E+06     522.956E+03    -298.995E-03     595.270E-03    -296.275E-03     169.009E-03    -304.830E-03     600.551E-03    -296.132E-03     132.838E-03
            1521     4.01571E-03     83.3739E-03    -99.1629E+06    -122.070E+06    -43.6188E+06     146.306E+03    -298.413E-03     594.668E-03    -296.255E-03     145.599E-03    -302.693E-03     598.289E-03    -296.152E-03     114.893E-03
            1522     3.34688E-03     83.1760E-03    -107.518E+06    -161.621E+06    -64.4144E+06    -106.587E+03    -297.770E-03     594.008E-03    -296.238E-03     121.745E-03    -300.744E-03     596.213E-03    -296.170E-03     96.4363E-03
            1523     2.67705E-03     83.0145E-03    -115.947E+06    -191.471E+06    -84.9099E+06    -515.795E+03    -297.163E-03     593.382E-03    -296.219E-03     97.7216E-03    -299.102E-03     594.476E-03    -296.198E-03     77.6515E-03
            1524     2.00784E-03     82.8862E-03    -122.873E+06    -210.743E+06    -104.069E+06    -533.387E+03    -296.774E-03     592.963E-03    -296.188E-03     73.8279E-03    -297.933E-03     593.238E-03    -296.225E-03     58.8129E-03
            1525     1.33851E-03     82.7956E-03    -127.451E+06    -230.628E+06    -119.248E+06    -357.290E+03    -296.487E-03     592.638E-03    -296.151E-03     49.8115E-03    -297.082E-03     592.308E-03    -296.228E-03     39.7327E-03
            1526     669.247E-06     82.7389E-03    -131.812E+06    -244.686E+06    -128.798E+06    -308.426E+03    -296.176E-03     592.347E-03    -296.171E-03     27.0140E-03    -296.442E-03     591.651E-03    -296.269E-03     21.5411E-03
            1527     12.7219E-03     85.8598E-03    -4.39751E+06     51.4160E+06     79.3171E+06     200.382E+03    -294.030E-03     590.069E-03    -296.038E-03     134.037E-03    -301.261E-03     597.236E-03    -295.710E-03     92.1473E-03
            1528     12.0538E-03     85.6021E-03    -8.90444E+06     48.9192E+06     74.4388E+06     126.217E+03    -294.748E-03     590.752E-03    -296.005E-03     195.615E-03    -306.238E-03     602.169E-03    -295.691E-03     141.941E-03
            1529     11.3835E-03     85.3272E-03    -12.4862E+06     39.9649E+06     69.4552E+06     569.291E+03    -295.109E-03     591.110E-03    -296.001E-03     217.034E-03    -308.229E-03     604.126E-03    -295.693E-03     160.654E-03
            1530     10.7144E-03     85.0071E-03    -17.4342E+06     36.6544E+06     71.0927E+06     842.654E+03    -296.020E-03     592.090E-03    -296.069E-03     242.633E-03    -311.386E-03     607.318E-03    -295.742E-03     182.100E-03
            1531     10.0412E-03     84.6551E-03    -24.4132E+06     28.7413E+06     69.1354E+06     171.889E+03    -297.642E-03     593.780E-03    -296.138E-03     256.556E-03    -314.114E-03     610.066E-03    -295.798E-03     194.101E-03
            1532     9.37407E-03     84.2791E-03    -30.8462E+06     16.6288E+06     62.3887E+06     1.11328E+06    -299.031E-03     595.205E-03    -296.174E-03     265.049E-03    -315.911E-03     611.854E-03    -295.841E-03     201.973E-03
            1533     8.70309E-03     83.8947E-03    -37.6416E+06     9.73061E+06     54.1983E+06     1.93375E+06    -299.864E-03     596.064E-03    -296.200E-03     267.038E-03    -316.378E-03     612.322E-03    -295.888E-03     204.748E-03
            1534     8.03326E-03     83.5095E-03    -45.1312E+06     4.06098E+06     44.0752E+06     2.12006E+06    -300.562E-03     596.782E-03    -296.220E-03     261.931E-03    -315.938E-03     611.885E-03    -295.940E-03     201.869E-03
            1535     7.36323E-03     83.1354E-03    -52.7883E+06    -3.14192E+06     34.7689E+06     2.18501E+06    -300.856E-03     597.094E-03    -296.238E-03     250.248E-03    -314.543E-03     610.481E-03    -295.983E-03     193.633E-03
            1536     6.69362E-03     82.7812E-03    -61.1917E+06    -12.8962E+06     27.8634E+06     1.17199E+06    -300.679E-03     596.937E-03    -296.259E-03     233.575E-03    -312.376E-03     608.290E-03    -296.012E-03     181.337E-03
            1537     6.02484E-03     82.4543E-03    -70.2685E+06    -23.5061E+06     17.8965E+06     408.052E+03    -300.189E-03     596.449E-03    -296.259E-03     213.706E-03    -309.820E-03     605.695E-03    -296.034E-03     166.532E-03
            1538     5.35479E-03     82.1558E-03    -79.4111E+06    -45.5033E+06     871.981E+03     59.3778E+03    -299.531E-03     595.775E-03    -296.244E-03     191.864E-03    -307.173E-03     602.970E-03    -296.058E-03     150.139E-03
            1539     4.68573E-03     81.8920E-03    -88.3844E+06    -83.4329E+06    -19.7144E+06    -433.635E+03    -298.961E-03     595.196E-03    -296.235E-03     169.121E-03    -304.794E-03     600.476E-03    -296.084E-03     132.926E-03
            1540     4.01628E-03     81.6598E-03    -97.2907E+06    -122.234E+06    -41.3456E+06    -250.259E+03    -298.401E-03     594.616E-03    -296.214E-03     145.801E-03    -302.677E-03     598.232E-03    -296.103E-03     115.094E-03
            1541     3.34642E-03     81.4634E-03    -106.149E+06    -160.783E+06    -62.7049E+06    -4.92303E+03    -297.786E-03     593.974E-03    -296.188E-03     122.047E-03    -300.763E-03     596.186E-03    -296.115E-03     96.7209E-03
            1542     2.67754E-03     81.3008E-03    -114.407E+06    -190.965E+06    -83.8406E+06    -257.087E+03    -297.215E-03     593.365E-03    -296.150E-03     98.0864E-03    -299.154E-03     594.463E-03    -296.126E-03     78.0018E-03
            1543     2.00794E-03     81.1744E-03    -121.289E+06    -211.243E+06    -103.041E+06    -323.414E+03    -296.676E-03     592.790E-03    -296.115E-03     74.0336E-03    -297.827E-03     593.060E-03    -296.148E-03     59.0490E-03
            1544     1.33853E-03     81.0814E-03    -126.674E+06    -231.476E+06    -118.346E+06     97.9735E+03    -296.307E-03     592.433E-03    -296.125E-03     49.8659E-03    -296.898E-03     592.095E-03    -296.198E-03     39.8314E-03
            1545     669.327E-06     81.0272E-03    -129.018E+06    -245.121E+06    -128.182E+06     386.837E+03    -296.304E-03     592.381E-03    -296.077E-03     27.1052E-03    -296.556E-03     591.677E-03    -296.176E-03     21.6796E-03
            1546     12.7227E-03     84.1440E-03    -5.26792E+06     52.7891E+06     77.5159E+06    -422.565E+03    -293.756E-03     589.780E-03    -296.024E-03     133.849E-03    -300.970E-03     596.938E-03    -295.705E-03     92.0675E-03
            1547     12.0532E-03     83.8869E-03    -8.65737E+06     48.2649E+06     74.6708E+06    -821.687E+03    -293.658E-03     589.702E-03    -296.044E-03     196.225E-03    -305.134E-03     601.102E-03    -295.728E-03     142.845E-03
            1548     11.3828E-03     83.6190E-03    -12.1054E+06     37.2410E+06     70.2091E+06    -120.872E+03    -294.827E-03     590.918E-03    -296.091E-03     216.907E-03    -307.922E-03     603.899E-03    -295.776E-03     160.616E-03
            1549     10.7099E-03     83.2925E-03    -17.1766E+06     36.4415E+06     71.4150E+06     804.503E+03    -296.553E-03     592.696E-03    -296.143E-03     240.955E-03    -311.854E-03     607.858E-03    -295.814E-03     180.363E-03
            1550     10.0446E-03     82.9399E-03    -23.1265E+06     28.6215E+06     70.3012E+06     1.39094E+06    -297.919E-03     594.099E-03    -296.180E-03     255.862E-03    -314.378E-03     610.373E-03    -295.837E-03     193.357E-03
            1551     9.37274E-03     82.5679E-03    -29.9196E+06     15.6752E+06     63.4472E+06     1.79380E+06    -299.095E-03     595.302E-03    -296.207E-03     265.504E-03    -316.004E-03     611.977E-03    -295.869E-03     202.394E-03
            1552     8.70320E-03     82.1815E-03    -36.8374E+06     8.91109E+06     54.1967E+06     2.21573E+06    -300.213E-03     596.430E-03    -296.218E-03     267.261E-03    -316.721E-03     612.682E-03    -295.906E-03     204.956E-03
            1553     8.03334E-03     81.7970E-03    -43.3464E+06     4.17486E+06     45.5209E+06     2.69044E+06    -300.947E-03     597.160E-03    -296.213E-03     261.514E-03    -316.303E-03     612.246E-03    -295.929E-03     201.407E-03
            1554     7.36405E-03     81.4218E-03    -50.4540E+06    -1.57391E+06     38.4790E+06     2.46310E+06    -300.965E-03     597.175E-03    -296.210E-03     249.703E-03    -314.630E-03     610.543E-03    -295.942E-03     193.077E-03
            1555     6.69461E-03     81.0684E-03    -58.3956E+06    -10.1188E+06     31.1284E+06     1.50461E+06    -300.603E-03     596.818E-03    -296.215E-03     233.487E-03    -312.301E-03     608.183E-03    -295.960E-03     181.219E-03
            1556     6.02455E-03     80.7396E-03    -67.1727E+06    -20.4697E+06     20.2624E+06     468.794E+03    -300.088E-03     596.302E-03    -296.215E-03     213.916E-03    -309.724E-03     605.569E-03    -295.986E-03     166.734E-03
            1557     5.35550E-03     80.4438E-03    -76.6301E+06    -44.6644E+06     3.08314E+06    -196.305E+03    -299.463E-03     595.674E-03    -296.212E-03     192.120E-03    -307.090E-03     602.862E-03    -296.020E-03     150.441E-03
            1558     4.68535E-03     80.1779E-03    -86.5184E+06    -84.0522E+06    -18.1027E+06    -28.2481E+03    -298.855E-03     595.073E-03    -296.218E-03     169.410E-03    -304.682E-03     600.347E-03    -296.061E-03     133.248E-03
            1559     4.01588E-03     79.9470E-03    -96.5366E+06    -122.499E+06    -40.9710E+06     420.696E+03    -298.279E-03     594.493E-03    -296.214E-03     145.997E-03    -302.555E-03     598.110E-03    -296.101E-03     115.310E-03
            1560     3.34688E-03     79.7499E-03    -106.039E+06    -161.009E+06    -63.2572E+06     443.890E+03    -297.747E-03     593.951E-03    -296.204E-03     122.196E-03    -300.725E-03     596.164E-03    -296.133E-03     96.8828E-03
            1561     2.67706E-03     79.5880E-03    -114.296E+06    -190.500E+06    -84.2029E+06     563.504E+03    -297.249E-03     593.422E-03    -296.173E-03     98.2438E-03    -299.187E-03     594.522E-03    -296.152E-03     78.1917E-03
            1562     2.00807E-03     79.4608E-03    -121.406E+06    -211.101E+06    -103.708E+06     534.751E+03    -296.761E-03     592.889E-03    -296.128E-03     74.1689E-03    -297.913E-03     593.161E-03    -296.164E-03     59.1964E-03
            1563     1.33862E-03     79.3699E-03    -126.825E+06    -231.483E+06    -118.749E+06     230.617E+03    -296.346E-03     592.466E-03    -296.121E-03     49.9394E-03    -296.936E-03     592.129E-03    -296.195E-03     39.9161E-03
            1564     668.946E-06     79.3129E-03    -129.025E+06    -244.112E+06    -127.574E+06     179.793E+03    -296.150E-03     592.361E-03    -296.210E-03     27.4215E-03    -296.404E-03     591.661E-03    -296.307E-03     22.0005E-03
            1565     12.7233E-03     82.4308E-03    -3.15044E+06     54.3778E+06     79.0421E+06    -327.574E+03    -292.818E-03     588.853E-03    -296.036E-03     133.533E-03    -300.006E-03     595.995E-03    -295.715E-03     91.9386E-03
            1566     12.0509E-03     82.1790E-03    -8.28181E+06     48.6165E+06     73.5739E+06    -467.111E+03    -293.186E-03     589.270E-03    -296.084E-03     195.746E-03    -304.665E-03     600.679E-03    -295.774E-03     142.335E-03
            1567     11.3805E-03     81.9017E-03    -14.4218E+06     35.6263E+06     67.2377E+06    -1.11414E+06    -295.375E-03     591.497E-03    -296.122E-03     216.293E-03    -308.462E-03     604.465E-03    -295.817E-03     159.841E-03
            1568     10.7157E-03     81.5803E-03    -19.6024E+06     33.1559E+06     69.2109E+06    -472.912E+03    -296.612E-03     592.774E-03    -296.163E-03     241.096E-03    -311.906E-03     607.916E-03    -295.836E-03     180.546E-03
            1569     10.0409E-03     81.2284E-03    -25.5596E+06     26.3524E+06     68.7536E+06      796.75E+03    -297.768E-03     593.981E-03    -296.212E-03     256.438E-03    -314.232E-03     610.248E-03    -295.870E-03     194.035E-03
            1570     9.37235E-03     80.8529E-03    -32.1972E+06     16.3815E+06     63.5009E+06     421.851E+03    -299.406E-03     595.645E-03    -296.239E-03     264.992E-03    -316.297E-03     612.296E-03    -295.899E-03     201.853E-03
            1571     8.70276E-03     80.4687E-03    -38.6112E+06     7.85517E+06     54.3319E+06    -736.929E+03    -300.634E-03     596.852E-03    -296.218E-03     266.750E-03    -317.145E-03     613.096E-03    -295.902E-03     204.304E-03
            1572     8.03386E-03     80.0816E-03    -44.7395E+06     1.36015E+06     45.3141E+06    -1.19408E+06    -301.044E-03     597.230E-03    -296.187E-03     261.470E-03    -316.410E-03     612.311E-03    -295.897E-03     201.280E-03
            1573     7.36448E-03     79.7094E-03    -50.8565E+06    -3.21915E+06     38.9163E+06    -715.067E+03    -300.907E-03     597.087E-03    -296.180E-03     250.290E-03    -314.604E-03     610.479E-03    -295.907E-03     193.586E-03
            1574     6.69456E-03     79.3546E-03    -57.9086E+06    -10.0525E+06     31.8470E+06    -166.524E+03    -300.569E-03     596.762E-03    -296.193E-03     234.168E-03    -312.283E-03     608.142E-03    -295.935E-03     181.909E-03
            1575     6.02516E-03     79.0277E-03    -66.7908E+06    -19.5554E+06     20.4752E+06     224.063E+03    -299.997E-03     596.200E-03    -296.203E-03     214.167E-03    -309.622E-03     605.460E-03    -295.975E-03     167.056E-03
            1576     5.35485E-03     78.7295E-03    -77.1338E+06    -44.9328E+06     2.00949E+06     840.732E+03    -299.397E-03     595.607E-03    -296.211E-03     192.307E-03    -307.028E-03     602.800E-03    -296.024E-03     150.655E-03
            1577     4.68584E-03     78.4658E-03    -87.8013E+06    -84.4845E+06    -19.8191E+06     1.41527E+06    -298.822E-03     595.047E-03    -296.225E-03     169.541E-03    -304.655E-03     600.326E-03    -296.075E-03     133.405E-03
            1578     4.01606E-03     78.2335E-03    -98.0822E+06    -121.779E+06    -43.0173E+06     1.47430E+06    -298.248E-03     594.476E-03    -296.228E-03     146.057E-03    -302.528E-03     598.100E-03    -296.124E-03     115.413E-03
            1579     3.34616E-03     78.0369E-03    -107.779E+06    -160.233E+06    -65.3845E+06     1.33183E+06    -297.734E-03     593.961E-03    -296.227E-03     122.073E-03    -300.710E-03     596.175E-03    -296.165E-03     96.8152E-03
            1580     2.67720E-03     77.8746E-03    -116.455E+06    -189.934E+06    -86.3632E+06     1.24784E+06    -297.234E-03     593.439E-03    -296.205E-03     98.0799E-03    -299.179E-03     594.547E-03    -296.193E-03     78.0334E-03
            1581     2.00754E-03     77.7479E-03    -123.234E+06    -209.786E+06    -105.439E+06     1.02098E+06    -296.808E-03     592.969E-03    -296.161E-03     73.9591E-03    -297.968E-03     593.253E-03    -296.206E-03     58.9749E-03
            1582     1.33851E-03     77.6563E-03    -128.257E+06    -229.967E+06    -120.392E+06     396.002E+03    -296.518E-03     592.618E-03    -296.100E-03     49.8536E-03    -297.116E-03     592.293E-03    -296.183E-03     39.8148E-03
            1583     669.648E-06     77.6008E-03    -132.251E+06    -243.548E+06    -129.741E+06    -105.386E+03    -296.029E-03     592.214E-03    -296.185E-03     27.0918E-03    -296.296E-03     591.524E-03    -296.289E-03     21.6567E-03
            1584     12.7216E-03     80.7223E-03    -5.19815E+06     52.7251E+06     78.1281E+06    -170.566E+03    -293.160E-03     589.238E-03    -296.078E-03     133.342E-03    -300.393E-03     596.413E-03    -295.756E-03     91.5125E-03
            1585     12.0524E-03     80.4661E-03    -9.94483E+06     48.3178E+06     72.6949E+06     20.0249E+03    -294.115E-03     590.204E-03    -296.090E-03     196.146E-03    -305.629E-03     601.645E-03    -295.782E-03     142.512E-03
            1586     11.3839E-03     80.1888E-03    -14.3065E+06     38.6736E+06     67.2518E+06    -93.9636E+03    -295.011E-03     591.121E-03    -296.111E-03     216.098E-03    -308.070E-03     604.072E-03    -295.810E-03     159.797E-03
            1587     10.7084E-03     79.8669E-03    -20.1819E+06     31.3758E+06     67.4379E+06     160.891E+03    -296.315E-03     592.483E-03    -296.168E-03     240.476E-03    -311.586E-03     607.597E-03    -295.847E-03     179.972E-03
            1588     10.0431E-03     79.5141E-03    -26.1767E+06     24.9181E+06     67.0983E+06     374.786E+03    -298.139E-03     594.342E-03    -296.204E-03     255.215E-03    -314.579E-03     610.583E-03    -295.867E-03     192.656E-03
            1589     9.37290E-03     79.1404E-03    -32.2102E+06     19.5052E+06     63.2386E+06    -287.230E+03    -299.531E-03     595.731E-03    -296.200E-03     264.260E-03    -316.408E-03     612.379E-03    -295.865E-03     201.054E-03
            1590     8.70386E-03     78.7534E-03    -39.2685E+06     11.1804E+06     54.2539E+06    -2.26152E+06    -300.359E-03     596.535E-03    -296.177E-03     266.559E-03    -316.873E-03     612.792E-03    -295.865E-03     204.121E-03
            1591     8.03407E-03     78.3695E-03    -46.7822E+06     883.787E+03     43.0188E+06    -4.25229E+06    -300.607E-03     596.774E-03    -296.167E-03     261.749E-03    -315.988E-03     611.868E-03    -295.886E-03     201.571E-03
            1592     7.36382E-03     77.9957E-03    -54.4605E+06    -7.44254E+06     34.0702E+06    -5.07322E+06    -300.739E-03     596.926E-03    -296.187E-03     250.815E-03    -314.452E-03     610.320E-03    -295.927E-03     194.077E-03
            1593     6.69438E-03     77.6415E-03    -62.7411E+06    -15.2749E+06     26.5395E+06    -3.96701E+06    -300.631E-03     596.844E-03    -296.213E-03     234.514E-03    -312.358E-03     608.217E-03    -295.967E-03     182.211E-03
            1594     6.02449E-03     77.3138E-03    -71.9611E+06    -25.1509E+06     15.3562E+06    -1.54628E+06    -300.094E-03     596.317E-03    -296.223E-03     214.381E-03    -309.740E-03     605.573E-03    -296.005E-03     167.227E-03
            1595     5.35532E-03     77.0174E-03    -82.1299E+06    -47.5678E+06    -2.86695E+06     564.337E+03    -299.450E-03     595.671E-03    -296.221E-03     192.392E-03    -307.100E-03     602.870E-03    -296.048E-03     150.716E-03
            1596     4.68500E-03     76.7518E-03    -92.4099E+06    -84.2976E+06    -24.3141E+06     1.20112E+06    -298.909E-03     595.133E-03    -296.224E-03     169.387E-03    -304.752E-03     600.420E-03    -296.089E-03     133.260E-03
            1597     4.01572E-03     76.5208E-03    -102.094E+06    -121.210E+06    -46.3591E+06     1.09616E+06    -298.303E-03     594.519E-03    -296.215E-03     145.747E-03    -302.592E-03     598.149E-03    -296.123E-03     115.095E-03
            1598     3.34669E-03     76.3234E-03    -110.824E+06    -159.129E+06    -67.5353E+06     1.10120E+06    -297.716E-03     593.922E-03    -296.206E-03     121.837E-03    -300.705E-03     596.148E-03    -296.153E-03     96.5610E-03
            1599     2.67698E-03     76.1616E-03    -118.778E+06    -188.682E+06    -88.0575E+06     805.202E+03    -297.235E-03     593.411E-03    -296.176E-03     97.8245E-03    -299.189E-03     594.529E-03    -296.170E-03     77.7538E-03
            1600     2.00803E-03     76.0344E-03    -125.779E+06    -208.543E+06    -107.337E+06     431.766E+03    -296.750E-03     592.876E-03    -296.125E-03     73.7348E-03    -297.921E-03     593.171E-03    -296.177E-03     58.7382E-03
            1601     1.33858E-03     75.9434E-03    -130.835E+06    -228.661E+06    -122.331E+06     457.316E+03    -296.414E-03     592.500E-03    -296.085E-03     49.8215E-03    -297.023E-03     592.187E-03    -296.176E-03     39.7860E-03
            1602     669.186E-06     75.8870E-03    -134.515E+06    -242.810E+06    -131.942E+06     452.537E+03    -296.520E-03     592.219E-03    -295.700E-03     26.8892E-03    -296.798E-03     591.542E-03    -295.812E-03     21.4060E-03
            1603     12.7207E-03     79.0092E-03    -4.21938E+06     51.6834E+06     77.6384E+06     787.909E+03    -293.517E-03     589.600E-03    -296.083E-03     132.383E-03    -300.713E-03     596.740E-03    -295.764E-03     90.5854E-03
            1604     12.0520E-03     78.7479E-03    -8.76091E+06     49.6468E+06     74.3067E+06     979.831E+03    -294.164E-03     590.254E-03    -296.089E-03     195.785E-03    -305.679E-03     601.698E-03    -295.777E-03     142.125E-03
            1605     11.3807E-03     78.4801E-03    -14.0189E+06     40.2253E+06     68.7302E+06     673.358E+03    -295.225E-03     591.322E-03    -296.098E-03     215.809E-03    -308.317E-03     604.309E-03    -295.792E-03     159.356E-03
            1606     10.7155E-03     78.1538E-03    -19.2438E+06     31.0974E+06     69.3990E+06     552.887E+03    -296.733E-03     592.866E-03    -296.133E-03     240.195E-03    -312.004E-03     607.978E-03    -295.803E-03     179.594E-03
            1607     10.0427E-03     77.8011E-03    -24.4511E+06     24.9832E+06     69.6406E+06     297.373E+03    -298.146E-03     594.298E-03    -296.153E-03     255.187E-03    -314.570E-03     610.523E-03    -295.805E-03     192.656E-03
            1608     9.37375E-03     77.4262E-03    -30.6612E+06     21.4713E+06     64.3095E+06     114.552E+03    -299.176E-03     595.327E-03    -296.151E-03     264.681E-03    -316.050E-03     611.982E-03    -295.816E-03     201.570E-03
            1609     8.70376E-03     77.0408E-03    -37.2590E+06     15.8909E+06     55.8916E+06    -57.8947E+03    -299.836E-03     596.002E-03    -296.166E-03     267.137E-03    -316.348E-03     612.276E-03    -295.855E-03     204.877E-03
            1610     8.03349E-03     76.6571E-03    -45.4832E+06     6.08316E+06     44.8609E+06    -1.51990E+06    -300.518E-03     596.709E-03    -296.191E-03     262.196E-03    -315.920E-03     611.841E-03    -295.909E-03     202.039E-03
            1611     7.36388E-03     76.2826E-03     -55.392E+06    -5.07495E+06     33.1371E+06    -2.58004E+06    -300.834E-03     597.040E-03    -296.207E-03     250.670E-03    -314.552E-03     610.448E-03    -295.953E-03     193.933E-03
            1612     6.69386E-03     75.9283E-03    -66.1842E+06    -17.7806E+06     21.9007E+06    -2.77126E+06    -300.580E-03     596.801E-03    -296.221E-03     234.119E-03    -312.304E-03     608.164E-03    -295.990E-03     181.826E-03
            1613     6.02450E-03     75.6002E-03    -77.3205E+06    -31.5395E+06     8.39654E+06    -2.79323E+06    -300.110E-03     596.334E-03    -296.224E-03     213.984E-03    -309.754E-03     605.567E-03    -296.024E-03     166.798E-03
            1614     5.35455E-03     75.3039E-03    -87.1526E+06    -52.1145E+06    -8.14339E+06    -2.30040E+06    -299.588E-03     595.800E-03    -296.212E-03     192.069E-03    -307.245E-03     602.986E-03    -296.050E-03     150.307E-03
            1615     4.68580E-03     75.0387E-03    -95.9030E+06    -85.6918E+06    -27.1363E+06    -1.39590E+06    -298.967E-03     595.166E-03    -296.198E-03     169.188E-03    -304.824E-03     600.457E-03    -296.070E-03     132.983E-03
            1616     4.01635E-03     74.8074E-03    -104.500E+06    -122.102E+06    -48.2875E+06    -867.226E+03    -298.297E-03     594.475E-03    -296.179E-03     145.653E-03    -302.592E-03     598.106E-03    -296.092E-03     114.971E-03
            1617     3.34650E-03     74.6107E-03    -112.569E+06    -159.789E+06    -68.8310E+06    -707.009E+03    -297.709E-03     593.873E-03    -296.164E-03     121.967E-03    -300.708E-03     596.105E-03    -296.113E-03     96.6455E-03
            1618     2.67751E-03     74.4481E-03    -120.095E+06    -188.795E+06    -88.8831E+06    -504.840E+03    -297.137E-03     593.276E-03    -296.140E-03     97.9501E-03    -299.096E-03     594.397E-03    -296.136E-03     77.8864E-03
            1619     2.00789E-03     74.3218E-03    -126.585E+06    -208.279E+06    -107.936E+06    -371.204E+03    -296.597E-03     592.722E-03    -296.125E-03     73.9876E-03    -297.771E-03     593.020E-03    -296.179E-03     59.0085E-03
            1620     1.33860E-03     74.2305E-03    -131.415E+06    -228.834E+06    -123.035E+06    -70.1381E+03    -296.284E-03     592.453E-03    -296.170E-03     50.2338E-03    -296.897E-03     592.145E-03    -296.262E-03     40.1816E-03
            1621     669.244E-06     74.1746E-03    -133.733E+06    -241.943E+06    -132.103E+06     44.7964E+03    -296.738E-03     592.514E-03    -295.777E-03     27.3338E-03    -297.015E-03     591.841E-03    -295.892E-03     21.8504E-03
            1622     12.7237E-03     77.2931E-03    -4.14495E+06     50.9772E+06     77.9703E+06     1.29171E+06    -293.601E-03     589.652E-03    -296.052E-03     132.122E-03    -300.765E-03     596.757E-03    -295.730E-03     90.4377E-03
            1623     12.0520E-03     77.0407E-03    -8.85807E+06     51.0718E+06     73.9962E+06     1.18119E+06    -293.748E-03     589.805E-03    -296.057E-03     195.148E-03    -305.241E-03     601.233E-03    -295.748E-03     141.577E-03
            1624     11.3838E-03     76.7622E-03    -13.4661E+06     40.9356E+06     69.7346E+06     597.737E+03    -295.356E-03     591.434E-03    -296.077E-03     216.156E-03    -308.472E-03     604.445E-03    -295.768E-03     159.648E-03
            1625     10.7110E-03     76.4408E-03    -18.2037E+06     31.7825E+06     71.9480E+06     151.474E+03    -296.921E-03     593.035E-03    -296.114E-03     241.124E-03    -312.219E-03     608.173E-03    -295.774E-03     180.504E-03
            1626     10.0439E-03     76.0871E-03    -23.8516E+06     24.7522E+06     71.7823E+06    -144.056E+03    -297.875E-03     594.020E-03    -296.146E-03     256.135E-03    -314.313E-03     610.253E-03    -295.788E-03     193.720E-03
            1627     9.37380E-03     75.7137E-03    -29.8242E+06     20.9979E+06     66.3963E+06    -9.34069E+03    -298.827E-03     595.003E-03    -296.176E-03     265.386E-03    -315.722E-03     611.673E-03    -295.831E-03     202.357E-03
            1628     8.70305E-03     75.3299E-03    -37.3141E+06     16.2461E+06     57.2434E+06     516.265E+03    -300.005E-03     596.205E-03    -296.200E-03     267.473E-03    -316.550E-03     612.509E-03    -295.883E-03     205.114E-03
            1629     8.03322E-03     74.9425E-03    -45.7984E+06     8.86320E+06     46.6644E+06     1.73800E+06    -300.761E-03     596.967E-03    -296.206E-03     261.678E-03    -316.157E-03     612.096E-03    -295.919E-03     201.513E-03
            1630     7.36374E-03     74.5696E-03    -55.1394E+06    -1.69451E+06     34.6333E+06     2.34585E+06    -300.893E-03     597.091E-03    -296.198E-03     250.166E-03    -314.617E-03     610.512E-03    -295.942E-03     193.430E-03
            1631     6.69449E-03     74.2148E-03    -64.7656E+06    -14.8937E+06     23.2260E+06     1.84494E+06    -300.650E-03     596.844E-03    -296.194E-03     233.672E-03    -312.367E-03     608.211E-03    -295.963E-03     181.405E-03
            1632     6.02457E-03     73.8877E-03    -73.9392E+06    -27.4298E+06     11.2819E+06     160.969E+03    -300.112E-03     596.299E-03    -296.187E-03     213.511E-03    -309.727E-03     605.522E-03    -295.984E-03     166.391E-03
            1633     5.35550E-03     73.5899E-03    -83.6050E+06    -51.4672E+06    -5.92269E+06    -1.87695E+06    -299.505E-03     595.678E-03    -296.174E-03     191.777E-03    -307.139E-03     602.850E-03    -296.007E-03     150.052E-03
            1634     4.68555E-03     73.3256E-03    -93.2523E+06    -88.3310E+06    -25.9034E+06    -2.40250E+06    -298.856E-03     595.025E-03    -296.169E-03     169.122E-03    -304.692E-03     600.291E-03    -296.035E-03     132.938E-03
            1635     4.01590E-03     73.0942E-03    -102.144E+06    -123.889E+06    -47.0822E+06    -1.89777E+06    -298.208E-03     594.371E-03    -296.163E-03     145.770E-03    -302.490E-03     597.987E-03    -296.070E-03     115.105E-03
            1636     3.34694E-03     72.8975E-03    -110.768E+06    -161.555E+06    -68.0143E+06    -1.58219E+06    -297.587E-03     593.757E-03    -296.170E-03     122.162E-03    -300.576E-03     595.977E-03    -296.115E-03     96.8506E-03
            1637     2.67712E-03     72.7354E-03    -118.549E+06    -190.089E+06    -88.2858E+06    -1.12736E+06    -297.009E-03     593.193E-03    -296.184E-03     98.2587E-03    -298.963E-03     594.307E-03    -296.178E-03     78.2071E-03
            1638     2.00772E-03     72.6092E-03    -125.231E+06    -209.491E+06    -107.291E+06    -684.456E+03    -296.663E-03     592.861E-03    -296.198E-03     74.0892E-03    -297.828E-03     593.150E-03    -296.250E-03     59.1286E-03
            1639     1.33806E-03     72.5175E-03    -130.189E+06    -229.851E+06    -122.150E+06    -532.917E+03    -296.475E-03     592.683E-03    -296.208E-03     49.9615E-03    -297.081E-03     592.365E-03    -296.297E-03     39.9008E-03
            1640     668.864E-06     72.4606E-03    -132.143E+06    -242.667E+06    -131.115E+06    -482.378E+03    -296.145E-03     592.512E-03    -296.367E-03     27.1899E-03    -296.412E-03     591.829E-03    -296.479E-03     21.7606E-03
            1641     12.7214E-03     75.5818E-03    -3.30402E+06     49.2874E+06     79.9454E+06     174.236E+03    -293.510E-03     589.596E-03    -296.086E-03     133.995E-03    -300.748E-03     596.766E-03    -295.753E-03     92.1216E-03
            1642     12.0535E-03     75.3257E-03    -6.87379E+06     50.8741E+06     77.9820E+06     1.09012E+06    -294.563E-03     590.648E-03    -296.085E-03     196.870E-03    -306.119E-03     602.134E-03    -295.759E-03     143.135E-03
            1643     11.3816E-03     75.0519E-03    -11.6353E+06     42.0477E+06     72.8136E+06     1.76622E+06    -295.597E-03     591.675E-03    -296.077E-03     216.532E-03    -308.686E-03     604.660E-03    -295.757E-03     160.119E-03
            1644     10.7145E-03     74.7264E-03    -17.6607E+06     34.4854E+06     72.4633E+06     766.655E+03    -296.360E-03     592.472E-03    -296.112E-03     240.476E-03    -311.604E-03     607.566E-03    -295.774E-03     180.073E-03
            1645     10.0429E-03     74.3745E-03    -23.8674E+06     26.6800E+06     71.8193E+06    -219.098E+03    -297.482E-03     593.656E-03    -296.173E-03     256.115E-03    -313.930E-03     609.905E-03    -295.818E-03     193.737E-03
            1646     9.37197E-03     74.0023E-03    -31.3020E+06     19.2096E+06     65.3660E+06    -230.420E+03    -299.206E-03     595.410E-03    -296.204E-03     265.116E-03    -316.110E-03     612.081E-03    -295.860E-03     201.948E-03
            1647     8.70310E-03     73.6141E-03    -39.1480E+06     13.6948E+06     56.4647E+06     630.766E+03    -300.333E-03     596.529E-03    -296.196E-03     266.575E-03    -316.856E-03     612.798E-03    -295.877E-03     204.151E-03
            1648     8.03424E-03     73.2307E-03    -46.4703E+06     6.04058E+06     46.4225E+06     1.99528E+06    -300.724E-03     596.908E-03    -296.184E-03     261.602E-03    -316.122E-03     612.028E-03    -295.893E-03     201.437E-03
            1649     7.36428E-03     72.8560E-03    -53.3675E+06    -3.25065E+06     36.1064E+06     2.88632E+06    -301.016E-03     597.191E-03    -296.174E-03     250.413E-03    -314.735E-03     610.604E-03    -295.912E-03     193.675E-03
            1650     6.69451E-03     72.5016E-03    -60.2311E+06    -11.0610E+06     28.4085E+06     2.95658E+06    -300.775E-03     596.941E-03    -296.166E-03     233.611E-03    -312.470E-03     608.300E-03    -295.920E-03     181.382E-03
            1651     6.02546E-03     72.1742E-03    -68.2641E+06    -20.9213E+06     18.1167E+06     2.35756E+06    -300.107E-03     596.262E-03    -296.155E-03     213.682E-03    -309.710E-03     605.495E-03    -295.935E-03     166.643E-03
            1652     5.35536E-03     71.8773E-03    -77.8325E+06    -46.8217E+06    -212.071E+03     1.51471E+06    -299.380E-03     595.528E-03    -296.148E-03     191.906E-03    -306.990E-03     602.695E-03    -295.968E-03     150.322E-03
            1653     4.68594E-03     71.6127E-03    -88.2229E+06    -87.3802E+06    -22.3384E+06     282.639E+03    -298.712E-03     594.872E-03    -296.160E-03     169.196E-03    -304.527E-03     600.128E-03    -296.017E-03     133.090E-03
            1654     4.01651E-03     71.3815E-03    -98.3379E+06    -124.384E+06    -44.5207E+06    -311.949E+03    -298.114E-03     594.288E-03    -296.174E-03     145.902E-03    -302.385E-03     597.898E-03    -296.074E-03     115.247E-03
            1655     3.34631E-03     71.1847E-03    -107.678E+06    -161.860E+06    -65.8111E+06    -282.056E+03    -297.569E-03     593.764E-03    -296.195E-03     122.003E-03    -300.543E-03     595.972E-03    -296.133E-03     96.7247E-03
            1656     2.67691E-03     71.0229E-03    -116.335E+06    -190.898E+06    -86.5938E+06    -245.982E+03    -297.129E-03     593.325E-03    -296.196E-03     97.7968E-03    -299.067E-03     594.424E-03    -296.184E-03     77.7528E-03
            1657     2.00743E-03     70.8955E-03    -123.386E+06    -210.539E+06    -105.739E+06    -108.976E+03    -296.807E-03     592.967E-03    -296.160E-03     73.6678E-03    -297.962E-03     593.244E-03    -296.205E-03     58.6807E-03
            1658     1.33892E-03     70.8037E-03    -128.130E+06    -230.414E+06    -120.337E+06    -345.116E+03    -296.524E-03     592.617E-03    -296.093E-03     49.7373E-03    -297.119E-03     592.288E-03    -296.175E-03     39.6956E-03
            1659     669.814E-06     70.7480E-03    -132.016E+06    -243.984E+06    -129.532E+06    -215.200E+03    -295.997E-03     592.189E-03    -296.193E-03     26.7308E-03    -296.261E-03     591.497E-03    -296.295E-03     21.2986E-03
            1660     12.7207E-03     73.8654E-03    -4.13744E+06     47.2382E+06     80.7615E+06    -1.29978E+06    -293.406E-03     589.499E-03    -296.093E-03     132.165E-03    -300.553E-03     596.565E-03    -295.752E-03     90.4879E-03
            1661     12.0500E-03     73.6113E-03    -8.94401E+06     47.0330E+06     77.1445E+06    -149.743E+03    -294.507E-03     590.591E-03    -296.084E-03     194.499E-03    -305.962E-03     601.958E-03    -295.754E-03     140.840E-03
            1662     11.3840E-03     73.3353E-03    -13.6265E+06     42.3528E+06     71.7989E+06     580.099E+03    -295.191E-03     591.264E-03    -296.073E-03     215.812E-03    -308.279E-03     604.246E-03    -295.756E-03     159.427E-03
            1663     10.7123E-03     73.0152E-03    -18.2859E+06     35.8203E+06     72.5502E+06     872.279E+03    -296.188E-03     592.315E-03    -296.127E-03     241.133E-03    -311.483E-03     607.462E-03    -295.790E-03     180.688E-03
            1664     10.0420E-03     72.6635E-03    -25.3345E+06     28.5879E+06     70.7801E+06     845.925E+03    -297.973E-03     594.145E-03    -296.172E-03     255.679E-03    -314.414E-03     610.392E-03    -295.822E-03     193.208E-03
            1665     9.37383E-03     72.2864E-03    -33.1252E+06     19.6896E+06     63.7287E+06     255.349E+03    -299.328E-03     595.502E-03    -296.175E-03     264.496E-03    -316.199E-03     612.141E-03    -295.837E-03     201.379E-03
            1666     8.70450E-03     71.9024E-03    -39.1310E+06     11.0830E+06     55.5345E+06    -79.5512E+03    -300.085E-03     596.261E-03    -296.177E-03     267.023E-03    -316.615E-03     612.531E-03    -295.858E-03     204.650E-03
            1667     8.03335E-03     71.5178E-03    -45.1814E+06     2.64375E+06     45.1399E+06    -3.91397E+03    -300.933E-03     597.103E-03    -296.170E-03     262.248E-03    -316.339E-03     612.227E-03    -295.882E-03     202.012E-03
            1668     7.36406E-03     71.1415E-03    -51.5896E+06    -4.24551E+06     36.9040E+06     479.877E+03    -301.179E-03     597.335E-03    -296.155E-03     250.382E-03    -314.864E-03     610.714E-03    -295.890E-03     193.683E-03
            1669     6.69509E-03     70.7883E-03    -59.2065E+06    -11.1195E+06     30.2051E+06     840.152E+03    -300.690E-03     596.839E-03    -296.149E-03     233.585E-03    -312.364E-03     608.175E-03    -295.896E-03     181.422E-03
            1670     6.02488E-03     70.4610E-03    -68.4510E+06    -21.5492E+06     17.9730E+06     1.39751E+06    -299.992E-03     596.133E-03    -296.141E-03     213.741E-03    -309.596E-03     605.366E-03    -295.921E-03     166.712E-03
            1671     5.35562E-03     70.1644E-03    -78.0418E+06    -45.6768E+06     294.388E+03     2.02201E+06    -299.329E-03     595.473E-03    -296.144E-03     192.032E-03    -306.951E-03     602.655E-03    -295.963E-03     150.430E-03
            1672     4.68569E-03     69.9000E-03    -87.9203E+06    -84.5254E+06    -20.4840E+06     2.15878E+06    -298.762E-03     594.919E-03    -296.157E-03     169.153E-03    -304.589E-03     600.193E-03    -296.009E-03     133.033E-03
            1673     4.01568E-03     69.6687E-03    -97.8358E+06    -122.247E+06    -42.9502E+06     1.63067E+06    -298.156E-03     594.313E-03    -296.157E-03     145.525E-03    -302.424E-03     597.925E-03    -296.053E-03     114.896E-03
            1674     3.34677E-03     69.4717E-03    -107.450E+06    -160.716E+06    -64.8757E+06     1.26668E+06    -297.668E-03     593.818E-03    -296.151E-03     121.629E-03    -300.637E-03     596.024E-03    -296.086E-03     96.3732E-03
            1675     2.67754E-03     69.3096E-03    -115.955E+06    -190.321E+06     -85.849E+06     943.686E+03    -297.232E-03     593.341E-03    -296.109E-03     97.7287E-03    -299.170E-03     594.441E-03    -296.094E-03     77.6834E-03
            1676     2.00857E-03     69.1826E-03    -122.768E+06    -209.858E+06    -104.981E+06     409.253E+03    -296.681E-03     592.733E-03    -296.052E-03     73.8069E-03    -297.837E-03     593.013E-03    -296.094E-03     58.8378E-03
            1677     1.33841E-03     69.0911E-03    -128.317E+06    -230.183E+06    -119.772E+06     375.484E+03    -296.212E-03     592.273E-03    -296.060E-03     50.0298E-03    -296.811E-03     591.946E-03    -296.139E-03     40.0025E-03
            1678     668.936E-06     69.0349E-03    -131.140E+06    -243.578E+06    -129.570E+06     137.762E+03    -296.733E-03     592.268E-03    -295.534E-03     27.1421E-03    -296.997E-03     591.578E-03    -295.639E-03     21.6524E-03
            1679     12.7241E-03     72.1575E-03    -5.17928E+06     46.4739E+06     79.4643E+06    -692.319E+03    -294.074E-03     590.093E-03    -296.019E-03     132.481E-03    -301.224E-03     597.159E-03    -295.682E-03     90.7932E-03
            1680     12.0558E-03     71.8950E-03    -9.51882E+06     44.1329E+06     74.3133E+06    -513.078E+03    -293.446E-03     589.461E-03    -296.015E-03     194.645E-03    -304.888E-03     600.811E-03    -295.694E-03     141.207E-03
            1681     11.3821E-03     71.6276E-03    -13.9898E+06     42.0046E+06     69.5605E+06    -375.138E+03    -294.378E-03     590.435E-03    -296.056E-03     215.790E-03    -307.460E-03     603.414E-03    -295.749E-03     159.534E-03
            1682     10.7119E-03     71.3013E-03    -20.0134E+06     32.8369E+06     69.4349E+06         729.881    -296.607E-03     592.727E-03    -296.119E-03     240.725E-03    -311.893E-03     607.856E-03    -295.791E-03     180.147E-03
            1683     10.0442E-03     70.9481E-03    -25.5625E+06     28.5316E+06     69.2774E+06     800.423E+03    -298.069E-03     594.215E-03    -296.146E-03     255.646E-03    -314.511E-03     610.467E-03    -295.804E-03     193.146E-03
            1684     9.37370E-03     70.5747E-03    -30.6789E+06     22.4581E+06     64.1936E+06     528.063E+03    -298.949E-03     595.115E-03    -296.166E-03     265.465E-03    -315.851E-03     611.802E-03    -295.833E-03     202.405E-03
            1685     8.70213E-03     70.1900E-03    -37.4712E+06     11.7073E+06     55.4746E+06    -665.908E+03    -300.384E-03     596.565E-03    -296.181E-03     267.501E-03    -316.915E-03     612.845E-03    -295.867E-03     205.077E-03
            1686     8.03409E-03     69.8023E-03    -44.5414E+06     1.40124E+06     45.3750E+06    -1.26768E+06    -301.295E-03     597.449E-03    -296.154E-03     261.673E-03    -316.658E-03     612.528E-03    -295.865E-03     201.426E-03
            1687     7.36495E-03     69.4293E-03    -52.5476E+06    -5.58036E+06     35.3027E+06    -1.04655E+06    -301.042E-03     597.158E-03    -296.115E-03     249.877E-03    -314.709E-03     610.515E-03    -295.855E-03     193.193E-03
            1688     6.69455E-03     69.0746E-03    -61.2866E+06    -13.2644E+06     27.3996E+06    -377.823E+03    -300.460E-03     596.574E-03    -296.115E-03     233.358E-03    -312.139E-03     607.909E-03    -295.869E-03     181.184E-03
            1689     6.02554E-03     68.7483E-03    -70.6237E+06    -24.1915E+06     16.1031E+06     411.991E+03    -299.879E-03     596.002E-03    -296.122E-03     213.478E-03    -309.486E-03     605.225E-03    -295.904E-03     166.428E-03
            1690     5.35522E-03     68.4518E-03    -80.8702E+06    -46.8764E+06    -1.47891E+06     992.327E+03    -299.361E-03     595.480E-03    -296.120E-03     191.786E-03    -306.993E-03     602.664E-03    -295.942E-03     150.131E-03
            1691     4.68591E-03     68.1864E-03    -90.9332E+06    -83.3682E+06    -22.0398E+06     1.36436E+06    -298.812E-03     594.926E-03    -296.114E-03     168.793E-03    -304.643E-03     600.202E-03    -295.971E-03     132.675E-03
            1692     4.01706E-03     67.9564E-03    -100.512E+06    -120.883E+06    -44.3007E+06     1.39030E+06    -298.209E-03     594.303E-03    -296.094E-03     145.447E-03    -302.488E-03     597.924E-03    -295.994E-03     114.818E-03
            1693     3.34701E-03     67.7587E-03    -109.225E+06    -159.535E+06    -65.8784E+06     1.13436E+06    -297.619E-03     593.694E-03    -296.075E-03     121.867E-03    -300.601E-03     595.913E-03    -296.015E-03     96.6133E-03
            1694     2.67750E-03     67.5968E-03    -117.003E+06    -188.885E+06    -86.4123E+06     709.392E+03    -297.036E-03     593.089E-03    -296.053E-03     97.9940E-03    -298.981E-03     594.199E-03    -296.042E-03     77.9779E-03
            1695     2.00770E-03     67.4696E-03    -123.784E+06    -208.704E+06    -105.485E+06     600.668E+03    -296.543E-03     592.581E-03    -296.038E-03     73.9502E-03    -297.705E-03     592.869E-03    -296.084E-03     59.0150E-03
            1696     1.33885E-03     67.3794E-03    -128.653E+06    -229.403E+06    -120.424E+06     318.034E+03    -296.227E-03     592.293E-03    -296.065E-03     50.0074E-03    -296.829E-03     591.972E-03    -296.148E-03     39.9519E-03
            1697     669.171E-06     67.3219E-03    -131.927E+06    -242.393E+06    -129.177E+06    -22.7529E+03    -296.434E-03     592.279E-03    -295.846E-03     27.6867E-03    -296.706E-03     591.598E-03    -295.949E-03     22.1877E-03
            1698     12.7231E-03     70.4365E-03    -3.77939E+06     49.1242E+06     78.5866E+06    -155.389E+03    -293.475E-03     589.528E-03    -296.054E-03     135.415E-03    -300.761E-03     596.748E-03    -295.726E-03     93.4741E-03
            1699     12.0515E-03     70.1890E-03    -8.59871E+06     43.7560E+06     74.1216E+06    -958.964E+03    -294.017E-03     590.086E-03    -296.069E-03     197.237E-03    -305.594E-03     601.573E-03    -295.750E-03     143.502E-03
            1700     11.3827E-03     69.9135E-03    -13.5954E+06     38.1856E+06     68.7071E+06     88.9880E+03    -295.514E-03     591.587E-03    -296.074E-03     216.900E-03    -308.650E-03     604.612E-03    -295.766E-03     160.368E-03
            1701     10.7142E-03     69.5883E-03    -17.9094E+06     32.8121E+06     70.0116E+06     760.656E+03    -296.617E-03     592.728E-03    -296.110E-03     241.504E-03    -311.901E-03     607.861E-03    -295.782E-03     181.005E-03
            1702     10.0425E-03     69.2350E-03    -22.8278E+06     29.0339E+06     70.4838E+06     392.012E+03    -297.664E-03     593.825E-03    -296.161E-03     256.292E-03    -314.103E-03     610.082E-03    -295.818E-03     193.903E-03
            1703     9.37204E-03     68.8635E-03    -28.9412E+06     22.5908E+06     64.8183E+06     204.890E+03    -299.586E-03     595.758E-03    -296.172E-03     264.860E-03    -316.474E-03     612.436E-03    -295.839E-03     201.617E-03
            1704     8.70438E-03     68.4743E-03    -36.4850E+06     14.1559E+06     55.6723E+06     775.866E+03    -300.850E-03     596.979E-03    -296.129E-03     266.248E-03    -317.325E-03     613.214E-03    -295.818E-03     203.802E-03
            1705     8.03452E-03     68.0894E-03    -45.3146E+06     3.27707E+06     44.3892E+06     375.792E+03    -300.916E-03     596.995E-03    -296.080E-03     260.862E-03    -316.252E-03     612.054E-03    -295.797E-03     200.717E-03
            1706     7.36458E-03     67.7154E-03    -53.9162E+06    -5.62533E+06     33.9818E+06    -202.137E+03    -300.704E-03     596.765E-03    -296.061E-03     249.734E-03    -314.381E-03     610.132E-03    -295.805E-03     193.075E-03
            1707     6.69578E-03     67.3626E-03    -62.7440E+06    -14.1509E+06     25.7278E+06    -275.912E+03    -300.385E-03     596.457E-03    -296.072E-03     233.360E-03    -312.068E-03     607.793E-03    -295.832E-03     181.189E-03
            1708     6.02505E-03     67.0357E-03    -72.9248E+06    -25.8537E+06     14.2794E+06    -74.4965E+03    -299.929E-03     596.007E-03    -296.077E-03     213.395E-03    -309.535E-03     605.220E-03    -295.863E-03     166.351E-03
            1709     5.35618E-03     66.7384E-03    -82.9411E+06    -47.8833E+06    -3.18828E+06     113.048E+03    -299.323E-03     595.391E-03    -296.067E-03     191.746E-03    -306.958E-03     602.570E-03    -295.894E-03     150.099E-03
            1710     4.68641E-03     66.4744E-03    -92.0899E+06    -83.5505E+06    -23.4940E+06     297.618E+03    -298.679E-03     594.747E-03    -296.068E-03     169.097E-03    -304.517E-03     600.030E-03    -295.931E-03     132.993E-03
            1711     4.01610E-03     66.2428E-03    -101.104E+06    -120.956E+06    -45.3261E+06     228.545E+03    -298.124E-03     594.190E-03    -296.066E-03     145.829E-03    -302.409E-03     597.818E-03    -295.971E-03     115.199E-03
            1712     3.34716E-03     66.0465E-03    -109.573E+06    -159.121E+06    -66.4021E+06    -37.4323E+03    -297.556E-03     593.621E-03    -296.065E-03     122.141E-03    -300.544E-03     595.848E-03    -296.007E-03     96.8742E-03
            1713     2.67759E-03     65.8841E-03    -117.189E+06    -188.565E+06    -86.7051E+06     29.6899E+03    -296.989E-03     593.048E-03    -296.058E-03     98.0780E-03    -298.937E-03     594.161E-03    -296.049E-03     78.0537E-03
            1714     2.00826E-03     65.7578E-03    -123.701E+06    -208.379E+06    -105.724E+06     4.72655E+03    -296.596E-03     592.637E-03    -296.042E-03     73.9074E-03    -297.759E-03     592.928E-03    -296.089E-03     58.9275E-03
            1715     1.33836E-03     65.6655E-03    -128.617E+06    -228.618E+06    -120.762E+06     30.6275E+03    -296.411E-03     592.406E-03    -295.995E-03     49.9599E-03    -297.013E-03     592.090E-03    -296.081E-03     39.8906E-03
            1716     669.645E-06     65.6097E-03    -132.577E+06    -242.709E+06    -130.197E+06     63.8826E+03    -295.843E-03     592.007E-03    -296.165E-03     27.2628E-03    -296.114E-03     591.325E-03    -296.272E-03     21.8033E-03
            1717     12.7191E-03     68.7282E-03    -4.04975E+06     52.4907E+06     77.9390E+06     21.6505E+03    -292.726E-03     588.830E-03    -296.105E-03     133.183E-03    -299.917E-03     595.968E-03    -295.785E-03     91.4521E-03
            1718     12.0506E-03     68.4701E-03    -8.43287E+06     44.4893E+06     73.2321E+06    -1.00910E+06    -294.449E-03     590.572E-03    -296.124E-03     194.665E-03    -305.890E-03     601.929E-03    -295.810E-03     141.037E-03
            1719     11.3827E-03     68.1983E-03    -12.3293E+06     34.3528E+06     68.7689E+06    -787.359E+03    -295.661E-03     591.779E-03    -296.118E-03     216.392E-03    -308.757E-03     604.755E-03    -295.806E-03     159.895E-03
            1720     10.7118E-03     67.8758E-03    -16.8834E+06     32.6718E+06     71.2451E+06    -287.634E+03    -296.705E-03     592.855E-03    -296.150E-03     241.757E-03    -312.031E-03     608.030E-03    -295.817E-03     181.116E-03
            1721     10.0423E-03     67.5240E-03    -23.1602E+06     28.3549E+06     71.1758E+06    -79.1766E+03    -298.594E-03     594.757E-03    -296.162E-03     255.631E-03    -315.034E-03     611.008E-03    -295.814E-03     192.988E-03
            1722     9.37443E-03     67.1462E-03    -30.3442E+06     21.7794E+06     65.1939E+06     562.688E+03    -300.068E-03     596.181E-03    -296.113E-03     264.096E-03    -316.933E-03     612.827E-03    -295.775E-03     200.801E-03
            1723     8.70487E-03     66.7615E-03    -37.7772E+06     13.8379E+06     55.9367E+06     1.28451E+06    -300.500E-03     596.555E-03    -296.056E-03     266.518E-03    -317.013E-03     612.821E-03    -295.741E-03     204.085E-03
            1724     8.03536E-03     66.3770E-03    -45.1945E+06     5.39048E+06     45.2514E+06     2.13500E+06    -300.656E-03     596.683E-03    -296.027E-03     261.464E-03    -316.024E-03     611.779E-03    -295.743E-03     201.369E-03
            1725     7.36573E-03     66.0036E-03    -53.2885E+06    -3.51683E+06     35.1592E+06     1.92837E+06    -300.693E-03     596.715E-03    -296.022E-03     249.806E-03    -314.359E-03     610.077E-03    -295.764E-03     193.236E-03
            1726     6.69473E-03     65.6497E-03    -62.4644E+06    -13.5142E+06     26.1027E+06     1.28427E+06    -300.408E-03     596.438E-03    -296.029E-03     233.177E-03    -312.072E-03     607.756E-03    -295.789E-03     181.078E-03
            1727     6.02631E-03     65.3225E-03    -71.5975E+06    -24.5931E+06     14.5239E+06     767.848E+03    -299.840E-03     595.871E-03    -296.032E-03     213.439E-03    -309.434E-03     605.082E-03    -295.819E-03     166.448E-03
            1728     5.35585E-03     65.0265E-03    -80.8796E+06    -46.9555E+06    -2.39478E+06     231.120E+03    -299.165E-03     595.204E-03    -296.038E-03     191.928E-03    -306.791E-03     602.382E-03    -295.865E-03     150.337E-03
            1729     4.68597E-03     64.7615E-03    -90.4652E+06    -84.1262E+06    -22.8006E+06    -218.892E+03    -298.606E-03     594.664E-03    -296.058E-03     169.222E-03    -304.438E-03     599.942E-03    -295.919E-03     133.125E-03
            1730     4.01696E-03     64.5308E-03    -99.5553E+06    -120.905E+06    -44.4014E+06    -214.475E+03    -298.068E-03     594.135E-03    -296.067E-03     145.718E-03    -302.344E-03     597.757E-03    -295.969E-03     115.097E-03
            1731     3.34674E-03     64.3334E-03    -108.499E+06    -159.149E+06    -65.8295E+06     9.41227E+03    -297.521E-03     593.592E-03    -296.072E-03     121.903E-03    -300.501E-03     595.813E-03    -296.013E-03     96.6358E-03
            1732     2.67733E-03     64.1719E-03    -116.781E+06    -189.012E+06    -86.6929E+06    -16.5268E+03    -297.062E-03     593.118E-03    -296.056E-03     97.9939E-03    -299.010E-03     594.232E-03    -296.046E-03     77.9304E-03
            1733     2.00786E-03     64.0444E-03    -123.384E+06    -208.209E+06    -105.574E+06     31.8155E+03    -296.673E-03     592.683E-03    -296.010E-03     73.9321E-03    -297.834E-03     592.974E-03    -296.057E-03     58.9532E-03
            1734     1.33911E-03     63.9534E-03    -128.984E+06    -228.711E+06    -120.792E+06     77.1647E+03    -296.302E-03     592.269E-03    -295.967E-03     50.0384E-03    -296.906E-03     591.954E-03    -296.052E-03     39.9838E-03
            1735     669.306E-06     63.8964E-03    -131.778E+06    -242.266E+06    -130.134E+06     261.042E+03    -296.195E-03     591.991E-03    -295.796E-03     27.1613E-03    -296.464E-03     591.311E-03    -295.904E-03     21.6667E-03
            1736     12.7238E-03     67.0152E-03    -3.67805E+06     54.4579E+06     77.6480E+06    -444.648E+03    -293.485E-03     589.540E-03    -296.055E-03     133.009E-03    -300.652E-03     596.662E-03    -295.740E-03     91.2829E-03
            1737     12.0534E-03     66.7578E-03    -7.66674E+06     45.6366E+06     73.7256E+06    -539.987E+03    -293.559E-03     589.642E-03    -296.084E-03     194.524E-03    -304.943E-03     600.948E-03    -295.770E-03     141.231E-03
            1738     11.3812E-03     66.4861E-03    -12.5300E+06     33.2883E+06     68.7894E+06    -1.09866E+06    -295.132E-03     591.251E-03    -296.119E-03     215.496E-03    -308.173E-03     604.166E-03    -295.805E-03     159.156E-03
            1739     10.7120E-03     66.1624E-03    -18.5756E+06     30.8148E+06     70.1362E+06    -1.28194E+06    -297.500E-03     593.628E-03    -296.128E-03     240.286E-03    -312.797E-03     608.765E-03    -295.795E-03     179.412E-03
            1740     10.0442E-03     65.8063E-03    -25.2425E+06     26.1425E+06     69.7602E+06    -20.5333E+03    -298.782E-03     594.876E-03    -296.094E-03     254.959E-03    -315.206E-03     611.101E-03    -295.747E-03     192.287E-03
            1741     9.37468E-03     65.4337E-03    -32.0706E+06     21.0405E+06     64.3603E+06     971.079E+03    -299.440E-03     595.499E-03    -296.059E-03     264.796E-03    -316.322E-03     612.154E-03    -295.721E-03     201.669E-03
            1742     8.70462E-03     65.0484E-03    -39.3351E+06     13.1577E+06     55.9896E+06     956.857E+03    -300.232E-03     596.275E-03    -296.043E-03     266.937E-03    -316.755E-03     612.543E-03    -295.725E-03     204.580E-03
            1743     8.03470E-03     64.6636E-03    -46.4219E+06     4.36406E+06     45.4071E+06     769.147E+03    -300.759E-03     596.783E-03    -296.024E-03     261.448E-03    -316.119E-03     611.862E-03    -295.736E-03     201.377E-03
            1744     7.36489E-03     64.2904E-03    -53.5204E+06    -4.11554E+06     35.1542E+06     746.432E+03    -300.836E-03     596.843E-03    -296.006E-03     250.013E-03    -314.507E-03     610.207E-03    -295.747E-03     193.421E-03
            1745     6.69676E-03     63.9372E-03    -60.9984E+06    -12.7196E+06     27.3532E+06     1.04054E+06    -300.410E-03     596.422E-03    -296.011E-03     233.548E-03    -312.081E-03     607.751E-03    -295.768E-03     181.454E-03
            1746     6.02551E-03     63.6108E-03    -69.3030E+06    -23.0769E+06     16.5930E+06     1.11705E+06    -299.768E-03     595.793E-03    -296.024E-03     213.773E-03    -309.362E-03     605.010E-03    -295.807E-03     166.818E-03
            1747     5.35611E-03     63.3136E-03    -78.8107E+06    -45.6666E+06    -641.769E+03     1.01998E+06    -299.239E-03     595.271E-03    -296.032E-03     191.945E-03    -306.857E-03     602.449E-03    -295.855E-03     150.360E-03
            1748     4.68652E-03     63.0496E-03    -88.9081E+06    -83.0601E+06    -21.6855E+06     736.961E+03    -298.687E-03     594.724E-03    -296.037E-03     169.038E-03    -304.508E-03     599.998E-03    -295.897E-03     132.952E-03
            1749     4.01624E-03     62.8174E-03    -99.0444E+06    -120.557E+06    -44.0807E+06     587.830E+03    -298.088E-03     594.118E-03    -296.031E-03     145.536E-03    -302.358E-03     597.737E-03    -295.933E-03     114.929E-03
            1750     3.34730E-03     62.6216E-03    -108.079E+06    -158.772E+06    -65.2052E+06     578.046E+03    -297.543E-03     593.565E-03    -296.022E-03     121.645E-03    -300.520E-03     595.783E-03    -295.961E-03     96.3793E-03
            1751     2.67770E-03     62.4588E-03    -116.247E+06    -188.359E+06    -85.7058E+06     447.078E+03    -297.004E-03     592.999E-03    -295.995E-03     97.7248E-03    -298.947E-03     594.109E-03    -295.982E-03     77.6861E-03
            1752     2.00842E-03     62.3322E-03    -123.867E+06    -208.128E+06    -105.264E+06     387.561E+03    -296.547E-03     592.503E-03    -295.956E-03     73.7903E-03    -297.709E-03     592.792E-03    -296.001E-03     58.8403E-03
            1753     1.33844E-03     62.2404E-03    -128.911E+06    -228.258E+06    -120.010E+06     283.090E+03    -296.218E-03     592.152E-03    -295.934E-03     49.8123E-03    -296.823E-03     591.837E-03    -296.016E-03     39.7442E-03
            1754     669.234E-06     62.1851E-03    -131.280E+06    -241.545E+06    -129.565E+06     106.080E+03    -296.352E-03     591.936E-03    -295.583E-03     27.1362E-03    -296.621E-03     591.257E-03    -295.690E-03     21.6391E-03
            1755     12.7219E-03     65.3014E-03    -5.06727E+06     54.7553E+06     76.6791E+06    -697.401E+03    -293.446E-03     589.495E-03    -296.050E-03     134.547E-03    -300.697E-03     596.701E-03    -295.738E-03     92.6460E-03
            1756     12.0515E-03     65.0471E-03    -9.92915E+06     45.3949E+06     72.7168E+06    -579.614E+03    -294.118E-03     590.186E-03    -296.068E-03     195.773E-03    -305.603E-03     601.586E-03    -295.756E-03     142.188E-03
            1757     11.3827E-03     64.7743E-03    -15.6557E+06     33.9727E+06     67.4087E+06    -776.591E+03    -296.093E-03     592.149E-03    -296.056E-03     215.791E-03    -309.173E-03     605.099E-03    -295.746E-03     159.219E-03
            1758     10.7145E-03     64.4443E-03    -21.5273E+06     30.0410E+06     68.0910E+06    -855.626E+03    -297.264E-03     593.304E-03    -296.040E-03     240.339E-03    -312.534E-03     608.407E-03    -295.712E-03     179.647E-03
            1759     10.0447E-03     64.0951E-03    -26.9422E+06     24.1072E+06     67.6458E+06    -641.826E+03    -297.982E-03     594.024E-03    -296.042E-03     255.506E-03    -314.400E-03     610.236E-03    -295.700E-03     193.055E-03
            1760     9.37385E-03     63.7209E-03    -33.0752E+06     19.5141E+06     62.8538E+06    -285.512E+03    -299.278E-03     595.321E-03    -296.043E-03     264.807E-03    -316.154E-03     611.966E-03    -295.709E-03     201.694E-03
            1761     8.70465E-03     63.3343E-03    -39.6055E+06     12.6432E+06     54.6564E+06    -103.204E+03    -300.199E-03     596.228E-03    -296.029E-03     266.302E-03    -316.680E-03     612.454E-03    -295.716E-03     204.005E-03
            1762     8.03537E-03     62.9517E-03    -46.4131E+06     4.25633E+06     43.4298E+06    -619.654E+03    -300.626E-03     596.633E-03    -296.007E-03     261.294E-03    -315.978E-03     611.709E-03    -295.729E-03     201.213E-03
            1763     7.36591E-03     62.5772E-03    -53.7453E+06    -4.43824E+06     33.4361E+06    -1.04456E+06    -300.649E-03     596.655E-03    -296.006E-03     250.191E-03    -314.324E-03     610.026E-03    -295.754E-03     193.595E-03
            1764     6.69453E-03     62.2244E-03    -61.9741E+06    -14.2465E+06     25.9257E+06    -1.14260E+06    -300.370E-03     596.399E-03    -296.029E-03     233.730E-03    -312.046E-03     607.729E-03    -295.789E-03     181.606E-03
            1765     6.02603E-03     61.8980E-03    -71.0841E+06    -25.2996E+06     15.1770E+06    -436.245E+03    -300.006E-03     596.041E-03    -296.035E-03     213.825E-03    -309.615E-03     605.264E-03    -295.819E-03     166.771E-03
            1766     5.35599E-03     61.6012E-03    -80.7233E+06    -46.3419E+06    -1.49171E+06     544.949E+03    -299.415E-03     595.431E-03    -296.017E-03     191.851E-03    -307.042E-03     602.612E-03    -295.840E-03     150.225E-03
            1767     4.68636E-03     61.3364E-03    -90.5368E+06    -82.1765E+06    -22.1798E+06     971.110E+03    -298.734E-03     594.734E-03    -296.000E-03     168.940E-03    -304.560E-03     600.012E-03    -295.861E-03     132.866E-03
            1768     4.01739E-03     61.1060E-03    -99.6851E+06    -119.628E+06    -44.1096E+06     716.621E+03    -298.081E-03     594.065E-03    -295.984E-03     145.623E-03    -302.358E-03     597.691E-03    -295.886E-03     115.015E-03
            1769     3.34728E-03     60.9081E-03    -108.442E+06    -158.307E+06    -65.2174E+06     248.095E+03    -297.502E-03     593.476E-03    -295.974E-03     121.923E-03    -300.484E-03     595.700E-03    -295.913E-03     96.6640E-03
            1770     2.67802E-03     60.7471E-03    -116.673E+06    -187.904E+06    -85.4823E+06     289.505E+03    -296.961E-03     592.913E-03    -295.952E-03     98.0592E-03    -298.910E-03     594.028E-03    -295.938E-03     78.0231E-03
            1771     2.00814E-03     60.6197E-03    -123.411E+06    -207.458E+06    -104.642E+06     307.667E+03    -296.507E-03     592.425E-03    -295.918E-03     74.0692E-03    -297.673E-03     592.720E-03    -295.961E-03     59.1091E-03
            1772     1.33921E-03     60.5284E-03    -128.580E+06    -228.013E+06    -119.821E+06     188.921E+03    -296.230E-03     592.112E-03    -295.882E-03     49.8676E-03    -296.833E-03     591.797E-03    -295.964E-03     39.8350E-03
            1773     669.759E-06     60.4722E-03    -132.160E+06    -241.383E+06    -129.237E+06     33.0865E+03    -296.131E-03     591.802E-03    -295.671E-03     27.2622E-03    -296.405E-03     591.125E-03    -295.775E-03     21.7557E-03
            1774     12.7212E-03     63.5879E-03    -4.70714E+06     53.9794E+06     78.2999E+06     1.15544E+06    -293.531E-03     589.581E-03    -296.050E-03     132.335E-03    -300.705E-03     596.703E-03    -295.730E-03     90.5355E-03
            1775     12.0522E-03     63.3337E-03    -10.1488E+06     46.2910E+06     72.3548E+06     1.27223E+06    -294.837E-03     590.863E-03    -296.026E-03     194.342E-03    -306.251E-03     602.196E-03    -295.717E-03     140.780E-03
            1776     11.3842E-03     63.0555E-03    -15.3565E+06     36.0646E+06     66.9492E+06     281.419E+03    -295.951E-03     591.944E-03    -295.992E-03     216.177E-03    -309.030E-03     604.902E-03    -295.688E-03     159.675E-03
            1777     10.7142E-03     62.7345E-03    -19.6645E+06     31.1676E+06      68.728E+06    -230.542E+03    -296.624E-03     592.632E-03    -296.008E-03     241.095E-03    -311.915E-03     607.764E-03    -295.681E-03     180.499E-03
            1778     10.0431E-03     62.3816E-03    -25.0862E+06     23.3984E+06     68.0807E+06    -885.328E+03    -298.077E-03     594.108E-03    -296.031E-03     255.557E-03    -314.490E-03     610.318E-03    -295.688E-03     193.071E-03
            1779     9.37526E-03     62.0066E-03    -31.1312E+06     18.0132E+06     63.4967E+06    -863.497E+03    -299.266E-03     595.294E-03    -296.028E-03     264.448E-03    -316.115E-03     611.913E-03    -295.692E-03     201.349E-03
            1780     8.70533E-03     61.6232E-03    -37.3946E+06     13.1724E+06     56.0523E+06    -400.213E+03    -299.970E-03     595.996E-03    -296.026E-03     266.852E-03    -316.457E-03     612.234E-03    -295.710E-03     204.605E-03
            1781     8.03493E-03     61.2378E-03    -44.6782E+06     4.83538E+06     45.0454E+06    -275.583E+03    -300.611E-03     596.635E-03    -296.024E-03     261.881E-03    -315.978E-03     611.730E-03    -295.741E-03     201.795E-03
            1782     7.36465E-03     60.8653E-03    -52.5638E+06    -3.76172E+06     35.0562E+06     98.3438E+03    -300.747E-03     596.770E-03    -296.024E-03     250.015E-03    -314.416E-03     610.138E-03    -295.767E-03     193.414E-03
            1783     6.69608E-03     60.5122E-03    -61.6101E+06    -14.0784E+06     26.5407E+06     238.905E+03    -300.511E-03     596.539E-03    -296.028E-03     233.217E-03    -312.171E-03     607.853E-03    -295.785E-03     181.085E-03
            1784     6.02540E-03     60.1845E-03    -71.5955E+06    -26.1690E+06     14.1919E+06    -50.4425E+03    -300.011E-03     596.024E-03    -296.013E-03     213.332E-03    -309.603E-03     605.227E-03    -295.800E-03     166.296E-03
            1785     5.35643E-03     59.8883E-03    -81.3923E+06    -47.4168E+06    -2.32253E+06    -184.265E+03    -299.309E-03     595.305E-03    -295.996E-03     191.728E-03    -306.927E-03     602.472E-03    -295.821E-03     150.138E-03
            1786     4.68682E-03     59.6242E-03    -90.6125E+06    -82.6449E+06    -21.7605E+06    -258.253E+03    -298.679E-03     594.673E-03    -295.994E-03     169.234E-03    -304.513E-03     599.955E-03    -295.852E-03     133.140E-03
            1787     4.01662E-03     59.3929E-03    -99.5619E+06    -120.051E+06    -43.5839E+06    -207.635E+03    -298.092E-03     594.077E-03    -295.984E-03     145.922E-03    -302.375E-03     597.706E-03    -295.884E-03     115.293E-03
            1788     3.34742E-03     59.1966E-03    -108.323E+06    -158.045E+06    -65.2171E+06     155.875E+03    -297.499E-03     593.472E-03    -295.973E-03     122.011E-03    -300.480E-03     595.697E-03    -295.913E-03     96.7669E-03
            1789     2.67747E-03     59.0342E-03    -116.433E+06    -187.591E+06    -85.9842E+06    -64.0462E+03    -296.974E-03     592.922E-03    -295.947E-03     97.9272E-03    -298.921E-03     594.039E-03    -295.936E-03     77.8861E-03
            1790     2.00845E-03     58.9077E-03    -123.112E+06    -207.567E+06    -104.872E+06    -83.5360E+03    -296.452E-03     592.374E-03    -295.922E-03     74.0004E-03    -297.614E-03     592.667E-03    -295.967E-03     59.0415E-03
            1791     1.33853E-03     58.8156E-03    -127.626E+06    -227.450E+06    -119.409E+06     105.460E+03    -296.131E-03     592.071E-03    -295.940E-03     50.1823E-03    -296.731E-03     591.757E-03    -296.022E-03     40.1556E-03
            1792     669.131E-06     58.7605E-03    -131.828E+06    -241.419E+06    -129.522E+06    -49.6334E+03    -296.101E-03     592.007E-03    -295.907E-03     27.1574E-03    -296.372E-03     591.330E-03    -296.013E-03     21.6831E-03
            1793     12.7240E-03     61.8764E-03    -4.17775E+06     51.1862E+06     78.8212E+06     1.74455E+06    -294.216E-03     590.210E-03    -295.995E-03     132.527E-03    -301.386E-03     597.319E-03    -295.669E-03     90.7411E-03
            1794     12.0547E-03     61.6181E-03    -7.71762E+06     49.0044E+06     74.8268E+06     2.06231E+06    -294.343E-03     590.311E-03    -295.968E-03     195.447E-03    -305.770E-03     601.668E-03    -295.654E-03     142.025E-03
            1795     11.3836E-03     61.3447E-03    -11.0788E+06     40.3013E+06     70.1208E+06     1.26712E+06    -295.307E-03     591.275E-03    -295.968E-03     216.100E-03    -308.344E-03     604.213E-03    -295.660E-03     159.812E-03
            1796     10.7130E-03     61.0211E-03    -16.3211E+06     31.3637E+06     70.7866E+06     499.714E+03    -296.700E-03     592.699E-03    -295.999E-03     240.371E-03    -311.949E-03     607.796E-03    -295.667E-03     179.794E-03
            1797     10.0457E-03     60.6669E-03    -22.5870E+06     24.3842E+06     70.0902E+06     420.591E+03    -297.946E-03     593.968E-03    -296.021E-03     255.574E-03    -314.354E-03     610.178E-03    -295.673E-03     193.131E-03
            1798     9.37452E-03     60.2954E-03    -29.2192E+06     18.5481E+06     64.7135E+06     77.3434E+03    -298.998E-03     595.031E-03    -296.033E-03     264.770E-03    -315.835E-03     611.643E-03    -295.694E-03     201.778E-03
            1799     8.70403E-03     59.9098E-03    -36.6541E+06     12.5345E+06     56.5231E+06    -76.2982E+03    -300.078E-03     596.118E-03    -296.040E-03     266.777E-03    -316.549E-03     612.339E-03    -295.722E-03     204.520E-03
            1800     8.03460E-03     59.5254E-03    -44.4754E+06     5.11524E+06     45.7787E+06     511.807E+03    -300.699E-03     596.726E-03    -296.027E-03     261.126E-03    -316.031E-03     611.786E-03    -295.741E-03     201.067E-03
            1801     7.36562E-03     59.1519E-03    -52.7830E+06    -4.11652E+06     35.1775E+06     871.555E+03    -300.832E-03     596.842E-03    -296.009E-03     249.479E-03    -314.470E-03     610.176E-03    -295.751E-03     192.927E-03
            1802     6.69532E-03     58.7987E-03    -61.1369E+06    -13.9502E+06     27.2080E+06     848.091E+03    -300.545E-03     596.550E-03    -296.006E-03     233.399E-03    -312.211E-03     607.871E-03    -295.761E-03     181.265E-03
            1803     6.02675E-03     58.4724E-03    -69.6416E+06    -24.4676E+06     16.6518E+06     871.100E+03    -299.874E-03     595.877E-03    -296.003E-03     213.677E-03    -309.469E-03     605.090E-03    -295.783E-03     166.689E-03
            1804     5.35614E-03     58.1760E-03    -78.8252E+06    -46.5101E+06    -223.968E+03     279.188E+03    -299.262E-03     595.263E-03    -296.001E-03     191.943E-03    -306.870E-03     602.427E-03    -295.820E-03     150.390E-03
            1805     4.68615E-03     57.9116E-03    -88.7548E+06    -83.4215E+06    -21.0347E+06    -221.614E+03    -298.723E-03     594.721E-03    -295.998E-03     169.040E-03    -304.543E-03     599.990E-03    -295.853E-03     132.944E-03
            1806     4.01704E-03     57.6806E-03    -98.7090E+06    -120.603E+06    -43.3666E+06     245.145E+03    -298.079E-03     594.060E-03    -295.981E-03     145.472E-03    -302.347E-03     597.675E-03    -295.879E-03     114.873E-03
            1807     3.34718E-03     57.4838E-03    -107.986E+06    -157.820E+06    -65.2770E+06     267.208E+03    -297.528E-03     593.488E-03    -295.960E-03     121.789E-03    -300.503E-03     595.709E-03    -295.901E-03     96.5524E-03
            1808     2.67820E-03     57.3220E-03    -115.962E+06    -186.990E+06    -86.0516E+06     242.214E+03    -296.994E-03     592.916E-03    -295.922E-03     97.7863E-03    -298.935E-03     594.031E-03    -295.913E-03     77.7774E-03
            1809     2.00823E-03     57.1955E-03    -122.993E+06    -207.751E+06    -105.178E+06     6.43235E+03    -296.471E-03     592.351E-03    -295.880E-03     73.6639E-03    -297.627E-03     592.638E-03    -295.926E-03     58.7352E-03
            1810     1.33878E-03     57.1043E-03    -128.292E+06    -227.641E+06    -119.495E+06     52.8660E+03    -296.101E-03     591.975E-03    -295.875E-03     49.7227E-03    -296.701E-03     591.659E-03    -295.956E-03     39.7070E-03
            1811     669.382E-06     57.0462E-03    -129.855E+06    -240.256E+06    -129.123E+06     502.463E+03    -295.943E-03     591.848E-03    -295.905E-03     26.7121E-03    -296.204E-03     591.170E-03    -296.014E-03     21.2896E-03
            1812     12.7230E-03     60.1603E-03    -3.44011E+06     49.2861E+06     79.0524E+06     208.190E+03    -294.022E-03     590.021E-03    -295.999E-03     133.765E-03    -301.240E-03     597.173E-03    -295.670E-03     91.8669E-03
            1813     12.0529E-03     59.9069E-03    -6.85104E+06     49.3947E+06     75.9534E+06     220.618E+03    -294.418E-03     590.398E-03    -295.980E-03     196.449E-03    -305.923E-03     601.833E-03    -295.662E-03     142.790E-03
            1814     11.3837E-03     59.6310E-03    -12.1899E+06     40.4469E+06     70.4498E+06     600.303E+03    -295.577E-03     591.547E-03    -295.971E-03     216.599E-03    -308.657E-03     604.524E-03    -295.659E-03     160.186E-03
            1815     10.7159E-03     59.3074E-03    -17.7966E+06     32.0704E+06     70.9465E+06     942.776E+03    -296.663E-03     592.662E-03    -295.999E-03     241.163E-03    -311.931E-03     607.775E-03    -295.665E-03     180.680E-03
            1816     10.0435E-03     58.9562E-03    -23.7907E+06     26.0507E+06     70.5102E+06     353.066E+03    -297.732E-03     593.769E-03    -296.036E-03     256.063E-03    -314.151E-03     609.991E-03    -295.687E-03     193.703E-03
            1817     9.37406E-03     58.5815E-03    -30.7802E+06     18.8441E+06     64.4864E+06     35.2192E+03    -299.273E-03     595.321E-03    -296.048E-03     264.723E-03    -316.120E-03     611.939E-03    -295.708E-03     201.655E-03
            1818     8.70536E-03     58.1977E-03    -37.7494E+06     11.2458E+06     55.8565E+06     81.5573E+03    -300.478E-03     596.502E-03    -296.024E-03     266.261E-03    -316.944E-03     612.712E-03    -295.706E-03     203.902E-03
            1819     8.03575E-03     57.8120E-03    -45.2666E+06     4.24505E+06     44.7836E+06     609.733E+03    -300.680E-03     596.666E-03    -295.986E-03     260.805E-03    -315.982E-03     611.693E-03    -295.703E-03     200.825E-03
            1820     7.36540E-03     57.4399E-03    -52.4979E+06    -3.81849E+06     35.0325E+06     751.582E+03    -300.558E-03     596.541E-03    -295.983E-03     249.823E-03    -314.186E-03     609.868E-03    -295.726E-03     193.372E-03
            1821     6.69612E-03     57.0859E-03    -60.2429E+06    -13.1820E+06     27.8903E+06     299.863E+03    -300.320E-03     596.331E-03    -296.012E-03     233.700E-03    -311.988E-03     607.658E-03    -295.766E-03     181.612E-03
            1822     6.02518E-03     56.7596E-03    -69.4202E+06    -24.3926E+06     16.8539E+06    -154.322E+03    -299.955E-03     595.975E-03    -296.019E-03     213.695E-03    -309.550E-03     605.187E-03    -295.799E-03     166.677E-03
            1823     5.35609E-03     56.4634E-03    -79.2933E+06    -46.5450E+06    -687.571E+03     436.682E+03    -299.520E-03     595.512E-03    -295.992E-03     191.678E-03    -307.129E-03     602.676E-03    -295.813E-03     150.072E-03
            1824     4.68702E-03     56.1986E-03    -89.6819E+06    -83.0733E+06    -22.1832E+06     1.13650E+06    -298.852E-03     594.803E-03    -295.951E-03     168.491E-03    -304.658E-03     600.060E-03    -295.811E-03     132.446E-03
            1825     4.01705E-03     55.9686E-03    -99.5407E+06    -119.939E+06    -44.5017E+06     493.801E+03    -298.099E-03     594.006E-03    -295.907E-03     145.057E-03    -302.360E-03     597.617E-03    -295.811E-03     114.482E-03
            1826     3.34762E-03     55.7715E-03    -108.204E+06    -157.335E+06    -65.3961E+06     141.459E+03    -297.476E-03     593.349E-03    -295.874E-03     121.393E-03    -300.446E-03     595.567E-03    -295.815E-03     96.1675E-03
            1827     2.67762E-03     55.6095E-03    -116.403E+06    -186.971E+06    -85.9346E+06     341.832E+03    -296.964E-03     592.781E-03    -295.817E-03     97.2089E-03    -298.899E-03     593.888E-03    -295.807E-03     77.2322E-03
            1828     2.00858E-03     55.4835E-03    -123.326E+06    -207.053E+06    -105.179E+06     411.044E+03    -296.514E-03     592.236E-03    -295.722E-03     73.1848E-03    -297.667E-03     592.521E-03    -295.769E-03     58.2831E-03
            1829     1.33944E-03     55.3915E-03    -128.697E+06    -227.702E+06    -120.783E+06    -172.313E+03    -296.033E-03     591.663E-03    -295.630E-03     49.5429E-03    -296.632E-03     591.347E-03    -295.717E-03     39.5328E-03
            1830     669.659E-06     55.3365E-03    -132.317E+06    -240.528E+06    -128.798E+06    -435.880E+03    -295.666E-03     591.275E-03    -295.609E-03     27.0080E-03    -295.940E-03     590.600E-03    -295.712E-03     21.5723E-03
            1831     12.7221E-03     58.4482E-03    -3.89901E+06     48.8675E+06     78.5529E+06    -793.794E+03    -293.781E-03     589.801E-03    -296.020E-03     133.084E-03    -300.985E-03     596.937E-03    -295.693E-03     91.1247E-03
            1832     12.0532E-03     58.1910E-03    -9.44764E+06     46.1113E+06     73.9998E+06    -850.448E+03    -294.632E-03     590.630E-03    -295.998E-03     195.509E-03    -306.109E-03     602.022E-03    -295.681E-03     141.794E-03
            1833     11.3842E-03     57.9179E-03    -14.1553E+06     39.2068E+06     69.1368E+06     319.319E+03    -295.346E-03     591.332E-03    -295.986E-03     216.315E-03    -308.434E-03     604.308E-03    -295.676E-03     159.903E-03
            1834     10.7119E-03     57.5944E-03    -18.9993E+06     34.5239E+06     70.5233E+06     790.213E+03    -296.420E-03     592.445E-03    -296.025E-03     241.108E-03    -311.695E-03     607.571E-03    -295.695E-03     180.642E-03
            1835     10.0445E-03     57.2424E-03    -24.9883E+06     27.2583E+06     69.7670E+06    -9.55092E+03    -298.073E-03     594.132E-03    -296.058E-03     255.730E-03    -314.488E-03     610.352E-03    -295.713E-03     193.279E-03
            1836     9.37467E-03     56.8697E-03    -32.0530E+06     18.6817E+06     63.5815E+06    -350.071E+03    -299.629E-03     595.676E-03    -296.047E-03     264.969E-03    -316.494E-03     612.310E-03    -295.710E-03     201.825E-03
            1837     8.70477E-03     56.4814E-03    -39.2847E+06     10.9221E+06     54.7469E+06    -566.982E+03    -300.383E-03     596.401E-03    -296.018E-03     266.656E-03    -316.856E-03     612.614E-03    -295.703E-03     204.370E-03
            1838     8.03545E-03     56.1010E-03    -45.6439E+06     2.54537E+06     44.5087E+06    -923.486E+03    -300.613E-03     596.613E-03    -295.999E-03     261.494E-03    -315.944E-03     611.661E-03    -295.714E-03     201.498E-03
            1839     7.36564E-03     55.7272E-03    -52.5212E+06    -4.79063E+06     35.6498E+06    -724.415E+03    -300.769E-03     596.768E-03    -296.000E-03     250.343E-03    -314.429E-03     610.122E-03    -295.739E-03     193.788E-03
            1840     6.69502E-03     55.3738E-03    -61.0390E+06    -13.5894E+06     27.7403E+06    -168.989E+03    -300.619E-03     596.618E-03    -296.000E-03     233.184E-03    -312.266E-03     607.921E-03    -295.753E-03     181.078E-03
            1841     6.02625E-03     55.0469E-03    -70.6860E+06    -25.3712E+06     15.0588E+06     305.954E+03    -300.198E-03     596.156E-03    -295.958E-03     212.663E-03    -309.759E-03     605.332E-03    -295.743E-03     165.646E-03
            1842     5.35665E-03     54.7497E-03    -81.1156E+06    -47.2104E+06    -2.67259E+06     597.433E+03    -299.481E-03     595.376E-03    -295.895E-03     190.676E-03    -307.067E-03     602.514E-03    -295.722E-03     149.099E-03
            1843     4.68683E-03     54.4863E-03    -90.8125E+06    -81.6702E+06    -22.4689E+06     489.578E+03    -298.729E-03     594.573E-03    -295.844E-03     167.930E-03    -304.526E-03     599.822E-03    -295.706E-03     131.919E-03
            1844     4.01774E-03     54.2559E-03    -99.8387E+06    -118.881E+06    -44.3700E+06     132.144E+03    -298.123E-03     593.905E-03    -295.782E-03     144.673E-03    -302.379E-03     597.513E-03    -295.687E-03     114.095E-03
            1845     3.34817E-03     54.0598E-03    -108.873E+06    -157.652E+06    -65.8370E+06     183.108E+03    -297.447E-03     593.164E-03    -295.717E-03     121.062E-03    -300.416E-03     595.378E-03    -295.660E-03     95.8380E-03
            1846     2.67908E-03     53.8977E-03    -117.076E+06    -186.881E+06    -86.2920E+06     331.151E+03    -296.794E-03     592.438E-03    -295.644E-03     97.2317E-03    -298.731E-03     593.546E-03    -295.635E-03     77.2684E-03
            1847     2.00933E-03     53.7714E-03    -123.810E+06    -206.561E+06    -105.376E+06     192.470E+03    -296.300E-03     591.857E-03    -295.557E-03     73.3727E-03    -297.458E-03     592.148E-03    -295.605E-03     58.4672E-03
            1848     1.33926E-03     53.6810E-03    -129.007E+06    -226.569E+06    -120.773E+06     342.527E+03    -295.905E-03     591.369E-03    -295.464E-03     49.5227E-03    -296.508E-03     591.060E-03    -295.552E-03     39.5142E-03
            1849     669.754E-06     53.6247E-03    -131.562E+06    -241.315E+06    -131.135E+06    -74.0837E+03    -295.425E-03     590.921E-03    -295.497E-03     27.0521E-03    -295.690E-03     590.245E-03    -295.612E-03     21.6273E-03
            1850     12.7230E-03     56.7339E-03    -4.94690E+06     50.5862E+06     77.7408E+06    -4.65046E+03    -293.884E-03     589.887E-03    -296.002E-03     132.868E-03    -301.066E-03     597.005E-03    -295.680E-03     91.0216E-03
            1851     12.0536E-03     56.4766E-03    -9.47095E+06     45.5886E+06     73.4115E+06    -240.580E+03    -293.979E-03     589.978E-03    -295.999E-03     195.390E-03    -305.436E-03     601.350E-03    -295.684E-03     141.855E-03
            1852     11.3829E-03     56.2062E-03    -13.9974E+06     37.0801E+06     68.3004E+06    -200.046E+03    -295.158E-03     591.170E-03    -296.013E-03     216.551E-03    -308.257E-03     604.153E-03    -295.705E-03     160.105E-03
            1853     10.7153E-03     55.8822E-03    -19.1094E+06     35.0758E+06     69.6924E+06     232.506E+03    -296.893E-03     592.935E-03    -296.042E-03     241.185E-03    -312.170E-03     608.067E-03    -295.717E-03     180.603E-03
            1854     10.0433E-03     55.5293E-03    -24.9436E+06     27.4517E+06     68.6247E+06     470.499E+03    -298.432E-03     594.478E-03    -296.046E-03     255.433E-03    -314.824E-03     610.681E-03    -295.707E-03     192.950E-03
            1855     9.37428E-03     55.1542E-03    -31.0809E+06     19.2960E+06     62.5047E+06     229.734E+03    -299.358E-03     595.385E-03    -296.027E-03     264.263E-03    -316.171E-03     611.975E-03    -295.697E-03     201.239E-03
            1856     8.70499E-03     54.7704E-03    -37.5747E+06     13.0501E+06     54.8593E+06    -206.715E+03    -299.863E-03     595.889E-03    -296.026E-03     266.167E-03    -316.285E-03     612.065E-03    -295.716E-03     204.052E-03
            1857     8.03429E-03     54.3872E-03    -45.5746E+06     3.08424E+06     45.0949E+06    -1.05430E+06    -300.776E-03     596.800E-03    -296.024E-03     261.032E-03    -316.094E-03     611.837E-03    -295.737E-03     200.972E-03
            1858     7.36484E-03     54.0137E-03    -54.5715E+06    -6.68516E+06     34.3167E+06    -1.36437E+06    -301.338E-03     597.314E-03    -295.976E-03     249.298E-03    -314.988E-03     610.647E-03    -295.716E-03     192.582E-03
            1859     6.69663E-03     53.6606E-03    -63.5025E+06    -15.9855E+06     24.7691E+06    -943.240E+03    -301.015E-03     596.917E-03    -295.901E-03     232.322E-03    -312.646E-03     608.194E-03    -295.662E-03     180.128E-03
            1860     6.02710E-03     53.3332E-03    -72.5122E+06    -26.8035E+06     13.8875E+06    -309.886E+03    -300.211E-03     596.034E-03    -295.824E-03     212.358E-03    -309.768E-03     605.199E-03    -295.610E-03     165.345E-03
            1861     5.35778E-03     53.0382E-03    -81.3734E+06    -46.6885E+06    -2.21592E+06    -450.116E+03    -299.289E-03     595.044E-03    -295.756E-03     190.555E-03    -306.866E-03     602.174E-03    -295.581E-03     149.038E-03
            1862     4.68823E-03     52.7744E-03    -90.4994E+06    -81.8596E+06    -22.2138E+06    -644.663E+03    -298.597E-03     594.303E-03    -295.707E-03     167.972E-03    -304.390E-03     599.549E-03    -295.568E-03     131.962E-03
            1863     4.01825E-03     52.5438E-03    -100.023E+06    -119.378E+06    -44.0588E+06     275.673E+03    -297.982E-03     593.629E-03    -295.648E-03     144.698E-03    -302.233E-03     597.230E-03    -295.550E-03     114.178E-03
            1864     3.34886E-03     52.3479E-03    -109.107E+06    -157.189E+06    -65.8553E+06     487.419E+03    -297.283E-03     592.869E-03    -295.585E-03     121.157E-03    -300.250E-03     595.081E-03    -295.529E-03     95.9852E-03
            1865     2.67866E-03     52.1869E-03    -117.130E+06    -186.579E+06    -86.6104E+06    -4.09652E+03    -296.582E-03     592.112E-03    -295.530E-03     97.4792E-03    -298.522E-03     593.225E-03    -295.523E-03     77.5310E-03
            1866     2.00882E-03     52.0603E-03    -123.807E+06    -206.325E+06    -105.364E+06     22.2030E+03    -296.055E-03     591.547E-03    -295.492E-03     73.5275E-03    -297.213E-03     591.838E-03    -295.540E-03     58.6535E-03
            1867     1.33970E-03     51.9697E-03    -128.486E+06    -226.333E+06    -120.062E+06     118.386E+03    -295.774E-03     591.242E-03    -295.468E-03     49.7468E-03    -296.377E-03     590.933E-03    -295.554E-03     39.7453E-03
            1868     669.951E-06     51.9146E-03    -132.060E+06    -240.801E+06    -129.169E+06     322.542E+03    -295.518E-03     590.999E-03    -295.481E-03     26.9304E-03    -295.790E-03     590.324E-03    -295.587E-03     21.4764E-03
            1869     12.7235E-03     55.0188E-03    -4.07442E+06     51.1838E+06     77.9104E+06     1.01796E+06    -293.476E-03     589.508E-03    -296.032E-03     134.119E-03    -300.698E-03     596.672E-03    -295.711E-03     92.3252E-03
            1870     12.0527E-03     54.7673E-03    -8.67739E+06     48.4669E+06     74.2297E+06     708.140E+03    -294.169E-03     590.210E-03    -296.041E-03     196.450E-03    -305.681E-03     601.647E-03    -295.727E-03     142.836E-03
            1871     11.3828E-03     54.4915E-03    -13.2560E+06     37.1914E+06     69.1708E+06    -98.1423E+03    -295.884E-03     591.920E-03    -296.036E-03     216.246E-03    -308.956E-03     604.877E-03    -295.725E-03     159.737E-03
            1872     10.7116E-03     54.1674E-03    -18.2356E+06     33.7422E+06     70.3329E+06    -416.292E+03    -297.321E-03     593.348E-03    -296.027E-03     240.230E-03    -312.562E-03     608.439E-03    -295.697E-03     179.563E-03
            1873     10.0450E-03     53.8145E-03    -23.9519E+06     26.5953E+06     69.2724E+06     54.3540E+03    -298.202E-03     594.217E-03    -296.015E-03     254.825E-03    -314.567E-03     610.391E-03    -295.673E-03     192.387E-03
            1874     9.37558E-03     53.4424E-03    -30.0249E+06     19.4273E+06     63.3944E+06     526.104E+03    -299.078E-03     595.086E-03    -296.008E-03     263.998E-03    -315.867E-03     611.653E-03    -295.675E-03     201.065E-03
            1875     8.70445E-03     53.0592E-03    -37.0778E+06     13.4865E+06     55.0511E+06     784.225E+03    -300.289E-03     596.280E-03    -295.990E-03     265.645E-03    -316.698E-03     612.445E-03    -295.681E-03     203.424E-03
            1876     8.03543E-03     52.6735E-03    -45.0077E+06     4.95892E+06     45.3906E+06     1.31585E+06    -301.229E-03     597.164E-03    -295.936E-03     259.878E-03    -316.498E-03     612.160E-03    -295.651E-03     199.796E-03
            1877     7.36685E-03     52.3000E-03    -53.3517E+06    -4.79274E+06     34.9790E+06     917.169E+03    -301.335E-03     597.182E-03    -295.847E-03     248.208E-03    -314.936E-03     610.474E-03    -295.587E-03     191.554E-03
            1878     6.69716E-03     51.9467E-03    -62.1541E+06    -14.8898E+06     25.5641E+06     123.138E+03    -300.731E-03     596.496E-03    -295.766E-03     231.944E-03    -312.340E-03     607.757E-03    -295.526E-03     179.832E-03
            1879     6.02789E-03     51.6215E-03    -71.1916E+06    -25.6716E+06     14.5987E+06    -1.06994E+06    -299.847E-03     595.555E-03    -295.708E-03     212.395E-03    -309.387E-03     604.709E-03    -295.495E-03     165.484E-03
            1880     5.35795E-03     51.3256E-03    -80.6076E+06    -47.7319E+06    -2.14217E+06    -1.33066E+06    -299.144E-03     594.808E-03    -295.664E-03     190.945E-03    -306.718E-03     601.933E-03    -295.488E-03     149.463E-03
            1881     4.68819E-03     51.0629E-03    -90.6068E+06    -83.6959E+06    -22.5030E+06    -287.115E+03    -298.539E-03     594.164E-03    -295.625E-03     168.473E-03    -304.338E-03     599.409E-03    -295.484E-03     132.493E-03
            1882     4.01880E-03     50.8322E-03    -100.056E+06    -119.920E+06    -44.2128E+06    -78.2319E+03    -297.839E-03     593.416E-03    -295.577E-03     145.099E-03    -302.092E-03     597.017E-03    -295.479E-03     114.615E-03
            1883     3.34868E-03     50.6371E-03    -108.433E+06    -157.124E+06    -64.8904E+06    -245.164E+03    -297.196E-03     592.729E-03    -295.533E-03     121.246E-03    -300.159E-03     594.938E-03    -295.473E-03     96.1005E-03
            1884     2.67934E-03     50.4758E-03    -116.203E+06    -186.341E+06    -85.4252E+06    -91.9189E+03    -296.588E-03     592.062E-03    -295.474E-03     97.2879E-03    -298.522E-03     593.169E-03    -295.462E-03     77.3590E-03
            1885     2.00961E-03     50.3502E-03    -122.858E+06    -206.370E+06    -104.766E+06    -187.286E+03    -295.962E-03     591.389E-03    -295.427E-03     73.2478E-03    -297.112E-03     591.674E-03    -295.473E-03     58.3997E-03
            1886     1.33893E-03     50.2589E-03    -127.922E+06    -226.601E+06    -119.473E+06    -331.273E+03    -295.557E-03     591.014E-03    -295.457E-03     49.4574E-03    -296.153E-03     590.699E-03    -295.541E-03     39.4915E-03
            1887     669.235E-06     50.2033E-03    -130.995E+06    -240.709E+06    -129.480E+06    -226.234E+03    -295.637E-03     591.074E-03    -295.437E-03     26.8783E-03    -295.902E-03     590.397E-03    -295.546E-03     21.4330E-03
            1888     12.7201E-03     53.3094E-03    -3.69752E+06     49.5083E+06     78.1287E+06     1.21585E+06    -293.372E-03     589.445E-03    -296.073E-03     132.997E-03    -300.563E-03     596.572E-03    -295.748E-03     91.2177E-03
            1889     12.0511E-03     53.0487E-03    -8.78148E+06     52.2285E+06     74.4503E+06     968.920E+03    -294.885E-03     590.937E-03    -296.052E-03     195.217E-03    -306.368E-03     602.358E-03    -295.743E-03     141.453E-03
            1890     11.3833E-03     52.7786E-03    -14.0074E+06     39.3788E+06     68.2361E+06    -834.516E+03    -296.375E-03     592.376E-03    -296.002E-03     215.248E-03    -309.432E-03     605.326E-03    -295.697E-03     158.614E-03
            1891     10.7166E-03     52.4529E-03    -18.7033E+06     31.3023E+06     69.7122E+06    -1.52051E+06    -297.041E-03     593.028E-03    -295.988E-03     240.173E-03    -312.279E-03     608.109E-03    -295.657E-03     179.548E-03
            1892     10.0448E-03     52.1029E-03    -23.9369E+06     25.5016E+06     70.5604E+06    -401.237E+03    -297.954E-03     593.955E-03    -296.000E-03     255.069E-03    -314.309E-03     610.110E-03    -295.650E-03     192.742E-03
            1893     9.37366E-03     51.7298E-03    -30.8083E+06     18.7581E+06     64.9940E+06     287.299E+03    -299.646E-03     595.628E-03    -295.981E-03     263.722E-03    -316.417E-03     612.167E-03    -295.639E-03     200.720E-03
            1894     8.70600E-03     51.3441E-03    -37.9287E+06     11.9405E+06     56.0218E+06     345.617E+03    -301.027E-03     596.930E-03    -295.904E-03     265.114E-03    -317.425E-03     613.074E-03    -295.586E-03     202.752E-03
            1895     8.03742E-03     50.9606E-03    -44.5146E+06     3.40529E+06     45.6920E+06     837.661E+03    -301.366E-03     597.163E-03    -295.797E-03     259.937E-03    -316.628E-03     612.146E-03    -295.509E-03     199.859E-03
            1896     7.36766E-03     50.5867E-03    -51.1377E+06    -4.10698E+06     36.5500E+06     1.57315E+06    -300.950E-03     596.666E-03    -295.716E-03     248.673E-03    -314.520E-03     609.934E-03    -295.453E-03     192.222E-03
            1897     6.69841E-03     50.2354E-03    -58.7155E+06    -11.5848E+06     29.2395E+06     1.61336E+06    -300.302E-03     595.982E-03    -295.680E-03     232.315E-03    -311.889E-03     607.234E-03    -295.432E-03     180.392E-03
            1898     6.02819E-03     49.9095E-03    -68.2456E+06    -22.5029E+06     17.4931E+06     1.41325E+06    -299.682E-03     595.333E-03    -295.651E-03     212.642E-03    -309.212E-03     604.490E-03    -295.432E-03     165.833E-03
            1899     5.35831E-03     49.6149E-03    -79.1757E+06    -47.2346E+06    -1.12081E+06     1.00538E+06    -299.114E-03     594.726E-03    -295.612E-03     190.914E-03    -306.674E-03     601.840E-03    -295.434E-03     149.505E-03
            1900     4.68852E-03     49.3506E-03    -89.1680E+06    -83.4087E+06    -21.3650E+06     30.8816E+03    -298.446E-03     594.020E-03    -295.575E-03     168.010E-03    -304.219E-03     599.243E-03    -295.431E-03     132.102E-03
            1901     4.01836E-03     49.1216E-03    -98.1967E+06    -119.511E+06    -42.7632E+06    -608.822E+03    -297.722E-03     593.253E-03    -295.532E-03     144.693E-03    -301.960E-03     596.843E-03    -295.430E-03     114.215E-03
            1902     3.34897E-03     48.9251E-03    -107.305E+06    -157.944E+06    -64.3144E+06    -373.861E+03    -297.088E-03     592.582E-03    -295.494E-03     121.022E-03    -300.041E-03     594.781E-03    -295.431E-03     95.8922E-03
            1903     2.67902E-03     48.7654E-03    -115.580E+06    -186.803E+06    -85.1244E+06    -201.548E+03    -296.540E-03     591.982E-03    -295.442E-03     97.3397E-03    -298.469E-03     593.085E-03    -295.429E-03     77.4124E-03
            1904     2.00923E-03     48.6390E-03    -122.302E+06    -206.401E+06    -104.371E+06    -206.906E+03    -296.116E-03     591.478E-03    -295.362E-03     73.3546E-03    -297.267E-03     591.765E-03    -295.407E-03     58.4775E-03
            1905     1.34018E-03     48.5497E-03    -127.703E+06    -227.247E+06    -119.431E+06    -74.9124E+03    -295.630E-03     590.927E-03    -295.297E-03     49.2837E-03    -296.223E-03     590.606E-03    -295.380E-03     39.3426E-03
            1906     670.025E-06     48.4921E-03    -131.376E+06    -240.686E+06    -128.169E+06     149.878E+03    -295.216E-03     590.638E-03    -295.422E-03     27.0797E-03    -295.485E-03     589.961E-03    -295.523E-03     21.6412E-03
            1907     12.7236E-03     51.5941E-03    -3.49886E+06     48.0590E+06     78.5663E+06     960.443E+03    -294.322E-03     590.371E-03    -296.049E-03     132.904E-03    -301.494E-03     597.472E-03    -295.720E-03     91.0538E-03
            1908     12.0542E-03     51.3374E-03    -7.38611E+06     54.7336E+06     75.1942E+06     724.701E+03    -294.879E-03     590.874E-03    -295.995E-03     194.986E-03    -306.322E-03     602.268E-03    -295.688E-03     141.319E-03
            1909     11.3843E-03     51.0605E-03    -11.7561E+06     42.2011E+06     69.1550E+06    -296.474E+03    -295.659E-03     591.625E-03    -295.966E-03     215.780E-03    -308.726E-03     604.599E-03    -295.664E-03     159.245E-03
            1910     10.7126E-03     50.7409E-03    -17.8154E+06     30.4578E+06     69.2088E+06    -183.481E+03    -296.963E-03     592.940E-03    -295.976E-03     240.346E-03    -312.210E-03     608.031E-03    -295.649E-03     179.694E-03
            1911     10.0439E-03     50.3892E-03    -24.6326E+06     24.5357E+06     68.8936E+06     342.447E+03    -298.630E-03     594.591E-03    -295.961E-03     254.292E-03    -314.954E-03     610.714E-03    -295.616E-03     191.844E-03
            1912     9.37689E-03     50.0156E-03    -31.2314E+06     19.6837E+06     63.9409E+06    -105.784E+03    -300.077E-03     595.969E-03    -295.892E-03     263.150E-03    -316.831E-03     612.496E-03    -295.556E-03     200.050E-03
            1913     8.70701E-03     49.6303E-03    -38.1073E+06     12.1322E+06     55.9284E+06    -545.278E+03    -300.821E-03     596.627E-03    -295.806E-03     265.513E-03    -317.206E-03     612.758E-03    -295.489E-03     203.267E-03
            1914     8.03749E-03     49.2466E-03    -45.0909E+06     1.34166E+06     45.0840E+06    -1.20288E+06    -301.053E-03     596.778E-03    -295.725E-03     260.569E-03    -316.312E-03     611.751E-03    -295.436E-03     200.600E-03
            1915     7.36823E-03     48.8755E-03    -52.2096E+06    -6.67510E+06     35.4994E+06    -936.713E+03    -300.807E-03     596.473E-03    -295.667E-03     249.056E-03    -314.376E-03     609.731E-03    -295.404E-03     192.654E-03
            1916     6.69776E-03     48.5229E-03    -60.2044E+06    -13.2505E+06     27.9533E+06     411.350E+03    -300.318E-03     595.953E-03    -295.635E-03     232.286E-03    -311.886E-03     607.179E-03    -295.389E-03     180.431E-03
            1917     6.02812E-03     48.1984E-03    -69.3297E+06    -23.3588E+06     17.1507E+06     1.40464E+06    -299.804E-03     595.399E-03    -295.595E-03     212.224E-03    -309.316E-03     604.532E-03    -295.375E-03     165.443E-03
            1918     5.35856E-03     47.9021E-03    -78.2266E+06    -44.3535E+06     977.103E+03     1.31181E+06    -299.136E-03     594.674E-03    -295.538E-03     190.386E-03    -306.679E-03     601.779E-03    -295.355E-03     149.012E-03
            1919     4.68895E-03     47.6401E-03    -87.5456E+06    -81.0825E+06    -19.7168E+06     505.673E+03    -298.359E-03     593.844E-03    -295.485E-03     167.584E-03    -304.116E-03     599.060E-03    -295.339E-03     131.727E-03
            1920     4.01946E-03     47.4102E-03    -97.5363E+06    -119.723E+06    -42.3676E+06     293.040E+03    -297.575E-03     593.016E-03    -295.442E-03     144.392E-03    -301.801E-03     596.594E-03    -295.338E-03     113.967E-03
            1921     3.34916E-03     47.2152E-03    -106.757E+06    -157.588E+06    -64.1379E+06     400.611E+03    -296.888E-03     592.305E-03    -295.417E-03     120.756E-03    -299.831E-03     594.495E-03    -295.354E-03     95.6887E-03
            1922     2.67925E-03     47.0545E-03    -115.256E+06    -186.679E+06    -85.0336E+06     243.555E+03    -296.375E-03     591.763E-03    -295.388E-03     96.9972E-03    -298.294E-03     592.857E-03    -295.376E-03     77.1261E-03
            1923     2.00951E-03     46.9285E-03    -122.743E+06    -206.696E+06    -104.324E+06     453.153E+03    -295.950E-03     591.296E-03    -295.345E-03     73.2772E-03    -297.101E-03     591.580E-03    -295.389E-03     58.4257E-03
            1924     1.33950E-03     46.8380E-03    -127.661E+06    -226.958E+06    -119.445E+06     520.478E+03    -295.615E-03     590.927E-03    -295.312E-03     49.6237E-03    -296.211E-03     590.611E-03    -295.395E-03     39.6511E-03
            1925     669.873E-06     46.7847E-03    -130.771E+06    -240.933E+06    -129.238E+06    -333.463E+03    -295.492E-03     590.696E-03    -295.205E-03     27.8803E-03    -295.760E-03     590.022E-03    -295.312E-03     22.3620E-03
            1926     12.7215E-03     49.8776E-03    -4.07322E+06     47.5109E+06     78.1036E+06    -557.396E+03    -294.525E-03     590.552E-03    -296.027E-03     134.001E-03    -301.730E-03     597.685E-03    -295.699E-03     92.0725E-03
            1927     12.0534E-03     49.6215E-03    -7.52310E+06     54.6538E+06     75.5692E+06    -304.517E+03    -294.770E-03     590.747E-03    -295.977E-03     195.731E-03    -306.231E-03     602.156E-03    -295.668E-03     142.103E-03
            1928     11.3834E-03     49.3510E-03    -12.2721E+06     41.9845E+06     69.6221E+06     900.243E+03    -295.759E-03     591.709E-03    -295.950E-03     215.355E-03    -308.785E-03     604.638E-03    -295.645E-03     158.951E-03
            1929     10.7151E-03     49.0258E-03    -17.9792E+06     30.5000E+06     69.4782E+06     1.29527E+06    -297.301E-03     593.238E-03    -295.938E-03     239.096E-03    -312.492E-03     608.272E-03    -295.609E-03     178.448E-03
            1930     10.0469E-03     48.6751E-03    -23.7377E+06     25.9508E+06     68.7381E+06     495.538E+03    -298.874E-03     594.763E-03    -295.889E-03     254.404E-03    -315.212E-03     610.910E-03    -295.549E-03     191.837E-03
            1931     9.37618E-03     48.3012E-03    -29.7944E+06     20.2865E+06     62.6840E+06     132.976E+03    -299.978E-03     595.788E-03    -295.810E-03     263.767E-03    -316.745E-03     612.339E-03    -295.483E-03     200.673E-03
            1932     8.70723E-03     47.9178E-03    -36.5301E+06     12.9697E+06     54.4113E+06     408.725E+03    -300.514E-03     596.252E-03    -295.738E-03     265.415E-03    -316.857E-03     612.353E-03    -295.431E-03     203.315E-03
            1933     8.03750E-03     47.5339E-03    -44.3108E+06     3.92942E+06     44.9070E+06     268.096E+03    -300.745E-03     596.427E-03    -295.682E-03     260.052E-03    -315.959E-03     611.368E-03    -295.399E-03     200.221E-03
            1934     7.36766E-03     47.1624E-03    -53.4511E+06    -6.62774E+06     34.1005E+06    -449.077E+03    -300.841E-03     596.467E-03    -295.626E-03     248.377E-03    -314.393E-03     609.707E-03    -295.368E-03     191.967E-03
            1935     6.69876E-03     46.8117E-03    -62.6110E+06    -15.8006E+06     24.4996E+06    -1.19532E+06    -300.621E-03     596.177E-03    -295.557E-03     231.607E-03    -312.171E-03     607.378E-03    -295.321E-03     179.680E-03
            1936     6.02928E-03     46.4859E-03    -70.7295E+06    -25.2609E+06     14.9177E+06    -1.60586E+06    -299.890E-03     595.371E-03    -295.482E-03     211.561E-03    -309.372E-03     604.470E-03    -295.268E-03     164.777E-03
            1937     5.35954E-03     46.1916E-03    -79.6263E+06    -45.8548E+06    -552.535E+03    -1.14192E+06    -298.921E-03     594.336E-03    -295.415E-03     189.910E-03    -306.444E-03     601.415E-03    -295.236E-03     148.585E-03
            1938     4.68948E-03     45.9287E-03    -89.3129E+06    -81.7732E+06    -21.3203E+06     189.925E+03    -298.117E-03     593.489E-03    -295.373E-03     167.439E-03    -303.869E-03     598.696E-03    -295.231E-03     131.636E-03
            1939     4.01926E-03     45.6999E-03    -98.9982E+06    -119.300E+06    -43.6885E+06     759.995E+03    -297.462E-03     592.799E-03    -295.337E-03     144.254E-03    -301.686E-03     596.375E-03    -295.239E-03     113.889E-03
            1940     3.34953E-03     45.5049E-03    -108.117E+06    -157.280E+06    -64.8339E+06     491.953E+03    -296.854E-03     592.162E-03    -295.308E-03     120.605E-03    -299.796E-03     594.350E-03    -295.247E-03     95.5786E-03
            1941     2.67966E-03     45.3441E-03    -116.243E+06    -186.223E+06    -85.1443E+06     584.864E+03    -296.236E-03     591.511E-03    -295.275E-03     96.8454E-03    -298.159E-03     592.607E-03    -295.262E-03     76.9939E-03
            1942     2.00954E-03     45.2187E-03    -123.102E+06    -206.076E+06    -104.481E+06     555.565E+03    -295.671E-03     590.934E-03    -295.263E-03     72.9318E-03    -296.817E-03     591.215E-03    -295.308E-03     58.1482E-03
            1943     1.33932E-03     45.1284E-03    -128.415E+06    -226.314E+06    -119.789E+06     321.075E+03    -295.501E-03     590.776E-03    -295.275E-03     49.0265E-03    -296.095E-03     590.459E-03    -295.360E-03     39.0909E-03
            1944     669.474E-06     45.0723E-03    -131.378E+06    -240.083E+06    -129.289E+06     781.553E+03    -295.437E-03     590.639E-03    -295.202E-03     27.1904E-03    -295.707E-03     589.966E-03    -295.310E-03     21.7129E-03
            1945     12.7237E-03     48.1632E-03    -4.50693E+06     49.0364E+06     77.0409E+06    -1.39524E+06    -294.267E-03     590.284E-03    -296.018E-03     133.629E-03    -301.453E-03     597.405E-03    -295.697E-03     91.7339E-03
            1946     12.0527E-03     47.9092E-03    -9.07534E+06     51.5268E+06     74.0992E+06    -590.749E+03    -294.913E-03     590.885E-03    -295.972E-03     194.696E-03    -306.355E-03     602.263E-03    -295.663E-03     141.020E-03
            1947     11.3848E-03     47.6337E-03    -13.9859E+06     38.7794E+06     67.9830E+06     771.419E+03    -296.212E-03     592.134E-03    -295.922E-03     215.338E-03    -309.242E-03     605.055E-03    -295.618E-03     158.863E-03
            1948     10.7157E-03     47.3129E-03    -18.1461E+06     31.5773E+06     69.4726E+06    -11.8359E+03    -297.543E-03     593.437E-03    -295.894E-03     240.423E-03    -312.751E-03     608.492E-03    -295.566E-03     179.804E-03
            1949     10.0449E-03     46.9603E-03    -23.5655E+06     26.1743E+06     69.7801E+06    -633.906E+03    -298.850E-03     594.704E-03    -295.854E-03     254.950E-03    -315.172E-03     610.833E-03    -295.509E-03     192.493E-03
            1950     9.37725E-03     46.5876E-03    -29.8380E+06     18.5200E+06     64.1224E+06     54.5735E+03    -299.898E-03     595.683E-03    -295.785E-03     263.289E-03    -316.608E-03     612.167E-03    -295.448E-03     200.339E-03
            1951     8.70785E-03     46.2046E-03    -36.4790E+06     12.6053E+06     56.1271E+06     935.132E+03    -300.606E-03     596.312E-03    -295.706E-03     265.076E-03    -316.941E-03     612.399E-03    -295.390E-03     202.959E-03
            1952     8.03844E-03     45.8226E-03    -44.1073E+06     5.18211E+06     46.1021E+06     1.70594E+06    -300.966E-03     596.589E-03    -295.623E-03     259.611E-03    -316.169E-03     611.520E-03    -295.336E-03     199.762E-03
            1953     7.36889E-03     45.4504E-03    -51.7323E+06    -3.71546E+06     36.1463E+06     1.37737E+06    -300.990E-03     596.528E-03    -295.538E-03     247.784E-03    -314.498E-03     609.734E-03    -295.276E-03     191.451E-03
            1954     6.69922E-03     45.0984E-03    -59.5371E+06    -12.6402E+06     27.3235E+06     86.0687E+03    -300.561E-03     596.014E-03    -295.453E-03     231.197E-03    -312.082E-03     607.199E-03    -295.211E-03     179.329E-03
            1955     6.02990E-03     44.7746E-03    -69.1980E+06    -24.6208E+06     15.2817E+06    -289.166E+03    -299.680E-03     595.053E-03    -295.373E-03     211.547E-03    -309.151E-03     604.146E-03    -295.161E-03     164.836E-03
            1956     5.36005E-03     44.4808E-03    -80.1679E+06    -47.9074E+06    -2.58742E+06     3.35185E+03    -298.832E-03     594.141E-03    -295.309E-03     190.095E-03    -306.351E-03     601.213E-03    -295.136E-03     148.828E-03
            1957     4.68996E-03     44.2191E-03    -90.7587E+06    -83.3057E+06    -23.0805E+06     81.1842E+03    -298.161E-03     593.421E-03    -295.260E-03     167.338E-03    -303.910E-03     598.619E-03    -295.123E-03     131.553E-03
            1958     4.02004E-03     43.9895E-03    -100.174E+06    -118.953E+06    -44.3748E+06     234.237E+03    -297.488E-03     592.686E-03    -295.198E-03     143.687E-03    -301.700E-03     596.248E-03    -295.102E-03     113.375E-03
            1959     3.35003E-03     43.7948E-03    -108.948E+06    -157.068E+06    -65.5361E+06     288.177E+03    -296.834E-03     591.965E-03    -295.130E-03     119.941E-03    -299.763E-03     594.139E-03    -295.072E-03     94.9642E-03
            1960     2.67996E-03     43.6345E-03    -116.925E+06    -186.452E+06    -86.2389E+06     6.39708E+03    -296.170E-03     591.220E-03    -295.050E-03     96.0513E-03    -298.082E-03     592.305E-03    -295.042E-03     76.2385E-03
            1961     2.00994E-03     43.5093E-03    -123.076E+06    -205.258E+06    -104.891E+06    -114.874E+03    -295.643E-03     590.607E-03    -294.964E-03     72.1657E-03    -296.779E-03     590.882E-03    -295.012E-03     57.4210E-03
            1962     1.34029E-03     43.4183E-03    -128.556E+06    -226.290E+06    -120.740E+06    -170.415E+03    -295.350E-03     590.207E-03    -294.857E-03     48.6810E-03    -295.939E-03     589.887E-03    -294.946E-03     38.7955E-03
            1963     670.659E-06     43.3625E-03    -131.471E+06    -239.322E+06    -129.429E+06    -248.794E+03    -294.839E-03     589.661E-03    -294.822E-03     26.0261E-03    -295.106E-03     588.988E-03    -294.932E-03     20.6371E-03
            1964     12.7214E-03     46.4488E-03    -4.10356E+06     49.4827E+06     77.5172E+06    -498.839E+03    -294.389E-03     590.373E-03    -295.984E-03     132.438E-03    -301.553E-03     597.474E-03    -295.662E-03     90.5493E-03
            1965     12.0546E-03     46.1929E-03    -8.65241E+06     48.2467E+06     73.1183E+06    -47.2544E+03    -294.666E-03     590.605E-03    -295.939E-03     194.859E-03    -306.086E-03     601.954E-03    -295.631E-03     141.273E-03
            1966     11.3843E-03     45.9214E-03    -12.4350E+06     38.9131E+06     68.4695E+06    -223.632E+03    -296.142E-03     592.042E-03    -295.901E-03     215.349E-03    -309.117E-03     604.913E-03    -295.597E-03     158.975E-03
            1967     10.7142E-03     45.5978E-03    -17.8401E+06     32.3658E+06     69.0894E+06    -264.269E+03    -297.617E-03     593.484E-03    -295.868E-03     239.567E-03    -312.752E-03     608.471E-03    -295.543E-03     179.038E-03
            1968     10.0474E-03     45.2455E-03    -24.4917E+06     25.7813E+06     68.4479E+06     18.6122E+03    -298.788E-03     594.607E-03    -295.819E-03     254.136E-03    -315.059E-03     610.685E-03    -295.479E-03     191.768E-03
            1969     9.37706E-03     44.8749E-03    -32.0242E+06     18.4827E+06     63.2835E+06    -293.152E+03    -299.853E-03     595.605E-03    -295.752E-03     263.084E-03    -316.549E-03     612.069E-03    -295.416E-03     200.179E-03
            1970     8.70757E-03     44.4908E-03     -39.615E+06     11.2005E+06     55.2616E+06    -1.06970E+06    -300.819E-03     596.483E-03    -295.664E-03     264.813E-03    -317.147E-03     612.550E-03    -295.346E-03     202.657E-03
            1971     8.03861E-03     44.1091E-03    -45.6432E+06     3.03647E+06     45.2490E+06    -1.68704E+06    -301.300E-03     596.848E-03    -295.548E-03     259.241E-03    -316.483E-03     611.749E-03    -295.260E-03     199.328E-03
            1972     7.36976E-03     43.7378E-03    -51.6843E+06    -5.03913E+06     36.1760E+06    -872.999E+03    -301.007E-03     596.447E-03    -295.441E-03     247.739E-03    -314.487E-03     609.622E-03    -295.177E-03     191.466E-03
            1973     6.70043E-03     43.3873E-03    -59.8231E+06    -13.4647E+06     28.1650E+06     796.099E+03    -300.220E-03     595.591E-03    -295.371E-03     231.356E-03    -311.728E-03     606.757E-03    -295.124E-03     179.632E-03
            1974     6.03015E-03     43.0636E-03    -69.7362E+06    -24.9372E+06     15.6891E+06     1.96534E+06    -299.565E-03     594.872E-03    -295.307E-03     211.437E-03    -309.027E-03     603.952E-03    -295.091E-03     164.821E-03
            1975     5.35999E-03     42.7705E-03    -79.6862E+06    -45.9093E+06    -1.21827E+06     2.00495E+06    -299.055E-03     594.278E-03    -295.223E-03     189.599E-03    -306.561E-03     601.342E-03    -295.047E-03     148.350E-03
            1976     4.69044E-03     42.5077E-03    -89.6156E+06    -80.8535E+06    -21.3783E+06     1.27616E+06    -298.406E-03     593.523E-03    -295.118E-03     166.599E-03    -304.133E-03     598.708E-03    -294.978E-03     130.862E-03
            1977     4.02088E-03     42.2799E-03    -99.3107E+06    -118.878E+06    -43.8551E+06     527.352E+03    -297.627E-03     592.616E-03    -294.989E-03     143.114E-03    -301.814E-03     596.156E-03    -294.892E-03     112.856E-03
            1978     3.35102E-03     42.0851E-03    -108.240E+06    -156.979E+06    -65.6311E+06     107.227E+03    -296.882E-03     591.733E-03    -294.851E-03     119.336E-03    -299.794E-03     593.894E-03    -294.795E-03     94.3957E-03
            1979     2.68129E-03     41.9254E-03    -116.245E+06    -185.661E+06    -86.0641E+06     67.4272E+03    -296.124E-03     590.817E-03    -294.693E-03     95.4126E-03    -298.020E-03     591.891E-03    -294.686E-03     75.6736E-03
            1980     2.01137E-03     41.8005E-03    -123.622E+06    -205.743E+06    -105.402E+06    -113.357E+03    -295.423E-03     589.949E-03    -294.526E-03     71.9607E-03    -296.557E-03     590.220E-03    -294.576E-03     57.2398E-03
            1981     1.34090E-03     41.7101E-03    -128.613E+06    -225.620E+06    -120.145E+06     55.8391E+03    -294.824E-03     589.225E-03    -294.401E-03     48.6658E-03    -295.414E-03     588.906E-03    -294.488E-03     38.8410E-03
            1982     670.193E-06     41.6548E-03    -131.441E+06    -239.677E+06    -130.128E+06     51.1686E+03    -294.605E-03     588.783E-03    -294.178E-03     26.0325E-03    -294.869E-03     588.107E-03    -294.290E-03     20.7005E-03
            1983     12.7262E-03     44.7380E-03    -4.10248E+06     49.4593E+06     77.7228E+06    -621.938E+03    -294.435E-03     590.402E-03    -295.967E-03     132.792E-03    -301.595E-03     597.498E-03    -295.644E-03     90.9117E-03
            1984     12.0532E-03     44.4800E-03    -8.70541E+06     46.8854E+06     73.2043E+06    -679.488E+03    -294.891E-03     590.811E-03    -295.920E-03     195.317E-03    -306.273E-03     602.116E-03    -295.609E-03     141.822E-03
            1985     11.3845E-03     44.2065E-03    -14.2873E+06     38.7105E+06     68.1915E+06    -305.824E+03    -296.411E-03     592.279E-03    -295.868E-03     215.050E-03    -309.366E-03     605.122E-03    -295.562E-03     158.664E-03
            1986     10.7175E-03     43.8829E-03    -20.2013E+06     32.0467E+06     68.9984E+06     229.803E+03    -297.630E-03     593.454E-03    -295.824E-03     239.445E-03    -312.766E-03     608.433E-03    -295.497E-03     178.942E-03
            1987     10.0459E-03     43.5332E-03    -25.7866E+06     26.0972E+06     67.8505E+06     290.300E+03    -298.697E-03     594.466E-03    -295.769E-03     253.935E-03    -314.951E-03     610.524E-03    -295.431E-03     191.609E-03
            1988     9.37740E-03     43.1599E-03    -31.2712E+06     20.2264E+06     62.6415E+06    -48.8175E+03    -300.013E-03     595.698E-03    -295.686E-03     262.395E-03    -316.673E-03     612.138E-03    -295.356E-03     199.446E-03
            1989     8.70885E-03     42.7784E-03    -37.3455E+06     13.4633E+06     54.6371E+06    -1.02890E+06    -300.859E-03     596.433E-03    -295.574E-03     263.898E-03    -317.119E-03     612.450E-03    -295.266E-03     201.798E-03
            1990     8.03975E-03     42.3952E-03    -45.2476E+06     3.25429E+06     43.7759E+06    -1.63129E+06    -300.982E-03     596.444E-03    -295.461E-03     258.783E-03    -316.106E-03     611.291E-03    -295.181E-03     199.039E-03
            1991     7.37023E-03     42.0263E-03    -54.7081E+06    -8.15158E+06     32.6184E+06    -1.56408E+06    -300.772E-03     596.141E-03    -295.369E-03     247.679E-03    -314.255E-03     609.306E-03    -295.115E-03     191.428E-03
            1992     6.69992E-03     41.6761E-03    -64.1353E+06    -17.4978E+06     24.2439E+06    -742.756E+03    -300.361E-03     595.654E-03    -295.294E-03     230.904E-03    -311.860E-03     606.794E-03    -295.054E-03     179.168E-03
            1993     6.03033E-03     41.3527E-03    -72.7192E+06    -27.0621E+06     14.3642E+06    -242.123E+03    -299.838E-03     595.035E-03    -295.197E-03     210.626E-03    -309.277E-03     604.078E-03    -294.980E-03     163.982E-03
            1994     5.36132E-03     41.0587E-03    -81.4099E+06    -45.9033E+06    -1.55828E+06    -56.9129E+03    -299.230E-03     594.287E-03    -295.057E-03     188.715E-03    -306.715E-03     601.325E-03    -294.881E-03     147.464E-03
            1995     4.69179E-03     40.7978E-03    -90.4603E+06    -80.4444E+06    -21.8013E+06     419.778E+03    -298.469E-03     593.365E-03    -294.896E-03     165.754E-03    -304.168E-03     598.521E-03    -294.757E-03     130.078E-03
            1996     4.02182E-03     40.5698E-03    -99.4870E+06    -118.377E+06    -43.9697E+06     368.823E+03    -297.655E-03     592.367E-03    -294.712E-03     142.379E-03    -301.827E-03     595.893E-03    -294.616E-03     112.150E-03
            1997     3.35225E-03     40.3757E-03    -108.193E+06    -156.003E+06    -65.0691E+06     302.356E+03    -296.732E-03     591.255E-03    -294.523E-03     118.757E-03    -299.632E-03     593.406E-03    -294.465E-03     93.8775E-03
            1998     2.68218E-03     40.2172E-03    -116.596E+06    -185.223E+06    -85.8309E+06     334.198E+03    -295.804E-03     590.141E-03    -294.337E-03     95.2383E-03    -297.696E-03     591.211E-03    -294.328E-03     75.5670E-03
            1999     2.01175E-03     40.0930E-03    -123.899E+06    -205.425E+06    -105.654E+06     274.262E+03    -295.029E-03     589.198E-03    -294.169E-03     71.9527E-03    -296.163E-03     589.469E-03    -294.220E-03     57.2869E-03
            2000     1.34144E-03     40.0037E-03    -128.980E+06    -225.741E+06    -120.289E+06     240.601E+03    -294.411E-03     588.482E-03    -294.072E-03     48.5575E-03    -295.002E-03     588.163E-03    -294.159E-03     38.7521E-03
            2001     670.752E-06     39.9491E-03    -131.796E+06    -238.615E+06    -129.212E+06     580.595E+03    -293.889E-03     588.164E-03    -294.274E-03     26.3197E-03    -294.158E-03     587.493E-03    -294.383E-03     21.0067E-03
            2002     12.7199E-03     43.0199E-03    -4.43927E+06     49.3677E+06     77.4704E+06     229.439E+03    -294.986E-03     591.012E-03    -296.027E-03     134.653E-03    -302.212E-03     598.174E-03    -295.704E-03     92.5238E-03
            2003     12.0549E-03     42.7662E-03    -9.76275E+06     46.7611E+06     73.4832E+06    -295.096E+03    -296.177E-03     592.112E-03    -295.935E-03     195.679E-03    -307.617E-03     603.470E-03    -295.621E-03     141.817E-03
            2004     11.3861E-03     42.4910E-03    -14.2265E+06     39.4861E+06     70.2651E+06    -42.5288E+03    -296.577E-03     592.424E-03    -295.847E-03     215.295E-03    -309.549E-03     605.282E-03    -295.532E-03     158.881E-03
            2005     10.7148E-03     42.1694E-03    -18.3846E+06     33.2557E+06     71.7499E+06     66.9378E+03    -297.595E-03     593.394E-03    -295.799E-03     239.541E-03    -312.737E-03     608.381E-03    -295.462E-03     179.012E-03
            2006     10.0481E-03     41.8182E-03    -23.2603E+06     25.5385E+06     70.3237E+06    -758.707E+03    -299.158E-03     594.884E-03    -295.726E-03     253.748E-03    -315.397E-03     610.927E-03    -295.377E-03     191.296E-03
            2007     9.37893E-03     41.4476E-03    -29.1236E+06     19.2845E+06     64.7024E+06    -425.562E+03    -300.244E-03     595.856E-03    -295.612E-03     262.112E-03    -316.857E-03     612.246E-03    -295.274E-03     199.212E-03
            2008     8.70968E-03     41.0634E-03    -36.5357E+06     13.6042E+06     55.3227E+06     917.030E+03    -300.615E-03     596.106E-03    -295.491E-03     263.871E-03    -316.841E-03     612.090E-03    -295.181E-03     201.936E-03
            2009     8.04012E-03     40.6850E-03    -44.9391E+06     4.62571E+06     44.7011E+06     2.11290E+06    -300.847E-03     596.235E-03    -295.388E-03     258.609E-03    -315.967E-03     611.082E-03    -295.106E-03     198.925E-03
            2010     7.36989E-03     40.3138E-03    -53.5376E+06    -5.44028E+06     34.1409E+06     1.92180E+06    -300.959E-03     596.236E-03    -295.278E-03     246.609E-03    -314.399E-03     609.369E-03    -295.021E-03     190.401E-03
            2011     6.70140E-03     39.9645E-03    -62.3611E+06    -15.0776E+06     24.9746E+06     353.765E+03    -300.707E-03     595.852E-03    -295.145E-03     229.518E-03    -312.146E-03     606.944E-03    -294.908E-03     177.791E-03
            2012     6.03231E-03     39.6415E-03    -71.7993E+06    -26.2050E+06     13.8638E+06    -1.15315E+06    -300.074E-03     595.054E-03    -294.980E-03     209.597E-03    -309.470E-03     604.062E-03    -294.768E-03     162.963E-03
            2013     5.36242E-03     39.3480E-03    -81.5602E+06    -47.8358E+06    -3.40662E+06    -1.44123E+06    -299.188E-03     593.976E-03    -294.788E-03     187.709E-03    -306.624E-03     600.963E-03    -294.618E-03     146.552E-03
            2014     4.69273E-03     39.0877E-03    -91.1237E+06    -82.8629E+06    -23.3709E+06    -1.05452E+06    -298.268E-03     592.867E-03    -294.599E-03     164.940E-03    -303.935E-03     597.984E-03    -294.463E-03     129.342E-03
            2015     4.02356E-03     38.8600E-03    -100.361E+06    -118.405E+06    -44.4910E+06    -356.851E+03    -297.276E-03     591.685E-03    -294.409E-03     141.981E-03    -301.434E-03     595.196E-03    -294.314E-03     111.853E-03
            2016     3.35341E-03     38.6682E-03    -109.102E+06    -156.077E+06    -65.5816E+06    -18.2669E+03    -296.281E-03     590.523E-03    -294.242E-03     118.711E-03    -299.179E-03     592.669E-03    -294.185E-03     93.9098E-03
            2017     2.68295E-03     38.5100E-03    -117.065E+06    -185.667E+06    -86.3812E+06     180.530E+03    -295.452E-03     589.538E-03    -294.086E-03     95.2928E-03    -297.343E-03     590.605E-03    -294.079E-03     75.6701E-03
            2018     2.01250E-03     38.3870E-03    -123.511E+06    -204.782E+06    -105.523E+06     391.472E+03    -294.755E-03     588.695E-03    -293.940E-03     71.8150E-03    -295.885E-03     588.966E-03    -293.992E-03     57.1929E-03
            2019     1.34150E-03     38.2979E-03    -128.526E+06    -225.163E+06    -120.766E+06     196.201E+03    -294.196E-03     588.040E-03    -293.844E-03     48.4785E-03    -294.784E-03     587.723E-03    -293.935E-03     38.6696E-03
            2020     670.844E-06     38.2435E-03    -131.135E+06    -238.015E+06    -129.918E+06    -403.005E+03    -293.763E-03     587.706E-03    -293.943E-03     26.2298E-03    -294.030E-03     587.040E-03    -294.057E-03     20.8283E-03
            2021     12.7228E-03     41.3022E-03    -4.29482E+06     49.5113E+06     78.5863E+06     602.622E+03    -295.271E-03     591.314E-03    -296.042E-03     132.547E-03    -302.421E-03     598.396E-03    -295.715E-03     90.6018E-03
            2022     12.0530E-03     41.0457E-03    -7.91792E+06     48.6097E+06     75.7578E+06     102.012E+03    -295.810E-03     591.757E-03    -295.947E-03     194.336E-03    -307.217E-03     603.089E-03    -295.628E-03     140.501E-03
            2023     11.3849E-03     40.7780E-03    -11.9164E+06      39.494E+06     71.5973E+06    -1.22862E+06    -296.872E-03     592.725E-03    -295.853E-03     215.211E-03    -309.865E-03     605.608E-03    -295.535E-03     158.603E-03
            2024     10.7179E-03     40.4548E-03    -16.4128E+06     31.5221E+06     72.1126E+06    -1.11921E+06    -298.195E-03     593.969E-03    -295.774E-03     239.629E-03    -313.323E-03     608.942E-03    -295.436E-03     178.966E-03
            2025     10.0472E-03     40.1035E-03    -22.9104E+06     25.2916E+06     70.1125E+06     126.876E+03    -299.306E-03     594.980E-03    -295.674E-03     253.602E-03    -315.508E-03     610.987E-03    -295.327E-03     191.230E-03
            2026     9.37914E-03     39.7315E-03    -30.9832E+06     18.3127E+06     63.6638E+06     654.749E+03    -300.031E-03     595.593E-03    -295.562E-03     262.123E-03    -316.623E-03     611.956E-03    -295.225E-03     199.365E-03
            2027     8.70988E-03     39.3533E-03    -38.7893E+06     11.2283E+06     54.8813E+06     1.11351E+06    -300.805E-03     596.249E-03    -295.445E-03     263.815E-03    -317.027E-03     612.215E-03    -295.130E-03     201.872E-03
            2028     8.04027E-03     38.9708E-03    -45.8292E+06     3.56554E+06     45.3959E+06     1.28119E+06    -301.462E-03     596.762E-03    -295.300E-03     257.911E-03    -316.555E-03     611.573E-03    -295.012E-03     198.143E-03
            2029     7.37262E-03     38.6024E-03    -52.1672E+06    -3.73675E+06     36.8732E+06     1.57970E+06    -301.448E-03     596.573E-03    -295.125E-03     245.778E-03    -314.838E-03     609.658E-03    -294.859E-03     189.585E-03
            2030     6.70278E-03     38.2527E-03    -59.5049E+06    -12.0612E+06     27.8954E+06     1.56629E+06    -300.924E-03     595.856E-03    -294.932E-03     229.054E-03    -312.324E-03     606.921E-03    -294.689E-03     177.396E-03
            2031     6.03353E-03     37.9300E-03    -68.6183E+06    -23.4575E+06     15.5884E+06     1.36442E+06    -300.086E-03     594.807E-03    -294.721E-03     209.036E-03    -309.437E-03     603.785E-03    -294.509E-03     162.536E-03
            2032     5.36464E-03     37.6385E-03    -78.7536E+06    -46.3583E+06    -1.82091E+06     968.211E+03    -299.030E-03     593.537E-03    -294.507E-03     187.409E-03    -306.433E-03     600.501E-03    -294.335E-03     146.395E-03
            2033     4.69511E-03     37.3786E-03    -89.1669E+06    -82.3841E+06    -22.4574E+06     401.483E+03    -297.897E-03     592.215E-03    -294.318E-03     164.871E-03    -303.541E-03     597.314E-03    -294.181E-03     129.420E-03
            2034     4.02420E-03     37.1530E-03    -99.1895E+06    -118.412E+06    -44.5267E+06     168.721E+03    -296.794E-03     590.947E-03    -294.153E-03     141.767E-03    -300.927E-03     594.436E-03    -294.060E-03     111.793E-03
            2035     3.35358E-03     36.9608E-03    -108.375E+06    -156.497E+06    -66.0283E+06     7.44785E+03    -295.914E-03     589.933E-03    -294.019E-03     118.313E-03    -298.792E-03     592.062E-03    -293.965E-03     93.6161E-03
            2036     2.68315E-03     36.8041E-03    -116.456E+06    -186.268E+06    -86.1753E+06     121.284E+03    -295.224E-03     589.104E-03    -293.880E-03     94.8172E-03    -297.103E-03     590.158E-03    -293.872E-03     75.2381E-03
            2037     2.01241E-03     36.6808E-03    -123.172E+06    -204.735E+06    -105.013E+06     403.728E+03    -294.565E-03     588.292E-03    -293.727E-03     71.2501E-03    -295.688E-03     588.556E-03    -293.777E-03     56.6669E-03
            2038     1.34201E-03     36.5932E-03    -128.334E+06    -223.711E+06    -120.054E+06     473.532E+03    -293.978E-03     587.594E-03    -293.616E-03     47.9635E-03    -294.564E-03     587.278E-03    -293.706E-03     38.2029E-03
            2039     670.750E-06     36.5389E-03    -132.227E+06    -237.868E+06    -129.725E+06     271.886E+03    -294.017E-03     587.230E-03    -293.213E-03     26.3227E-03    -294.288E-03     586.566E-03    -293.325E-03     20.9422E-03
            2040     12.7239E-03     39.5891E-03    -3.32604E+06     49.8819E+06     78.7444E+06    -615.625E+03    -295.133E-03     591.135E-03    -296.002E-03     133.253E-03    -302.265E-03     598.204E-03    -295.676E-03     91.4142E-03
            2041     12.0545E-03     39.3327E-03    -7.23516E+06     49.1898E+06     74.9196E+06    -764.748E+03    -295.355E-03     591.278E-03    -295.923E-03     194.406E-03    -306.691E-03     602.545E-03    -295.609E-03     140.853E-03
            2042     11.3851E-03     39.0606E-03    -12.8278E+06     39.7526E+06     70.2857E+06    -705.963E+03    -297.077E-03     592.913E-03    -295.836E-03     214.402E-03    -310.019E-03     605.747E-03    -295.523E-03     157.829E-03
            2043     10.7156E-03     38.7383E-03    -20.1233E+06     30.5054E+06     69.3812E+06    -860.458E+03    -298.454E-03     594.189E-03    -295.735E-03     239.014E-03    -313.572E-03     609.142E-03    -295.403E-03     178.296E-03
            2044     10.0493E-03     38.3886E-03    -26.9651E+06     23.3356E+06     66.4721E+06    -312.574E+03    -299.000E-03     594.627E-03    -295.626E-03     252.975E-03    -315.174E-03     610.594E-03    -295.288E-03     190.710E-03
            2045     9.37903E-03     38.0204E-03    -32.5898E+06     17.1717E+06     61.5520E+06     430.751E+03    -300.079E-03     595.596E-03    -295.518E-03     261.658E-03    -316.650E-03     611.935E-03    -295.187E-03     198.885E-03
            2046     8.70982E-03     37.6378E-03    -38.5012E+06     11.4013E+06     54.2996E+06     247.630E+03    -301.421E-03     596.786E-03    -295.366E-03     263.035E-03    -317.614E-03     612.726E-03    -295.055E-03     200.942E-03
            2047     8.04247E-03     37.2578E-03    -45.3898E+06     3.61780E+06     44.8239E+06    -284.524E+03    -301.823E-03     596.988E-03    -295.165E-03     257.145E-03    -316.855E-03     611.742E-03    -294.881E-03     197.401E-03
            2048     7.37254E-03     36.8892E-03     -53.286E+06    -5.73166E+06     34.4827E+06    -863.378E+03    -301.600E-03     596.548E-03    -294.948E-03     245.608E-03    -314.957E-03     609.596E-03    -294.690E-03     189.435E-03
            2049     6.70453E-03     36.5408E-03    -61.3385E+06    -14.3555E+06     26.0107E+06    -144.323E+03    -300.993E-03     595.726E-03    -294.733E-03     229.010E-03    -312.374E-03     606.762E-03    -294.493E-03     177.404E-03
            2050     6.03547E-03     36.2198E-03    -69.8650E+06    -24.4364E+06     15.2312E+06     1.27624E+06    -299.962E-03     594.473E-03    -294.512E-03     209.029E-03    -309.291E-03     603.423E-03    -294.299E-03     162.660E-03
            2051     5.36530E-03     35.9287E-03    -79.4682E+06    -44.9060E+06    -1.60519E+06     2.12481E+06    -298.840E-03     593.132E-03    -294.293E-03     187.297E-03    -306.227E-03     600.083E-03    -294.121E-03     146.411E-03
            2052     4.69490E-03     35.6707E-03    -89.3596E+06    -79.7346E+06    -22.2615E+06     1.87664E+06    -297.729E-03     591.823E-03    -294.094E-03     164.357E-03    -303.353E-03     596.912E-03    -293.960E-03     129.023E-03
            2053     4.02525E-03     35.4459E-03    -98.7459E+06    -116.574E+06    -44.3885E+06     1.02944E+06    -296.673E-03     590.582E-03    -293.909E-03     140.958E-03    -300.783E-03     594.056E-03    -293.819E-03     111.072E-03
            2054     3.35491E-03     35.2552E-03    -107.818E+06    -155.809E+06    -65.6082E+06     668.969E+03    -295.754E-03     589.500E-03    -293.746E-03     117.446E-03    -298.608E-03     591.608E-03    -293.692E-03     92.8567E-03
            2055     2.68413E-03     35.0982E-03    -116.236E+06    -186.577E+06    -85.8771E+06     616.110E+03    -294.952E-03     588.537E-03    -293.585E-03     93.9717E-03    -296.812E-03     589.571E-03    -293.575E-03     74.4968E-03
            2056     2.01357E-03     34.9761E-03    -123.203E+06    -204.337E+06    -104.959E+06     648.176E+03    -294.204E-03     587.631E-03    -293.428E-03     70.5732E-03    -295.318E-03     587.887E-03    -293.477E-03     56.0541E-03
            2057     1.34218E-03     34.8890E-03    -128.331E+06    -222.902E+06    -120.029E+06     538.589E+03    -293.710E-03     587.019E-03    -293.308E-03     47.6754E-03    -294.295E-03     586.704E-03    -293.399E-03     37.9393E-03
            2058     671.499E-06     34.8350E-03    -131.582E+06    -236.131E+06    -129.328E+06     527.147E+03    -293.813E-03     586.590E-03    -292.776E-03     25.9714E-03    -294.081E-03     585.931E-03    -292.890E-03     20.7178E-03
            2059     12.7218E-03     37.8725E-03    -4.79644E+06     50.6043E+06     76.6495E+06    -1.20980E+06    -295.458E-03     591.470E-03    -296.011E-03     133.683E-03    -302.622E-03     598.573E-03    -295.695E-03     91.6016E-03
            2060     12.0539E-03     37.6165E-03    -9.84351E+06     47.5655E+06     71.4410E+06    -192.426E+03    -296.290E-03     592.185E-03    -295.895E-03     194.284E-03    -307.615E-03     603.436E-03    -295.592E-03     140.611E-03
            2061     11.3858E-03     37.3459E-03    -15.4402E+06     40.0674E+06     68.0421E+06     530.976E+03    -297.110E-03     592.892E-03    -295.782E-03     214.120E-03    -310.021E-03     605.693E-03    -295.477E-03     157.665E-03
            2062     10.7189E-03     37.0219E-03    -20.1972E+06     32.6822E+06     68.6986E+06     171.261E+03    -297.839E-03     593.538E-03    -295.698E-03     238.716E-03    -312.931E-03     608.475E-03    -295.373E-03     178.182E-03
            2063     10.0478E-03     36.6759E-03    -24.5085E+06     22.7172E+06     67.0992E+06    -367.517E+03    -299.230E-03     594.837E-03    -295.606E-03     253.156E-03    -315.410E-03     610.815E-03    -295.268E-03     190.799E-03
            2064     9.37967E-03     36.3057E-03    -30.6580E+06     15.2519E+06     62.8084E+06    -278.274E+03    -300.977E-03     596.437E-03    -295.461E-03     261.483E-03    -317.534E-03     612.758E-03    -295.124E-03     198.512E-03
            2065     8.71227E-03     35.9232E-03    -37.9472E+06     11.0811E+06     54.3983E+06     184.453E+03    -301.672E-03     596.925E-03    -295.253E-03     262.496E-03    -317.796E-03     612.796E-03    -294.942E-03     200.511E-03
            2066     8.04259E-03     35.5447E-03    -45.2977E+06     4.76569E+06     44.6762E+06     157.640E+03    -301.767E-03     596.799E-03    -295.032E-03     256.903E-03    -316.759E-03     611.518E-03    -294.750E-03     197.252E-03
            2067     7.37486E-03     35.1769E-03    -53.4283E+06    -4.96785E+06     33.8172E+06     140.847E+03    -301.591E-03     596.396E-03    -294.805E-03     245.415E-03    -314.922E-03     609.422E-03    -294.551E-03     189.309E-03
            2068     6.70510E-03     34.8292E-03    -62.8507E+06    -15.8137E+06     22.8865E+06     40.8855E+03    -300.931E-03     595.502E-03    -294.571E-03     228.637E-03    -312.280E-03     606.505E-03    -294.342E-03     177.111E-03
            2069     6.03551E-03     34.5093E-03    -72.5156E+06    -27.2000E+06     11.7952E+06     53.6875E+03    -299.991E-03     594.321E-03    -294.330E-03     208.269E-03    -309.287E-03     603.229E-03    -294.127E-03     161.940E-03
            2070     5.36635E-03     34.2200E-03    -81.6311E+06    -45.8855E+06    -3.51340E+06     467.246E+03    -298.828E-03     592.907E-03    -294.079E-03     185.986E-03    -306.172E-03     599.809E-03    -293.912E-03     145.170E-03
            2071     4.69697E-03     33.9631E-03    -90.6798E+06    -78.1546E+06    -22.9823E+06     926.756E+03    -297.632E-03     591.473E-03    -293.842E-03     163.086E-03    -303.220E-03     596.529E-03    -293.712E-03     127.860E-03
            2072     4.02637E-03     33.7394E-03    -99.8273E+06    -115.262E+06    -44.7967E+06     860.603E+03    -296.575E-03     590.192E-03    -293.616E-03     140.057E-03    -300.664E-03     593.647E-03    -293.529E-03     110.263E-03
            2073     3.35579E-03     33.5497E-03    -108.470E+06    -155.489E+06    -65.8810E+06     622.607E+03    -295.607E-03     589.018E-03    -293.411E-03     116.799E-03    -298.447E-03     591.111E-03    -293.357E-03     92.2958E-03
            2074     2.68525E-03     33.3937E-03    -116.212E+06    -186.292E+06    -85.7799E+06     756.089E+03    -294.604E-03     587.827E-03    -293.223E-03     93.4033E-03    -296.449E-03     588.847E-03    -293.213E-03     74.0397E-03
            2075     2.01380E-03     33.2728E-03    -122.980E+06    -203.640E+06    -104.878E+06     627.119E+03    -293.784E-03     586.852E-03    -293.069E-03     70.1915E-03    -294.890E-03     587.104E-03    -293.119E-03     55.7480E-03
            2076     1.34282E-03     33.1858E-03    -128.117E+06    -221.734E+06    -119.873E+06     395.111E+03    -293.337E-03     586.300E-03    -292.963E-03     47.4253E-03    -293.919E-03     585.988E-03    -293.055E-03     37.7265E-03
            2077     671.179E-06     33.1320E-03    -130.080E+06    -234.541E+06    -129.115E+06     419.818E+03    -293.720E-03     585.909E-03    -292.190E-03     25.5524E-03    -293.981E-03     585.254E-03    -292.307E-03     20.3363E-03
            2078     12.7227E-03     36.1529E-03    -4.31717E+06     50.5223E+06     76.8463E+06    -44.3276E+03    -296.010E-03     592.015E-03    -296.005E-03     132.277E-03    -303.110E-03     599.057E-03    -295.688E-03     90.2777E-03
            2079     12.0549E-03     35.9011E-03    -8.36984E+06     44.3514E+06     72.7728E+06     172.412E+03    -296.146E-03     592.027E-03    -295.881E-03     193.511E-03    -307.440E-03     603.237E-03    -295.569E-03     139.847E-03
            2080     11.3871E-03     35.6275E-03    -11.5583E+06     40.1237E+06     70.3537E+06     832.563E+03    -296.676E-03     592.458E-03    -295.782E-03     214.994E-03    -309.607E-03     605.286E-03    -295.472E-03     158.594E-03
            2081     10.7160E-03     35.3106E-03    -16.3933E+06     34.2223E+06     70.6058E+06     1.23215E+06    -298.092E-03     593.798E-03    -295.706E-03     239.389E-03    -313.190E-03     608.755E-03    -295.379E-03     178.814E-03
            2082     10.0483E-03     34.9594E-03    -23.5863E+06     23.5250E+06     67.1981E+06     1.02482E+06    -300.049E-03     595.627E-03    -295.578E-03     252.902E-03    -316.193E-03     611.576E-03    -295.242E-03     190.438E-03
            2083     9.38107E-03     34.5885E-03    -31.0443E+06     15.9880E+06     62.0895E+06     712.357E+03    -301.242E-03     596.631E-03    -295.389E-03     261.003E-03    -317.752E-03     612.907E-03    -295.056E-03     198.082E-03
            2084     8.71199E-03     34.2100E-03    -38.1353E+06     11.3353E+06     54.0218E+06     520.287E+03    -301.699E-03     596.867E-03    -295.168E-03     262.557E-03    -317.803E-03     612.719E-03    -294.859E-03     200.625E-03
            2085     8.04412E-03     33.8311E-03    -45.6346E+06     4.37545E+06     44.9663E+06     790.768E+03    -301.935E-03     596.875E-03    -294.940E-03     256.861E-03    -316.890E-03     611.553E-03    -294.655E-03     197.287E-03
            2086     7.37454E-03     33.4640E-03    -53.8482E+06    -4.54460E+06       35.02E+06     1.34676E+06    -301.815E-03     596.505E-03    -294.690E-03     244.836E-03    -315.094E-03     609.475E-03    -294.430E-03     188.833E-03
            2087     6.70614E-03     33.1183E-03    -62.1043E+06    -14.3627E+06     24.2882E+06     1.42211E+06    -301.185E-03     595.594E-03    -294.410E-03     227.387E-03    -312.462E-03     606.530E-03    -294.177E-03     175.972E-03
            2088     6.03752E-03     32.7987E-03    -70.8838E+06    -26.0684E+06     12.3823E+06     954.874E+03    -300.082E-03     594.194E-03    -294.112E-03     206.786E-03    -309.303E-03     603.035E-03    -293.910E-03     160.581E-03
            2089     5.36812E-03     32.5113E-03    -80.3925E+06    -45.8629E+06    -3.79237E+06     383.416E+03    -298.774E-03     592.588E-03    -293.815E-03     184.819E-03    -306.060E-03     599.437E-03    -293.650E-03     144.131E-03
            2090     4.69775E-03     32.2560E-03    -90.0524E+06    -78.6982E+06    -23.3406E+06     240.959E+03    -297.589E-03     591.125E-03    -293.536E-03     162.177E-03    -303.132E-03     596.137E-03    -293.408E-03     127.064E-03
            2091     4.02771E-03     32.0339E-03    -99.0717E+06    -114.766E+06    -44.5880E+06     241.969E+03    -296.491E-03     589.752E-03    -293.261E-03     138.947E-03    -300.539E-03     593.171E-03    -293.174E-03     109.268E-03
            2092     3.35728E-03     31.8449E-03    -107.410E+06    -154.975E+06    -65.2090E+06     268.361E+03    -295.347E-03     588.355E-03    -293.007E-03     115.492E-03    -298.148E-03     590.413E-03    -292.953E-03     91.1142E-03
            2093     2.68609E-03     31.6909E-03    -115.185E+06    -186.357E+06    -84.9619E+06     534.013E+03    -294.240E-03     587.023E-03    -292.783E-03     92.1289E-03    -296.055E-03     588.014E-03    -292.771E-03     72.9050E-03
            2094     2.01500E-03     31.5707E-03    -122.199E+06    -203.006E+06    -104.226E+06     789.294E+03    -293.388E-03     585.980E-03    -292.592E-03     69.2070E-03    -294.472E-03     586.212E-03    -292.642E-03     54.9188E-03
            2095     1.34325E-03     31.4838E-03    -127.323E+06    -220.590E+06    -119.377E+06     565.429E+03    -292.841E-03     585.303E-03    -292.462E-03     46.7032E-03    -293.412E-03     584.986E-03    -292.555E-03     37.1176E-03
            2096     671.916E-06     31.4309E-03    -129.877E+06    -233.496E+06    -128.006E+06     16.0161E+03    -292.452E-03     584.900E-03    -292.449E-03     25.7000E-03    -292.714E-03     584.246E-03    -292.562E-03     20.5034E-03
            2097     12.7237E-03     34.4365E-03    -3.55466E+06     51.1553E+06     77.9658E+06    -330.127E+03    -295.866E-03     591.885E-03    -296.019E-03     133.725E-03    -303.007E-03     598.969E-03    -295.698E-03     91.7437E-03
            2098     12.0551E-03     34.1842E-03    -7.80633E+06     43.1079E+06     73.3467E+06    -1.03166E+06    -295.736E-03     591.654E-03    -295.918E-03     194.728E-03    -307.069E-03     602.899E-03    -295.602E-03     141.083E-03
            2099     11.3842E-03     33.9156E-03    -12.9450E+06     36.5274E+06     70.2514E+06     185.146E+03    -297.016E-03     592.845E-03    -295.829E-03     214.968E-03    -309.943E-03     605.651E-03    -295.512E-03     158.505E-03
            2100     10.7171E-03     33.5928E-03    -19.0257E+06     32.6569E+06     70.3719E+06     1.79831E+06    -298.973E-03     594.685E-03    -295.712E-03     238.837E-03    -314.049E-03     609.605E-03    -295.380E-03     178.126E-03
            2101     10.0500E-03     33.2421E-03    -25.5386E+06     25.4911E+06     67.0676E+06     2.16619E+06    -300.263E-03     595.804E-03    -295.541E-03     252.769E-03    -316.385E-03     611.731E-03    -295.205E-03     190.363E-03
            2102     9.38074E-03     32.8751E-03    -31.6784E+06     18.6760E+06     61.7794E+06     1.23179E+06    -301.147E-03     596.490E-03    -295.343E-03     261.085E-03    -317.638E-03     612.756E-03    -295.015E-03     198.237E-03
            2103     8.71282E-03     32.4942E-03    -38.8626E+06     11.8741E+06     52.5644E+06     528.371E+03    -302.023E-03     597.129E-03    -295.106E-03     262.042E-03    -318.084E-03     612.942E-03    -294.804E-03     200.073E-03
            2104     8.04396E-03     32.1180E-03    -46.4880E+06     3.42879E+06     42.8749E+06     675.767E+03    -302.475E-03     597.303E-03    -294.828E-03     255.739E-03    -317.363E-03     611.914E-03    -294.551E-03     196.124E-03
            2105     7.37623E-03     31.7512E-03    -53.6097E+06    -5.06799E+06     33.3180E+06      807.63E+03    -302.229E-03     596.738E-03    -294.509E-03     243.053E-03    -315.403E-03     609.607E-03    -294.257E-03     187.108E-03
            2106     6.70788E-03     31.4058E-03    -61.0865E+06    -14.2373E+06     24.2859E+06     744.990E+03    -301.289E-03     595.463E-03    -294.174E-03     225.744E-03    -312.463E-03     606.298E-03    -293.943E-03     174.472E-03
            2107     6.03886E-03     31.0891E-03    -69.7211E+06    -25.2235E+06     13.7863E+06     1.10150E+06    -300.033E-03     593.871E-03    -293.838E-03     205.402E-03    -309.167E-03     602.629E-03    -293.632E-03     159.397E-03
            2108     5.36919E-03     30.8032E-03    -79.1528E+06    -44.3440E+06    -2.91271E+06     1.35658E+06    -298.816E-03     592.304E-03    -293.488E-03     183.096E-03    -306.007E-03     599.065E-03    -293.323E-03     142.645E-03
            2109     4.69977E-03     30.5497E-03    -88.3950E+06    -77.5586E+06    -22.9452E+06     537.049E+03    -297.665E-03     590.797E-03    -293.132E-03     160.166E-03    -303.124E-03     595.734E-03    -293.006E-03     125.231E-03
            2110     4.02965E-03     30.3283E-03    -97.4140E+06    -114.182E+06    -43.9224E+06     106.381E+03    -296.341E-03     589.117E-03    -292.776E-03     136.936E-03    -300.317E-03     592.469E-03    -292.688E-03     107.460E-03
            2111     3.35897E-03     30.1421E-03    -106.221E+06    -155.088E+06    -64.5213E+06     375.006E+03    -295.010E-03     587.464E-03    -292.454E-03     113.696E-03    -297.754E-03     589.468E-03    -292.398E-03     89.5455E-03
            2112     2.68802E-03     29.9891E-03    -114.314E+06    -186.939E+06    -84.3016E+06     646.888E+03    -293.901E-03     586.057E-03    -292.156E-03     90.6149E-03    -295.675E-03     587.006E-03    -292.141E-03     71.5891E-03
            2113     2.01627E-03     29.8703E-03    -120.864E+06    -202.033E+06    -102.959E+06     861.152E+03    -292.958E-03     584.823E-03    -291.865E-03     67.8698E-03    -294.017E-03     585.034E-03    -291.911E-03     53.7490E-03
            2114     1.34451E-03     29.7842E-03    -125.723E+06    -218.554E+06    -117.900E+06     611.003E+03    -292.158E-03     583.793E-03    -291.635E-03     45.5445E-03    -292.712E-03     583.467E-03    -291.725E-03     36.1067E-03
            2115     672.070E-06     29.7315E-03    -130.343E+06    -232.773E+06    -126.759E+06     292.617E+03    -291.291E-03     583.138E-03    -291.847E-03     24.2174E-03    -291.552E-03     582.480E-03    -291.955E-03     19.0945E-03
            2116     12.7208E-03     32.7195E-03    -4.72325E+06     53.6199E+06     76.4350E+06    -324.433E+03    -295.297E-03     591.369E-03    -296.073E-03     132.889E-03    -302.405E-03     598.430E-03    -295.761E-03     91.0437E-03
            2117     12.0519E-03     32.4676E-03    -10.0769E+06     43.9326E+06     71.7842E+06    -507.934E+03    -296.164E-03     592.144E-03    -295.980E-03     193.780E-03    -307.447E-03     603.338E-03    -295.670E-03     140.195E-03
            2118     11.3858E-03     32.1990E-03    -15.3293E+06     30.7593E+06     68.1493E+06     274.223E+03    -298.032E-03     593.888E-03    -295.856E-03     214.792E-03    -310.956E-03     606.669E-03    -295.538E-03     158.131E-03
            2119     10.7178E-03     31.8740E-03    -19.7138E+06     29.6768E+06     69.7533E+06     1.36982E+06    -299.104E-03     594.812E-03    -295.709E-03     239.290E-03    -314.188E-03     609.729E-03    -295.374E-03     178.551E-03
            2120     10.0485E-03     31.5283E-03    -24.7453E+06     27.4967E+06     68.2404E+06     1.80354E+06    -300.151E-03     595.692E-03    -295.541E-03     253.079E-03    -316.258E-03     611.611E-03    -295.204E-03     190.732E-03
            2121     9.38111E-03     31.1570E-03    -31.0343E+06     20.2570E+06     62.8423E+06     1.57780E+06    -301.712E-03     597.042E-03    -295.331E-03     261.006E-03    -318.164E-03     613.274E-03    -295.001E-03     198.107E-03
            2122     8.71304E-03     30.7807E-03    -37.4152E+06     13.3639E+06     54.4406E+06     1.26427E+06    -302.911E-03     597.948E-03    -295.038E-03     261.254E-03    -318.900E-03     613.694E-03    -294.731E-03     199.227E-03
            2123     8.04591E-03     30.4019E-03    -43.9780E+06     3.60434E+06     44.6587E+06     697.392E+03    -303.279E-03     597.953E-03    -294.674E-03     254.447E-03    -318.070E-03     612.472E-03    -294.393E-03     194.808E-03
            2124     7.37845E-03     30.0379E-03    -51.1087E+06    -5.60389E+06     34.8578E+06     888.005E+03    -302.637E-03     596.911E-03    -294.274E-03     241.621E-03    -315.699E-03     609.670E-03    -294.017E-03     185.771E-03
            2125     6.70985E-03     29.6955E-03    -59.4371E+06    -13.9259E+06     24.9972E+06     1.57780E+06    -301.520E-03     595.385E-03    -293.865E-03     223.988E-03    -312.567E-03     606.100E-03    -293.634E-03     172.920E-03
            2126     6.04089E-03     29.3796E-03    -68.5522E+06    -25.0335E+06     13.6196E+06     1.70260E+06    -300.251E-03     593.698E-03    -293.446E-03     202.808E-03    -309.235E-03     602.310E-03    -293.243E-03     157.074E-03
            2127     5.37209E-03     29.0956E-03    -77.7393E+06    -42.9787E+06    -2.26565E+06     1.47250E+06    -299.012E-03     592.008E-03    -292.997E-03     180.467E-03    -306.069E-03     598.644E-03    -292.833E-03     140.285E-03
            2128     4.70254E-03     28.8432E-03    -87.1499E+06    -75.5626E+06    -22.0648E+06     1.34122E+06    -297.678E-03     590.207E-03    -292.528E-03     157.498E-03    -303.022E-03     595.037E-03    -292.403E-03     122.872E-03
            2129     4.03246E-03     28.6253E-03    -96.4359E+06    -112.887E+06    -43.4051E+06     1.09855E+06    -296.085E-03     588.148E-03    -292.063E-03     134.096E-03    -299.958E-03     591.403E-03    -291.976E-03     104.980E-03
            2130     3.36156E-03     28.4403E-03    -105.309E+06    -154.901E+06    -63.7783E+06     802.022E+03    -294.604E-03     586.240E-03    -291.637E-03     110.982E-03    -297.265E-03     588.163E-03    -291.578E-03     87.1782E-03
            2131     2.69003E-03     28.2896E-03    -113.178E+06    -186.977E+06    -82.7870E+06     685.416E+03    -293.328E-03     584.558E-03    -291.230E-03     88.2558E-03    -295.048E-03     585.452E-03    -291.209E-03     69.4976E-03
            2132     2.01849E-03     28.1716E-03    -119.881E+06    -200.994E+06    -101.391E+06     798.672E+03    -292.149E-03     582.981E-03    -290.832E-03     66.0479E-03    -293.176E-03     583.163E-03    -290.874E-03     52.1441E-03
            2133     1.34618E-03     28.0878E-03    -124.632E+06    -216.509E+06    -116.209E+06     923.988E+03    -291.202E-03     581.703E-03    -290.502E-03     44.4017E-03    -291.743E-03     581.370E-03    -290.588E-03     35.1234E-03
            2134     673.442E-06     28.0363E-03    -127.434E+06    -230.782E+06    -126.676E+06     666.562E+03    -290.738E-03     580.759E-03    -290.022E-03     23.8355E-03    -290.983E-03     580.103E-03    -290.136E-03     18.8254E-03
            2135     12.7221E-03     31.0046E-03    -4.13388E+06     53.9017E+06     76.5374E+06     1.33536E+06    -295.557E-03     591.667E-03    -296.110E-03     132.037E-03    -302.632E-03     598.697E-03    -295.799E-03     90.2023E-03
            2136     12.0537E-03     30.7514E-03    -8.21679E+06     44.1138E+06     72.0231E+06     1.06493E+06    -296.409E-03     592.414E-03    -296.004E-03     193.801E-03    -307.658E-03     603.581E-03    -295.696E-03     140.247E-03
            2137     11.3846E-03     30.4786E-03    -12.8299E+06     30.2477E+06     68.6445E+06     842.252E+03    -297.708E-03     593.599E-03    -295.891E-03     215.241E-03    -310.615E-03     606.368E-03    -295.573E-03     158.693E-03
            2138     10.7165E-03     30.1592E-03    -18.4107E+06     29.7264E+06     70.0448E+06     1.11317E+06    -299.095E-03     594.857E-03    -295.763E-03     240.062E-03    -314.192E-03     609.791E-03    -295.429E-03     179.315E-03
            2139     10.0492E-03     29.8107E-03    -24.1627E+06     27.1123E+06     68.2648E+06     934.716E+03    -301.135E-03     596.706E-03    -295.571E-03     253.424E-03    -317.240E-03     612.623E-03    -295.234E-03     190.843E-03
            2140     9.38087E-03     29.4414E-03    -30.0203E+06     20.3020E+06     62.9677E+06     962.445E+03    -302.906E-03     598.188E-03    -295.281E-03     259.943E-03    -319.282E-03     614.346E-03    -294.952E-03     196.863E-03
            2141     8.71407E-03     29.0619E-03    -35.9304E+06     13.6876E+06     54.3589E+06     814.720E+03    -303.756E-03     598.647E-03    -294.891E-03     259.502E-03    -319.630E-03     614.284E-03    -294.587E-03     197.390E-03
            2142     8.04747E-03     28.6858E-03    -42.8677E+06     4.05321E+06     43.9020E+06     1.37098E+06    -303.700E-03     598.143E-03    -294.442E-03     252.417E-03    -318.331E-03     612.508E-03    -294.167E-03     192.918E-03
            2143     7.37966E-03     28.3249E-03    -50.9975E+06    -6.20328E+06     33.9868E+06     1.38731E+06    -303.198E-03     597.158E-03    -293.960E-03     239.307E-03    -316.086E-03     609.745E-03    -293.707E-03     183.624E-03
            2144     6.71235E-03     27.9829E-03    -59.1766E+06    -14.1489E+06     25.9924E+06     1.56235E+06    -302.305E-03     595.740E-03    -293.435E-03     220.942E-03    -313.163E-03     606.263E-03    -293.199E-03     170.086E-03
            2145     6.04481E-03     27.6710E-03    -67.6858E+06    -24.5033E+06     14.8928E+06     2.13872E+06    -300.911E-03     593.767E-03    -292.857E-03     199.424E-03    -309.693E-03     602.180E-03    -292.648E-03     154.036E-03
            2146     5.37576E-03     27.3886E-03     -77.197E+06    -42.0636E+06    -1.80402E+06     2.19178E+06    -299.315E-03     591.548E-03    -292.233E-03     176.729E-03    -306.194E-03     598.009E-03    -292.069E-03     136.933E-03
            2147     4.70646E-03     27.1387E-03    -86.8568E+06    -73.8226E+06    -21.2825E+06     1.86206E+06    -297.516E-03     589.121E-03    -291.605E-03     153.232E-03    -302.691E-03     593.788E-03    -291.478E-03     119.088E-03
            2148     4.03649E-03     26.9233E-03    -95.7717E+06    -110.693E+06    -42.1639E+06     1.20541E+06    -295.658E-03     586.646E-03    -290.988E-03     129.924E-03    -299.391E-03     589.768E-03    -290.899E-03     101.290E-03
            2149     3.36571E-03     26.7419E-03    -103.973E+06    -153.571E+06    -62.0611E+06     819.060E+03    -293.888E-03     584.308E-03    -290.420E-03     107.447E-03    -296.449E-03     586.134E-03    -290.357E-03     84.0609E-03
            2150     2.69422E-03     26.5926E-03    -111.966E+06    -186.531E+06    -81.2058E+06     897.618E+03    -292.231E-03     582.133E-03    -289.902E-03     85.4353E-03    -293.882E-03     582.960E-03    -289.875E-03     67.0764E-03
            2151     2.02127E-03     26.4780E-03    -118.741E+06    -200.091E+06    -100.386E+06     910.011E+03    -290.828E-03     580.262E-03    -289.433E-03     63.8622E-03    -291.813E-03     580.405E-03    -289.473E-03     50.2913E-03
            2152     1.34770E-03     26.3950E-03    -123.264E+06    -215.166E+06    -115.435E+06     590.580E+03    -289.800E-03     578.860E-03    -289.060E-03     42.7880E-03    -290.317E-03     578.511E-03    -289.147E-03     33.7551E-03
            2153     674.030E-06     26.3448E-03    -126.294E+06    -228.435E+06    -123.752E+06     497.064E+03    -288.801E-03     577.841E-03    -289.039E-03     22.9845E-03    -289.042E-03     577.182E-03    -289.144E-03     18.1041E-03
            2154     12.7204E-03     29.2870E-03    -3.44305E+06     51.4409E+06     77.5716E+06     544.597E+03    -295.634E-03     591.816E-03    -296.182E-03     133.349E-03    -302.739E-03     598.867E-03    -295.864E-03     91.4589E-03
            2155     12.0522E-03     29.0334E-03    -8.21368E+06     43.3176E+06     72.0151E+06     2.35021E+06    -296.131E-03     592.220E-03    -296.089E-03     196.028E-03    -307.458E-03     603.463E-03    -295.780E-03     142.493E-03
            2156     11.3844E-03     28.7635E-03    -13.4563E+06     33.3086E+06     68.2027E+06     1.94072E+06    -297.804E-03     593.794E-03    -295.991E-03     217.003E-03    -310.787E-03     606.650E-03    -295.679E-03     160.378E-03
            2157     10.7152E-03     28.4423E-03    -18.3330E+06     30.9082E+06     69.4494E+06     253.833E+03    -300.424E-03     596.255E-03    -295.830E-03     240.223E-03    -315.526E-03     611.200E-03    -295.501E-03     179.163E-03
            2158     10.0475E-03     28.0897E-03    -23.3317E+06     26.3843E+06     68.1970E+06     109.457E+03    -302.735E-03     598.277E-03    -295.542E-03     252.011E-03    -318.784E-03     614.139E-03    -295.205E-03     189.040E-03
            2159     9.38275E-03     27.7220E-03    -29.4860E+06     20.5801E+06     63.3138E+06     287.960E+03    -304.042E-03     599.177E-03    -295.135E-03     257.857E-03    -320.293E-03     615.213E-03    -294.805E-03     194.595E-03
            2160     8.71708E-03     27.3436E-03    -36.9185E+06     12.5691E+06     53.7656E+06     402.141E+03    -304.456E-03     599.101E-03    -294.645E-03     257.355E-03    -320.132E-03     614.535E-03    -294.341E-03     195.374E-03
            2161     8.04990E-03     26.9719E-03    -44.1301E+06     2.74207E+06     43.0697E+06     871.278E+03    -304.678E-03     598.764E-03    -294.086E-03     249.465E-03    -319.062E-03     612.876E-03    -293.811E-03     190.154E-03
            2162     7.38363E-03     26.6095E-03    -51.0360E+06    -6.09801E+06     33.8595E+06     1.49822E+06    -304.426E-03     597.865E-03    -293.439E-03     234.923E-03    -317.004E-03     610.142E-03    -293.187E-03     179.552E-03
            2163     6.71703E-03     26.2717E-03    -59.1039E+06    -14.1420E+06     25.9652E+06     1.74791E+06    -303.230E-03     595.939E-03    -292.710E-03     215.530E-03    -313.753E-03     606.127E-03    -292.474E-03     165.138E-03
            2164     6.04930E-03     25.9612E-03    -68.2369E+06    -25.4966E+06     15.0821E+06     1.76283E+06    -301.637E-03     593.542E-03    -291.905E-03     193.648E-03    -310.112E-03     601.641E-03    -291.694E-03     148.765E-03
            2165     5.38217E-03     25.6825E-03    -77.0107E+06    -41.1465E+06    -673.548E+03     1.54861E+06    -299.541E-03     590.584E-03    -291.042E-03     170.579E-03    -306.135E-03     596.760E-03    -290.874E-03     131.402E-03
            2166     4.71341E-03     25.4369E-03    -85.3927E+06    -71.2182E+06    -19.4007E+06     1.16121E+06    -297.056E-03     587.254E-03    -290.199E-03     147.443E-03    -301.988E-03     591.687E-03    -290.069E-03     114.019E-03
            2167     4.04305E-03     25.2252E-03    -94.0841E+06    -109.074E+06    -40.3770E+06     857.194E+03    -294.738E-03     584.147E-03    -289.409E-03     124.854E-03    -298.280E-03     587.085E-03    -289.316E-03     96.9353E-03
            2168     3.37151E-03     25.0468E-03    -102.540E+06    -152.554E+06    -60.7755E+06     844.838E+03    -292.610E-03     581.306E-03    -288.696E-03     102.880E-03    -295.028E-03     582.995E-03    -288.630E-03     80.1702E-03
            2169     2.69841E-03     24.9018E-03    -110.098E+06    -185.813E+06    -80.0393E+06     843.916E+03    -290.663E-03     578.723E-03    -288.060E-03     81.5493E-03    -292.211E-03     579.453E-03    -288.031E-03     63.7833E-03
            2170     2.02487E-03     24.7886E-03    -116.492E+06    -199.074E+06    -98.6131E+06     620.207E+03    -289.112E-03     576.601E-03    -287.489E-03     60.7212E-03    -290.035E-03     576.690E-03    -287.525E-03     47.5745E-03
            2171     1.35079E-03     24.7083E-03    -121.946E+06    -214.160E+06    -114.287E+06     524.396E+03    -287.824E-03     574.859E-03    -287.036E-03     40.2659E-03    -288.310E-03     574.484E-03    -287.120E-03     31.5391E-03
            2172     675.470E-06     24.6595E-03    -124.327E+06    -226.826E+06    -123.091E+06     164.767E+03    -286.765E-03     573.718E-03    -286.953E-03     21.0032E-03    -286.988E-03     573.052E-03    -287.059E-03     16.3437E-03
            2173     12.7193E-03     27.5682E-03    -5.19244E+06     46.3855E+06     75.5533E+06     969.953E+03    -294.994E-03     591.310E-03    -296.316E-03     134.682E-03    -302.135E-03     598.378E-03    -295.998E-03     92.8453E-03
            2174     12.0499E-03     27.3189E-03    -9.38890E+06     42.7920E+06     72.3822E+06     1.68120E+06    -296.619E-03     592.856E-03    -296.237E-03     195.876E-03    -307.985E-03     604.131E-03    -295.923E-03     142.156E-03
            2175     11.3800E-03     27.0441E-03    -12.4822E+06     37.6555E+06     69.9608E+06     554.091E+03    -299.335E-03     595.410E-03    -296.076E-03     216.297E-03    -312.346E-03     608.308E-03    -295.762E-03     159.209E-03
            2176     10.7152E-03     26.7194E-03    -16.7901E+06     30.8433E+06     70.2129E+06     17.4535E+03    -302.183E-03     597.987E-03    -295.803E-03     238.722E-03    -317.261E-03     612.910E-03    -295.472E-03     177.129E-03
            2177     10.0514E-03     26.3695E-03    -22.8375E+06     26.0267E+06     67.7636E+06     295.567E+03    -303.896E-03     599.292E-03    -295.397E-03     250.389E-03    -319.820E-03     615.032E-03    -295.062E-03     187.242E-03
            2178     9.38516E-03     26.0004E-03    -29.6837E+06     20.0841E+06     62.3060E+06     851.210E+03    -305.125E-03     600.013E-03    -294.888E-03     256.142E-03    -321.166E-03     615.840E-03    -294.563E-03     192.957E-03
            2179     8.71878E-03     25.6270E-03    -36.2808E+06     13.2345E+06     54.1257E+06     1.22681E+06    -306.375E-03     600.628E-03    -294.252E-03     254.012E-03    -321.749E-03     615.763E-03    -293.948E-03     192.091E-03
            2180     8.05414E-03     25.2526E-03    -43.2801E+06      2.8667E+06     44.3979E+06     781.828E+03    -306.899E-03     600.358E-03    -293.459E-03     243.997E-03    -320.864E-03     614.051E-03    -293.179E-03     184.914E-03
            2181     7.38987E-03     24.8945E-03    -50.9319E+06    -6.85416E+06     34.3818E+06     920.485E+03    -306.133E-03     598.653E-03    -292.520E-03     227.845E-03    -318.220E-03     610.436E-03    -292.265E-03     173.018E-03
            2182     6.72463E-03     24.5598E-03    -58.4762E+06    -14.7766E+06     25.4513E+06     1.36508E+06    -304.562E-03     596.035E-03    -291.474E-03     207.543E-03    -314.569E-03     605.709E-03    -291.240E-03     157.940E-03
            2183     6.05946E-03     24.2535E-03    -65.8998E+06    -24.5905E+06     15.6886E+06     1.14285E+06    -302.244E-03     592.595E-03    -290.351E-03     185.064E-03    -310.224E-03     600.209E-03    -290.141E-03     141.146E-03
            2184     5.39179E-03     23.9791E-03    -74.0348E+06    -39.8259E+06     983.524E+03     867.319E+03    -299.244E-03     588.445E-03    -289.201E-03     161.864E-03    -305.389E-03     594.183E-03    -289.031E-03     123.847E-03
            2185     4.72252E-03     23.7397E-03    -83.2846E+06    -70.3405E+06    -18.3654E+06     1.06542E+06    -296.232E-03     584.327E-03    -288.095E-03     139.067E-03    -300.793E-03     588.396E-03    -287.964E-03     106.814E-03
            2186     4.05166E-03     23.5321E-03    -92.3500E+06    -107.427E+06    -39.0327E+06     1.10958E+06    -293.359E-03     580.421E-03    -287.062E-03     116.811E-03    -296.613E-03     583.078E-03    -286.967E-03     90.0096E-03
            2187     3.37927E-03     23.3583E-03    -100.668E+06    -151.140E+06    -58.9215E+06     711.628E+03    -290.720E-03     576.851E-03    -286.131E-03     95.2798E-03    -292.918E-03     578.326E-03    -286.061E-03     73.6072E-03
            2188     2.70585E-03     23.2171E-03    -108.513E+06    -185.278E+06    -78.0253E+06     537.363E+03    -288.426E-03     573.723E-03    -285.297E-03     75.0014E-03    -289.827E-03     574.307E-03    -285.261E-03     58.0849E-03
            2189     2.03068E-03     23.1070E-03    -115.378E+06    -198.546E+06    -96.3867E+06     663.317E+03    -286.374E-03     570.947E-03    -284.572E-03     55.5669E-03    -287.211E-03     570.948E-03    -284.599E-03     43.1250E-03
            2190     1.35431E-03     23.0290E-03    -120.821E+06    -212.604E+06    -112.341E+06     570.456E+03    -284.796E-03     568.847E-03    -284.052E-03     36.7804E-03    -285.242E-03     568.435E-03    -284.130E-03     28.5376E-03
            2191     677.401E-06     22.9834E-03    -123.317E+06    -225.765E+06    -122.360E+06     129.009E+03    -283.844E-03     567.711E-03    -283.867E-03     19.9942E-03    -284.054E-03     567.036E-03    -283.973E-03     15.6156E-03
            2192     12.7155E-03     25.8519E-03    -4.11319E+06     45.5045E+06     76.0414E+06     1.46072E+06    -295.209E-03     591.609E-03    -296.399E-03     133.465E-03    -302.348E-03     598.673E-03    -296.079E-03     91.5557E-03
            2193     12.0483E-03     25.5981E-03    -7.29346E+06     46.0303E+06     72.6920E+06    -103.463E+03    -297.591E-03     593.863E-03    -296.272E-03     194.529E-03    -308.975E-03     605.174E-03    -295.965E-03     140.403E-03
            2194     11.3844E-03     25.3245E-03    -11.9261E+06     37.6063E+06     69.2468E+06    -644.285E+03    -300.803E-03     596.838E-03    -296.035E-03     216.194E-03    -313.826E-03     609.751E-03    -295.726E-03     158.702E-03
            2195     10.7179E-03     24.9955E-03    -17.3280E+06     29.0664E+06     69.7020E+06    -74.1638E+03    -303.391E-03     599.076E-03    -295.685E-03     238.997E-03    -318.399E-03     613.923E-03    -295.353E-03     177.261E-03
            2196     10.0517E-03     24.6464E-03    -22.9670E+06     25.3961E+06     67.8181E+06     644.915E+03    -305.729E-03     600.902E-03    -295.173E-03     248.986E-03    -321.437E-03     616.422E-03    -294.838E-03     185.815E-03
            2197     9.38703E-03     24.2800E-03    -28.4228E+06     18.9953E+06     62.9763E+06     772.969E+03    -308.163E-03     602.625E-03    -294.461E-03     251.788E-03    -323.807E-03     618.052E-03    -294.133E-03     188.524E-03
            2198     8.72499E-03     23.9030E-03    -34.7506E+06     12.4649E+06     54.4100E+06     1.34230E+06    -309.728E-03     603.228E-03    -293.500E-03     246.530E-03    -324.507E-03     617.771E-03    -293.196E-03     184.796E-03
            2199     8.06360E-03     23.5334E-03    -41.8414E+06     4.52968E+06     43.8480E+06     2.07280E+06    -309.596E-03     601.915E-03    -292.319E-03     234.706E-03    -322.860E-03     614.920E-03    -292.045E-03     176.252E-03
            2200     7.40077E-03     23.1792E-03    -48.8373E+06    -4.70071E+06     34.0627E+06     1.60548E+06    -308.281E-03     599.257E-03    -290.976E-03     217.542E-03    -319.627E-03     610.315E-03    -290.728E-03     163.702E-03
            2201     6.73788E-03     22.8487E-03    -56.2090E+06    -14.1025E+06     25.4382E+06     391.582E+03    -305.955E-03     595.470E-03    -289.514E-03     196.414E-03    -315.234E-03     604.425E-03    -289.285E-03     148.068E-03
            2202     6.07285E-03     22.5482E-03    -64.1692E+06    -24.3025E+06     15.8976E+06     11.6780E+03    -302.556E-03     590.543E-03    -287.988E-03     173.455E-03    -309.869E-03     597.497E-03    -287.780E-03     131.039E-03
            2203     5.40621E-03     22.2822E-03    -73.3267E+06    -39.8785E+06     1.19708E+06     927.026E+03    -298.811E-03     585.261E-03    -286.451E-03     150.028E-03    -304.376E-03     590.423E-03    -286.281E-03     113.624E-03
            2204     4.73723E-03     22.0480E-03    -82.3813E+06    -69.4346E+06    -18.0700E+06     1.12772E+06    -295.044E-03     580.003E-03    -284.959E-03     127.318E-03    -299.132E-03     583.605E-03    -284.829E-03     96.6308E-03
            2205     4.06629E-03     21.8475E-03    -90.8157E+06    -105.718E+06    -38.2961E+06     826.946E+03    -291.259E-03     574.830E-03    -283.571E-03     105.974E-03    -294.150E-03     577.134E-03    -283.478E-03     80.6548E-03
            2206     3.39279E-03     21.6794E-03    -99.1547E+06    -149.712E+06    -56.9826E+06     834.934E+03    -287.836E-03     570.188E-03    -282.352E-03     86.1862E-03    -289.783E-03     571.416E-03    -282.276E-03     65.8202E-03
            2207     2.71694E-03     21.5427E-03    -107.060E+06    -184.288E+06    -75.1525E+06     619.876E+03    -284.905E-03     566.204E-03    -281.299E-03     67.7575E-03    -286.146E-03     566.627E-03    -281.252E-03     51.9533E-03
            2208     2.03962E-03     21.4374E-03    -114.154E+06    -198.101E+06    -94.8215E+06     359.730E+03    -282.392E-03     562.817E-03    -280.425E-03     50.0060E-03    -283.132E-03     562.721E-03    -280.446E-03     38.4635E-03
            2209     1.36037E-03     21.3632E-03    -119.462E+06    -211.450E+06    -110.814E+06     427.327E+03    -280.615E-03     560.436E-03    -279.821E-03     33.0128E-03    -281.013E-03     559.980E-03    -279.895E-03     25.3942E-03
            2210     680.261E-06     21.3171E-03    -124.115E+06    -224.351E+06    -120.641E+06     553.669E+03    -279.131E-03     559.157E-03    -280.026E-03     17.6366E-03    -279.335E-03     558.473E-03    -280.124E-03     13.5730E-03
            2211     12.7198E-03     24.1373E-03    -3.25614E+06     46.7700E+06     77.2640E+06    -711.706E+03    -295.706E-03     592.095E-03    -296.390E-03     133.464E-03    -302.871E-03     599.191E-03    -296.067E-03     91.4786E-03
            2212     12.0509E-03     23.8790E-03    -6.72354E+06     47.2139E+06     72.6545E+06     383.528E+03    -298.053E-03     594.294E-03    -296.241E-03     197.433E-03    -309.531E-03     605.705E-03    -295.937E-03     143.191E-03
            2213     11.3822E-03     23.5994E-03    -11.2906E+06     36.6527E+06     68.6749E+06     889.868E+03    -302.369E-03     598.328E-03    -295.959E-03     217.992E-03    -315.408E-03     611.258E-03    -295.652E-03     160.181E-03
            2214     10.7177E-03     23.2721E-03    -16.6365E+06     28.4623E+06     68.8472E+06     528.071E+03    -306.240E-03     601.708E-03    -295.467E-03     237.154E-03    -321.027E-03     616.337E-03    -295.140E-03     175.124E-03
            2215     10.0551E-03     22.9202E-03    -22.0083E+06     25.1380E+06     67.7494E+06     320.787E+03    -309.952E-03     604.637E-03    -294.685E-03     243.119E-03    -325.177E-03     619.677E-03    -294.351E-03     179.667E-03
            2216     9.39580E-03     22.5514E-03    -28.6769E+06     18.4170E+06     62.7220E+06     340.494E+03    -312.774E-03     606.349E-03    -293.575E-03     242.983E-03    -327.703E-03     621.060E-03    -293.246E-03     179.780E-03
            2217     8.73701E-03     22.1775E-03    -35.4553E+06     10.8789E+06     54.2004E+06     426.989E+03    -313.546E-03     605.705E-03    -292.159E-03     236.115E-03    -327.448E-03     619.364E-03    -291.852E-03     175.073E-03
            2218     8.07726E-03     21.8127E-03    -41.3653E+06     3.94436E+06     44.3578E+06     248.415E+03    -312.833E-03     603.327E-03    -290.495E-03     222.679E-03    -325.141E-03     615.376E-03    -290.219E-03     165.366E-03
            2219     7.41809E-03     21.4634E-03    -47.3413E+06    -4.10825E+06     35.6162E+06     381.174E+03    -310.711E-03     599.351E-03    -288.640E-03     204.197E-03    -321.092E-03     609.447E-03    -288.387E-03     151.888E-03
            2220     6.75699E-03     21.1405E-03    -54.1130E+06    -12.7402E+06     27.9525E+06     800.185E+03    -307.114E-03     593.778E-03    -286.663E-03     182.352E-03    -315.513E-03     601.860E-03    -286.427E-03     135.779E-03
            2221     6.09364E-03     20.8497E-03    -62.8136E+06    -23.8023E+06     17.5685E+06     1.41181E+06    -302.716E-03     587.346E-03    -284.629E-03     158.970E-03    -309.258E-03     593.530E-03    -284.416E-03     118.483E-03
            2222     5.42732E-03     20.5907E-03    -72.1529E+06    -39.1454E+06     2.41380E+06     1.14257E+06    -297.933E-03     580.529E-03    -282.596E-03     136.178E-03    -302.868E-03     585.062E-03    -282.422E-03     101.680E-03
            2223     4.75847E-03     20.3661E-03    -81.0383E+06    -67.9461E+06    -16.9780E+06     885.120E+03    -292.982E-03     573.633E-03    -280.651E-03     114.778E-03    -296.585E-03     576.756E-03    -280.520E-03     85.9374E-03
            2224     4.08561E-03     20.1744E-03    -90.0554E+06    -105.477E+06    -37.7990E+06     1.80493E+06    -288.251E-03     567.120E-03    -278.868E-03     94.9343E-03    -290.781E-03     569.064E-03    -278.774E-03     71.3471E-03
            2225     3.40967E-03     20.0138E-03    -99.2440E+06    -145.557E+06    -57.7044E+06     1.57192E+06    -283.950E-03     561.251E-03    -277.300E-03     76.4724E-03    -285.652E-03     562.249E-03    -277.234E-03     57.6245E-03
            2226     2.73119E-03     19.8839E-03    -107.747E+06    -181.092E+06    -76.1821E+06    -322.850E+03    -280.141E-03     556.131E-03    -275.990E-03     59.4203E-03    -281.223E-03     556.407E-03    -275.952E-03     44.8633E-03
            2227     2.04997E-03     19.7833E-03    -114.749E+06    -199.830E+06    -94.7680E+06    -539.579E+03    -277.184E-03     552.135E-03    -274.951E-03     43.5898E-03    -277.833E-03     551.939E-03    -274.969E-03     32.9664E-03
            2228     1.36778E-03     19.7124E-03    -120.213E+06    -211.583E+06    -110.682E+06     416.025E+03    -275.213E-03     549.407E-03    -274.195E-03     28.7938E-03    -275.573E-03     548.908E-03    -274.267E-03     21.8170E-03
            2229     684.314E-06     19.6689E-03    -123.430E+06    -222.258E+06    -121.103E+06     461.763E+03    -273.874E-03     547.712E-03    -273.838E-03     15.0318E-03    -274.064E-03     547.024E-03    -273.942E-03     11.3156E-03
            2230     12.7166E-03     22.4214E-03    -4.46929E+06     46.3239E+06     75.2904E+06    -1.74729E+06    -296.054E-03     592.461E-03    -296.407E-03     136.732E-03    -303.337E-03     599.674E-03    -296.091E-03     94.3400E-03
            2231     12.0481E-03     22.1595E-03    -8.53772E+06     41.6931E+06     71.3606E+06    -1.58604E+06    -300.419E-03     596.621E-03    -296.202E-03     199.466E-03    -311.990E-03     608.103E-03    -295.894E-03     144.530E-03
            2232     11.3846E-03     21.8734E-03    -12.3155E+06     35.7155E+06     68.7408E+06    -390.227E+03    -306.226E-03     601.954E-03    -295.728E-03     215.739E-03    -319.112E-03     614.724E-03    -295.418E-03     157.230E-03
            2233     10.7234E-03     21.5415E-03    -17.3321E+06     29.9142E+06     69.2359E+06     585.164E+03    -311.778E-03     606.675E-03    -294.897E-03     230.478E-03    -326.069E-03     620.810E-03    -294.569E-03     167.921E-03
            2234     10.0660E-03     21.1868E-03    -23.2501E+06     25.0049E+06     66.7896E+06     171.644E+03    -315.644E-03     609.298E-03    -293.654E-03     234.205E-03    -330.095E-03     623.562E-03    -293.322E-03     170.734E-03
            2235     9.40982E-03     20.8182E-03    -29.0953E+06     18.5541E+06     61.5590E+06    -39.4246E+03    -317.679E-03     609.712E-03    -292.033E-03     231.745E-03    -331.609E-03     623.428E-03    -291.710E-03     169.224E-03
            2236     8.75396E-03     20.4510E-03    -34.7466E+06     11.6397E+06     53.6140E+06    -747.551E+03    -317.864E-03     607.934E-03    -290.070E-03     222.452E-03    -330.662E-03     620.496E-03    -289.768E-03     162.506E-03
            2237     8.09920E-03     20.0894E-03    -41.1658E+06     3.97441E+06     44.1603E+06    -1.34909E+06    -316.151E-03     603.972E-03    -287.821E-03     207.432E-03    -327.325E-03     614.888E-03    -287.546E-03     151.697E-03
            2238     7.44253E-03     19.7505E-03    -48.4284E+06    -5.47717E+06     34.4902E+06    -1.70115E+06    -312.794E-03     598.161E-03    -285.368E-03     188.387E-03    -322.123E-03     607.202E-03    -285.117E-03     137.941E-03
            2239     6.78311E-03     19.4372E-03    -56.1663E+06    -15.5753E+06     26.0762E+06    -1.24796E+06    -308.110E-03     590.902E-03    -282.792E-03     166.129E-03    -315.572E-03     598.037E-03    -282.558E-03     121.639E-03
            2240     6.12088E-03     19.1567E-03    -63.4727E+06    -25.3863E+06     17.7277E+06     24.3183E+03    -302.396E-03     582.573E-03    -280.177E-03     142.925E-03    -308.132E-03     587.944E-03    -279.959E-03     104.668E-03
            2241     5.45494E-03     18.9105E-03    -71.2893E+06    -38.2737E+06     3.69329E+06     1.10492E+06    -296.158E-03     573.759E-03    -277.601E-03     120.885E-03    -300.441E-03     577.644E-03    -277.424E-03     88.6278E-03
            2242     4.78380E-03     18.6970E-03    -81.0869E+06    -66.6548E+06    -16.5884E+06     2.13429E+06    -290.004E-03     565.170E-03    -275.165E-03     100.235E-03    -293.095E-03     567.784E-03    -275.034E-03     73.5768E-03
            2243     4.10944E-03     18.5159E-03    -90.8781E+06    -105.094E+06    -37.9483E+06     2.56531E+06    -284.302E-03     557.238E-03    -272.936E-03     81.6399E-03    -286.460E-03     558.810E-03    -272.842E-03     59.9672E-03
            2244     3.43157E-03     18.3645E-03    -99.0752E+06    -139.086E+06    -58.4684E+06     1.93491E+06    -279.083E-03     550.028E-03    -270.946E-03     64.8270E-03    -280.532E-03     550.800E-03    -270.893E-03     47.6265E-03
            2245     2.74984E-03     18.2437E-03    -106.929E+06    -175.904E+06    -76.8660E+06     169.226E+03    -274.509E-03     543.780E-03    -269.271E-03     49.6636E-03    -275.428E-03     543.914E-03    -269.245E-03     36.4590E-03
            2246     2.06523E-03     18.1496E-03    -114.586E+06    -202.101E+06    -93.6812E+06     -848.42E+03    -270.815E-03     538.754E-03    -267.939E-03     36.0552E-03    -271.368E-03     538.450E-03    -267.948E-03     26.4592E-03
            2247     1.37774E-03     18.0823E-03    -119.942E+06    -212.107E+06    -109.618E+06    -424.686E+03    -268.202E-03     535.160E-03    -266.958E-03     23.5001E-03    -268.518E-03     534.610E-03    -267.024E-03     17.2308E-03
            2248     689.236E-06     18.0415E-03    -123.299E+06    -221.913E+06    -121.199E+06    -259.835E+03    -266.772E-03     533.031E-03    -266.259E-03     12.6017E-03    -266.949E-03     532.330E-03    -266.364E-03     9.22851E-03
            2249     12.7155E-03     20.6993E-03    -3.37235E+06     49.8389E+06     75.4847E+06    -1.10994E+06    -298.803E-03     595.170E-03    -296.367E-03     137.118E-03    -306.114E-03     602.427E-03    -296.057E-03     94.0211E-03
            2250     12.0524E-03     20.4351E-03    -8.85561E+06     39.0821E+06     70.2996E+06    -2.23188E+06    -305.725E-03     601.650E-03    -295.926E-03     197.004E-03    -317.215E-03     613.044E-03    -295.618E-03     140.957E-03
            2251     11.3907E-03     20.1394E-03    -14.2052E+06     32.1240E+06     66.8924E+06    -1.43436E+06    -312.754E-03     607.819E-03    -295.065E-03     210.982E-03    -325.263E-03     620.198E-03    -294.756E-03     151.679E-03
            2252     10.7355E-03     19.8018E-03    -18.5518E+06     29.8244E+06     68.0087E+06    -1.35794E+06    -318.210E-03     611.966E-03    -293.757E-03     222.433E-03    -331.751E-03     625.351E-03    -293.433E-03     159.755E-03
            2253     10.0825E-03     19.4474E-03    -22.9638E+06     24.0779E+06     66.3099E+06    -1.32374E+06    -321.767E-03     613.750E-03    -291.983E-03     223.531E-03    -335.242E-03     627.038E-03    -291.653E-03     160.511E-03
            2254     9.43066E-03     19.0839E-03    -27.6766E+06     18.8223E+06     62.6750E+06    -1.44592E+06    -323.309E-03     613.077E-03    -289.768E-03     218.096E-03    -336.092E-03     625.649E-03    -289.442E-03     156.538E-03
            2255     8.78079E-03     18.7186E-03    -33.7879E+06     12.4495E+06     55.3244E+06    -1.52843E+06    -322.412E-03     609.573E-03    -287.161E-03     206.855E-03    -333.991E-03     620.919E-03    -286.854E-03     148.452E-03
            2256     8.12872E-03     18.3707E-03    -40.5137E+06     4.26854E+06     46.2049E+06    -1.32245E+06    -319.551E-03     603.798E-03    -284.246E-03     190.771E-03    -329.547E-03     613.534E-03    -283.963E-03     136.951E-03
            2257     7.47384E-03     18.0404E-03    -47.5345E+06    -5.29188E+06     36.0997E+06    -1.05336E+06    -315.025E-03     596.123E-03    -281.098E-03     170.179E-03    -323.242E-03     604.052E-03    -280.841E-03     121.963E-03
            2258     6.81704E-03     17.7403E-03    -55.2697E+06    -15.8314E+06     26.0537E+06    -1.05503E+06    -308.707E-03     586.527E-03    -277.820E-03     146.693E-03    -315.137E-03     592.633E-03    -277.587E-03     104.770E-03
            2259     6.15524E-03     17.4748E-03    -64.1472E+06    -27.5510E+06     15.5090E+06    -1.32609E+06    -301.343E-03     575.882E-03    -274.540E-03     123.589E-03    -306.212E-03     580.384E-03    -274.329E-03     87.9334E-03
            2260     5.48817E-03     17.2425E-03    -73.5286E+06    -41.6185E+06     682.590E+03    -188.665E+03    -293.660E-03     565.007E-03    -271.347E-03     101.889E-03    -297.246E-03     568.184E-03    -271.177E-03     72.1730E-03
            2261     4.81707E-03     17.0440E-03    -81.7389E+06    -66.8201E+06    -17.7122E+06     1.57910E+06    -286.067E-03     554.417E-03    -268.350E-03     82.7652E-03    -288.627E-03     556.500E-03    -268.223E-03     58.4665E-03
            2262     4.14023E-03     16.8753E-03    -89.3942E+06    -102.299E+06    -38.1965E+06     2.06535E+06    -279.009E-03     544.643E-03    -265.634E-03     66.4995E-03    -280.787E-03     545.850E-03    -265.547E-03     46.9109E-03
            2263     3.45814E-03     16.7366E-03    -97.3882E+06    -136.050E+06    -59.1830E+06     2.50547E+06    -272.766E-03     536.010E-03    -263.244E-03     52.2942E-03    -273.959E-03     536.543E-03    -263.202E-03     36.8772E-03
            2264     2.77218E-03     16.6247E-03    -105.099E+06    -169.750E+06    -77.9046E+06     2.56029E+06    -267.577E-03     528.793E-03    -261.216E-03     39.8032E-03    -268.339E-03     528.800E-03    -261.207E-03     28.0659E-03
            2265     2.08262E-03     16.5399E-03    -111.917E+06    -198.855E+06    -94.4725E+06     338.371E+03    -263.292E-03     522.851E-03    -259.559E-03     28.8149E-03    -263.749E-03     522.474E-03    -259.581E-03     20.3030E-03
            2266     1.39049E-03     16.4781E-03    -117.786E+06    -214.577E+06    -109.397E+06    -769.655E+03    -259.930E-03     518.262E-03    -258.332E-03     18.8775E-03    -260.195E-03     517.658E-03    -258.397E-03     13.3156E-03
            2267     695.649E-06     16.4415E-03    -121.813E+06    -222.076E+06    -119.710E+06     450.086E+03    -257.754E-03     515.570E-03    -257.816E-03     10.1711E-03    -257.915E-03     514.851E-03    -257.916E-03     7.21333E-03
            2268     12.7203E-03     18.9742E-03    -4.21068E+06     53.4511E+06     76.5111E+06    -761.264E+03    -304.710E-03     600.791E-03    -296.081E-03     137.553E-03    -312.058E-03     608.091E-03    -295.769E-03     93.3793E-03
            2269     12.0583E-03     18.7004E-03    -7.88040E+06     41.6959E+06     71.7152E+06    -972.909E+03    -312.730E-03     607.988E-03    -295.259E-03     195.038E-03    -324.041E-03     619.211E-03    -294.949E-03     137.988E-03
            2270     11.4056E-03     18.3945E-03    -11.5351E+06     30.6307E+06     68.1445E+06    -1.30979E+06    -320.344E-03     614.268E-03    -293.923E-03     206.273E-03    -332.385E-03     626.179E-03    -293.610E-03     146.297E-03
            2271     10.7542E-03     18.0589E-03    -16.1258E+06     29.1318E+06     68.6454E+06    -1.67484E+06    -325.592E-03     617.643E-03    -292.051E-03     213.904E-03    -338.380E-03     630.280E-03    -291.727E-03     151.059E-03
            2272     10.1054E-03     17.7015E-03    -21.3889E+06     23.9710E+06     66.5151E+06    -2.08509E+06    -328.768E-03     618.407E-03    -289.640E-03     211.474E-03    -341.259E-03     630.717E-03    -289.311E-03     148.880E-03
            2273     9.46038E-03     17.3424E-03    -27.5774E+06     18.6196E+06     62.0667E+06    -2.46447E+06    -329.167E-03     615.900E-03    -286.733E-03     202.944E-03    -340.796E-03     627.321E-03    -286.410E-03     142.530E-03
            2274     8.81288E-03     16.9890E-03    -33.9707E+06     11.8261E+06     54.6626E+06    -2.12857E+06    -327.233E-03     610.634E-03    -283.401E-03     189.651E-03    -337.577E-03     620.745E-03    -283.096E-03     133.035E-03
            2275     8.16420E-03     16.6506E-03    -40.3996E+06     3.26097E+06     45.5067E+06    -2.19288E+06    -323.678E-03     603.376E-03    -279.698E-03     171.044E-03    -332.445E-03     611.884E-03    -279.416E-03     119.300E-03
            2276     7.51482E-03     16.3345E-03    -46.9855E+06    -6.22692E+06     35.4857E+06    -1.72416E+06    -317.520E-03     593.229E-03    -275.709E-03     147.950E-03    -324.554E-03     599.977E-03    -275.454E-03     102.233E-03
            2277     6.85921E-03     16.0534E-03    -53.8195E+06    -16.1632E+06     26.0221E+06    -668.233E+03    -309.087E-03     580.697E-03    -271.610E-03     123.363E-03    -314.446E-03     585.738E-03    -271.379E-03     84.2874E-03
            2278     6.19821E-03     15.8047E-03    -61.5978E+06    -27.0892E+06     15.8211E+06     209.862E+03    -299.574E-03     567.147E-03    -267.573E-03     100.456E-03    -303.546E-03     570.763E-03    -267.365E-03     67.7451E-03
            2279     5.53157E-03     15.5915E-03    -69.9740E+06    -42.8751E+06     686.367E+03     432.815E+03    -289.783E-03     553.513E-03    -263.729E-03     80.7593E-03    -292.662E-03     555.991E-03    -263.562E-03     53.8752E-03
            2280     4.85689E-03     15.4102E-03    -78.7186E+06    -68.4935E+06    -19.3556E+06     1.34611E+06    -280.618E-03     540.809E-03    -260.191E-03     64.5692E-03    -282.668E-03     542.392E-03    -260.074E-03     42.7705E-03
            2281     4.17596E-03     15.2583E-03    -87.7805E+06    -101.220E+06    -41.0348E+06     3.57724E+06    -272.280E-03     529.313E-03    -257.033E-03     50.7754E-03    -273.699E-03     530.178E-03    -256.964E-03     33.4332E-03
            2282     3.48958E-03     15.1329E-03    -96.1614E+06    -134.359E+06    -61.7751E+06     4.82237E+06    -265.012E-03     519.314E-03    -254.302E-03     39.2664E-03    -265.964E-03     519.623E-03    -254.277E-03     25.7376E-03
            2283     2.79784E-03     15.0331E-03    -102.904E+06    -162.539E+06    -80.8604E+06     4.01201E+06    -259.054E-03     511.060E-03    -252.007E-03     29.5237E-03    -259.669E-03     510.962E-03    -252.026E-03     19.2572E-03
            2284     2.10240E-03     14.9561E-03    -108.445E+06    -192.384E+06    -95.3751E+06     2.36710E+06    -254.314E-03     504.485E-03    -250.172E-03     21.0532E-03    -254.685E-03     504.058E-03    -250.212E-03     13.6368E-03
            2285     1.40322E-03     14.9038E-03    -114.220E+06    -214.804E+06    -106.712E+06     1.35176E+06    -250.774E-03     499.556E-03    -248.782E-03     13.7212E-03    -250.991E-03     498.907E-03    -248.839E-03     8.87922E-03
            2286     702.229E-06     14.8695E-03    -117.848E+06    -220.639E+06    -115.286E+06     477.488E+03    -248.169E-03     496.246E-03    -248.078E-03     7.23153E-03    -248.307E-03     495.510E-03    -248.163E-03     4.68720E-03
            2287     12.7256E-03     17.2379E-03    -3.54275E+06     55.6086E+06     75.8895E+06    -889.929E+03    -312.553E-03     608.164E-03    -295.611E-03     142.324E-03    -320.099E-03     615.674E-03    -295.307E-03     96.3666E-03
            2288     12.0732E-03     16.9552E-03    -8.28712E+06     43.0058E+06     70.2320E+06    -2.35824E+06    -321.990E-03     616.289E-03    -294.299E-03     196.623E-03    -333.356E-03     627.575E-03    -293.998E-03     137.705E-03
            2289     11.4216E-03     16.6424E-03    -12.5005E+06     30.2561E+06     67.2472E+06    -2.78431E+06    -329.546E-03     621.920E-03    -292.374E-03     202.430E-03    -341.312E-03     633.555E-03    -292.064E-03     141.232E-03
            2290     10.7775E-03     16.3021E-03    -16.8742E+06     29.1021E+06     69.5249E+06    -2.57182E+06    -334.432E-03     624.261E-03    -289.829E-03     205.322E-03    -346.634E-03     636.306E-03    -289.499E-03     141.878E-03
            2291     10.1373E-03     15.9502E-03    -22.2820E+06     24.4058E+06     67.1051E+06    -2.60943E+06    -336.482E-03     623.158E-03    -286.676E-03     199.461E-03    -348.145E-03     634.638E-03    -286.344E-03     137.059E-03
            2292     9.49524E-03     15.5983E-03    -27.7219E+06     18.2621E+06     61.7683E+06    -2.77488E+06    -336.033E-03     619.007E-03    -282.974E-03     187.195E-03    -346.620E-03     629.386E-03    -282.652E-03     127.751E-03
            2293     8.85386E-03     15.2587E-03    -33.3684E+06     10.7913E+06     53.4841E+06    -2.97482E+06    -333.950E-03     612.691E-03    -278.740E-03     170.024E-03    -343.149E-03     621.661E-03    -278.440E-03     114.705E-03
            2294     8.21178E-03     14.9305E-03    -39.4717E+06     2.47472E+06     42.8269E+06    -2.65873E+06    -328.651E-03     602.689E-03    -274.038E-03     147.299E-03    -336.205E-03     609.996E-03    -273.770E-03     97.5551E-03
            2295     7.56413E-03     14.6363E-03    -46.1042E+06    -7.74556E+06     31.1946E+06    -2.26172E+06    -319.620E-03     588.693E-03    -269.072E-03     121.695E-03    -325.468E-03     594.268E-03    -268.838E-03     78.6729E-03
            2296     6.91165E-03     14.3749E-03    -53.0403E+06    -18.3852E+06     21.5017E+06    -1.54544E+06    -308.418E-03     572.524E-03    -264.107E-03     97.8371E-03    -312.782E-03     576.580E-03    -263.896E-03     61.6772E-03
            2297     6.25140E-03     14.1516E-03    -60.3043E+06    -28.9450E+06     13.1495E+06    -124.671E+03    -296.266E-03     555.619E-03    -259.353E-03     77.1044E-03    -299.453E-03     558.456E-03    -259.158E-03     47.3556E-03
            2298     5.58054E-03     13.9616E-03    -68.9344E+06    -44.1671E+06     70.3956E+03     2.35683E+06    -284.464E-03     539.407E-03    -254.943E-03     60.2120E-03    -286.764E-03     541.308E-03    -254.779E-03     36.0869E-03
            2299     4.90247E-03     13.8007E-03    -79.1891E+06    -69.6173E+06    -20.3751E+06     5.08902E+06    -273.810E-03     524.753E-03    -250.944E-03     46.4347E-03    -275.445E-03     525.919E-03    -250.830E-03     27.1119E-03
            2300     4.21724E-03     13.6667E-03    -89.1260E+06    -100.294E+06    -42.8925E+06     6.59121E+06    -264.384E-03     511.787E-03    -247.403E-03     35.1699E-03    -265.518E-03     512.370E-03    -247.343E-03     19.9491E-03
            2301     3.52467E-03     13.5583E-03    -97.2458E+06    -129.561E+06    -62.9494E+06     6.51335E+06    -256.218E-03     500.584E-03    -244.365E-03     26.3395E-03    -256.989E-03     500.727E-03    -244.351E-03     14.5788E-03
            2302     2.82695E-03     13.4697E-03    -103.991E+06    -155.901E+06    -81.7054E+06     5.84728E+06    -249.364E-03     491.227E-03    -241.863E-03     19.2172E-03    -249.875E-03     491.045E-03    -241.894E-03     10.3770E-03
            2303     2.12398E-03     13.4051E-03    -110.787E+06    -185.829E+06    -97.5916E+06     5.33138E+06    -244.195E-03     484.111E-03    -239.916E-03     13.3901E-03    -244.519E-03     483.657E-03    -239.974E-03     7.07066E-03
            2304     1.41843E-03     13.3572E-03    -115.690E+06    -207.341E+06    -109.150E+06     3.10061E+06    -240.567E-03     479.019E-03    -238.452E-03     8.47897E-03    -240.769E-03     478.383E-03    -238.530E-03     4.35068E-03
            2305     710.308E-06     13.3312E-03    -117.841E+06    -218.435E+06    -116.818E+06     259.863E+03    -238.122E-03     475.537E-03    -237.414E-03     4.32171E-03    -238.253E-03     474.804E-03    -237.511E-03     2.11995E-03
            2306     12.7318E-03     15.4885E-03    -3.41676E+06     56.8451E+06     75.5405E+06    -755.892E+03    -323.117E-03     618.221E-03    -295.104E-03     149.803E-03    -331.070E-03     626.144E-03    -294.803E-03     101.269E-03
            2307     12.0826E-03     15.1897E-03    -7.91464E+06     47.2929E+06     70.6617E+06    -1.22128E+06    -333.258E-03     626.423E-03    -293.165E-03     197.494E-03    -344.922E-03     638.022E-03    -292.869E-03     135.789E-03
            2308     11.4448E-03     14.8762E-03    -13.2238E+06     32.7710E+06     66.3674E+06    -2.79917E+06    -340.115E-03     630.639E-03    -290.523E-03     199.385E-03    -351.891E-03     642.292E-03    -290.220E-03     136.079E-03
            2309     10.8078E-03     14.5355E-03    -18.1965E+06     28.2406E+06     67.1237E+06    -4.03944E+06    -344.340E-03     631.550E-03    -287.211E-03     199.068E-03    -356.254E-03     643.309E-03    -286.890E-03     134.318E-03
            2310     10.1714E-03     14.1896E-03    -22.7162E+06     24.5473E+06     65.8205E+06    -4.07888E+06    -346.028E-03     629.243E-03    -283.215E-03     188.235E-03    -357.126E-03     640.161E-03    -282.888E-03     125.209E-03
            2311     9.53744E-03     13.8500E-03    -28.4311E+06     17.7222E+06     60.6760E+06    -4.18622E+06    -346.126E-03     624.644E-03    -278.517E-03     171.320E-03    -355.947E-03     634.258E-03    -278.198E-03     111.648E-03
            2312     8.90377E-03     13.5184E-03    -34.4552E+06     9.48117E+06     51.4298E+06    -4.41814E+06    -342.668E-03     615.806E-03    -273.137E-03     148.044E-03    -350.890E-03     623.801E-03    -272.844E-03     93.3575E-03
            2313     8.26745E-03     13.2134E-03    -40.4326E+06     298.515E+03     39.9858E+06    -3.96161E+06    -333.439E-03     600.746E-03    -267.308E-03     121.557E-03    -339.921E-03     606.982E-03    -267.049E-03     73.6659E-03
            2314     7.62546E-03     12.9444E-03    -46.2284E+06    -10.0779E+06     28.1728E+06    -2.86857E+06    -320.454E-03     581.838E-03    -261.384E-03     96.2524E-03    -325.340E-03     586.453E-03    -261.161E-03     55.7663E-03
            2315     6.97247E-03     12.7137E-03    -52.7619E+06    -21.0529E+06     17.2637E+06    -1.17890E+06    -305.914E-03     561.574E-03    -255.660E-03     74.3355E-03    -309.514E-03     564.870E-03    -255.467E-03     40.8618E-03
            2316     6.30796E-03     12.5181E-03    -61.0337E+06    -33.3813E+06     6.47939E+06     1.69638E+06    -291.625E-03     541.938E-03    -250.313E-03     56.1471E-03    -294.239E-03     544.203E-03    -250.144E-03     28.9264E-03
            2317     5.63539E-03     12.3550E-03    -70.5965E+06    -48.9483E+06    -5.51134E+06     5.37239E+06    -278.517E-03     523.931E-03    -245.415E-03     41.3964E-03    -280.400E-03     525.409E-03    -245.269E-03     19.5295E-03
            2318     4.95276E-03     12.2172E-03    -79.9886E+06    -70.4164E+06    -19.4191E+06     8.62016E+06    -266.372E-03     507.391E-03    -241.019E-03     29.8144E-03    -267.714E-03     508.256E-03    -240.898E-03     12.5223E-03
            2319     4.26095E-03     12.1048E-03    -89.4552E+06    -95.3146E+06    -38.1614E+06     9.56030E+06    -255.687E-03     492.853E-03    -237.166E-03     21.1994E-03    -256.637E-03     493.255E-03    -237.089E-03     7.69379E-03
            2320     3.56291E-03     12.0116E-03    -98.8700E+06    -121.766E+06    -60.0113E+06     8.52451E+06    -246.668E-03     480.550E-03    -233.882E-03     14.8748E-03    -247.335E-03     480.602E-03    -233.862E-03     4.50591E-03
            2321     2.85760E-03     11.9408E-03    -107.445E+06    -150.435E+06    -80.6412E+06     7.61910E+06    -239.232E-03     470.440E-03    -231.208E-03     10.1952E-03    -239.691E-03     470.211E-03    -231.237E-03     2.47603E-03
            2322     2.14764E-03     11.8838E-03    -113.352E+06    -177.111E+06     -97.414E+06     6.32119E+06    -233.488E-03     462.660E-03    -229.173E-03     6.86818E-03    -233.796E-03     462.211E-03    -229.239E-03     1.38856E-03
            2323     1.43355E-03     11.8462E-03    -117.080E+06    -197.135E+06    -111.231E+06     3.66802E+06    -229.526E-03     457.305E-03    -227.779E-03     4.33248E-03    -229.729E-03     456.705E-03    -227.879E-03     763.034E-06
            2324     716.930E-06     11.8225E-03    -119.927E+06    -213.879E+06    -119.305E+06     1.71607E+06    -227.255E-03     454.401E-03    -227.146E-03     2.59831E-03    -227.394E-03     453.694E-03    -227.259E-03     662.895E-06
            2325     12.7375E-03     13.7139E-03    -4.57481E+06     57.1211E+06     77.1585E+06    -1.07932E+06    -334.793E-03     629.324E-03    -294.531E-03     154.414E-03    -343.159E-03     637.653E-03    -294.222E-03     103.365E-03
            2326     12.1034E-03     13.4080E-03    -8.00072E+06     49.7386E+06     72.6474E+06    -941.545E+03    -344.258E-03     636.205E-03    -291.946E-03     200.732E-03    -356.397E-03     648.280E-03    -291.643E-03     136.216E-03
            2327     11.4666E-03     13.0952E-03    -11.6416E+06     37.9135E+06     68.4079E+06    -1.71169E+06    -351.831E-03     640.412E-03    -288.581E-03     200.169E-03    -363.912E-03     652.389E-03    -288.277E-03     134.253E-03
            2328     10.8364E-03     12.7515E-03    -16.5173E+06     30.7234E+06     68.4005E+06    -2.50653E+06    -356.879E-03     641.284E-03    -284.406E-03     194.712E-03    -368.833E-03     653.094E-03    -284.084E-03     127.609E-03
            2329     10.2108E-03     12.4184E-03    -23.0492E+06     25.7402E+06     64.5019E+06    -3.72073E+06    -360.028E-03     639.350E-03    -279.322E-03     176.770E-03    -370.825E-03     649.977E-03    -279.004E-03     111.647E-03
            2330     9.58620E-03     12.0838E-03    -28.9557E+06     17.6294E+06     57.8863E+06    -4.81055E+06    -359.037E-03     632.383E-03    -273.345E-03     152.821E-03    -368.270E-03     641.420E-03    -273.039E-03     91.8281E-03
            2331     8.96313E-03     11.7709E-03    -34.7915E+06     8.53962E+06     47.5439E+06    -4.57239E+06    -350.303E-03     617.027E-03    -266.724E-03     124.403E-03    -357.695E-03     624.203E-03    -266.448E-03     70.2004E-03
            2332     8.33252E-03     11.4998E-03    -40.8251E+06    -1.56695E+06     36.1744E+06    -3.91094E+06    -335.862E-03     595.769E-03    -259.906E-03     98.5359E-03    -341.564E-03     601.229E-03    -259.664E-03     52.2300E-03
            2333     7.68889E-03     11.2644E-03    -47.7072E+06    -13.6151E+06     24.4219E+06    -2.41562E+06    -319.205E-03     572.462E-03    -253.258E-03     75.7754E-03    -323.482E-03     576.463E-03    -253.046E-03     37.2487E-03
            2334     7.03442E-03     11.0695E-03    -55.6397E+06    -26.5831E+06     11.7866E+06     640.420E+03    -302.371E-03     549.354E-03    -246.983E-03     56.1617E-03    -305.507E-03     552.173E-03    -246.805E-03     24.6979E-03
            2335     6.36870E-03     10.9072E-03    -63.8147E+06    -39.5265E+06    -295.966E+03     4.40976E+06    -286.606E-03     527.792E-03    -241.186E-03     40.6538E-03    -288.895E-03     529.721E-03    -241.037E-03     15.2236E-03
            2336     5.69083E-03     10.7703E-03    -71.6299E+06    -53.3838E+06    -11.1486E+06     7.89728E+06    -272.019E-03     507.945E-03    -235.926E-03     28.3943E-03    -273.677E-03     509.195E-03    -235.800E-03     8.08590E-03
            2337     5.00324E-03     10.6617E-03    -79.5857E+06    -69.3748E+06    -22.8577E+06     9.96065E+06    -258.902E-03     490.143E-03    -231.241E-03     19.4734E-03    -260.111E-03     490.889E-03    -231.139E-03     3.40032E-03
            2338     4.30670E-03     10.5701E-03    -87.4243E+06    -89.2229E+06    -36.0444E+06     10.2292E+06    -247.299E-03     474.466E-03    -227.167E-03     12.8423E-03    -248.174E-03     474.817E-03    -227.091E-03     296.948E-06
            2339     3.60044E-03     10.4986E-03    -95.0150E+06    -114.035E+06    -51.7473E+06     9.52218E+06    -237.385E-03     461.124E-03    -223.739E-03     8.15308E-03    -238.011E-03     461.154E-03    -223.695E-03    -1.47928E-03
            2340     2.88857E-03     10.4397E-03    -102.056E+06    -141.887E+06    -70.9690E+06     7.53928E+06    -229.510E-03     450.466E-03    -220.955E-03     5.17320E-03    -229.947E-03     450.236E-03    -220.957E-03    -2.03459E-03
            2341     2.17098E-03     10.3981E-03    -108.286E+06    -168.258E+06    -89.7730E+06     5.13804E+06    -223.391E-03     442.224E-03    -218.833E-03     3.11666E-03    -223.686E-03     441.791E-03    -218.881E-03    -2.02169E-03
            2342     1.44897E-03     10.3658E-03    -113.341E+06    -189.622E+06    -104.435E+06     3.89926E+06    -219.151E-03     436.570E-03    -217.419E-03     1.80901E-03    -219.350E-03     435.989E-03    -217.502E-03    -1.51568E-03
            2343     725.093E-06     10.3477E-03    -116.629E+06    -205.837E+06    -113.801E+06     2.70210E+06    -216.804E-03     433.673E-03    -216.869E-03     762.362E-06    -216.943E-03     432.992E-03    -216.971E-03    -1.00866E-03
            2344     12.7505E-03     11.9298E-03    -4.36206E+06     58.5761E+06     76.3043E+06    -909.917E+03    -345.555E-03     639.552E-03    -293.997E-03     164.074E-03    -354.515E-03     648.481E-03    -293.694E-03     110.362E-03
            2345     12.1110E-03     11.6094E-03    -8.62811E+06     50.1141E+06     70.9113E+06    -2.75261E+06    -355.956E-03     646.763E-03    -290.807E-03     208.534E-03    -368.858E-03     659.605E-03    -290.513E-03     140.648E-03
            2346     11.4878E-03     11.2888E-03    -12.7958E+06     39.7112E+06     67.5047E+06    -2.33880E+06    -366.586E-03     653.228E-03    -286.643E-03     201.434E-03    -379.177E-03     665.720E-03    -286.344E-03     131.856E-03
            2347     10.8686E-03     10.9515E-03    -17.4452E+06     32.8465E+06     67.8408E+06    -2.14931E+06    -374.850E-03     656.193E-03    -281.344E-03     187.409E-03    -386.958E-03     668.165E-03    -281.027E-03     116.326E-03
            2348     10.2538E-03     10.6168E-03    -21.8017E+06     27.3632E+06     64.6144E+06    -2.96762E+06    -377.128E-03     652.011E-03    -274.883E-03     160.464E-03    -387.648E-03     662.375E-03    -274.568E-03     92.2437E-03
            2349     9.64547E-03     10.2979E-03    -26.7593E+06     18.9293E+06     57.7737E+06    -3.03574E+06    -369.169E-03     636.770E-03    -267.601E-03     131.394E-03    -377.800E-03     645.222E-03    -267.301E-03     69.6399E-03
            2350     9.02686E-03     10.0252E-03    -32.6628E+06     8.11030E+06     46.4666E+06    -2.33532E+06    -353.373E-03     613.412E-03    -260.039E-03     104.838E-03    -360.151E-03     619.984E-03    -259.771E-03     51.6574E-03
            2351     8.39448E-03     9.79244E-03    -39.8900E+06    -3.85718E+06     33.4328E+06    -362.806E+03    -334.848E-03     587.479E-03    -252.631E-03     82.2186E-03    -340.055E-03     592.449E-03    -252.401E-03     37.6160E-03
            2352     7.75132E-03     9.59945E-03    -48.3130E+06    -17.2121E+06     19.9405E+06     2.57219E+06    -315.720E-03     561.332E-03    -245.613E-03     62.9850E-03    -319.658E-03     564.992E-03    -245.418E-03     26.2243E-03
            2353     7.09296E-03     9.44339E-03    -56.9510E+06    -30.9919E+06     7.20353E+06     5.01550E+06    -297.621E-03     536.722E-03    -239.102E-03     47.4731E-03    -300.577E-03     539.355E-03    -238.938E-03     17.4441E-03
            2354     6.42240E-03     9.31338E-03    -65.0443E+06    -43.5025E+06    -3.15827E+06     6.86807E+06    -280.721E-03     513.881E-03    -233.160E-03     35.4912E-03    -282.942E-03     515.733E-03    -233.019E-03     11.1326E-03
            2355     5.74023E-03     9.21271E-03    -72.6099E+06    -55.2565E+06    -12.9588E+06     8.29514E+06    -265.235E-03     493.064E-03    -227.830E-03     26.3939E-03    -266.901E-03     494.319E-03    -227.709E-03     6.79364E-03
            2356     5.04646E-03     9.12762E-03    -79.3552E+06    -66.3587E+06    -24.1633E+06     8.56179E+06    -251.629E-03     474.752E-03    -223.123E-03     19.7084E-03    -252.882E-03     475.560E-03    -223.032E-03     4.03205E-03
            2357     4.34336E-03     9.06293E-03    -85.4643E+06    -83.0529E+06    -36.5111E+06     7.47792E+06    -239.865E-03     458.916E-03    -219.050E-03     14.8516E-03    -240.794E-03     459.352E-03    -218.988E-03     2.46314E-03
            2358     3.63300E-03     9.00982E-03    -91.3511E+06    -106.781E+06    -49.7471E+06     5.34774E+06    -230.010E-03     445.620E-03    -215.610E-03     11.1948E-03    -230.682E-03     445.733E-03    -215.572E-03     1.55787E-03
            2359     2.91417E-03     8.96971E-03    -96.5367E+06    -135.042E+06    -63.9652E+06     3.93372E+06    -221.974E-03     434.761E-03    -212.788E-03     7.88948E-03    -222.438E-03     434.587E-03    -212.772E-03     611.496E-06
            2360     2.19029E-03     8.93695E-03    -101.727E+06    -162.827E+06    -80.3274E+06     3.81399E+06    -215.828E-03     426.376E-03    -210.548E-03     4.96513E-03    -216.130E-03     425.969E-03    -210.566E-03    -239.118E-06
            2361     1.46287E-03     8.91678E-03    -106.760E+06    -183.415E+06    -96.4187E+06     3.13663E+06    -211.363E-03     420.225E-03    -208.862E-03     2.95851E-03    -211.557E-03     419.665E-03    -208.923E-03    -405.882E-06
            2362     731.964E-06     8.89943E-03    -110.149E+06    -197.894E+06    -107.423E+06     1.86518E+06    -208.381E-03     416.222E-03    -207.841E-03     1.83989E-03    -208.509E-03     415.568E-03    -207.931E-03     75.1105E-06
            2363     12.7461E-03     10.1160E-03    -3.22744E+06     61.9241E+06     76.7716E+06     17.9740E+03    -358.156E-03     651.848E-03    -293.692E-03     174.023E-03    -367.895E-03     661.570E-03    -293.393E-03     116.713E-03
            2364     12.1275E-03     9.79470E-03    -7.12811E+06     53.4512E+06     71.3647E+06    -1.11066E+06    -373.396E-03     663.088E-03    -289.692E-03     214.130E-03    -387.281E-03     676.927E-03    -289.402E-03     140.819E-03
            2365     11.5089E-03     9.45577E-03    -11.7061E+06     41.0541E+06     65.9513E+06    -1.97140E+06    -388.261E-03     672.589E-03    -284.327E-03     194.298E-03    -401.184E-03     685.427E-03    -284.040E-03     119.096E-03
            2366     10.9052E-03     9.11216E-03    -15.5451E+06     35.2888E+06     65.2905E+06    -3.11096E+06    -394.233E-03     671.812E-03    -277.579E-03     168.526E-03    -406.021E-03     683.491E-03    -277.281E-03     93.3665E-03
            2367     10.3117E-03     8.78371E-03    -19.9310E+06     26.6222E+06     60.9123E+06    -3.09715E+06    -387.617E-03     657.471E-03    -269.855E-03     139.151E-03    -397.507E-03     667.224E-03    -269.560E-03     69.9432E-03
            2368     9.70479E-03     8.51422E-03    -25.7465E+06     17.3738E+06      53.025E+06    -809.542E+03    -370.972E-03     632.777E-03    -261.804E-03     112.700E-03    -378.844E-03     640.482E-03    -261.527E-03     52.7876E-03
            2369     9.08352E-03     8.28402E-03    -32.8760E+06     4.90759E+06     41.3503E+06     2.21469E+06    -350.683E-03     604.603E-03    -253.920E-03     92.2315E-03    -356.927E-03     610.643E-03    -253.673E-03     41.5613E-03
            2370     8.45063E-03     8.09817E-03    -40.6850E+06    -8.26107E+06     28.9507E+06     5.52753E+06    -329.689E-03     576.147E-03    -246.458E-03     73.8910E-03    -334.543E-03     580.758E-03    -246.243E-03     31.7442E-03
            2371     7.79947E-03     7.95137E-03    -47.8641E+06    -20.0838E+06     17.2880E+06     8.07176E+06    -308.989E-03     548.556E-03    -239.567E-03     60.1642E-03    -312.767E-03     552.054E-03    -239.382E-03     25.4034E-03
            2372     7.13662E-03     7.83201E-03    -54.6721E+06    -31.0827E+06     9.19398E+06     9.36865E+06    -289.812E-03     523.159E-03    -233.347E-03     50.3169E-03    -292.773E-03     525.797E-03    -233.177E-03     21.7155E-03
            2373     6.46000E-03     7.74281E-03    -61.5356E+06    -41.4168E+06     2.62701E+06     9.19807E+06    -272.609E-03     500.423E-03    -227.814E-03     43.2443E-03    -274.930E-03     502.377E-03    -227.651E-03     19.7983E-03
            2374     5.77097E-03     7.67023E-03    -68.4236E+06    -51.8643E+06    -6.05000E+06     7.60803E+06    -257.699E-03     480.634E-03    -222.934E-03     38.3107E-03    -259.520E-03     482.050E-03    -222.790E-03     19.1578E-03
            2375     5.07252E-03     7.61660E-03    -75.3462E+06    -62.4945E+06    -16.6419E+06     5.83273E+06    -244.850E-03     463.530E-03    -218.680E-03     33.8446E-03    -246.256E-03     464.499E-03    -218.563E-03     18.3606E-03
            2376     4.36402E-03     7.57332E-03    -82.2388E+06    -76.4238E+06    -31.9335E+06     4.01535E+06    -234.116E-03     449.118E-03    -215.003E-03     29.6608E-03    -235.181E-03     449.716E-03    -214.932E-03     17.2802E-03
            2377     3.64753E-03     7.54052E-03    -88.7527E+06    -100.123E+06    -49.9083E+06     1.61475E+06    -225.326E-03     437.194E-03    -211.869E-03     25.3001E-03    -226.097E-03     437.442E-03    -211.844E-03     15.5816E-03
            2378     2.92687E-03     7.51457E-03    -95.4003E+06    -132.244E+06    -65.8430E+06    -322.202E+03    -218.020E-03     427.297E-03    -209.277E-03     20.9393E-03    -218.551E-03     427.212E-03    -209.276E-03     13.5613E-03
            2379     2.20037E-03     7.49701E-03    -100.658E+06    -162.317E+06    -78.8847E+06    -817.177E+03    -212.292E-03     419.501E-03    -207.209E-03     16.5050E-03    -212.636E-03     419.141E-03    -207.223E-03     11.2075E-03
            2380     1.46972E-03     7.48223E-03    -104.050E+06    -181.837E+06    -92.6098E+06     538.898E+03    -208.201E-03     413.779E-03    -205.578E-03     11.6775E-03    -208.412E-03     413.242E-03    -205.626E-03     8.25262E-03
            2381     736.352E-06     7.47721E-03    -106.290E+06    -192.304E+06    -103.514E+06     1.23919E+06    -205.044E-03     409.646E-03    -204.602E-03     6.48933E-03    -205.173E-03     409.016E-03    -204.686E-03     4.68546E-03
            2382     12.7547E-03     8.29003E-03    -4.87419E+06     62.5275E+06     74.2135E+06    -1.69843E+06    -376.640E-03     669.951E-03    -293.312E-03     180.586E-03    -387.078E-03     680.372E-03    -293.024E-03     118.596E-03
            2383     12.1356E-03     7.93684E-03    -8.09950E+06     55.2452E+06     68.9937E+06    -1.71269E+06    -400.253E-03     688.342E-03    -288.089E-03     211.452E-03    -414.587E-03     702.640E-03    -287.813E-03     131.231E-03
            2384     11.5482E-03     7.57150E-03    -10.2651E+06     44.2839E+06     63.7048E+06    -2.81873E+06    -411.949E-03     693.131E-03    -281.182E-03     178.920E-03    -424.630E-03     705.756E-03    -280.913E-03     98.5507E-03
            2385     10.9663E-03     7.24533E-03    -13.7591E+06     35.0666E+06     61.1061E+06    -2.23122E+06    -406.501E-03     679.651E-03    -273.150E-03     148.301E-03    -417.373E-03     690.439E-03    -272.875E-03     73.0146E-03
            2386     10.3664E-03     6.95876E-03    -19.8903E+06     22.4889E+06     53.7980E+06     1.02400E+06    -388.213E-03     652.981E-03    -264.768E-03     118.528E-03    -396.847E-03     661.488E-03    -264.503E-03     53.3048E-03
            2387     9.75472E-03     6.73805E-03    -27.0370E+06     11.8114E+06     44.3897E+06     4.41299E+06    -364.800E-03     621.442E-03    -256.642E-03     95.2514E-03    -371.571E-03     628.048E-03    -256.398E-03     40.3016E-03
            2388     9.12936E-03     6.55935E-03    -33.9733E+06     32.9436E+03     34.9796E+06     7.57502E+06    -340.484E-03     589.586E-03    -249.103E-03     81.0741E-03    -345.936E-03     594.831E-03    -248.879E-03     35.0827E-03
            2389     8.48520E-03     6.42152E-03    -40.1781E+06    -10.7180E+06     27.1510E+06     9.50505E+06    -317.000E-03     559.317E-03    -242.317E-03     72.3655E-03    -321.413E-03     563.482E-03    -242.107E-03     34.1816E-03
            2390     7.82915E-03     6.32101E-03    -45.7971E+06    -19.8588E+06     20.6664E+06     9.92769E+06    -295.992E-03     532.333E-03    -236.340E-03     67.9813E-03    -299.589E-03     535.647E-03    -236.142E-03     36.3449E-03
            2391     7.15538E-03     6.24396E-03    -51.0084E+06    -28.4944E+06     15.4183E+06     9.27155E+06    -277.431E-03     508.597E-03    -231.166E-03     65.9598E-03    -280.374E-03     511.223E-03    -230.974E-03     39.8194E-03
            2392     6.46902E-03     6.18813E-03    -56.1929E+06    -36.7412E+06     10.5445E+06     8.01067E+06    -262.019E-03     488.760E-03    -226.740E-03     64.0716E-03    -264.401E-03     490.788E-03    -226.553E-03     42.5407E-03
            2393     5.77279E-03     6.14566E-03    -62.6907E+06    -45.9543E+06     4.07898E+06     6.40365E+06    -249.278E-03     472.250E-03    -222.971E-03     61.7765E-03    -251.189E-03     473.769E-03    -222.793E-03     44.1086E-03
            2394     5.06698E-03     6.11514E-03    -70.7858E+06    -57.1047E+06    -7.15973E+06     4.25086E+06    -239.049E-03     458.808E-03    -219.759E-03     58.6780E-03    -240.560E-03     459.890E-03    -219.609E-03     44.2906E-03
            2395     4.35572E-03     6.09224E-03    -79.5114E+06    -70.7867E+06    -22.2662E+06     1.86448E+06    -230.858E-03     447.877E-03    -217.019E-03     54.2627E-03    -232.026E-03     448.579E-03    -216.912E-03     42.6920E-03
            2396     3.63950E-03     6.07534E-03    -88.1940E+06    -96.1830E+06    -40.3179E+06    -54.6347E+03    -224.030E-03     438.756E-03    -214.727E-03     48.2855E-03    -224.893E-03     439.082E-03    -214.661E-03     39.2000E-03
            2397     2.91617E-03     6.06452E-03    -96.3505E+06    -129.212E+06    -61.8383E+06    -2.19084E+06    -218.704E-03     431.564E-03    -212.860E-03     41.0751E-03    -219.304E-03     431.539E-03    -212.842E-03     34.1610E-03
            2398     2.19001E-03     6.05557E-03    -104.066E+06    -164.625E+06    -81.8964E+06    -4.02202E+06    -214.697E-03     426.102E-03    -211.406E-03     32.5665E-03    -215.085E-03     425.769E-03    -211.426E-03     27.5539E-03
            2399     1.46094E-03     6.05136E-03    -110.451E+06    -187.625E+06    -97.4096E+06    -3.52938E+06    -211.794E-03     422.143E-03    -210.349E-03     22.9067E-03    -212.040E-03     421.607E-03    -210.404E-03     19.6178E-03
            2400     730.891E-06     6.04604E-03    -113.424E+06    -193.393E+06    -108.245E+06    -1.60063E+06    -210.077E-03     419.716E-03    -209.639E-03     12.3988E-03    -210.242E-03     419.101E-03    -209.735E-03     10.6333E-03
            2401     12.7518E-03     6.42495E-03    -2.50287E+06     66.5838E+06     70.7082E+06    -954.285E+03    -407.442E-03     699.869E-03    -292.427E-03     186.145E-03    -417.969E-03     710.407E-03    -292.167E-03     119.836E-03
            2402     12.1758E-03     6.00556E-03    -5.31925E+06     59.9122E+06     63.8189E+06    -3.23862E+06    -431.217E-03     716.803E-03    -285.586E-03     199.794E-03    -444.945E-03     730.541E-03    -285.346E-03     115.469E-03
            2403     11.5980E-03     5.66682E-03    -9.30155E+06     41.0553E+06     54.9099E+06    -2.13858E+06    -429.280E-03     706.512E-03    -277.232E-03     152.112E-03    -440.358E-03     717.564E-03    -277.004E-03     73.1118E-03
            2404     11.0091E-03     5.36098E-03    -14.8991E+06     26.2194E+06     49.8550E+06     2.52708E+06    -407.716E-03     676.187E-03    -268.471E-03     115.206E-03    -416.363E-03     684.755E-03    -268.238E-03     46.6632E-03
            2405     10.4149E-03     5.15023E-03    -20.8415E+06     16.5780E+06     45.8908E+06     7.14369E+06    -377.772E-03     637.956E-03    -260.184E-03     90.4438E-03    -384.342E-03     644.397E-03    -259.948E-03     33.8695E-03
            2406     9.79772E-03     4.98077E-03    -26.5909E+06     7.72302E+06     42.2621E+06     9.83425E+06    -347.568E-03     600.390E-03    -252.821E-03     81.5767E-03    -352.887E-03     605.534E-03    -252.583E-03     34.9105E-03
            2407     9.15898E-03     4.86576E-03    -31.5252E+06    -686.035E+03     39.0356E+06     10.3423E+06    -320.098E-03     566.626E-03    -246.528E-03     80.2504E-03    -324.484E-03     570.799E-03    -246.286E-03     41.9982E-03
            2408     8.50078E-03     4.77970E-03    -35.9820E+06    -8.60821E+06     34.9525E+06     9.42896E+06    -296.325E-03     537.629E-03    -241.304E-03     82.6603E-03    -299.991E-03     541.048E-03    -241.065E-03     51.3427E-03
            2409     7.82337E-03     4.71742E-03    -40.5955E+06    -16.2689E+06     29.8832E+06     8.12698E+06    -277.408E-03     514.458E-03    -237.051E-03     85.3103E-03    -280.472E-03     517.245E-03    -236.819E-03     59.5424E-03
            2410     7.13675E-03     4.67868E-03    -45.6335E+06    -24.1889E+06     23.7517E+06     6.68478E+06    -262.893E-03     496.488E-03    -233.596E-03     87.3494E-03    -265.445E-03     498.734E-03    -233.376E-03     66.0442E-03
            2411     6.44073E-03     4.64643E-03    -51.9677E+06    -32.6757E+06     18.2063E+06     5.27063E+06    -251.602E-03     482.398E-03    -230.796E-03     87.1736E-03    -253.702E-03     484.153E-03    -230.582E-03     69.5706E-03
            2412     5.73750E-03     4.62897E-03    -59.3805E+06    -41.4941E+06     13.6380E+06     3.98189E+06    -243.058E-03     471.588E-03    -228.530E-03     84.3158E-03    -244.762E-03     472.899E-03    -228.316E-03     69.8199E-03
            2413     5.02922E-03     4.61371E-03    -67.5504E+06    -51.3826E+06     4.99804E+06     2.02642E+06    -236.432E-03     463.115E-03    -226.683E-03     79.5317E-03    -237.799E-03     464.045E-03    -226.485E-03     67.6559E-03
            2414     4.31638E-03     4.60444E-03    -76.3256E+06    -66.3043E+06    -10.2597E+06    -736.855E+03    -231.345E-03     456.537E-03    -225.192E-03     72.7123E-03    -232.415E-03     457.127E-03    -225.036E-03     63.0756E-03
            2415     3.59926E-03     4.59960E-03    -84.8318E+06    -94.6503E+06    -32.5634E+06    -3.35266E+06    -227.837E-03     451.834E-03    -223.997E-03     64.1804E-03    -228.633E-03     452.081E-03    -223.900E-03     56.4883E-03
            2416     2.88247E-03     4.59583E-03    -92.6287E+06    -132.323E+06    -57.2484E+06    -3.62651E+06    -225.374E-03     448.416E-03    -223.042E-03     53.5163E-03    -225.921E-03     448.320E-03    -223.002E-03     47.5630E-03
            2417     2.16327E-03     4.59471E-03    -100.250E+06    -167.838E+06    -79.4058E+06    -2.26626E+06    -223.502E-03     445.815E-03    -222.313E-03     41.6290E-03    -223.852E-03     445.431E-03    -222.321E-03     37.2758E-03
            2418     1.44352E-03     4.59272E-03    -107.441E+06    -191.860E+06    -97.2096E+06    -2.92228E+06    -222.203E-03     444.028E-03    -221.825E-03     28.7226E-03    -222.422E-03     443.451E-03    -221.877E-03     25.8198E-03
            2419     721.216E-06     4.59449E-03    -113.602E+06    -202.625E+06    -110.306E+06    -3.15017E+06    -221.650E-03     443.156E-03    -221.506E-03     15.6330E-03    -221.801E-03     442.491E-03    -221.599E-03     14.0445E-03
            2420     12.7847E-03     4.47930E-03    -1.95805E+06     68.8275E+06     63.6066E+06    -3.99993E+06    -457.936E-03     748.662E-03    -290.726E-03     183.271E-03    -468.132E-03     758.906E-03    -290.505E-03     112.759E-03
            2421     12.2116E-03     4.03800E-03    -3.23383E+06     59.4026E+06     57.2749E+06     1.59727E+03    -462.304E-03     744.087E-03    -281.783E-03     147.723E-03    -472.885E-03     754.738E-03    -281.578E-03     68.8916E-03
            2422     11.6506E-03     3.72018E-03    -11.4772E+06     32.7752E+06     45.0113E+06     4.65711E+06    -428.851E-03     701.253E-03    -272.403E-03     92.0240E-03    -435.952E-03     708.331E-03    -272.209E-03     26.0874E-03
            2423     11.0763E-03     3.51521E-03    -16.0802E+06     18.0367E+06     42.8091E+06      7.8535E+06    -388.130E-03     652.143E-03    -264.013E-03     74.6010E-03    -393.367E-03     657.283E-03    -263.802E-03     21.5243E-03
            2424     10.4583E-03     3.37057E-03    -19.4309E+06     13.3778E+06     45.0564E+06     8.58089E+06    -350.323E-03     607.388E-03    -257.065E-03     74.8208E-03    -354.451E-03     611.379E-03    -256.831E-03     33.1820E-03
            2425     9.81544E-03     3.28071E-03    -21.7191E+06     8.35524E+06     48.0303E+06     8.55987E+06    -319.140E-03     570.694E-03    -251.555E-03     82.2437E-03    -322.613E-03     573.996E-03    -251.295E-03     49.1224E-03
            2426     9.15010E-03     3.21268E-03    -24.8718E+06     2.70310E+06     48.5549E+06     8.03459E+06    -294.503E-03     541.798E-03    -247.295E-03     88.5350E-03    -297.416E-03     544.504E-03    -247.020E-03     62.0961E-03
            2427     8.47123E-03     3.17316E-03    -29.1928E+06    -4.51839E+06     45.4247E+06     7.07657E+06    -275.964E-03     520.029E-03    -244.065E-03     92.8048E-03    -278.397E-03     522.222E-03    -243.789E-03     71.5006E-03
            2428     7.78248E-03     3.14427E-03    -34.7755E+06    -12.2240E+06     39.3587E+06     5.75538E+06    -262.529E-03     504.179E-03    -241.650E-03     94.1126E-03    -264.550E-03     505.926E-03    -241.385E-03     76.7076E-03
            2429     7.08484E-03     3.12287E-03    -41.0731E+06    -20.4064E+06     30.9461E+06     4.46584E+06    -253.300E-03     493.147E-03    -239.847E-03     92.3286E-03    -254.965E-03     494.509E-03    -239.603E-03     77.9283E-03
            2430     6.38264E-03     3.11207E-03    -47.3589E+06    -28.0482E+06     23.5500E+06     2.62976E+06    -246.826E-03     485.333E-03    -238.507E-03     88.8185E-03    -248.207E-03     486.379E-03    -238.280E-03     76.7593E-03
            2431     5.67736E-03     3.10169E-03    -53.2199E+06    -36.0691E+06     13.9982E+06    -609.686E+03    -242.402E-03     479.903E-03    -237.501E-03     83.6200E-03    -243.532E-03     480.675E-03    -237.302E-03     73.4633E-03
            2432     4.97069E-03     3.09838E-03    -57.9510E+06    -46.7321E+06    -651.462E+03    -4.15931E+06    -239.400E-03     476.134E-03    -236.734E-03     76.6852E-03    -240.302E-03     476.663E-03    -236.586E-03     68.1361E-03
            2433     4.26138E-03     3.09624E-03    -61.9947E+06    -64.8641E+06    -17.0740E+06    -6.41120E+06    -237.350E-03     473.529E-03    -236.180E-03     67.9901E-03    -238.039E-03     473.810E-03    -236.081E-03     60.8759E-03
            2434     3.55282E-03     3.09444E-03    -67.0877E+06    -100.494E+06    -33.8095E+06    -5.71439E+06    -236.147E-03     471.971E-03    -235.823E-03     58.2273E-03    -236.634E-03     471.952E-03    -235.749E-03     52.4308E-03
            2435     2.84195E-03     3.09405E-03    -73.8782E+06    -142.396E+06    -50.1563E+06    -2.42852E+06    -235.567E-03     471.171E-03    -235.603E-03     47.8784E-03    -235.884E-03     470.855E-03    -235.541E-03     43.3250E-03
            2436     2.13167E-03     3.09546E-03    -80.4893E+06    -171.402E+06    -66.1100E+06     138.202E+03    -235.349E-03     470.788E-03    -235.439E-03     36.8683E-03    -235.541E-03     470.265E-03    -235.404E-03     33.5066E-03
            2437     1.42010E-03     3.09582E-03    -85.5386E+06    -192.176E+06    -79.2612E+06     711.870E+03    -235.244E-03     470.568E-03    -235.324E-03     25.2701E-03    -235.345E-03     469.899E-03    -235.317E-03     23.0217E-03
            2438     711.147E-06     3.09572E-03    -89.7843E+06    -207.857E+06    -88.6678E+06     305.596E+03    -235.287E-03     470.483E-03    -235.195E-03     13.9790E-03    -235.331E-03     469.715E-03    -235.207E-03     12.7585E-03
            2439     12.8030E-03     2.34188E-03    -4.81386E+06     67.8909E+06     67.6792E+06    -1.53073E+06    -558.622E-03     848.322E-03    -289.701E-03     168.178E-03    -565.831E-03     855.595E-03    -289.454E-03     108.915E-03
            2440     12.3047E-03     2.01860E-03    -8.18996E+06     52.3428E+06      61.366E+06     1.99794E+06    -486.959E-03     765.172E-03    -278.213E-03     93.1791E-03    -491.690E-03     769.976E-03    -277.970E-03     43.8111E-03
            2441     11.7359E-03     1.84373E-03    -11.3423E+06     34.1763E+06     56.2840E+06     5.11026E+06    -412.773E-03     681.545E-03    -268.772E-03     67.4871E-03    -415.599E-03     684.329E-03    -268.524E-03     30.6047E-03
            2442     11.1050E-03     1.73059E-03    -13.6071E+06     20.9375E+06     54.4774E+06     4.49721E+06    -358.877E-03     620.621E-03    -261.745E-03     63.4787E-03    -361.036E-03     622.664E-03    -261.483E-03     36.1281E-03
            2443     10.4565E-03     1.66977E-03    -14.8151E+06     14.7917E+06     55.2866E+06     3.07620E+06    -321.278E-03     577.952E-03    -256.674E-03     64.8119E-03    -323.024E-03     579.552E-03    -256.398E-03     44.3649E-03
            2444     9.78800E-03     1.62510E-03    -17.1867E+06     9.13136E+06     54.9218E+06     3.02384E+06    -295.335E-03     548.386E-03    -253.051E-03     67.4679E-03    -296.785E-03     549.657E-03    -252.764E-03     51.5945E-03
            2445     9.10941E-03     1.60346E-03    -19.9519E+06     3.90899E+06     50.8091E+06     3.67045E+06    -277.519E-03     527.985E-03    -250.466E-03     68.2041E-03    -278.717E-03     528.985E-03    -250.189E-03     55.6241E-03
            2446     8.41962E-03     1.58541E-03    -23.6467E+06    -3.33977E+06     41.2729E+06     4.28485E+06    -265.686E-03     514.306E-03    -248.620E-03     67.2352E-03    -266.672E-03     515.081E-03    -248.375E-03     57.0386E-03
            2447     7.72529E-03     1.57506E-03    -27.6167E+06    -9.87467E+06     31.5988E+06     4.29274E+06    -257.715E-03     505.033E-03    -247.318E-03     64.7915E-03    -258.537E-03     505.632E-03    -247.106E-03     56.3525E-03
            2448     7.02775E-03     1.56745E-03    -31.7556E+06    -16.3914E+06     21.7031E+06     2.71351E+06    -252.191E-03     498.615E-03    -246.425E-03     61.0520E-03    -252.869E-03     499.060E-03    -246.246E-03     53.9272E-03
            2449     6.32793E-03     1.56202E-03    -35.7318E+06    -22.2868E+06     12.7385E+06    -274.619E+03    -248.666E-03     494.509E-03    -245.843E-03     56.3544E-03    -249.230E-03     494.829E-03    -245.695E-03     50.2269E-03
            2450     5.62603E-03     1.55999E-03    -40.0448E+06    -29.1091E+06     1.50571E+06    -3.82790E+06    -246.376E-03     491.857E-03    -245.481E-03     51.3187E-03    -246.849E-03     492.078E-03    -245.373E-03     45.9818E-03
            2451     4.92205E-03     1.55759E-03    -44.8480E+06    -42.8524E+06    -14.9032E+06    -7.30316E+06    -245.221E-03     490.489E-03    -245.268E-03     45.7006E-03    -245.601E-03     490.598E-03    -245.216E-03     41.0747E-03
            2452     4.21999E-03     1.55738E-03    -49.9889E+06    -70.9234E+06    -29.5606E+06    -7.60195E+06    -244.794E-03     489.976E-03    -245.182E-03     40.0793E-03    -245.075E-03     489.910E-03    -245.155E-03     36.1369E-03
            2453     3.51562E-03     1.55786E-03    -55.3986E+06    -113.223E+06    -38.6404E+06    -3.93143E+06    -244.571E-03     489.786E-03    -245.215E-03     33.9106E-03    -244.752E-03     489.477E-03    -245.164E-03     30.6748E-03
            2454     2.81216E-03     1.55878E-03    -59.9615E+06    -150.436E+06    -46.0624E+06    -435.883E+03    -244.650E-03     489.956E-03    -245.305E-03     27.2044E-03    -244.747E-03     489.434E-03    -245.231E-03     24.6643E-03
            2455     2.10848E-03     1.55780E-03    -63.5174E+06    -173.943E+06    -54.7534E+06     1.14043E+06    -244.987E-03     490.369E-03    -245.381E-03     20.2878E-03    -245.020E-03     489.712E-03    -245.311E-03     18.3994E-03
            2456     1.40680E-03     1.55943E-03    -66.1966E+06    -191.450E+06    -61.8292E+06     1.90217E+06    -245.234E-03     490.674E-03    -245.440E-03     13.6606E-03    -245.220E-03     489.920E-03    -245.376E-03     12.4124E-03
            2457     701.887E-06     1.55917E-03    -67.6565E+06    -204.023E+06    -66.1434E+06     1.77099E+06    -245.533E-03     490.908E-03    -245.375E-03     7.48005E-03    -245.487E-03     490.086E-03    -245.312E-03     6.82817E-03


