********************************************************************************
Field Output Report, written Tue May 28 19:30:50 2024

Source 1
---------

   ODB: G:/Abaqus_calc_2019/1740/Vel_20/odb/zeides_2a_32_red_500_cal_0_vel_20_fric_050.odb
   Step: Step-1
   Frame: Increment   3647751: Step Time =   0.4457

Loc 1 : Nodal values from source 1

Output sorted by column "Nodal Label".

Field Output reported at nodes for region: DIE_2A_32_D0_36-1.Region_1
   Computation algorithm: EXTRAPOLATE_COMPUTE_AVERAGE
   Averaged at nodes
   Averaging regions: ODB_REGIONS

      Node Label     COORD.COOR1     COORD.COOR2
                          @Loc 1          @Loc 1
-------------------------------------------------
               1     21.8134E-03     125.746E-03


Field Output reported at nodes for region: DIE_2A_32_D0_36-1.Region_2
   Computation algorithm: EXTRAPOLATE_COMPUTE_AVERAGE
   Averaged at nodes
   Averaging regions: ODB_REGIONS

      Node Label     COORD.COOR1     COORD.COOR2
                          @Loc 1          @Loc 1
-------------------------------------------------
               1     21.8134E-03     125.746E-03


Field Output reported at nodes for part: WIRE-1
   Computation algorithm: EXTRAPOLATE_COMPUTE_AVERAGE
   Averaged at nodes
   Averaging regions: ODB_REGIONS

      Node Label     COORD.COOR1     COORD.COOR2           S.S11           S.S22           S.S33           S.S12         PE.PE11         PE.PE22         PE.PE33         PE.PE12         LE.LE11         LE.LE22         LE.LE33         LE.LE12
                          @Loc 1          @Loc 1          @Loc 1          @Loc 1          @Loc 1          @Loc 1          @Loc 1          @Loc 1          @Loc 1          @Loc 1          @Loc 1          @Loc 1          @Loc 1          @Loc 1
-------------------------------------------------------------------------------------------------------------------------------------------------------------------------------------------------------------------------------------------------
               1    -56.9404E-09     60.4027E-03    -48.8451E+06    -166.921E+06    -49.1567E+06     233.018E+03    -53.9318E-03     107.745E-03    -53.8131E-03     5.78577E-03    -53.8631E-03     107.053E-03    -53.7460E-03     5.76917E-03
               2     17.0614E-03     62.3298E-03    -1.91678E+06     152.846E+06     103.687E+06     95.6927E+03    -52.1756E-03     106.010E-03    -53.8343E-03     76.0781E-03    -54.6973E-03     108.767E-03    -53.5347E-03     78.5962E-03
               3     16.4699E-03     124.132E-03    -5.91006E+06    -12.9451E+06    -33.6627E+06     15.4109E+03     40.0891E-03     38.7277E-03    -78.8168E-03     265.445E-06     40.1546E-03     38.7479E-03    -78.9578E-03     265.661E-06
               4    -1.46409E-06     120.925E-03     40.0947E+06    -787.978E+03     40.1853E+06    -3.96948E+06    -53.2306E-03     107.790E-03    -54.5596E-03    -3.85400E-03    -53.0950E-03     107.662E-03    -54.4157E-03    -3.91366E-03
               5     101.036E-09    -228.983E-18    -27.5319E+06    -142.776E+06    -27.4900E+06    -322.991E+03    -48.9019E-03     97.6967E-03    -48.7948E-03     461.484E-06    -48.7925E-03     97.0627E-03    -48.6853E-03     456.321E-06
               6     16.7644E-03    -228.983E-18     17.0702E+06     114.083E+06     102.593E+06     4.74073E+06    -127.985E-03     192.860E-03    -64.8752E-03     163.624E-03    -129.451E-03     194.442E-03    -64.5524E-03     160.630E-03
               7     852.863E-06     60.4089E-03    -48.7295E+06    -166.547E+06    -48.2536E+06     239.523E+03    -53.9097E-03     107.749E-03    -53.8395E-03     9.56487E-03    -53.8432E-03     107.059E-03    -53.7686E-03     9.53530E-03
               8     1.70580E-03     60.4219E-03    -47.6780E+06    -164.336E+06    -44.4873E+06     11.0879E+03    -53.9286E-03     107.802E-03    -53.8738E-03     17.5047E-03    -53.8686E-03     107.119E-03    -53.7888E-03     17.4435E-03
               9     2.55861E-03     60.4440E-03    -45.6740E+06    -160.381E+06    -38.1802E+06    -238.931E+03    -54.0115E-03     107.904E-03    -53.8921E-03     25.8414E-03    -53.9618E-03     107.233E-03    -53.7842E-03     25.7440E-03
              10     3.41152E-03     60.4738E-03    -43.1979E+06    -156.245E+06    -31.4761E+06    -3.72013E+03    -54.1214E-03     108.032E-03    -53.9110E-03     34.1547E-03    -54.0834E-03     107.378E-03    -53.7792E-03     34.0228E-03
              11     4.26441E-03     60.5126E-03    -40.2210E+06    -151.427E+06    -24.4539E+06     148.292E+03    -54.2789E-03     108.209E-03    -53.9297E-03     42.4101E-03    -54.2552E-03     107.575E-03    -53.7741E-03     42.2371E-03
              12     5.11724E-03     60.5589E-03    -36.8341E+06    -146.446E+06    -17.3269E+06    -144.403E+03    -54.4635E-03     108.413E-03    -53.9491E-03     50.5337E-03    -54.4574E-03     107.806E-03    -53.7700E-03     50.3065E-03
              13     5.97011E-03     60.6140E-03    -33.3429E+06    -142.286E+06    -11.1755E+06    -210.034E+03    -54.6113E-03     108.572E-03    -53.9608E-03     58.4251E-03    -54.6260E-03     107.996E-03    -53.7620E-03     58.1383E-03
              14     6.82340E-03     60.6759E-03    -30.1238E+06    -133.403E+06    -7.28977E+06     83.7648E+03    -54.8455E-03     108.797E-03    -53.9520E-03     66.2422E-03    -54.8940E-03     108.287E-03    -53.7513E-03     65.8906E-03
              15     7.67608E-03     60.7470E-03    -27.1080E+06    -121.507E+06    -5.86164E+06    -11.6177E+03    -55.1188E-03     109.049E-03    -53.9306E-03     73.8689E-03    -55.2138E-03     108.634E-03    -53.7444E-03     73.4357E-03
              16     8.52901E-03     60.8241E-03    -25.2261E+06    -110.195E+06    -5.31575E+06     156.165E+03    -55.3653E-03     109.275E-03    -53.9093E-03     81.5119E-03    -55.5254E-03     108.969E-03    -53.7395E-03     80.9868E-03
              17     9.38206E-03     60.9107E-03    -23.5372E+06    -96.7891E+06    -4.12239E+06     457.010E+03    -55.6285E-03     109.517E-03    -53.8880E-03     89.4373E-03    -55.8807E-03     109.354E-03    -53.7341E-03     88.8048E-03
              18     10.2349E-03     61.0032E-03    -21.9812E+06    -81.3765E+06    -4.37682E+06     556.693E+03    -55.6276E-03     109.473E-03    -53.8457E-03     97.2927E-03    -56.0000E-03     109.491E-03    -53.7177E-03     96.5379E-03
              19     11.0892E-03     61.1053E-03    -20.7429E+06    -60.3235E+06    -4.82761E+06     742.438E+03    -55.7848E-03     109.568E-03    -53.7835E-03     104.537E-03    -56.3318E-03     109.841E-03    -53.6901E-03     103.633E-03
              20     11.9418E-03     61.2127E-03    -19.3724E+06    -30.4162E+06    -5.25578E+06     554.906E+03    -56.5232E-03     110.246E-03    -53.7227E-03     115.207E-03    -57.3535E-03     110.915E-03    -53.6768E-03     114.103E-03
              21     12.7940E-03     61.3354E-03    -18.4905E+06     18.6011E+06    -8.48096E+06     183.440E+03    -57.1093E-03     110.742E-03    -53.6327E-03     132.574E-03    -58.4596E-03     112.117E-03    -53.6752E-03     131.216E-03
              22     13.6478E-03     61.4785E-03    -18.1944E+06     72.9094E+06     1.53967E+06     313.794E+03    -58.9161E-03     112.519E-03    -53.6032E-03     165.084E-03    -61.3717E-03     115.165E-03    -53.6749E-03     163.396E-03
              23     14.4994E-03     61.6678E-03    -16.9725E+06     113.641E+06     40.0702E+06     1.05472E+06    -62.7810E-03     116.513E-03    -53.7316E-03     227.364E-03    -68.2840E-03     122.243E-03    -53.6714E-03     225.405E-03
              24     15.3531E-03     61.9385E-03    -13.0106E+06     147.702E+06     87.9358E+06     347.240E+03    -64.8319E-03     118.707E-03    -53.8751E-03     288.903E-03    -76.1152E-03     130.213E-03    -53.6307E-03     288.521E-03
              25     16.2078E-03     62.2528E-03    -6.18102E+06     158.174E+06     106.498E+06    -324.953E+03    -58.4430E-03     112.320E-03    -53.8771E-03     193.343E-03    -67.0934E-03     121.201E-03    -53.5650E-03     195.241E-03
              26     17.0622E-03     63.3864E-03    -3.87501E+06     150.016E+06     101.286E+06    -163.811E+03    -53.8640E-03     107.655E-03    -53.7909E-03     72.8114E-03    -56.3186E-03     110.335E-03    -53.4964E-03     75.1549E-03
              27     17.0615E-03     64.4450E-03    -1.88131E+06     152.314E+06     103.572E+06    -151.731E+03    -51.3526E-03     105.193E-03    -53.8402E-03     74.9471E-03    -53.8570E-03     107.931E-03    -53.5404E-03     77.4976E-03
              28     17.0637E-03     65.5007E-03    -2.26325E+06     152.437E+06     103.313E+06    -261.835E+03    -49.9910E-03     103.854E-03    -53.8627E-03     79.2753E-03    -52.5856E-03     106.682E-03    -53.5639E-03     81.9515E-03
              29     17.0610E-03     66.5512E-03    -2.70960E+06     151.966E+06     103.100E+06    -133.208E+03    -51.5357E-03     105.367E-03    -53.8317E-03     78.4464E-03    -54.1150E-03     108.178E-03    -53.5327E-03     80.9927E-03
              30     17.0635E-03     67.6079E-03    -2.41840E+06     151.760E+06     103.209E+06    -177.769E+03    -51.9200E-03     105.731E-03    -53.8111E-03     75.3606E-03    -54.4286E-03     108.471E-03    -53.5116E-03     77.8359E-03
              31     17.0617E-03     68.6588E-03    -3.16283E+06     151.166E+06     102.815E+06    -182.565E+03    -53.5212E-03     107.307E-03    -53.7854E-03     72.7911E-03    -55.9718E-03     109.985E-03    -53.4860E-03     75.1899E-03
              32     17.0617E-03     69.7178E-03    -2.58334E+06     151.451E+06     103.243E+06     496.198E+03    -54.4808E-03     108.261E-03    -53.7804E-03     72.7252E-03    -56.9113E-03     110.921E-03    -53.4801E-03     75.0507E-03
              33     17.0624E-03     70.7813E-03    -1.94859E+06     152.422E+06     103.318E+06     875.109E+03    -51.3102E-03     105.149E-03    -53.8388E-03     77.0718E-03    -53.8405E-03     107.914E-03    -53.5404E-03     79.6038E-03
              34     17.0626E-03     71.8298E-03    -3.38951E+06     153.650E+06     103.329E+06    -204.876E+03    -50.6834E-03     104.531E-03    -53.8479E-03     78.8680E-03    -53.2839E-03     107.366E-03    -53.5492E-03     81.4991E-03
              35     17.0619E-03     72.8840E-03    -2.87862E+06     153.883E+06     103.997E+06    -177.147E+03    -52.2760E-03     106.094E-03    -53.8179E-03     75.5620E-03    -54.8058E-03     108.858E-03    -53.5169E-03     78.0658E-03
              36     17.0623E-03     73.9420E-03    -1.82824E+06     154.641E+06     104.805E+06     392.968E+03    -51.9012E-03     105.727E-03    -53.8254E-03     74.8135E-03    -54.3899E-03     108.454E-03    -53.5229E-03     77.2862E-03
              37     17.0625E-03     74.9918E-03    -2.56100E+06     153.148E+06     103.767E+06    -261.652E+03    -52.8929E-03     106.693E-03    -53.8002E-03     73.3669E-03    -55.3413E-03     109.375E-03    -53.4997E-03     75.7686E-03
              38     17.0616E-03     76.0516E-03    -2.85076E+06     152.345E+06     103.347E+06    -168.866E+03    -53.6094E-03     107.398E-03    -53.7882E-03     72.9365E-03    -56.0484E-03     110.068E-03    -53.4883E-03     75.2845E-03
              39     17.0627E-03     77.1109E-03    -2.75748E+06     153.122E+06     103.548E+06     168.568E+03    -50.9557E-03     104.793E-03    -53.8370E-03     74.4212E-03    -53.4442E-03     107.515E-03    -53.5373E-03     76.9530E-03
              40     17.0626E-03     78.1584E-03    -2.51495E+06     155.532E+06     105.137E+06     52.1902E+03    -51.3504E-03     105.181E-03    -53.8301E-03     75.7851E-03    -53.8702E-03     107.939E-03    -53.5263E-03     78.3611E-03
              41     17.0618E-03     79.2190E-03    -3.27170E+06     155.377E+06     104.645E+06     1.25041E+06    -53.9376E-03     107.731E-03    -53.7938E-03     74.8808E-03    -56.4208E-03     110.451E-03    -53.4911E-03     77.2667E-03
              42     17.0615E-03     80.2761E-03    -2.05773E+06     156.328E+06     104.531E+06     1.44462E+06    -51.9410E-03     105.780E-03    -53.8394E-03     74.5373E-03    -54.4100E-03     108.494E-03    -53.5404E-03     76.9885E-03
              43     17.0631E-03     81.3274E-03    -3.03109E+06     157.674E+06     104.476E+06    -145.241E+03    -50.4399E-03     104.288E-03    -53.8479E-03     75.5701E-03    -52.9616E-03     107.056E-03    -53.5498E-03     78.1465E-03
              44     17.0621E-03     82.3821E-03    -2.40599E+06     159.881E+06     106.277E+06     67.9440E+03    -52.4208E-03     106.221E-03    -53.8006E-03     76.0292E-03    -54.9577E-03     109.009E-03    -53.4976E-03     78.5279E-03
              45     17.0626E-03     83.4423E-03    -1.93998E+06     159.855E+06     105.547E+06    -10.8160E+03    -51.4813E-03     105.279E-03    -53.7980E-03     74.3365E-03    -53.9741E-03     108.027E-03    -53.4992E-03     76.8183E-03
              46     17.0641E-03     84.4875E-03    -3.56682E+06     159.321E+06     104.538E+06    -568.020E+03    -52.4870E-03     106.279E-03    -53.7916E-03     73.3150E-03    -54.9662E-03     109.008E-03    -53.4948E-03     75.7808E-03
              47     17.0591E-03     85.5526E-03    -3.30813E+06     160.740E+06     105.252E+06     1.41373E+06    -52.6474E-03     106.459E-03    -53.8117E-03     72.2967E-03    -55.0993E-03     109.165E-03    -53.5137E-03     74.7307E-03
              48     17.0660E-03     86.6038E-03    -3.12623E+06     161.080E+06     104.883E+06    -392.598E+03    -52.0953E-03     105.903E-03    -53.8076E-03     77.7062E-03    -54.6553E-03     108.721E-03    -53.5122E-03     80.1757E-03
              49     17.0584E-03     87.6630E-03    -2.72819E+06     160.268E+06     104.611E+06    -180.210E+03    -53.6918E-03     107.468E-03    -53.7760E-03     76.3579E-03    -56.2418E-03     110.276E-03    -53.4814E-03     78.7613E-03
              50     17.0658E-03     88.7202E-03    -3.53065E+06     159.853E+06     104.087E+06    -199.120E+03    -51.0322E-03     104.848E-03    -53.8160E-03     77.6288E-03    -53.6288E-03     107.700E-03    -53.5223E-03     80.2211E-03
              51     17.0604E-03     89.7720E-03    -2.56591E+06     160.166E+06     104.527E+06    -385.820E+03    -50.2027E-03     104.026E-03    -53.8233E-03     81.4549E-03    -52.8601E-03     106.941E-03    -53.5292E-03     84.1431E-03
              52     17.0650E-03     90.8307E-03    -651.180E+03     161.553E+06     105.790E+06     1.62192E+06    -50.9658E-03     104.761E-03    -53.7953E-03     79.1917E-03    -53.5515E-03     107.612E-03    -53.4997E-03     81.7664E-03
              53     17.0619E-03     91.8721E-03    -3.54928E+06     162.313E+06     105.196E+06     222.858E+03    -52.7504E-03     106.481E-03    -53.7301E-03     76.3127E-03    -55.2842E-03     109.274E-03    -53.4344E-03     78.7468E-03
              54     17.0648E-03     92.9421E-03    -2.69416E+06     161.759E+06     104.404E+06    -255.704E+03    -51.3149E-03     105.042E-03    -53.7274E-03     71.3258E-03    -53.7576E-03     107.747E-03    -53.4361E-03     73.8010E-03
              55     17.0642E-03     93.9796E-03    -1.94437E+06     162.936E+06     104.635E+06     95.5112E+03    -51.5655E-03     105.251E-03    -53.6851E-03     72.1961E-03    -53.9955E-03     107.949E-03    -53.3953E-03     74.6777E-03
              56     17.0648E-03     95.0442E-03    -3.26468E+06     162.903E+06     103.543E+06     1.25020E+06    -55.1290E-03     108.674E-03    -53.5451E-03     71.2655E-03    -57.5245E-03     111.336E-03    -53.2588E-03     73.4697E-03
              57     17.0672E-03     96.1066E-03    -2.42551E+06     166.596E+06     104.904E+06     1.08087E+06    -52.3831E-03     105.921E-03    -53.5380E-03     76.6652E-03    -54.9315E-03     108.748E-03    -53.2515E-03     79.1015E-03
              58     17.0671E-03     97.1607E-03    -2.10422E+06     167.507E+06     103.420E+06     235.585E+03    -48.7249E-03     102.245E-03    -53.5204E-03     79.5927E-03    -51.3520E-03     105.160E-03    -53.2432E-03     82.3214E-03
              59     17.0718E-03     98.2042E-03    -4.47613E+06     165.171E+06     100.616E+06    -1.14563E+06    -51.2943E-03     104.625E-03    -53.3304E-03     78.9288E-03    -53.8960E-03     107.506E-03    -53.0604E-03     81.4882E-03
              60     17.0703E-03     99.2664E-03    -2.76942E+06     164.322E+06     100.383E+06     548.741E+03    -53.0160E-03     106.154E-03    -53.1381E-03     76.8077E-03    -55.5577E-03     108.979E-03    -52.8704E-03     79.2077E-03
              61     17.0782E-03     100.321E-03    -1.77290E+06     162.806E+06     97.7987E+06    -130.181E+03    -50.7741E-03     103.731E-03    -52.9565E-03     81.0232E-03    -53.3940E-03     106.640E-03    -52.7010E-03     83.5591E-03
              62     17.0792E-03     101.371E-03    -2.88449E+06     159.767E+06     93.9291E+06    -726.495E+03    -52.4935E-03     105.151E-03    -52.6574E-03     81.6118E-03    -55.1286E-03     108.072E-03    -52.4153E-03     84.1130E-03
              63     17.0855E-03     102.432E-03    -3.37857E+06     156.293E+06     89.7795E+06    -1.11388E+06    -54.2596E-03     106.580E-03    -52.3202E-03     79.8378E-03    -56.8433E-03     109.447E-03    -52.0931E-03     82.1979E-03
              64     17.0903E-03     103.480E-03    -1.16202E+06     147.719E+06     86.1580E+06    -3.80796E+06    -56.0844E-03     108.023E-03    -51.9384E-03     78.5123E-03    -58.6059E-03     110.815E-03    -51.7201E-03     80.7363E-03
              65     17.0961E-03     104.545E-03    -677.264E+03     136.683E+06     81.8436E+06    -3.36940E+06    -58.2403E-03     109.809E-03    -51.5687E-03     75.9904E-03    -60.7106E-03     112.525E-03    -51.3567E-03     78.1556E-03
              66     17.1001E-03     105.602E-03    -799.505E+03     130.211E+06     76.1127E+06    -304.161E+03    -61.2303E-03     112.433E-03    -51.2026E-03     78.6179E-03    -63.7713E-03     115.213E-03    -51.0097E-03     80.7578E-03
              67     17.1045E-03     106.670E-03    -2.27452E+06     128.623E+06     67.2445E+06     207.569E+03    -66.8674E-03     117.633E-03    -50.7658E-03     77.5557E-03    -69.4098E-03     120.429E-03    -50.6128E-03     79.3792E-03
              68     17.1087E-03     107.738E-03    -2.93304E+06     123.956E+06     59.4103E+06    -3.71917E+06    -73.7727E-03     124.131E-03    -50.3579E-03     78.0575E-03    -76.3295E-03     126.946E-03    -50.2364E-03     79.4946E-03
              69     17.1095E-03     108.824E-03    -4.76974E+06     111.261E+06     51.9643E+06    -5.52584E+06    -79.1428E-03     129.223E-03    -50.0797E-03     78.6726E-03    -81.7285E-03     132.036E-03    -49.9743E-03     79.8399E-03
              70     17.1122E-03     109.904E-03    -1.21945E+06     94.1812E+06     49.3854E+06    -6.92960E+06    -84.6418E-03     134.482E-03    -49.8398E-03     84.1064E-03    -87.3188E-03     137.346E-03    -49.7276E-03     84.9230E-03
              71     17.1135E-03     110.996E-03    -1.54953E+06     71.8123E+06     44.9474E+06    -8.67777E+06    -95.0224E-03     144.536E-03    -49.5133E-03     88.5885E-03    -97.7703E-03     147.405E-03    -49.3904E-03     88.7413E-03
              72     17.1139E-03     112.107E-03      -67.05E+03     50.3791E+06     33.0539E+06    -7.54282E+06    -103.766E-03     152.972E-03    -49.2051E-03     94.3210E-03    -106.623E-03     155.913E-03    -49.1128E-03     93.9082E-03
              73     17.1165E-03     113.216E-03    -2.92257E+06     21.6749E+06     19.7349E+06    -12.4999E+06    -112.344E-03     161.232E-03    -48.8876E-03     102.212E-03    -115.380E-03     164.278E-03    -48.8162E-03     101.099E-03
              74     17.1173E-03     114.338E-03     896.021E+03    -13.6455E+06     21.9699E+06    -13.0406E+06    -126.333E-03     174.843E-03    -48.5101E-03     109.062E-03    -129.517E-03     177.923E-03    -48.3818E-03     106.869E-03
              75     17.1203E-03     115.487E-03     3.12095E+06    -32.8168E+06     37.1199E+06    -2.45392E+06    -139.507E-03     187.718E-03    -48.2109E-03     122.547E-03    -143.148E-03     191.155E-03    -47.9823E-03     119.254E-03
              76     17.1202E-03     116.652E-03    -1.95982E+06    -38.0438E+06     23.5780E+06    -2.37655E+06    -145.018E-03     193.000E-03    -47.9824E-03     139.836E-03    -149.336E-03     197.116E-03    -47.8065E-03     135.612E-03
              77     17.1216E-03     117.807E-03    -3.55895E+06    -70.7935E+06     33.3762E+06    -17.4890E+06    -149.374E-03     197.197E-03    -47.8235E-03     174.557E-03    -154.702E-03     202.178E-03    -47.5488E-03     169.225E-03
              78     17.1332E-03     118.989E-03     3.67558E+06    -100.448E+06     60.8915E+06    -2.41396E+06    -155.896E-03     203.538E-03    -47.6416E-03     215.944E-03    -162.826E-03     209.974E-03    -47.1968E-03     209.031E-03
              79     17.1270E-03     120.185E-03     6.75627E+06    -50.2163E+06     35.7233E+06     28.8086E+06    -147.684E-03     195.526E-03    -47.8420E-03     271.385E-03    -156.653E-03     204.269E-03    -47.6004E-03     263.721E-03
              80     17.1235E-03     121.348E-03    -36.7506E+06    -4.44442E+06     6.85081E+06     2.68562E+06    -86.7587E-03     136.463E-03    -49.7045E-03     316.771E-03    -93.8423E-03     143.430E-03    -49.6105E-03     312.810E-03
              81     17.1135E-03     122.300E-03    -4.33722E+06     727.509E+03     24.0042E+06    -5.16994E+06    -2.58026E-03     58.4843E-03    -55.9041E-03     229.848E-03    -4.58095E-03     60.3785E-03    -55.7788E-03     229.812E-03
              82     16.8336E-03     123.196E-03     24.3175E+06    -1.58417E+06     5.45062E+06     9.17959E+06     35.7725E-03     33.9268E-03    -69.6993E-03     68.9897E-03     35.8097E-03     33.9233E-03    -69.7050E-03     69.1396E-03
              83     15.5945E-03     123.757E-03    -3.47431E+06     11.0232E+06     13.9704E+06     684.489E+03     37.5268E-03     42.6084E-03    -80.1353E-03     11.2221E-03     37.4701E-03     42.6457E-03    -80.0763E-03     11.2308E-03
              84     14.7401E-03     123.406E-03    -15.1660E+06     8.12466E+06     57.5641E+06     251.557E+03     7.49518E-03     74.1592E-03    -81.6544E-03     8.87239E-03     7.31494E-03     74.1336E-03    -81.3564E-03     8.82923E-03
              85     13.9143E-03     123.029E-03    -23.6503E+06     -88.283E+03     56.0171E+06    -13.2132E+06    -30.6737E-03     111.318E-03    -80.6439E-03    -29.8869E-03    -30.8959E-03     111.229E-03    -80.3294E-03    -30.2053E-03
              86     13.1544E-03     122.682E-03    -12.7005E+06    -12.4590E+06     40.8563E+06    -15.1454E+06    -45.1811E-03     123.143E-03    -77.9620E-03    -60.2362E-03    -45.3281E-03     122.945E-03    -77.7212E-03    -60.6476E-03
              87     12.3722E-03     122.391E-03    -9.15178E+06    -13.3262E+06     38.7873E+06    -4.32891E+06    -53.3195E-03     128.598E-03    -75.2783E-03    -67.7339E-03    -53.4209E-03     128.404E-03    -75.0518E-03    -68.0326E-03
              88     11.5855E-03     122.142E-03    -8.61459E+06     4.82039E+06     54.0041E+06    -7.67068E+06    -61.5252E-03     134.384E-03    -72.8590E-03    -69.6114E-03    -61.6649E-03     134.262E-03    -72.5835E-03    -69.9627E-03
              89     10.7929E-03     121.931E-03    -192.414E+03    -6.00351E+06     58.3481E+06    -10.6007E+06    -68.1231E-03     138.570E-03    -70.4469E-03    -66.9292E-03    -68.2061E-03     138.388E-03    -70.1462E-03    -67.3047E-03
              90     9.99393E-03     121.749E-03     7.85250E+06    -6.94401E+06     63.5639E+06    -5.41786E+06    -71.7783E-03     139.817E-03    -68.0388E-03    -61.5418E-03    -71.8256E-03     139.623E-03    -67.7223E-03    -61.8280E-03
              91     9.18972E-03     121.594E-03     12.1205E+06    -346.577E+03     65.6464E+06    -3.91516E+06    -72.2335E-03     137.931E-03    -65.6973E-03    -53.7655E-03    -72.2729E-03     137.772E-03    -65.3861E-03    -54.0035E-03
              92     8.37754E-03     121.460E-03     15.9123E+06    -1.76459E+06     64.9232E+06    -4.15344E+06    -70.8575E-03     134.390E-03    -63.5321E-03    -45.3653E-03    -70.8750E-03     134.230E-03    -63.2280E-03    -45.5743E-03
              93     7.55838E-03     121.347E-03     17.6144E+06    -1.95201E+06     62.0384E+06    -1.86703E+06    -68.7571E-03     130.317E-03    -61.5599E-03    -37.8714E-03    -68.7622E-03     130.167E-03    -61.2724E-03    -38.0208E-03
              94     6.73323E-03     121.251E-03     17.9280E+06     529.242E+03     58.9311E+06    -2.16781E+06    -66.2025E-03     125.988E-03    -59.7851E-03    -31.3468E-03    -66.2054E-03     125.859E-03    -59.5172E-03    -31.4754E-03
              95     5.90282E-03     121.170E-03     18.7122E+06    -362.700E+03     56.3772E+06    -3.13764E+06    -63.4218E-03     121.653E-03    -58.2316E-03    -25.6105E-03    -63.4160E-03     121.527E-03    -57.9763E-03    -25.7311E-03
              96     5.06757E-03     121.102E-03     20.5019E+06    -171.195E+03     52.2669E+06    -4.16128E+06    -60.7281E-03     117.627E-03    -56.8989E-03    -20.7026E-03    -60.7078E-03     117.508E-03    -56.6670E-03    -20.8195E-03
              97     4.22852E-03     121.047E-03     23.0785E+06    -1.03793E+06     46.8397E+06    -4.05987E+06    -58.4142E-03     114.208E-03    -55.7934E-03    -16.4684E-03    -58.3717E-03     114.091E-03    -55.5911E-03    -16.5695E-03
              98     3.38608E-03     121.002E-03     26.2207E+06    -322.351E+03     41.8945E+06    -4.00213E+06    -56.4913E-03     111.406E-03    -54.9145E-03    -12.8049E-03    -56.4269E-03     111.297E-03    -54.7426E-03    -12.8932E-03
              99     2.54120E-03     120.968E-03     29.3403E+06    -1.36414E+06     39.2375E+06    -3.61489E+06    -55.0130E-03     109.291E-03    -54.2777E-03    -9.68781E-03    -54.9277E-03     109.177E-03    -54.1221E-03    -9.76132E-03
             100     1.69461E-03     120.944E-03     32.7872E+06    -957.989E+03     34.6547E+06    -3.42318E+06    -53.9195E-03     107.822E-03    -53.9027E-03    -6.83735E-03    -53.8111E-03     107.712E-03    -53.7755E-03    -6.89963E-03
             101     846.788E-06     120.929E-03     37.4169E+06    -2.55318E+06     34.6582E+06    -3.81439E+06    -53.3300E-03     107.501E-03    -54.1715E-03    -4.63677E-03    -53.1967E-03     107.377E-03    -54.0487E-03    -4.69709E-03
             102     374.279E-09     119.867E-03     30.4893E+06    -8.32119E+06     29.1633E+06    -2.95348E+06    -47.5338E-03     95.5779E-03    -48.0442E-03    -1.53013E-03    -47.4174E-03     95.4439E-03    -47.9305E-03    -1.57572E-03
             103    -103.577E-09     118.837E-03     12.1687E+06    -18.9566E+06     12.1903E+06    -1.46666E+06    -37.5370E-03     74.9045E-03    -37.3675E-03     1.14860E-03    -37.4692E-03     74.7716E-03    -37.2967E-03     1.12372E-03
             104     155.402E-09     117.825E-03    -6.78790E+06    -27.3408E+06    -5.80903E+06    -2.50261E+06    -30.3492E-03     60.6427E-03    -30.2935E-03     2.09107E-03    -30.3364E-03     60.5231E-03    -30.2731E-03     2.05430E-03
             105    -86.6561E-09     116.822E-03    -32.0360E+06    -36.7265E+06    -31.9245E+06    -3.08978E+06    -25.5863E-03     51.1552E-03    -25.5689E-03     3.18329E-03    -25.6475E-03     51.0639E-03    -25.6288E-03     3.14075E-03
             106     50.6945E-09     115.829E-03    -60.1141E+06    -47.1470E+06    -59.4693E+06    -2.92679E+06    -22.7939E-03     45.5972E-03    -22.8033E-03     4.09673E-03    -22.9400E-03     45.5349E-03    -22.9451E-03     4.05775E-03
             107    -29.9083E-09     114.838E-03    -90.9498E+06    -59.9146E+06    -89.9791E+06    -4.44976E+06    -21.6463E-03     43.2663E-03    -21.6200E-03     4.86668E-03    -21.8837E-03     43.2292E-03    -21.8512E-03     4.80899E-03
             108     55.9539E-09     113.849E-03    -120.488E+06    -72.1851E+06    -121.804E+06    -2.80112E+06    -21.8351E-03     43.6387E-03    -21.8036E-03     5.38182E-03    -22.1562E-03     43.6292E-03    -22.1332E-03     5.34609E-03
             109    -54.2584E-09     112.857E-03    -109.609E+06    -68.7371E+06    -111.999E+06     4.79042E+06    -23.4321E-03     46.7802E-03    -23.3481E-03     5.83329E-03    -23.7182E-03     46.7577E-03    -23.6495E-03     5.89604E-03
             110     158.915E-09     111.862E-03    -64.5590E+06    -45.2204E+06    -63.8642E+06     8.89219E+06    -26.1972E-03     52.3076E-03    -26.1104E-03     6.20797E-03    -26.3621E-03     52.2674E-03    -26.2705E-03     6.32376E-03
             111    -117.994E-09     110.859E-03    -33.0595E+06    -23.9096E+06    -30.7270E+06     4.10036E+06    -29.6384E-03     59.2347E-03    -29.5963E-03     6.61935E-03    -29.7249E-03     59.2072E-03    -29.6674E-03     6.67286E-03
             112     161.685E-09     109.849E-03    -17.1227E+06    -19.5467E+06    -16.4811E+06    -1.40091E+06    -33.3414E-03     66.5818E-03    -33.2404E-03     6.78730E-03    -33.3753E-03     66.5324E-03    -33.2697E-03     6.76877E-03
             113    -38.5310E-09     108.832E-03    -8.71977E+06    -26.1153E+06    -9.03558E+06    -2.23620E+06    -36.8588E-03     73.6154E-03    -36.7566E-03     6.79208E-03    -36.8519E-03     73.5102E-03    -36.7513E-03     6.76135E-03
             114     72.7471E-09     107.807E-03    -5.52610E+06    -33.2894E+06    -5.30226E+06    -2.34328E+06    -40.1379E-03     80.1919E-03    -40.0540E-03     6.67627E-03    -40.1100E-03     80.0410E-03    -40.0243E-03     6.64234E-03
             115     24.0072E-09     106.777E-03    -7.07353E+06    -42.3359E+06    -7.19595E+06    -2.66969E+06    -43.0921E-03     86.0864E-03    -42.9943E-03     6.58924E-03    -43.0561E-03     85.8954E-03    -42.9586E-03     6.54915E-03
             116     29.6654E-09     105.740E-03    -10.4190E+06    -52.5855E+06    -10.0461E+06    -3.32990E+06    -45.5931E-03     91.1267E-03    -45.5336E-03     6.54596E-03    -45.5548E-03     90.8936E-03    -45.4925E-03     6.49504E-03
             117     5.77284E-09     104.700E-03    -14.1731E+06    -65.1482E+06    -14.6275E+06    -3.47706E+06    -47.7072E-03     95.3276E-03    -47.6204E-03     6.32547E-03    -47.6627E-03     95.0439E-03    -47.5786E-03     6.27006E-03
             118     85.8485E-09     103.654E-03    -17.6146E+06    -75.3531E+06    -18.0399E+06    -2.26147E+06    -49.3541E-03     98.6446E-03    -49.2905E-03     6.18547E-03    -49.3071E-03     98.3198E-03    -49.2459E-03     6.14408E-03
             119    -89.7201E-09     102.608E-03    -22.5329E+06    -84.6487E+06    -22.1709E+06    -2.74453E+06    -50.6516E-03     101.281E-03    -50.6296E-03     6.16098E-03    -50.6098E-03     100.923E-03    -50.5850E-03     6.11156E-03
             120     118.723E-09     101.556E-03    -27.8195E+06    -95.6116E+06    -28.2192E+06    -3.14739E+06    -51.7088E-03     103.308E-03    -51.5995E-03     6.10295E-03    -51.6687E-03     102.912E-03    -51.5616E-03     6.04674E-03
             121     18.2435E-09     100.505E-03    -32.0543E+06    -106.438E+06    -32.0287E+06    -2.57222E+06    -52.4408E-03     104.740E-03    -52.2996E-03     6.01255E-03    -52.4007E-03     104.302E-03    -52.2589E-03     5.96290E-03
             122     70.2074E-09     99.4513E-03    -35.1483E+06    -115.454E+06    -35.3146E+06    -2.38994E+06    -52.9736E-03     105.847E-03    -52.8734E-03     5.82276E-03    -52.9311E-03     105.372E-03    -52.8316E-03     5.77398E-03
             123    -4.55558E-09     98.3982E-03    -40.8927E+06    -123.938E+06    -40.7958E+06    -2.23564E+06    -53.3131E-03     106.556E-03    -53.2432E-03     5.67001E-03    -53.2791E-03     106.056E-03    -53.2082E-03     5.62273E-03
             124     44.8249E-09     97.3424E-03    -47.0492E+06    -133.033E+06    -46.9667E+06    -2.66610E+06    -53.5980E-03     107.063E-03    -53.4654E-03     5.81233E-03    -53.5726E-03     106.535E-03    -53.4391E-03     5.75922E-03
             125     126.804E-09     96.2883E-03    -49.7293E+06    -142.065E+06    -50.1923E+06    -2.26002E+06    -53.7802E-03     107.389E-03    -53.6088E-03     5.66386E-03    -53.7504E-03     106.824E-03    -53.5816E-03     5.61537E-03
             126    -25.5762E-09     95.2323E-03    -52.3345E+06    -149.336E+06    -52.2362E+06    -1.54037E+06    -53.7850E-03     107.502E-03    -53.7167E-03     5.65994E-03    -53.7547E-03     106.907E-03    -53.6854E-03     5.62092E-03
             127     27.5684E-09     94.1777E-03    -54.1281E+06    -154.851E+06    -54.3127E+06    -1.68976E+06    -53.8911E-03     107.739E-03    -53.8475E-03     5.73443E-03    -53.8589E-03     107.122E-03    -53.8160E-03     5.69317E-03
             128     28.1094E-09     93.1212E-03    -54.7984E+06    -159.497E+06    -55.1357E+06    -557.574E+03    -54.0095E-03     107.883E-03    -53.8734E-03     5.80140E-03    -53.9726E-03     107.245E-03    -53.8383E-03     5.77510E-03
             129     129.418E-09     92.0661E-03    -55.0989E+06    -161.935E+06    -54.6538E+06    -799.985E+03    -53.9641E-03     107.870E-03    -53.9058E-03     5.80290E-03    -53.9258E-03     107.220E-03    -53.8644E-03     5.77353E-03
             130    -197.990E-09     91.0106E-03    -56.9001E+06    -166.431E+06    -57.2765E+06    -1.37700E+06    -53.9365E-03     107.875E-03    -53.9388E-03     5.65907E-03    -53.8970E-03     107.209E-03    -53.9014E-03     5.62171E-03
             131     244.098E-09     89.9546E-03    -55.4730E+06    -169.432E+06    -55.8208E+06    -400.618E+03    -53.9959E-03     107.854E-03    -53.8585E-03     5.70981E-03    -53.9470E-03     107.169E-03    -53.8115E-03     5.68516E-03
             132    -74.3660E-09     88.8995E-03    -54.1159E+06    -170.627E+06    -53.7387E+06    -168.116E+03    -54.0094E-03     107.830E-03    -53.8209E-03     5.75324E-03    -53.9550E-03     107.134E-03    -53.7638E-03     5.73172E-03
             133     215.172E-09     87.8437E-03    -54.1594E+06    -171.083E+06    -54.4430E+06    -297.110E+03    -53.9978E-03     107.859E-03    -53.8611E-03     5.66042E-03    -53.9419E-03     107.162E-03    -53.8067E-03     5.63713E-03
             134    -140.509E-09     86.7886E-03    -54.0728E+06    -171.320E+06    -53.9934E+06     202.765E+03    -53.9342E-03     107.828E-03    -53.8937E-03     5.59734E-03    -53.8782E-03     107.129E-03    -53.8368E-03     5.58055E-03
             135     121.589E-09     85.7326E-03    -53.4899E+06    -171.175E+06    -53.5041E+06    -98.0487E+03    -53.9184E-03     107.796E-03    -53.8772E-03     5.75942E-03    -53.8604E-03     107.095E-03    -53.8190E-03     5.73901E-03
             136    -47.7242E-09     84.6774E-03    -53.6338E+06    -171.484E+06    -53.7721E+06    -45.3143E+03    -53.9305E-03     107.806E-03    -53.8751E-03     5.80342E-03    -53.8724E-03     107.104E-03    -53.8175E-03     5.78328E-03
             137     51.4990E-09     83.6219E-03    -53.5262E+06    -171.438E+06    -53.5206E+06     95.4923E+03    -53.9184E-03     107.753E-03    -53.8349E-03     5.73582E-03    -53.8602E-03     107.052E-03    -53.7763E-03     5.71777E-03
             138     72.2471E-09     82.5663E-03    -53.2786E+06    -171.512E+06    -53.2027E+06    -124.890E+03    -53.8756E-03     107.682E-03    -53.8068E-03     5.75239E-03    -53.8166E-03     106.980E-03    -53.7469E-03     5.73129E-03
             139    -92.7242E-09     81.5117E-03    -53.4219E+06    -171.903E+06    -53.5718E+06     28.3067E+03    -53.8755E-03     107.688E-03    -53.8126E-03     5.75583E-03    -53.8160E-03     106.984E-03    -53.7537E-03     5.73657E-03
             140     203.844E-09     80.4551E-03    -52.7059E+06    -171.084E+06    -52.5554E+06     260.561E+03    -53.9544E-03     107.758E-03    -53.8033E-03     5.81393E-03    -53.8941E-03     107.055E-03    -53.7415E-03     5.79822E-03
             141    -70.7920E-09     79.4012E-03    -52.1643E+06    -170.784E+06    -52.1471E+06     24.5196E+03    -53.9449E-03     107.805E-03    -53.8598E-03     5.74522E-03    -53.8829E-03     107.103E-03    -53.7972E-03     5.72595E-03
             142     68.2359E-09     78.3440E-03    -51.7734E+06    -170.387E+06    -51.8122E+06    -10.5663E+03    -53.9081E-03     107.719E-03    -53.8110E-03     5.64264E-03    -53.8451E-03     107.018E-03    -53.7479E-03     5.62301E-03
             143     85.0602E-09     77.2907E-03    -51.9193E+06    -170.575E+06    -52.0963E+06     157.103E+03    -53.8546E-03     107.652E-03    -53.7969E-03     5.78915E-03    -53.7917E-03     106.950E-03    -53.7348E-03     5.77234E-03
             144    -157.220E-09     76.2332E-03    -50.6623E+06    -169.281E+06    -50.7392E+06     439.055E+03    -53.8728E-03     107.707E-03    -53.8337E-03     5.73024E-03    -53.8074E-03     107.008E-03    -53.7685E-03     5.71716E-03
             145     280.231E-09     75.1800E-03    -50.9707E+06    -169.312E+06    -50.6795E+06     23.9182E+03    -53.9126E-03     107.697E-03    -53.7840E-03     5.73538E-03    -53.8488E-03     106.998E-03    -53.7180E-03     5.71678E-03
             146    -195.655E-09     74.1223E-03    -50.3025E+06    -168.937E+06    -50.6808E+06     101.403E+03    -53.8660E-03     107.667E-03    -53.8014E-03     5.69458E-03    -53.7994E-03     106.970E-03    -53.7369E-03     5.67621E-03
             147     202.315E-09     73.0697E-03    -50.4120E+06    -168.637E+06    -50.0035E+06    -94.2203E+03    -53.9102E-03     107.724E-03    -53.8139E-03     5.62057E-03    -53.8457E-03     107.027E-03    -53.7463E-03     5.59946E-03
             148    -54.5156E-09     72.0114E-03    -49.5334E+06    -168.181E+06    -49.8662E+06     131.188E+03    -53.9646E-03     107.763E-03    -53.7989E-03     5.79096E-03    -53.8965E-03     107.067E-03    -53.7325E-03     5.77368E-03
             149     170.436E-09     70.9585E-03    -49.1912E+06    -167.428E+06    -48.9369E+06     373.058E+03    -53.8965E-03     107.644E-03    -53.7478E-03     5.73765E-03    -53.8291E-03     106.950E-03    -53.6783E-03     5.72330E-03
             150    -44.7689E-09     69.9012E-03    -48.9814E+06    -167.194E+06    -48.9889E+06    -52.1017E+03    -53.8629E-03     107.634E-03    -53.7711E-03     5.79219E-03    -53.7947E-03     106.941E-03    -53.7026E-03     5.77219E-03
             151     60.3507E-09     68.8478E-03    -48.5139E+06    -166.739E+06    -48.5890E+06     58.1458E+03    -53.9243E-03     107.793E-03    -53.8692E-03     5.67340E-03    -53.8550E-03     107.101E-03    -53.8000E-03     5.65458E-03
             152     2.72005E-09     67.7905E-03    -48.5652E+06    -166.830E+06    -48.7986E+06     8.70016E+03    -53.9288E-03     107.841E-03    -53.9118E-03     5.68978E-03    -53.8594E-03     107.148E-03    -53.8434E-03     5.67050E-03
             153    -53.9579E-09     66.7364E-03    -48.7068E+06    -166.718E+06    -48.4556E+06     127.169E+03    -53.9559E-03     107.839E-03    -53.8836E-03     5.86779E-03    -53.8878E-03     107.147E-03    -53.8135E-03     5.85068E-03
             154     215.747E-09     65.6792E-03    -48.8708E+06    -166.972E+06    -48.8644E+06     16.2435E+03    -53.9718E-03     107.766E-03    -53.7942E-03     5.82063E-03    -53.9035E-03     107.073E-03    -53.7255E-03     5.80170E-03
             155    -89.9111E-09     64.6259E-03    -48.4200E+06    -166.464E+06    -48.3919E+06    -122.990E+03    -53.9251E-03     107.769E-03    -53.8439E-03     5.51093E-03    -53.8560E-03     107.078E-03    -53.7742E-03     5.48902E-03
             156     89.1258E-09     63.5691E-03    -48.8023E+06    -166.857E+06    -48.8582E+06    -229.317E+03    -53.9570E-03     107.889E-03    -53.9320E-03     5.57428E-03    -53.8886E-03     107.197E-03    -53.8636E-03     5.55156E-03
             157    -60.3294E-09     62.5136E-03    -48.8805E+06    -166.911E+06    -48.9612E+06     106.291E+03    -53.9495E-03     107.825E-03    -53.8758E-03     5.79575E-03    -53.8813E-03     107.133E-03    -53.8077E-03     5.77810E-03
             158     141.183E-09     61.4584E-03    -49.8345E+06    -167.786E+06    -49.7098E+06    -76.4268E+03    -53.9055E-03     107.706E-03    -53.8006E-03     5.80510E-03    -53.8397E-03     107.012E-03    -53.7336E-03     5.78511E-03
             159     156.599E-09     59.3479E-03    -49.1175E+06    -166.640E+06    -48.5843E+06    -221.640E+03    -53.9156E-03     107.709E-03    -53.7934E-03     5.50313E-03    -53.8495E-03     107.018E-03    -53.7235E-03     5.48042E-03
             160    -55.5953E-09     58.2922E-03    -49.5119E+06    -167.576E+06    -49.8359E+06    -232.638E+03    -53.8769E-03     107.696E-03    -53.8188E-03     5.66148E-03    -53.8095E-03     107.002E-03    -53.7532E-03     5.63953E-03
             161     35.4802E-09     57.2369E-03    -49.5477E+06    -167.605E+06    -49.5585E+06     24.9436E+03    -53.8907E-03     107.752E-03    -53.8617E-03     5.62655E-03    -53.8240E-03     107.059E-03    -53.7946E-03     5.60734E-03
             162     19.7886E-09     56.1815E-03    -49.1775E+06    -167.255E+06    -49.2020E+06     183.749E+03    -53.9251E-03     107.759E-03    -53.8339E-03     5.76573E-03    -53.8576E-03     107.066E-03    -53.7661E-03     5.74909E-03
             163     65.2279E-09     55.1256E-03    -48.7565E+06    -166.722E+06    -48.7318E+06    -153.641E+03    -53.8924E-03     107.748E-03    -53.8554E-03     5.68891E-03    -53.8242E-03     107.056E-03    -53.7866E-03     5.66756E-03
             164    -101.491E-09     54.0712E-03    -49.0421E+06    -167.148E+06    -49.3393E+06     145.563E+03    -53.8600E-03     107.712E-03    -53.8520E-03     5.59081E-03    -53.7917E-03     107.019E-03    -53.7852E-03     5.57330E-03
             165     134.072E-09     53.0145E-03    -48.9982E+06    -166.797E+06    -48.6356E+06    -185.062E+03    -53.9421E-03     107.801E-03    -53.8585E-03     5.76843E-03    -53.8750E-03     107.109E-03    -53.7888E-03     5.74696E-03
             166    -35.1676E-09     51.9603E-03    -49.5909E+06    -167.838E+06    -50.1705E+06    -50.5966E+03    -53.8835E-03     107.693E-03    -53.8094E-03     5.73678E-03    -53.8157E-03     106.999E-03    -53.7450E-03     5.71669E-03
             167     41.3720E-09     50.9035E-03    -49.6900E+06    -167.483E+06    -49.4004E+06     339.405E+03    -53.7527E-03     107.501E-03    -53.7482E-03     5.78505E-03    -53.6870E-03     106.808E-03    -53.6803E-03     5.77060E-03
             168    -51.9773E-09     49.8504E-03    -49.4795E+06    -167.478E+06    -49.5964E+06    -299.166E+03    -53.7596E-03     107.522E-03    -53.7625E-03     5.65958E-03    -53.6927E-03     106.829E-03    -53.6959E-03     5.63664E-03
             169     42.0009E-09     48.7931E-03    -49.8702E+06    -167.921E+06    -49.9292E+06     146.860E+03    -53.8141E-03     107.541E-03    -53.7266E-03     5.67700E-03    -53.7479E-03     106.846E-03    -53.6604E-03     5.65961E-03
             170     101.887E-09     47.7398E-03    -49.3811E+06    -167.404E+06    -49.3543E+06     23.3749E+03    -53.7556E-03     107.439E-03    -53.6838E-03     5.58850E-03    -53.6885E-03     106.746E-03    -53.6162E-03     5.56926E-03
             171    -137.098E-09     46.6834E-03    -49.0542E+06    -167.035E+06    -48.9190E+06     62.5740E+03    -53.7012E-03     107.393E-03    -53.6916E-03     5.72185E-03    -53.6337E-03     106.700E-03    -53.6228E-03     5.70345E-03
             172     175.431E-09     45.6290E-03    -49.3449E+06    -167.302E+06    -49.3978E+06    -174.496E+03    -53.6840E-03     107.299E-03    -53.6154E-03     5.83552E-03    -53.6169E-03     106.607E-03    -53.5482E-03     5.81471E-03
             173    -112.733E-09     44.5737E-03    -50.0223E+06    -167.883E+06    -50.2108E+06     156.092E+03    -53.6284E-03     107.152E-03    -53.5240E-03     5.75659E-03    -53.5626E-03     106.459E-03    -53.4591E-03     5.73968E-03
             174     210.917E-09     43.5197E-03    -50.1527E+06    -167.820E+06    -49.7960E+06    -267.145E+03    -53.5719E-03     107.050E-03    -53.4785E-03     5.52745E-03    -53.5075E-03     106.357E-03    -53.4114E-03     5.50460E-03
             175    -159.709E-09     42.4646E-03    -50.2688E+06    -168.493E+06    -50.8523E+06     184.947E+03    -53.4015E-03     106.797E-03    -53.3958E-03     5.60562E-03    -53.3351E-03     106.102E-03    -53.3328E-03     5.58928E-03
             176     97.5199E-09     41.4103E-03    -49.1588E+06    -166.968E+06    -48.8442E+06     512.521E+03    -53.3152E-03     106.573E-03    -53.2580E-03     5.71172E-03    -53.2484E-03     105.881E-03    -53.1888E-03     5.69976E-03
             177     50.9989E-09     40.3565E-03    -48.8934E+06    -166.660E+06    -48.7003E+06    -177.553E+03    -53.2853E-03     106.388E-03    -53.1026E-03     5.61110E-03    -53.2178E-03     105.697E-03    -53.0336E-03     5.59014E-03
             178     100.146E-09     39.3024E-03    -49.6077E+06    -167.336E+06    -49.5736E+06    -172.111E+03    -53.1381E-03     106.154E-03    -53.0155E-03     5.61581E-03    -53.0720E-03     105.461E-03    -52.9488E-03     5.59530E-03
             179    -55.8496E-09     38.2490E-03    -49.6415E+06    -167.411E+06    -49.8510E+06     203.651E+03    -52.9245E-03     105.783E-03    -52.8582E-03     5.43153E-03    -52.8580E-03     105.090E-03    -52.7927E-03     5.41556E-03
             180     109.079E-09     37.1960E-03    -49.0146E+06    -166.567E+06    -48.9478E+06     27.8945E+03    -52.7250E-03     105.419E-03    -52.6942E-03     5.38006E-03    -52.6579E-03     104.729E-03    -52.6263E-03     5.36187E-03
             181    -121.987E-09     36.1432E-03    -48.6503E+06    -166.361E+06    -48.8758E+06    -165.619E+03    -52.5299E-03     105.038E-03    -52.5080E-03     5.20995E-03    -52.4614E-03     104.348E-03    -52.4406E-03     5.18913E-03
             182     157.535E-09     35.0908E-03    -49.0577E+06    -166.468E+06    -48.9286E+06     205.470E+03    -52.3284E-03     104.577E-03    -52.2481E-03     5.36312E-03    -52.2617E-03     103.887E-03    -52.1803E-03     5.34806E-03
             183    -67.5321E-09     34.0387E-03    -48.6847E+06    -166.049E+06    -48.7288E+06    -138.752E+03    -52.0761E-03     104.096E-03    -52.0204E-03     5.43489E-03    -52.0084E-03     103.408E-03    -51.9527E-03     5.41586E-03
             184     58.8884E-09     32.9877E-03    -49.3971E+06    -166.845E+06    -49.8006E+06     202.894E+03    -51.7138E-03     103.390E-03    -51.6766E-03     5.15836E-03    -51.6470E-03     102.701E-03    -51.6121E-03     5.14377E-03
             185    -3.04210E-09     31.9375E-03    -49.0512E+06    -165.916E+06    -48.6773E+06     248.992E+03    -51.4227E-03     102.773E-03    -51.3505E-03     5.07712E-03    -51.3571E-03     102.086E-03    -51.2822E-03     5.06332E-03
             186     63.2108E-09     30.8876E-03    -48.4666E+06    -165.425E+06    -48.6977E+06    -21.0168E+03    -51.0822E-03     102.125E-03    -51.0428E-03     5.04264E-03    -51.0144E-03     101.439E-03    -50.9762E-03     5.02562E-03
             187    -70.0327E-09     29.8380E-03    -48.6484E+06    -165.146E+06    -48.5977E+06     310.276E+03    -50.6243E-03     101.160E-03    -50.5361E-03     5.07424E-03    -50.5579E-03     100.476E-03    -50.4691E-03     5.06247E-03
             188     216.712E-09     28.7907E-03    -48.9755E+06    -165.192E+06    -48.9023E+06    -103.536E+03    -50.1469E-03     100.175E-03    -50.0286E-03     4.88017E-03    -50.0816E-03     99.4918E-03    -49.9625E-03     4.86316E-03
             189    -170.811E-09     27.7437E-03    -49.2551E+06    -165.335E+06    -49.4259E+06     101.728E+03    -49.6799E-03     99.2880E-03    -49.6081E-03     4.62957E-03    -49.6150E-03     98.6048E-03    -49.5441E-03     4.61540E-03
             190     236.336E-09     26.6977E-03    -49.5989E+06    -164.977E+06    -49.2700E+06    -88.8291E+03    -49.2159E-03     98.2689E-03    -49.0530E-03     4.47748E-03    -49.1535E-03     97.5877E-03    -48.9882E-03     4.46099E-03
             191    -27.9188E-09     25.6527E-03    -49.7180E+06    -164.967E+06     -49.696E+06     113.844E+03    -48.6446E-03     97.0741E-03    -48.4295E-03     4.48458E-03    -48.5821E-03     96.3938E-03    -48.3667E-03     4.47140E-03
             192     179.633E-09     24.6093E-03    -48.7951E+06    -163.752E+06    -48.6495E+06     276.112E+03    -48.0500E-03     95.9467E-03    -47.8967E-03     4.40857E-03    -47.9863E-03     95.2696E-03    -47.8317E-03     4.39801E-03
             193    -75.2260E-09     23.5669E-03    -48.5712E+06    -162.955E+06    -48.7006E+06     191.821E+03    -47.4025E-03     94.7211E-03    -47.3185E-03     4.05267E-03    -47.3387E-03     94.0477E-03    -47.2553E-03     4.04141E-03
             194     106.356E-09     22.5262E-03    -48.9437E+06    -162.285E+06    -48.8675E+06     161.446E+03    -46.7526E-03     93.4344E-03    -46.6818E-03     3.99181E-03    -46.6913E-03     92.7651E-03    -46.6199E-03     3.98099E-03
             195    -22.0380E-09     21.4858E-03    -48.5786E+06    -161.342E+06    -48.6909E+06     140.397E+03    -46.1347E-03     92.1056E-03    -45.9709E-03     3.81196E-03    -46.0732E-03     91.4403E-03    -45.9100E-03     3.80109E-03
             196     211.661E-09     20.4485E-03    -48.5490E+06    -160.521E+06    -48.4465E+06     457.511E+03    -45.4080E-03     90.6543E-03    -45.2463E-03     3.60228E-03    -45.3479E-03     89.9927E-03    -45.1854E-03     3.59621E-03
             197    -127.771E-09     19.4109E-03    -46.7207E+06    -157.899E+06    -46.8945E+06     615.334E+03    -44.6530E-03     89.1955E-03    -44.5425E-03     3.27007E-03    -44.5898E-03     88.5421E-03    -44.4803E-03     3.26674E-03
             198     227.552E-09     18.3769E-03    -46.3065E+06    -155.908E+06    -46.1593E+06     609.300E+03    -43.7631E-03     87.4234E-03    -43.6603E-03     2.99013E-03    -43.7018E-03     86.7782E-03    -43.5978E-03     2.98755E-03
             199    -152.031E-09     17.3423E-03    -45.3282E+06    -153.733E+06    -45.4535E+06     509.198E+03    -42.7407E-03     85.2997E-03    -42.5591E-03     2.76784E-03    -42.6786E-03     84.6630E-03    -42.4977E-03     2.76506E-03
             200     385.432E-09     16.3133E-03    -44.0620E+06    -151.261E+06    -44.3482E+06     943.514E+03    -41.4950E-03     82.7482E-03    -41.2532E-03     2.30314E-03    -41.4318E-03     82.1203E-03    -41.1918E-03     2.30665E-03
             201    -206.036E-09     15.2836E-03    -43.0904E+06    -147.859E+06    -42.9547E+06     983.149E+03    -39.8592E-03     79.5746E-03    -39.7154E-03     1.95206E-03    -39.7981E-03     78.9602E-03    -39.6533E-03     1.95729E-03
             202     276.118E-09     14.2613E-03    -41.2388E+06    -144.135E+06    -41.5892E+06     1.01226E+06    -37.9156E-03     75.7600E-03    -37.8444E-03     1.39258E-03    -37.8527E-03     75.1594E-03    -37.7835E-03     1.39929E-03
             203    -225.797E-09     13.2395E-03    -39.4632E+06    -140.409E+06    -39.5242E+06     1.20309E+06    -35.7214E-03     71.3496E-03    -35.6282E-03     957.721E-06    -35.6580E-03     70.7621E-03    -35.5650E-03     967.836E-06
             204     338.533E-09     12.2259E-03    -37.2342E+06    -136.318E+06    -37.1275E+06     1.05201E+06    -33.4486E-03     66.7356E-03    -33.2870E-03     710.443E-06    -33.3835E-03     66.1618E-03    -33.2210E-03     719.304E-06
             205    -166.566E-09     11.2137E-03    -35.6474E+06    -133.240E+06    -35.5832E+06     819.592E+03    -31.2655E-03     62.4251E-03    -31.1596E-03     678.197E-06    -31.1991E-03     61.8621E-03    -31.0926E-03     684.513E-06
             206     181.394E-09     10.2086E-03    -34.6271E+06    -130.743E+06    -34.4165E+06     643.537E+03    -29.5879E-03     59.1477E-03    -29.5597E-03     831.028E-06    -29.5217E-03     58.5942E-03    -29.4920E-03     835.241E-06
             207    -144.091E-09     9.20324E-03    -34.4248E+06    -129.599E+06    -34.1398E+06    -15.8446E+03    -28.7258E-03     57.4087E-03    -28.6829E-03     1.11667E-03    -28.6605E-03     56.8603E-03    -28.6158E-03     1.11241E-03
             208     184.575E-09     8.20108E-03    -34.4393E+06    -129.787E+06    -34.0299E+06    -285.276E+03    -28.8750E-03     57.6934E-03    -28.8185E-03     1.65022E-03    -28.8097E-03     57.1439E-03    -28.7505E-03     1.64287E-03
             209    -122.347E-09     7.19573E-03    -35.3349E+06    -132.257E+06    -35.0233E+06    -926.240E+03    -30.1505E-03     60.3395E-03    -30.1890E-03     2.15405E-03    -30.0848E-03     59.7803E-03    -30.1211E-03     2.13865E-03
             210    -4.04316E-09     6.18776E-03    -36.0054E+06    -135.457E+06    -36.0372E+06    -740.254E+03    -32.5466E-03     65.1256E-03    -32.5791E-03     2.57757E-03    -32.4783E-03     64.5526E-03    -32.5106E-03     2.56506E-03
             211     73.5803E-09     5.17298E-03    -35.8915E+06    -138.199E+06    -35.5907E+06    -626.707E+03    -35.7857E-03     71.4767E-03    -35.6910E-03     2.74023E-03    -35.7136E-03     70.8890E-03    -35.6166E-03     2.72932E-03
             212     26.0089E-09     4.15214E-03    -34.0272E+06    -140.029E+06    -34.0318E+06    -500.216E+03    -39.3571E-03     78.6546E-03    -39.2975E-03     2.70914E-03    -39.2754E-03     78.0528E-03    -39.2153E-03     2.69985E-03
             213    -19.8399E-09     3.12274E-03    -32.0314E+06    -141.817E+06    -32.1126E+06    -395.463E+03    -42.9603E-03     85.9040E-03    -42.9437E-03     2.56615E-03    -42.8687E-03     85.2876E-03    -42.8522E-03     2.55834E-03
             214     43.3015E-09     2.08641E-03    -29.6292E+06    -142.632E+06    -30.0877E+06    -180.673E+03    -46.0415E-03     92.0469E-03    -46.0054E-03     1.96142E-03    -45.9393E-03     91.4202E-03    -45.9061E-03     1.95718E-03
             215    -9.09528E-09     1.04501E-03    -28.2411E+06    -142.909E+06    -28.4055E+06     111.638E+03    -48.1267E-03     96.1789E-03    -48.0522E-03     997.542E-06    -48.0194E-03     95.5465E-03    -47.9461E-03     997.931E-06
             216     856.810E-06    -228.983E-18    -27.6637E+06    -142.838E+06    -27.4770E+06     142.169E+03    -48.9218E-03     97.7596E-03    -48.8378E-03     814.424E-06    -48.8131E-03     97.1255E-03    -48.7280E-03     814.818E-06
             217     1.71376E-03    -228.983E-18    -27.5778E+06    -143.045E+06    -27.8550E+06    -164.523E+03    -49.0810E-03     97.9999E-03    -48.9189E-03     1.71468E-03    -48.9711E-03     97.3650E-03    -48.8108E-03     1.71060E-03
             218     2.56991E-03    -228.983E-18    -27.0442E+06    -143.017E+06    -28.1620E+06    -559.107E+03    -49.3252E-03     98.3337E-03    -49.0085E-03     2.46407E-03    -49.2123E-03     97.6987E-03    -48.9027E-03     2.45359E-03
             219     3.42680E-03    -228.983E-18    -26.3792E+06    -142.796E+06    -28.3351E+06    -819.366E+03    -49.6474E-03     98.7697E-03    -49.1223E-03     3.19638E-03    -49.5312E-03     98.1350E-03    -49.0187E-03     3.18113E-03
             220     4.28232E-03    -228.983E-18    -25.4876E+06    -142.811E+06    -29.4700E+06    -1.06077E+06    -50.1438E-03     99.4089E-03    -49.2651E-03     4.10045E-03    -50.0215E-03     98.7746E-03    -49.1684E-03     4.08079E-03
             221     5.13812E-03    -228.983E-18    -24.1819E+06    -143.357E+06    -32.8901E+06    -1.92527E+06    -50.8211E-03     100.264E-03    -49.4428E-03     4.97482E-03    -50.6866E-03     99.6300E-03    -49.3643E-03     4.94209E-03
             222     5.99287E-03    -228.983E-18    -21.5188E+06    -143.790E+06    -38.8049E+06    -3.63071E+06    -51.6562E-03     101.312E-03    -49.6555E-03     5.94101E-03    -51.4993E-03     100.680E-03    -49.6098E-03     5.88416E-03
             223     6.84669E-03    -228.983E-18    -17.1167E+06    -138.782E+06    -46.2315E+06    -5.47454E+06    -52.6092E-03     102.507E-03    -49.8978E-03     6.76959E-03    -52.4269E-03     101.905E-03    -49.9029E-03     6.68553E-03
             224     7.70074E-03    -228.983E-18    -11.8847E+06    -124.682E+06    -53.1856E+06    -6.08623E+06    -53.9342E-03     104.121E-03    -50.1863E-03     8.19209E-03    -53.7363E-03     103.592E-03    -50.2542E-03     8.09769E-03
             225     8.55085E-03    -228.983E-18    -6.47986E+06    -103.482E+06    -57.0003E+06    -6.38677E+06    -55.5086E-03     106.062E-03    -50.5536E-03     9.70632E-03    -55.3090E-03     105.638E-03    -50.6792E-03     9.60307E-03
             226     9.40284E-03    -228.983E-18    -868.571E+03    -75.9622E+06    -57.0160E+06    -6.89786E+06    -57.2228E-03     108.226E-03    -51.0031E-03     10.7995E-03    -57.0354E-03     107.931E-03    -51.1767E-03     10.6822E-03
             227     10.2506E-03    -228.983E-18     3.42819E+06    -39.4152E+06    -51.0494E+06    -5.08617E+06    -59.6442E-03     111.206E-03    -51.5614E-03     13.9867E-03    -59.4979E-03     111.079E-03    -51.7645E-03     13.8819E-03
             228     11.0949E-03    -228.983E-18     3.85498E+06     3.11778E+06    -38.1765E+06    -367.043E+03    -62.5912E-03     114.862E-03    -52.2708E-03     16.2192E-03    -62.5237E-03     114.930E-03    -52.4718E-03     16.1645E-03
             229     11.9415E-03    -228.983E-18     1.12629E+06     37.3445E+06    -18.2611E+06     1.92380E+06    -66.6842E-03     119.870E-03    -53.1860E-03     21.4701E-03    -66.7113E-03     120.086E-03    -53.3331E-03     21.4262E-03
             230     12.7717E-03    -228.983E-18    -1.14674E+06     59.0086E+06     10.9255E+06     394.262E+03    -71.8536E-03     126.216E-03    -54.3626E-03     26.9100E-03    -71.9690E-03     126.506E-03    -54.3918E-03     26.8088E-03
             231     13.6139E-03    -228.983E-18     97.8271E+03      74.875E+06     44.9004E+06     589.714E+03    -80.2263E-03     136.079E-03    -55.8532E-03     37.2447E-03    -80.4179E-03     136.407E-03    -55.7374E-03     37.0781E-03
             232     14.4237E-03    -228.983E-18     550.880E+03     86.6864E+06     72.3361E+06     1.33015E+06    -93.7339E-03     151.531E-03    -57.7975E-03     63.9476E-03    -94.0039E-03     151.894E-03    -57.5623E-03     63.7028E-03
             233     15.2200E-03    -228.983E-18    -904.651E+03      92.438E+06     84.5488E+06     3.09200E+06    -108.843E-03     169.119E-03    -60.2762E-03     97.5397E-03    -109.231E-03     169.581E-03    -59.9862E-03     96.9873E-03
             234     16.0116E-03    -228.983E-18     7.98996E+06     103.721E+06     94.4085E+06     4.69290E+06    -122.125E-03     185.385E-03    -63.2602E-03     139.257E-03    -123.091E-03     186.446E-03    -62.9502E-03     137.350E-03
             235     16.9289E-03     1.16560E-03     1.17159E+06     111.103E+06     88.5205E+06     5.19494E+06    -134.194E-03     195.785E-03    -61.5910E-03     158.017E-03    -136.165E-03     197.907E-03    -61.3112E-03     154.302E-03
             236     16.9725E-03     2.36715E-03    -9.09045E+06     111.320E+06     76.9818E+06     8.80489E+06    -147.627E-03     204.518E-03    -56.8915E-03     125.138E-03    -149.843E-03     206.907E-03    -56.6549E-03     120.566E-03
             237     17.0127E-03     3.53780E-03    -2.29865E+06     118.713E+06     82.4285E+06     8.78627E+06    -140.998E-03     195.979E-03    -54.9805E-03     100.018E-03    -143.131E-03     198.280E-03    -54.7371E-03     95.8607E-03
             238     17.0272E-03     4.66272E-03    -1.73664E+06     123.759E+06     86.8170E+06     3.69456E+06    -127.616E-03     181.689E-03    -54.0726E-03     84.9664E-03    -129.699E-03     183.951E-03    -53.8154E-03     81.5426E-03
             239     17.0391E-03     5.80335E-03    -1.53602E+06     126.153E+06     90.3321E+06    -216.157E+03    -122.792E-03     176.379E-03    -53.5861E-03     63.9110E-03    -124.615E-03     178.380E-03    -53.3152E-03     60.9984E-03
             240     17.0408E-03     6.92298E-03    -1.85322E+06     126.063E+06     91.3565E+06    -1.25973E+06    -115.194E-03     168.701E-03    -53.5067E-03     55.7579E-03    -116.925E-03     170.607E-03    -53.2301E-03     53.3839E-03
             241     17.0430E-03     8.04436E-03    -3.68815E+06     124.289E+06     90.2579E+06    -1.00072E+06    -111.285E-03     164.824E-03    -53.5390E-03     52.2132E-03    -112.973E-03     166.679E-03    -53.2626E-03     50.1552E-03
             242     17.0410E-03     9.16399E-03    -3.05801E+06     124.446E+06     90.5624E+06     171.234E+03    -105.107E-03     158.817E-03    -53.7104E-03     50.4851E-03    -106.751E-03     160.631E-03    -53.4336E-03     48.8654E-03
             243     17.0414E-03     10.2712E-03    -450.686E+03     125.283E+06     91.2525E+06     1.57110E+06    -93.4266E-03     147.392E-03    -53.9659E-03     42.8094E-03    -94.9290E-03     149.071E-03    -53.6906E-03     41.8832E-03
             244     17.0444E-03     11.3448E-03    -215.325E+03     126.586E+06     91.8549E+06     844.740E+03    -88.3324E-03     142.319E-03    -53.9865E-03     46.7837E-03    -89.8769E-03     144.048E-03    -53.7104E-03     46.1710E-03
             245     17.0451E-03     12.4702E-03    -2.03395E+06     126.912E+06     91.0665E+06     993.095E+03    -85.1416E-03     139.112E-03    -53.9699E-03     50.9924E-03    -86.8072E-03     140.960E-03    -53.6956E-03     50.6132E-03
             246     17.0469E-03     13.5404E-03    -3.82533E+06     126.491E+06     89.8720E+06     29.7488E+03    -80.4594E-03     134.454E-03    -53.9945E-03     54.2084E-03    -82.2260E-03     136.396E-03    -53.7230E-03     54.1817E-03
             247     17.0484E-03     14.6236E-03    -3.25751E+06     127.462E+06     91.0829E+06     1.56360E+06    -79.1612E-03     133.064E-03    -53.9028E-03     57.1229E-03    -80.9641E-03     135.050E-03    -53.6275E-03     57.2580E-03
             248     17.0521E-03     15.7358E-03    -705.138E+03     132.174E+06     94.4462E+06     1.71091E+06    -70.5376E-03     124.541E-03    -54.0035E-03     65.3078E-03    -72.5833E-03     126.783E-03    -53.7219E-03     66.0506E-03
             249     17.0517E-03     16.7762E-03    -1.37543E+06     133.289E+06     94.4952E+06     454.989E+03    -67.6941E-03     121.684E-03    -53.9902E-03     69.8841E-03    -69.8510E-03     124.036E-03    -53.7090E-03     70.8897E-03
             250     17.0547E-03     17.8663E-03    -1.76110E+06     132.199E+06     93.6059E+06     255.429E+03    -68.6506E-03     122.485E-03    -53.8340E-03     59.3763E-03    -70.6013E-03     124.627E-03    -53.5551E-03     60.2546E-03
             251     17.0574E-03     18.9248E-03    -3.22914E+06     132.032E+06     93.2253E+06    -1.49021E+06    -69.9852E-03     123.733E-03    -53.7474E-03     60.0648E-03    -71.9794E-03     125.914E-03    -53.4680E-03     60.9863E-03
             252     17.0524E-03     20.0099E-03    -4.89331E+06     131.628E+06     92.9984E+06     1.86562E+06    -70.7129E-03     124.440E-03    -53.7266E-03     61.1728E-03    -72.7332E-03     126.643E-03    -53.4454E-03     62.1225E-03
             253     17.0599E-03     21.0922E-03    -815.516E+03     135.460E+06     95.9824E+06     2.30320E+06    -62.2316E-03     116.084E-03    -53.8527E-03     71.5640E-03    -64.4710E-03     118.525E-03    -53.5680E-03     73.0361E-03
             254     17.0565E-03     22.1462E-03    -708.367E+03     136.807E+06     96.2452E+06     76.2706E+03    -59.0640E-03     112.920E-03    -53.8558E-03     74.4921E-03    -61.4257E-03     115.486E-03    -53.5719E-03     76.2441E-03
             255     17.0609E-03     23.2090E-03    -2.83589E+06     136.450E+06     95.7437E+06    -1.02586E+06    -63.0233E-03     116.754E-03    -53.7306E-03     70.5254E-03    -65.3355E-03     119.263E-03    -53.4456E-03     72.0814E-03
             256     17.0569E-03     24.2817E-03    -4.18519E+06     136.081E+06     95.4237E+06    -366.292E+03    -63.2007E-03     116.912E-03    -53.7113E-03     71.0950E-03    -65.5243E-03     119.428E-03    -53.4255E-03     72.6769E-03
             257     17.0616E-03     25.3500E-03    -2.14027E+06     137.892E+06     97.0662E+06     1.42894E+06    -59.7281E-03     113.507E-03    -53.7790E-03     75.3136E-03    -62.1313E-03     116.112E-03    -53.4905E-03     77.1537E-03
             258     17.0580E-03     26.4081E-03    -1.08280E+06     138.663E+06     97.3826E+06     796.154E+03    -57.5728E-03     111.371E-03    -53.7984E-03     74.4421E-03    -59.9651E-03     113.970E-03    -53.5110E-03     76.3952E-03
             259     17.0627E-03     27.4679E-03    -3.03563E+06     137.870E+06     96.1561E+06    -339.050E+03    -57.9839E-03     111.763E-03    -53.7788E-03     72.1141E-03    -60.3582E-03     114.338E-03    -53.4936E-03     74.0849E-03
             260     17.0572E-03     28.5301E-03    -3.87419E+06     138.390E+06     96.5282E+06     386.077E+03    -58.0401E-03     111.818E-03    -53.7775E-03     72.7375E-03    -60.4316E-03     114.408E-03    -53.4899E-03     74.7468E-03
             261     17.0637E-03     29.5951E-03    -1.58570E+06     140.734E+06     98.6286E+06     1.10016E+06    -55.9293E-03     109.735E-03    -53.8056E-03     74.4116E-03    -58.3502E-03     112.365E-03    -53.5142E-03     76.5494E-03
             262     17.0582E-03     30.6483E-03    -1.55035E+06     141.505E+06     98.5746E+06     597.273E+03    -55.8893E-03     109.672E-03    -53.7825E-03     76.3686E-03    -58.3589E-03     112.353E-03    -53.4926E-03     78.5303E-03
             263     17.0642E-03     31.7143E-03    -3.00457E+06     141.336E+06     97.8684E+06    -372.162E+03    -56.1241E-03     109.888E-03    -53.7635E-03     75.3997E-03    -58.6079E-03     112.579E-03    -53.4747E-03     77.5908E-03
             264     17.0584E-03     32.7687E-03    -3.41139E+06     142.542E+06     98.6954E+06    -87.2396E+03    -55.0443E-03     108.846E-03    -53.8020E-03     76.1281E-03    -57.5696E-03     111.580E-03    -53.5103E-03     78.4565E-03
             265     17.0635E-03     33.8308E-03    -2.70570E+06     143.011E+06     99.0303E+06     220.567E+03    -54.1474E-03     107.962E-03    -53.8150E-03     77.9219E-03    -56.6834E-03     110.710E-03    -53.5233E-03     80.2734E-03
             266     17.0599E-03     34.8856E-03    -2.16927E+06     143.346E+06     99.1771E+06     415.131E+03    -53.7037E-03     107.512E-03    -53.8084E-03     78.0181E-03    -56.2341E-03     110.256E-03    -53.5172E-03     80.4005E-03
             267     17.0631E-03     35.9429E-03    -2.18430E+06     144.356E+06     99.7219E+06     521.678E+03    -53.7921E-03     107.597E-03    -53.8048E-03     76.5541E-03    -56.2940E-03     110.315E-03    -53.5123E-03     78.9216E-03
             268     17.0604E-03     36.9984E-03    -2.22396E+06     144.483E+06     99.6178E+06     252.109E+03    -53.1942E-03     107.011E-03    -53.8170E-03     74.1147E-03    -55.6436E-03     109.677E-03    -53.5251E-03     76.4808E-03
             269     17.0628E-03     38.0534E-03    -2.08591E+06     145.915E+06     100.275E+06     795.881E+03    -52.9543E-03     106.769E-03    -53.8143E-03     73.2038E-03    -55.3802E-03     109.415E-03    -53.5215E-03     75.6067E-03
             270     17.0613E-03     39.1091E-03    -2.84757E+06     146.362E+06     100.131E+06     170.236E+03    -53.5478E-03     107.351E-03    -53.8032E-03     73.8048E-03    -55.9991E-03     110.022E-03    -53.5107E-03     76.1714E-03
             271     17.0615E-03     40.1723E-03    -2.32249E+06     146.701E+06     100.409E+06     381.042E+03    -52.4650E-03     106.300E-03    -53.8352E-03     75.4582E-03    -54.9649E-03     109.022E-03    -53.5425E-03     77.9227E-03
             272     17.0624E-03     41.2196E-03    -2.47831E+06     146.397E+06     100.105E+06     139.938E+03    -52.4623E-03     106.285E-03    -53.8229E-03     77.4342E-03    -54.9890E-03     109.033E-03    -53.5310E-03     79.9168E-03
             273     17.0614E-03     42.2842E-03    -3.45305E+06     145.854E+06     99.6464E+06    -511.130E+03    -52.7489E-03     106.557E-03    -53.8078E-03     75.9833E-03    -55.2790E-03     109.303E-03    -53.5160E-03     78.4510E-03
             274     17.0630E-03     43.3321E-03    -2.02762E+06     147.400E+06     100.885E+06    -312.971E+03    -52.3594E-03     106.172E-03    -53.8124E-03     77.4279E-03    -54.9203E-03     108.956E-03    -53.5188E-03     79.9637E-03
             275     17.0613E-03     44.3950E-03    -2.61738E+06     147.621E+06     101.077E+06     336.943E+03    -52.3352E-03     106.158E-03    -53.8229E-03     76.0573E-03    -54.8517E-03     108.896E-03    -53.5278E-03     78.5493E-03
             276     17.0624E-03     45.4438E-03    -1.25766E+06     147.852E+06     101.650E+06     553.942E+03    -52.2014E-03     106.030E-03    -53.8283E-03     76.1080E-03    -54.6820E-03     108.736E-03    -53.5326E-03     78.5696E-03
             277     17.0619E-03     46.5016E-03    -2.94872E+06     145.804E+06     99.2996E+06    -369.201E+03    -51.9307E-03     105.740E-03    -53.8090E-03     72.9958E-03    -54.3560E-03     108.384E-03    -53.5197E-03     75.4057E-03
             278     17.0631E-03     47.5542E-03    -4.11678E+06      146.74E+06     99.6344E+06    -547.014E+03    -52.7637E-03     106.572E-03    -53.8080E-03     74.2975E-03    -55.2608E-03     109.286E-03    -53.5166E-03     76.7747E-03
             279     17.0600E-03     48.6152E-03    -2.82958E+06     148.831E+06     101.285E+06     1.32099E+06    -52.4247E-03     106.257E-03    -53.8319E-03     76.0304E-03    -54.9397E-03     108.997E-03    -53.5372E-03     78.5320E-03
             280     17.0642E-03     49.6705E-03    -3.08288E+06     147.642E+06     100.359E+06     363.618E+03    -52.0692E-03     105.911E-03    -53.8420E-03     76.4092E-03    -54.5511E-03     108.616E-03    -53.5498E-03     78.8542E-03
             281     17.0586E-03     50.7174E-03    -3.21320E+06     146.835E+06     100.248E+06     915.501E+03    -53.2984E-03     107.126E-03    -53.8275E-03     72.0610E-03    -55.6902E-03     109.738E-03    -53.5345E-03     74.4275E-03
             282     17.0644E-03     51.7851E-03    -1.23305E+06     148.592E+06     101.772E+06     650.293E+03    -50.2278E-03     104.106E-03    -53.8780E-03     74.5643E-03    -52.7001E-03     106.807E-03    -53.5828E-03     77.1170E-03
             283     17.0606E-03     52.8304E-03    -1.41862E+06     148.488E+06     101.352E+06    -1.19932E+06    -48.9211E-03     102.798E-03    -53.8769E-03     76.9406E-03    -51.4727E-03     105.578E-03    -53.5834E-03     79.6036E-03
             284     17.0647E-03     53.8814E-03    -2.45238E+06     148.891E+06     101.879E+06    -935.151E+03    -53.6930E-03     107.462E-03    -53.7688E-03     73.9846E-03    -56.1642E-03     110.158E-03    -53.4718E-03     76.3786E-03
             285     17.0595E-03     54.9454E-03    -3.95289E+06     148.255E+06     100.925E+06     490.210E+03    -55.4290E-03     109.179E-03    -53.7504E-03     73.9484E-03    -57.8894E-03     111.861E-03    -53.4550E-03     76.2210E-03
             286     17.0639E-03     56.0067E-03    -3.10361E+06     149.251E+06     101.054E+06     183.956E+03    -50.8628E-03     104.713E-03    -53.8501E-03     77.1185E-03    -53.4248E-03     107.502E-03    -53.5568E-03     79.7009E-03
             287     17.0614E-03     57.0513E-03    -1.30284E+06     151.090E+06     102.888E+06    -824.910E+03    -49.9180E-03     103.780E-03    -53.8623E-03     77.5937E-03    -52.4775E-03     106.574E-03    -53.5651E-03     80.2541E-03
             288     17.0631E-03     58.1091E-03    -2.96053E+06     149.856E+06     102.186E+06     149.834E+03    -53.4715E-03     107.266E-03    -53.7949E-03     71.3728E-03    -55.8660E-03     109.886E-03    -53.4969E-03     73.7255E-03
             289     17.0604E-03     59.1577E-03    -3.10955E+06     149.292E+06     101.683E+06     1.14724E+06    -55.3736E-03     109.144E-03    -53.7704E-03     67.8711E-03    -57.6769E-03     111.672E-03    -53.4740E-03     70.0692E-03
             290     17.0623E-03     60.2292E-03    -2.78107E+06     149.856E+06     101.431E+06     860.841E+03    -51.9510E-03     105.787E-03    -53.8355E-03     72.3364E-03    -54.3692E-03     108.433E-03    -53.5416E-03     74.7664E-03
             291     17.0627E-03     61.2786E-03    -2.48474E+06     152.489E+06     103.177E+06    -41.7936E+03    -49.1262E-03     103.019E-03    -53.8925E-03     78.5098E-03    -51.7150E-03     105.841E-03    -53.5941E-03     81.2311E-03
             292     852.901E-06     61.4641E-03    -49.0478E+06    -166.698E+06    -48.2171E+06    -107.792E+03    -53.9243E-03     107.762E-03    -53.8375E-03     9.55576E-03    -53.8593E-03     107.071E-03    -53.7657E-03     9.52188E-03
             293     1.70567E-03     61.4775E-03    -47.5058E+06    -164.059E+06    -44.1471E+06    -118.247E+03    -53.9512E-03     107.836E-03    -53.8848E-03     17.4559E-03    -53.8912E-03     107.153E-03    -53.7987E-03     17.3929E-03
             294     2.55862E-03     61.4992E-03    -45.5296E+06    -160.455E+06    -38.3190E+06    -1.34006E+03    -54.0198E-03     107.924E-03    -53.9037E-03     25.8388E-03    -53.9691E-03     107.253E-03    -53.7966E-03     25.7445E-03
             295     3.41142E-03     61.5294E-03    -42.9013E+06    -156.426E+06    -31.9715E+06     53.6537E+03    -54.1469E-03     108.068E-03    -53.9211E-03     34.1873E-03    -54.1064E-03     107.413E-03    -53.7920E-03     34.0562E-03
             296     4.26435E-03     61.5678E-03    -39.7039E+06    -151.189E+06    -24.3692E+06    -144.071E+03    -54.2846E-03     108.227E-03    -53.9419E-03     42.4613E-03    -54.2588E-03     107.594E-03    -53.7870E-03     42.2847E-03
             297     5.11728E-03     61.6147E-03    -36.4031E+06    -146.175E+06    -17.0319E+06    -289.130E+03    -54.4302E-03     108.388E-03    -53.9578E-03     50.5422E-03    -54.4227E-03     107.782E-03    -53.7782E-03     50.3135E-03
             298     5.97037E-03     61.6691E-03    -33.2376E+06    -142.402E+06    -11.2229E+06    -250.609E+03    -54.6602E-03     108.628E-03    -53.9682E-03     58.3808E-03    -54.6742E-03     108.051E-03    -53.7696E-03     58.0929E-03
             299     6.82295E-03     61.7318E-03    -30.0516E+06    -133.342E+06     -6.9637E+06    -143.059E+03    -54.9042E-03     108.871E-03    -53.9669E-03     66.2720E-03    -54.9530E-03     108.360E-03    -53.7647E-03     65.9170E-03
             300     7.67609E-03     61.8022E-03    -27.6537E+06    -121.677E+06    -5.80668E+06     28.8758E+03    -55.1232E-03     109.071E-03    -53.9475E-03     73.9261E-03    -55.2208E-03     108.655E-03    -53.7600E-03     73.4934E-03
             301     8.52900E-03     61.8800E-03    -25.6615E+06    -110.542E+06    -5.30675E+06     331.602E+03    -55.3395E-03     109.263E-03    -53.9234E-03     81.6085E-03    -55.5011E-03     108.956E-03    -53.7524E-03     81.0864E-03
             302     9.38199E-03     61.9656E-03    -23.9502E+06    -97.0904E+06    -4.26670E+06     567.779E+03    -55.5597E-03     109.455E-03    -53.8956E-03     89.4804E-03    -55.8127E-03     109.291E-03    -53.7414E-03     88.8509E-03
             303     10.2352E-03     62.0592E-03    -22.0288E+06    -81.4248E+06    -4.11223E+06     537.462E+03    -55.7998E-03     109.658E-03    -53.8586E-03     96.9130E-03    -56.1739E-03     109.677E-03    -53.7291E-03     96.1531E-03
             304     11.0875E-03     62.1594E-03    -20.2826E+06    -60.7577E+06    -4.70019E+06     502.163E+03    -55.9819E-03     109.792E-03    -53.8100E-03     104.330E-03    -56.5268E-03     110.063E-03    -53.7160E-03     103.419E-03
             305     11.9413E-03     62.2689E-03    -19.4758E+06    -30.2605E+06    -5.23824E+06     377.072E+03    -56.4031E-03     110.153E-03    -53.7502E-03     115.247E-03    -57.2334E-03     110.822E-03    -53.7043E-03     114.144E-03
             306     12.7944E-03     62.3914E-03    -19.6263E+06     18.4680E+06    -8.91175E+06     575.438E+03    -57.1688E-03     110.825E-03    -53.6559E-03     132.578E-03    -58.5259E-03     112.204E-03    -53.6988E-03     131.219E-03
             307     13.6468E-03     62.5338E-03    -19.1185E+06     72.0173E+06    -449.126E+03     1.09639E+06    -58.9342E-03     112.552E-03    -53.6174E-03     166.350E-03    -61.4118E-03     115.218E-03    -53.6964E-03     164.665E-03
             308     14.5004E-03     62.7253E-03    -16.5470E+06     113.522E+06      39.147E+06     1.08009E+06    -61.5587E-03     115.272E-03    -53.7131E-03     226.538E-03    -67.0125E-03     120.956E-03    -53.6580E-03     224.669E-03
             309     15.3569E-03     62.9895E-03    -11.0239E+06     150.173E+06     90.6250E+06     621.034E+03    -63.8453E-03     117.661E-03    -53.8159E-03     287.493E-03    -75.0857E-03     129.133E-03    -53.5645E-03     287.244E-03
             310     16.2124E-03     63.3119E-03    -5.44633E+06     159.355E+06     107.859E+06     96.1258E+03    -59.3580E-03     113.176E-03    -53.8183E-03     192.289E-03    -67.9984E-03     122.050E-03    -53.5021E-03     194.147E-03
             311     852.834E-06     62.5195E-03    -48.6835E+06    -166.257E+06    -47.7261E+06    -59.4720E+03    -53.9269E-03     107.816E-03    -53.8889E-03     9.54983E-03    -53.8614E-03     107.126E-03    -53.8159E-03     9.51659E-03
             312     1.70570E-03     62.5330E-03    -47.5349E+06    -164.098E+06    -44.1703E+06    -226.821E+03    -53.9459E-03     107.850E-03    -53.9046E-03     17.4716E-03    -53.8860E-03     107.167E-03    -53.8185E-03     17.4072E-03
             313     2.55852E-03     62.5546E-03    -45.3824E+06    -160.531E+06    -38.5441E+06    -93.6917E+03    -54.0320E-03     107.948E-03    -53.9156E-03     25.8620E-03    -53.9801E-03     107.276E-03    -53.8097E-03     25.7665E-03
             314     3.41150E-03     62.5850E-03    -42.6512E+06    -156.265E+06    -31.8250E+06    -162.243E+03    -54.1504E-03     108.083E-03    -53.9328E-03     34.2007E-03    -54.1091E-03     107.428E-03    -53.8035E-03     34.0668E-03
             315     4.26427E-03     62.6233E-03    -39.6965E+06    -150.935E+06    -23.9218E+06    -330.442E+03    -54.2790E-03     108.232E-03    -53.9529E-03     42.4492E-03    -54.2542E-03     107.600E-03    -53.7961E-03     42.2702E-03
             316     5.11723E-03     62.6701E-03    -36.4827E+06    -146.057E+06    -16.6697E+06    -367.343E+03    -54.4481E-03     108.416E-03    -53.9682E-03     50.5146E-03    -54.4417E-03     107.810E-03    -53.7869E-03     50.2847E-03
             317     5.97001E-03     62.7246E-03    -33.1640E+06    -142.375E+06    -11.3503E+06    -384.366E+03    -54.6945E-03     108.673E-03    -53.9785E-03     58.4522E-03    -54.7079E-03     108.096E-03    -53.7807E-03     58.1625E-03
             318     6.82311E-03     62.7874E-03    -30.1904E+06    -133.588E+06    -7.14174E+06    -169.749E+03    -54.9139E-03     108.893E-03    -53.9788E-03     66.2922E-03    -54.9627E-03     108.381E-03    -53.7771E-03     65.9369E-03
             319     7.67592E-03     62.8574E-03    -27.4761E+06    -122.038E+06    -5.31496E+06     239.970E+03    -55.1136E-03     109.075E-03    -53.9611E-03     73.9427E-03    -55.2105E-03     108.656E-03    -53.7709E-03     73.5126E-03
             320     8.52890E-03     62.9357E-03    -25.4648E+06    -110.798E+06    -5.07867E+06     591.484E+03    -55.3188E-03     109.252E-03    -53.9330E-03     81.5103E-03    -55.4794E-03     108.943E-03    -53.7608E-03     80.9914E-03
             321     9.38197E-03     63.0208E-03    -23.7110E+06    -96.9251E+06    -4.09536E+06     572.211E+03    -55.5688E-03     109.472E-03    -53.9031E-03     89.4555E-03    -55.8213E-03     109.308E-03    -53.7487E-03     88.8255E-03
             322     10.2348E-03     63.1149E-03    -22.2628E+06    -82.0463E+06    -4.53509E+06     523.256E+03    -55.8779E-03     109.745E-03    -53.8674E-03     97.0858E-03    -56.2517E-03     109.762E-03    -53.7389E-03     96.3248E-03
             323     11.0881E-03     63.2154E-03    -20.9336E+06    -60.5561E+06    -5.16555E+06     548.959E+03    -56.2297E-03     110.058E-03    -53.8284E-03     104.843E-03    -56.7817E-03     110.336E-03    -53.7361E-03     103.927E-03
             324     11.9404E-03     63.3240E-03    -20.1177E+06    -29.6469E+06    -5.16796E+06     604.387E+03    -56.4867E-03     110.267E-03    -53.7801E-03     115.482E-03    -57.3216E-03     110.940E-03    -53.7338E-03     114.380E-03
             325     12.7940E-03     63.4466E-03    -19.0552E+06     17.3658E+06    -8.75740E+06     1.13935E+06    -56.9287E-03     110.608E-03    -53.6798E-03     132.565E-03    -58.2844E-03     111.984E-03    -53.7211E-03     131.218E-03
             326     13.6473E-03     63.5905E-03    -17.5456E+06     71.6531E+06     279.849E+03     1.17599E+06    -58.3577E-03     111.972E-03    -53.6146E-03     166.352E-03    -60.8149E-03     114.621E-03    -53.6916E-03     164.698E-03
             327     14.5006E-03     63.7795E-03    -15.0534E+06     114.289E+06     40.5706E+06     294.110E+03    -61.9492E-03     115.661E-03    -53.7120E-03     224.802E-03    -67.3838E-03     121.330E-03    -53.6530E-03     222.895E-03
             328     15.3541E-03     64.0417E-03    -10.8915E+06     149.580E+06     90.3072E+06     727.195E+03    -65.0052E-03     118.873E-03    -53.8675E-03     284.577E-03    -76.0997E-03     130.198E-03    -53.6170E-03     284.160E-03
             329     16.2065E-03     64.3663E-03    -5.36695E+06     159.397E+06     107.609E+06     746.808E+03    -58.4334E-03     112.318E-03    -53.8849E-03     191.937E-03    -66.9509E-03     121.071E-03    -53.5702E-03     193.795E-03
             330     852.732E-06     63.5752E-03    -48.2986E+06    -166.083E+06    -47.6358E+06    -78.8854E+03    -53.9195E-03     107.842E-03    -53.9229E-03     9.45927E-03    -53.8525E-03     107.153E-03    -53.8502E-03     9.42541E-03
             331     1.70570E-03     63.5882E-03    -47.2445E+06    -163.958E+06    -43.9996E+06     40.5960E+03    -53.9499E-03     107.865E-03    -53.9155E-03     17.5162E-03    -53.8890E-03     107.182E-03    -53.8293E-03     17.4553E-03
             332     2.55855E-03     63.6103E-03    -45.4334E+06    -160.323E+06    -38.0478E+06    -205.076E+03    -54.0580E-03     107.987E-03    -53.9292E-03     25.8628E-03    -54.0074E-03     107.316E-03    -53.8211E-03     25.7658E-03
             333     3.41130E-03     63.6402E-03    -42.8060E+06    -155.986E+06    -31.2651E+06    -362.716E+03    -54.1410E-03     108.088E-03    -53.9471E-03     34.2032E-03    -54.1017E-03     107.434E-03    -53.8152E-03     34.0666E-03
             334     4.26431E-03     63.6790E-03    -39.6941E+06    -150.905E+06    -23.7725E+06    -321.665E+03    -54.2766E-03     108.238E-03    -53.9618E-03     42.4567E-03    -54.2521E-03     107.606E-03    -53.8043E-03     42.2778E-03
             335     5.11718E-03     63.7253E-03    -36.4012E+06    -146.043E+06    -16.5907E+06    -345.198E+03    -54.4762E-03     108.453E-03    -53.9771E-03     50.5716E-03    -54.4696E-03     107.847E-03    -53.7955E-03     50.3419E-03
             336     5.97016E-03     63.7804E-03    -33.3555E+06    -142.346E+06    -11.1578E+06    -354.407E+03    -54.6874E-03     108.676E-03    -53.9886E-03     58.5195E-03    -54.7022E-03     108.099E-03    -53.7896E-03     58.2305E-03
             337     6.82291E-03     63.8426E-03    -30.3362E+06    -133.834E+06    -7.21538E+06    -168.178E+03    -54.9001E-03     108.886E-03    -53.9854E-03     66.3309E-03    -54.9492E-03     108.373E-03    -53.7834E-03     65.9756E-03
             338     7.67588E-03     63.9134E-03    -27.7352E+06    -122.824E+06    -5.72565E+06     250.384E+03    -55.1110E-03     109.076E-03    -53.9650E-03     74.0069E-03    -55.2074E-03     108.655E-03    -53.7753E-03     73.5772E-03
             339     8.52886E-03     63.9908E-03    -25.3672E+06    -110.991E+06    -5.11508E+06     611.665E+03    -55.3641E-03     109.303E-03    -53.9386E-03     81.5843E-03    -55.5242E-03     108.994E-03    -53.7665E-03     81.0650E-03
             340     9.38182E-03     64.0766E-03    -23.4504E+06    -97.0851E+06    -4.10192E+06     713.042E+03    -55.6209E-03     109.533E-03    -53.9123E-03     89.4322E-03    -55.8719E-03     109.368E-03    -53.7580E-03     88.8034E-03
             341     10.2350E-03     64.1701E-03    -21.9289E+06     -81.809E+06    -4.13713E+06     710.887E+03    -55.8062E-03     109.683E-03    -53.8766E-03     97.0281E-03    -56.1786E-03     109.699E-03    -53.7469E-03     96.2714E-03
             342     11.0878E-03     64.2709E-03    -20.9031E+06    -60.7114E+06    -5.08276E+06     911.041E+03    -56.1453E-03     109.975E-03    -53.8299E-03     105.091E-03    -56.6974E-03     110.252E-03    -53.7370E-03     104.180E-03
             343     11.9409E-03     64.3806E-03    -20.0145E+06    -30.1807E+06    -5.35086E+06     1.04040E+06    -56.4764E-03     110.252E-03    -53.7759E-03     115.831E-03    -57.3108E-03     110.924E-03    -53.7298E-03     114.736E-03
             344     12.7931E-03     64.5015E-03    -18.9702E+06     17.6957E+06    -8.62725E+06     703.597E+03    -56.8800E-03     110.551E-03    -53.6714E-03     133.469E-03    -58.2431E-03     111.935E-03    -53.7127E-03     132.120E-03
             345     13.6470E-03     64.6455E-03    -17.7207E+06     72.0898E+06     645.353E+03     584.693E+03    -58.3386E-03     111.944E-03    -53.6050E-03     166.161E-03    -60.7897E-03     114.586E-03    -53.6806E-03     164.505E-03
             346     14.5019E-03     64.8338E-03    -16.1148E+06     114.373E+06     40.4012E+06     916.020E+03    -62.7297E-03     116.449E-03    -53.7198E-03     225.912E-03    -68.2014E-03     122.153E-03    -53.6602E-03     223.953E-03
             347     15.3516E-03     65.1027E-03    -12.1891E+06     149.300E+06     89.4821E+06     673.055E+03    -65.7860E-03     119.693E-03    -53.9065E-03     286.175E-03    -76.9549E-03     131.089E-03    -53.6579E-03     285.692E-03
             348     16.2063E-03     65.4155E-03    -5.58577E+06     159.587E+06     107.431E+06     5.57348E+03    -57.7842E-03     111.708E-03    -53.9242E-03     193.618E-03    -66.3696E-03     120.529E-03    -53.6104E-03     195.528E-03
             349     852.894E-06     64.6301E-03    -48.2450E+06    -166.053E+06    -47.4809E+06    -49.7625E+03    -53.9577E-03     107.834E-03    -53.8767E-03     9.44944E-03    -53.8907E-03     107.144E-03    -53.8034E-03     9.41574E-03
             350     1.70564E-03     64.6441E-03    -47.0545E+06    -163.974E+06    -44.0277E+06     52.4063E+03    -53.9944E-03     107.915E-03    -53.9203E-03     17.5300E-03    -53.9325E-03     107.231E-03    -53.8345E-03     17.4693E-03
             351     2.55846E-03     64.6655E-03    -45.0579E+06    -160.093E+06    -37.8661E+06     13.7653E+03    -54.0357E-03     107.974E-03    -53.9385E-03     25.8771E-03    -53.9838E-03     107.304E-03    -53.8303E-03     25.7828E-03
             352     3.41141E-03     64.6960E-03    -42.7284E+06    -155.775E+06    -30.9237E+06    -111.133E+03    -54.1459E-03     108.098E-03    -53.9522E-03     34.2327E-03    -54.1070E-03     107.444E-03    -53.8190E-03     34.0995E-03
             353     4.26424E-03     64.7340E-03    -39.8577E+06    -150.596E+06    -23.2448E+06    -314.941E+03    -54.2970E-03     108.267E-03    -53.9697E-03     42.4966E-03    -54.2745E-03     107.636E-03    -53.8098E-03     42.3177E-03
             354     5.11714E-03     64.7813E-03    -36.4914E+06    -145.990E+06    -16.3357E+06    -446.369E+03    -54.4701E-03     108.455E-03    -53.9846E-03     50.5919E-03    -54.4644E-03     107.849E-03    -53.8016E-03     50.3609E-03
             355     5.96997E-03     64.8355E-03    -33.1517E+06    -142.499E+06    -11.0797E+06    -118.776E+03    -54.6644E-03     108.656E-03    -53.9920E-03     58.5469E-03    -54.6779E-03     108.078E-03    -53.7927E-03     58.2612E-03
             356     6.82301E-03     64.8986E-03    -30.6161E+06    -134.507E+06    -7.52724E+06     240.497E+03    -54.8604E-03     108.844E-03    -53.9837E-03     66.4008E-03    -54.9094E-03     108.329E-03    -53.7819E-03     66.0514E-03
             357     7.67599E-03     64.9684E-03    -28.2161E+06    -122.715E+06    -6.01609E+06     242.539E+03    -55.0922E-03     109.051E-03    -53.9592E-03     74.0731E-03    -55.1906E-03     108.631E-03    -53.7705E-03     73.6441E-03
             358     8.52894E-03     65.0468E-03    -25.8193E+06    -111.047E+06    -5.29120E+06     266.463E+03    -55.4196E-03     109.355E-03    -53.9354E-03     81.7760E-03    -55.5821E-03     109.047E-03    -53.7634E-03     81.2516E-03
             359     9.38171E-03     65.1320E-03    -23.7356E+06    -97.6525E+06    -4.34875E+06     607.510E+03    -55.6582E-03     109.572E-03    -53.9134E-03     89.5015E-03    -55.9098E-03     109.405E-03    -53.7591E-03     88.8704E-03
             360     10.2346E-03     65.2256E-03    -22.1574E+06    -81.9491E+06    -4.25242E+06     958.764E+03    -55.8138E-03     109.693E-03    -53.8791E-03     97.1852E-03    -56.1879E-03     109.710E-03    -53.7494E-03     96.4312E-03
             361     11.0879E-03     65.3263E-03    -21.0289E+06    -61.3934E+06    -5.37020E+06     1.05439E+06    -55.8877E-03     109.709E-03    -53.8218E-03     105.345E-03    -56.4370E-03     109.982E-03    -53.7292E-03     104.443E-03
             362     11.9410E-03     65.4360E-03    -19.7988E+06    -30.7946E+06    -5.67771E+06     1.28956E+06    -56.0768E-03     109.820E-03    -53.7431E-03     115.965E-03    -56.9051E-03     110.485E-03    -53.6981E-03     114.885E-03
             363     12.7956E-03     65.5569E-03    -19.3654E+06     18.9172E+06    -8.47670E+06     1.14449E+06    -56.9264E-03     110.555E-03    -53.6284E-03     133.547E-03    -58.2900E-03     111.941E-03    -53.6702E-03     132.204E-03
             364     13.6480E-03     65.7017E-03    -19.4348E+06     72.3587E+06    -507.556E+03     716.673E+03    -58.7643E-03     112.340E-03    -53.5755E-03     166.367E-03    -61.2343E-03     114.999E-03    -53.6548E-03     164.692E-03
             365     14.4992E-03     65.8889E-03    -17.0491E+06     113.993E+06     38.6003E+06     769.380E+03    -62.5678E-03     116.259E-03    -53.6914E-03     227.409E-03    -68.0627E-03     121.986E-03    -53.6390E-03     225.455E-03
             366     15.3563E-03     66.1594E-03    -11.8549E+06     150.266E+06     89.5312E+06     71.2580E+03    -65.0329E-03     118.888E-03    -53.8555E-03     286.190E-03    -76.1953E-03     130.283E-03    -53.6085E-03     285.809E-03
             367     16.2086E-03     66.4726E-03    -5.81306E+06     159.430E+06     107.625E+06    -438.579E+03    -58.2217E-03     112.098E-03    -53.8761E-03     191.972E-03    -66.7865E-03     120.896E-03    -53.5607E-03     193.895E-03
             368     852.880E-06     65.6865E-03    -48.2695E+06    -166.122E+06    -47.5845E+06     14.2084E+03    -53.9792E-03     107.830E-03    -53.8509E-03     9.56104E-03    -53.9121E-03     107.140E-03    -53.7780E-03     9.52862E-03
             369     1.70559E-03     65.6991E-03    -47.0690E+06    -163.832E+06    -43.8341E+06    -87.9069E+03    -53.9901E-03     107.909E-03    -53.9187E-03     17.5286E-03    -53.9288E-03     107.226E-03    -53.8321E-03     17.4660E-03
             370     2.55851E-03     65.7214E-03    -45.0154E+06    -160.155E+06    -37.9592E+06    -55.4160E+03    -54.0441E-03     107.981E-03    -53.9368E-03     25.9011E-03    -53.9918E-03     107.310E-03    -53.8291E-03     25.8060E-03
             371     3.41139E-03     65.7510E-03    -42.2297E+06    -155.728E+06    -31.0243E+06     134.384E+03    -54.1631E-03     108.116E-03    -53.9528E-03     34.2126E-03    -54.1217E-03     107.462E-03    -53.8209E-03     34.0824E-03
             372     4.26423E-03     65.7901E-03    -39.3863E+06    -150.237E+06    -22.9367E+06     88.6724E+03    -54.2869E-03     108.259E-03    -53.9722E-03     42.5019E-03    -54.2630E-03     107.629E-03    -53.8119E-03     42.3282E-03
             373     5.11713E-03     65.8362E-03    -36.6909E+06    -145.862E+06    -16.1625E+06    -72.2440E+03    -54.4409E-03     108.425E-03    -53.9839E-03     50.6695E-03    -54.4366E-03     107.819E-03    -53.8000E-03     50.4438E-03
             374     5.97012E-03     65.8915E-03    -34.0731E+06    -143.222E+06    -11.6473E+06     156.266E+03    -54.6379E-03     108.624E-03    -53.9861E-03     58.6027E-03    -54.6542E-03     108.045E-03    -53.7872E-03     58.3209E-03
             375     6.82304E-03     65.9535E-03    -31.0174E+06    -134.571E+06    -7.53032E+06     435.648E+03    -54.8408E-03     108.818E-03    -53.9769E-03     66.4005E-03    -54.8916E-03     108.302E-03    -53.7744E-03     66.0540E-03
             376     7.67602E-03     66.0244E-03    -28.1464E+06    -122.529E+06    -5.69804E+06     285.705E+03    -55.0952E-03     109.048E-03    -53.9528E-03     74.1019E-03    -55.1942E-03     108.629E-03    -53.7628E-03     73.6730E-03
             377     8.52899E-03     66.1018E-03    -25.9925E+06    -111.385E+06    -5.28543E+06     245.243E+03    -55.3318E-03     109.257E-03    -53.9251E-03     81.8886E-03    -55.4944E-03     108.947E-03    -53.7523E-03     81.3651E-03
             378     9.38196E-03     66.1882E-03    -24.1551E+06    -98.1854E+06    -4.42111E+06     630.959E+03    -55.5710E-03     109.467E-03    -53.8956E-03     89.7164E-03    -55.8233E-03     109.297E-03    -53.7403E-03     89.0882E-03
             379     10.2352E-03     66.2806E-03    -22.5685E+06    -82.5629E+06    -4.64527E+06     907.263E+03    -55.8116E-03     109.668E-03    -53.8565E-03     97.4849E-03    -56.1871E-03     109.684E-03    -53.7273E-03     96.7301E-03
             380     11.0879E-03     66.3823E-03    -21.0401E+06    -61.3205E+06    -5.18722E+06     1.05311E+06    -55.8895E-03     109.692E-03    -53.8021E-03     105.138E-03    -56.4383E-03     109.963E-03    -53.7086E-03     104.236E-03
             381     11.9421E-03     66.4899E-03    -19.8036E+06    -30.7743E+06    -5.45540E+06     1.07493E+06    -56.1503E-03     109.880E-03    -53.7293E-03     115.415E-03    -56.9777E-03     110.543E-03    -53.6833E-03     114.329E-03
             382     12.7942E-03     66.6132E-03    -18.7225E+06     18.4092E+06    -8.27718E+06     1.42781E+06    -56.7902E-03     110.406E-03    -53.6157E-03     132.986E-03    -58.1430E-03     111.782E-03    -53.6566E-03     131.652E-03
             383     13.6478E-03     66.7566E-03    -17.8462E+06      72.579E+06     602.029E+03     1.70419E+06    -58.3302E-03     111.879E-03    -53.5487E-03     166.300E-03    -60.7822E-03     114.523E-03    -53.6250E-03     164.657E-03
             384     14.5031E-03     66.9458E-03    -15.7848E+06     115.032E+06     40.0211E+06     636.347E+03    -62.1828E-03     115.824E-03    -53.6409E-03     227.984E-03    -67.6929E-03     121.570E-03    -53.5847E-03     226.063E-03
             385     15.3532E-03     67.2134E-03    -11.2331E+06     150.880E+06     90.2542E+06    -153.191E+03    -65.2357E-03     119.034E-03    -53.7983E-03     286.398E-03    -76.4046E-03     130.437E-03    -53.5495E-03     285.994E-03
             386     16.2090E-03     67.5272E-03    -5.50241E+06     159.467E+06     107.781E+06    -130.105E+03    -58.7635E-03     112.603E-03    -53.8396E-03     190.395E-03    -67.2782E-03     121.352E-03    -53.5239E-03     192.244E-03
             387     852.750E-06     66.7412E-03    -48.4233E+06    -166.118E+06    -47.4296E+06     10.0128E+03    -53.9360E-03     107.832E-03    -53.8964E-03     9.59562E-03    -53.8698E-03     107.142E-03    -53.8225E-03     9.56330E-03
             388     1.70577E-03     66.7552E-03    -47.0941E+06    -163.724E+06    -43.6144E+06    -51.4780E+03    -53.9657E-03     107.882E-03    -53.9158E-03     17.4976E-03    -53.9049E-03     107.199E-03    -53.8282E-03     17.4354E-03
             389     2.55853E-03     66.7764E-03    -44.9816E+06    -159.931E+06    -37.5586E+06    -182.296E+03    -54.0691E-03     108.004E-03    -53.9345E-03     25.9019E-03    -54.0175E-03     107.334E-03    -53.8252E-03     25.8052E-03
             390     3.41128E-03     66.8071E-03    -42.2642E+06    -156.007E+06    -31.4923E+06    -179.834E+03    -54.1498E-03     108.100E-03    -53.9502E-03     34.2449E-03    -54.1075E-03     107.445E-03    -53.8202E-03     34.1106E-03
             391     4.26425E-03     66.8450E-03    -39.0583E+06    -150.493E+06    -23.3899E+06     291.044E+03    -54.2464E-03     108.210E-03    -53.9636E-03     42.5421E-03    -54.2198E-03     107.578E-03    -53.8057E-03     42.3714E-03
             392     5.11723E-03     66.8923E-03    -36.0839E+06    -146.223E+06    -16.2411E+06     868.641E+03    -54.4277E-03     108.400E-03    -53.9726E-03     50.6817E-03    -54.4197E-03     107.792E-03    -53.7894E-03     50.4682E-03
             393     5.97015E-03     66.9464E-03    -33.2994E+06    -143.202E+06    -11.3839E+06     743.123E+03    -54.6414E-03     108.617E-03    -53.9759E-03     58.5697E-03    -54.6543E-03     108.037E-03    -53.7769E-03     58.2952E-03
             394     6.82310E-03     67.0095E-03    -30.3568E+06    -134.257E+06    -7.00254E+06     184.504E+03    -54.8539E-03     108.824E-03    -53.9697E-03     66.4046E-03    -54.9027E-03     108.308E-03    -53.7661E-03     66.0546E-03
             395     7.67610E-03     67.0793E-03    -27.5801E+06    -122.822E+06    -5.24702E+06     290.808E+03    -55.0660E-03     109.012E-03    -53.9462E-03     74.1544E-03    -55.1626E-03     108.590E-03    -53.7543E-03     73.7254E-03
             396     8.52901E-03     67.1579E-03    -25.4362E+06    -111.661E+06    -4.71429E+06     720.049E+03    -55.2416E-03     109.155E-03    -53.9139E-03     81.7754E-03    -55.4015E-03     108.842E-03    -53.7386E-03     81.2591E-03
             397     9.38247E-03     67.2427E-03    -23.8335E+06    -98.6157E+06    -4.17060E+06     806.894E+03    -55.4390E-03     109.314E-03    -53.8749E-03     89.5751E-03    -55.6886E-03     109.141E-03    -53.7182E-03     88.9513E-03
             398     10.2353E-03     67.3370E-03    -22.3304E+06    -82.7984E+06    -4.40925E+06     931.243E+03    -55.7578E-03     109.588E-03    -53.8300E-03     97.3262E-03    -56.1316E-03     109.601E-03    -53.6996E-03     96.5726E-03
             399     11.0888E-03     67.4367E-03    -20.9034E+06    -61.3504E+06    -4.93837E+06     1.02900E+06    -56.0760E-03     109.859E-03    -53.7831E-03     104.936E-03    -56.6256E-03     110.131E-03    -53.6885E-03     104.029E-03
             400     11.9406E-03     67.5464E-03    -19.6103E+06    -30.8058E+06    -5.28000E+06     958.159E+03    -56.2896E-03     110.012E-03    -53.7229E-03     115.716E-03    -57.1205E-03     110.680E-03    -53.6762E-03     114.624E-03
             401     12.7948E-03     67.6675E-03    -18.7151E+06     17.5604E+06    -8.50691E+06     1.03100E+06    -56.6841E-03     110.293E-03    -53.6090E-03     133.477E-03    -58.0421E-03     111.672E-03    -53.6499E-03     132.136E-03
             402     13.6487E-03     67.8119E-03    -17.1278E+06     72.6274E+06     613.032E+03     1.15177E+06    -58.1181E-03     111.650E-03    -53.5314E-03     165.979E-03    -60.5606E-03     114.287E-03    -53.6088E-03     164.337E-03
             403     14.5014E-03     67.9995E-03    -14.9081E+06     115.761E+06     40.8906E+06     1.19507E+06    -61.5588E-03     115.166E-03    -53.6075E-03     226.923E-03    -67.0364E-03     120.883E-03    -53.5493E-03     225.061E-03
             404     15.3591E-03     68.2707E-03    -11.1119E+06     151.707E+06     91.5390E+06     630.025E+03    -65.0134E-03     118.757E-03    -53.7432E-03     287.897E-03    -76.2314E-03     130.208E-03    -53.4893E-03     287.498E-03
             405     16.2080E-03     68.5856E-03    -5.64772E+06     160.293E+06     108.312E+06    -29.2812E+03    -59.8396E-03     113.633E-03    -53.7930E-03     191.177E-03    -68.3937E-03     122.422E-03    -53.4757E-03     192.943E-03
             406     852.902E-06     67.7974E-03    -48.1067E+06    -165.999E+06    -47.4115E+06     33.4905E+03    -53.9266E-03     107.839E-03    -53.9123E-03     9.52483E-03    -53.8591E-03     107.149E-03    -53.8389E-03     9.49262E-03
             407     1.70558E-03     67.8101E-03    -46.8915E+06    -163.656E+06    -43.5667E+06    -78.2454E+03    -53.9539E-03     107.869E-03    -53.9154E-03     17.5351E-03    -53.8923E-03     107.187E-03    -53.8280E-03     17.4727E-03
             408     2.55848E-03     67.8325E-03    -44.9355E+06    -159.973E+06    -37.6808E+06    -7.12784E+03    -54.0158E-03     107.939E-03    -53.9231E-03     25.9701E-03    -53.9638E-03     107.269E-03    -53.8144E-03     25.8760E-03
             409     3.41145E-03     67.8621E-03    -42.6127E+06    -155.889E+06    -31.0514E+06    -83.5735E+03    -54.1282E-03     108.063E-03    -53.9344E-03     34.2991E-03    -54.0884E-03     107.408E-03    -53.8018E-03     34.1663E-03
             410     4.26435E-03     67.9009E-03    -39.8000E+06    -151.226E+06    -23.8081E+06     93.7059E+03    -54.2764E-03     108.226E-03    -53.9498E-03     42.5285E-03    -54.2519E-03     107.593E-03    -53.7918E-03     42.3549E-03
             411     5.11727E-03     67.9472E-03    -36.1461E+06    -146.917E+06    -17.0054E+06     716.622E+03    -54.4362E-03     108.398E-03    -53.9619E-03     50.6410E-03    -54.4265E-03     107.788E-03    -53.7815E-03     50.4252E-03
             412     5.97019E-03     68.0024E-03    -32.3446E+06    -142.618E+06    -10.9683E+06     702.618E+03    -54.6294E-03     108.598E-03    -53.9686E-03     58.5398E-03    -54.6389E-03     108.018E-03    -53.7697E-03     58.2648E-03
             413     6.82318E-03     68.0645E-03    -29.4657E+06    -134.151E+06    -6.65335E+06     555.416E+03    -54.8269E-03     108.788E-03    -53.9610E-03     66.4101E-03    -54.8720E-03     108.271E-03    -53.7570E-03     66.0649E-03
             414     7.67609E-03     68.1353E-03    -27.4416E+06    -123.335E+06    -5.23578E+06     720.491E+03    -55.0362E-03     108.971E-03    -53.9353E-03     74.1343E-03    -55.1313E-03     108.546E-03    -53.7428E-03     73.7113E-03
             415     8.52937E-03     68.2126E-03    -25.5533E+06    -111.811E+06    -4.69805E+06     964.261E+03    -55.2818E-03     109.186E-03    -53.9046E-03     81.6684E-03    -55.4422E-03     108.873E-03    -53.7289E-03     81.1545E-03
             416     9.38198E-03     68.2987E-03    -23.7144E+06    -98.8283E+06    -4.04242E+06     1.06849E+06    -55.4410E-03     109.311E-03    -53.8697E-03     89.2775E-03    -55.6903E-03     109.137E-03    -53.7122E-03     88.6556E-03
             417     10.2358E-03     68.3913E-03    -22.0703E+06    -82.9706E+06    -4.28581E+06     1.08220E+06    -55.6540E-03     109.476E-03    -53.8216E-03     97.2717E-03    -56.0254E-03     109.486E-03    -53.6907E-03     96.5223E-03
             418     11.0881E-03     68.4934E-03    -20.8115E+06    -61.5316E+06    -5.02614E+06     1.02850E+06    -55.8751E-03     109.638E-03    -53.7626E-03     105.071E-03    -56.4224E-03     109.907E-03    -53.6683E-03     104.170E-03
             419     11.9425E-03     68.6008E-03    -19.8086E+06    -30.9235E+06    -5.33846E+06     1.16617E+06    -56.2085E-03     109.902E-03    -53.6934E-03     115.847E-03    -57.0397E-03     110.569E-03    -53.6466E-03     114.760E-03
             420     12.7953E-03     68.7234E-03    -18.7187E+06     17.8382E+06    -8.21173E+06     910.567E+03    -56.9271E-03     110.515E-03    -53.5880E-03     133.223E-03    -58.2886E-03     111.897E-03    -53.6278E-03     131.874E-03
             421     13.6481E-03     68.8667E-03    -18.1855E+06     72.3532E+06     442.887E+03     580.896E+03    -58.4364E-03     111.968E-03    -53.5318E-03     165.447E-03    -60.8946E-03     114.617E-03    -53.6082E-03     163.783E-03
             422     14.5024E-03     69.0551E-03    -15.9179E+06     115.493E+06     39.8633E+06     884.161E+03    -61.7211E-03     115.346E-03    -53.6253E-03     225.316E-03    -67.1607E-03     121.024E-03    -53.5704E-03     223.421E-03
             423     15.3549E-03     69.3211E-03    -11.0726E+06     152.319E+06     91.1368E+06     579.189E+03    -64.3113E-03     118.069E-03    -53.7577E-03     286.177E-03    -75.4888E-03     129.484E-03    -53.5068E-03     285.851E-03
             424     16.2141E-03     69.6451E-03    -5.58981E+06     160.846E+06     108.724E+06     300.494E+03    -59.5932E-03     113.386E-03    -53.7932E-03     190.918E-03    -68.1484E-03     122.178E-03    -53.4747E-03     192.741E-03
             425     852.725E-06     68.8520E-03    -48.1921E+06    -165.980E+06    -47.2977E+06    -51.5231E+03    -53.9116E-03     107.791E-03    -53.8792E-03     9.53686E-03    -53.8447E-03     107.101E-03    -53.8051E-03     9.50356E-03
             426     1.70575E-03     68.8662E-03    -47.0895E+06    -163.773E+06    -43.5714E+06     88.3409E+03    -53.9214E-03     107.811E-03    -53.8901E-03     17.5958E-03    -53.8606E-03     107.128E-03    -53.8022E-03     17.5358E-03
             427     2.55864E-03     68.8872E-03    -45.2674E+06    -160.192E+06    -37.6486E+06     297.051E+03    -53.9954E-03     107.893E-03    -53.8979E-03     25.9654E-03    -53.9447E-03     107.222E-03    -53.7882E-03     25.8754E-03
             428     3.41156E-03     68.9180E-03    -42.8525E+06    -155.898E+06    -30.6896E+06     486.257E+03    -54.1395E-03     108.055E-03    -53.9158E-03     34.2789E-03    -54.1014E-03     107.401E-03    -53.7811E-03     34.1536E-03
             429     4.26434E-03     68.9560E-03    -40.0616E+06    -151.246E+06    -23.5954E+06     247.040E+03    -54.3051E-03     108.244E-03    -53.9390E-03     42.5086E-03    -54.2823E-03     107.611E-03    -53.7796E-03     42.3367E-03
             430     5.11722E-03     69.0031E-03    -36.6333E+06    -146.920E+06    -17.1529E+06    -222.901E+03    -54.4404E-03     108.396E-03    -53.9551E-03     50.6420E-03    -54.4329E-03     107.786E-03    -53.7747E-03     50.4141E-03
             431     5.97024E-03     69.0574E-03    -32.9991E+06    -143.052E+06    -11.1698E+06     193.942E+03    -54.5906E-03     108.552E-03    -53.9614E-03     58.5701E-03    -54.6024E-03     107.971E-03    -53.7620E-03     58.2889E-03
             432     6.82318E-03     69.1203E-03    -30.0525E+06    -134.978E+06    -6.92725E+06     1.08886E+06    -54.8014E-03     108.752E-03    -53.9510E-03     66.4083E-03    -54.8478E-03     108.233E-03    -53.7463E-03     66.0702E-03
             433     7.67641E-03     69.1902E-03    -27.7117E+06    -123.379E+06    -5.33876E+06     1.41042E+06    -55.0709E-03     108.997E-03    -53.9262E-03     74.0909E-03    -55.1671E-03     108.572E-03    -53.7338E-03     73.6765E-03
             434     8.52906E-03     69.2686E-03    -25.8422E+06    -111.979E+06    -4.74485E+06     1.21526E+06    -55.2772E-03     109.176E-03    -53.8988E-03     81.6035E-03    -55.4387E-03     108.862E-03    -53.7227E-03     81.0929E-03
             435     9.38252E-03     69.3536E-03    -24.1012E+06    -98.8466E+06    -4.18499E+06     1.11943E+06    -55.5037E-03     109.370E-03    -53.8667E-03     89.3004E-03    -55.7553E-03     109.198E-03    -53.7094E-03     88.6778E-03
             436     10.2350E-03     69.4469E-03    -22.3537E+06    -83.1772E+06    -4.53857E+06     1.10419E+06    -55.6109E-03     109.431E-03    -53.8197E-03     97.1497E-03    -55.9824E-03     109.441E-03    -53.6894E-03     96.4017E-03
             437     11.0894E-03     69.5480E-03    -20.9861E+06    -61.8556E+06    -5.17757E+06     1.23734E+06    -55.6679E-03     109.421E-03    -53.7529E-03     104.705E-03    -56.2117E-03     109.686E-03    -53.6587E-03     103.813E-03
             438     11.9419E-03     69.6560E-03    -19.8777E+06    -30.8160E+06    -5.32836E+06     1.13946E+06    -56.3121E-03     109.994E-03    -53.6818E-03     115.497E-03    -57.1429E-03     110.660E-03    -53.6349E-03     114.408E-03
             439     12.7951E-03     69.7793E-03    -19.8437E+06     17.9529E+06    -8.70370E+06     1.10103E+06    -57.0934E-03     110.680E-03    -53.5869E-03     132.728E-03    -58.4550E-03     112.060E-03    -53.6277E-03     131.381E-03
             440     13.6484E-03     69.9220E-03    -19.0920E+06     72.9500E+06     606.045E+03     928.223E+03    -58.6179E-03     112.164E-03    -53.5459E-03     165.135E-03    -61.0811E-03     114.816E-03    -53.6210E-03     163.468E-03
             441     14.5009E-03     70.1101E-03    -15.7252E+06     115.861E+06     40.9862E+06     80.5110E+03    -62.6234E-03     116.299E-03    -53.6759E-03     224.895E-03    -68.0708E-03     121.983E-03    -53.6162E-03     222.926E-03
             442     15.3549E-03     70.3770E-03    -10.9169E+06     151.799E+06     91.0407E+06     147.520E+03    -65.2786E-03     119.139E-03    -53.8599E-03     284.690E-03    -76.4212E-03     130.517E-03    -53.6090E-03     284.291E-03
             443     16.2049E-03     70.6941E-03    -5.05357E+06     160.788E+06     108.188E+06     806.592E+03    -58.2546E-03     112.140E-03    -53.8858E-03     192.072E-03    -66.8228E-03     120.948E-03    -53.5707E-03     193.986E-03
             444     853.008E-06     69.9085E-03    -48.5801E+06    -166.368E+06    -47.5660E+06     183.347E+03    -53.8834E-03     107.688E-03    -53.8049E-03     9.57860E-03    -53.8175E-03     106.997E-03    -53.7311E-03     9.54851E-03
             445     1.70576E-03     69.9207E-03    -47.4082E+06    -164.098E+06    -43.7253E+06     407.229E+03    -53.9399E-03     107.794E-03    -53.8537E-03     17.5330E-03    -53.8800E-03     107.110E-03    -53.7657E-03     17.4770E-03
             446     2.55867E-03     69.9434E-03    -45.3893E+06    -160.430E+06    -37.7915E+06     594.818E+03    -54.0272E-03     107.910E-03    -53.8832E-03     25.8983E-03    -53.9766E-03     107.239E-03    -53.7737E-03     25.8118E-03
             447     3.41146E-03     69.9728E-03    -42.7656E+06    -156.275E+06    -31.2738E+06     674.380E+03    -54.1236E-03     108.029E-03    -53.9055E-03     34.2670E-03    -54.0837E-03     107.373E-03    -53.7732E-03     34.1442E-03
             448     4.26447E-03     70.0120E-03    -39.6340E+06    -150.785E+06    -23.2282E+06     467.671E+03    -54.2602E-03     108.187E-03    -53.9270E-03     42.5625E-03    -54.2363E-03     107.555E-03    -53.7670E-03     42.3941E-03
             449     5.11737E-03     70.0580E-03    -36.8301E+06    -146.492E+06    -16.4129E+06     156.341E+03    -54.4257E-03     108.368E-03    -53.9427E-03     50.6480E-03    -54.4209E-03     107.760E-03    -53.7590E-03     50.4252E-03
             450     5.97027E-03     70.1132E-03    -34.4659E+06    -144.141E+06    -11.9715E+06     312.126E+03    -54.6000E-03     108.548E-03    -53.9476E-03     58.5684E-03    -54.6165E-03     107.965E-03    -53.7485E-03     58.2886E-03
             451     6.82344E-03     70.1751E-03    -31.3984E+06    -135.988E+06    -7.39196E+06     907.292E+03    -54.8434E-03     108.787E-03    -53.9440E-03     66.4055E-03    -54.8944E-03     108.266E-03    -53.7382E-03     66.0648E-03
             452     7.67611E-03     70.2462E-03    -28.2103E+06    -123.712E+06    -5.33347E+06     1.39735E+06    -55.0563E-03     108.979E-03    -53.9224E-03     74.0708E-03    -55.1544E-03     108.553E-03    -53.7288E-03     73.6568E-03
             453     8.52941E-03     70.3236E-03    -25.7192E+06    -111.918E+06    -4.47363E+06     1.50697E+06    -55.2473E-03     109.141E-03    -53.8934E-03     81.5573E-03    -55.4084E-03     108.826E-03    -53.7162E-03     81.0510E-03
             454     9.38227E-03     70.4091E-03    -23.6523E+06    -98.5919E+06    -3.60714E+06     1.25197E+06    -55.5204E-03     109.382E-03    -53.8619E-03     89.3313E-03    -55.7708E-03     109.209E-03    -53.7027E-03     88.7106E-03
             455     10.2358E-03     70.5025E-03    -22.4756E+06    -83.3149E+06    -4.41946E+06     1.19283E+06    -55.7022E-03     109.522E-03    -53.8196E-03     96.8159E-03    -56.0743E-03     109.531E-03    -53.6883E-03     96.0671E-03
             456     11.0881E-03     70.6022E-03    -21.0329E+06    -62.2189E+06    -5.12700E+06     1.25992E+06    -55.9808E-03     109.750E-03    -53.7692E-03     104.525E-03    -56.5265E-03     110.015E-03    -53.6741E-03     103.625E-03
             457     11.9421E-03     70.7121E-03    -20.0780E+06    -30.9050E+06    -5.28062E+06     1.18292E+06    -56.4043E-03     110.117E-03    -53.7123E-03     115.344E-03    -57.2354E-03     110.782E-03    -53.6648E-03     114.254E-03
             458     12.7947E-03     70.8345E-03    -19.1682E+06     17.8520E+06    -8.16843E+06     1.05815E+06    -56.9323E-03     110.548E-03    -53.6156E-03     132.360E-03    -58.2829E-03     111.917E-03    -53.6545E-03     131.019E-03
             459     13.6479E-03     70.9774E-03    -17.3203E+06     73.5844E+06     1.72164E+06     865.802E+03    -58.8226E-03     112.397E-03    -53.5739E-03     165.213E-03    -61.2730E-03     115.042E-03    -53.6469E-03     163.538E-03
             460     14.5013E-03     71.1665E-03    -15.4370E+06     116.744E+06     42.0727E+06     452.176E+03    -62.7360E-03     116.446E-03    -53.7105E-03     225.542E-03    -68.1993E-03     122.147E-03    -53.6470E-03     223.593E-03
             461     15.3520E-03     71.4336E-03    -12.1716E+06     151.212E+06     90.8687E+06     518.502E+03    -65.4459E-03     119.334E-03    -53.8884E-03     286.761E-03    -76.6477E-03     130.766E-03    -53.6357E-03     286.335E-03
             462     16.2076E-03     71.7504E-03    -6.78240E+06     160.685E+06     107.503E+06     306.237E+03    -58.2314E-03     112.132E-03    -53.9007E-03     194.438E-03    -66.8762E-03     121.012E-03    -53.5864E-03     196.343E-03
             463     852.888E-06     70.9626E-03    -48.7504E+06    -166.830E+06    -48.0141E+06     352.669E+03    -53.8973E-03     107.689E-03    -53.7920E-03     9.51927E-03    -53.8309E-03     106.997E-03    -53.7195E-03     9.49141E-03
             464     1.70582E-03     70.9771E-03    -47.5366E+06    -164.628E+06    -44.4425E+06     526.373E+03    -53.9411E-03     107.793E-03    -53.8520E-03     17.5078E-03    -53.8800E-03     107.108E-03    -53.7665E-03     17.4534E-03
             465     2.55859E-03     70.9979E-03    -45.5616E+06    -160.870E+06    -38.3976E+06     636.040E+03    -54.0135E-03     107.893E-03    -53.8796E-03     25.9224E-03    -53.9622E-03     107.220E-03    -53.7722E-03     25.8366E-03
             466     3.41158E-03     71.0290E-03    -42.7828E+06    -156.383E+06    -31.4496E+06     563.841E+03    -54.0943E-03     107.993E-03    -53.8982E-03     34.2618E-03    -54.0540E-03     107.336E-03    -53.7667E-03     34.1377E-03
             467     4.26448E-03     71.0666E-03    -39.8340E+06    -150.900E+06    -23.0413E+06     661.463E+03    -54.2095E-03     108.125E-03    -53.9153E-03     42.5554E-03    -54.1867E-03     107.492E-03    -53.7540E-03     42.3900E-03
             468     5.11746E-03     71.1142E-03    -36.8134E+06    -146.863E+06    -16.3639E+06     1.04464E+06    -54.4013E-03     108.328E-03    -53.9262E-03     50.5959E-03    -54.3959E-03     107.717E-03    -53.7417E-03     50.3847E-03
             469     5.97050E-03     71.1678E-03    -33.9308E+06    -144.254E+06    -11.8702E+06     1.11108E+06    -54.6639E-03     108.599E-03    -53.9351E-03     58.5217E-03    -54.6778E-03     108.015E-03    -53.7360E-03     58.2516E-03
             470     6.82317E-03     71.2314E-03    -31.2795E+06    -136.319E+06    -7.40819E+06     771.087E+03    -54.8491E-03     108.787E-03    -53.9377E-03     66.4295E-03    -54.8990E-03     108.263E-03    -53.7317E-03     66.0871E-03
             471     7.67640E-03     71.3009E-03     -28.587E+06    -124.570E+06    -5.61116E+06     976.332E+03    -55.0340E-03     108.950E-03    -53.9161E-03     74.0778E-03    -55.1321E-03     108.521E-03    -53.7221E-03     73.6590E-03
             472     8.52936E-03     71.3793E-03    -25.8537E+06    -111.881E+06    -4.46618E+06     1.36136E+06    -55.3273E-03     109.218E-03    -53.8903E-03     81.5171E-03    -55.4893E-03     108.904E-03    -53.7130E-03     81.0080E-03
             473     9.38243E-03     71.4644E-03    -24.0586E+06    -98.5594E+06    -3.45242E+06     1.31766E+06    -55.5390E-03     109.405E-03    -53.8656E-03     89.0956E-03    -55.7913E-03     109.232E-03    -53.7051E-03     88.4755E-03
             474     10.2352E-03     71.5577E-03    -21.9247E+06    -83.2858E+06    -3.86496E+06     1.17600E+06    -55.8513E-03     109.683E-03    -53.8314E-03     96.6551E-03    -56.2219E-03     109.691E-03    -53.6981E-03     95.9030E-03
             475     11.0888E-03     71.6582E-03    -20.8138E+06    -62.0593E+06    -4.86824E+06     1.14984E+06    -56.2377E-03     110.032E-03    -53.7945E-03     104.675E-03    -56.7860E-03     110.300E-03    -53.6987E-03     103.767E-03
             476     11.9404E-03     71.7677E-03    -19.6189E+06    -31.2690E+06    -5.01924E+06     1.24335E+06    -56.3420E-03     110.085E-03    -53.7429E-03     115.528E-03    -57.1691E-03     110.746E-03    -53.6942E-03     114.441E-03
             477     12.7943E-03     71.8892E-03    -18.0116E+06     18.1831E+06    -7.56520E+06     744.307E+03    -56.9532E-03     110.594E-03    -53.6404E-03     132.950E-03    -58.3052E-03     111.968E-03    -53.6785E-03     131.600E-03
             478     13.6476E-03     72.0335E-03    -17.7374E+06     73.6666E+06     1.04412E+06     782.190E+03    -58.6345E-03     112.219E-03    -53.5848E-03     166.056E-03    -61.0856E-03     114.866E-03    -53.6607E-03     164.392E-03
             479     14.4996E-03     72.2226E-03    -16.3069E+06     116.038E+06     39.7575E+06     1.53614E+06    -62.0177E-03     115.700E-03    -53.6823E-03     226.680E-03    -67.5032E-03     121.424E-03    -53.6281E-03     224.794E-03
             480     15.3566E-03     72.4883E-03    -11.7146E+06     151.768E+06     90.4203E+06     1.13514E+06    -64.8879E-03     118.715E-03    -53.8268E-03     287.113E-03    -76.0871E-03     130.149E-03    -53.5778E-03     286.734E-03
             481     16.2098E-03     72.8071E-03    -5.44209E+06     161.857E+06     109.043E+06     216.392E+03    -58.8491E-03     112.701E-03    -53.8523E-03     192.317E-03    -67.4241E-03     121.516E-03    -53.5339E-03     194.170E-03
             482     852.827E-06     72.0192E-03    -49.2194E+06    -167.392E+06    -48.5259E+06     247.396E+03    -53.9141E-03     107.747E-03    -53.8329E-03     9.56649E-03    -53.8485E-03     107.053E-03    -53.7614E-03     9.53732E-03
             483     1.70570E-03     72.0314E-03    -48.0056E+06    -165.121E+06    -44.8743E+06     394.185E+03    -53.8958E-03     107.762E-03    -53.8660E-03     17.5583E-03    -53.8358E-03     107.075E-03    -53.7813E-03     17.5023E-03
             484     2.55871E-03     72.0543E-03    -45.8198E+06    -161.139E+06    -38.6224E+06     500.681E+03    -53.9779E-03     107.852E-03    -53.8741E-03     25.9280E-03    -53.9272E-03     107.179E-03    -53.7671E-03     25.8406E-03
             485     3.41156E-03     72.0835E-03    -43.2938E+06    -156.653E+06    -31.4625E+06       678.3E+03    -54.0899E-03     107.980E-03    -53.8901E-03     34.2404E-03    -54.0518E-03     107.323E-03    -53.7575E-03     34.1177E-03
             486     4.26452E-03     72.1229E-03    -40.4194E+06    -151.494E+06    -23.4706E+06     1.04843E+06    -54.2060E-03     108.113E-03    -53.9073E-03     42.4872E-03    -54.1845E-03     107.479E-03    -53.7464E-03     42.3267E-03
             487     5.11757E-03     72.1686E-03    -37.2606E+06    -147.530E+06    -17.0260E+06     1.28529E+06    -54.3919E-03     108.309E-03    -53.9175E-03     50.5855E-03    -54.3867E-03     107.698E-03    -53.7347E-03     50.3775E-03
             488     5.97036E-03     72.2243E-03    -33.9767E+06    -144.153E+06    -11.7388E+06     1.34888E+06    -54.6340E-03     108.561E-03    -53.9268E-03     58.5761E-03    -54.6482E-03     107.977E-03    -53.7272E-03     58.3099E-03
             489     6.82347E-03     72.2859E-03    -31.0432E+06    -135.959E+06    -6.98669E+06     1.13661E+06    -54.8551E-03     108.785E-03    -53.9296E-03     66.3872E-03    -54.9049E-03     108.262E-03    -53.7224E-03     66.0496E-03
             490     7.67643E-03     72.3569E-03    -28.3660E+06    -124.580E+06    -5.32179E+06     941.125E+03    -55.1232E-03     109.037E-03    -53.9142E-03     74.0208E-03    -55.2208E-03     108.607E-03    -53.7190E-03     73.6003E-03
             491     8.52928E-03     72.4345E-03    -26.2743E+06    -112.786E+06    -4.96443E+06     1.06894E+06    -55.3680E-03     109.262E-03    -53.8938E-03     81.4928E-03    -55.5300E-03     108.945E-03    -53.7170E-03     80.9797E-03
             492     9.38211E-03     72.5201E-03    -24.0511E+06    -98.5661E+06    -3.54270E+06     1.11018E+06    -55.6110E-03     109.485E-03    -53.8740E-03     89.0745E-03    -55.8635E-03     109.312E-03    -53.7139E-03     88.4502E-03
             493     10.2354E-03     72.6128E-03    -22.4835E+06    -83.3461E+06    -3.95469E+06     1.06997E+06    -55.9368E-03     109.783E-03    -53.8460E-03     96.9577E-03    -56.3112E-03     109.793E-03    -53.7123E-03     96.2022E-03
             494     11.0874E-03     72.7144E-03    -20.5901E+06    -61.9297E+06    -4.69075E+06     1.12488E+06    -56.0715E-03     109.876E-03    -53.8041E-03     104.942E-03    -56.6180E-03     110.143E-03    -53.7079E-03     104.038E-03
             495     11.9419E-03     72.8226E-03    -19.3472E+06    -31.3928E+06    -4.90958E+06     1.00498E+06    -56.2317E-03     109.973E-03    -53.7408E-03     115.688E-03    -57.0579E-03     110.633E-03    -53.6918E-03     114.599E-03
             496     12.7947E-03     72.9449E-03    -19.3263E+06     17.6247E+06    -8.66502E+06     1.33328E+06    -56.8622E-03     110.489E-03    -53.6263E-03     133.874E-03    -58.2249E-03     111.870E-03    -53.6672E-03     132.534E-03
             497     13.6472E-03     73.0897E-03    -18.8527E+06     73.5776E+06    -327.670E+03     1.40235E+06    -58.2026E-03     111.753E-03    -53.5506E-03     166.453E-03    -60.6576E-03     114.403E-03    -53.6316E-03     164.816E-03
             498     14.5036E-03     73.2759E-03    -16.7614E+06     115.932E+06     38.8671E+06     956.052E+03    -61.8540E-03     115.488E-03    -53.6338E-03     226.438E-03    -67.3456E-03     121.219E-03    -53.5832E-03     224.541E-03
             499     15.3545E-03     73.5452E-03    -11.6316E+06     152.470E+06     90.4389E+06     551.693E+03    -65.3951E-03     119.192E-03    -53.7966E-03     286.471E-03    -76.6125E-03     130.647E-03    -53.5487E-03     286.026E-03
             500     16.2078E-03     73.8604E-03    -5.34292E+06     162.188E+06     109.113E+06     243.502E+03    -59.0459E-03     112.896E-03    -53.8497E-03     191.228E-03    -67.6103E-03     121.700E-03    -53.5315E-03     193.022E-03
             501     852.862E-06     73.0732E-03    -49.7724E+06    -167.833E+06    -48.8538E+06     107.364E+03    -53.8958E-03     107.732E-03    -53.8363E-03     9.52041E-03    -53.8319E-03     107.037E-03    -53.7651E-03     9.48902E-03
             502     1.70579E-03     73.0879E-03    -48.3579E+06    -165.367E+06    -44.9832E+06     275.437E+03    -53.8994E-03     107.761E-03    -53.8621E-03     17.5649E-03    -53.8406E-03     107.074E-03    -53.7771E-03     17.5074E-03
             503     2.55865E-03     73.1086E-03    -46.3781E+06    -161.670E+06    -39.0422E+06     436.190E+03    -53.9662E-03     107.837E-03    -53.8705E-03     25.9147E-03    -53.9169E-03     107.162E-03    -53.7640E-03     25.8265E-03
             504     3.41163E-03     73.1398E-03    -43.7268E+06    -157.394E+06    -32.3139E+06     891.776E+03    -54.0740E-03     107.956E-03    -53.8820E-03     34.2189E-03    -54.0358E-03     107.297E-03    -53.7520E-03     34.0992E-03
             505     4.26455E-03     73.1772E-03    -40.6973E+06    -152.091E+06    -24.1873E+06     1.23209E+06    -54.2237E-03     108.124E-03    -53.9004E-03     42.4876E-03    -54.2018E-03     107.488E-03    -53.7418E-03     42.3294E-03
             506     5.11741E-03     73.2249E-03    -37.3691E+06    -147.925E+06    -17.5598E+06     1.36174E+06    -54.4051E-03     108.319E-03    -53.9142E-03     50.6079E-03    -54.3991E-03     107.706E-03    -53.7333E-03     50.4009E-03
             507     5.97058E-03     73.2787E-03    -34.3282E+06    -144.589E+06    -12.1223E+06     1.42739E+06    -54.5974E-03     108.521E-03    -53.9236E-03     58.4954E-03    -54.6122E-03     107.936E-03    -53.7248E-03     58.2302E-03
             508     6.82350E-03     73.3421E-03    -31.3532E+06    -135.491E+06    -6.85698E+06     1.43106E+06    -54.8858E-03     108.813E-03    -53.9276E-03     66.3584E-03    -54.9379E-03     108.293E-03    -53.7200E-03     66.0247E-03
             509     7.67620E-03     73.4119E-03    -28.7073E+06    -124.343E+06    -5.37362E+06     957.168E+03    -55.1495E-03     109.065E-03    -53.9153E-03     74.0578E-03    -55.2491E-03     108.637E-03    -53.7203E-03     73.6374E-03
             510     8.52923E-03     73.4904E-03    -25.9854E+06    -113.067E+06    -4.93779E+06     791.229E+03    -55.3449E-03     109.240E-03    -53.8951E-03     81.5820E-03    -55.5049E-03     108.921E-03    -53.7181E-03     81.0662E-03
             511     9.38243E-03     73.5751E-03    -23.9559E+06     -99.284E+06    -3.97391E+06     1.07452E+06    -55.6296E-03     109.502E-03    -53.8726E-03     89.3143E-03    -55.8802E-03     109.327E-03    -53.7138E-03     88.6898E-03
             512     10.2348E-03     73.6690E-03    -22.2968E+06    -82.9052E+06    -3.75715E+06     1.06584E+06    -55.8019E-03     109.642E-03    -53.8401E-03     97.2571E-03    -56.1763E-03     109.654E-03    -53.7064E-03     96.5042E-03
             513     11.0889E-03     73.7693E-03    -21.2296E+06    -62.2715E+06    -5.09907E+06     1.10642E+06    -55.8632E-03     109.647E-03    -53.7838E-03     105.150E-03    -56.4102E-03     109.912E-03    -53.6883E-03     104.252E-03
             514     11.9410E-03     73.8781E-03    -20.3507E+06    -31.6455E+06    -5.63130E+06     1.24920E+06    -56.2285E-03     109.941E-03    -53.7121E-03     115.984E-03    -57.0614E-03     110.605E-03    -53.6649E-03     114.898E-03
             515     12.7946E-03     74.0000E-03    -19.3728E+06     17.6298E+06    -8.47760E+06     1.91365E+06    -56.7085E-03     110.306E-03    -53.5975E-03     133.574E-03    -58.0689E-03     111.685E-03    -53.6373E-03     132.248E-03
             516     13.6498E-03     74.1443E-03    -18.7808E+06     73.0633E+06      -6.724E+03     1.77437E+06    -58.3255E-03     111.852E-03    -53.5265E-03     165.642E-03    -60.7802E-03     114.499E-03    -53.6052E-03     163.999E-03
             517     14.5005E-03     74.3315E-03    -16.8316E+06     117.131E+06     40.4062E+06     719.262E+03    -62.1114E-03     115.742E-03    -53.6309E-03     225.479E-03    -67.5679E-03     121.438E-03    -53.5743E-03     223.560E-03
             518     15.3566E-03     74.6000E-03    -12.3574E+06     153.605E+06     91.4390E+06     238.199E+03    -65.0873E-03     118.876E-03    -53.7891E-03     287.789E-03    -76.3612E-03     130.387E-03    -53.5367E-03     287.401E-03
             519     16.2086E-03     74.9198E-03    -5.79143E+06     162.451E+06     108.998E+06    -73.1552E+03    -59.3086E-03     113.134E-03    -53.8250E-03     192.504E-03    -67.9517E-03     122.017E-03    -53.5072E-03     194.323E-03
             520     852.915E-06     74.1299E-03    -50.0052E+06    -168.105E+06    -49.2100E+06     122.633E+03    -53.8800E-03     107.704E-03    -53.8239E-03     9.53136E-03    -53.8163E-03     107.009E-03    -53.7536E-03     9.50037E-03
             521     1.70574E-03     74.1422E-03    -48.8058E+06    -165.732E+06    -45.2670E+06     266.149E+03    -53.9186E-03     107.774E-03    -53.8552E-03     17.5295E-03    -53.8611E-03     107.086E-03    -53.7705E-03     17.4719E-03
             522     2.55868E-03     74.1649E-03    -46.7558E+06    -162.224E+06    -39.6852E+06     471.695E+03    -53.9637E-03     107.832E-03    -53.8686E-03     25.8870E-03    -53.9146E-03     107.156E-03    -53.7640E-03     25.7992E-03
             523     3.41158E-03     74.1942E-03    -44.1122E+06    -158.242E+06    -33.4638E+06     652.737E+03    -54.0651E-03     107.942E-03    -53.8766E-03     34.2191E-03    -54.0259E-03     107.281E-03    -53.7506E-03     34.0963E-03
             524     4.26458E-03     74.2335E-03    -40.8694E+06    -152.809E+06    -25.1518E+06     1.13059E+06    -54.2364E-03     108.132E-03    -53.8956E-03     42.4932E-03    -54.2129E-03     107.494E-03    -53.7405E-03     42.3336E-03
             525     5.11758E-03     74.2795E-03    -37.8081E+06    -148.428E+06    -17.9642E+06     1.57822E+06    -54.4348E-03     108.351E-03    -53.9160E-03     50.5620E-03    -54.4298E-03     107.737E-03    -53.7357E-03     50.3574E-03
             526     5.97032E-03     74.3348E-03    -34.7098E+06    -144.642E+06    -11.9919E+06     1.59221E+06    -54.6427E-03     108.575E-03    -53.9327E-03     58.4398E-03    -54.6596E-03     107.990E-03    -53.7326E-03     58.1761E-03
             527     6.82332E-03     74.3968E-03    -31.2473E+06    -135.494E+06    -6.66124E+06     1.12451E+06    -54.8341E-03     108.770E-03    -53.9354E-03     66.4210E-03    -54.8859E-03     108.249E-03    -53.7269E-03     66.0840E-03
             528     7.67646E-03     74.4682E-03    -27.8347E+06    -124.205E+06    -5.02165E+06     768.803E+03    -55.0542E-03     108.968E-03    -53.9133E-03     74.0834E-03    -55.1498E-03     108.538E-03    -53.7180E-03     73.6621E-03
             529     8.52941E-03     74.5450E-03    -25.6855E+06    -113.755E+06    -5.07472E+06     936.321E+03    -55.2921E-03     109.177E-03    -53.8847E-03     81.6756E-03    -55.4494E-03     108.854E-03    -53.7079E-03     81.1622E-03
             530     9.38213E-03     74.6314E-03    -23.8399E+06    -99.5974E+06     -4.1277E+06     1.19913E+06    -55.5290E-03     109.384E-03    -53.8549E-03     89.5843E-03    -55.7776E-03     109.206E-03    -53.6966E-03     88.9645E-03
             531     10.2358E-03     74.7237E-03    -22.2583E+06    -82.8437E+06    -3.95017E+06     1.13892E+06    -55.7412E-03     109.557E-03    -53.8160E-03     97.1509E-03    -56.1148E-03     109.569E-03    -53.6834E-03     96.4001E-03
             532     11.0883E-03     74.8248E-03    -21.0800E+06    -62.5234E+06    -5.01334E+06     1.02316E+06    -55.8958E-03     109.659E-03    -53.7631E-03     104.714E-03    -56.4412E-03     109.922E-03    -53.6669E-03     103.813E-03
             533     11.9427E-03     74.9331E-03    -19.9220E+06    -31.8041E+06    -5.47283E+06     1.51257E+06    -56.2820E-03     109.979E-03    -53.6973E-03     115.606E-03    -57.1115E-03     110.641E-03    -53.6497E-03     114.523E-03
             534     12.7956E-03     75.0560E-03    -18.8731E+06     17.1835E+06    -8.15674E+06     1.77474E+06    -56.8655E-03     110.460E-03    -53.5946E-03     132.599E-03    -58.2178E-03     111.830E-03    -53.6330E-03     131.266E-03
             535     13.6472E-03     75.1983E-03    -17.1709E+06     73.5749E+06     1.09591E+06     1.99377E+06    -58.4865E-03     112.022E-03    -53.5358E-03     165.752E-03    -60.9339E-03     114.667E-03    -53.6121E-03     164.106E-03
             536     14.5025E-03     75.3891E-03    -14.8210E+06     118.498E+06     41.3942E+06     2.01794E+06    -62.0032E-03     115.642E-03    -53.6384E-03     225.464E-03    -67.4352E-03     121.322E-03    -53.5818E-03     223.577E-03
             537     15.3544E-03     75.6520E-03    -10.9712E+06     154.922E+06     92.2606E+06     693.676E+03    -64.6257E-03     118.410E-03    -53.7843E-03     286.983E-03    -75.8905E-03     129.918E-03    -53.5317E-03     286.648E-03
             538     16.2123E-03     75.9759E-03    -5.76898E+06     162.326E+06     108.800E+06    -237.770E+03    -59.3472E-03     113.158E-03    -53.8111E-03     192.419E-03    -68.0017E-03     122.053E-03    -53.4941E-03     194.238E-03
             539     852.869E-06     75.1841E-03    -50.4473E+06    -168.476E+06    -49.4204E+06     117.747E+03    -53.8948E-03     107.712E-03    -53.8167E-03     9.53660E-03    -53.8324E-03     107.015E-03    -53.7464E-03     9.50582E-03
             540     1.70579E-03     75.1986E-03    -49.0504E+06    -166.119E+06    -45.7332E+06     332.130E+03    -53.9001E-03     107.754E-03    -53.8537E-03     17.5251E-03    -53.8425E-03     107.065E-03    -53.7703E-03     17.4683E-03
             541     2.55863E-03     75.2194E-03    -47.0311E+06    -162.548E+06    -40.0135E+06     433.140E+03    -53.9730E-03     107.838E-03    -53.8651E-03     25.8748E-03    -53.9243E-03     107.161E-03    -53.7613E-03     25.7864E-03
             542     3.41166E-03     75.2503E-03    -44.5809E+06    -158.515E+06    -33.5536E+06     550.012E+03    -54.1015E-03     107.982E-03    -53.8810E-03     34.2146E-03    -54.0640E-03     107.321E-03    -53.7543E-03     34.0903E-03
             543     4.26450E-03     75.2881E-03    -41.7514E+06    -153.821E+06    -26.0962E+06     896.264E+03    -54.2552E-03     108.158E-03    -53.9029E-03     42.4640E-03    -54.2333E-03     107.518E-03    -53.7498E-03     42.3010E-03
             544     5.11738E-03     75.3355E-03    -38.2143E+06    -149.313E+06    -19.0004E+06     1.46055E+06    -54.4237E-03     108.345E-03    -53.9214E-03     50.5542E-03    -54.4179E-03     107.729E-03    -53.7445E-03     50.3482E-03
             545     5.97042E-03     75.3897E-03    -34.5052E+06    -144.261E+06    -12.1884E+06     1.28847E+06    -54.6406E-03     108.578E-03    -53.9370E-03     58.5535E-03    -54.6568E-03     107.995E-03    -53.7387E-03     58.2862E-03
             546     6.82329E-03     75.4528E-03    -31.2965E+06    -135.017E+06    -6.75985E+06     810.372E+03    -54.8036E-03     108.741E-03    -53.9375E-03     66.4088E-03    -54.8561E-03     108.223E-03    -53.7301E-03     66.0679E-03
             547     7.67636E-03     75.5227E-03    -28.9059E+06    -124.744E+06    -5.71798E+06     855.320E+03    -54.9647E-03     108.873E-03    -53.9088E-03     74.0829E-03    -55.0637E-03     108.444E-03    -53.7146E-03     73.6637E-03
             548     8.52942E-03     75.6012E-03    -26.6822E+06    -114.515E+06    -5.83941E+06     830.469E+03    -55.1799E-03     109.051E-03    -53.8709E-03     81.5837E-03    -55.3397E-03     108.726E-03    -53.6953E-03     81.0701E-03
             549     9.38300E-03     75.6857E-03    -24.3710E+06    -99.8384E+06    -4.66020E+06     1.00420E+06    -55.4184E-03     109.251E-03    -53.8323E-03     89.4918E-03    -55.6677E-03     109.073E-03    -53.6755E-03     88.8716E-03
             550     10.2355E-03     75.7800E-03    -22.2645E+06    -82.9050E+06    -4.09443E+06     995.323E+03    -55.8405E-03     109.636E-03    -53.7954E-03     97.1926E-03    -56.2140E-03     109.648E-03    -53.6633E-03     96.4389E-03
             551     11.0889E-03     75.8796E-03    -20.7629E+06    -62.3080E+06    -4.71941E+06     1.09671E+06    -56.1506E-03     109.910E-03    -53.7592E-03     104.484E-03    -56.6974E-03     110.175E-03    -53.6623E-03     103.577E-03
             552     11.9410E-03     75.9886E-03    -19.4913E+06    -32.8027E+06    -5.51907E+06     1.28228E+06    -56.2827E-03     109.986E-03    -53.7036E-03     115.542E-03    -57.1063E-03     110.640E-03    -53.6553E-03     114.457E-03
             553     12.7941E-03     76.1111E-03    -18.2699E+06     16.3852E+06    -8.72028E+06     1.41390E+06    -56.8674E-03     110.463E-03    -53.5960E-03     133.072E-03    -58.2156E-03     111.830E-03    -53.6369E-03     131.736E-03
             554     13.6490E-03     76.2541E-03    -17.3579E+06     73.5841E+06     993.017E+03     1.95242E+06    -58.2880E-03     111.819E-03    -53.5313E-03     166.067E-03    -60.7349E-03     114.463E-03    -53.6078E-03     164.435E-03
             555     14.5012E-03     76.4432E-03    -15.1197E+06     118.859E+06     41.6150E+06     1.67352E+06    -62.0773E-03     115.707E-03    -53.6295E-03     225.948E-03    -67.5412E-03     121.418E-03    -53.5719E-03     224.049E-03
             556     15.3564E-03     76.7086E-03    -10.6386E+06     156.156E+06     92.5830E+06     1.15850E+06    -65.9029E-03     119.716E-03    -53.8127E-03     286.085E-03    -77.1304E-03     131.191E-03    -53.5608E-03     285.608E-03
             557     16.2061E-03     77.0282E-03    -5.27622E+06     163.210E+06     109.432E+06     689.021E+03    -58.9148E-03     112.785E-03    -53.8703E-03     191.744E-03    -67.5199E-03     121.634E-03    -53.5521E-03     193.543E-03
             558     852.856E-06     76.2406E-03    -50.4832E+06    -168.709E+06    -49.7041E+06     319.094E+03    -53.8652E-03     107.705E-03    -53.8393E-03     9.53070E-03    -53.8023E-03     107.008E-03    -53.7700E-03     9.50251E-03
             559     1.70574E-03     76.2529E-03    -49.4927E+06    -166.639E+06    -46.2383E+06     274.905E+03    -53.8927E-03     107.741E-03    -53.8486E-03     17.5192E-03    -53.8359E-03     107.051E-03    -53.7664E-03     17.4616E-03
             560     2.55877E-03     76.2755E-03    -47.5081E+06    -162.920E+06    -40.2411E+06     554.324E+03    -54.0049E-03     107.871E-03    -53.8661E-03     25.8803E-03    -53.9577E-03     107.193E-03    -53.7621E-03     25.7933E-03
             561     3.41149E-03     76.3049E-03    -45.0972E+06    -158.840E+06    -33.6418E+06     802.003E+03    -54.1353E-03     108.027E-03    -53.8913E-03     34.2115E-03    -54.0999E-03     107.365E-03    -53.7638E-03     34.0903E-03
             562     4.26445E-03     76.3442E-03    -42.3262E+06    -154.472E+06    -26.8013E+06     908.335E+03    -54.2419E-03     108.153E-03    -53.9116E-03     42.4991E-03    -54.2209E-03     107.512E-03    -53.7602E-03     42.3364E-03
             563     5.11741E-03     76.3903E-03    -38.9651E+06    -149.569E+06    -19.5664E+06     766.522E+03    -54.4056E-03     108.332E-03    -53.9261E-03     50.6314E-03    -54.4023E-03     107.716E-03    -53.7506E-03     50.4170E-03
             564     5.97038E-03     76.4456E-03    -35.3128E+06    -144.163E+06    -12.1938E+06     683.577E+03    -54.5943E-03     108.533E-03    -53.9390E-03     58.5646E-03    -54.6144E-03     107.952E-03    -53.7398E-03     58.2902E-03
             565     6.82337E-03     76.5078E-03    -31.9599E+06    -135.318E+06    -7.02043E+06     1.02738E+06    -54.7766E-03     108.711E-03    -53.9343E-03     66.3581E-03    -54.8316E-03     108.192E-03    -53.7269E-03     66.0201E-03
             566     7.67640E-03     76.5783E-03    -29.1877E+06    -124.832E+06    -5.43107E+06     1.11518E+06    -54.9627E-03     108.869E-03    -53.9066E-03     74.0498E-03    -55.0636E-03     108.439E-03    -53.7104E-03     73.6334E-03
             567     8.52965E-03     76.6560E-03    -26.6782E+06    -113.935E+06    -5.25723E+06     576.336E+03    -55.1390E-03     109.007E-03    -53.8676E-03     81.4522E-03    -55.3000E-03     108.684E-03    -53.6900E-03     80.9362E-03
             568     9.38237E-03     76.7414E-03    -24.3508E+06    -99.9764E+06    -4.83985E+06     352.676E+03    -55.4494E-03     109.276E-03    -53.8269E-03     89.3464E-03    -55.6984E-03     109.098E-03    -53.6708E-03     88.7168E-03
             569     10.2362E-03     76.8347E-03    -22.6790E+06    -83.7343E+06    -4.67557E+06     867.637E+03    -55.7790E-03     109.568E-03    -53.7891E-03     97.1826E-03    -56.1505E-03     109.575E-03    -53.6581E-03     96.4307E-03
             570     11.0885E-03     76.9363E-03    -21.1113E+06    -62.7361E+06    -5.04031E+06     1.09897E+06    -56.0032E-03     109.748E-03    -53.7452E-03     104.797E-03    -56.5505E-03     110.013E-03    -53.6489E-03     103.894E-03
             571     11.9421E-03     77.0435E-03    -20.0182E+06    -32.6789E+06    -5.67710E+06     1.12589E+06    -56.2872E-03     109.971E-03    -53.6841E-03     115.962E-03    -57.1153E-03     110.629E-03    -53.6361E-03     114.875E-03
             572     12.7962E-03     77.1662E-03    -19.6420E+06     16.3422E+06    -9.21442E+06     1.10328E+06    -56.9533E-03     110.532E-03    -53.5791E-03     133.521E-03    -58.3119E-03     111.906E-03    -53.6204E-03     132.178E-03
             573     13.6476E-03     77.3100E-03     -18.963E+06     72.1220E+06    -593.244E+03     1.02371E+06    -58.2687E-03     111.786E-03    -53.5171E-03     165.048E-03    -60.7119E-03     114.419E-03    -53.5971E-03     163.403E-03
             574     14.5035E-03     77.4966E-03    -16.0722E+06     118.760E+06     40.4076E+06     1.56330E+06    -62.3909E-03     116.014E-03    -53.6234E-03     226.417E-03    -67.8720E-03     121.743E-03    -53.5703E-03     224.477E-03
             575     15.3540E-03     77.7675E-03    -11.1652E+06     156.710E+06     92.3400E+06     1.76972E+06    -66.0481E-03     119.859E-03    -53.8111E-03     288.248E-03    -77.2848E-03     131.345E-03    -53.5604E-03     287.747E-03
             576     16.2070E-03     78.0854E-03    -5.61286E+06     163.950E+06     109.927E+06     780.986E+03    -58.8778E-03     112.742E-03    -53.8641E-03     192.765E-03    -67.4793E-03     121.587E-03    -53.5441E-03     194.598E-03
             577     852.912E-06     77.2948E-03    -51.1769E+06    -169.327E+06    -50.2102E+06     298.254E+03    -53.8743E-03     107.694E-03    -53.8199E-03     9.54934E-03    -53.8132E-03     106.996E-03    -53.7512E-03     9.52093E-03
             578     1.70584E-03     77.3091E-03    -49.8215E+06    -166.933E+06    -46.3646E+06     484.712E+03    -53.9353E-03     107.790E-03    -53.8545E-03     17.4833E-03    -53.8795E-03     107.099E-03    -53.7721E-03     17.4282E-03
             579     2.55857E-03     77.3301E-03    -47.9841E+06    -163.551E+06    -40.8932E+06     641.673E+03    -54.0097E-03     107.888E-03    -53.8782E-03     25.8801E-03    -53.9630E-03     107.209E-03    -53.7759E-03     25.7943E-03
             580     3.41157E-03     77.3611E-03    -45.2899E+06    -159.369E+06    -34.4063E+06     833.381E+03    -54.1093E-03     108.006E-03    -53.8965E-03     34.2429E-03    -54.0730E-03     107.343E-03    -53.7718E-03     34.1222E-03
             581     4.26442E-03     77.3988E-03    -42.0792E+06    -154.434E+06    -26.9483E+06     692.459E+03    -54.2465E-03     108.160E-03    -53.9140E-03     42.4825E-03    -54.2241E-03     107.519E-03    -53.7638E-03     42.3170E-03
             582     5.11747E-03     77.4462E-03    -38.7937E+06    -149.423E+06    -19.4136E+06     552.131E+03    -54.4045E-03     108.334E-03    -53.9296E-03     50.6250E-03    -54.4008E-03     107.719E-03    -53.7538E-03     50.4076E-03
             583     5.97027E-03     77.5005E-03    -35.7102E+06    -144.537E+06    -12.5974E+06     651.553E+03    -54.5558E-03     108.494E-03    -53.9383E-03     58.5287E-03    -54.5767E-03     107.912E-03    -53.7400E-03     58.2542E-03
             584     6.82345E-03     77.5633E-03    -32.4352E+06    -135.927E+06    -7.47801E+06     767.689E+03    -54.7578E-03     108.688E-03    -53.9303E-03     66.3532E-03    -54.8137E-03     108.168E-03    -53.7236E-03     66.0119E-03
             585     7.67647E-03     77.6335E-03    -29.0454E+06    -124.790E+06    -5.51677E+06     941.600E+03    -54.9697E-03     108.872E-03    -53.9025E-03     73.9282E-03    -55.0695E-03     108.442E-03    -53.7070E-03     73.5097E-03
             586     8.52938E-03     77.7114E-03    -26.4454E+06    -113.140E+06    -5.18477E+06     420.825E+03    -55.2114E-03     109.079E-03    -53.8676E-03     81.4062E-03    -55.3728E-03     108.760E-03    -53.6911E-03     80.8868E-03
             587     9.38304E-03     77.7963E-03    -24.7207E+06    -100.164E+06    -5.06972E+06     211.126E+03    -55.5217E-03     109.356E-03    -53.8342E-03     89.3797E-03    -55.7721E-03     109.178E-03    -53.6785E-03     88.7472E-03
             588     10.2350E-03     77.8907E-03    -23.0958E+06    -84.4207E+06    -5.10237E+06     745.158E+03    -55.6118E-03     109.404E-03    -53.7923E-03     97.0760E-03    -55.9824E-03     109.408E-03    -53.6619E-03     96.3261E-03
             589     11.0895E-03     77.9904E-03    -21.6944E+06    -63.1643E+06    -5.56028E+06     835.071E+03    -55.8212E-03     109.556E-03    -53.7348E-03     104.584E-03    -56.3673E-03     109.817E-03    -53.6395E-03     103.682E-03
             590     11.9427E-03     78.0996E-03    -20.6052E+06    -32.4845E+06    -5.88146E+06     909.368E+03    -56.4696E-03     110.147E-03    -53.6772E-03     115.048E-03    -57.2999E-03     110.806E-03    -53.6296E-03     113.952E-03
             591     12.7943E-03     78.2212E-03    -19.8652E+06     16.3248E+06    -8.94872E+06     1.50377E+06    -56.8787E-03     110.461E-03    -53.5826E-03     132.575E-03    -58.2279E-03     111.824E-03    -53.6222E-03     131.242E-03
             592     13.6492E-03     78.3660E-03    -19.1422E+06     72.1438E+06    -937.594E+03     1.46012E+06    -58.5555E-03     112.081E-03    -53.5256E-03     164.878E-03    -60.9967E-03     114.713E-03    -53.6071E-03     163.220E-03
             593     14.5004E-03     78.5506E-03    -16.9908E+06     118.359E+06     38.3695E+06     1.05850E+06    -62.4981E-03     116.136E-03    -53.6374E-03     226.249E-03    -67.9801E-03     121.866E-03    -53.5926E-03     224.300E-03
             594     15.3562E-03     78.8250E-03    -11.4044E+06     156.705E+06     91.4025E+06     758.044E+03    -64.4744E-03     118.268E-03    -53.7932E-03     287.497E-03    -75.7041E-03     129.748E-03    -53.5469E-03     287.158E-03
             595     16.2128E-03     79.1388E-03    -5.36192E+06     164.835E+06     110.283E+06     801.177E+03    -59.0501E-03     112.870E-03    -53.8203E-03     191.789E-03    -67.6352E-03     121.702E-03    -53.5001E-03     193.666E-03
             596     852.898E-06     78.3511E-03    -51.4908E+06    -169.800E+06    -50.7944E+06     128.662E+03    -53.9099E-03     107.749E-03    -53.8388E-03     9.49019E-03    -53.8489E-03     107.049E-03    -53.7719E-03     9.45920E-03
             597     1.70565E-03     78.3638E-03    -50.2162E+06    -167.537E+06    -47.1448E+06     475.936E+03    -53.9385E-03     107.814E-03    -53.8753E-03     17.5082E-03    -53.8828E-03     107.122E-03    -53.7953E-03     17.4532E-03
             598     2.55862E-03     78.3862E-03    -48.1630E+06    -163.841E+06    -41.2609E+06     649.380E+03    -53.9949E-03     107.885E-03    -53.8904E-03     25.8906E-03    -53.9482E-03     107.206E-03    -53.7893E-03     25.8049E-03
             599     3.41150E-03     78.4157E-03    -45.5722E+06    -159.593E+06    -34.6487E+06     574.797E+03    -54.0902E-03     107.992E-03    -53.9017E-03     34.2331E-03    -54.0545E-03     107.328E-03    -53.7775E-03     34.1091E-03
             600     4.26450E-03     78.4549E-03    -42.6352E+06    -154.470E+06    -26.7388E+06     599.198E+03    -54.2428E-03     108.161E-03    -53.9182E-03     42.5012E-03    -54.2234E-03     107.520E-03    -53.7661E-03     42.3344E-03
             601     5.11721E-03     78.5010E-03    -39.6021E+06    -149.681E+06    -19.5382E+06     649.507E+03    -54.3645E-03     108.294E-03    -53.9296E-03     50.6241E-03    -54.3642E-03     107.679E-03    -53.7528E-03     50.4082E-03
             602     5.97052E-03     78.5562E-03    -36.1696E+06    -144.656E+06    -13.4506E+06     599.398E+03    -54.5598E-03     108.491E-03    -53.9315E-03     58.5713E-03    -54.5816E-03     107.910E-03    -53.7366E-03     58.2963E-03
             603     6.82336E-03     78.6183E-03    -32.7522E+06    -135.933E+06    -8.32999E+06     434.538E+03    -54.7799E-03     108.705E-03    -53.9251E-03     66.3279E-03    -54.8360E-03     108.186E-03    -53.7222E-03     65.9823E-03
             604     7.67638E-03     78.6892E-03    -29.5151E+06    -124.898E+06    -6.48856E+06     104.183E+03    -54.9834E-03     108.883E-03    -53.8995E-03     73.8758E-03    -55.0840E-03     108.454E-03    -53.7081E-03     73.4465E-03
             605     8.52976E-03     78.7661E-03    -26.6835E+06    -112.642E+06    -5.50270E+06     308.622E+03    -55.3428E-03     109.217E-03    -53.8737E-03     81.4421E-03    -55.5063E-03     108.901E-03    -53.6992E-03     80.9192E-03
             606     9.38192E-03     78.8525E-03    -24.6879E+06    -100.220E+06    -4.80074E+06     475.264E+03    -55.4616E-03     109.309E-03    -53.8473E-03     89.1131E-03    -55.7120E-03     109.130E-03    -53.6902E-03     88.4838E-03
             607     10.2363E-03     78.9449E-03    -23.2022E+06    -85.1197E+06    -5.63274E+06     527.779E+03    -55.6507E-03     109.452E-03    -53.8014E-03     96.8643E-03    -56.0202E-03     109.453E-03    -53.6725E-03     96.1099E-03
             608     11.0886E-03     79.0461E-03    -21.8210E+06    -63.3445E+06    -5.99645E+06     679.131E+03    -56.1565E-03     109.914E-03    -53.7576E-03     104.412E-03    -56.7047E-03     110.177E-03    -53.6641E-03     103.500E-03
             609     11.9411E-03     79.1549E-03    -20.5415E+06    -32.9060E+06    -6.25894E+06     881.467E+03    -56.4120E-03     110.122E-03    -53.7095E-03     115.004E-03    -57.2393E-03     110.777E-03    -53.6633E-03     113.909E-03
             610     12.7950E-03     79.2775E-03    -19.3748E+06     15.1354E+06    -9.41564E+06     1.40038E+06    -56.7849E-03     110.393E-03    -53.6085E-03     132.146E-03    -58.1261E-03     111.747E-03    -53.6494E-03     130.813E-03
             611     13.6483E-03     79.4185E-03    -18.0130E+06     72.2490E+06    -843.817E+03     1.98661E+06    -58.6781E-03     112.227E-03    -53.5492E-03     165.477E-03    -61.1237E-03     114.868E-03    -53.6321E-03     163.819E-03
             612     14.5013E-03     79.6119E-03    -15.6546E+06     120.139E+06     40.1231E+06     1.12772E+06    -62.2814E-03     115.945E-03    -53.6638E-03     225.822E-03    -67.7629E-03     121.681E-03    -53.6147E-03     223.909E-03
             613     15.3541E-03     79.8723E-03    -11.9306E+06     156.608E+06     91.7418E+06    -127.985E+03    -65.0251E-03     118.861E-03    -53.8360E-03     285.797E-03    -76.2914E-03     130.375E-03    -53.5871E-03     285.405E-03
             614     16.2070E-03     80.1965E-03    -5.91704E+06     164.371E+06     109.024E+06     664.982E+03    -58.8310E-03     112.702E-03    -53.8710E-03     191.544E-03    -67.4542E-03     121.572E-03    -53.5557E-03     193.374E-03
             615     852.757E-06     79.4057E-03    -51.7928E+06    -170.094E+06    -51.0870E+06     102.260E+03    -53.9201E-03     107.795E-03    -53.8746E-03     9.56109E-03    -53.8598E-03     107.095E-03    -53.8083E-03     9.52976E-03
             616     1.70576E-03     79.4199E-03    -50.7398E+06    -168.115E+06    -47.8484E+06     298.947E+03    -53.9156E-03     107.803E-03    -53.8877E-03     17.5284E-03    -53.8605E-03     107.110E-03    -53.8096E-03     17.4710E-03
             617     2.55859E-03     79.4410E-03    -48.6510E+06    -164.149E+06    -41.5318E+06     445.356E+03    -53.9900E-03     107.884E-03    -53.8942E-03     25.8990E-03    -53.9448E-03     107.204E-03    -53.7933E-03     25.8107E-03
             618     3.41149E-03     79.4718E-03    -45.9795E+06    -159.662E+06    -34.5197E+06     596.045E+03    -54.0970E-03     108.003E-03    -53.9064E-03     34.2498E-03    -54.0636E-03     107.340E-03    -53.7808E-03     34.1260E-03
             619     4.26436E-03     79.5097E-03    -43.0042E+06    -154.850E+06    -27.1508E+06     655.054E+03    -54.1893E-03     108.105E-03    -53.9161E-03     42.5151E-03    -54.1706E-03     107.463E-03    -53.7650E-03     42.3495E-03
             620     5.11760E-03     79.5570E-03    -39.4154E+06    -149.631E+06    -19.6058E+06     479.255E+03    -54.3709E-03     108.294E-03    -53.9236E-03     50.5839E-03    -54.3696E-03     107.679E-03    -53.7475E-03     50.3657E-03
             621     5.97037E-03     79.6108E-03    -35.8923E+06    -144.576E+06    -13.6119E+06     327.241E+03    -54.5894E-03     108.517E-03    -53.9280E-03     58.5535E-03    -54.6098E-03     107.937E-03    -53.7344E-03     58.2747E-03
             622     6.82337E-03     79.6745E-03    -32.4955E+06    -135.594E+06    -8.92151E+06     72.4132E+03    -54.7970E-03     108.719E-03    -53.9224E-03     66.2865E-03    -54.8513E-03     108.203E-03    -53.7232E-03     65.9362E-03
             623     7.67656E-03     79.7434E-03    -29.7479E+06    -124.461E+06    -6.93296E+06    -227.214E+03    -55.1100E-03     109.016E-03    -53.9058E-03     73.8503E-03    -55.2123E-03     108.591E-03    -53.7168E-03     73.4145E-03
             624     8.52907E-03     79.8227E-03    -27.3815E+06    -113.427E+06    -6.31022E+06    -40.3048E+03    -55.3047E-03     109.189E-03    -53.8848E-03     81.4610E-03    -55.4690E-03     108.872E-03    -53.7121E-03     80.9345E-03
             625     9.38266E-03     79.9071E-03    -25.0366E+06    -100.188E+06    -5.29727E+06     258.072E+03    -55.5522E-03     109.412E-03    -53.8595E-03     88.9556E-03    -55.8042E-03     109.235E-03    -53.7044E-03     88.3212E-03
             626     10.2351E-03     80.0001E-03    -22.8703E+06    -84.8497E+06    -5.60208E+06     228.379E+03    -55.8946E-03     109.723E-03    -53.8281E-03     96.7591E-03    -56.2645E-03     109.726E-03    -53.6999E-03     95.9950E-03
             627     11.0882E-03     80.1023E-03    -21.2642E+06    -64.0674E+06    -6.44796E+06     484.084E+03    -56.0343E-03     109.820E-03    -53.7852E-03     104.858E-03    -56.5781E-03     110.079E-03    -53.6938E-03     103.947E-03
             628     11.9414E-03     80.2102E-03    -20.1008E+06    -33.2736E+06    -6.41484E+06     974.606E+03    -56.2698E-03     109.994E-03    -53.7247E-03     115.345E-03    -57.0934E-03     110.647E-03    -53.6794E-03     114.256E-03
             629     12.7948E-03     80.3317E-03    -18.7779E+06     14.4274E+06    -9.46955E+06     874.368E+03    -57.1399E-03     110.768E-03    -53.6283E-03     132.566E-03    -58.4900E-03     112.130E-03    -53.6693E-03     131.210E-03
             630     13.6468E-03     80.4762E-03    -17.3117E+06     71.4794E+06    -1.75467E+06     809.227E+03    -58.4961E-03     112.065E-03    -53.5688E-03     165.482E-03    -60.9351E-03     114.701E-03    -53.6561E-03     163.822E-03
             631     14.5015E-03     80.6634E-03    -14.9654E+06     120.918E+06     40.0654E+06     1.40043E+06    -62.1739E-03     115.848E-03    -53.6740E-03     226.007E-03    -67.6487E-03     121.583E-03    -53.6273E-03     224.095E-03
             632     15.3549E-03     80.9329E-03    -11.4802E+06     157.453E+06     92.4463E+06     1.86277E+06    -65.8603E-03     119.720E-03    -53.8600E-03     287.374E-03    -77.1282E-03     131.238E-03    -53.6094E-03     286.935E-03
             633     16.2060E-03     81.2508E-03    -6.24010E+06     164.866E+06     109.098E+06     901.318E+03    -58.4990E-03     112.394E-03    -53.8945E-03     192.961E-03    -67.1392E-03     121.280E-03    -53.5790E-03     194.825E-03
             634     852.906E-06     80.4620E-03    -52.3875E+06    -170.524E+06    -51.5209E+06     255.791E+03    -53.9328E-03     107.774E-03    -53.8416E-03     9.55606E-03    -53.8742E-03     107.074E-03    -53.7760E-03     9.52676E-03
             635     1.70564E-03     80.4746E-03    -51.1335E+06    -168.315E+06    -47.9564E+06     160.332E+03    -53.9260E-03     107.809E-03    -53.8833E-03     17.5069E-03    -53.8725E-03     107.116E-03    -53.8049E-03     17.4476E-03
             636     2.55860E-03     80.4969E-03    -49.0354E+06    -164.462E+06    -41.9378E+06     214.079E+03    -53.9824E-03     107.874E-03    -53.8917E-03     25.9243E-03    -53.9382E-03     107.194E-03    -53.7919E-03     25.8331E-03
             637     3.41151E-03     80.5266E-03    -46.1794E+06    -160.071E+06    -35.2009E+06     376.892E+03    -54.0834E-03     107.984E-03    -53.9002E-03     34.2592E-03    -54.0493E-03     107.319E-03    -53.7772E-03     34.1326E-03
             638     4.26451E-03     80.5655E-03    -42.7921E+06    -154.663E+06    -27.3331E+06     319.964E+03    -54.2197E-03     108.133E-03    -53.9129E-03     42.4399E-03    -54.2000E-03     107.491E-03    -53.7633E-03     42.2695E-03
             639     5.11738E-03     80.6116E-03    -39.4596E+06    -149.562E+06    -19.9486E+06     122.722E+03    -54.4005E-03     108.326E-03    -53.9256E-03     50.5590E-03    -54.3991E-03     107.712E-03    -53.7513E-03     50.3358E-03
             640     5.97031E-03     80.6672E-03    -35.9434E+06    -144.298E+06    -14.0209E+06    -104.531E+03    -54.5952E-03     108.527E-03    -53.9319E-03     58.4596E-03    -54.6156E-03     107.948E-03    -53.7406E-03     58.1749E-03
             641     6.82353E-03     80.7286E-03    -32.6766E+06    -135.239E+06    -9.57746E+06    -316.934E+03    -54.8501E-03     108.778E-03    -53.9281E-03     66.2709E-03    -54.9051E-03     108.265E-03    -53.7325E-03     65.9148E-03
             642     7.67608E-03     80.8004E-03    -29.5954E+06    -124.421E+06    -7.32383E+06    -246.416E+03    -55.0865E-03     109.000E-03    -53.9133E-03     73.9766E-03    -55.1873E-03     108.575E-03    -53.7266E-03     73.5414E-03
             643     8.52929E-03     80.8770E-03    -27.3551E+06    -113.787E+06    -6.89697E+06    -192.209E+03    -55.3239E-03     109.214E-03    -53.8904E-03     81.4620E-03    -55.4867E-03     108.896E-03    -53.7202E-03     80.9333E-03
             644     9.38234E-03     80.9628E-03    -24.9343E+06    -100.184E+06    -6.01047E+06    -455.126E+03    -55.7350E-03     109.606E-03    -53.8714E-03     89.1829E-03    -55.9860E-03     109.431E-03    -53.7200E-03     88.5374E-03
             645     10.2348E-03     81.0566E-03    -22.7655E+06    -85.0880E+06    -6.13808E+06    -295.767E+03    -55.8304E-03     109.675E-03    -53.8445E-03     96.8835E-03    -56.1996E-03     109.679E-03    -53.7188E-03     96.1130E-03
             646     11.0882E-03     81.1562E-03    -21.3150E+06    -64.7203E+06    -7.21473E+06     214.839E+03    -55.7874E-03     109.575E-03    -53.7873E-03     105.079E-03    -56.3269E-03     109.830E-03    -53.6986E-03     104.172E-03
             647     11.9419E-03     81.2663E-03    -19.5385E+06    -33.9034E+06    -6.80490E+06     580.592E+03    -56.4139E-03     110.136E-03    -53.7219E-03     115.606E-03    -57.2358E-03     110.788E-03    -53.6784E-03     114.508E-03
             648     12.7941E-03     81.3875E-03    -18.6885E+06     14.4197E+06    -9.96790E+06     784.702E+03    -57.0957E-03     110.722E-03    -53.6267E-03     132.957E-03    -58.4442E-03     112.085E-03    -53.6704E-03     131.605E-03
             649     13.6480E-03     81.5321E-03    -18.5576E+06     71.8214E+06    -1.07381E+06     890.521E+03    -58.4907E-03     112.062E-03    -53.5718E-03     165.566E-03    -60.9280E-03     114.692E-03    -53.6544E-03     163.911E-03
             650     14.5009E-03     81.7175E-03    -17.6682E+06     119.774E+06     38.2203E+06     1.13402E+06    -62.4676E-03     116.142E-03    -53.6740E-03     226.755E-03    -67.9681E-03     121.894E-03    -53.6310E-03     224.815E-03
             651     15.3538E-03     81.9898E-03    -12.7704E+06     156.556E+06     89.5246E+06     1.28157E+06    -64.7669E-03     118.594E-03    -53.8267E-03     287.569E-03    -75.9602E-03     130.038E-03    -53.5876E-03     287.211E-03
             652     16.2106E-03     82.3054E-03    -5.63226E+06     165.891E+06     109.897E+06     654.655E+03    -58.3712E-03     112.215E-03    -53.8436E-03     192.273E-03    -66.9220E-03     121.016E-03    -53.5265E-03     194.197E-03
             653     852.825E-06     81.5167E-03    -52.8122E+06    -170.970E+06    -52.2582E+06    -14.9264E+03    -53.8896E-03     107.723E-03    -53.8330E-03     9.56567E-03    -53.8313E-03     107.022E-03    -53.7698E-03     9.53286E-03
             654     1.70578E-03     81.5305E-03    -51.3633E+06    -168.345E+06    -48.1441E+06    -8.24002E+03    -53.9386E-03     107.804E-03    -53.8658E-03     17.5323E-03    -53.8860E-03     107.111E-03    -53.7879E-03     17.4709E-03
             655     2.55860E-03     81.5518E-03    -49.2048E+06    -164.550E+06    -42.1537E+06     19.1384E+03    -54.0015E-03     107.887E-03    -53.8858E-03     25.8987E-03    -53.9577E-03     107.207E-03    -53.7866E-03     25.8047E-03
             656     3.41154E-03     81.5824E-03    -46.4484E+06    -160.036E+06    -35.3049E+06    -94.9256E+03    -54.0990E-03     108.000E-03    -53.9011E-03     34.2001E-03    -54.0661E-03     107.337E-03    -53.7783E-03     34.0674E-03
             657     4.26444E-03     81.6204E-03    -43.1311E+06    -154.544E+06    -27.2922E+06    -212.190E+03    -54.2603E-03     108.181E-03    -53.9203E-03     42.4282E-03    -54.2425E-03     107.540E-03    -53.7701E-03     42.2506E-03
             658     5.11728E-03     81.6677E-03    -39.4241E+06    -149.320E+06    -19.8604E+06    -233.739E+03    -54.4232E-03     108.360E-03    -53.9371E-03     50.5423E-03    -54.4222E-03     107.747E-03    -53.7627E-03     50.3144E-03
             659     5.97046E-03     81.7217E-03    -35.9743E+06    -143.902E+06    -14.1707E+06    -459.965E+03    -54.6334E-03     108.578E-03    -53.9448E-03     58.4429E-03    -54.6544E-03     108.002E-03    -53.7549E-03     58.1532E-03
             660     6.82298E-03     81.7851E-03    -32.6559E+06    -134.893E+06    -10.2578E+06    -722.380E+03    -54.8070E-03     108.744E-03    -53.9366E-03     66.3155E-03    -54.8613E-03     108.233E-03    -53.7449E-03     65.9548E-03
             661     7.67639E-03     81.8547E-03    -29.7564E+06    -124.999E+06    -8.55219E+06    -730.534E+03    -54.9986E-03     108.910E-03    -53.9119E-03     74.0003E-03    -55.0972E-03     108.485E-03    -53.7302E-03     73.5603E-03
             662     8.52953E-03     81.9331E-03    -26.5206E+06    -113.046E+06    -7.10280E+06    -790.107E+03    -55.4253E-03     109.315E-03    -53.8897E-03     81.6803E-03    -55.5850E-03     109.000E-03    -53.7229E-03     81.1433E-03
             663     9.38165E-03     82.0186E-03    -24.4771E+06    -100.449E+06    -6.71975E+06    -889.337E+03    -55.6023E-03     109.470E-03    -53.8677E-03     89.4687E-03    -55.8490E-03     109.293E-03    -53.7201E-03     88.8209E-03
             664     10.2354E-03     82.1116E-03    -22.9415E+06    -86.0937E+06    -7.21945E+06    -699.894E+03    -55.6947E-03     109.523E-03    -53.8286E-03     97.0015E-03    -56.0612E-03     109.524E-03    -53.7066E-03     96.2285E-03
             665     11.0885E-03     82.2117E-03    -21.1977E+06    -64.8512E+06    -7.57024E+06    -152.950E+03    -56.0393E-03     109.817E-03    -53.7779E-03     105.038E-03    -56.5790E-03     110.073E-03    -53.6909E-03     104.120E-03
             666     11.9412E-03     82.3213E-03    -20.0461E+06    -35.1769E+06    -7.89902E+06     115.512E+03    -56.2687E-03     109.984E-03    -53.7153E-03     116.028E-03    -57.0891E-03     110.631E-03    -53.6748E-03     114.929E-03
             667     12.7947E-03     82.4440E-03    -19.2102E+06     14.4522E+06    -10.5266E+06     817.232E+03    -56.7872E-03     110.392E-03    -53.6049E-03     133.122E-03    -58.1313E-03     111.750E-03    -53.6506E-03     131.782E-03
             668     13.6481E-03     82.5855E-03    -19.1845E+06     71.3287E+06    -2.95870E+06     1.97852E+06    -58.6408E-03     112.179E-03    -53.5385E-03     165.936E-03    -61.0874E-03     114.820E-03    -53.6289E-03     164.285E-03
             669     14.5010E-03     82.7763E-03    -17.1005E+06     119.993E+06     37.5348E+06     1.82517E+06    -62.2517E-03     115.893E-03    -53.6410E-03     227.364E-03    -67.7464E-03     121.644E-03    -53.6025E-03     225.456E-03
             670     15.3550E-03     83.0424E-03    -12.1847E+06     157.716E+06     90.4351E+06     450.342E+03    -65.0114E-03     118.815E-03    -53.8039E-03     287.012E-03    -76.2433E-03     130.302E-03    -53.5627E-03     286.614E-03
             671     16.2092E-03     83.3588E-03    -5.58581E+06     165.928E+06     109.384E+06    -197.797E+03    -58.5233E-03     112.358E-03    -53.8347E-03     190.966E-03    -67.1078E-03     121.195E-03    -53.5203E-03     192.804E-03
             672     852.950E-06     82.5724E-03    -52.9908E+06    -170.715E+06    -51.8807E+06    -108.175E+03    -53.8840E-03     107.713E-03    -53.8289E-03     9.56134E-03    -53.8275E-03     107.013E-03    -53.7640E-03     9.52745E-03
             673     1.70576E-03     82.5856E-03    -51.6698E+06    -168.338E+06    -48.1902E+06    -140.712E+03    -53.9398E-03     107.802E-03    -53.8627E-03     17.5057E-03    -53.8886E-03     107.110E-03    -53.7846E-03     17.4426E-03
             674     2.55861E-03     82.6076E-03    -49.4001E+06    -164.351E+06    -42.1216E+06    -243.098E+03    -54.0335E-03     107.923E-03    -53.8894E-03     25.8434E-03    -53.9910E-03     107.244E-03    -53.7900E-03     25.7460E-03
             675     3.41146E-03     82.6374E-03    -46.6226E+06    -159.829E+06    -35.1747E+06    -295.073E+03    -54.1314E-03     108.044E-03    -53.9131E-03     34.1861E-03    -54.1000E-03     107.382E-03    -53.7896E-03     34.0506E-03
             676     4.26432E-03     82.6763E-03    -43.5319E+06    -154.201E+06    -27.5109E+06    -560.430E+03    -54.2522E-03     108.184E-03    -53.9316E-03     42.4457E-03    -54.2366E-03     107.546E-03    -53.7824E-03     42.2638E-03
             677     5.11741E-03     82.7226E-03    -40.0508E+06    -149.172E+06    -20.5386E+06    -800.652E+03    -54.4455E-03     108.391E-03    -53.9459E-03     50.5565E-03    -54.4468E-03     107.781E-03    -53.7742E-03     50.3213E-03
             678     5.96996E-03     82.7778E-03    -36.2546E+06    -143.368E+06    -15.5257E+06    -1.04931E+06    -54.6147E-03     108.563E-03    -53.9480E-03     58.5352E-03    -54.6359E-03     107.991E-03    -53.7652E-03     58.2383E-03
             679     6.82337E-03     82.8399E-03    -32.8357E+06    -134.597E+06    -11.9101E+06    -1.39817E+06    -54.7636E-03     108.697E-03    -53.9332E-03     66.2927E-03    -54.8166E-03     108.190E-03    -53.7500E-03     65.9239E-03
             680     7.67629E-03     82.9103E-03    -29.5102E+06    -124.539E+06    -9.59503E+06    -1.60119E+06    -55.0524E-03     108.963E-03    -53.9102E-03     74.0553E-03    -55.1491E-03     108.540E-03    -53.7348E-03     73.6034E-03
             681     8.52889E-03     82.9884E-03    -27.2584E+06    -113.569E+06    -8.71367E+06    -1.57936E+06    -55.2213E-03     109.102E-03    -53.8802E-03     81.8442E-03    -55.3807E-03     108.786E-03    -53.7196E-03     81.3008E-03
             682     9.38280E-03     83.0742E-03    -25.0270E+06    -100.719E+06    -7.55640E+06    -1.39587E+06    -55.3691E-03     109.211E-03    -53.8415E-03     89.4573E-03    -55.6156E-03     109.033E-03    -53.6969E-03     88.8073E-03
             683     10.2355E-03     83.1663E-03    -22.7806E+06    -85.5854E+06    -7.39700E+06    -1.12238E+06    -55.8419E-03     109.643E-03    -53.8007E-03     97.2418E-03    -56.2086E-03     109.646E-03    -53.6806E-03     96.4616E-03
             684     11.0884E-03     83.2680E-03    -21.3278E+06    -65.7023E+06    -8.26740E+06    -644.939E+03    -56.1136E-03     109.873E-03    -53.7597E-03     105.156E-03    -56.6532E-03     110.128E-03    -53.6749E-03     104.229E-03
             685     11.9415E-03     83.3762E-03    -20.3299E+06    -35.7002E+06    -8.56237E+06     82.4778E+03    -56.0851E-03     109.780E-03    -53.6947E-03     115.906E-03    -56.9032E-03     110.424E-03    -53.6562E-03     114.812E-03
             686     12.7957E-03     83.4983E-03    -19.8484E+06     12.6387E+06    -11.7070E+06     1.20904E+06    -56.7325E-03     110.309E-03    -53.5767E-03     133.385E-03    -58.0776E-03     111.663E-03    -53.6248E-03     132.051E-03
             687     13.6482E-03     83.6428E-03    -18.6869E+06     70.5542E+06    -4.37669E+06     1.68448E+06    -58.4187E-03     111.917E-03    -53.4979E-03     166.175E-03    -60.8632E-03     114.558E-03    -53.5950E-03     164.529E-03
             688     14.5022E-03     83.8298E-03    -16.0295E+06     121.098E+06     36.7545E+06     1.33824E+06    -62.0295E-03     115.619E-03    -53.5899E-03     226.806E-03    -67.4930E-03     121.349E-03    -53.5585E-03     224.904E-03
             689     15.3571E-03     84.0983E-03    -10.6657E+06     159.128E+06     91.5877E+06     1.03730E+06    -65.3953E-03     119.159E-03    -53.7638E-03     288.218E-03    -76.6511E-03     130.676E-03    -53.5211E-03     287.790E-03
             690     16.2057E-03     84.4187E-03    -5.40287E+06     166.654E+06     109.802E+06     177.188E+03    -59.3425E-03     113.158E-03    -53.8155E-03     192.215E-03    -67.9705E-03     122.040E-03    -53.5003E-03     194.018E-03
             691     852.792E-06     83.6276E-03    -52.9694E+06    -170.570E+06    -52.0669E+06     100.457E+03    -53.9123E-03     107.769E-03    -53.8568E-03     9.53536E-03    -53.8557E-03     107.070E-03    -53.7930E-03     9.50411E-03
             692     1.70570E-03     83.6411E-03    -51.6893E+06    -168.062E+06    -47.9393E+06    -56.5702E+03    -53.9377E-03     107.824E-03    -53.8862E-03     17.5090E-03    -53.8873E-03     107.132E-03    -53.8073E-03     17.4470E-03
             693     2.55858E-03     83.6628E-03    -49.6688E+06    -164.136E+06    -41.9873E+06    -263.887E+03    -54.0273E-03     107.931E-03    -53.9037E-03     25.8734E-03    -53.9866E-03     107.253E-03    -53.8036E-03     25.7759E-03
             694     3.41140E-03     83.6931E-03    -46.8628E+06    -159.511E+06    -35.3529E+06    -555.039E+03    -54.1373E-03     108.060E-03    -53.9223E-03     34.1959E-03    -54.1073E-03     107.399E-03    -53.7998E-03     34.0570E-03
             695     4.26439E-03     83.7314E-03    -43.4864E+06    -153.501E+06    -27.7569E+06    -839.901E+03    -54.2661E-03     108.205E-03    -53.9394E-03     42.4724E-03    -54.2509E-03     107.571E-03    -53.7926E-03     42.2871E-03
             696     5.11710E-03     83.7784E-03    -39.8027E+06    -148.379E+06    -20.5981E+06    -1.45953E+06    -54.4086E-03     108.359E-03    -53.9508E-03     50.6214E-03    -54.4096E-03     107.752E-03    -53.7810E-03     50.3781E-03
             697     5.97041E-03     83.8328E-03    -36.0738E+06    -142.847E+06    -16.1221E+06    -2.10628E+06    -54.5676E-03     108.511E-03    -53.9436E-03     58.5214E-03    -54.5875E-03     107.943E-03    -53.7648E-03     58.2114E-03
             698     6.82314E-03     83.8954E-03    -32.3442E+06    -133.954E+06    -12.5667E+06    -2.32945E+06    -54.8221E-03     108.750E-03    -53.9279E-03     66.3538E-03    -54.8730E-03     108.247E-03    -53.7496E-03     65.9721E-03
             699     7.67606E-03     83.9657E-03    -29.6888E+06    -124.526E+06    -10.5788E+06    -2.31653E+06    -55.0227E-03     108.929E-03    -53.9067E-03     74.1506E-03    -55.1189E-03     108.509E-03    -53.7359E-03     73.6898E-03
             700     8.52958E-03     84.0439E-03    -27.0225E+06    -113.376E+06    -9.09655E+06    -2.18803E+06    -55.0616E-03     108.931E-03    -53.8699E-03     81.5710E-03    -55.2189E-03     108.617E-03    -53.7118E-03     81.0214E-03
             701     9.38251E-03     84.1285E-03    -24.7055E+06    -100.756E+06    -7.90256E+06    -2.08165E+06    -55.3391E-03     109.163E-03    -53.8240E-03     89.3215E-03    -55.5830E-03     108.985E-03    -53.6816E-03     88.6630E-03
             702     10.2359E-03     84.2227E-03    -23.0924E+06    -86.0213E+06    -8.28325E+06    -1.74951E+06    -55.8093E-03     109.590E-03    -53.7807E-03     97.3323E-03    -56.1753E-03     109.593E-03    -53.6639E-03     96.5452E-03
             703     11.0888E-03     84.3231E-03    -21.3438E+06    -66.4603E+06    -8.94855E+06    -1.20413E+06    -55.9610E-03     109.696E-03    -53.7355E-03     104.855E-03    -56.4974E-03     109.947E-03    -53.6529E-03     103.923E-03
             704     11.9424E-03     84.4314E-03    -20.1261E+06    -36.9471E+06    -9.32225E+06     82.4918E+03    -56.2442E-03     109.917E-03    -53.6731E-03     115.508E-03    -57.0586E-03     110.556E-03    -53.6370E-03     114.408E-03
             705     12.7947E-03     84.5534E-03    -19.0333E+06     11.0727E+06    -12.0129E+06     1.14796E+06    -56.8702E-03     110.440E-03    -53.5695E-03     133.095E-03    -58.2104E-03     111.786E-03    -53.6180E-03     131.754E-03
             706     13.6493E-03     84.6977E-03    -18.0137E+06     70.4980E+06    -3.65148E+06     1.60281E+06    -58.2159E-03     111.712E-03    -53.4963E-03     164.935E-03    -60.6380E-03     114.331E-03    -53.5906E-03     163.298E-03
             707     14.5029E-03     84.8848E-03    -15.8475E+06     122.936E+06     37.0093E+06     603.195E+03    -62.2129E-03     115.802E-03    -53.5893E-03     225.871E-03    -67.6892E-03     121.551E-03    -53.5595E-03     223.932E-03
             708     15.3542E-03     85.1543E-03    -11.6538E+06     158.287E+06     89.6076E+06    -720.819E+03    -65.2639E-03     119.035E-03    -53.7712E-03     286.045E-03    -76.4561E-03     130.488E-03    -53.5358E-03     285.587E-03
             709     16.2162E-03     85.4720E-03    -6.20733E+06     165.973E+06     109.030E+06     341.736E+03    -59.0046E-03     112.838E-03    -53.8332E-03     189.391E-03    -67.5243E-03     121.608E-03    -53.5197E-03     191.198E-03
             710     852.858E-06     84.6831E-03    -53.1725E+06    -170.573E+06    -52.3638E+06    -109.606E+03    -53.9189E-03     107.804E-03    -53.8855E-03     9.57636E-03    -53.8629E-03     107.106E-03    -53.8229E-03     9.54229E-03
             711     1.70567E-03     84.6965E-03    -51.7672E+06    -168.012E+06    -48.2806E+06     20.4047E+03    -53.9443E-03     107.845E-03    -53.9005E-03     17.5561E-03    -53.8939E-03     107.154E-03    -53.8233E-03     17.4953E-03
             712     2.55852E-03     84.7183E-03    -49.6310E+06    -163.680E+06    -42.0745E+06    -197.009E+03    -54.0182E-03     107.931E-03    -53.9128E-03     25.9044E-03    -53.9778E-03     107.255E-03    -53.8139E-03     25.8079E-03
             713     3.41147E-03     84.7485E-03    -46.9335E+06    -158.941E+06    -35.2349E+06    -605.881E+03    -54.1305E-03     108.058E-03    -53.9277E-03     34.2100E-03    -54.1018E-03     107.401E-03    -53.8054E-03     34.0707E-03
             714     4.26421E-03     84.7870E-03    -43.7086E+06    -152.126E+06    -28.5118E+06    -1.47264E+06    -54.2531E-03     108.190E-03    -53.9367E-03     42.5110E-03    -54.2399E-03     107.564E-03    -53.7953E-03     42.3177E-03
             715     5.11736E-03     84.8336E-03    -39.7025E+06    -146.823E+06    -21.8290E+06    -2.69519E+06    -54.3779E-03     108.319E-03    -53.9412E-03     50.6085E-03    -54.3789E-03     107.721E-03    -53.7799E-03     50.3495E-03
             716     5.97011E-03     84.8882E-03    -35.8629E+06    -142.244E+06    -16.4212E+06    -2.98262E+06    -54.5755E-03     108.514E-03    -53.9382E-03     58.5164E-03    -54.5949E-03     107.948E-03    -53.7621E-03     58.1949E-03
             717     6.82330E-03     84.9508E-03    -33.2845E+06    -133.745E+06    -13.4607E+06    -2.85566E+06    -54.8151E-03     108.737E-03    -53.9223E-03     66.4296E-03    -54.8697E-03     108.238E-03    -53.7474E-03     66.0411E-03
             718     7.67635E-03     85.0212E-03    -30.4671E+06    -123.695E+06    -11.5163E+06    -3.08622E+06    -54.9686E-03     108.866E-03    -53.8973E-03     73.9882E-03    -55.0683E-03     108.452E-03    -53.7314E-03     73.5179E-03
             719     8.52916E-03     85.0986E-03    -27.7197E+06    -113.308E+06    -10.4856E+06    -3.35225E+06    -55.1527E-03     109.015E-03    -53.8623E-03     81.3518E-03    -55.3121E-03     108.704E-03    -53.7103E-03     80.7846E-03
             720     9.38268E-03     85.1840E-03    -25.2165E+06    -100.836E+06    -9.07274E+06    -3.03014E+06    -55.4591E-03     109.287E-03    -53.8281E-03     89.2616E-03    -55.7048E-03     109.112E-03    -53.6907E-03     88.5878E-03
             721     10.2355E-03     85.2775E-03    -22.8674E+06    -86.5526E+06    -8.98440E+06    -2.61325E+06    -55.6492E-03     109.435E-03    -53.7856E-03     97.0083E-03    -56.0111E-03     109.434E-03    -53.6718E-03     96.2122E-03
             722     11.0891E-03     85.3786E-03    -21.3248E+06    -67.7051E+06    -9.97905E+06    -1.82120E+06    -55.8665E-03     109.597E-03    -53.7309E-03     104.382E-03    -56.3974E-03     109.841E-03    -53.6517E-03     103.445E-03
             723     11.9417E-03     85.4863E-03    -19.6155E+06    -38.5614E+06    -10.1380E+06    -740.243E+03    -56.4243E-03     110.098E-03    -53.6732E-03     115.354E-03    -57.2344E-03     110.730E-03    -53.6396E-03     114.238E-03
             724     12.7955E-03     85.6095E-03    -18.5134E+06     9.52919E+06    -12.7964E+06     683.969E+03    -57.0933E-03     110.677E-03    -53.5838E-03     132.694E-03    -58.4270E-03     112.016E-03    -53.6348E-03     131.341E-03
             725     13.6474E-03     85.7521E-03    -17.4394E+06     70.8007E+06    -5.12283E+06     1.53329E+06    -58.5165E-03     112.038E-03    -53.5216E-03     164.529E-03    -60.9429E-03     114.669E-03    -53.6246E-03     162.874E-03
             726     14.5007E-03     85.9399E-03    -15.2797E+06     123.829E+06     36.3964E+06     857.210E+03    -62.3480E-03     115.978E-03    -53.6302E-03     225.882E-03    -67.8308E-03     121.741E-03    -53.6056E-03     223.941E-03
             727     15.3564E-03     86.2101E-03    -12.1186E+06     158.860E+06     90.0571E+06     358.196E+03    -65.1286E-03     118.941E-03    -53.8127E-03     287.349E-03    -76.3846E-03     130.456E-03    -53.5752E-03     286.972E-03
             728     16.1978E-03     86.5258E-03    -6.65195E+06     166.015E+06     108.416E+06    -11.2816E+03    -58.6509E-03     112.496E-03    -53.8449E-03     193.435E-03    -67.2895E-03     121.386E-03    -53.5339E-03     195.322E-03
             729     852.793E-06     85.7387E-03    -53.1680E+06    -170.427E+06    -52.3072E+06    -41.6733E+03    -53.9260E-03     107.815E-03    -53.8890E-03     9.53640E-03    -53.8702E-03     107.117E-03    -53.8264E-03     9.50330E-03
             730     1.70569E-03     85.7518E-03    -52.0170E+06    -167.917E+06    -48.5649E+06    -139.129E+03    -53.9522E-03     107.858E-03    -53.9056E-03     17.5406E-03    -53.9028E-03     107.168E-03    -53.8295E-03     17.4777E-03
             731     2.55854E-03     85.7739E-03    -49.6631E+06    -163.078E+06    -42.2746E+06    -397.142E+03    -54.0160E-03     107.933E-03    -53.9167E-03     25.9110E-03    -53.9764E-03     107.260E-03    -53.8196E-03     25.8120E-03
             732     3.41135E-03     85.8038E-03    -46.5316E+06    -158.160E+06    -35.2113E+06    -895.475E+03    -54.1140E-03     108.042E-03    -53.9282E-03     34.2299E-03    -54.0845E-03     107.388E-03    -53.8074E-03     34.0869E-03
             733     4.26441E-03     85.8425E-03    -43.1514E+06    -149.806E+06    -28.7841E+06    -2.07530E+06    -54.2297E-03     108.158E-03    -53.9288E-03     42.4911E-03    -54.2166E-03     107.544E-03    -53.7929E-03     42.2899E-03
             734     5.11719E-03     85.8889E-03    -40.0912E+06    -144.894E+06    -22.3340E+06    -3.46207E+06    -54.3824E-03     108.316E-03    -53.9331E-03     50.5629E-03    -54.3874E-03     107.729E-03    -53.7766E-03     50.2937E-03
             735     5.97037E-03     85.9437E-03    -37.2093E+06    -142.413E+06    -17.7341E+06    -3.52427E+06    -54.5983E-03     108.532E-03    -53.9336E-03     58.5354E-03    -54.6225E-03     107.970E-03    -53.7618E-03     58.2063E-03
             736     6.82320E-03     86.0061E-03    -33.7897E+06    -132.453E+06    -14.4666E+06    -3.55135E+06    -54.7997E-03     108.717E-03    -53.9172E-03     66.3490E-03    -54.8572E-03     108.226E-03    -53.7485E-03     65.9515E-03
             737     7.67616E-03     86.0766E-03    -30.4120E+06    -122.796E+06    -12.3785E+06    -4.46001E+06    -54.9697E-03     108.862E-03    -53.8925E-03     73.8036E-03    -55.0693E-03     108.454E-03    -53.7323E-03     73.3145E-03
             738     8.52960E-03     86.1539E-03    -27.4860E+06    -112.790E+06    -11.2410E+06    -4.54973E+06    -55.2985E-03     109.164E-03    -53.8656E-03     81.3956E-03    -55.4571E-03     108.857E-03    -53.7184E-03     80.8104E-03
             739     9.38208E-03     86.2394E-03    -24.8186E+06    -100.702E+06    -9.71701E+06    -4.24741E+06    -55.5787E-03     109.422E-03    -53.8437E-03     89.1794E-03    -55.8225E-03     109.249E-03    -53.7103E-03     88.4871E-03
             740     10.2353E-03     86.3328E-03    -22.7073E+06    -87.5921E+06    -10.0949E+06    -3.63173E+06    -55.6534E-03     109.458E-03    -53.8051E-03     96.7980E-03    -56.0115E-03     109.454E-03    -53.6956E-03     95.9875E-03
             741     11.0884E-03     86.4333E-03    -20.5207E+06    -68.8770E+06    -10.7733E+06    -2.76688E+06    -55.9066E-03     109.658E-03    -53.7511E-03     104.444E-03    -56.4308E-03     109.896E-03    -53.6753E-03     103.494E-03
             742     11.9421E-03     86.5423E-03    -19.2561E+06    -39.9510E+06    -11.1880E+06    -1.56622E+06    -56.4711E-03     110.165E-03    -53.6939E-03     115.381E-03    -57.2769E-03     110.793E-03    -53.6640E-03     114.253E-03
             743     12.7941E-03     86.6646E-03    -18.5195E+06     7.28397E+06    -14.2659E+06     176.967E+03    -56.9813E-03     110.582E-03    -53.6003E-03     132.635E-03    -58.3053E-03     111.907E-03    -53.6553E-03     131.282E-03
             744     13.6483E-03     86.8082E-03    -17.9589E+06     70.0285E+06    -6.46419E+06     1.07176E+06    -59.0017E-03     112.547E-03    -53.5449E-03     165.336E-03    -61.4527E-03     115.201E-03    -53.6528E-03     163.649E-03
             745     14.5013E-03     86.9955E-03    -16.4616E+06     124.238E+06     34.6571E+06     1.17435E+06    -62.2786E-03     115.941E-03    -53.6622E-03     225.392E-03    -67.7291E-03     121.673E-03    -53.6452E-03     223.479E-03
             746     15.3521E-03     87.2649E-03    -11.1867E+06     159.717E+06     89.6506E+06     811.842E+03    -63.7855E-03     117.595E-03    -53.8099E-03     286.801E-03    -74.9664E-03     129.043E-03    -53.5770E-03     286.557E-03
             747     16.2231E-03     87.5834E-03    -5.20945E+06     167.113E+06     109.217E+06     110.149E+03    -58.7787E-03     112.591E-03    -53.8124E-03     193.524E-03    -67.4049E-03     121.475E-03    -53.5010E-03     195.448E-03
             748     852.875E-06     86.7939E-03    -53.4544E+06    -170.323E+06    -52.4111E+06    -16.7589E+03    -53.9365E-03     107.841E-03    -53.9046E-03     9.49742E-03    -53.8821E-03     107.144E-03    -53.8422E-03     9.46467E-03
             749     1.70560E-03     86.8076E-03    -51.7788E+06    -167.446E+06    -48.1609E+06    -261.714E+03    -53.9535E-03     107.871E-03    -53.9180E-03     17.5150E-03    -53.9042E-03     107.184E-03    -53.8409E-03     17.4503E-03
             750     2.55851E-03     86.8290E-03    -49.4085E+06    -162.063E+06    -42.3075E+06    -862.731E+03    -54.0039E-03     107.925E-03    -53.9207E-03     25.8973E-03    -53.9644E-03     107.257E-03    -53.8256E-03     25.7922E-03
             751     3.41145E-03     86.8595E-03    -46.1249E+06    -156.685E+06    -35.3886E+06    -1.90897E+06    -54.1147E-03     108.042E-03    -53.9274E-03     34.2177E-03    -54.0850E-03     107.395E-03    -53.8103E-03     34.0614E-03
             752     4.26426E-03     86.8976E-03    -42.3687E+06    -147.624E+06    -27.7839E+06    -2.90733E+06    -54.2311E-03     108.163E-03    -53.9322E-03     42.4178E-03    -54.2188E-03     107.557E-03    -53.7957E-03     42.2056E-03
             753     5.11735E-03     86.9446E-03    -39.0122E+06    -143.625E+06    -21.2711E+06    -3.32155E+06    -54.4033E-03     108.343E-03    -53.9394E-03     50.4834E-03    -54.4065E-03     107.759E-03    -53.7809E-03     50.2152E-03
             754     5.97015E-03     86.9988E-03    -36.0396E+06    -141.673E+06    -17.4733E+06    -3.78112E+06    -54.6265E-03     108.566E-03    -53.9392E-03     58.4639E-03    -54.6464E-03     108.005E-03    -53.7689E-03     58.1308E-03
             755     6.82314E-03     87.0619E-03    -32.9551E+06    -130.681E+06    -14.9735E+06    -4.85223E+06    -54.7722E-03     108.690E-03    -53.9174E-03     66.2680E-03    -54.8272E-03     108.207E-03    -53.7549E-03     65.8541E-03
             756     7.67632E-03     87.1315E-03    -29.9210E+06    -121.250E+06    -13.1242E+06    -5.81623E+06    -55.0544E-03     108.949E-03    -53.8944E-03     73.8371E-03    -55.1531E-03     108.549E-03    -53.7408E-03     73.3294E-03
             757     8.52898E-03     87.2095E-03    -26.8998E+06    -112.308E+06    -12.1393E+06    -5.97049E+06    -55.3329E-03     109.206E-03    -53.8730E-03     81.4305E-03    -55.4879E-03     108.902E-03    -53.7319E-03     80.8268E-03
             758     9.38220E-03     87.2951E-03    -24.5711E+06    -101.158E+06    -11.1182E+06    -5.38285E+06    -55.5227E-03     109.370E-03    -53.8477E-03     89.3259E-03    -55.7623E-03     109.196E-03    -53.7210E-03     88.6205E-03
             759     10.2351E-03     87.3877E-03    -22.1228E+06    -88.0463E+06    -11.0443E+06    -4.89261E+06    -55.7856E-03     109.597E-03    -53.8118E-03     96.9795E-03    -56.1395E-03     109.592E-03    -53.7073E-03     96.1509E-03
             760     11.0884E-03     87.4889E-03    -20.4722E+06    -70.1112E+06    -12.2049E+06    -3.91069E+06    -56.0879E-03     109.855E-03    -53.7670E-03     104.814E-03    -56.6111E-03     110.092E-03    -53.6967E-03     103.844E-03
             761     11.9409E-03     87.5974E-03    -19.2341E+06    -41.7998E+06    -12.4656E+06    -2.29194E+06    -56.4446E-03     110.159E-03    -53.7142E-03     115.705E-03    -57.2443E-03     110.778E-03    -53.6880E-03     114.571E-03
             762     12.7949E-03     87.7207E-03    -18.2669E+06     4.77296E+06    -15.2755E+06    -516.483E+03    -57.0948E-03     110.718E-03    -53.6235E-03     132.287E-03    -58.4141E-03     112.034E-03    -53.6803E-03     130.918E-03
             763     13.6481E-03     87.8619E-03    -17.6840E+06     68.6356E+06    -8.50208E+06     1.13359E+06    -58.7603E-03     112.315E-03    -53.5543E-03     165.997E-03    -61.2004E-03     114.960E-03    -53.6707E-03     164.325E-03
             764     14.4982E-03     88.0562E-03    -15.2468E+06     125.085E+06     33.5941E+06     1.26177E+06    -61.9624E-03     115.616E-03    -53.6538E-03     225.066E-03    -67.3922E-03     121.339E-03    -53.6450E-03     223.179E-03
             765     15.3580E-03     88.3117E-03    -10.9161E+06     160.791E+06     89.8235E+06     721.329E+03    -64.8867E-03     118.723E-03    -53.8363E-03     285.168E-03    -76.0241E-03     130.131E-03    -53.6045E-03     284.746E-03
             766     16.1958E-03     88.6373E-03    -5.78027E+06     167.445E+06     109.029E+06     289.677E+03    -58.4167E-03     112.280E-03    -53.8635E-03     193.770E-03    -67.0280E-03     121.149E-03    -53.5527E-03     195.617E-03
             767     852.714E-06     87.8496E-03    -53.7028E+06    -169.718E+06    -53.0111E+06    -380.898E+03    -53.9665E-03     107.858E-03    -53.8915E-03     9.51134E-03    -53.9134E-03     107.166E-03    -53.8326E-03     9.47378E-03
             768     1.70568E-03     87.8628E-03    -52.0207E+06    -166.535E+06    -49.0019E+06    -932.024E+03    -53.9607E-03     107.884E-03    -53.9233E-03     17.5028E-03    -53.9127E-03     107.202E-03    -53.8514E-03     17.4292E-03
             769     2.55847E-03     87.8847E-03    -49.2686E+06    -160.413E+06    -42.8636E+06    -1.64778E+06    -54.0213E-03     107.948E-03    -53.9267E-03     25.8593E-03    -53.9827E-03     107.289E-03    -53.8370E-03     25.7438E-03
             770     3.41137E-03     87.9147E-03    -46.4343E+06    -154.656E+06    -35.4020E+06    -2.57672E+06    -54.1162E-03     108.053E-03    -53.9368E-03     34.1875E-03    -54.0910E-03     107.417E-03    -53.8222E-03     34.0225E-03
             771     4.26427E-03     87.9534E-03    -43.5928E+06    -146.002E+06    -28.7129E+06    -3.48020E+06    -54.2361E-03     108.175E-03    -53.9385E-03     42.3668E-03    -54.2309E-03     107.580E-03    -53.8072E-03     42.1469E-03
             772     5.11717E-03     87.9996E-03    -40.0532E+06    -142.364E+06    -22.6694E+06    -4.18900E+06    -54.4251E-03     108.370E-03    -53.9449E-03     50.5017E-03    -54.4333E-03     107.796E-03    -53.7937E-03     50.2221E-03
             773     5.97010E-03     88.0547E-03    -35.9093E+06    -140.016E+06    -17.7633E+06    -4.92581E+06    -54.5959E-03     108.542E-03    -53.9464E-03     58.4425E-03    -54.6170E-03     107.990E-03    -53.7801E-03     58.0950E-03
             774     6.82315E-03     88.1167E-03    -32.2450E+06    -128.433E+06    -15.1557E+06    -6.00824E+06    -54.7829E-03     108.704E-03    -53.9207E-03     66.2311E-03    -54.8373E-03     108.232E-03    -53.7635E-03     65.8019E-03
             775     7.67613E-03     88.1872E-03    -29.2709E+06    -119.623E+06    -13.9293E+06    -6.97555E+06    -55.0661E-03     108.962E-03    -53.8955E-03     74.0195E-03    -55.1625E-03     108.570E-03    -53.7492E-03     73.4979E-03
             776     8.52900E-03     88.2653E-03    -27.1208E+06    -112.107E+06    -13.6075E+06    -7.13253E+06    -55.2764E-03     109.147E-03    -53.8706E-03     81.5115E-03    -55.4305E-03     108.846E-03    -53.7367E-03     80.8939E-03
             777     9.38230E-03     88.3495E-03    -24.6475E+06    -101.051E+06    -12.3988E+06    -6.93708E+06    -55.4958E-03     109.337E-03    -53.8415E-03     89.3483E-03    -55.7335E-03     109.165E-03    -53.7213E-03     88.6240E-03
             778     10.2355E-03     88.4442E-03    -22.6660E+06    -88.4461E+06    -12.5449E+06    -6.37287E+06    -55.8613E-03     109.669E-03    -53.8076E-03     97.0502E-03    -56.2153E-03     109.665E-03    -53.7092E-03     96.2017E-03
             779     11.0881E-03     88.5433E-03    -20.8225E+06    -71.0923E+06    -13.3748E+06    -5.41158E+06    -56.1962E-03     109.968E-03    -53.7715E-03     104.978E-03    -56.7201E-03     110.204E-03    -53.7051E-03     103.985E-03
             780     11.9416E-03     88.6541E-03    -18.9376E+06    -44.0866E+06    -13.5538E+06    -3.76442E+06    -56.4480E-03     110.171E-03    -53.7230E-03     115.715E-03    -57.2402E-03     110.779E-03    -53.6994E-03     114.562E-03
             781     12.7940E-03     88.7745E-03    -17.1320E+06     933.911E+03    -16.4937E+06    -1.28862E+06    -57.1319E-03     110.762E-03    -53.6303E-03     133.323E-03    -58.4483E-03     112.069E-03    -53.6893E-03     131.942E-03
             782     13.6453E-03     88.9207E-03    -15.6122E+06     67.3601E+06    -9.86217E+06     861.983E+03    -58.0632E-03     111.595E-03    -53.5315E-03     166.291E-03    -60.4775E-03     114.221E-03    -53.6558E-03     164.653E-03
             783     14.5053E-03     89.1051E-03    -14.6955E+06     125.420E+06     31.9121E+06     1.55226E+06    -62.2794E-03     115.891E-03    -53.6112E-03     226.389E-03    -67.7435E-03     121.655E-03    -53.6122E-03     224.456E-03
             784     15.3500E-03     89.3764E-03    -11.2150E+06     161.680E+06     89.3440E+06     1.48487E+06    -65.9693E-03     119.800E-03    -53.8308E-03     286.063E-03    -77.1073E-03     131.213E-03    -53.6022E-03     285.543E-03
             785     16.2178E-03     89.6910E-03    -5.62577E+06     168.515E+06     109.224E+06     524.844E+03    -58.0140E-03     111.892E-03    -53.8782E-03     194.374E-03    -66.5940E-03     120.734E-03    -53.5683E-03     196.254E-03
             786     852.896E-06     88.9050E-03    -53.6240E+06    -168.500E+06    -53.1508E+06    -678.965E+03    -53.9905E-03     107.859E-03    -53.8687E-03     9.53664E-03    -53.9386E-03     107.173E-03    -53.8123E-03     9.49524E-03
             787     1.70556E-03     88.9184E-03    -52.4805E+06    -164.694E+06    -49.9049E+06    -1.54785E+06    -53.9920E-03     107.918E-03    -53.9258E-03     17.4808E-03    -53.9476E-03     107.247E-03    -53.8604E-03     17.3993E-03
             788     2.55847E-03     88.9401E-03    -50.7008E+06    -158.742E+06    -44.0147E+06    -2.27247E+06    -54.0381E-03     107.976E-03    -53.9375E-03     25.8451E-03    -54.0074E-03     107.329E-03    -53.8539E-03     25.7213E-03
             789     3.41125E-03     88.9704E-03    -48.0135E+06    -152.784E+06    -37.1728E+06    -2.86484E+06    -54.1003E-03     108.043E-03    -53.9429E-03     34.1697E-03    -54.0831E-03     107.421E-03    -53.8376E-03     34.0012E-03
             790     4.26424E-03     89.0086E-03    -44.7040E+06    -143.839E+06    -30.6567E+06    -3.95179E+06    -54.2444E-03     108.184E-03    -53.9398E-03     42.4270E-03    -54.2451E-03     107.605E-03    -53.8197E-03     42.2013E-03
             791     5.11710E-03     89.0554E-03    -41.2025E+06    -140.022E+06    -24.5131E+06    -5.38557E+06    -54.4086E-03     108.353E-03    -53.9448E-03     50.5194E-03    -54.4232E-03     107.796E-03    -53.8045E-03     50.2248E-03
             792     5.97009E-03     89.1098E-03    -37.5101E+06    -137.632E+06    -19.6401E+06    -6.91068E+06    -54.5605E-03     108.503E-03    -53.9426E-03     58.4281E-03    -54.5902E-03     107.968E-03    -53.7869E-03     58.0555E-03
             793     6.82311E-03     89.1722E-03    -33.4642E+06    -126.231E+06    -16.5566E+06    -7.90624E+06    -54.7882E-03     108.705E-03    -53.9170E-03     66.3799E-03    -54.8499E-03     108.248E-03    -53.7682E-03     65.9266E-03
             794     7.67593E-03     89.2428E-03    -30.3323E+06    -118.363E+06    -15.0543E+06    -8.12829E+06    -54.9816E-03     108.872E-03    -53.8899E-03     74.0734E-03    -55.0831E-03     108.489E-03    -53.7496E-03     73.5384E-03
             795     8.52947E-03     89.3200E-03    -27.5202E+06    -110.859E+06    -14.3694E+06    -8.60059E+06    -55.2624E-03     109.123E-03    -53.8610E-03     81.5621E-03    -55.4193E-03     108.831E-03    -53.7322E-03     80.9257E-03
             796     9.38197E-03     89.4060E-03    -24.9863E+06    -100.731E+06    -13.5170E+06    -8.73579E+06    -55.6165E-03     109.453E-03    -53.8366E-03     89.3337E-03    -55.8554E-03     109.285E-03    -53.7219E-03     88.5836E-03
             797     10.2351E-03     89.4982E-03    -22.5514E+06    -88.8915E+06    -13.5026E+06    -8.16319E+06    -55.8620E-03     109.671E-03    -53.8090E-03     97.1442E-03    -56.2136E-03     109.666E-03    -53.7150E-03     96.2727E-03
             798     11.0883E-03     89.6006E-03    -20.2981E+06    -72.0081E+06    -14.1977E+06    -7.00584E+06    -56.0588E-03     109.826E-03    -53.7675E-03     105.102E-03    -56.5757E-03     110.057E-03    -53.7046E-03     104.093E-03
             799     11.9408E-03     89.7078E-03    -18.5431E+06    -46.5443E+06    -14.9466E+06    -5.21280E+06    -56.3066E-03     110.014E-03    -53.7071E-03     116.133E-03    -57.0929E-03     110.612E-03    -53.6875E-03     114.964E-03
             800     12.7944E-03     89.8318E-03    -17.8783E+06    -3.06756E+06    -18.9821E+06    -2.43941E+06    -56.7744E-03     110.369E-03    -53.5945E-03     133.866E-03    -58.0782E-03     111.653E-03    -53.6591E-03     132.487E-03
             801     13.6507E-03     89.9739E-03    -17.7201E+06     64.9313E+06    -13.6901E+06     134.501E+03    -58.4913E-03     111.986E-03    -53.4944E-03     164.984E-03    -60.9011E-03     114.603E-03    -53.6313E-03     163.313E-03
             802     14.4986E-03     90.1609E-03    -15.5173E+06     125.230E+06     28.6224E+06     1.26133E+06    -62.3885E-03     115.980E-03    -53.5920E-03     226.294E-03    -67.8442E-03     121.743E-03    -53.6080E-03     224.348E-03
             803     15.3591E-03     90.4344E-03    -11.0808E+06     161.401E+06     87.6867E+06     873.792E+03    -64.9826E-03     118.780E-03    -53.7971E-03     285.662E-03    -76.1160E-03     130.192E-03    -53.5766E-03     285.249E-03
             804     16.1991E-03     90.7399E-03    -4.40849E+06     169.421E+06     109.647E+06     916.012E+03    -58.0284E-03     111.866E-03    -53.8380E-03     191.602E-03    -66.5819E-03     120.688E-03    -53.5290E-03     193.503E-03
             805     852.744E-06     89.9607E-03    -55.1105E+06    -166.530E+06    -54.3775E+06    -911.588E+03    -53.9730E-03     107.864E-03    -53.8906E-03     9.51745E-03    -53.9295E-03     107.191E-03    -53.8411E-03     9.47309E-03
             806     1.70564E-03     89.9739E-03    -53.6972E+06    -162.765E+06    -49.9531E+06    -1.72276E+06    -53.9927E-03     107.927E-03    -53.9343E-03     17.5108E-03    -53.9572E-03     107.268E-03    -53.8702E-03     17.4272E-03
             807     2.55833E-03     89.9957E-03    -51.3881E+06    -156.901E+06    -44.4272E+06    -2.46783E+06    -54.0379E-03     107.981E-03    -53.9428E-03     25.8455E-03    -54.0127E-03     107.345E-03    -53.8629E-03     25.7193E-03
             808     3.41133E-03     90.0257E-03    -48.3135E+06    -150.379E+06    -38.2744E+06    -3.72288E+06    -54.1118E-03     108.055E-03    -53.9435E-03     34.1674E-03    -54.0980E-03     107.447E-03    -53.8468E-03     33.9876E-03
             809     4.26415E-03     90.0641E-03    -44.7201E+06    -141.146E+06    -31.4063E+06    -4.99994E+06    -54.2273E-03     108.167E-03    -53.9398E-03     42.4903E-03    -54.2308E-03     107.602E-03    -53.8273E-03     42.2514E-03
             810     5.11709E-03     90.1109E-03    -41.0617E+06    -136.970E+06    -25.1271E+06    -6.44348E+06    -54.3729E-03     108.312E-03    -53.9395E-03     50.5165E-03    -54.3902E-03     107.771E-03    -53.8070E-03     50.2085E-03
             811     5.97009E-03     90.1650E-03    -37.6116E+06    -134.106E+06    -20.0379E+06    -8.21706E+06    -54.5633E-03     108.499E-03    -53.9357E-03     58.4767E-03    -54.5980E-03     107.982E-03    -53.7869E-03     58.0872E-03
             812     6.82303E-03     90.2279E-03    -34.7875E+06    -124.250E+06    -17.3112E+06    -9.52728E+06    -54.7336E-03     108.644E-03    -53.9099E-03     66.4125E-03    -54.8035E-03     108.199E-03    -53.7659E-03     65.9389E-03
             813     7.67640E-03     90.2977E-03    -31.2095E+06    -116.780E+06    -15.6596E+06    -10.1351E+06    -54.9696E-03     108.850E-03    -53.8808E-03     74.0476E-03    -55.0768E-03     108.478E-03    -53.7446E-03     73.4867E-03
             814     8.52890E-03     90.3759E-03    -27.8865E+06    -109.025E+06    -14.9767E+06    -10.5352E+06    -55.2751E-03     109.127E-03    -53.8516E-03     81.6999E-03    -55.4356E-03     108.845E-03    -53.7280E-03     81.0388E-03
             815     9.38250E-03     90.4607E-03    -25.1004E+06    -100.265E+06    -14.4846E+06    -10.7075E+06    -55.5446E-03     109.369E-03    -53.8244E-03     89.5380E-03    -55.7830E-03     109.204E-03    -53.7151E-03     88.7642E-03
             816     10.2350E-03     90.5548E-03    -22.5655E+06    -89.2066E+06    -14.7280E+06    -10.0270E+06    -55.7713E-03     109.560E-03    -53.7889E-03     97.6178E-03    -56.1204E-03     109.555E-03    -53.7005E-03     96.7256E-03
             817     11.0882E-03     90.6544E-03    -20.4559E+06    -73.6302E+06    -15.7629E+06    -8.75177E+06    -55.9624E-03     109.702E-03    -53.7396E-03     105.520E-03    -56.4748E-03     109.926E-03    -53.6820E-03     104.492E-03
             818     11.9422E-03     90.7646E-03    -19.0067E+06    -49.4659E+06    -16.8302E+06    -6.62330E+06    -56.2200E-03     109.894E-03    -53.6743E-03     115.927E-03    -56.9998E-03     110.480E-03    -53.6592E-03     114.743E-03
             819     12.7957E-03     90.8851E-03    -18.3399E+06    -7.00605E+06    -20.9146E+06    -3.48992E+06    -56.8111E-03     110.375E-03    -53.5643E-03     133.272E-03    -58.1001E-03     111.635E-03    -53.6322E-03     131.881E-03
             820     13.6460E-03     91.0303E-03    -17.1936E+06     62.3882E+06    -16.1893E+06    -514.655E+03    -58.8529E-03     112.321E-03    -53.4684E-03     166.331E-03    -61.2699E-03     114.946E-03    -53.6149E-03     164.636E-03
             821     14.5023E-03     91.2181E-03    -15.3149E+06     124.606E+06     25.4825E+06     936.296E+03    -62.2754E-03     115.841E-03    -53.5652E-03     226.688E-03    -67.7193E-03     121.598E-03    -53.5962E-03     224.771E-03
             822     15.3517E-03     91.4833E-03    -11.6193E+06     161.766E+06     86.6751E+06     1.29242E+06    -64.1052E-03     117.854E-03    -53.7488E-03     287.373E-03    -75.3485E-03     129.379E-03    -53.5332E-03     287.123E-03
             823     16.2178E-03     91.8074E-03    -6.39178E+06     170.290E+06     109.561E+06     831.442E+03    -58.4444E-03     112.215E-03    -53.7702E-03     193.171E-03    -67.1136E-03     121.148E-03    -53.4601E-03     195.118E-03
             824     852.798E-06     91.0161E-03    -56.2473E+06    -163.928E+06    -55.4084E+06    -1.48989E+06    -53.9425E-03     107.878E-03    -53.9357E-03     9.52308E-03    -53.9070E-03     107.222E-03    -53.8935E-03     9.47122E-03
             825     1.70556E-03     91.0295E-03    -54.4060E+06    -160.641E+06    -50.5788E+06    -2.12495E+06    -53.9682E-03     107.905E-03    -53.9372E-03     17.5161E-03    -53.9384E-03     107.259E-03    -53.8783E-03     17.4273E-03
             826     2.55848E-03     91.0513E-03    -51.3304E+06    -154.153E+06    -44.8592E+06    -3.52620E+06    -54.0297E-03     107.967E-03    -53.9371E-03     25.8222E-03    -54.0076E-03     107.345E-03    -53.8635E-03     25.6823E-03
             827     3.41122E-03     91.0812E-03    -47.8168E+06    -147.214E+06    -38.1667E+06    -4.95419E+06    -54.1201E-03     108.060E-03    -53.9396E-03     34.2008E-03    -54.1086E-03     107.467E-03    -53.8477E-03     34.0050E-03
             828     4.26412E-03     91.1197E-03    -44.2840E+06    -138.280E+06    -31.4082E+06    -6.27406E+06    -54.1887E-03     108.122E-03    -53.9335E-03     42.4932E-03    -54.1941E-03     107.571E-03    -53.8259E-03     42.2381E-03
             829     5.11721E-03     91.1660E-03    -40.5532E+06    -133.595E+06    -24.7143E+06    -7.74050E+06    -54.3427E-03     108.272E-03    -53.9291E-03     50.5871E-03    -54.3629E-03     107.745E-03    -53.8002E-03     50.2629E-03
             830     5.97008E-03     91.2209E-03    -37.0803E+06    -130.857E+06    -19.1575E+06    -9.01857E+06    -54.5670E-03     108.494E-03    -53.9270E-03     58.5081E-03    -54.6051E-03     107.991E-03    -53.7792E-03     58.1081E-03
             831     6.82322E-03     91.2828E-03    -33.6541E+06    -120.857E+06    -16.5135E+06    -10.5619E+06    -54.7265E-03     108.627E-03    -53.9009E-03     66.3547E-03    -54.7969E-03     108.197E-03    -53.7594E-03     65.8675E-03
             832     7.67596E-03     91.3535E-03    -30.8165E+06    -114.726E+06    -16.0646E+06    -12.0720E+06    -54.9118E-03     108.778E-03    -53.8661E-03     74.1584E-03    -55.0194E-03     108.415E-03    -53.7354E-03     73.5732E-03
             833     8.52959E-03     91.4308E-03    -27.7944E+06    -107.911E+06    -15.9682E+06    -12.6543E+06    -55.1436E-03     108.970E-03    -53.8265E-03     82.0105E-03    -55.3031E-03     108.694E-03    -53.7096E-03     81.3251E-03
             834     9.38200E-03     91.5168E-03    -25.0811E+06    -98.9046E+06    -15.1883E+06    -12.5768E+06    -55.3691E-03     109.156E-03    -53.7870E-03     89.8765E-03    -55.6073E-03     108.998E-03    -53.6831E-03     89.0834E-03
             835     10.2361E-03     91.6089E-03    -22.9159E+06    -89.5676E+06    -15.9238E+06    -12.0053E+06    -55.6265E-03     109.367E-03    -53.7402E-03     97.8057E-03    -55.9744E-03     109.361E-03    -53.6567E-03     96.8912E-03
             836     11.0892E-03     91.7112E-03    -21.1728E+06    -75.0707E+06    -17.3374E+06    -10.6625E+06    -56.0476E-03     109.738E-03    -53.6909E-03     105.762E-03    -56.5595E-03     109.959E-03    -53.6380E-03     104.710E-03
             837     11.9415E-03     91.8183E-03    -19.4622E+06    -51.8703E+06    -18.2312E+06    -8.64712E+06    -56.3554E-03     109.993E-03    -53.6380E-03     115.926E-03    -57.1324E-03     110.570E-03    -53.6257E-03     114.713E-03
             838     12.7944E-03     91.9417E-03    -17.0902E+06    -11.3514E+06    -22.0472E+06    -5.17198E+06    -56.6825E-03     110.213E-03    -53.5308E-03     133.824E-03    -57.9626E-03     111.456E-03    -53.5998E-03     132.412E-03
             839     13.6510E-03     92.0844E-03    -16.5726E+06     58.9900E+06    -18.6637E+06    -1.35744E+06    -58.1642E-03     111.562E-03    -53.3982E-03     167.967E-03    -60.5690E-03     114.172E-03    -53.5530E-03     166.296E-03
             840     14.5017E-03     92.2753E-03    -16.1763E+06     122.954E+06     21.6755E+06     921.328E+03    -61.9259E-03     115.379E-03    -53.4535E-03     227.718E-03    -67.3970E-03     121.167E-03    -53.4999E-03     225.826E-03
             841     15.3591E-03     92.5392E-03    -11.7332E+06     162.431E+06     85.3213E+06     1.81717E+06    -65.3906E-03     119.066E-03    -53.6754E-03     286.354E-03    -76.5793E-03     130.542E-03    -53.4673E-03     285.936E-03
             842     16.2065E-03     92.8529E-03    -5.42690E+06     171.747E+06     109.920E+06     825.712E+03    -58.7987E-03     112.555E-03    -53.7567E-03     189.529E-03    -67.3326E-03     121.361E-03    -53.4482E-03     191.332E-03
             843     852.774E-06     92.0717E-03    -54.7632E+06    -160.766E+06    -53.9258E+06    -1.43169E+06    -53.9699E-03     107.891E-03    -53.9206E-03     9.57461E-03    -53.9337E-03     107.246E-03    -53.8778E-03     9.52367E-03
             844     1.70555E-03     92.0852E-03    -53.2717E+06    -157.342E+06    -50.8306E+06    -3.06115E+06    -53.9636E-03     107.896E-03    -53.9328E-03     17.4784E-03    -53.9325E-03     107.265E-03    -53.8816E-03     17.3774E-03
             845     2.55838E-03     92.1066E-03    -50.9945E+06    -150.404E+06    -45.6742E+06    -4.80165E+06    -53.9915E-03     107.914E-03    -53.9229E-03     25.8656E-03    -53.9720E-03     107.312E-03    -53.8593E-03     25.7093E-03
             846     3.41130E-03     92.1369E-03    -48.0999E+06    -144.033E+06    -38.9027E+06    -6.26968E+06    -54.0766E-03     107.995E-03    -53.9189E-03     34.2487E-03    -54.0699E-03     107.420E-03    -53.8348E-03     34.0363E-03
             847     4.26426E-03     92.1749E-03    -44.5848E+06    -134.831E+06    -31.8725E+06    -7.62424E+06    -54.1727E-03     108.084E-03    -53.9111E-03     42.5076E-03    -54.1840E-03     107.551E-03    -53.8103E-03     42.2352E-03
             848     5.11717E-03     92.2217E-03    -41.1943E+06    -130.483E+06    -25.1099E+06    -8.78747E+06    -54.3200E-03     108.228E-03    -53.9084E-03     50.6426E-03    -54.3473E-03     107.719E-03    -53.7850E-03     50.3054E-03
             849     5.97029E-03     92.2760E-03    -37.5464E+06    -127.239E+06    -19.6920E+06    -10.3114E+06    -54.5068E-03     108.409E-03    -53.9017E-03     58.6108E-03    -54.5515E-03     107.925E-03    -53.7612E-03     58.1953E-03
             850     6.82306E-03     92.3386E-03    -33.9920E+06    -117.263E+06    -17.1873E+06    -12.0895E+06    -54.6449E-03     108.513E-03    -53.8685E-03     66.4923E-03    -54.7210E-03     108.102E-03    -53.7352E-03     65.9867E-03
             851     7.67659E-03     92.4082E-03    -30.5845E+06    -111.463E+06    -16.1542E+06    -13.5688E+06    -54.7979E-03     108.626E-03    -53.8279E-03     74.4373E-03    -54.9088E-03     108.279E-03    -53.7027E-03     73.8347E-03
             852     8.52935E-03     92.4864E-03    -27.9162E+06    -106.035E+06    -16.5528E+06    -14.6016E+06    -54.9766E-03     108.754E-03    -53.7771E-03     82.1723E-03    -55.1379E-03     108.487E-03    -53.6656E-03     81.4648E-03
             853     9.38367E-03     92.5711E-03    -25.2818E+06    -98.0276E+06    -15.9438E+06    -14.5314E+06    -55.2455E-03     108.974E-03    -53.7285E-03     90.0340E-03    -55.4845E-03     108.821E-03    -53.6294E-03     89.2182E-03
             854     10.2359E-03     92.6651E-03    -23.2198E+06    -89.4122E+06    -16.5813E+06    -13.9146E+06    -55.6398E-03     109.322E-03    -53.6826E-03     97.9526E-03    -55.9893E-03     109.320E-03    -53.6022E-03     97.0128E-03
             855     11.0895E-03     92.7648E-03    -21.5550E+06    -76.2157E+06    -18.4840E+06    -12.6409E+06    -55.9166E-03     109.548E-03    -53.6317E-03     106.138E-03    -56.4261E-03     109.764E-03    -53.5824E-03     105.064E-03
             856     11.9428E-03     92.8761E-03    -19.7843E+06    -53.6885E+06    -19.2405E+06    -10.5268E+06    -56.0920E-03     109.660E-03    -53.5684E-03     116.448E-03    -56.8642E-03     110.228E-03    -53.5581E-03     115.221E-03
             857     12.7971E-03     92.9941E-03    -18.8210E+06    -16.5719E+06    -24.5538E+06    -7.44100E+06    -56.6420E-03     110.095E-03    -53.4529E-03     134.187E-03    -57.9263E-03     111.325E-03    -53.5244E-03     132.746E-03
             858     13.6483E-03     93.1406E-03    -17.5940E+06     53.4331E+06    -23.8641E+06    -2.65010E+06    -57.8553E-03     111.156E-03    -53.3011E-03     167.367E-03    -60.2341E-03     113.732E-03    -53.4724E-03     165.695E-03
             859     14.5063E-03     93.3275E-03    -15.4858E+06     121.086E+06     17.2401E+06     1.02210E+06    -61.6993E-03     115.042E-03    -53.3429E-03     227.133E-03    -67.1278E-03     120.796E-03    -53.4098E-03     225.247E-03
             860     15.3573E-03     93.5964E-03    -11.8124E+06     162.434E+06     83.5284E+06     1.18233E+06    -66.1580E-03     119.744E-03    -53.5864E-03     289.005E-03    -77.4530E-03     131.332E-03    -53.3871E-03     288.455E-03
             861     16.2081E-03     93.9176E-03    -5.78927E+06     172.544E+06     109.310E+06     258.117E+03    -59.5493E-03     113.249E-03    -53.6994E-03     192.319E-03    -68.1953E-03     122.170E-03    -53.3946E-03     194.008E-03
             862     852.783E-06     93.1275E-03    -54.2155E+06    -156.939E+06    -54.1016E+06    -1.73695E+06    -53.9524E-03     107.844E-03    -53.8911E-03     9.55049E-03    -53.9188E-03     107.217E-03    -53.8555E-03     9.49559E-03
             863     1.70558E-03     93.1405E-03    -52.8910E+06    -152.676E+06    -50.9034E+06    -3.97015E+06    -53.9210E-03     107.824E-03    -53.9027E-03     17.5085E-03    -53.8947E-03     107.215E-03    -53.8592E-03     17.3959E-03
             864     2.55848E-03     93.1623E-03    -50.8051E+06    -146.351E+06    -45.7627E+06    -5.79336E+06    -53.9628E-03     107.853E-03    -53.8902E-03     25.9276E-03    -53.9481E-03     107.271E-03    -53.8332E-03     25.7588E-03
             865     3.41142E-03     93.1921E-03    -47.9843E+06    -139.991E+06    -39.0243E+06    -7.42942E+06    -54.0280E-03     107.913E-03    -53.8845E-03     34.2594E-03    -54.0265E-03     107.357E-03    -53.8071E-03     34.0324E-03
             866     4.26433E-03     93.2306E-03    -44.7145E+06    -131.239E+06    -32.4879E+06    -8.90465E+06    -54.1412E-03     108.015E-03    -53.8735E-03     42.5595E-03    -54.1574E-03     107.500E-03    -53.7808E-03     42.2711E-03
             867     5.11738E-03     93.2768E-03    -40.8850E+06    -127.056E+06    -25.7410E+06    -10.1007E+06    -54.2605E-03     108.129E-03    -53.8682E-03     50.7292E-03    -54.2901E-03     107.637E-03    -53.7534E-03     50.3759E-03
             868     5.97031E-03     93.3315E-03    -37.1609E+06    -123.131E+06    -19.9520E+06    -11.6823E+06    -54.3529E-03     108.205E-03    -53.8519E-03     58.7809E-03    -54.4008E-03     107.742E-03    -53.7192E-03     58.3501E-03
             869     6.82381E-03     93.3935E-03    -33.5060E+06    -113.175E+06    -16.7803E+06    -13.7504E+06    -54.5166E-03     108.326E-03    -53.8091E-03     66.6667E-03    -54.5964E-03     107.934E-03    -53.6803E-03     66.1417E-03
             870     7.67675E-03     93.4635E-03    -30.4617E+06    -107.997E+06    -15.7598E+06    -15.2465E+06    -54.7336E-03     108.499E-03    -53.7651E-03     74.4856E-03    -54.8493E-03     108.169E-03    -53.6432E-03     73.8624E-03
             871     8.53060E-03     93.5411E-03    -27.7189E+06    -103.335E+06    -16.0308E+06    -16.0882E+06    -54.8953E-03     108.610E-03    -53.7151E-03     82.1522E-03    -55.0601E-03     108.356E-03    -53.6053E-03     81.4267E-03
             872     9.38296E-03     93.6263E-03    -26.0027E+06    -97.4985E+06    -16.6284E+06    -16.3009E+06    -55.1394E-03     108.802E-03    -53.6621E-03     90.2030E-03    -55.3813E-03     108.653E-03    -53.5661E-03     89.3669E-03
             873     10.2376E-03     93.7195E-03    -23.9728E+06    -89.1979E+06    -17.3961E+06    -15.7641E+06    -55.5381E-03     109.150E-03    -53.6116E-03     98.4058E-03    -55.8902E-03     109.151E-03    -53.5345E-03     97.4458E-03
             874     11.0899E-03     93.8212E-03    -21.8146E+06    -76.7997E+06    -18.9649E+06    -14.6664E+06    -55.6506E-03     109.204E-03    -53.5532E-03     106.220E-03    -56.1572E-03     109.415E-03    -53.5050E-03     105.129E-03
             875     11.9443E-03     93.9286E-03    -20.0642E+06    -57.0861E+06    -20.7941E+06    -12.5437E+06    -55.8121E-03     109.286E-03    -53.4742E-03     116.441E-03    -56.5746E-03     109.835E-03    -53.4663E-03     115.198E-03
             876     12.7971E-03     94.0512E-03    -18.3151E+06    -20.8330E+06    -25.7287E+06    -8.95733E+06    -56.6633E-03     110.020E-03    -53.3568E-03     134.308E-03    -57.9319E-03     111.224E-03    -53.4287E-03     132.853E-03
             877     13.6525E-03     94.1941E-03    -16.9287E+06     47.5337E+06    -24.8865E+06    -4.81244E+06    -58.6609E-03     111.900E-03    -53.2396E-03     166.931E-03    -61.0402E-03     114.461E-03    -53.4084E-03     165.197E-03
             878     14.5036E-03     94.3816E-03    -13.5809E+06     117.357E+06     14.6411E+06    -538.051E+03    -62.1687E-03     115.481E-03    -53.3126E-03     226.400E-03    -67.5434E-03     121.182E-03    -53.3898E-03     224.454E-03
             879     15.3588E-03     94.6532E-03    -9.08358E+06     163.736E+06     82.5059E+06     1.70497E+06    -63.7985E-03     117.307E-03    -53.5084E-03     288.618E-03    -75.0392E-03     128.857E-03    -53.3201E-03     288.403E-03
             880     16.2193E-03     94.9710E-03    -4.99498E+06     173.887E+06     109.898E+06     1.41853E+06    -59.2353E-03     112.801E-03    -53.5662E-03     191.810E-03    -67.8724E-03     121.720E-03    -53.2616E-03     193.698E-03
             881     852.754E-06     94.1827E-03    -53.9420E+06    -152.075E+06    -53.6804E+06    -2.60537E+06    -53.8645E-03     107.708E-03    -53.8438E-03     9.53153E-03    -53.8373E-03     107.105E-03    -53.8134E-03     9.46534E-03
             882     1.70576E-03     94.1962E-03    -52.7803E+06    -147.345E+06    -50.2047E+06    -4.65714E+06    -53.8772E-03     107.719E-03    -53.8417E-03     17.5417E-03    -53.8591E-03     107.136E-03    -53.8026E-03     17.4205E-03
             883     2.55860E-03     94.2176E-03    -50.4389E+06    -141.363E+06    -44.8105E+06    -6.85126E+06    -53.9264E-03     107.765E-03    -53.8390E-03     25.9174E-03    -53.9184E-03     107.206E-03    -53.7849E-03     25.7352E-03
             884     3.41149E-03     94.2477E-03    -47.2846E+06    -135.362E+06    -38.6949E+06    -8.83510E+06    -53.9760E-03     107.809E-03    -53.8329E-03     34.3118E-03    -53.9781E-03     107.275E-03    -53.7615E-03     34.0672E-03
             885     4.26457E-03     94.2857E-03    -43.7009E+06    -127.375E+06    -32.2568E+06    -10.2659E+06    -54.0418E-03     107.858E-03    -53.8166E-03     42.6702E-03    -54.0587E-03     107.362E-03    -53.7298E-03     42.3654E-03
             886     5.11758E-03     94.3324E-03    -40.1312E+06    -123.252E+06    -25.5149E+06    -11.6322E+06    -54.1224E-03     107.923E-03    -53.8005E-03     50.8365E-03    -54.1539E-03     107.448E-03    -53.6911E-03     50.4650E-03
             887     5.97098E-03     94.3862E-03    -36.0915E+06    -118.354E+06    -19.4226E+06    -13.6010E+06    -54.2172E-03     107.990E-03    -53.7730E-03     58.8557E-03    -54.2673E-03     107.548E-03    -53.6462E-03     58.4018E-03
             888     6.82411E-03     94.4487E-03    -32.0719E+06    -108.792E+06    -15.6824E+06    -15.4868E+06    -54.4242E-03     108.152E-03    -53.7275E-03     66.8671E-03    -54.5046E-03     107.777E-03    -53.6016E-03     66.3218E-03
             889     7.67761E-03     94.5184E-03    -28.9451E+06    -104.950E+06    -14.2472E+06    -16.3495E+06    -54.6573E-03     108.343E-03    -53.6861E-03     74.5969E-03    -54.7715E-03     108.024E-03    -53.5632E-03     73.9616E-03
             890     8.53040E-03     94.5960E-03    -27.4989E+06    -100.875E+06    -15.4161E+06    -16.8335E+06    -54.8265E-03     108.461E-03    -53.6346E-03     82.3061E-03    -54.9944E-03     108.218E-03    -53.5256E-03     81.5730E-03
             891     9.38504E-03     94.6808E-03    -25.4693E+06    -95.0304E+06    -15.5397E+06    -17.5274E+06    -55.0544E-03     108.638E-03    -53.5832E-03     90.4480E-03    -55.2981E-03     108.499E-03    -53.4862E-03     89.5989E-03
             892     10.2372E-03     94.7747E-03    -23.5140E+06    -88.4716E+06    -17.1498E+06    -17.5794E+06    -55.2964E-03     108.820E-03    -53.5233E-03     98.7269E-03    -55.6455E-03     108.821E-03    -53.4467E-03     97.7509E-03
             893     11.0920E-03     94.8753E-03    -21.5119E+06    -77.2168E+06    -19.3711E+06    -16.8164E+06    -55.4850E-03     108.939E-03    -53.4537E-03     106.173E-03    -55.9850E-03     109.144E-03    -53.4074E-03     105.061E-03
             894     11.9447E-03     94.9838E-03    -18.9525E+06    -59.1921E+06    -21.1612E+06    -15.1085E+06    -55.9421E-03     109.323E-03    -53.3805E-03     116.691E-03    -56.6951E-03     109.860E-03    -53.3730E-03     115.415E-03
             895     12.7995E-03     95.1050E-03    -17.3190E+06    -25.5501E+06    -26.7799E+06    -11.4801E+06    -56.9206E-03     110.203E-03    -53.2821E-03     134.012E-03    -58.1667E-03     111.374E-03    -53.3539E-03     132.523E-03
             896     13.6514E-03     95.2493E-03    -15.9745E+06     41.6583E+06    -25.2301E+06    -6.56224E+06    -59.1380E-03     112.334E-03    -53.1955E-03     167.378E-03    -61.5103E-03     114.870E-03    -53.3589E-03     165.607E-03
             897     14.5038E-03     95.4405E-03    -15.5228E+06     113.038E+06     10.8501E+06    -2.42671E+06    -62.5570E-03     115.839E-03    -53.2822E-03     226.141E-03    -67.9400E-03     121.537E-03    -53.3693E-03     224.173E-03
             898     15.3588E-03     95.7009E-03    -12.0735E+06     160.849E+06     76.6992E+06     695.489E+03    -64.2192E-03     117.724E-03    -53.5049E-03     285.236E-03    -75.3252E-03     129.136E-03    -53.3371E-03     284.950E-03
             899     16.2104E-03     96.0241E-03    -5.61675E+06     173.966E+06     108.199E+06     1.61970E+06    -58.2350E-03     111.810E-03    -53.5745E-03     192.750E-03    -66.8183E-03     120.677E-03    -53.2777E-03     194.682E-03
             900     853.035E-06     95.2385E-03    -51.7767E+06    -146.177E+06    -51.0023E+06    -2.78965E+06    -53.8099E-03     107.551E-03    -53.7407E-03     9.51457E-03    -53.7843E-03     106.970E-03    -53.7087E-03     9.44628E-03
             901     1.70577E-03     95.2513E-03    -50.4019E+06    -141.475E+06    -47.5960E+06    -5.10938E+06    -53.8205E-03     107.589E-03    -53.7685E-03     17.5523E-03    -53.8028E-03     107.028E-03    -53.7282E-03     17.4255E-03
             902     2.55873E-03     95.2732E-03    -48.4509E+06    -135.560E+06    -42.8882E+06    -7.52034E+06    -53.8315E-03     107.595E-03    -53.7640E-03     25.9819E-03    -53.8248E-03     107.060E-03    -53.7116E-03     25.7918E-03
             903     3.41183E-03     95.3026E-03    -45.9148E+06    -129.799E+06    -37.0827E+06    -9.99133E+06    -53.8810E-03     107.633E-03    -53.7522E-03     34.4090E-03    -53.8865E-03     107.122E-03    -53.6829E-03     34.1505E-03
             904     4.26483E-03     95.3412E-03    -42.7245E+06    -123.217E+06    -31.2579E+06    -11.8613E+06    -53.8967E-03     107.625E-03    -53.7280E-03     42.7338E-03    -53.9160E-03     107.146E-03    -53.6436E-03     42.4097E-03
             905     5.11825E-03     95.3869E-03    -38.9104E+06    -118.858E+06    -24.9731E+06    -13.3085E+06    -53.9580E-03     107.655E-03    -53.6974E-03     50.9455E-03    -53.9902E-03     107.200E-03    -53.5935E-03     50.5545E-03
             906     5.97138E-03     95.4416E-03    -35.1906E+06    -112.899E+06    -19.0702E+06    -15.4363E+06    -54.1246E-03     107.788E-03    -53.6629E-03     59.0091E-03    -54.1782E-03     107.371E-03    -53.5435E-03     58.5335E-03
             907     6.82497E-03     95.5030E-03    -31.8991E+06    -104.705E+06    -15.2204E+06    -17.2036E+06    -54.2540E-03     107.871E-03    -53.6175E-03     67.1067E-03    -54.3393E-03     107.516E-03    -53.4955E-03     66.5429E-03
             908     7.67816E-03     95.5738E-03    -28.9938E+06    -103.226E+06    -13.8397E+06    -17.4061E+06    -54.4416E-03     108.011E-03    -53.5692E-03     74.9771E-03    -54.5581E-03     107.698E-03    -53.4466E-03     74.3333E-03
             909     8.53231E-03     95.6500E-03    -26.0779E+06    -97.0765E+06    -14.0105E+06    -17.6208E+06    -54.8041E-03     108.319E-03    -53.5151E-03     82.8061E-03    -54.9718E-03     108.090E-03    -53.4066E-03     82.0664E-03
             910     9.38453E-03     95.7361E-03    -24.0539E+06    -91.8787E+06    -14.2859E+06    -18.8102E+06    -54.9840E-03     108.453E-03    -53.4691E-03     90.6947E-03    -55.2266E-03     108.326E-03    -53.3724E-03     89.8320E-03
             911     10.2397E-03     95.8282E-03    -21.7199E+06    -87.1700E+06    -16.3167E+06    -19.3094E+06    -55.1172E-03     108.524E-03    -53.4069E-03     99.1173E-03    -55.4578E-03     108.525E-03    -53.3306E-03     98.1265E-03
             912     11.0922E-03     95.9306E-03    -19.6158E+06    -76.9576E+06    -19.0223E+06    -18.8905E+06    -55.4335E-03     108.767E-03    -53.3336E-03     106.621E-03    -55.9231E-03     108.969E-03    -53.2887E-03     105.488E-03
             913     11.9470E-03     96.0371E-03    -18.5121E+06    -60.6037E+06    -21.5161E+06    -17.5249E+06    -56.2079E-03     109.482E-03    -53.2743E-03     117.357E-03    -56.9559E-03     110.012E-03    -53.2672E-03     116.048E-03
             914     12.7987E-03     96.1614E-03    -16.9588E+06    -29.9058E+06    -27.2888E+06    -14.2978E+06    -57.4026E-03     110.610E-03    -53.2071E-03     135.147E-03    -58.6512E-03     111.771E-03    -53.2755E-03     133.608E-03
             915     13.6521E-03     96.3041E-03    -16.3988E+06     32.9547E+06    -30.9870E+06    -7.68773E+06    -58.8142E-03     111.920E-03    -53.1061E-03     168.478E-03    -61.1639E-03     114.419E-03    -53.2851E-03     166.713E-03
             916     14.5074E-03     96.4955E-03    -16.4096E+06     109.177E+06     3.29886E+06    -1.61033E+06    -62.7119E-03     115.878E-03    -53.1660E-03     227.975E-03    -68.1099E-03     121.596E-03    -53.2840E-03     226.026E-03
             917     15.3567E-03     96.7597E-03    -14.0162E+06     159.698E+06     72.2041E+06    -718.716E+03    -66.2504E-03     119.705E-03    -53.4545E-03     286.789E-03    -77.4617E-03     131.224E-03    -53.3047E-03     286.244E-03
             918     16.2126E-03     97.0755E-03    -6.89592E+06     172.695E+06     105.450E+06    -504.192E+03    -57.7260E-03     111.297E-03    -53.5706E-03     194.533E-03    -66.4110E-03     120.265E-03    -53.2838E-03     196.375E-03
             919     852.902E-06     96.2932E-03    -49.3647E+06    -139.351E+06    -49.1379E+06    -3.24059E+06    -53.7197E-03     107.357E-03    -53.6375E-03     9.55207E-03    -53.6945E-03     106.805E-03    -53.6095E-03     9.47823E-03
             920     1.70598E-03     96.3071E-03    -47.9090E+06    -134.971E+06    -45.5084E+06    -5.78443E+06    -53.6751E-03     107.336E-03    -53.6610E-03     17.6019E-03    -53.6573E-03     106.801E-03    -53.6234E-03     17.4672E-03
             921     2.55913E-03     96.3278E-03    -45.5860E+06    -129.495E+06    -40.2028E+06    -8.15425E+06    -53.7042E-03     107.351E-03    -53.6472E-03     26.0651E-03    -53.6957E-03     106.838E-03    -53.5943E-03     25.8677E-03
             922     3.41214E-03     96.3583E-03    -43.1084E+06    -123.750E+06    -34.1938E+06    -10.3532E+06    -53.7157E-03     107.345E-03    -53.6291E-03     34.4879E-03    -53.7200E-03     106.856E-03    -53.5581E-03     34.2262E-03
             923     4.26549E-03     96.3955E-03    -40.4491E+06    -117.754E+06    -28.9743E+06    -12.8448E+06    -53.7300E-03     107.325E-03    -53.5945E-03     42.8311E-03    -53.7490E-03     106.866E-03    -53.5100E-03     42.4962E-03
             924     5.11874E-03     96.4422E-03    -37.5662E+06    -114.115E+06    -23.9905E+06    -14.8265E+06    -53.8037E-03     107.359E-03    -53.5548E-03     51.1251E-03    -53.8371E-03     106.923E-03    -53.4548E-03     50.7172E-03
             925     5.97246E-03     96.4957E-03    -34.2296E+06    -107.008E+06    -18.4198E+06    -16.8136E+06    -53.9142E-03     107.425E-03    -53.5109E-03     59.3466E-03    -53.9718E-03     107.035E-03    -53.3982E-03     58.8576E-03
             926     6.82562E-03     96.5585E-03    -31.3681E+06    -101.409E+06    -14.6511E+06    -17.9642E+06    -54.0289E-03     107.488E-03    -53.4595E-03     67.4001E-03    -54.1162E-03     107.147E-03    -53.3402E-03     66.8315E-03
             927     7.67993E-03     96.6270E-03    -28.9339E+06    -100.213E+06    -13.2742E+06    -18.5963E+06    -54.2335E-03     107.638E-03    -53.4043E-03     75.3909E-03    -54.3536E-03     107.338E-03    -53.2834E-03     74.7376E-03
             928     8.53291E-03     96.7058E-03    -26.0347E+06    -93.9564E+06    -13.9775E+06    -19.7418E+06    -54.5034E-03     107.840E-03    -53.3365E-03     83.5133E-03    -54.6731E-03     107.624E-03    -53.2324E-03     82.7557E-03
             929     9.38751E-03     96.7899E-03    -22.8178E+06    -88.7593E+06    -13.6377E+06    -20.6387E+06    -54.8676E-03     108.153E-03    -53.2851E-03     91.5868E-03    -55.1086E-03     108.037E-03    -53.1915E-03     90.7071E-03
             930     10.2399E-03     96.8828E-03    -20.7066E+06    -84.8898E+06    -15.5454E+06    -20.9514E+06    -55.0673E-03     108.297E-03    -53.2297E-03     99.8281E-03    -55.4060E-03     108.306E-03    -53.1543E-03     98.8220E-03
             931     11.0952E-03     96.9842E-03    -19.3827E+06    -76.7802E+06    -19.2381E+06    -20.6314E+06    -55.5046E-03     108.670E-03    -53.1657E-03     107.907E-03    -55.9944E-03     108.875E-03    -53.1224E-03     106.755E-03
             932     11.9474E-03     97.0926E-03    -17.7235E+06    -61.0288E+06    -21.1682E+06    -19.5126E+06    -56.3767E-03     109.500E-03    -53.1237E-03     118.830E-03    -57.1231E-03     110.029E-03    -53.1153E-03     117.497E-03
             933     12.8019E-03     97.2164E-03    -16.8493E+06    -35.4131E+06    -28.1617E+06    -16.0815E+06    -57.2838E-03     110.347E-03    -53.0634E-03     136.815E-03    -58.5261E-03     111.486E-03    -53.1284E-03     135.265E-03
             934     13.6545E-03     97.3602E-03    -16.4217E+06     23.9091E+06    -35.2304E+06    -9.60439E+06    -58.9393E-03     111.893E-03    -52.9540E-03     169.181E-03    -61.2670E-03     114.350E-03    -53.1410E-03     167.396E-03
             935     14.5070E-03     97.5482E-03    -14.1617E+06     103.191E+06    -5.71082E+06    -2.51546E+06    -62.6673E-03     115.651E-03    -52.9834E-03     229.655E-03    -68.0447E-03     121.361E-03    -53.1411E-03     227.688E-03
             936     15.3641E-03     97.8198E-03    -10.0752E+06     160.740E+06     67.7520E+06     513.862E+03    -65.2965E-03     118.539E-03    -53.2421E-03     289.871E-03    -76.4848E-03     130.065E-03    -53.1218E-03     289.467E-03
             937     16.2113E-03     98.1329E-03    -6.24110E+06     173.662E+06     105.456E+06    -410.782E+03    -58.3191E-03     111.687E-03    -53.3681E-03     194.986E-03    -66.9694E-03     120.626E-03    -53.0836E-03     196.880E-03
             938     853.071E-06     97.3489E-03    -46.4560E+06    -131.690E+06    -46.0461E+06    -3.92006E+06    -53.5464E-03     107.032E-03    -53.4852E-03     9.60918E-03    -53.5223E-03     106.509E-03    -53.4571E-03     9.52700E-03
             939     1.70634E-03     97.3613E-03    -45.0286E+06    -127.519E+06    -42.7952E+06    -6.66133E+06    -53.5051E-03     107.001E-03    -53.4957E-03     17.6708E-03    -53.4876E-03     106.495E-03    -53.4595E-03     17.5256E-03
             940     2.55938E-03     97.3834E-03    -42.6658E+06    -123.076E+06    -37.6476E+06    -9.41980E+06    -53.4988E-03     106.974E-03    -53.4748E-03     26.1582E-03    -53.4886E-03     106.484E-03    -53.4227E-03     25.9459E-03
             941     3.41286E-03     97.4123E-03    -39.0994E+06    -117.672E+06    -31.4282E+06    -11.6184E+06    -53.4838E-03     106.927E-03    -53.4435E-03     34.6190E-03    -53.4807E-03     106.459E-03    -53.3734E-03     34.3431E-03
             942     4.26624E-03     97.4507E-03    -35.8198E+06    -112.211E+06    -25.2259E+06    -13.2579E+06    -53.5217E-03     106.926E-03    -53.4039E-03     43.0216E-03    -53.5306E-03     106.482E-03    -53.3154E-03     42.6843E-03
             943     5.11992E-03     97.4960E-03    -33.2941E+06    -108.500E+06    -20.0696E+06    -15.1274E+06    -53.5693E-03     106.928E-03    -53.3586E-03     51.4190E-03    -53.5945E-03     106.508E-03    -53.2533E-03     51.0112E-03
             944     5.97330E-03     97.5506E-03    -31.2719E+06    -101.430E+06    -16.5571E+06    -17.2902E+06    -53.5977E-03     106.891E-03    -53.2937E-03     59.7584E-03    -53.6502E-03     106.521E-03    -53.1841E-03     59.2693E-03
             945     6.82777E-03     97.6116E-03    -29.0111E+06    -98.2439E+06    -12.9918E+06    -18.2401E+06    -53.7793E-03     107.013E-03    -53.2341E-03     67.9494E-03    -53.8606E-03     106.681E-03    -53.1145E-03     67.3838E-03
             946     7.68083E-03     97.6821E-03    -26.3617E+06    -95.5227E+06    -11.1256E+06    -19.6494E+06    -53.9643E-03     107.136E-03    -53.1719E-03     76.1001E-03    -54.0799E-03     106.851E-03    -53.0508E-03     75.4414E-03
             947     8.53561E-03     97.7586E-03    -23.6779E+06    -90.0188E+06    -12.0730E+06    -21.6880E+06    -54.0847E-03     107.175E-03    -53.0901E-03     84.2822E-03    -54.2486E-03     106.970E-03    -52.9856E-03     83.5108E-03
             948     9.38928E-03     97.8443E-03    -21.8089E+06    -86.8087E+06    -12.6952E+06    -21.9856E+06    -54.4711E-03     107.491E-03    -53.0196E-03     92.7181E-03    -54.7075E-03     107.378E-03    -52.9255E-03     91.8357E-03
             949     10.2439E-03     97.9375E-03    -20.4827E+06    -81.6621E+06    -14.2108E+06    -22.1786E+06    -55.0345E-03     107.999E-03    -52.9645E-03     100.904E-03    -55.3778E-03     108.021E-03    -52.8874E-03     99.8891E-03
             950     11.0968E-03     98.0370E-03    -18.8207E+06    -75.0418E+06    -18.0404E+06    -22.4122E+06    -55.5926E-03     108.511E-03    -52.9184E-03     109.641E-03    -56.0845E-03     108.722E-03    -52.8725E-03     108.472E-03
             951     11.9512E-03     98.1493E-03    -17.6319E+06    -62.1696E+06    -21.4127E+06    -21.2429E+06    -56.2793E-03     109.164E-03    -52.8842E-03     120.654E-03    -57.0235E-03     109.687E-03    -52.8756E-03     119.310E-03
             952     12.8036E-03     98.2691E-03    -16.3093E+06    -40.2787E+06    -28.4072E+06    -18.0454E+06    -57.2861E-03     110.120E-03    -52.8336E-03     138.308E-03    -58.5179E-03     111.233E-03    -52.8936E-03     136.742E-03
             953     13.6577E-03     98.4170E-03    -15.2255E+06     14.9938E+06    -36.6254E+06    -11.8129E+06    -59.3788E-03     112.122E-03    -52.7433E-03     170.672E-03    -61.6931E-03     114.542E-03    -52.9261E-03     168.850E-03
             954     14.5110E-03     98.6033E-03    -13.8406E+06     95.5884E+06    -13.1742E+06    -5.13525E+06    -62.9724E-03     115.743E-03    -52.7705E-03     230.231E-03    -68.3545E-03     121.453E-03    -52.9549E-03     228.222E-03
             955     15.3623E-03     98.8732E-03    -10.0772E+06     158.810E+06     59.8976E+06    -1.30499E+06    -64.2049E-03     117.220E-03    -53.0147E-03     287.767E-03    -75.2679E-03     128.637E-03    -52.9309E-03     287.471E-03
             956     16.2283E-03     99.1874E-03    -5.08294E+06     174.134E+06     103.918E+06     182.450E+03    -58.1757E-03     111.335E-03    -53.1589E-03     191.701E-03    -66.6634E-03     120.121E-03    -52.8844E-03     193.639E-03
             957     853.413E-06     98.4029E-03    -40.6477E+06    -122.977E+06    -39.9916E+06    -4.04649E+06    -53.3039E-03     106.561E-03    -53.2570E-03     9.59257E-03    -53.2721E-03     106.064E-03    -53.2197E-03     9.50929E-03
             958     1.70652E-03     98.4165E-03    -39.6527E+06    -119.443E+06    -37.9322E+06    -7.28583E+06    -53.2592E-03     106.514E-03    -53.2544E-03     17.7875E-03    -53.2335E-03     106.033E-03    -53.2134E-03     17.6355E-03
             959     2.56020E-03     98.4372E-03    -37.9334E+06    -115.382E+06    -34.0620E+06    -10.4461E+06    -53.2035E-03     106.422E-03    -53.2184E-03     26.3140E-03    -53.1858E-03     105.959E-03    -53.1664E-03     26.0907E-03
             960     3.41364E-03     98.4672E-03    -35.8679E+06    -111.436E+06    -29.1784E+06    -13.1698E+06    -53.1789E-03     106.350E-03    -53.1713E-03     34.8599E-03    -53.1716E-03     105.905E-03    -53.1036E-03     34.5673E-03
             961     4.26745E-03     98.5043E-03    -32.9734E+06    -107.624E+06    -23.4797E+06    -14.3605E+06    -53.1821E-03     106.302E-03    -53.1196E-03     43.4083E-03    -53.1854E-03     105.874E-03    -53.0331E-03     43.0615E-03
             962     5.12113E-03     98.5505E-03    -29.5794E+06    -102.485E+06    -17.5465E+06    -15.8875E+06    -53.1878E-03     106.247E-03    -53.0592E-03     51.8799E-03    -53.2060E-03     105.847E-03    -52.9554E-03     51.4685E-03
             963     5.97562E-03     98.6035E-03    -26.5333E+06    -96.7143E+06    -13.2589E+06    -17.2207E+06    -53.2692E-03     106.256E-03    -52.9866E-03     60.3353E-03    -53.3084E-03     105.896E-03    -52.8742E-03     59.8542E-03
             964     6.82915E-03     98.6659E-03    -24.3067E+06    -94.3557E+06    -10.1640E+06    -18.3837E+06    -53.3608E-03     106.274E-03    -52.9136E-03     68.7314E-03    -53.4264E-03     105.948E-03    -52.7924E-03     68.1739E-03
             965     7.68421E-03     98.7349E-03    -21.9485E+06    -89.4166E+06    -7.95662E+06    -20.7028E+06    -53.4930E-03     106.325E-03    -52.8318E-03     77.0663E-03    -53.5973E-03     106.057E-03    -52.7101E-03     76.4064E-03
             966     8.53799E-03     98.8122E-03    -20.5007E+06    -86.6549E+06    -9.06368E+06    -21.7902E+06    -53.7481E-03     106.491E-03    -52.7430E-03     85.4116E-03    -53.9030E-03     106.292E-03    -52.6329E-03     84.6506E-03
             967     9.39282E-03     98.8972E-03    -19.6830E+06    -83.9234E+06    -10.5126E+06    -22.2829E+06    -54.0561E-03     106.719E-03    -52.6628E-03     94.0588E-03    -54.2849E-03     106.610E-03    -52.5651E-03     93.1889E-03
             968     10.2472E-03     98.9904E-03    -18.0300E+06    -78.6743E+06    -12.1308E+06    -23.3622E+06    -54.7382E-03     107.338E-03    -52.5996E-03     102.674E-03    -55.0732E-03     107.365E-03    -52.5200E-03     101.660E-03
             969     11.1011E-03     99.0927E-03    -16.9597E+06    -73.6308E+06    -16.4462E+06    -23.3695E+06    -55.3931E-03     107.948E-03    -52.5551E-03     111.468E-03    -55.8771E-03     108.158E-03    -52.5060E-03     110.302E-03
             970     11.9548E-03     99.2010E-03    -16.3154E+06    -61.9718E+06    -20.2785E+06    -22.5612E+06    -56.1479E-03     108.674E-03    -52.5257E-03     123.209E-03    -56.8881E-03     109.195E-03    -52.5136E-03     121.864E-03
             971     12.8090E-03     99.3268E-03    -15.3750E+06    -43.5652E+06    -28.0436E+06    -20.4948E+06    -57.6114E-03     110.107E-03    -52.4954E-03     140.803E-03    -58.8399E-03     111.207E-03    -52.5501E-03     139.209E-03
             972     13.6613E-03     99.4696E-03    -14.1605E+06     5.53721E+06    -37.1977E+06    -14.0860E+06    -59.9039E-03     112.348E-03    -52.4437E-03     173.256E-03    -62.2214E-03     114.742E-03    -52.6171E-03     171.398E-03
             973     14.5134E-03     99.6623E-03    -13.6572E+06     88.2262E+06    -17.4365E+06    -6.34083E+06    -63.6907E-03     116.185E-03    -52.4943E-03     231.625E-03    -69.0875E-03     121.897E-03    -52.6896E-03     229.596E-03
             974     15.3691E-03     99.9262E-03    -11.5368E+06     157.205E+06     53.0462E+06    -2.58116E+06    -65.4973E-03     118.284E-03    -52.7868E-03     288.066E-03    -76.6510E-03     129.800E-03    -52.7328E-03     287.683E-03
             975     16.2113E-03     100.239E-03    -5.57179E+06     172.162E+06     99.2438E+06    -1.02581E+06    -57.8629E-03     110.839E-03    -52.9762E-03     194.551E-03    -66.4724E-03     119.752E-03    -52.7216E-03     196.474E-03
             976     853.454E-06     99.4575E-03    -35.0841E+06    -113.995E+06    -34.9678E+06    -3.97016E+06    -52.9383E-03     105.824E-03    -52.8853E-03     9.77166E-03    -52.8991E-03     105.357E-03    -52.8440E-03     9.69061E-03
             977     1.70740E-03     99.4700E-03    -34.7031E+06    -110.469E+06    -33.5547E+06    -7.52188E+06    -52.8735E-03     105.751E-03    -52.8777E-03     17.9593E-03    -52.8423E-03     105.302E-03    -52.8350E-03     17.8064E-03
             978     2.56095E-03     99.4915E-03    -33.8051E+06    -107.355E+06    -30.3933E+06    -10.6910E+06    -52.8079E-03     105.642E-03    -52.8343E-03     26.5479E-03    -52.7863E-03     105.208E-03    -52.7815E-03     26.3247E-03
             979     3.41504E-03     99.5203E-03    -32.5501E+06    -104.498E+06    -25.9337E+06    -13.2354E+06    -52.7383E-03     105.516E-03    -52.7780E-03     35.2321E-03    -52.7287E-03     105.095E-03    -52.7090E-03     34.9434E-03
             980     4.26906E-03     99.5581E-03    -30.4766E+06    -102.194E+06    -21.6011E+06    -15.7440E+06    -52.6884E-03     105.395E-03    -52.7065E-03     43.9190E-03    -52.6889E-03     104.987E-03    -52.6221E-03     43.5610E-03
             981     5.12363E-03     99.6031E-03    -27.3819E+06    -96.6910E+06    -16.8832E+06    -17.6132E+06    -52.7056E-03     105.330E-03    -52.6241E-03     52.5443E-03    -52.7210E-03     104.954E-03    -52.5287E-03     52.1189E-03
             982     5.97764E-03     99.6570E-03    -24.3371E+06    -93.4108E+06    -12.1917E+06    -18.2622E+06    -52.7356E-03     105.278E-03    -52.5421E-03     61.2125E-03    -52.7684E-03     104.928E-03    -52.4323E-03     60.7286E-03
             983     6.83278E-03     99.7182E-03    -20.8623E+06    -88.6427E+06    -8.47565E+06    -19.6945E+06    -52.7577E-03     105.204E-03    -52.4466E-03     69.8087E-03    -52.8142E-03     104.897E-03    -52.3302E-03     69.2477E-03
             984     7.68720E-03     99.7873E-03    -18.4030E+06    -85.1103E+06    -5.91306E+06    -20.8338E+06    -52.8979E-03     105.245E-03    -52.3471E-03     78.4222E-03    -52.9904E-03     104.987E-03    -52.2265E-03     77.7766E-03
             985     8.54263E-03     99.8649E-03    -17.4130E+06    -83.8700E+06    -6.41224E+06    -20.8355E+06    -53.1759E-03     105.423E-03    -52.2468E-03     87.0509E-03    -53.3189E-03     105.225E-03    -52.1320E-03     86.3211E-03
             986     9.39731E-03     99.9492E-03    -16.3020E+06    -78.1614E+06    -7.60738E+06    -22.6764E+06    -53.6604E-03     105.816E-03    -52.1556E-03     96.2171E-03    -53.8813E-03     105.724E-03    -52.0567E-03     95.3605E-03
             987     10.2520E-03     100.044E-03    -15.5165E+06    -76.7808E+06    -10.0620E+06    -23.8290E+06    -54.2775E-03     106.368E-03    -52.0910E-03     105.421E-03    -54.6012E-03     106.394E-03    -52.0075E-03     104.424E-03
             988     11.1069E-03     100.145E-03    -15.1388E+06    -72.0616E+06    -14.7519E+06    -23.5073E+06    -55.0651E-03     107.108E-03    -52.0433E-03     113.977E-03    -55.5408E-03     107.317E-03    -51.9906E-03     112.832E-03
             989     11.9614E-03     100.256E-03    -14.5297E+06    -60.2455E+06    -17.7844E+06    -23.3843E+06    -56.1975E-03     108.230E-03    -52.0327E-03     125.818E-03    -56.9336E-03     108.752E-03    -52.0132E-03     124.478E-03
             990     12.8145E-03     100.380E-03    -14.5807E+06    -45.6590E+06    -26.3931E+06    -22.0723E+06    -57.8756E-03     109.911E-03    -52.0357E-03     143.756E-03    -59.1042E-03     111.003E-03    -52.0803E-03     142.153E-03
             991     13.6675E-03     100.528E-03    -14.8734E+06    -4.00992E+06    -36.5097E+06    -16.3670E+06    -60.2789E-03     112.306E-03    -52.0273E-03     175.928E-03    -62.6042E-03     114.670E-03    -52.1825E-03     174.047E-03
             992     14.5208E-03     100.717E-03    -14.1717E+06     80.0756E+06    -23.2288E+06    -8.23529E+06    -64.2465E-03     116.323E-03    -52.0769E-03     235.053E-03    -69.6694E-03     122.048E-03    -52.2886E-03     232.991E-03
             993     15.3697E-03     100.985E-03    -10.9043E+06     155.284E+06     44.2164E+06    -3.70202E+06    -66.1468E-03     118.522E-03    -52.3753E-03     290.965E-03    -77.3122E-03     130.071E-03    -52.3636E-03     290.545E-03
             994     16.2356E-03     101.297E-03    -5.45127E+06     170.106E+06     94.9563E+06    -1.74861E+06    -58.9695E-03     111.608E-03    -52.6382E-03     195.568E-03    -67.5771E-03     120.525E-03    -52.4021E-03     197.458E-03
             995     854.268E-06     100.510E-03    -31.5350E+06    -104.798E+06    -31.2592E+06    -4.29244E+06    -52.4003E-03     104.725E-03    -52.3244E-03     9.90910E-03    -52.3619E-03     104.293E-03    -52.2830E-03     9.82563E-03
             996     1.70807E-03     100.524E-03    -30.6472E+06    -101.622E+06    -28.8685E+06    -7.44966E+06    -52.3160E-03     104.647E-03    -52.3310E-03     18.1583E-03    -52.2840E-03     104.229E-03    -52.2836E-03     18.0092E-03
             997     2.56254E-03     100.544E-03    -29.6870E+06    -99.5388E+06    -25.3295E+06    -10.4288E+06    -52.2346E-03     104.520E-03    -52.2849E-03     26.9065E-03    -52.2108E-03     104.110E-03    -52.2242E-03     26.6912E-03
             998     3.41681E-03     100.573E-03    -27.8763E+06    -97.0112E+06    -21.6327E+06    -13.2977E+06    -52.1465E-03     104.362E-03    -52.2158E-03     35.7118E-03    -52.1299E-03     103.965E-03    -52.1428E-03     35.4285E-03
             999     4.27161E-03     100.610E-03    -25.9195E+06    -94.8036E+06    -17.8173E+06    -16.1695E+06    -52.0600E-03     104.190E-03    -52.1299E-03     44.5392E-03    -52.0529E-03     103.806E-03    -52.0439E-03     44.1839E-03
            1000     5.12623E-03     100.655E-03    -24.5437E+06    -91.4593E+06    -15.1438E+06    -18.1677E+06    -51.9961E-03     104.020E-03    -52.0242E-03     53.4862E-03    -52.0056E-03     103.662E-03    -51.9317E-03     53.0651E-03
            1001     5.98168E-03     100.708E-03    -22.2797E+06    -88.7309E+06    -11.4448E+06    -19.8775E+06    -51.9357E-03     103.848E-03    -51.9122E-03     62.3404E-03    -51.9635E-03     103.515E-03    -51.8084E-03     61.8502E-03
            1002     6.83682E-03     100.770E-03    -19.8153E+06    -83.5806E+06    -7.88443E+06    -21.3227E+06    -51.9633E-03     103.753E-03    -51.7896E-03     71.2951E-03    -52.0193E-03     103.465E-03    -51.6791E-03     70.7307E-03
            1003     7.69267E-03     100.839E-03    -17.5370E+06    -82.9293E+06    -5.13152E+06    -21.3051E+06    -52.0950E-03     103.767E-03    -51.6724E-03     80.2158E-03    -52.1829E-03     103.513E-03    -51.5524E-03     79.5851E-03
            1004     8.54815E-03     100.915E-03    -14.6253E+06    -80.2514E+06    -4.18917E+06    -21.7529E+06    -52.4176E-03     103.973E-03    -51.5550E-03     89.2992E-03    -52.5494E-03     103.780E-03    -51.4383E-03     88.5822E-03
            1005     9.40409E-03     101.001E-03    -12.6564E+06     -73.435E+06    -4.15845E+06    -22.6149E+06    -52.9977E-03     104.452E-03    -51.4544E-03     98.8292E-03    -53.2063E-03     104.367E-03    -51.3504E-03     97.9996E-03
            1006     10.2597E-03     101.095E-03    -12.2434E+06    -74.0498E+06    -5.87325E+06    -23.0737E+06    -53.7771E-03     105.172E-03    -51.3947E-03     108.270E-03    -54.0879E-03     105.193E-03    -51.2990E-03     107.311E-03
            1007     11.1146E-03     101.198E-03    -12.2309E+06    -69.6418E+06    -11.7961E+06    -23.4558E+06    -54.9502E-03     106.308E-03    -51.3581E-03     117.396E-03    -55.4162E-03     106.518E-03    -51.2983E-03     116.273E-03
            1008     11.9685E-03     101.309E-03    -12.7241E+06    -58.6621E+06    -14.9940E+06    -23.1374E+06    -56.4342E-03     107.822E-03    -51.3878E-03     129.104E-03    -57.1679E-03     108.346E-03    -51.3593E-03     127.782E-03
            1009     12.8224E-03     101.435E-03    -13.7230E+06    -46.3214E+06    -23.0830E+06    -21.6520E+06    -58.1877E-03     109.632E-03    -51.4440E-03     147.294E-03    -59.4202E-03     110.718E-03    -51.4724E-03     145.710E-03
            1010     13.6751E-03     101.583E-03    -14.9223E+06    -12.1356E+06    -34.7866E+06    -17.4224E+06    -60.8377E-03     112.326E-03    -51.4887E-03     178.719E-03    -63.1583E-03     114.652E-03    -51.6234E-03     176.829E-03
            1011     14.5270E-03     101.773E-03    -14.8054E+06     72.2767E+06    -27.7013E+06    -11.0421E+06    -64.6683E-03     116.225E-03    -51.5564E-03     236.448E-03    -70.0692E-03     121.910E-03    -51.7783E-03     234.357E-03
            1012     15.3844E-03     102.043E-03    -11.9830E+06     151.959E+06     35.5319E+06    -6.71955E+06    -66.6921E-03     118.572E-03    -51.8800E-03     290.413E-03    -77.8364E-03     130.110E-03    -51.9053E-03     289.903E-03
            1013     16.2260E-03     102.348E-03    -6.72323E+06     166.037E+06     88.7561E+06    -3.34868E+06    -60.4014E-03     112.641E-03    -52.2398E-03     193.504E-03    -68.9769E-03     121.525E-03    -52.0270E-03     195.244E-03
            1014     854.484E-06     101.563E-03    -27.5850E+06    -94.9159E+06    -27.1659E+06    -4.76547E+06    -51.6367E-03     103.242E-03    -51.6054E-03     10.0429E-03    -51.5988E-03     102.848E-03    -51.5636E-03     9.95520E-03
            1015     1.70960E-03     101.575E-03    -26.5101E+06    -93.4929E+06    -24.2870E+06    -7.63348E+06    -51.5279E-03     103.112E-03    -51.5844E-03     18.4207E-03    -51.4935E-03     102.722E-03    -51.5318E-03     18.2731E-03
            1016     2.56432E-03     101.596E-03    -24.6603E+06    -91.4149E+06    -20.7285E+06    -10.5255E+06    -51.4404E-03     102.961E-03    -51.5206E-03     27.3366E-03    -51.4094E-03     102.578E-03    -51.4559E-03     27.1259E-03
            1017     3.41957E-03     101.624E-03    -22.9243E+06    -89.1271E+06    -17.6470E+06    -13.7183E+06    -51.3233E-03     102.758E-03    -51.4351E-03     36.3484E-03    -51.2983E-03     102.387E-03    -51.3608E-03     36.0680E-03
            1018     4.27474E-03     101.661E-03    -21.3693E+06    -88.0073E+06    -14.1226E+06    -16.0221E+06    -51.1864E-03     102.519E-03    -51.3324E-03     45.4538E-03    -51.1704E-03     102.155E-03    -51.2445E-03     45.1115E-03
            1019     5.13066E-03     101.706E-03    -19.4962E+06    -85.5236E+06    -10.7083E+06    -18.0335E+06    -51.0117E-03     102.216E-03    -51.2045E-03     54.6134E-03    -51.0087E-03     101.871E-03    -51.1057E-03     54.2087E-03
            1020     5.98649E-03     101.759E-03    -17.7618E+06    -82.3768E+06    -8.06545E+06    -20.5529E+06    -50.9156E-03     101.971E-03    -51.0557E-03     63.8024E-03    -50.9315E-03     101.655E-03    -50.9508E-03     63.3219E-03
            1021     6.84298E-03     101.819E-03    -16.6180E+06    -80.4890E+06    -5.65260E+06    -21.1004E+06    -50.9243E-03     101.829E-03    -50.9049E-03     73.0969E-03    -50.9674E-03     101.544E-03    -50.7923E-03     72.5579E-03
            1022     7.69941E-03     101.888E-03    -15.2682E+06    -78.7241E+06    -2.86097E+06    -22.0475E+06    -51.0848E-03     101.848E-03    -50.7635E-03     82.3869E-03    -51.1648E-03     101.603E-03    -50.6415E-03     81.7726E-03
            1023     8.55629E-03     101.965E-03    -13.3497E+06    -76.0013E+06    -1.87976E+06    -23.7812E+06    -51.5163E-03     102.149E-03    -50.6328E-03     91.9792E-03    -51.6441E-03     101.965E-03    -50.5127E-03     91.2650E-03
            1024     9.41263E-03     102.051E-03    -11.1771E+06    -71.9946E+06    -2.37451E+06    -23.0399E+06    -52.1954E-03     102.723E-03    -50.5279E-03     101.886E-03    -52.3927E-03     102.632E-03    -50.4192E-03     101.083E-03
            1025     10.2688E-03     102.145E-03    -9.67559E+06    -70.5793E+06    -2.62484E+06    -22.8107E+06    -53.2420E-03     103.720E-03    -50.4781E-03     111.766E-03    -53.5419E-03     103.743E-03    -50.3749E-03     110.841E-03
            1026     11.1246E-03     102.249E-03    -9.90744E+06    -68.2354E+06    -8.67478E+06    -22.3354E+06    -54.7661E-03     105.236E-03    -50.4696E-03     121.685E-03    -55.2206E-03     105.438E-03    -50.3997E-03     120.607E-03
            1027     11.9792E-03     102.362E-03    -11.2569E+06    -56.3370E+06    -11.7244E+06    -21.6795E+06    -56.6093E-03     107.153E-03    -50.5435E-03     133.655E-03    -57.3425E-03     107.680E-03    -50.5041E-03     132.376E-03
            1028     12.8321E-03     102.489E-03    -11.7314E+06    -47.0367E+06    -19.0108E+06    -21.1931E+06    -58.8367E-03     109.507E-03    -50.6701E-03     151.855E-03    -60.0708E-03     110.587E-03    -50.6799E-03     150.288E-03
            1029     13.6848E-03     102.639E-03    -11.4434E+06    -17.1631E+06    -30.7964E+06    -17.6360E+06    -62.1990E-03     113.005E-03    -50.8063E-03     183.139E-03    -64.5316E-03     115.326E-03    -50.9188E-03     181.224E-03
            1030     14.5361E-03     102.831E-03    -12.0646E+06     66.3824E+06    -20.9141E+06    -11.6838E+06    -66.2142E-03     117.214E-03    -51.0002E-03     238.122E-03    -71.6310E-03     122.885E-03    -51.1835E-03     235.984E-03
            1031     15.3840E-03     103.097E-03    -10.7566E+06     148.909E+06     37.7221E+06    -7.02560E+06    -67.9047E-03     119.302E-03    -51.3971E-03     292.666E-03    -79.2085E-03     130.987E-03    -51.4088E-03     292.155E-03
            1032     16.2455E-03     103.414E-03    -4.99642E+06     162.572E+06     85.2888E+06    -4.73076E+06    -61.8788E-03     113.689E-03    -51.8104E-03     195.422E-03    -70.5837E-03     122.706E-03    -51.6124E-03     197.110E-03
            1033     855.681E-06     102.612E-03    -22.3971E+06    -84.7778E+06    -21.7816E+06    -4.47770E+06    -50.6154E-03     101.232E-03    -50.6171E-03     10.2356E-03    -50.5740E-03     100.874E-03    -50.5706E-03     10.1542E-03
            1034     1.71103E-03     102.625E-03    -21.8073E+06    -84.8531E+06    -20.8105E+06    -8.00452E+06    -50.5183E-03     101.089E-03    -50.5712E-03     18.7974E-03    -50.4776E-03     100.730E-03    -50.5206E-03     18.6497E-03
            1035     2.56704E-03     102.645E-03    -20.5684E+06    -82.9807E+06    -18.6621E+06    -11.3878E+06    -50.3587E-03     100.847E-03    -50.4882E-03     27.8995E-03    -50.3218E-03     100.496E-03    -50.4314E-03     27.6852E-03
            1036     3.42295E-03     102.674E-03    -19.0398E+06    -81.7451E+06    -14.5644E+06    -13.9706E+06    -50.1766E-03     100.561E-03    -50.3840E-03     37.1692E-03    -50.1462E-03     100.215E-03    -50.3107E-03     36.8962E-03
            1037     4.27954E-03     102.710E-03    -17.3162E+06    -81.5383E+06    -10.5946E+06    -16.3186E+06    -49.9741E-03     100.229E-03    -50.2546E-03     46.5171E-03    -49.9504E-03     99.8847E-03    -50.1643E-03     46.1850E-03
            1038     5.13603E-03     102.754E-03    -15.4214E+06    -79.1775E+06    -7.72481E+06    -18.5106E+06    -49.7609E-03     99.8543E-03    -50.0934E-03     55.9650E-03    -49.7482E-03     99.5280E-03    -49.9949E-03     55.5718E-03
            1039     5.99345E-03     102.806E-03    -14.4595E+06    -76.9548E+06    -5.27208E+06    -19.6691E+06    -49.6122E-03     99.5280E-03    -49.9158E-03     65.5645E-03    -49.6193E-03     99.2257E-03    -49.8096E-03     65.1177E-03
            1040     6.85080E-03     102.867E-03    -13.4517E+06    -76.9350E+06    -3.34038E+06    -20.7987E+06    -49.6245E-03     99.3614E-03    -49.7370E-03     75.2506E-03    -49.6543E-03     99.0799E-03    -49.6226E-03     74.7424E-03
            1041     7.70866E-03     102.935E-03    -12.0842E+06    -73.1543E+06    -1.24821E+06    -21.9925E+06    -49.8930E-03     99.4628E-03    -49.5698E-03     85.1323E-03    -49.9600E-03     99.2306E-03    -49.4524E-03     84.5497E-03
            1042     8.56617E-03     103.013E-03    -12.0375E+06    -71.6787E+06      51.006E+03    -22.7897E+06    -50.3846E-03     99.8202E-03    -49.4356E-03     95.1698E-03    -50.5059E-03     99.6440E-03    -49.3139E-03     94.5031E-03
            1043     9.42392E-03     103.098E-03    -12.3844E+06    -70.2102E+06    -2.13453E+06    -23.7978E+06    -51.2319E-03     100.560E-03    -49.3285E-03     105.816E-03    -51.4278E-03     100.469E-03    -49.2195E-03     105.041E-03
            1044     10.2812E-03     103.194E-03    -11.5728E+06    -68.9037E+06    -2.16157E+06    -23.3422E+06    -52.6556E-03     101.954E-03    -49.2980E-03     116.496E-03    -52.9586E-03     101.977E-03    -49.1921E-03     115.602E-03
            1045     11.1371E-03     103.299E-03    -10.6798E+06    -67.6720E+06    -6.25944E+06    -21.7202E+06    -54.4486E-03     103.783E-03    -49.3341E-03     126.852E-03    -54.9030E-03     103.977E-03    -49.2518E-03     125.819E-03
            1046     11.9920E-03     103.414E-03    -9.72595E+06    -53.4032E+06    -8.24147E+06    -21.3716E+06    -56.7452E-03     106.202E-03    -49.4572E-03     139.321E-03    -57.4769E-03     106.734E-03    -49.4069E-03     138.077E-03
            1047     12.8458E-03     103.543E-03    -9.29550E+06    -46.7698E+06    -13.7153E+06    -21.4139E+06    -59.9798E-03     109.663E-03    -49.6833E-03     157.405E-03    -61.2281E-03     110.752E-03    -49.6705E-03     155.832E-03
            1048     13.6970E-03     103.696E-03    -9.83935E+06    -21.8773E+06    -25.5021E+06    -18.4405E+06    -63.6605E-03     113.604E-03    -49.9438E-03     188.465E-03    -66.0289E-03     115.934E-03    -50.0253E-03     186.519E-03
            1049     14.5462E-03     103.891E-03    -9.24830E+06     59.5879E+06    -13.6901E+06    -11.4170E+06    -68.3047E-03     118.581E-03    -50.2759E-03     242.685E-03    -73.8112E-03     124.306E-03    -50.4173E-03     240.465E-03
            1050     15.3999E-03     104.156E-03    -6.62954E+06     147.958E+06     42.4643E+06    -6.41161E+06    -70.6811E-03     121.490E-03    -50.8093E-03     293.859E-03    -82.0731E-03     133.261E-03    -50.8019E-03     293.151E-03
            1051     16.2440E-03     104.467E-03    -2.69700E+06     159.872E+06     83.3644E+06    -4.50240E+06    -64.2348E-03     115.596E-03    -51.3613E-03     193.462E-03    -72.9345E-03     124.612E-03    -51.1723E-03     194.996E-03
            1052     856.553E-06     103.661E-03    -17.6160E+06    -74.9720E+06    -18.0369E+06    -4.28774E+06    -49.3009E-03     98.5829E-03    -49.2820E-03     10.4224E-03    -49.2552E-03     98.2607E-03    -49.2380E-03     10.3466E-03
            1053     1.71351E-03     103.672E-03    -17.3542E+06    -75.0878E+06    -17.2406E+06    -8.40257E+06    -49.1660E-03     98.4019E-03    -49.2359E-03     19.2533E-03    -49.1221E-03     98.0796E-03    -49.1880E-03     19.1064E-03
            1054     2.57027E-03     103.693E-03    -16.9307E+06    -74.5132E+06    -15.6385E+06    -11.8333E+06    -48.9596E-03     98.0966E-03    -49.1370E-03     28.5768E-03    -48.9205E-03     97.7781E-03    -49.0826E-03     28.3656E-03
            1055     3.42780E-03     103.720E-03    -16.1211E+06    -74.7986E+06    -12.9760E+06    -14.3414E+06    -48.6892E-03     97.6923E-03    -49.0031E-03     38.1045E-03    -48.6552E-03     97.3729E-03    -48.9361E-03     37.8392E-03
            1056     4.28523E-03     103.756E-03    -14.9384E+06    -74.5749E+06    -9.76177E+06    -16.6411E+06    -48.4072E-03     97.2439E-03    -48.8366E-03     47.7493E-03    -48.3805E-03     96.9274E-03    -48.7556E-03     47.4298E-03
            1057     5.14371E-03     103.799E-03    -14.0037E+06    -73.3384E+06    -6.99273E+06    -18.5994E+06    -48.1698E-03     96.8144E-03    -48.6447E-03     57.5629E-03    -48.1558E-03     96.5104E-03    -48.5530E-03     57.1896E-03
            1058     6.00197E-03     103.852E-03    -12.6820E+06    -73.1825E+06    -4.40688E+06    -19.1638E+06    -48.0157E-03     96.4577E-03    -48.4421E-03     67.5453E-03    -48.0153E-03     96.1651E-03    -48.3396E-03     67.1308E-03
            1059     6.86115E-03     103.911E-03    -11.8899E+06    -71.1975E+06    -2.13873E+06    -20.2922E+06    -48.0424E-03     96.2813E-03    -48.2389E-03     77.7799E-03    -48.0672E-03     96.0172E-03    -48.1292E-03     77.3089E-03
            1060     7.72012E-03     103.980E-03    -11.7486E+06    -69.8356E+06    -827.568E+03    -21.2641E+06    -48.3568E-03     96.4116E-03    -48.0548E-03     88.3473E-03    -48.4180E-03     96.1853E-03    -47.9406E-03     87.8106E-03
            1061     8.57936E-03     104.057E-03    -10.8502E+06    -68.0066E+06     1.59226E+06    -21.4903E+06    -49.0243E-03     96.9407E-03    -47.9164E-03     99.0205E-03    -49.1361E-03     96.7676E-03    -47.7941E-03     98.4107E-03
            1062     9.43818E-03     104.144E-03    -10.9558E+06    -66.7295E+06     1.39829E+06    -21.8398E+06    -50.1485E-03     97.9770E-03    -47.8285E-03     110.304E-03    -50.3353E-03     97.8837E-03    -47.7089E-03     109.596E-03
            1063     10.2963E-03     104.241E-03    -12.6755E+06     -67.343E+06       6.891E+03    -21.8572E+06    -51.9419E-03     99.7686E-03    -47.8267E-03     121.965E-03    -52.2444E-03     99.7868E-03    -47.7106E-03     121.132E-03
            1064     11.1532E-03     104.348E-03    -12.2020E+06    -64.8343E+06    -3.87944E+06    -23.3574E+06    -54.3629E-03     102.283E-03    -47.9206E-03     132.591E-03    -54.8254E-03     102.484E-03    -47.8283E-03     131.571E-03
            1065     12.0088E-03     104.465E-03    -10.6319E+06    -53.0537E+06    -5.70208E+06    -22.8166E+06    -57.3434E-03     105.483E-03    -48.1400E-03     145.176E-03    -58.0861E-03     106.017E-03    -48.0762E-03     143.932E-03
            1066     12.8614E-03     104.599E-03    -10.7226E+06    -45.8691E+06    -7.90202E+06    -21.0055E+06    -61.1705E-03     109.671E-03    -48.5006E-03     163.675E-03    -62.4572E-03     110.780E-03    -48.4581E-03     162.106E-03
            1067     13.7112E-03     104.754E-03    -11.0925E+06    -24.9843E+06    -18.2761E+06    -19.1239E+06    -65.3515E-03     114.262E-03    -48.9109E-03     193.178E-03    -67.7719E-03     116.608E-03    -48.9500E-03     191.192E-03
            1068     14.5629E-03     104.949E-03    -9.15732E+06     52.0070E+06    -12.5730E+06    -14.2467E+06    -71.1747E-03     120.562E-03    -49.3870E-03     246.411E-03    -76.7665E-03     126.343E-03    -49.5120E-03     243.995E-03
            1069     15.4060E-03     105.222E-03    -4.78721E+06     144.132E+06     41.3285E+06    -7.83320E+06    -74.5670E-03     124.689E-03    -50.1216E-03     294.731E-03    -86.0529E-03     136.550E-03    -50.1170E-03     293.680E-03
            1070     16.2554E-03     105.530E-03    -1.65972E+06     156.255E+06     80.2656E+06    -2.40017E+06    -67.6909E-03     118.586E-03    -50.8954E-03     193.550E-03    -76.4570E-03     127.669E-03    -50.7183E-03     194.889E-03
            1071     858.135E-06     104.705E-03    -14.0578E+06    -64.7354E+06    -14.5955E+06    -5.04237E+06    -47.6073E-03     95.2109E-03    -47.6036E-03     10.6618E-03    -47.5635E-03     94.9295E-03    -47.5623E-03     10.5795E-03
            1072     1.71622E-03     104.717E-03    -14.0090E+06    -65.2182E+06    -13.7584E+06    -8.49023E+06    -47.4117E-03     94.9478E-03    -47.5361E-03     19.7120E-03    -47.3701E-03     94.6645E-03    -47.4900E-03     19.5706E-03
            1073     2.57491E-03     104.736E-03    -13.6969E+06    -65.9839E+06    -12.7935E+06    -11.8958E+06    -47.1726E-03     94.5831E-03    -47.4106E-03     29.2979E-03    -47.1329E-03     94.2973E-03    -47.3590E-03     29.0960E-03
            1074     3.43348E-03     104.764E-03    -13.2390E+06    -67.5951E+06    -11.8404E+06    -14.5054E+06    -46.8451E-03     94.0904E-03    -47.2453E-03     39.1011E-03    -46.8071E-03     93.7994E-03    -47.1873E-03     38.8478E-03
            1075     4.29318E-03     104.799E-03    -12.8633E+06    -68.0314E+06    -9.60813E+06    -16.5024E+06    -46.4988E-03     93.5459E-03    -47.0471E-03     49.0905E-03    -46.4685E-03     93.2560E-03    -46.9779E-03     48.7913E-03
            1076     5.15263E-03     104.842E-03    -12.6535E+06    -68.2487E+06    -6.95646E+06    -17.6945E+06    -46.2121E-03     93.0393E-03    -46.8271E-03     59.2921E-03    -46.1944E-03     92.7541E-03    -46.7446E-03     58.9540E-03
            1077     6.01324E-03     104.893E-03    -12.7708E+06    -69.0842E+06    -4.97729E+06    -18.7802E+06    -46.0787E-03     92.6774E-03    -46.5987E-03     69.8184E-03    -46.0775E-03     92.3997E-03    -46.5048E-03     69.4375E-03
            1078     6.87361E-03     104.953E-03    -12.7343E+06    -67.1316E+06    -2.56414E+06    -18.9004E+06    -46.1566E-03     92.5359E-03    -46.3794E-03     80.6410E-03    -46.1823E-03     92.2853E-03    -46.2764E-03     80.2220E-03
            1079     7.73464E-03     105.021E-03    -13.8418E+06    -66.6710E+06    -523.564E+03    -18.7980E+06    -46.5212E-03     92.7116E-03    -46.1904E-03     91.7896E-03    -46.5868E-03     92.4925E-03    -46.0762E-03     91.3241E-03
            1080     8.59543E-03     105.099E-03    -15.6596E+06    -64.1042E+06     342.156E+03    -20.2972E+06    -47.4385E-03     93.4868E-03    -46.0483E-03     103.311E-03    -47.5650E-03     93.3288E-03    -45.9309E-03     102.760E-03
            1081     9.45553E-03     105.187E-03    -16.2974E+06    -65.5356E+06     555.090E+03    -19.9618E+06    -49.1154E-03     95.1145E-03    -45.9991E-03     115.254E-03    -49.3168E-03     95.0236E-03    -45.8777E-03     114.613E-03
            1082     10.3149E-03     105.285E-03    -15.4048E+06    -62.1930E+06     1.81163E+06    -20.7065E+06    -51.4513E-03     97.5192E-03    -46.0679E-03     127.378E-03    -51.7664E-03     97.5535E-03    -45.9463E-03     126.599E-03
            1083     11.1725E-03     105.395E-03    -15.9270E+06    -60.2750E+06    -1.64546E+06    -23.2061E+06    -54.5101E-03     100.773E-03    -46.2627E-03     138.481E-03    -54.9945E-03     100.991E-03    -46.1604E-03     137.494E-03
            1084     12.0265E-03     105.515E-03    -17.4823E+06    -54.0314E+06    -4.97999E+06    -22.9932E+06    -58.3205E-03     104.937E-03    -46.6167E-03     151.669E-03    -59.1075E-03     105.485E-03    -46.5379E-03     150.431E-03
            1085     12.8792E-03     105.653E-03    -16.5779E+06    -45.2285E+06    -5.44901E+06    -21.7379E+06    -62.6928E-03     109.828E-03    -47.1356E-03     170.131E-03    -64.0338E-03     110.966E-03    -47.0732E-03     168.543E-03
            1086     13.7299E-03     105.813E-03    -13.9001E+06    -24.3275E+06    -11.9082E+06    -21.5783E+06    -68.3778E-03     116.135E-03    -47.7570E-03     198.137E-03    -70.8872E-03     118.544E-03    -47.7611E-03     196.019E-03
            1087     14.5733E-03     106.011E-03    -10.7276E+06     46.1603E+06    -8.61276E+06    -19.1616E+06    -74.9689E-03     123.440E-03    -48.4715E-03     250.008E-03    -80.6975E-03     129.320E-03    -48.5659E-03     247.326E-03
            1088     15.4208E-03     106.290E-03    -8.22898E+06     132.594E+06     39.4519E+06    -10.3519E+06    -77.3356E-03     126.742E-03    -49.4065E-03     296.368E-03    -88.9938E-03     138.728E-03    -49.3895E-03     295.130E-03
            1089     16.2622E-03     106.594E-03    -4.77499E+06     150.866E+06     73.5567E+06    -2.06616E+06    -71.6708E-03     122.029E-03    -50.3581E-03     193.018E-03    -80.5382E-03     131.202E-03    -50.2022E-03     194.154E-03
            1090     859.779E-06     105.746E-03    -10.5481E+06    -54.0429E+06    -10.2163E+06    -5.03858E+06    -45.5060E-03     91.0212E-03    -45.5151E-03     10.9049E-03    -45.4665E-03     90.7816E-03    -45.4725E-03     10.8265E-03
            1091     1.71998E-03     105.757E-03    -10.5402E+06    -55.7266E+06    -10.9080E+06    -8.50577E+06    -45.2747E-03     90.7038E-03    -45.4291E-03     20.1730E-03    -45.2332E-03     90.4582E-03    -45.3875E-03     20.0384E-03
            1092     2.58011E-03     105.777E-03    -10.9036E+06    -57.7889E+06    -11.3364E+06    -11.6195E+06    -44.9654E-03     90.2415E-03    -45.2761E-03     30.0286E-03    -44.9247E-03     89.9893E-03    -45.2331E-03     29.8412E-03
            1093     3.44123E-03     105.803E-03    -11.5229E+06    -60.5004E+06    -11.1073E+06    -14.0872E+06    -44.6162E-03     89.7015E-03    -45.0854E-03     40.0965E-03    -44.5790E-03     89.4404E-03    -45.0365E-03     39.8635E-03
            1094     4.30207E-03     105.838E-03    -12.4862E+06    -62.5545E+06    -11.0656E+06    -15.4051E+06    -44.2150E-03     89.0725E-03    -44.8575E-03     50.4485E-03    -44.1854E-03     88.8081E-03    -44.8040E-03     50.1831E-03
            1095     5.16433E-03     105.880E-03    -14.1709E+06    -64.4148E+06    -9.94026E+06    -15.6398E+06    -43.8967E-03     88.5074E-03    -44.6107E-03     61.1265E-03    -43.8827E-03     88.2428E-03    -44.5464E-03     60.8398E-03
            1096     6.02635E-03     105.931E-03    -16.5142E+06    -64.6463E+06    -7.76759E+06    -15.9268E+06    -43.7872E-03     88.1529E-03    -44.3657E-03     72.1827E-03    -43.7999E-03     87.8995E-03    -44.2868E-03     71.8687E-03
            1097     6.88924E-03     105.990E-03    -19.4968E+06    -65.4709E+06    -6.69471E+06    -15.8435E+06    -43.9585E-03     88.0969E-03    -44.1383E-03     83.5947E-03    -44.0049E-03     87.8605E-03    -44.0486E-03     83.2502E-03
            1098     7.75184E-03     106.059E-03    -21.5584E+06    -63.3403E+06    -4.55240E+06    -15.4797E+06    -44.5986E-03     88.5566E-03    -43.9580E-03     95.3960E-03    -44.6898E-03     88.3592E-03    -43.8576E-03     95.0121E-03
            1099     8.61440E-03     106.137E-03    -23.9658E+06    -59.6950E+06    -2.25036E+06    -15.9010E+06    -45.9438E-03     89.8038E-03    -43.8600E-03     107.574E-03    -46.1010E-03     89.6703E-03    -43.7500E-03     107.120E-03
            1100     9.47627E-03     106.226E-03    -25.5952E+06    -61.9189E+06    -1.45035E+06    -18.8201E+06    -48.2362E-03     92.1249E-03    -43.8887E-03     120.223E-03    -48.4736E-03     92.0557E-03    -43.7691E-03     119.635E-03
            1101     10.3354E-03     106.327E-03    -25.5071E+06    -57.3459E+06    -49.3396E+03    -21.1135E+06    -51.2568E-03     95.3230E-03    -44.0662E-03     132.951E-03    -51.6171E-03     95.3893E-03    -43.9463E-03     132.199E-03
            1102     11.1928E-03     106.440E-03    -25.1223E+06    -57.3653E+06    -624.642E+03    -21.3121E+06    -54.8712E-03     99.2814E-03    -44.4102E-03     144.799E-03    -55.4048E-03     99.5242E-03    -44.2937E-03     143.861E-03
            1103     12.0488E-03     106.566E-03    -23.5629E+06    -50.6628E+06    -3.10165E+06    -23.4839E+06    -59.4630E-03     104.380E-03    -44.9174E-03     158.517E-03    -60.2988E-03     104.962E-03    -44.8253E-03     157.278E-03
            1104     12.8994E-03     106.707E-03    -19.7388E+06    -43.4959E+06    -4.66715E+06    -25.5796E+06    -65.0648E-03     110.687E-03    -45.6222E-03     176.882E-03    -66.4623E-03     111.874E-03    -45.5538E-03     175.204E-03
            1105     13.7457E-03     106.872E-03    -15.3624E+06    -22.7266E+06    -7.02168E+06    -25.7727E+06    -72.0150E-03     118.514E-03    -46.4995E-03     206.080E-03    -74.6678E-03     121.053E-03    -46.4793E-03     203.772E-03
            1106     14.5897E-03     107.081E-03    -14.0798E+06     39.2963E+06    -3.18796E+06    -21.2246E+06    -78.6713E-03     126.154E-03    -47.4831E-03     255.019E-03    -84.5709E-03     132.153E-03    -47.5356E-03     252.126E-03
            1107     15.4294E-03     107.353E-03    -12.3076E+06     120.106E+06     39.7141E+06    -11.5985E+06    -81.0738E-03     129.714E-03    -48.6400E-03     298.966E-03    -92.9221E-03     141.830E-03    -48.5977E-03     297.396E-03
            1108     16.2733E-03     107.668E-03    -6.56618E+06     145.105E+06     68.1913E+06    -5.06397E+06    -77.2658E-03     127.082E-03    -49.8158E-03     195.497E-03    -86.2707E-03     136.381E-03    -49.6757E-03     196.194E-03
            1109     862.117E-06     106.782E-03    -7.19985E+06    -43.7780E+06    -7.72814E+06     -4.6165E+06    -42.9820E-03     85.9598E-03    -42.9778E-03     11.1084E-03    -42.9441E-03     85.7628E-03    -42.9425E-03     11.0393E-03
            1110     1.72413E-03     106.793E-03    -8.20533E+06    -46.5533E+06    -9.37644E+06    -8.10069E+06    -42.7260E-03     85.6159E-03    -42.8900E-03     20.5961E-03    -42.6878E-03     85.4100E-03    -42.8575E-03     20.4739E-03
            1111     2.58698E-03     106.811E-03    -9.76884E+06    -50.3969E+06    -11.1776E+06    -10.5970E+06    -42.3881E-03     85.1128E-03    -42.7248E-03     30.6825E-03    -42.3515E-03     84.8945E-03    -42.6934E-03     30.5193E-03
            1112     3.44964E-03     106.838E-03    -12.0054E+06    -54.3897E+06    -13.1749E+06    -12.2319E+06    -41.9664E-03     84.4763E-03    -42.5099E-03     41.0458E-03    -41.9353E-03     84.2471E-03    -42.4795E-03     40.8518E-03
            1113     4.31364E-03     106.871E-03    -14.9463E+06    -59.0436E+06    -14.4667E+06    -12.6522E+06    -41.5717E-03     83.8353E-03    -42.2636E-03     51.7332E-03    -41.5509E-03     83.5932E-03    -42.2287E-03     51.5228E-03
            1114     5.17743E-03     106.913E-03    -18.4593E+06    -62.1979E+06    -14.5348E+06    -11.6190E+06    -41.3003E-03     83.3066E-03    -42.0064E-03     62.8484E-03    -41.2988E-03     83.0604E-03    -41.9621E-03     62.6377E-03
            1115     6.04229E-03     106.963E-03    -22.8511E+06    -62.3334E+06    -13.1773E+06    -10.3263E+06    -41.2601E-03     83.0205E-03    -41.7604E-03     74.3777E-03    -41.2923E-03     82.7879E-03    -41.7028E-03     74.1649E-03
            1116     6.90698E-03     107.022E-03    -26.6788E+06    -62.6449E+06    -10.0788E+06    -10.5550E+06    -41.6980E-03     83.2597E-03    -41.5617E-03     86.3262E-03    -41.7695E-03     83.0429E-03    -41.4826E-03     86.0825E-03
            1117     7.77191E-03     107.091E-03    -29.0965E+06    -60.7410E+06    -6.65116E+06    -11.7032E+06    -42.8174E-03     84.2573E-03    -41.4399E-03     98.6937E-03    -42.9356E-03     84.0754E-03    -41.3429E-03     98.3929E-03
            1118     8.63579E-03     107.171E-03    -28.6837E+06    -56.0394E+06    -1.90516E+06    -12.7959E+06    -44.7456E-03     86.1823E-03    -41.4366E-03     111.600E-03    -44.9200E-03     86.0611E-03    -41.3233E-03     111.221E-03
            1119     9.49778E-03     107.263E-03    -28.2787E+06    -54.8148E+06     1.23412E+06    -15.4823E+06    -47.5578E-03     89.1415E-03    -41.5837E-03     125.177E-03    -47.8111E-03     89.0962E-03    -41.4570E-03     124.666E-03
            1120     10.3587E-03     107.367E-03    -29.4305E+06    -53.3822E+06     1.17985E+06    -18.2680E+06    -51.1192E-03     93.0117E-03    -41.8924E-03     138.517E-03    -51.4976E-03     93.0927E-03    -41.7665E-03     137.833E-03
            1121     11.2166E-03     107.484E-03    -28.3117E+06    -53.0889E+06     1.44306E+06    -21.3955E+06    -55.5878E-03     97.9840E-03    -42.3963E-03     151.311E-03    -56.1483E-03     98.2518E-03    -42.2711E-03     150.387E-03
            1122     12.0697E-03     107.614E-03    -24.6740E+06    -43.2116E+06     1.10501E+06    -25.7135E+06    -61.0598E-03     104.154E-03    -43.0942E-03     165.761E-03    -61.9349E-03     104.786E-03    -42.9903E-03     164.486E-03
            1123     12.9205E-03     107.763E-03    -21.9146E+06    -39.7534E+06    -1.84368E+06    -28.8732E+06    -67.6592E-03     111.674E-03    -44.0150E-03     184.836E-03    -69.1358E-03     112.938E-03    -43.9348E-03     183.058E-03
            1124     13.7663E-03     107.935E-03    -20.3454E+06    -21.7678E+06    -3.62596E+06    -29.2850E+06    -75.2305E-03     120.365E-03    -45.1341E-03     214.556E-03    -78.0294E-03     123.026E-03    -45.0911E-03     212.089E-03
            1125     14.6064E-03     108.151E-03    -16.5385E+06     29.5425E+06     1.59078E+06    -23.6214E+06    -82.8868E-03     129.276E-03    -46.3896E-03     260.181E-03    -88.9503E-03     135.383E-03    -46.4005E-03     256.995E-03
            1126     15.4465E-03     108.425E-03    -10.2383E+06     110.291E+06     42.5911E+06    -14.5521E+06    -87.3833E-03     135.243E-03    -47.8595E-03     299.528E-03    -99.3505E-03     147.443E-03    -47.7916E-03     297.215E-03
            1127     16.2810E-03     108.741E-03    -5.73626E+06     138.975E+06     65.3408E+06    -7.95133E+06    -83.6357E-03     133.007E-03    -49.3708E-03     195.308E-03    -92.6963E-03     142.351E-03    -49.2373E-03     195.338E-03
            1128     864.464E-06     107.812E-03    -6.45609E+06    -34.6016E+06    -6.88080E+06    -3.97530E+06    -40.0377E-03     80.0713E-03    -40.0337E-03     11.2613E-03    -40.0105E-03     79.9177E-03    -40.0085E-03     11.2040E-03
            1129     1.72950E-03     107.823E-03    -8.41568E+06    -38.7462E+06    -9.83447E+06    -6.64511E+06    -39.7891E-03     79.7340E-03    -39.9449E-03     20.8969E-03    -39.7622E-03     79.5674E-03    -39.9257E-03     20.8002E-03
            1130     2.59426E-03     107.841E-03    -11.3903E+06    -44.5405E+06    -13.8480E+06    -8.32802E+06    -39.4141E-03     79.1851E-03    -39.7710E-03     31.1770E-03    -39.3891E-03     79.0009E-03    -39.7591E-03     31.0533E-03
            1131     3.46026E-03     107.866E-03    -15.7207E+06    -51.0186E+06    -17.8611E+06    -8.33604E+06    -38.9960E-03     78.5424E-03    -39.5463E-03     41.7859E-03    -38.9794E-03     78.3398E-03    -39.5389E-03     41.6563E-03
            1132     4.32609E-03     107.899E-03    -21.5293E+06    -57.5289E+06    -20.3373E+06    -7.05168E+06    -38.6770E-03     77.9819E-03    -39.3049E-03     52.7762E-03    -38.6793E-03     77.7617E-03    -39.2920E-03     52.6559E-03
            1133     5.19298E-03     107.940E-03    -27.3510E+06    -61.7805E+06    -20.9860E+06    -5.74950E+06    -38.5408E-03     77.6106E-03    -39.0697E-03     64.2232E-03    -38.5698E-03     77.3833E-03    -39.0454E-03     64.1096E-03
            1134     6.05979E-03     107.990E-03    -30.9140E+06    -61.5514E+06    -17.6004E+06    -4.77833E+06    -38.7805E-03     77.6543E-03    -38.8739E-03     76.1501E-03    -38.8406E-03     77.4366E-03    -38.8278E-03     76.0335E-03
            1135     6.92696E-03     108.049E-03    -32.9839E+06    -59.2370E+06    -11.2775E+06    -5.30340E+06    -39.6417E-03     78.3978E-03    -38.7561E-03     88.5995E-03    -39.7391E-03     78.2000E-03    -38.6788E-03     88.4505E-03
            1136     7.79303E-03     108.120E-03    -33.9540E+06    -56.6721E+06    -5.22118E+06    -7.66046E+06    -41.2532E-03     79.9984E-03    -38.7452E-03     101.661E-03    -41.3932E-03     79.8314E-03    -38.6399E-03     101.441E-03
            1137     8.65810E-03     108.201E-03    -33.8548E+06    -50.9129E+06    -929.696E+03    -11.5576E+06    -43.6654E-03     82.5271E-03    -38.8617E-03     115.461E-03    -43.8632E-03     82.4264E-03    -38.7434E-03     115.128E-03
            1138     9.52197E-03     108.296E-03    -31.7438E+06    -50.7607E+06     1.93223E+06    -13.6708E+06    -46.9580E-03     86.1008E-03    -39.1428E-03     129.965E-03    -47.2240E-03     86.0683E-03    -39.0135E-03     129.509E-03
            1139     10.3822E-03     108.405E-03    -28.8230E+06    -47.9794E+06     4.01178E+06    -15.8157E+06    -51.1992E-03     90.8053E-03    -39.6061E-03     144.175E-03    -51.5794E-03     90.9015E-03    -39.4747E-03     143.547E-03
            1140     11.2400E-03     108.526E-03    -26.2638E+06    -43.2618E+06     5.82529E+06    -22.2918E+06    -56.4895E-03     96.7743E-03    -40.2848E-03     158.095E-03    -57.0632E-03     97.0849E-03    -40.1549E-03     157.172E-03
            1141     12.0944E-03     108.664E-03    -24.0018E+06    -37.1183E+06     5.10421E+06    -26.5596E+06    -62.8529E-03     104.042E-03    -41.1894E-03     173.518E-03    -63.7625E-03     104.721E-03    -41.0753E-03     172.218E-03
            1142     12.9425E-03     108.818E-03    -23.6843E+06    -34.7314E+06     1.96943E+06    -28.3622E+06    -70.4431E-03     112.784E-03    -42.3405E-03     193.474E-03    -72.0058E-03     114.135E-03    -42.2460E-03     191.637E-03
            1143     13.7854E-03     109.001E-03    -22.2861E+06    -16.9489E+06     1.23837E+06    -31.5269E+06    -78.9054E-03     122.621E-03    -43.7159E-03     222.136E-03    -81.8280E-03     125.402E-03    -43.6528E-03     219.498E-03
            1144     14.6250E-03     109.221E-03    -17.6763E+06     19.5370E+06     4.04089E+06    -29.0406E+06    -88.3000E-03     133.577E-03    -45.2773E-03     265.803E-03    -94.5524E-03     139.826E-03    -45.2598E-03     262.161E-03
            1145     15.4553E-03     109.505E-03    -12.1501E+06     98.7535E+06     41.0062E+06    -20.2439E+06    -94.3050E-03     141.398E-03    -47.0928E-03     303.588E-03    -106.638E-03     153.921E-03    -47.0133E-03     300.448E-03
            1146     16.2809E-03     109.823E-03    -5.34802E+06     129.569E+06     62.6332E+06    -11.2149E+06    -89.9324E-03     138.888E-03    -48.9558E-03     199.411E-03    -99.2781E-03     148.494E-03    -48.8228E-03     198.772E-03
            1147     867.587E-06     108.836E-03    -9.60817E+06    -27.6388E+06    -10.2699E+06    -2.81684E+06    -36.7603E-03     73.5043E-03    -36.7440E-03     11.3465E-03    -36.7540E-03     73.3947E-03    -36.7413E-03     11.3072E-03
            1148     1.73485E-03     108.847E-03    -12.6984E+06    -33.5457E+06    -14.5684E+06    -3.94407E+06    -36.4867E-03     73.1419E-03    -36.6552E-03     21.0117E-03    -36.4815E-03     73.0138E-03    -36.6610E-03     20.9556E-03
            1149     2.60320E-03     108.864E-03    -18.0434E+06    -42.2127E+06    -20.4012E+06    -3.63018E+06    -36.1473E-03     72.6283E-03    -36.4809E-03     31.3918E-03    -36.1484E-03     72.4736E-03    -36.4956E-03     31.3373E-03
            1150     3.47132E-03     108.889E-03    -25.2715E+06    -51.5607E+06    -25.4350E+06    -1.42545E+06    -35.8553E-03     72.1366E-03    -36.2814E-03     42.1681E-03    -35.8725E-03     71.9540E-03    -36.2971E-03     42.1392E-03
            1151     4.34044E-03     108.921E-03    -32.3657E+06    -58.1614E+06    -27.5555E+06     693.831E+03    -35.7041E-03     71.7913E-03    -36.0872E-03     53.3860E-03    -35.7459E-03     71.5909E-03    -36.0937E-03     53.3802E-03
            1152     5.20941E-03     108.961E-03    -37.3074E+06    -60.8620E+06    -24.8304E+06     745.078E+03    -35.8828E-03     71.8161E-03    -35.9333E-03     65.0935E-03    -35.9527E-03     71.6088E-03    -35.9151E-03     65.0806E-03
            1153     6.07868E-03     109.012E-03    -39.5351E+06    -60.1814E+06    -19.2587E+06    -729.486E+03    -36.5528E-03     72.3975E-03    -35.8447E-03     77.4110E-03    -36.6495E-03     72.1956E-03    -35.7964E-03     77.3654E-03
            1154     6.94715E-03     109.072E-03    -38.7826E+06    -56.3406E+06    -12.0993E+06    -2.36335E+06    -37.8067E-03     73.6529E-03    -35.8462E-03     90.4444E-03    -37.9283E-03     73.4714E-03    -35.7688E-03     90.3549E-03
            1155     7.81514E-03     109.144E-03    -36.0768E+06    -50.9269E+06    -4.21739E+06    -5.77915E+06    -39.8231E-03     75.7899E-03    -35.9668E-03     104.322E-03    -39.9741E-03     75.6439E-03    -35.8617E-03     104.151E-03
            1156     8.68154E-03     109.228E-03    -32.4631E+06    -44.3475E+06     2.15058E+06    -9.95144E+06    -42.6926E-03     78.9202E-03    -36.2275E-03     118.969E-03    -42.8868E-03     78.8353E-03    -36.1054E-03     118.683E-03
            1157     9.54522E-03     109.326E-03    -29.8716E+06    -47.8916E+06     3.68963E+06    -13.0563E+06    -46.4183E-03     83.0711E-03    -36.6528E-03     134.361E-03    -46.6707E-03     83.0368E-03    -36.5216E-03     133.940E-03
            1158     10.4076E-03     109.439E-03    -26.1635E+06    -40.9695E+06     7.18066E+06    -17.0422E+06    -51.3676E-03     88.6412E-03    -37.2735E-03     150.195E-03    -51.7428E-03     88.7574E-03    -37.1403E-03     149.575E-03
            1159     11.2648E-03     109.568E-03    -22.3178E+06    -32.7852E+06     11.4034E+06    -21.5216E+06    -57.4917E-03     95.6293E-03    -38.1376E-03     165.178E-03    -58.0721E-03     95.9817E-03    -38.0007E-03     164.274E-03
            1160     12.1172E-03     109.710E-03    -21.4006E+06    -32.9015E+06     8.15359E+06    -25.4414E+06    -64.7177E-03     103.961E-03    -39.2435E-03     181.680E-03    -65.6513E-03     104.679E-03    -39.1240E-03     180.375E-03
            1161     12.9652E-03     109.876E-03    -19.4259E+06    -30.1684E+06     6.55548E+06    -27.2051E+06    -73.2808E-03     113.903E-03    -40.6220E-03     202.917E-03    -74.8966E-03     115.325E-03    -40.5173E-03     201.030E-03
            1162     13.8065E-03     110.066E-03    -17.6420E+06    -5.84828E+06     8.52490E+06    -30.5267E+06    -83.5102E-03     125.776E-03    -42.2661E-03     232.111E-03    -86.5953E-03     128.756E-03    -42.1894E-03     229.275E-03
            1163     14.6396E-03     110.297E-03    -16.2123E+06     13.7806E+06     4.90751E+06    -33.1118E+06    -94.1883E-03     138.327E-03    -44.1388E-03     275.147E-03    -100.682E-03     144.800E-03    -44.1108E-03     271.021E-03
            1164     15.4691E-03     110.592E-03    -10.2890E+06     85.3573E+06     40.0944E+06    -24.8184E+06    -99.5797E-03     145.835E-03    -46.2553E-03     311.121E-03    -112.165E-03     158.571E-03    -46.1636E-03     307.394E-03
            1165     16.2988E-03     110.913E-03    -3.69603E+06     118.016E+06     62.2736E+06    -13.0682E+06    -97.4732E-03     145.915E-03    -48.4420E-03     205.024E-03    -106.994E-03     155.663E-03    -48.2964E-03     203.777E-03
            1166     870.307E-06     109.853E-03    -18.7323E+06    -24.0786E+06    -19.6182E+06    -1.12806E+06    -33.2178E-03     66.4340E-03    -33.2163E-03     11.2810E-03    -33.2486E-03     66.3688E-03    -33.2523E-03     11.2658E-03
            1167     1.74137E-03     109.863E-03    -23.6447E+06    -33.5353E+06    -25.4960E+06     760.892E+03    -32.9865E-03     66.1141E-03    -33.1277E-03     20.8475E-03    -33.0197E-03     66.0173E-03    -33.1722E-03     20.8563E-03
            1168     2.61207E-03     109.880E-03    -31.2352E+06    -45.1248E+06    -30.6178E+06     4.30465E+06    -32.8007E-03     65.7993E-03    -32.9987E-03     31.2377E-03    -32.8477E-03     65.6631E-03    -33.0410E-03     31.2920E-03
            1169     3.48361E-03     109.904E-03    -38.5404E+06    -54.9899E+06    -33.1129E+06     7.20872E+06    -32.7314E-03     65.6103E-03    -32.8788E-03     42.0919E-03    -32.7972E-03     65.4392E-03    -32.9088E-03     42.1829E-03
            1170     4.35487E-03     109.936E-03    -43.1770E+06    -59.3132E+06    -31.1451E+06     7.70350E+06    -32.9190E-03     65.7122E-03    -32.7932E-03     53.4524E-03    -33.0053E-03     65.5243E-03    -32.8003E-03     53.5472E-03
            1171     5.22642E-03     109.977E-03    -44.5604E+06    -58.4659E+06    -25.6718E+06     5.47582E+06    -33.4986E-03     66.2637E-03    -32.7651E-03     65.4527E-03    -33.6033E-03     66.0766E-03    -32.7441E-03     65.5127E-03
            1172     6.09725E-03     110.028E-03    -42.9553E+06    -56.5700E+06    -18.7910E+06     1.52904E+06    -34.5464E-03     67.3613E-03    -32.8149E-03     78.2042E-03    -34.6612E-03     67.1768E-03    -32.7646E-03     78.2019E-03
            1173     6.96767E-03     110.089E-03    -39.0626E+06    -52.8432E+06    -11.2252E+06    -2.57117E+06    -36.1774E-03     69.1371E-03    -32.9597E-03     91.8593E-03    -36.3002E-03     68.9658E-03    -32.8826E-03     91.7839E-03
            1174     7.83675E-03     110.163E-03    -33.8878E+06    -44.2105E+06    -2.99635E+06    -6.69584E+06    -38.5258E-03     71.7455E-03    -33.2197E-03     106.524E-03    -38.6688E-03     71.6197E-03    -33.1215E-03     106.361E-03
            1175     8.70401E-03     110.251E-03    -29.8897E+06    -40.5964E+06     2.95307E+06    -9.55295E+06    -41.6754E-03     75.2970E-03    -33.6216E-03     122.098E-03    -41.8524E-03     75.2151E-03    -33.5046E-03     121.842E-03
            1176     9.56968E-03     110.352E-03    -25.7130E+06    -41.2619E+06     7.27982E+06    -13.5318E+06    -46.0222E-03     80.2211E-03    -34.1989E-03     138.734E-03    -46.2584E-03     80.1986E-03    -34.0654E-03     138.331E-03
            1177     10.4310E-03     110.471E-03    -21.1207E+06    -32.6102E+06     12.1793E+06    -18.6733E+06    -51.5166E-03     86.4969E-03    -34.9803E-03     155.860E-03    -51.8768E-03     86.6314E-03    -34.8415E-03     155.242E-03
            1178     11.2892E-03     110.607E-03    -17.7031E+06    -28.5438E+06     14.1718E+06    -21.0981E+06    -58.2001E-03     94.2013E-03    -36.0012E-03     172.469E-03    -58.7659E-03     94.5625E-03    -35.8633E-03     171.588E-03
            1179     12.1418E-03     110.758E-03    -15.0940E+06    -25.9277E+06     14.0050E+06    -23.1372E+06    -66.4651E-03     103.759E-03    -37.2936E-03     190.959E-03    -67.4076E-03     104.516E-03    -37.1641E-03     189.674E-03
            1180     12.9878E-03     110.932E-03    -13.7375E+06    -25.4469E+06     12.3196E+06    -26.3904E+06    -76.2597E-03     115.147E-03    -38.8872E-03     213.311E-03    -77.9242E-03     116.639E-03    -38.7688E-03     211.365E-03
            1181     13.8277E-03     111.134E-03    -12.2518E+06     4.08918E+06     15.5593E+06    -29.5005E+06    -87.9723E-03     128.752E-03    -40.7794E-03     244.179E-03    -91.1970E-03     131.905E-03    -40.6898E-03     241.160E-03
            1182     14.6586E-03     111.381E-03    -10.5916E+06     17.1829E+06     9.67942E+06    -32.7410E+06    -99.4376E-03     142.364E-03    -42.9264E-03     285.257E-03    -106.123E-03     149.047E-03    -42.8876E-03     280.756E-03
            1183     15.4842E-03     111.676E-03    -8.13579E+06     71.8410E+06     35.5336E+06    -28.8033E+06    -106.516E-03     151.868E-03    -45.3522E-03     316.549E-03    -119.251E-03     164.729E-03    -45.2670E-03     311.823E-03
            1184     16.3025E-03     112.008E-03    -3.16207E+06     99.7447E+06     52.7287E+06    -15.2169E+06    -106.164E-03     154.088E-03    -47.9247E-03     209.979E-03    -115.802E-03     163.919E-03    -47.8011E-03     207.707E-03
            1185     873.837E-06     110.863E-03    -36.9829E+06    -28.4373E+06    -34.2705E+06     5.56585E+06    -29.6003E-03     59.1904E-03    -29.5901E-03     10.9988E-03    -29.6947E-03     59.1510E-03    -29.6666E-03     11.0716E-03
            1186     1.74736E-03     110.873E-03    -44.5864E+06    -40.1255E+06    -40.2192E+06     9.12323E+06    -29.5562E-03     59.1243E-03    -29.5681E-03     20.4040E-03    -29.6629E-03     59.0459E-03    -29.6463E-03     20.5236E-03
            1187     2.62153E-03     110.889E-03    -49.5495E+06    -51.6309E+06    -41.9928E+06     12.0441E+06    -29.6134E-03     59.1605E-03    -29.5472E-03     30.6918E-03    -29.7253E-03     59.0342E-03    -29.6104E-03     30.8500E-03
            1188     3.49527E-03     110.913E-03    -50.4604E+06    -58.5137E+06    -38.7536E+06     12.5175E+06    -29.8846E-03     59.4436E-03    -29.5590E-03     41.5536E-03    -29.9955E-03     59.2793E-03    -29.5948E-03     41.7181E-03
            1189     4.36918E-03     110.946E-03    -48.2250E+06    -59.0520E+06    -32.4426E+06     10.5429E+06    -30.4644E-03     60.0825E-03    -29.6181E-03     53.0638E-03    -30.5726E-03     59.9035E-03    -29.6248E-03     53.2015E-03
            1190     5.24236E-03     110.987E-03    -44.2907E+06    -54.7066E+06    -24.9748E+06     6.50399E+06    -31.3815E-03     61.1177E-03    -29.7361E-03     65.3302E-03    -31.4887E-03     60.9453E-03    -29.7175E-03     65.4114E-03
            1191     6.11519E-03     111.039E-03    -40.2595E+06    -51.7386E+06    -17.5382E+06     1.70143E+06    -32.7420E-03     62.6740E-03    -29.9320E-03     78.4620E-03    -32.8482E-03     62.5041E-03    -29.8863E-03     78.4721E-03
            1192     6.98692E-03     111.102E-03    -36.6304E+06    -46.5678E+06    -10.3642E+06    -3.50048E+06    -34.6842E-03     64.9034E-03    -30.2192E-03     92.7350E-03    -34.7996E-03     64.7533E-03    -30.1504E-03     92.6606E-03
            1193     7.85724E-03     111.179E-03    -33.4301E+06    -38.9713E+06    -3.79351E+06    -7.67687E+06    -37.2176E-03     67.8298E-03    -30.6122E-03     108.157E-03    -37.3567E-03     67.7227E-03    -30.5262E-03     107.999E-03
            1194     8.72611E-03     111.269E-03    -29.2605E+06    -36.5200E+06     2.54600E+06    -10.7026E+06    -40.7230E-03     71.8694E-03    -31.1465E-03     124.744E-03    -40.8918E-03     71.7974E-03    -31.0384E-03     124.494E-03
            1195     9.59196E-03     111.376E-03    -24.4495E+06    -32.4266E+06     9.31811E+06    -15.4369E+06    -45.5119E-03     77.3711E-03    -31.8592E-03     142.886E-03    -45.7448E-03     77.3753E-03    -31.7301E-03     142.484E-03
            1196     10.4544E-03     111.501E-03    -19.9388E+06    -25.9550E+06     14.3531E+06    -20.5641E+06    -51.4185E-03     84.1947E-03    -32.7762E-03     161.570E-03    -51.7725E-03     84.3446E-03    -32.6379E-03     160.956E-03
            1197     11.3125E-03     111.642E-03    -15.3629E+06    -26.6200E+06     15.6991E+06    -22.2212E+06    -58.7201E-03     92.6530E-03    -33.9329E-03     180.119E-03    -59.2724E-03     93.0116E-03    -33.7935E-03     179.246E-03
            1198     12.1654E-03     111.805E-03    -12.3109E+06    -20.7246E+06     17.3678E+06    -21.9654E+06    -67.7769E-03     103.151E-03    -35.3743E-03     200.288E-03    -68.7226E-03     103.931E-03    -35.2396E-03     199.025E-03
            1199     13.0114E-03     111.989E-03    -10.5030E+06    -17.5934E+06     17.6511E+06    -25.8305E+06    -79.1072E-03     116.259E-03    -37.1523E-03     225.095E-03    -80.8312E-03     117.835E-03    -37.0233E-03     223.089E-03
            1200     13.8477E-03     112.205E-03    -9.74015E+06     10.2454E+06     19.5985E+06    -28.7958E+06    -91.6902E-03     130.938E-03    -39.2479E-03     257.554E-03    -95.0357E-03     134.231E-03    -39.1507E-03     254.390E-03
            1201     14.6781E-03     112.464E-03    -11.5185E+06     23.8443E+06     13.8537E+06    -29.9274E+06    -104.505E-03     146.132E-03    -41.6274E-03     298.085E-03    -111.404E-03     153.038E-03    -41.5760E-03     293.224E-03
            1202     15.4984E-03     112.772E-03    -11.8020E+06     67.0761E+06     33.3488E+06    -30.6682E+06    -115.672E-03     160.048E-03    -44.3762E-03     330.337E-03    -128.967E-03     173.447E-03    -44.2896E-03     324.352E-03
            1203     16.3096E-03     113.116E-03    -6.73050E+06     75.7168E+06     40.9221E+06    -21.0130E+06    -116.297E-03     163.671E-03    -47.3741E-03     221.373E-03    -126.440E-03     173.943E-03    -47.2695E-03     217.779E-03
            1204     876.707E-06     111.866E-03    -64.0909E+06    -45.4545E+06    -60.5728E+06     12.2726E+06    -26.2424E-03     52.4057E-03    -26.1633E-03     10.4914E-03    -26.4094E-03     52.3587E-03    -26.3073E-03     10.6515E-03
            1205     1.75357E-03     111.876E-03    -62.7150E+06    -50.3570E+06    -54.4338E+06     15.9441E+06    -26.4451E-03     52.7149E-03    -26.2698E-03     19.7121E-03    -26.6067E-03     52.6322E-03    -26.3780E-03     19.9211E-03
            1206     2.62979E-03     111.892E-03    -60.2532E+06    -57.1140E+06    -48.6985E+06     15.3500E+06    -26.8556E-03     53.2487E-03    -26.3931E-03     29.8930E-03    -27.0029E-03     53.1199E-03    -26.4664E-03     30.0958E-03
            1207     3.50612E-03     111.917E-03    -56.0055E+06    -59.5955E+06    -42.7381E+06     12.4833E+06    -27.4791E-03     54.0311E-03    -26.5520E-03     40.7094E-03    -27.6096E-03     53.8747E-03    -26.5981E-03     40.8760E-03
            1208     4.38171E-03     111.949E-03    -50.0031E+06    -56.6232E+06    -35.5355E+06     8.07035E+06    -28.3433E-03     55.0981E-03    -26.7548E-03     52.2589E-03    -28.4584E-03     54.9373E-03    -26.7779E-03     52.3680E-03
            1209     5.25692E-03     111.992E-03    -43.5667E+06    -50.8032E+06    -27.1803E+06     3.83556E+06    -29.5019E-03     56.5146E-03    -27.0127E-03     64.6375E-03    -29.6061E-03     56.3623E-03    -27.0118E-03     64.6891E-03
            1210     6.13116E-03     112.045E-03    -37.9639E+06    -46.9680E+06    -19.2478E+06     88.6733E+03    -31.1132E-03     58.4537E-03    -27.3405E-03     78.1478E-03    -31.2094E-03     58.3040E-03    -27.3136E-03     78.1442E-03
            1211     7.00423E-03     112.111E-03    -33.4668E+06    -40.1251E+06    -11.0611E+06    -4.04933E+06    -33.2126E-03     60.9637E-03    -27.7511E-03     92.9431E-03    -33.3156E-03     60.8373E-03    -27.6997E-03     92.8722E-03
            1212     7.87601E-03     112.190E-03    -29.0710E+06    -33.5746E+06    -2.72289E+06    -8.39879E+06    -36.0041E-03     64.2698E-03    -28.2657E-03     108.981E-03    -36.1235E-03     64.1747E-03    -28.1885E-03     108.828E-03
            1213     8.74573E-03     112.284E-03    -24.1616E+06    -31.0646E+06     4.59052E+06    -12.4185E+06    -39.8515E-03     68.7677E-03    -28.9163E-03     126.784E-03    -39.9952E-03     68.7021E-03    -28.8132E-03     126.531E-03
            1214     9.61241E-03     112.396E-03    -19.1900E+06    -24.1315E+06     11.7149E+06    -17.1503E+06    -44.6970E-03     74.4240E-03    -29.7270E-03     146.239E-03    -44.9028E-03     74.4423E-03    -29.6056E-03     145.843E-03
            1215     10.4764E-03     112.526E-03    -15.5982E+06    -20.0848E+06     16.7138E+06    -20.8631E+06    -50.9830E-03     81.7197E-03    -30.7367E-03     166.614E-03    -51.3075E-03     81.8696E-03    -30.6014E-03     166.030E-03
            1216     11.3351E-03     112.677E-03    -13.9476E+06    -24.7166E+06     17.2394E+06    -22.2248E+06    -58.9829E-03     90.9798E-03    -31.9970E-03     187.232E-03    -59.5147E-03     91.3253E-03    -31.8547E-03     186.392E-03
            1217     12.1877E-03     112.848E-03    -10.2756E+06    -16.9727E+06     19.6270E+06    -23.9144E+06    -68.8443E-03     102.397E-03    -33.5527E-03     209.958E-03    -69.7833E-03     103.184E-03    -33.4150E-03     208.685E-03
            1218     13.0335E-03     113.046E-03    -7.08585E+06    -11.5742E+06     22.5167E+06    -24.6028E+06    -80.9712E-03     116.432E-03    -35.4611E-03     237.546E-03    -82.7130E-03     118.045E-03    -35.3215E-03     235.541E-03
            1219     13.8711E-03     113.277E-03    -7.63679E+06     15.0048E+06     24.6583E+06    -23.8424E+06    -94.6662E-03     132.367E-03    -37.7005E-03     270.948E-03    -98.0816E-03     135.740E-03    -37.5879E-03     267.737E-03
            1220     14.6993E-03     113.547E-03    -6.14831E+06     32.2972E+06     24.0418E+06    -26.5954E+06    -109.684E-03     149.970E-03    -40.2861E-03     312.332E-03    -116.686E-03     156.999E-03    -40.2038E-03     307.116E-03
            1221     15.5192E-03     113.876E-03    -1.61649E+06     69.4368E+06     45.7576E+06    -28.2689E+06    -123.371E-03     166.686E-03    -43.3156E-03     346.574E-03    -137.058E-03     180.487E-03    -43.1851E-03     339.559E-03
            1222     16.3249E-03     114.237E-03     879.839E+03     53.8652E+06     46.2516E+06    -19.9774E+06    -127.726E-03     174.455E-03    -46.7290E-03     233.394E-03    -138.283E-03     185.077E-03    -46.5771E-03     228.518E-03
            1223     879.266E-06     112.862E-03    -103.886E+06    -64.1517E+06    -104.494E+06     6.89743E+06    -23.5280E-03     46.9407E-03    -23.4128E-03     9.84579E-03    -23.8029E-03     46.9219E-03    -23.6916E-03     9.93634E-03
            1224     1.75821E-03     112.872E-03    -90.5193E+06    -59.1807E+06    -86.9993E+06     9.31625E+06    -23.8883E-03     47.4653E-03    -23.5770E-03     18.6129E-03    -24.1287E-03     47.4262E-03    -23.7950E-03     18.7361E-03
            1225     2.63702E-03     112.889E-03    -75.6256E+06    -59.4974E+06    -68.9504E+06     8.46627E+06    -24.5476E-03     48.3520E-03    -23.8044E-03     28.5355E-03    -24.7387E-03     48.2631E-03    -23.9533E-03     28.6494E-03
            1226     3.51485E-03     112.914E-03    -62.3591E+06    -58.0916E+06    -54.7393E+06     5.35159E+06    -25.4410E-03     49.5204E-03    -24.0794E-03     39.2988E-03    -25.5878E-03     49.3981E-03    -24.1785E-03     39.3738E-03
            1227     4.39222E-03     112.949E-03    -51.9477E+06    -53.2278E+06    -43.4601E+06     1.70115E+06    -26.5307E-03     50.9268E-03    -24.3961E-03     50.8482E-03    -26.6484E-03     50.7969E-03    -24.4609E-03     50.8763E-03
            1228     5.26874E-03     112.993E-03    -44.4185E+06    -48.1322E+06    -33.7838E+06    -871.504E+03    -27.9082E-03     52.6721E-03    -24.7639E-03     63.3043E-03    -28.0099E-03     52.5431E-03    -24.7986E-03     63.2976E-03
            1229     6.14437E-03     113.048E-03    -38.1037E+06    -42.1312E+06    -24.1742E+06    -3.90027E+06    -29.6440E-03     54.8383E-03    -25.1943E-03     77.0087E-03    -29.7387E-03     54.7181E-03    -25.1988E-03     76.9580E-03
            1230     7.01885E-03     113.116E-03    -30.8194E+06    -34.6149E+06    -13.1998E+06    -8.00665E+06    -31.8667E-03     57.5679E-03    -25.7012E-03     92.0915E-03    -31.9576E-03     57.4647E-03    -25.6723E-03     91.9772E-03
            1231     7.89176E-03     113.198E-03    -23.3429E+06    -28.5986E+06    -1.85220E+06    -11.3283E+06    -34.9264E-03     61.2381E-03    -26.3117E-03     108.914E-03    -35.0189E-03     61.1516E-03    -26.2457E-03     108.735E-03
            1232     8.76212E-03     113.296E-03    -17.4267E+06    -25.2952E+06     7.19030E+06    -14.6072E+06    -38.8133E-03     65.8587E-03    -27.0454E-03     127.601E-03    -38.9236E-03     65.7966E-03    -26.9475E-03     127.339E-03
            1233     9.63055E-03     113.412E-03    -13.7515E+06    -17.3688E+06     14.6118E+06    -17.7361E+06    -43.8242E-03     71.7463E-03    -27.9221E-03     148.199E-03    -43.9985E-03     71.7681E-03    -27.8040E-03     147.823E-03
            1234     10.4947E-03     113.549E-03    -12.0380E+06    -16.7017E+06     19.1067E+06    -18.9182E+06    -50.4070E-03     79.4039E-03    -28.9969E-03     170.242E-03    -50.6952E-03     79.5352E-03    -28.8597E-03     169.720E-03
            1235     11.3545E-03     113.708E-03    -9.56749E+06    -18.7932E+06     22.2718E+06    -21.9306E+06    -58.6819E-03     89.0028E-03    -30.3209E-03     192.845E-03    -59.1719E-03     89.3285E-03    -30.1684E-03     192.056E-03
            1236     12.2088E-03     113.890E-03    -5.93830E+06    -11.9262E+06     26.1257E+06    -26.4347E+06    -69.4008E-03     101.349E-03    -31.9479E-03     218.392E-03    -70.3000E-03     102.110E-03    -31.7914E-03     217.128E-03
            1237     13.0543E-03     114.101E-03    -2.83707E+06    -14.8489E+06     27.9214E+06    -22.7302E+06    -82.3000E-03     116.244E-03    -33.9438E-03     247.633E-03    -83.9823E-03     117.785E-03    -33.7785E-03     245.679E-03
            1238     13.8920E-03     114.345E-03     8.31306E+03     20.3835E+06     35.3519E+06    -19.3891E+06    -97.3958E-03     133.697E-03    -36.3016E-03     282.209E-03    -100.760E-03     137.035E-03    -36.1544E-03     278.985E-03
            1239     14.7193E-03     114.636E-03     4.84115E+06     45.0001E+06     39.5524E+06    -26.7129E+06    -114.629E-03     153.696E-03    -39.0666E-03     324.384E-03    -121.585E-03     160.719E-03    -38.9411E-03     318.818E-03
            1240     15.5336E-03     114.978E-03     9.39995E+06     63.7881E+06     56.4629E+06    -25.7239E+06    -130.646E-03     172.992E-03    -42.3461E-03     360.251E-03    -144.560E-03     187.008E-03    -42.1699E-03     352.099E-03
            1241     16.3381E-03     115.365E-03     6.86570E+06     33.0695E+06     56.6491E+06    -10.8416E+06    -138.624E-03     184.790E-03    -46.1663E-03     247.980E-03    -149.670E-03     195.823E-03    -45.9409E-03     241.699E-03
            1242     880.517E-06     113.853E-03    -117.091E+06    -67.9447E+06    -117.422E+06    -3.36120E+06    -21.9652E-03     43.8211E-03    -21.8559E-03     9.08812E-03    -22.2818E-03     43.8213E-03    -22.1747E-03     9.04549E-03
            1243     1.76096E-03     113.864E-03    -107.821E+06    -60.7415E+06    -105.895E+06    -4.61253E+06    -22.3245E-03     44.3208E-03    -21.9963E-03     17.1646E-03    -22.6218E-03     44.3267E-03    -22.2814E-03     17.1067E-03
            1244     2.64091E-03     113.882E-03    -95.0726E+06    -57.9679E+06    -92.1451E+06    -6.20535E+06    -22.9319E-03     45.1339E-03    -22.2020E-03     26.4233E-03    -23.1891E-03     45.1149E-03    -22.4408E-03     26.3459E-03
            1245     3.52062E-03     113.909E-03    -81.3115E+06    -54.2460E+06    -80.2621E+06    -8.70011E+06    -23.8052E-03     46.2611E-03    -22.4558E-03     36.7140E-03    -24.0158E-03     46.2230E-03    -22.6606E-03     36.6057E-03
            1246     4.39939E-03     113.944E-03    -67.4822E+06    -49.7125E+06    -68.0077E+06    -11.0129E+06    -24.9832E-03     47.7597E-03    -22.7765E-03     48.0670E-03    -25.1485E-03     47.7060E-03    -22.9466E-03     47.9297E-03
            1247     5.27723E-03     113.990E-03    -53.2267E+06    -46.1528E+06    -51.3406E+06    -12.0782E+06    -26.5099E-03     49.7020E-03    -23.1921E-03     60.6190E-03    -26.6331E-03     49.6212E-03    -23.3047E-03     60.4675E-03
            1248     6.15382E-03     114.047E-03    -38.7118E+06    -37.0212E+06    -32.2099E+06    -14.1561E+06    -28.3892E-03     52.0762E-03    -23.6870E-03     74.4426E-03    -28.4818E-03     51.9934E-03    -23.7382E-03     74.2613E-03
            1249     7.02925E-03     114.117E-03    -26.5056E+06    -30.6900E+06    -15.5035E+06    -16.1391E+06    -30.8134E-03     55.0747E-03    -24.2613E-03     89.7963E-03    -30.8825E-03     54.9857E-03    -24.2559E-03     89.5817E-03
            1250     7.90286E-03     114.202E-03    -18.5905E+06    -26.8133E+06    -2.46198E+06    -15.6846E+06    -33.8848E-03     58.8120E-03    -24.9272E-03     107.063E-03    -33.9490E-03     58.7223E-03    -24.8737E-03     106.838E-03
            1251     8.77474E-03     114.304E-03    -14.1842E+06    -19.5704E+06     8.29327E+06    -16.4042E+06    -37.7777E-03     63.4785E-03    -25.7008E-03     126.221E-03    -37.8696E-03     63.4267E-03    -25.6104E-03     125.955E-03
            1252     9.64342E-03     114.425E-03    -10.7291E+06    -13.6312E+06     17.4884E+06    -17.8518E+06    -43.0079E-03     69.6307E-03    -26.6228E-03     148.015E-03    -43.1556E-03     69.6416E-03    -26.5000E-03     147.666E-03
            1253     10.5089E-03     114.569E-03    -6.58518E+06    -14.5464E+06     24.4141E+06    -18.2083E+06    -49.6697E-03     77.4087E-03    -27.7390E-03     171.264E-03    -49.9059E-03     77.4996E-03    -27.5863E-03     170.794E-03
            1254     11.3698E-03     114.735E-03    -2.95856E+06    -9.57917E+06     31.2047E+06    -21.6986E+06    -58.3040E-03     87.4005E-03    -29.0965E-03     195.850E-03    -58.7359E-03     87.6985E-03    -28.9223E-03     195.119E-03
            1255     12.2240E-03     114.929E-03    -1.19917E+06    -4.97727E+06     35.2379E+06    -25.6602E+06    -69.4569E-03     100.218E-03    -30.7611E-03     223.480E-03    -70.2802E-03     100.919E-03    -30.5760E-03     222.296E-03
            1256     13.0710E-03     115.153E-03     2.72264E+06    -22.8905E+06     33.1787E+06    -24.3042E+06    -83.4144E-03     116.222E-03    -32.8077E-03     254.525E-03    -84.9668E-03     117.609E-03    -32.6126E-03     252.603E-03
            1257     13.9077E-03     115.413E-03     9.26431E+06     20.3269E+06     43.3890E+06    -18.6951E+06    -100.308E-03     135.569E-03    -35.2602E-03     291.239E-03    -103.512E-03     138.756E-03    -35.0862E-03     287.989E-03
            1258     14.7334E-03     115.721E-03     6.61211E+06     64.1641E+06     51.6267E+06    -21.3933E+06    -119.286E-03     157.472E-03    -38.1861E-03     333.821E-03    -126.060E-03     164.353E-03    -38.0306E-03     328.076E-03
            1259     15.5486E-03     116.086E-03    -3.68086E+06     52.4711E+06     48.0337E+06    -23.1637E+06    -138.876E-03     180.559E-03    -41.6821E-03     371.798E-03    -152.835E-03     194.559E-03    -41.5127E-03     362.364E-03
            1260     16.3431E-03     116.497E-03    -5.17197E+06     8.15539E+06     36.0013E+06    -10.5822E+06    -146.803E-03     192.583E-03    -45.7800E-03     263.611E-03    -158.333E-03     204.029E-03    -45.6044E-03     255.754E-03
            1261     880.867E-06     114.843E-03    -90.3026E+06    -58.5611E+06    -88.5693E+06    -6.50244E+06    -21.7599E-03     43.4265E-03    -21.6666E-03     8.16535E-03    -21.9981E-03     43.3931E-03    -21.8936E-03     8.08103E-03
            1262     1.76142E-03     114.854E-03    -88.8621E+06    -53.9039E+06    -85.3247E+06    -10.2893E+06    -22.0859E-03     43.8680E-03    -21.7821E-03     15.3713E-03    -22.3284E-03     43.8511E-03    -22.0017E-03     15.2379E-03
            1263     2.64185E-03     114.873E-03    -86.0446E+06    -50.5954E+06    -81.3616E+06    -14.5267E+06    -22.5778E-03     44.5226E-03    -21.9448E-03     23.6214E-03    -22.8168E-03     44.5125E-03    -22.1535E-03     23.4333E-03
            1264     3.52169E-03     114.900E-03    -81.1109E+06    -46.3654E+06    -77.9043E+06    -19.2104E+06    -23.2519E-03     45.3930E-03    -22.1411E-03     32.8552E-03    -23.4774E-03     45.3918E-03    -22.3458E-03     32.6069E-03
            1265     4.40129E-03     114.937E-03    -74.6563E+06    -43.8554E+06    -71.4654E+06    -22.8365E+06    -24.2224E-03     46.6241E-03    -22.4017E-03     43.3084E-03    -24.4285E-03     46.6167E-03    -22.5872E-03     43.0136E-03
            1266     5.27998E-03     114.984E-03    -65.2624E+06    -40.2595E+06    -59.8640E+06    -26.8324E+06    -25.5514E-03     48.2978E-03    -22.7463E-03     55.2416E-03    -25.7326E-03     48.2779E-03    -22.8927E-03     54.8953E-03
            1267     6.15773E-03     115.044E-03    -52.8869E+06    -31.9808E+06    -45.7493E+06    -29.7353E+06    -27.3607E-03     50.5316E-03    -23.1709E-03     68.8593E-03    -27.5129E-03     50.5153E-03    -23.2766E-03     68.4745E-03
            1268     7.03374E-03     115.116E-03    -39.5143E+06    -29.2762E+06    -30.0659E+06    -29.3627E+06    -29.8103E-03     53.5176E-03    -23.7073E-03     84.4430E-03    -29.9245E-03     53.4750E-03    -23.7579E-03     84.0590E-03
            1269     7.90802E-03     115.204E-03    -25.2503E+06    -27.9337E+06    -11.8592E+06    -26.6166E+06    -32.9193E-03     57.2891E-03    -24.3698E-03     101.951E-03    -32.9971E-03     57.2127E-03    -24.3520E-03     101.592E-03
            1270     8.78013E-03     115.310E-03    -12.0392E+06    -19.7559E+06     7.21676E+06    -22.0936E+06    -36.9836E-03     62.1443E-03    -25.1608E-03     121.577E-03    -37.0521E-03     62.0793E-03    -25.0786E-03     121.252E-03
            1271     9.64979E-03     115.436E-03    -4.92578E+06    -13.6245E+06     21.6486E+06    -17.8129E+06    -42.2170E-03     68.3186E-03    -26.1016E-03     143.887E-03    -42.3184E-03     68.2918E-03    -25.9665E-03     143.567E-03
            1272     10.5155E-03     115.585E-03    -3.61546E+06    -10.5782E+06     31.2507E+06    -17.5102E+06    -48.8926E-03     76.1191E-03    -27.2265E-03     168.099E-03    -49.0871E-03     76.1733E-03    -27.0497E-03     167.685E-03
            1273     11.3768E-03     115.760E-03    -1.47261E+06     242.447E+03     40.0061E+06    -21.9873E+06    -57.7817E-03     86.3678E-03    -28.5861E-03     194.739E-03    -58.1629E-03     86.6296E-03    -28.3842E-03     194.074E-03
            1274     12.2317E-03     115.964E-03     1.46685E+06    -2.46785E+06     42.9664E+06    -23.2134E+06    -69.3155E-03     99.5743E-03    -30.2588E-03     224.164E-03    -70.0262E-03     100.159E-03    -30.0425E-03     223.108E-03
            1275     13.0788E-03     116.200E-03     2.66652E+06    -19.3898E+06     39.1706E+06    -26.4456E+06    -84.4053E-03     116.734E-03    -32.3285E-03     257.548E-03    -85.8004E-03     117.959E-03    -32.1084E-03     255.700E-03
            1276     13.9156E-03     116.479E-03     6.43559E+06     8.37247E+06     42.0948E+06    -25.2236E+06    -102.600E-03     137.443E-03    -34.8427E-03     295.679E-03    -105.494E-03     140.271E-03    -34.6537E-03     292.446E-03
            1277     14.7399E-03     116.806E-03     5.56635E+06     62.5762E+06     56.3645E+06    -6.24768E+06    -122.945E-03     160.824E-03    -37.8789E-03     340.409E-03    -129.140E-03     167.103E-03    -37.6959E-03     334.875E-03
            1278     15.5483E-03     117.192E-03    -7.59930E+06     73.0929E+06     55.9291E+06    -4.39786E+06    -143.610E-03     185.029E-03    -41.4191E-03     390.228E-03    -157.293E-03     198.789E-03    -41.2344E-03     380.496E-03
            1279     16.3392E-03     117.637E-03    -10.0494E+06    -3.37367E+06     39.8123E+06    -16.3917E+06    -151.422E-03     196.980E-03    -45.5575E-03     294.882E-03    -163.532E-03     208.937E-03    -45.3390E-03     285.994E-03
            1280     879.890E-06     115.833E-03    -60.0767E+06    -46.6797E+06    -58.5964E+06    -5.28158E+06    -22.9228E-03     45.7676E-03    -22.8449E-03     6.90236E-03    -23.0708E-03     45.7063E-03    -22.9830E-03     6.83214E-03
            1281     1.75973E-03     115.845E-03    -58.9776E+06    -43.5119E+06    -55.8887E+06    -9.98430E+06    -23.2660E-03     46.2276E-03    -22.9617E-03     13.0018E-03    -23.4173E-03     46.1769E-03    -23.0925E-03     12.8691E-03
            1282     2.63901E-03     115.864E-03    -56.4230E+06    -38.4719E+06    -50.7079E+06    -15.7291E+06    -23.7683E-03     46.9120E-03    -23.1437E-03     19.9192E-03    -23.9222E-03     46.8757E-03    -23.2596E-03     19.7105E-03
            1283     3.51813E-03     115.892E-03    -54.2918E+06    -36.4389E+06    -44.6570E+06    -20.5807E+06    -24.3930E-03     47.7701E-03    -23.3771E-03     27.6416E-03    -24.5486E-03     47.7327E-03    -23.4688E-03     27.3684E-03
            1284     4.39655E-03     115.930E-03    -52.9272E+06    -34.0238E+06    -40.6552E+06    -24.8853E+06    -25.1263E-03     48.7588E-03    -23.6326E-03     36.4564E-03    -25.2851E-03     48.7265E-03    -23.7098E-03     36.1261E-03
            1285     5.27463E-03     115.978E-03    -52.0841E+06    -28.4508E+06    -38.5457E+06    -30.9926E+06    -26.0638E-03     49.9703E-03    -23.9065E-03     46.7420E-03    -26.2304E-03     49.9625E-03    -23.9825E-03     46.3318E-03
            1286     6.15191E-03     116.039E-03    -50.8625E+06    -24.3204E+06    -35.2904E+06    -36.2908E+06    -27.4012E-03     51.6363E-03    -24.2351E-03     58.9620E-03    -27.5733E-03     51.6436E-03    -24.3026E-03     58.4825E-03
            1287     7.02839E-03     116.114E-03    -47.2101E+06    -25.4155E+06    -29.4192E+06    -38.8220E+06    -29.3222E-03     53.9748E-03    -24.6526E-03     73.5276E-03    -29.4844E-03     53.9643E-03    -24.6944E-03     73.0141E-03
            1288     7.90316E-03     116.205E-03    -40.1895E+06    -27.3193E+06    -19.7846E+06    -39.4783E+06    -32.0873E-03     57.2740E-03    -25.1867E-03     90.7328E-03    -32.2289E-03     57.2333E-03    -25.1878E-03     90.2064E-03
            1289     8.77559E-03     116.314E-03    -28.8792E+06    -24.5236E+06    -5.02307E+06    -36.6268E+06    -36.0193E-03     61.8927E-03    -25.8734E-03     110.988E-03    -36.1391E-03     61.8377E-03    -25.8211E-03     110.485E-03
            1290     9.64455E-03     116.444E-03    -14.3016E+06    -22.8294E+06     14.5911E+06    -26.9235E+06    -41.2439E-03     68.0025E-03    -26.7586E-03     133.794E-03    -41.3460E-03     67.9308E-03    -26.6318E-03     133.383E-03
            1291     10.5109E-03     116.599E-03    -2.32460E+06    -9.34533E+06     35.2554E+06    -18.7903E+06    -48.1277E-03     75.9819E-03    -27.8542E-03     158.928E-03    -48.2778E-03     75.9888E-03    -27.6610E-03     158.546E-03
            1292     11.3719E-03     116.782E-03     296.022E+03     8.05449E+06     46.7538E+06    -18.4391E+06    -56.9319E-03     86.1102E-03    -29.1783E-03     186.466E-03    -57.2368E-03     86.3100E-03    -28.9567E-03     185.933E-03
            1293     12.2274E-03     116.995E-03    -2.10237E+06    -2.56887E+06     45.4212E+06    -19.5762E+06    -68.7591E-03     99.5782E-03    -30.8191E-03     217.615E-03    -69.3324E-03     100.005E-03    -30.5853E-03     216.743E-03
            1294     13.0739E-03     117.246E-03    -3.29204E+06    -4.68724E+06     44.7464E+06    -25.0739E+06    -84.5570E-03     117.434E-03    -32.8768E-03     253.922E-03    -85.7276E-03     118.449E-03    -32.6415E-03     252.302E-03
            1295     13.9086E-03     117.541E-03    -5.87726E+06     47.7938E+03     42.3919E+06    -28.9955E+06    -102.740E-03     138.132E-03    -35.3917E-03     294.574E-03    -105.170E-03     140.421E-03    -35.1713E-03     291.620E-03
            1296     14.7326E-03     117.885E-03    -283.752E+03     20.5522E+06     53.6154E+06    -9.19302E+06    -121.608E-03     159.940E-03    -38.3327E-03     345.663E-03    -126.840E-03     165.093E-03    -38.0940E-03     340.634E-03
            1297     15.5484E-03     118.296E-03     16.1182E+06     95.2925E+06     81.8895E+06     11.1222E+06    -140.237E-03     181.785E-03    -41.5489E-03     407.215E-03    -152.426E-03     194.137E-03    -41.3010E-03     398.496E-03
            1298     16.3624E-03     118.768E-03     14.2121E+06     21.0128E+06     77.4630E+06     5.37791E+06    -152.627E-03     198.045E-03    -45.4182E-03     327.436E-03    -164.679E-03     210.013E-03    -45.0819E-03     318.408E-03
            1299     877.707E-06     116.828E-03    -31.2213E+06    -35.9243E+06    -30.6491E+06    -5.14239E+06    -25.7338E-03     51.3620E-03    -25.6281E-03     5.32722E-03    -25.7942E-03     51.2718E-03    -25.6840E-03     5.25641E-03
            1300     1.75498E-03     116.840E-03    -29.3404E+06    -31.6085E+06    -27.2134E+06    -10.3668E+06    -26.1280E-03     51.9101E-03    -25.7821E-03     9.95900E-03    -26.1907E-03     51.8341E-03    -25.8297E-03     9.81681E-03
            1301     2.63212E-03     116.860E-03    -27.9801E+06    -26.9989E+06    -21.6334E+06    -14.9932E+06    -26.7121E-03     52.7273E-03    -26.0152E-03     15.1593E-03    -26.7836E-03     52.6651E-03    -26.0436E-03     14.9529E-03
            1302     3.50835E-03     116.888E-03    -26.9307E+06    -27.0844E+06    -16.1004E+06    -18.2305E+06    -27.4182E-03     53.7300E-03    -26.3118E-03     20.9224E-03    -27.4937E-03     53.6590E-03    -26.3140E-03     20.6691E-03
            1303     4.38420E-03     116.927E-03    -25.3448E+06    -22.7264E+06    -12.7449E+06    -22.5617E+06    -28.1426E-03     54.7679E-03    -26.6252E-03     27.5790E-03    -28.2231E-03     54.7131E-03    -26.6193E-03     27.2649E-03
            1304     5.25940E-03     116.976E-03    -23.8835E+06    -16.2340E+06    -8.67763E+06    -27.4999E+06    -28.9104E-03     55.8693E-03    -26.9589E-03     35.4426E-03    -29.0010E-03     55.8410E-03    -26.9441E-03     35.0601E-03
            1305     6.13417E-03     117.037E-03    -24.3536E+06    -14.4253E+06    -4.10103E+06    -31.3970E+06    -29.8069E-03     57.1300E-03    -27.3231E-03     44.9743E-03    -29.9115E-03     57.1072E-03    -27.2874E-03     44.5376E-03
            1306     7.00806E-03     117.113E-03    -27.6657E+06    -17.4167E+06    -2.65183E+06    -34.3162E+06    -30.9512E-03     58.6598E-03    -27.7086E-03     56.7277E-03    -31.0727E-03     58.6273E-03    -27.6565E-03     56.2507E-03
            1307     7.88138E-03     117.205E-03    -32.2815E+06    -20.0544E+06    -3.58305E+06    -37.6795E+06    -32.6901E-03     60.8213E-03    -28.1313E-03     71.5989E-03    -32.8320E-03     60.7864E-03    -28.0733E-03     71.0770E-03
            1308     8.75324E-03     117.317E-03    -35.8816E+06    -22.6816E+06    -2.85223E+06    -40.5182E+06    -35.4753E-03     64.1256E-03    -28.6503E-03     90.2825E-03    -35.6361E-03     64.0858E-03    -28.5797E-03     89.7214E-03
            1309     9.62320E-03     117.451E-03    -33.5003E+06    -30.4713E+06     4.78253E+06    -39.6755E+06    -39.9437E-03     69.2987E-03    -29.3550E-03     112.710E-03    -40.1027E-03     69.2163E-03    -29.2383E-03     112.147E-03
            1310     10.4881E-03     117.611E-03    -22.2924E+06    -18.6540E+06     23.9294E+06    -32.6512E+06    -46.3430E-03     76.6389E-03    -30.2959E-03     138.659E-03    -46.5199E-03     76.6014E-03    -30.1169E-03     138.145E-03
            1311     11.3484E-03     117.801E-03    -10.1392E+06     1.48988E+06     43.8098E+06    -20.3917E+06    -55.0285E-03     86.5374E-03    -31.5089E-03     167.480E-03    -55.2758E-03     86.6277E-03    -31.2773E-03     167.024E-03
            1312     12.2024E-03     118.022E-03    -6.83349E+06     1.03132E+06     50.2003E+06    -13.6539E+06    -67.3251E-03     100.393E-03    -33.0683E-03     200.664E-03    -67.7473E-03     100.651E-03    -32.8088E-03     200.049E-03
            1313     13.0480E-03     118.287E-03    -7.54149E+06     13.1622E+06     55.0488E+06    -21.3232E+06    -82.2410E-03     117.284E-03    -35.0427E-03     238.404E-03    -83.1027E-03     118.007E-03    -34.7756E-03     237.171E-03
            1314     13.8849E-03     118.596E-03    -5.79623E+06    -1.64623E+06     55.1554E+06    -24.4541E+06    -97.7921E-03     135.195E-03    -37.4033E-03     281.340E-03    -99.5204E-03     136.740E-03    -37.1168E-03     279.075E-03
            1315     14.7131E-03     118.956E-03     854.796E+03    -7.70119E+06     61.5345E+06    -21.5499E+06    -114.632E-03     154.675E-03    -40.0432E-03     333.169E-03    -118.468E-03     158.311E-03    -39.7256E-03     329.013E-03
            1316     15.5404E-03     119.374E-03     11.2677E+06     58.9787E+06     66.5424E+06    -6.42119E+06    -131.660E-03     174.424E-03    -42.7646E-03     392.448E-03    -140.498E-03     183.322E-03    -42.5338E-03     385.262E-03
            1317     16.3488E-03     119.874E-03     11.5112E+06     24.8629E+06     47.7672E+06     19.4617E+06    -143.707E-03     189.684E-03    -45.9765E-03     347.326E-03    -154.337E-03     200.321E-03    -45.7904E-03     339.037E-03
            1318     873.578E-06     117.829E-03    -6.83459E+06    -25.2253E+06    -5.91945E+06    -5.03717E+06    -30.5392E-03     60.9211E-03    -30.3819E-03     3.40402E-03    -30.5298E-03     60.8123E-03    -30.3650E-03     3.33137E-03
            1319     1.74701E-03     117.842E-03    -7.05397E+06    -19.5795E+06    -4.24978E+06    -9.83247E+06    -31.0399E-03     61.6435E-03    -30.6036E-03     6.18804E-03    -31.0429E-03     61.5612E-03    -30.5862E-03     6.04651E-03
            1320     2.61952E-03     117.863E-03    -6.55253E+06    -18.1628E+06    -636.449E+03    -13.2705E+06    -31.7392E-03     62.6539E-03    -30.9147E-03     9.26323E-03    -31.7480E-03     62.5736E-03    -30.8820E-03     9.06918E-03
            1321     3.49160E-03     117.893E-03    -5.01731E+06    -17.9850E+06     3.96623E+06    -16.4142E+06    -32.5733E-03     63.8718E-03    -31.2986E-03     12.7380E-03    -32.5828E-03     63.7848E-03    -31.2454E-03     12.4943E-03
            1322     4.36259E-03     117.931E-03    -3.57937E+06    -12.7621E+06     9.51858E+06    -20.1723E+06    -33.4772E-03     65.2120E-03    -31.7348E-03     16.8156E-03    -33.4973E-03     65.1428E-03    -31.6635E-03     16.5136E-03
            1323     5.23278E-03     117.981E-03    -3.91972E+06    -7.62892E+06     14.2043E+06    -22.7916E+06    -34.3654E-03     66.5747E-03    -32.2093E-03     21.7582E-03    -34.4043E-03     66.5274E-03    -32.1215E-03     21.4123E-03
            1324     6.10191E-03     118.043E-03    -6.37647E+06    -7.40040E+06     17.3890E+06    -23.5481E+06    -35.1807E-03     67.8897E-03    -32.7090E-03     27.9005E-03    -35.2404E-03     67.8455E-03    -32.6021E-03     27.5350E-03
            1325     6.97057E-03     118.119E-03    -8.95150E+06    -9.09472E+06     19.9772E+06    -24.9384E+06    -36.0041E-03     69.2265E-03    -33.2224E-03     35.7461E-03    -36.0821E-03     69.1775E-03    -33.0964E-03     35.3538E-03
            1326     7.83830E-03     118.210E-03    -11.7353E+06    -11.5759E+06     21.5526E+06    -26.8208E+06    -36.9582E-03     70.7083E-03    -33.7502E-03     46.0039E-03    -37.0533E-03     70.6527E-03    -33.6086E-03     45.5808E-03
            1327     8.70541E-03     118.323E-03    -16.8863E+06    -14.7680E+06     20.2806E+06    -28.4808E+06    -38.2876E-03     72.5896E-03    -34.3019E-03     59.5774E-03    -38.4064E-03     72.5315E-03    -34.1546E-03     59.1300E-03
            1328     9.57095E-03     118.458E-03    -24.5084E+06    -23.1873E+06     16.6715E+06    -32.5605E+06    -40.5537E-03     75.4750E-03    -34.9212E-03     77.7041E-03    -40.6974E-03     75.3960E-03    -34.7687E-03     77.2041E-03
            1329     10.4350E-03     118.622E-03    -29.8857E+06    -21.7528E+06     18.1088E+06    -37.3393E+06    -44.4221E-03     80.0956E-03    -35.6735E-03     100.682E-03    -44.6048E-03     80.0385E-03    -35.5080E-03     100.115E-03
            1330     11.2955E-03     118.816E-03    -26.3661E+06    -16.1597E+06     30.2542E+06    -30.6365E+06    -51.4597E-03     88.1512E-03    -36.6915E-03     128.527E-03    -51.6768E-03     88.1269E-03    -36.4785E-03     128.008E-03
            1331     12.1487E-03     119.047E-03    -12.4436E+06    -3.86733E+06     52.7058E+06    -19.8369E+06    -62.3309E-03     100.430E-03    -38.0991E-03     162.322E-03    -62.6071E-03     100.495E-03    -37.8119E-03     161.824E-03
            1332     12.9915E-03     119.321E-03     1.06817E+06     22.7383E+06     73.6167E+06    -16.7000E+06    -74.6740E-03     114.540E-03    -39.8657E-03     200.366E-03    -75.1491E-03     114.887E-03    -39.5321E-03     199.625E-03
            1333     13.8282E-03     119.638E-03    -1.28303E+06     1.94528E+06     64.0435E+06    -13.6383E+06    -88.2782E-03     130.181E-03    -41.9029E-03     240.431E-03    -89.2156E-03     130.934E-03    -41.5836E-03     239.091E-03
            1334     14.6633E-03     120.003E-03    -11.5421E+06     3.78529E+06     56.1651E+06    -23.6902E+06    -104.942E-03     149.219E-03    -44.2775E-03     284.957E-03    -107.165E-03     151.250E-03    -43.9855E-03     282.102E-03
            1335     15.4768E-03     120.438E-03    -19.6331E+06     12.6903E+06     48.5816E+06    -20.3795E+06    -117.546E-03     164.415E-03    -46.8696E-03     334.499E-03    -122.466E-03     169.167E-03    -46.6167E-03     329.635E-03
            1336     16.3031E-03     120.929E-03    -30.4167E+06    -7.98333E+06     19.5274E+06    -1.12382E+06    -103.877E-03     152.811E-03    -48.9333E-03     338.433E-03    -110.745E-03     159.506E-03    -48.7800E-03     333.565E-03
            1337     867.682E-06     118.843E-03     12.0420E+06    -14.8299E+06     13.0319E+06    -3.93059E+06    -37.7916E-03     75.3183E-03    -37.5267E-03     1.22118E-03    -37.7319E-03     75.2049E-03    -37.4575E-03     1.15955E-03
            1338     1.73452E-03     118.856E-03     11.6966E+06    -9.83365E+06     13.8439E+06    -7.77857E+06    -38.3834E-03     76.2409E-03    -37.8575E-03     1.60126E-03    -38.3344E-03     76.1520E-03    -37.7910E-03     1.47956E-03
            1339     2.60093E-03     118.878E-03     11.0838E+06    -10.0075E+06     15.9493E+06    -10.9306E+06    -39.1930E-03     77.4504E-03    -38.2574E-03     2.25831E-03    -39.1505E-03     77.3589E-03    -38.1792E-03     2.08419E-03
            1340     3.46608E-03     118.909E-03     10.6179E+06    -9.54453E+06     20.7305E+06    -13.9989E+06    -40.2001E-03     78.9578E-03    -38.7577E-03     3.12432E-03    -40.1685E-03     78.8631E-03    -38.6556E-03     2.89742E-03
            1341     4.33025E-03     118.949E-03     9.90640E+06    -5.38465E+06     26.0873E+06    -16.0246E+06    -41.3353E-03     80.6782E-03    -39.3429E-03     4.37109E-03    -41.3226E-03     80.5986E-03    -39.2190E-03     4.10365E-03
            1342     5.19288E-03     118.999E-03     8.09787E+06    -3.36965E+06     30.6843E+06    -15.8251E+06    -42.5603E-03     82.5686E-03    -40.0084E-03     6.10050E-03    -42.5683E-03     82.4965E-03    -39.8618E-03     5.81991E-03
            1343     6.05429E-03     119.062E-03     6.35848E+06    -2.99189E+06     34.9729E+06    -15.5778E+06    -43.8115E-03     84.5584E-03    -40.7469E-03     8.41479E-03    -43.8380E-03     84.4863E-03    -40.5769E-03     8.12004E-03
            1344     6.91395E-03     119.138E-03     4.25847E+06    -3.29917E+06     38.4878E+06    -16.2545E+06    -45.0337E-03     86.5832E-03    -41.5495E-03     11.5952E-03    -45.0792E-03     86.5098E-03    -41.3584E-03     11.2732E-03
            1345     7.77204E-03     119.230E-03     941.055E+03    -6.39956E+06     39.1868E+06    -16.6159E+06    -46.0987E-03     88.5009E-03    -42.4022E-03     16.0072E-03    -46.1621E-03     88.4188E-03    -42.1984E-03     15.6621E-03
            1346     8.62838E-03     119.341E-03    -2.11876E+06    -9.34088E+06     38.5808E+06    -16.6035E+06    -46.8435E-03     90.1342E-03    -43.2907E-03     22.5191E-03    -46.9227E-03     90.0463E-03    -43.0812E-03     22.1595E-03
            1347     9.48368E-03     119.475E-03    -2.95230E+06    -11.0609E+06     38.9104E+06    -19.5655E+06    -47.2935E-03     91.4997E-03    -44.2063E-03     32.1420E-03    -47.3806E-03     91.4075E-03    -43.9914E-03     31.7360E-03
            1348     10.3379E-03     119.635E-03    -5.54490E+06    -13.4964E+06     37.1325E+06    -22.9722E+06    -48.2756E-03     93.4423E-03    -45.1667E-03     45.4165E-03    -48.3760E-03     93.3485E-03    -44.9535E-03     44.9613E-03
            1349     11.1899E-03     119.830E-03    -10.6371E+06    -19.1303E+06     36.6116E+06    -24.9829E+06    -50.9145E-03     97.1892E-03    -46.2748E-03     64.3212E-03    -51.0397E-03     97.0841E-03    -46.0485E-03     63.8344E-03
            1350     12.0370E-03     120.064E-03    -7.31379E+06    -9.24603E+06     52.6317E+06    -29.3624E+06    -55.1593E-03     102.787E-03    -47.6276E-03     90.7620E-03    -55.3199E-03     102.720E-03    -47.3404E-03     90.2105E-03
            1351     12.8812E-03     120.342E-03    -5.10213E+06     7.29887E+06     70.9686E+06    -18.4385E+06    -61.1107E-03     110.311E-03    -49.2001E-03     121.746E-03    -61.3569E-03     110.345E-03    -48.8484E-03     121.275E-03
            1352     13.7196E-03     120.662E-03    -5.82776E+06     5.24938E+06     65.1962E+06    -3.63033E+06    -72.4440E-03     123.464E-03    -51.0203E-03     156.573E-03    -72.8511E-03     123.671E-03    -50.6934E-03     156.016E-03
            1353     14.5354E-03     121.037E-03    -4.46972E+06     25.1042E+06     70.5932E+06    -6.96881E+06    -88.0692E-03     141.458E-03    -53.3889E-03     193.543E-03    -88.9837E-03     142.228E-03    -53.0658E-03     192.207E-03
            1354     15.3530E-03     121.468E-03    -8.97464E+06     7.60196E+06     73.2799E+06    -2.72220E+06    -86.9182E-03     142.747E-03    -55.8293E-03     233.761E-03    -88.7031E-03     144.314E-03    -55.4609E-03     231.741E-03
            1355     16.1625E-03     121.940E-03    -8.36376E+06    -16.9920E+06     42.3529E+06     569.290E+03    -40.2586E-03     96.6560E-03    -56.3973E-03     242.927E-03    -42.3821E-03     98.5644E-03    -56.1488E-03     241.844E-03
            1356     858.970E-06     119.874E-03     29.2915E+06    -6.20530E+06     27.7364E+06    -3.63676E+06    -47.7175E-03     95.6760E-03    -47.9585E-03    -2.27028E-03    -47.6080E-03     95.5565E-03    -47.8533E-03    -2.32897E-03
            1357     1.71739E-03     119.888E-03     26.9213E+06    -3.34946E+06     28.1972E+06    -5.10184E+06    -48.3131E-03     96.3386E-03    -48.0255E-03    -3.87519E-03    -48.2200E-03     96.2363E-03    -47.9187E-03    -3.96231E-03
            1358     2.57480E-03     119.911E-03     24.7319E+06    -3.60366E+06     32.2476E+06    -6.42885E+06    -49.2919E-03     97.7304E-03    -48.4385E-03    -5.60914E-03    -49.2154E-03     97.6239E-03    -48.3079E-03    -5.72441E-03
            1359     3.43109E-03     119.943E-03     22.2092E+06    -3.02073E+06     35.9589E+06    -8.08025E+06    -50.5860E-03     99.6242E-03    -49.0382E-03    -7.41269E-03    -50.5286E-03     99.5187E-03    -48.8863E-03    -7.56172E-03
            1360     4.28568E-03     119.985E-03     19.2480E+06    -1.74087E+06     39.9646E+06    -8.57991E+06    -52.1689E-03     101.975E-03    -49.8058E-03    -9.34215E-03    -52.1345E-03     101.873E-03    -49.6314E-03    -9.51177E-03
            1361     5.13855E-03     120.038E-03     17.0633E+06    -1.34949E+06     45.3546E+06    -8.08536E+06    -54.0473E-03     104.793E-03    -50.7456E-03    -11.4476E-03    -54.0329E-03     104.688E-03    -50.5416E-03    -11.6272E-03
            1362     5.98876E-03     120.101E-03     15.3416E+06    -543.876E+03     50.0509E+06    -7.52422E+06    -56.1989E-03     108.052E-03    -51.8527E-03    -13.7725E-03    -56.2022E-03     107.945E-03    -51.6239E-03    -13.9639E-03
            1363     6.83615E-03     120.179E-03     13.4519E+06    -482.257E+03     52.7889E+06    -6.85134E+06    -58.3863E-03     111.509E-03    -53.1224E-03    -16.3035E-03    -58.4043E-03     111.400E-03    -52.8772E-03    -16.5085E-03
            1364     7.68033E-03     120.272E-03     11.6998E+06    -3.00451E+06     54.1701E+06    -6.65513E+06    -60.3431E-03     114.887E-03    -54.5438E-03    -18.8760E-03    -60.3700E-03     114.764E-03    -54.2855E-03    -19.1034E-03
            1365     8.52129E-03     120.383E-03     10.8175E+06    -4.97967E+06     56.0499E+06    -7.79052E+06    -61.7760E-03     117.875E-03    -56.0992E-03    -21.3120E-03    -61.8096E-03     117.738E-03    -55.8274E-03    -21.5805E-03
            1366     9.35899E-03     120.514E-03     8.68502E+06    -2.89453E+06     57.5716E+06    -10.2344E+06    -62.4748E-03     120.243E-03    -57.7687E-03    -23.2645E-03    -62.5276E-03     120.113E-03    -57.4893E-03    -23.5901E-03
            1367     10.1931E-03     120.672E-03     5.30117E+06    -8.76770E+06     56.1194E+06    -10.4333E+06    -62.2158E-03     121.768E-03    -59.5518E-03    -23.6244E-03    -62.2791E-03     121.611E-03    -59.2661E-03    -23.9756E-03
            1368     11.0228E-03     120.860E-03     4.36179E+06    -9.48918E+06     54.9996E+06    -12.9495E+06    -60.3218E-03     121.734E-03    -61.4120E-03    -20.1521E-03    -60.3924E-03     121.574E-03    -61.1295E-03    -20.5491E-03
            1369     11.8513E-03     121.085E-03    -3.40070E+06    -1.57718E+06     54.3660E+06    -18.5650E+06    -56.7535E-03     120.068E-03    -63.3141E-03    -11.6851E-03    -56.8795E-03     119.957E-03    -63.0351E-03    -12.1506E-03
            1370     12.6772E-03     121.351E-03    -15.7991E+06    -10.5700E+06     48.0553E+06    -13.4866E+06    -53.2419E-03     118.527E-03    -65.2850E-03     880.421E-06    -53.4150E-03     118.400E-03    -65.0065E-03     495.480E-06
            1371     13.4970E-03     121.666E-03    -11.5078E+06    -4.54659E+06     53.7045E+06    -8.84922E+06    -53.5328E-03     121.059E-03    -67.5258E-03     20.8838E-03    -53.7253E-03     120.963E-03    -67.2339E-03     20.5416E-03
            1372     14.3145E-03     122.043E-03    -1.98412E+06     17.2548E+06     77.4563E+06    -1.69770E+06    -53.6365E-03     123.728E-03    -70.0916E-03     52.9912E-03    -53.9390E-03     123.817E-03    -69.7264E-03     52.5549E-03
            1373     15.0992E-03     122.471E-03    -1.21770E+06     11.8812E+06     74.9676E+06     6.25706E+06    -29.1041E-03     100.801E-03    -71.6965E-03     91.2008E-03    -29.4705E-03     100.983E-03    -71.3371E-03     90.8502E-03
            1374     15.9724E-03     122.867E-03     11.4652E+06    -347.530E+03     32.5615E+06     6.80647E+06     14.7999E-03     56.0344E-03    -70.8343E-03     89.5689E-03     14.6503E-03     56.1107E-03    -70.6876E-03     89.5286E-03
            1375     16.2056E-03     61.1974E-03    -5.53538E+06     157.791E+06     106.553E+06     1.05103E+06    -57.8798E-03     111.831E-03    -53.9509E-03     193.048E-03    -66.4294E-03     120.612E-03    -53.6389E-03     194.943E-03
            1376     15.3524E-03     60.8826E-03    -11.2672E+06     148.114E+06     89.0600E+06     1.18717E+06    -66.6690E-03     120.576E-03    -53.9067E-03     285.815E-03    -77.8113E-03     131.946E-03    -53.6598E-03     285.255E-03
            1377     14.5017E-03     60.6100E-03    -15.2384E+06     114.414E+06     40.4211E+06    -106.720E+03    -63.0686E-03     116.751E-03    -53.6820E-03     225.018E-03    -68.5324E-03     122.449E-03    -53.6237E-03     223.016E-03
            1378     13.6482E-03     60.4240E-03    -17.1334E+06     72.5705E+06     895.181E+03    -78.3059E+03    -58.2441E-03     111.797E-03    -53.5524E-03     164.790E-03    -60.6744E-03     114.421E-03    -53.6284E-03     163.134E-03
            1379     12.7951E-03     60.2798E-03    -18.1785E+06     18.5190E+06    -8.34437E+06     783.260E+03    -56.7439E-03     110.363E-03    -53.6188E-03     133.360E-03    -58.0995E-03     111.744E-03    -53.6610E-03     132.018E-03
            1380     11.9414E-03     60.1571E-03    -19.8583E+06    -30.7456E+06    -5.99909E+06     916.356E+03    -56.3258E-03     110.054E-03    -53.7279E-03     115.752E-03    -57.1568E-03     110.722E-03    -53.6845E-03     114.659E-03
            1381     11.0881E-03     60.0497E-03    -21.0167E+06    -60.2603E+06    -5.17615E+06     538.113E+03    -56.0819E-03     109.869E-03    -53.7873E-03     104.666E-03    -56.6342E-03     110.148E-03    -53.6953E-03     103.751E-03
            1382     10.2352E-03     59.9491E-03    -21.9775E+06    -80.5957E+06    -4.32889E+06     499.266E+03    -55.7966E-03     109.628E-03    -53.8313E-03     97.3651E-03    -56.1720E-03     109.652E-03    -53.7042E-03     96.6055E-03
            1383     9.38211E-03     59.8538E-03    -23.2430E+06    -96.7022E+06    -4.34020E+06     22.8505E+03    -55.6076E-03     109.473E-03    -53.8652E-03     89.3269E-03    -55.8579E-03     109.310E-03    -53.7130E-03     88.6889E-03
            1384     8.52946E-03     59.7698E-03    -25.0486E+06    -109.902E+06    -5.14341E+06    -73.0454E+03    -55.3463E-03     109.234E-03    -53.8875E-03     81.3139E-03    -55.5064E-03     108.930E-03    -53.7176E-03     80.7850E-03
            1385     7.67634E-03     59.6905E-03    -27.4614E+06    -121.806E+06    -6.24550E+06     23.5062E+03    -55.0076E-03     108.920E-03    -53.9124E-03     73.9378E-03    -55.1029E-03     108.504E-03    -53.7272E-03     73.5070E-03
            1386     6.82319E-03     59.6214E-03    -29.5274E+06    -133.406E+06    -7.07331E+06    -42.6802E+03    -54.8123E-03     108.754E-03    -53.9419E-03     66.2321E-03    -54.8581E-03     108.242E-03    -53.7410E-03     65.8790E-03
            1387     5.97028E-03     59.5580E-03    -32.5156E+06    -142.266E+06    -10.9676E+06     419.810E+03    -54.6390E-03     108.588E-03    -53.9493E-03     58.3973E-03    -54.6499E-03     108.011E-03    -53.7507E-03     58.1182E-03
            1388     5.11746E-03     59.5039E-03    -36.4015E+06    -146.561E+06    -16.7448E+06     551.171E+03    -54.4496E-03     108.387E-03    -53.9377E-03     50.4714E-03    -54.4420E-03     107.779E-03    -53.7561E-03     50.2530E-03
            1389     4.26446E-03     59.4567E-03    -40.0879E+06    -150.992E+06    -23.7198E+06     98.3082E+03    -54.2577E-03     108.177E-03    -53.9194E-03     42.3935E-03    -54.2351E-03     107.545E-03    -53.7609E-03     42.2199E-03
            1390     3.41157E-03     59.4188E-03    -42.9495E+06    -156.110E+06    -31.4719E+06    -217.657E+03    -54.0958E-03     107.996E-03    -53.9000E-03     34.1919E-03    -54.0567E-03     107.341E-03    -53.7688E-03     34.0575E-03
            1391     2.55863E-03     59.3882E-03    -45.6886E+06    -160.727E+06    -38.7249E+06    -114.401E+03    -53.9790E-03     107.866E-03    -53.8867E-03     25.8619E-03    -53.9281E-03     107.194E-03    -53.7810E-03     25.7663E-03
            1392     1.70570E-03     59.3669E-03    -47.8197E+06    -164.560E+06    -44.8340E+06     38.4985E+03    -53.9288E-03     107.804E-03    -53.8752E-03     17.5380E-03    -53.8687E-03     107.120E-03    -53.7914E-03     17.4773E-03
            1393     852.811E-06     59.3531E-03    -48.8188E+06    -166.242E+06    -47.7991E+06    -66.6954E+03    -53.9242E-03     107.756E-03    -53.8319E-03     9.46541E-03    -53.8593E-03     107.066E-03    -53.7590E-03     9.43182E-03
            1394     16.2053E-03     60.1443E-03    -5.89210E+06     157.394E+06     106.452E+06     666.132E+03    -59.1200E-03     112.986E-03    -53.8658E-03     191.595E-03    -67.7587E-03     121.854E-03    -53.5532E-03     193.392E-03
            1395     15.3557E-03     59.8203E-03    -10.7399E+06     149.638E+06     90.7590E+06     285.074E+03    -65.8735E-03     119.682E-03    -53.8087E-03     285.310E-03    -77.1192E-03     131.158E-03    -53.5563E-03     284.856E-03
            1396     14.5035E-03     59.5581E-03    -14.7163E+06     114.626E+06     39.6444E+06     337.935E+03    -61.9190E-03     115.536E-03    -53.6170E-03     224.201E-03    -67.3280E-03     121.185E-03    -53.5636E-03     222.285E-03
            1397     13.6481E-03     59.3683E-03    -17.6157E+06     71.6480E+06    -1.21837E+06     724.061E+03    -57.7924E-03     111.323E-03    -53.5306E-03     166.668E-03    -60.2438E-03     113.970E-03    -53.6150E-03     165.038E-03
            1398     12.7943E-03     59.2251E-03    -19.1852E+06     18.1803E+06    -9.07695E+06     828.207E+03    -56.7942E-03     110.415E-03    -53.6210E-03     133.501E-03    -58.1583E-03     111.802E-03    -53.6650E-03     132.153E-03
            1399     11.9408E-03     59.1020E-03    -19.8756E+06    -30.3002E+06    -5.90353E+06     499.906E+03    -56.1876E-03     109.922E-03    -53.7348E-03     115.398E-03    -57.0172E-03     110.591E-03    -53.6915E-03     114.302E-03
            1400     11.0881E-03     58.9935E-03    -20.5495E+06    -60.2466E+06    -5.07221E+06     236.060E+03    -56.2091E-03     110.003E-03    -53.7935E-03     104.496E-03    -56.7601E-03     110.282E-03    -53.7017E-03     103.574E-03
            1401     10.2359E-03     58.8932E-03    -21.6561E+06    -79.5777E+06    -3.77126E+06     401.932E+03    -56.1191E-03     109.938E-03    -53.8190E-03     97.1572E-03    -56.4987E-03     109.969E-03    -53.6911E-03     96.3872E-03
            1402     9.38259E-03     58.7994E-03    -23.4406E+06    -96.7591E+06    -4.59163E+06     100.946E+03    -55.5262E-03     109.366E-03    -53.8394E-03     89.4737E-03    -55.7765E-03     109.203E-03    -53.6881E-03     88.8389E-03
            1403     8.52943E-03     58.7131E-03    -25.5410E+06    -110.385E+06    -5.58134E+06    -13.3184E+03    -55.1954E-03     109.067E-03    -53.8720E-03     81.4919E-03    -55.3558E-03     108.761E-03    -53.7028E-03     80.9669E-03
            1404     7.67642E-03     58.6366E-03    -27.7930E+06    -120.986E+06    -5.70016E+06    -33.4374E+03    -55.0210E-03     108.927E-03    -53.9056E-03     74.0497E-03    -55.1201E-03     108.514E-03    -53.7183E-03     73.6178E-03
            1405     6.82327E-03     58.5648E-03    -30.7877E+06    -133.861E+06    -7.51375E+06    -202.603E+03    -54.8059E-03     108.738E-03    -53.9317E-03     66.2729E-03    -54.8566E-03     108.226E-03    -53.7306E-03     65.9180E-03
            1406     5.97054E-03     58.5034E-03    -33.6754E+06    -142.927E+06    -11.3628E+06     476.701E+03    -54.6271E-03     108.566E-03    -53.9390E-03     58.4863E-03    -54.6422E-03     107.987E-03    -53.7397E-03     58.2084E-03
            1407     5.11733E-03     58.4478E-03    -36.4360E+06    -146.134E+06    -16.2229E+06     657.311E+03    -54.4136E-03     108.345E-03    -53.9311E-03     50.5661E-03    -54.4075E-03     107.738E-03    -53.7475E-03     50.3498E-03
            1408     4.26455E-03     58.4020E-03    -39.2826E+06    -150.340E+06    -23.3100E+06     132.630E+03    -54.2317E-03     108.147E-03    -53.9157E-03     42.4320E-03    -54.2065E-03     107.517E-03    -53.7573E-03     42.2592E-03
            1409     3.41150E-03     58.3629E-03    -42.6887E+06    -156.336E+06    -31.9707E+06     87.2164E+03    -54.0855E-03     107.984E-03    -53.8982E-03     34.2131E-03    -54.0441E-03     107.328E-03    -53.7694E-03     34.0827E-03
            1410     2.55866E-03     58.3334E-03    -45.6036E+06    -160.701E+06    -38.6350E+06     296.338E+03    -53.9878E-03     107.876E-03    -53.8883E-03     25.8919E-03    -53.9366E-03     107.205E-03    -53.7823E-03     25.8018E-03
            1411     1.70568E-03     58.3111E-03    -47.7021E+06    -164.228E+06    -44.3461E+06     22.2506E+03    -53.9435E-03     107.816E-03    -53.8721E-03     17.5282E-03    -53.8840E-03     107.132E-03    -53.7865E-03     17.4672E-03
            1412     853.013E-06     58.2980E-03    -49.0509E+06    -166.634E+06    -48.3197E+06    -265.580E+03    -53.8944E-03     107.734E-03    -53.8401E-03     9.47685E-03    -53.8293E-03     107.044E-03    -53.7690E-03     9.44088E-03
            1413     16.2166E-03     59.0983E-03    -5.37985E+06     158.051E+06     107.178E+06     417.989E+03    -60.5664E-03     114.332E-03    -53.7661E-03     192.045E-03    -69.3172E-03     123.314E-03    -53.4516E-03     193.783E-03
            1414     15.3564E-03     58.7634E-03    -10.9446E+06     148.964E+06     89.3799E+06    -304.910E+03    -63.9544E-03     117.684E-03    -53.7299E-03     288.597E-03    -75.3381E-03     129.299E-03    -53.4831E-03     288.325E-03
            1415     14.5015E-03     58.5039E-03    -15.8922E+06     113.200E+06     38.5187E+06     651.942E+03    -61.0461E-03     114.682E-03    -53.6358E-03     225.875E-03    -66.4605E-03     120.330E-03    -53.5843E-03     224.044E-03
            1416     13.6475E-03     58.3146E-03    -18.3219E+06     72.1307E+06    -709.483E+03     1.33841E+06    -58.7046E-03     112.264E-03    -53.5596E-03     167.360E-03    -61.1913E-03     114.944E-03    -53.6411E-03     165.687E-03
            1417     12.7947E-03     58.1681E-03    -19.1195E+06     18.5180E+06    -9.11996E+06     379.446E+03    -56.9545E-03     110.568E-03    -53.6136E-03     132.956E-03    -58.3151E-03     111.953E-03    -53.6583E-03     131.597E-03
            1418     11.9423E-03     58.0479E-03    -19.7006E+06    -29.8607E+06    -5.59916E+06     44.8573E+03    -56.2211E-03     109.941E-03    -53.7201E-03     115.433E-03    -57.0518E-03     110.612E-03    -53.6763E-03     114.330E-03
            1419     11.0881E-03     57.9377E-03    -20.7883E+06    -59.8535E+06    -5.38928E+06     320.188E+03    -56.0420E-03     109.824E-03    -53.7819E-03     105.021E-03    -56.5922E-03     110.103E-03    -53.6919E-03     104.106E-03
            1420     10.2350E-03     57.8371E-03    -22.1826E+06    -80.7248E+06    -4.54132E+06     277.720E+03    -56.0478E-03     109.866E-03    -53.8181E-03     97.1653E-03    -56.4261E-03     109.892E-03    -53.6916E-03     96.3957E-03
            1421     9.38296E-03     57.7438E-03    -23.6766E+06    -96.0033E+06    -4.10934E+06     496.384E+03    -55.5866E-03     109.428E-03    -53.8415E-03     89.3552E-03    -55.8407E-03     109.269E-03    -53.6885E-03     88.7233E-03
            1422     8.52924E-03     57.6590E-03    -25.7178E+06    -109.719E+06    -5.42929E+06     273.569E+03    -55.1515E-03     109.024E-03    -53.8721E-03     81.8012E-03    -55.3133E-03     108.720E-03    -53.7029E-03     81.2826E-03
            1423     7.67628E-03     57.5798E-03    -28.2063E+06    -121.244E+06    -6.04582E+06     155.120E+03    -55.0394E-03     108.946E-03    -53.9069E-03     74.1206E-03    -55.1399E-03     108.534E-03    -53.7205E-03     73.6908E-03
            1424     6.82362E-03     57.5108E-03    -31.3409E+06    -133.710E+06    -7.93528E+06     326.878E+03    -54.8232E-03     108.754E-03    -53.9308E-03     66.4614E-03    -54.8762E-03     108.244E-03    -53.7311E-03     66.1142E-03
            1425     5.97011E-03     57.4470E-03    -34.4204E+06    -143.333E+06    -12.1410E+06    -220.968E+03    -54.6128E-03     108.551E-03    -53.9378E-03     58.5952E-03    -54.6298E-03     107.972E-03    -53.7407E-03     58.3090E-03
            1426     5.11760E-03     57.3932E-03    -36.8532E+06    -145.908E+06    -16.6696E+06    -377.330E+03    -54.3936E-03     108.327E-03    -53.9333E-03     50.5772E-03    -54.3892E-03     107.722E-03    -53.7516E-03     50.3479E-03
            1427     4.26433E-03     57.3459E-03    -39.9248E+06    -150.592E+06    -23.6534E+06     240.708E+03    -54.2179E-03     108.141E-03    -53.9233E-03     42.5061E-03    -54.1950E-03     107.511E-03    -53.7653E-03     42.3350E-03
            1428     3.41162E-03     57.3081E-03    -43.0143E+06    -156.198E+06    -31.4236E+06     510.630E+03    -54.1109E-03     108.020E-03    -53.9089E-03     34.2107E-03    -54.0721E-03     107.365E-03    -53.7772E-03     34.0857E-03
            1429     2.55849E-03     57.2775E-03    -45.6093E+06    -160.279E+06    -37.9259E+06     222.214E+03    -54.0206E-03     107.911E-03    -53.8906E-03     25.9198E-03    -53.9711E-03     107.241E-03    -53.7817E-03     25.8287E-03
            1430     1.70590E-03     57.2559E-03    -47.6429E+06    -164.048E+06    -43.9566E+06    -6.27609E+03    -53.9238E-03     107.795E-03    -53.8715E-03     17.5166E-03    -53.8648E-03     107.112E-03    -53.7844E-03     17.4552E-03
            1431     852.679E-06     57.2425E-03    -49.0302E+06    -166.693E+06    -48.1336E+06     6.61952E+03    -53.8768E-03     107.740E-03    -53.8628E-03     9.47654E-03    -53.8118E-03     107.048E-03    -53.7906E-03     9.44393E-03
            1432     16.2049E-03     58.0291E-03    -5.00403E+06     157.578E+06     107.131E+06     187.515E+03    -59.4224E-03     113.238E-03    -53.8158E-03     191.836E-03    -68.0702E-03     122.117E-03    -53.5014E-03     193.647E-03
            1433     15.3583E-03     57.7180E-03    -11.0696E+06     148.097E+06     88.4746E+06     839.189E+03    -64.3014E-03     118.101E-03    -53.7995E-03     289.425E-03    -75.6274E-03     129.657E-03    -53.5558E-03     289.120E-03
            1434     14.4984E-03     57.4478E-03    -16.6598E+06     113.252E+06     38.9716E+06     852.058E+03    -62.0852E-03     115.771E-03    -53.6855E-03     227.619E-03    -67.5780E-03     121.493E-03    -53.6307E-03     225.727E-03
            1435     13.6483E-03     57.2561E-03    -18.3122E+06     73.0778E+06     958.057E+03     191.589E+03    -59.1636E-03     112.736E-03    -53.5727E-03     165.904E-03    -61.6336E-03     115.398E-03    -53.6474E-03     164.199E-03
            1436     12.7953E-03     57.1153E-03    -18.1878E+06     18.8117E+06     -8.5259E+06     354.844E+03    -56.8803E-03     110.486E-03    -53.6053E-03     132.999E-03    -58.2326E-03     111.865E-03    -53.6489E-03     131.647E-03
            1437     11.9406E-03     56.9906E-03    -18.8735E+06    -29.8600E+06    -5.13502E+06     556.028E+03    -56.2834E-03     109.996E-03    -53.7126E-03     115.732E-03    -57.1096E-03     110.664E-03    -53.6676E-03     114.638E-03
            1438     11.0888E-03     56.8838E-03    -20.5489E+06    -59.6847E+06    -5.07036E+06     571.178E+03    -56.0443E-03     109.817E-03    -53.7724E-03     105.068E-03    -56.5921E-03     110.094E-03    -53.6814E-03     104.159E-03
            1439     10.2355E-03     56.7805E-03    -22.3179E+06    -81.6305E+06    -4.87137E+06     324.317E+03    -55.7149E-03     109.536E-03    -53.8213E-03     97.1707E-03    -56.0891E-03     109.556E-03    -53.6950E-03     96.4094E-03
            1440     9.38201E-03     56.6889E-03    -23.8056E+06    -95.8190E+06    -3.89218E+06     453.610E+03    -55.5715E-03     109.433E-03    -53.8612E-03     89.2065E-03    -55.8270E-03     109.275E-03    -53.7072E-03     88.5733E-03
            1441     8.52958E-03     56.6031E-03    -25.4986E+06    -108.767E+06    -5.03924E+06     450.511E+03    -55.3304E-03     109.214E-03    -53.8837E-03     81.8363E-03    -55.4942E-03     108.916E-03    -53.7143E-03     81.3167E-03
            1442     7.67635E-03     56.5253E-03    -27.8160E+06    -122.101E+06    -6.59983E+06     240.494E+03    -54.9873E-03     108.899E-03    -53.9117E-03     74.2332E-03    -55.0833E-03     108.482E-03    -53.7273E-03     73.8065E-03
            1443     6.82288E-03     56.4545E-03    -29.9159E+06    -133.396E+06    -7.33555E+06     437.402E+03    -54.8753E-03     108.815E-03    -53.9394E-03     66.4169E-03    -54.9225E-03     108.303E-03    -53.7392E-03     66.0705E-03
            1444     5.97067E-03     56.3922E-03    -32.9671E+06    -142.083E+06    -11.2605E+06    -63.5550E+03    -54.6248E-03     108.568E-03    -53.9435E-03     58.4885E-03    -54.6376E-03     107.992E-03    -53.7460E-03     58.2041E-03
            1445     5.11713E-03     56.3374E-03    -37.0685E+06    -146.701E+06    -17.4592E+06    -321.555E+03    -54.3686E-03     108.307E-03    -53.9384E-03     50.5983E-03    -54.3629E-03     107.700E-03    -53.7593E-03     50.3701E-03
            1446     4.26453E-03     56.2909E-03    -40.5797E+06    -151.140E+06    -23.8299E+06     17.0880E+03    -54.2394E-03     108.173E-03    -53.9333E-03     42.4990E-03    -54.2188E-03     107.541E-03    -53.7744E-03     42.3249E-03
            1447     3.41130E-03     56.2523E-03    -43.1930E+06    -155.813E+06    -30.7735E+06    -17.8427E+03    -54.1359E-03     108.052E-03    -53.9166E-03     34.2187E-03    -54.0995E-03     107.399E-03    -53.7819E-03     34.0869E-03
            1448     2.55883E-03     56.2222E-03    -45.5039E+06    -160.116E+06    -37.7754E+06    -84.0832E+03    -54.0189E-03     107.912E-03    -53.8936E-03     25.8954E-03    -53.9693E-03     107.242E-03    -53.7843E-03     25.8003E-03
            1449     1.70555E-03     56.2005E-03    -47.5204E+06    -164.140E+06    -44.2047E+06     5.68566E+03    -53.9138E-03     107.792E-03    -53.8783E-03     17.5140E-03    -53.8537E-03     107.109E-03    -53.7924E-03     17.4529E-03
            1450     853.050E-06     56.1871E-03    -48.7659E+06    -166.529E+06    -48.0421E+06     102.966E+03    -53.9114E-03     107.766E-03    -53.8548E-03     9.54239E-03    -53.8455E-03     107.075E-03    -53.7828E-03     9.51122E-03
            1451     16.2121E-03     56.9771E-03    -5.78462E+06     156.325E+06     105.782E+06    -20.6947E+03    -57.9275E-03     111.845E-03    -53.9174E-03     192.459E-03    -66.4616E-03     120.607E-03    -53.6068E-03     194.356E-03
            1452     15.3489E-03     56.6615E-03    -12.1859E+06     147.226E+06     88.9158E+06     986.926E+03    -66.2407E-03     120.127E-03    -53.8859E-03     286.313E-03    -77.4038E-03     131.511E-03    -53.6371E-03     285.804E-03
            1453     14.5033E-03     56.3900E-03    -15.1893E+06     114.787E+06     40.4907E+06     541.656E+03    -63.1015E-03     116.775E-03    -53.6740E-03     226.306E-03    -68.5980E-03     122.508E-03    -53.6160E-03     224.318E-03
            1454     13.6479E-03     56.2024E-03    -16.8517E+06     72.5328E+06     417.345E+03    -126.820E+03    -58.3432E-03     111.886E-03    -53.5430E-03     165.345E-03    -60.7779E-03     114.517E-03    -53.6216E-03     163.683E-03
            1455     12.7942E-03     56.0582E-03    -18.1232E+06     18.4328E+06    -8.25297E+06     602.683E+03    -56.8445E-03     110.451E-03    -53.6064E-03     132.956E-03    -58.1960E-03     111.827E-03    -53.6481E-03     131.610E-03
            1456     11.9426E-03     55.9371E-03    -19.4345E+06    -29.4619E+06    -5.22345E+06     1.05581E+06    -56.3855E-03     110.095E-03    -53.7090E-03     115.785E-03    -57.2152E-03     110.766E-03    -53.6642E-03     114.695E-03
            1457     11.0883E-03     55.8265E-03    -20.8238E+06    -59.9840E+06    -5.21076E+06     732.300E+03    -55.9318E-03     109.701E-03    -53.7696E-03     105.121E-03    -56.4801E-03     109.978E-03    -53.6785E-03     104.216E-03
            1458     10.2355E-03     55.7270E-03    -21.6805E+06    -80.8901E+06    -4.42191E+06     493.790E+03    -55.6454E-03     109.472E-03    -53.8266E-03     97.3415E-03    -56.0185E-03     109.494E-03    -53.7000E-03     96.5838E-03
            1459     9.38206E-03     55.6327E-03    -23.1656E+06    -96.3474E+06    -4.07693E+06     64.7382E+03    -55.5149E-03     109.387E-03    -53.8723E-03     89.3521E-03    -55.7655E-03     109.225E-03    -53.7194E-03     88.7157E-03
            1460     8.52915E-03     55.5476E-03    -25.0069E+06    -108.836E+06    -4.53216E+06     342.236E+03    -55.3750E-03     109.274E-03    -53.8995E-03     81.5601E-03    -55.5375E-03     108.975E-03    -53.7280E-03     81.0368E-03
            1461     7.67610E-03     55.4702E-03    -26.9189E+06    -120.899E+06    -5.31505E+06     359.348E+03    -55.1354E-03     109.054E-03    -53.9187E-03     74.2088E-03    -55.2308E-03     108.640E-03    -53.7309E-03     73.7822E-03
            1462     6.82365E-03     55.3988E-03    -29.5365E+06    -133.749E+06    -7.36982E+06    -175.532E+03    -54.8319E-03     108.769E-03    -53.9373E-03     66.3410E-03    -54.8765E-03     108.256E-03    -53.7374E-03     65.9871E-03
            1463     5.97005E-03     55.3370E-03    -32.2705E+06    -142.197E+06    -10.8789E+06     597.986E+03    -54.5832E-03     108.532E-03    -53.9486E-03     58.4221E-03    -54.5928E-03     107.954E-03    -53.7501E-03     58.1466E-03
            1464     5.11752E-03     55.2820E-03    -35.9797E+06    -146.178E+06    -16.3096E+06     775.865E+03    -54.4190E-03     108.365E-03    -53.9457E-03     50.5892E-03    -54.4104E-03     107.757E-03    -53.7631E-03     50.3749E-03
            1465     4.26424E-03     55.2355E-03    -39.6636E+06    -150.775E+06    -23.5638E+06    -195.901E+03    -54.2557E-03     108.187E-03    -53.9314E-03     42.4495E-03    -54.2314E-03     107.555E-03    -53.7731E-03     42.2726E-03
            1466     3.41170E-03     55.1968E-03    -42.7367E+06    -156.009E+06    -31.5188E+06    -432.072E+03    -54.1069E-03     108.021E-03    -53.9139E-03     34.2358E-03    -54.0668E-03     107.367E-03    -53.7834E-03     34.0989E-03
            1467     2.55839E-03     55.1669E-03    -45.3758E+06    -160.465E+06    -38.5243E+06    -152.721E+03    -54.0001E-03     107.901E-03    -53.9013E-03     25.8957E-03    -53.9482E-03     107.230E-03    -53.7954E-03     25.7996E-03
            1468     1.70590E-03     55.1450E-03    -47.3458E+06    -164.200E+06    -44.4993E+06     186.265E+03    -53.9501E-03     107.837E-03    -53.8870E-03     17.5412E-03    -53.8887E-03     107.154E-03    -53.8028E-03     17.4824E-03
            1469     852.634E-06     55.1318E-03    -48.4726E+06    -166.260E+06    -47.9135E+06     87.7973E+03    -53.9085E-03     107.776E-03    -53.8670E-03     9.52169E-03    -53.8417E-03     107.085E-03    -53.7952E-03     9.49032E-03
            1470     16.1985E-03     55.9188E-03    -5.73750E+06     156.384E+06     105.957E+06     356.714E+03    -58.7181E-03     112.599E-03    -53.8805E-03     190.427E-03    -67.2041E-03     121.312E-03    -53.5692E-03     192.267E-03
            1471     15.3586E-03     55.6021E-03    -10.5749E+06     148.235E+06     90.2279E+06     126.448E+03    -65.7981E-03     119.620E-03    -53.8215E-03     283.375E-03    -76.8503E-03     130.898E-03    -53.5699E-03     282.893E-03
            1472     14.5015E-03     55.3358E-03    -14.2409E+06     114.642E+06     39.6620E+06     312.269E+03    -62.0214E-03     115.651E-03    -53.6300E-03     225.862E-03    -67.4669E-03     121.338E-03    -53.5773E-03     223.936E-03
            1473     13.6487E-03     55.1475E-03    -17.1899E+06     71.8734E+06    -1.36001E+06     1.03316E+06    -58.1632E-03     111.698E-03    -53.5343E-03     166.669E-03    -60.6211E-03     114.354E-03    -53.6204E-03     165.021E-03
            1474     12.7952E-03     55.0035E-03    -19.4562E+06     18.0409E+06    -9.34901E+06     772.846E+03    -56.9863E-03     110.593E-03    -53.6070E-03     133.407E-03    -58.3525E-03     111.982E-03    -53.6517E-03     132.052E-03
            1475     11.9409E-03     54.8804E-03    -20.4868E+06    -29.4729E+06    -6.11260E+06     584.652E+03    -56.2626E-03     109.973E-03    -53.7101E-03     115.753E-03    -57.0964E-03     110.647E-03    -53.6683E-03     114.658E-03
            1476     11.0888E-03     54.7725E-03    -20.5263E+06    -59.5961E+06    -5.21258E+06     548.531E+03    -55.8554E-03     109.636E-03    -53.7808E-03     105.347E-03    -56.4044E-03     109.916E-03    -53.6907E-03     104.439E-03
            1477     10.2348E-03     54.6709E-03    -21.3734E+06    -80.3534E+06    -4.28836E+06     303.101E+03    -55.8112E-03     109.647E-03    -53.8357E-03     97.3838E-03    -56.1846E-03     109.672E-03    -53.7096E-03     96.6206E-03
            1478     9.38250E-03     54.5774E-03    -23.0769E+06    -96.0882E+06    -4.18873E+06     81.8400E+03    -55.5517E-03     109.424E-03    -53.8728E-03     89.3126E-03    -55.8018E-03     109.264E-03    -53.7209E-03     88.6763E-03
            1479     8.52894E-03     54.4925E-03    -25.2179E+06    -109.257E+06    -4.66097E+06     263.797E+03    -55.3529E-03     109.254E-03    -53.9008E-03     81.5497E-03    -55.5152E-03     108.952E-03    -53.7291E-03     81.0262E-03
            1480     7.67652E-03     54.4137E-03    -27.8896E+06    -120.436E+06    -5.41711E+06     459.579E+03    -55.1520E-03     109.072E-03    -53.9196E-03     74.0576E-03    -55.2531E-03     108.662E-03    -53.7316E-03     73.6308E-03
            1481     6.82312E-03     54.3443E-03    -31.1157E+06    -133.543E+06    -7.78714E+06     113.178E+03    -54.7887E-03     108.727E-03    -53.9387E-03     66.3749E-03    -54.8407E-03     108.217E-03    -53.7389E-03     66.0259E-03
            1482     5.97042E-03     54.2811E-03    -34.4329E+06    -143.189E+06    -11.9384E+06     87.0243E+03    -54.6046E-03     108.555E-03    -53.9501E-03     58.5095E-03    -54.6219E-03     107.976E-03    -53.7523E-03     58.2279E-03
            1483     5.11720E-03     54.2269E-03    -36.4589E+06    -145.332E+06    -15.9395E+06     202.176E+03    -54.4422E-03     108.387E-03    -53.9449E-03     50.5452E-03    -54.4377E-03     107.783E-03    -53.7610E-03     50.3232E-03
            1484     4.26463E-03     54.1798E-03    -39.1006E+06    -150.129E+06    -23.4161E+06     90.6774E+03    -54.2377E-03     108.165E-03    -53.9274E-03     42.4727E-03    -54.2117E-03     107.535E-03    -53.7701E-03     42.2999E-03
            1485     3.41130E-03     54.1418E-03    -42.5143E+06    -156.360E+06    -32.1473E+06     103.503E+03    -54.0903E-03     108.003E-03    -53.9123E-03     34.2193E-03    -54.0476E-03     107.347E-03    -53.7847E-03     34.0895E-03
            1486     2.55872E-03     54.1112E-03    -45.5222E+06    -160.699E+06    -38.7465E+06     151.746E+03    -54.0047E-03     107.909E-03    -53.9043E-03     25.8778E-03    -53.9529E-03     107.238E-03    -53.7990E-03     25.7859E-03
            1487     1.70548E-03     54.0898E-03    -47.5764E+06    -164.091E+06    -44.1310E+06     41.2454E+03    -53.9627E-03     107.851E-03    -53.8887E-03     17.4950E-03    -53.9031E-03     107.168E-03    -53.8024E-03     17.4342E-03
            1488     853.116E-06     54.0760E-03    -48.5977E+06    -166.178E+06    -47.6922E+06     74.7923E+03    -53.9016E-03     107.767E-03    -53.8654E-03     9.44651E-03    -53.8358E-03     107.077E-03    -53.7925E-03     9.41484E-03
            1489     16.2208E-03     54.8674E-03    -5.33252E+06     156.771E+06     106.776E+06     32.3703E+03    -59.7639E-03     113.519E-03    -53.7553E-03     190.401E-03    -68.2484E-03     122.232E-03    -53.4410E-03     192.227E-03
            1490     15.3548E-03     54.5480E-03    -10.0667E+06     148.132E+06     89.3691E+06    -89.4801E+03    -63.5590E-03     117.291E-03    -53.7320E-03     286.148E-03    -74.6549E-03     128.617E-03    -53.4853E-03     285.890E-03
            1491     14.5021E-03     54.2818E-03    -15.6645E+06     113.262E+06     38.9083E+06     976.863E+03    -61.2921E-03     114.936E-03    -53.6436E-03     227.582E-03    -66.7516E-03     120.629E-03    -53.5906E-03     225.723E-03
            1492     13.6468E-03     54.0920E-03    -18.6679E+06     72.1095E+06    -914.056E+03     1.44960E+06    -58.6206E-03     112.188E-03    -53.5674E-03     167.231E-03    -61.1002E-03     114.860E-03    -53.6494E-03     165.563E-03
            1493     12.7943E-03     53.9471E-03    -19.2222E+06     18.6495E+06    -9.70929E+06     741.834E+03    -57.0534E-03     110.673E-03    -53.6193E-03     133.400E-03    -58.4171E-03     112.063E-03    -53.6670E-03     132.044E-03
            1494     11.9423E-03     53.8261E-03    -19.2086E+06    -28.8050E+06    -5.35798E+06     198.004E+03    -56.2282E-03     109.955E-03    -53.7264E-03     115.644E-03    -57.0575E-03     110.629E-03    -53.6836E-03     114.544E-03
            1495     11.0875E-03     53.7170E-03    -20.3893E+06    -59.4478E+06    -5.30251E+06     148.751E+03    -56.0110E-03     109.802E-03    -53.7913E-03     105.339E-03    -56.5604E-03     110.084E-03    -53.7021E-03     104.423E-03
            1496     10.2357E-03     53.6150E-03    -21.9636E+06    -80.7894E+06     -4.7662E+06     137.585E+03    -55.8357E-03     109.675E-03    -53.8397E-03     97.3667E-03    -56.2101E-03     109.699E-03    -53.7145E-03     96.6015E-03
            1497     9.38185E-03     53.5226E-03    -23.5344E+06    -95.5479E+06    -4.34241E+06     397.469E+03    -55.6214E-03     109.494E-03    -53.8727E-03     89.3429E-03    -55.8745E-03     109.337E-03    -53.7217E-03     88.7101E-03
            1498     8.52952E-03     53.4362E-03    -25.5593E+06    -109.800E+06    -5.29198E+06     479.086E+03    -55.3689E-03     109.265E-03    -53.8958E-03     81.6716E-03    -55.5311E-03     108.962E-03    -53.7260E-03     81.1514E-03
            1499     7.67606E-03     53.3590E-03    -28.0415E+06    -120.959E+06    -5.82074E+06     736.828E+03    -55.0456E-03     108.966E-03    -53.9208E-03     73.9944E-03    -55.1458E-03     108.554E-03    -53.7338E-03     73.5723E-03
            1500     6.82332E-03     53.2883E-03    -30.9736E+06    -132.471E+06    -7.13223E+06     852.102E+03    -54.8513E-03     108.796E-03    -53.9444E-03     66.2572E-03    -54.9052E-03     108.290E-03    -53.7431E-03     65.9166E-03
            1501     5.97019E-03     53.2262E-03    -34.0298E+06    -142.208E+06    -11.5133E+06    -487.567E+03    -54.6468E-03     108.594E-03    -53.9471E-03     58.5042E-03    -54.6642E-03     108.019E-03    -53.7491E-03     58.2148E-03
            1502     5.11755E-03     53.1710E-03    -37.2207E+06    -145.903E+06    -17.3462E+06    -992.809E+03    -54.4152E-03     108.350E-03    -53.9351E-03     50.5330E-03    -54.4116E-03     107.747E-03    -53.7563E-03     50.2959E-03
            1503     4.26422E-03     53.1249E-03    -40.1600E+06    -150.819E+06    -23.8672E+06     67.7710E+03    -54.2468E-03     108.170E-03    -53.9228E-03     42.4013E-03    -54.2244E-03     107.539E-03    -53.7652E-03     42.2279E-03
            1504     3.41166E-03     53.0859E-03    -43.1202E+06    -156.123E+06    -31.2963E+06     479.445E+03    -54.1184E-03     108.023E-03    -53.9044E-03     34.1243E-03    -54.0804E-03     107.368E-03    -53.7720E-03     33.9990E-03
            1505     2.55845E-03     53.0563E-03    -45.6775E+06    -160.272E+06    -37.8538E+06     123.434E+03    -54.0045E-03     107.890E-03    -53.8853E-03     25.8044E-03    -53.9555E-03     107.219E-03    -53.7760E-03     25.7119E-03
            1506     1.70596E-03     53.0338E-03    -47.6316E+06    -164.055E+06    -44.0579E+06    -216.463E+03    -53.8975E-03     107.771E-03    -53.8738E-03     17.4632E-03    -53.8383E-03     107.088E-03    -53.7872E-03     17.3992E-03
            1507     852.625E-06     53.0213E-03    -48.8361E+06    -166.405E+06    -47.9241E+06    -288.107E+03    -53.8950E-03     107.760E-03    -53.8652E-03     9.52697E-03    -53.8298E-03     107.070E-03    -53.7927E-03     9.49073E-03
            1508     16.2045E-03     53.8097E-03    -5.34075E+06     156.328E+06     106.250E+06    -357.153E+03    -58.8685E-03     112.669E-03    -53.8001E-03     191.624E-03    -67.3859E-03     121.414E-03    -53.4878E-03     193.517E-03
            1509     15.3575E-03     53.4973E-03    -11.0563E+06     147.284E+06     88.7164E+06     845.061E+03    -64.2218E-03     118.024E-03    -53.8024E-03     288.930E-03    -75.4033E-03     129.432E-03    -53.5563E-03     288.634E-03
            1510     14.4995E-03     53.2265E-03    -16.3178E+06     112.765E+06     39.1866E+06     1.04101E+06    -62.4583E-03     116.140E-03    -53.6821E-03     228.480E-03    -67.9767E-03     121.888E-03    -53.6260E-03     226.547E-03
            1511     13.6482E-03     53.0360E-03    -18.0982E+06     73.0089E+06     322.964E+03     806.212E+03    -58.7279E-03     112.299E-03    -53.5709E-03     166.000E-03    -61.1887E-03     114.954E-03    -53.6489E-03     164.324E-03
            1512     12.7948E-03     52.8919E-03    -17.8804E+06     19.7491E+06    -8.30039E+06     648.270E+03    -56.6062E-03     110.237E-03    -53.6305E-03     132.999E-03    -57.9515E-03     111.613E-03    -53.6747E-03     131.662E-03
            1513     11.9401E-03     52.7707E-03    -19.1564E+06    -29.4688E+06    -5.62649E+06     365.457E+03    -56.3730E-03     110.117E-03    -53.7444E-03     115.929E-03    -57.2045E-03     110.793E-03    -53.7020E-03     114.827E-03
            1514     11.0891E-03     52.6609E-03    -20.3965E+06    -59.5779E+06    -5.25635E+06     292.557E+03    -56.1907E-03     109.990E-03    -53.7995E-03     105.287E-03    -56.7410E-03     110.272E-03    -53.7098E-03     104.369E-03
            1515     10.2346E-03     52.5606E-03    -21.7881E+06    -80.4246E+06    -4.56148E+06     284.775E+03    -55.8108E-03     109.653E-03    -53.8421E-03     97.3778E-03    -56.1850E-03     109.677E-03    -53.7167E-03     96.6153E-03
            1516     9.38241E-03     52.4659E-03    -23.4546E+06    -96.0069E+06    -4.47445E+06     353.931E+03    -55.6431E-03     109.519E-03    -53.8754E-03     89.4657E-03    -55.8949E-03     109.359E-03    -53.7246E-03     88.8328E-03
            1517     8.52904E-03     52.3817E-03    -25.1857E+06    -110.064E+06    -4.91074E+06     615.964E+03    -55.3864E-03     109.285E-03    -53.8988E-03     81.5005E-03    -55.5472E-03     108.980E-03    -53.7273E-03     80.9807E-03
            1518     7.67631E-03     52.3029E-03    -27.1296E+06    -120.995E+06    -5.55637E+06     812.405E+03    -55.1011E-03     109.019E-03    -53.9177E-03     73.9132E-03    -55.1971E-03     108.605E-03    -53.7307E-03     73.4914E-03
            1519     6.82321E-03     52.2333E-03    -29.1112E+06    -131.623E+06    -6.37134E+06     571.395E+03    -54.8880E-03     108.823E-03    -53.9353E-03     66.1559E-03    -54.9350E-03     108.318E-03    -53.7341E-03     65.8110E-03
            1520     5.97052E-03     52.1702E-03    -32.2441E+06    -140.995E+06    -10.2124E+06     171.734E+03    -54.6380E-03     108.575E-03    -53.9374E-03     58.3579E-03    -54.6502E-03     108.002E-03    -53.7373E-03     58.0766E-03
            1521     5.11722E-03     52.1162E-03    -36.5586E+06    -146.401E+06    -17.2774E+06    -185.654E+03    -54.4280E-03     108.349E-03    -53.9211E-03     50.4397E-03    -54.4204E-03     107.742E-03    -53.7422E-03     50.2128E-03
            1522     4.26470E-03     52.0688E-03    -40.6884E+06    -151.514E+06    -24.1198E+06    -174.684E+03    -54.2722E-03     108.174E-03    -53.9021E-03     42.3008E-03    -54.2512E-03     107.541E-03    -53.7440E-03     42.1237E-03
            1523     3.41149E-03     52.0311E-03    -43.4203E+06    -155.763E+06    -30.5732E+06    -227.640E+03    -54.1191E-03     107.996E-03    -53.8771E-03     34.0800E-03    -54.0842E-03     107.343E-03    -53.7412E-03     33.9454E-03
            1524     2.55894E-03     52.0002E-03    -45.5718E+06    -160.101E+06    -37.7878E+06    -340.328E+03    -53.9697E-03     107.820E-03    -53.8499E-03     25.7651E-03    -53.9205E-03     107.150E-03    -53.7406E-03     25.6665E-03
            1525     1.70560E-03     51.9793E-03    -47.5210E+06    -164.202E+06    -44.3862E+06    -164.052E+03    -53.8660E-03     107.702E-03    -53.8356E-03     17.4247E-03    -53.8056E-03     107.018E-03    -53.7505E-03     17.3614E-03
            1526     852.978E-06     51.9650E-03    -48.8935E+06    -166.779E+06    -48.5421E+06    -29.1024E+03    -53.8614E-03     107.683E-03    -53.8220E-03     9.50694E-03    -53.7950E-03     106.992E-03    -53.7520E-03     9.47405E-03
            1527     16.2107E-03     52.7536E-03    -5.43640E+06     155.551E+06     105.228E+06    -234.652E+03    -57.4813E-03     111.424E-03    -53.9427E-03     191.424E-03    -66.0105E-03     120.181E-03    -53.6343E-03     193.343E-03
            1528     15.3503E-03     52.4422E-03    -12.4957E+06     146.774E+06     88.3833E+06     636.566E+03    -66.4495E-03     120.367E-03    -53.9174E-03     286.978E-03    -77.6564E-03     131.794E-03    -53.6702E-03     286.474E-03
            1529     14.5018E-03     52.1684E-03    -15.8541E+06     113.463E+06     40.9294E+06     253.201E+03    -63.3639E-03     117.070E-03    -53.7065E-03     227.776E-03    -68.9143E-03     122.849E-03    -53.6434E-03     225.766E-03
            1530     13.6488E-03     51.9810E-03    -16.9968E+06     73.4760E+06     1.34747E+06     526.224E+03    -58.4388E-03     112.010E-03    -53.5711E-03     166.052E-03    -60.8870E-03     114.655E-03    -53.6463E-03     164.392E-03
            1531     12.7939E-03     51.8383E-03    -18.1078E+06     19.5278E+06    -8.49820E+06     800.929E+03    -56.7870E-03     110.419E-03    -53.6316E-03     133.451E-03    -58.1412E-03     111.802E-03    -53.6761E-03     132.109E-03
            1532     11.9418E-03     51.7140E-03    -18.9034E+06    -29.3827E+06    -5.28925E+06     617.134E+03    -56.3574E-03     110.099E-03    -53.7418E-03     115.649E-03    -57.1863E-03     110.772E-03    -53.6983E-03     114.551E-03
            1533     11.0872E-03     51.6058E-03    -19.9510E+06    -59.4398E+06    -4.80219E+06     539.754E+03    -56.1241E-03     109.923E-03    -53.7987E-03     104.859E-03    -56.6728E-03     110.204E-03    -53.7076E-03     103.943E-03
            1534     10.2357E-03     51.5045E-03    -21.6075E+06    -80.1415E+06    -4.18885E+06     417.676E+03    -55.9081E-03     109.746E-03    -53.8377E-03     97.1015E-03    -56.2830E-03     109.772E-03    -53.7111E-03     96.3380E-03
            1535     9.38184E-03     51.4113E-03    -23.5290E+06    -96.4957E+06    -4.36748E+06     387.676E+03    -55.5839E-03     109.452E-03    -53.8683E-03     89.3287E-03    -55.8347E-03     109.290E-03    -53.7161E-03     88.6974E-03
            1536     8.52935E-03     51.3252E-03    -25.2979E+06    -110.215E+06    -4.93609E+06     372.766E+03    -55.4133E-03     109.304E-03    -53.8904E-03     81.3206E-03    -55.5745E-03     108.998E-03    -53.7186E-03     80.7969E-03
            1537     7.67633E-03     51.2483E-03    -27.1554E+06    -120.244E+06    -5.29757E+06     98.9389E+03    -55.1700E-03     109.072E-03    -53.9018E-03     73.7270E-03    -55.2678E-03     108.662E-03    -53.7145E-03     73.2947E-03
            1538     6.82354E-03     51.1770E-03    -29.3754E+06    -131.976E+06    -6.68119E+06    -71.8415E+03    -54.8522E-03     108.766E-03    -53.9140E-03     66.0813E-03    -54.8995E-03     108.260E-03    -53.7134E-03     65.7284E-03
            1539     5.97038E-03     51.1156E-03    -32.3517E+06    -141.422E+06    -9.87548E+06     902.641E+03    -54.6501E-03     108.567E-03    -53.9172E-03     58.2535E-03    -54.6628E-03     107.992E-03    -53.7146E-03     57.9811E-03
            1540     5.11777E-03     51.0600E-03    -36.1406E+06    -145.635E+06    -15.4075E+06     1.14171E+06    -54.4397E-03     108.339E-03    -53.8995E-03     50.3329E-03    -54.4340E-03     107.733E-03    -53.7130E-03     50.1226E-03
            1541     4.26451E-03     51.0142E-03    -39.7049E+06    -150.671E+06    -23.4226E+06    -196.169E+03    -54.2414E-03     108.111E-03    -53.8699E-03     42.2626E-03    -54.2177E-03     107.480E-03    -53.7110E-03     42.0854E-03
            1542     3.41192E-03     50.9749E-03    -42.7780E+06    -156.056E+06    -31.5245E+06    -747.175E+03    -54.0684E-03     107.910E-03    -53.8420E-03     34.0732E-03    -54.0285E-03     107.256E-03    -53.7113E-03     33.9320E-03
            1543     2.55863E-03     50.9458E-03    -45.6831E+06    -160.529E+06     -38.402E+06    -321.390E+03    -53.9417E-03     107.763E-03    -53.8214E-03     25.7838E-03    -53.8915E-03     107.092E-03    -53.7144E-03     25.6856E-03
            1544     1.70605E-03     50.9232E-03    -48.0374E+06    -164.468E+06    -44.4179E+06     19.2761E+03    -53.8850E-03     107.680E-03    -53.7954E-03     17.4613E-03    -53.8267E-03     106.997E-03    -53.7094E-03     17.4004E-03
            1545     852.939E-06     50.9107E-03    -49.4136E+06    -166.861E+06    -48.2307E+06     251.449E+03    -53.8060E-03     107.570E-03    -53.7638E-03     9.54668E-03    -53.7426E-03     106.879E-03    -53.6913E-03     9.51770E-03
            1546     16.1989E-03     51.6972E-03    -5.64912E+06     155.351E+06     105.147E+06     378.300E+03    -57.9312E-03     111.860E-03    -53.9289E-03     190.381E-03    -66.4576E-03     120.613E-03    -53.6202E-03     192.242E-03
            1547     15.3548E-03     51.3812E-03    -11.9692E+06     146.993E+06     88.0324E+06    -361.545E+03    -65.8563E-03     119.751E-03    -53.8945E-03     284.961E-03    -77.0449E-03     131.163E-03    -53.6501E-03     284.470E-03
            1548     14.5015E-03     51.1134E-03    -15.6987E+06     112.944E+06     39.8395E+06    -311.037E+03    -62.5796E-03     116.284E-03    -53.7048E-03     225.904E-03    -68.0732E-03     122.008E-03    -53.6466E-03     223.929E-03
            1549     13.6459E-03     50.9267E-03    -18.1790E+06     72.0364E+06     195.666E+03     205.084E+03    -58.4567E-03     112.045E-03    -53.5886E-03     166.271E-03    -60.9202E-03     114.699E-03    -53.6657E-03     164.606E-03
            1550     12.7949E-03     50.7807E-03    -18.9465E+06     19.9226E+06    -8.38436E+06     462.952E+03    -57.3036E-03     110.938E-03    -53.6342E-03     133.194E-03    -58.6759E-03     112.338E-03    -53.6775E-03     131.826E-03
            1551     11.9413E-03     50.6602E-03    -19.2562E+06    -28.1648E+06    -4.87621E+06     720.835E+03    -56.4368E-03     110.159E-03    -53.7219E-03     115.632E-03    -57.2696E-03     110.837E-03    -53.6775E-03     114.534E-03
            1552     11.0891E-03     50.5496E-03    -20.8384E+06    -59.7418E+06    -5.29299E+06     420.150E+03    -56.0500E-03     109.825E-03    -53.7754E-03     104.888E-03    -56.6020E-03     110.107E-03    -53.6850E-03     103.972E-03
            1553     10.2350E-03     50.4493E-03    -22.0438E+06    -80.1526E+06    -4.09569E+06     470.584E+03    -55.8715E-03     109.690E-03    -53.8181E-03     96.8272E-03    -56.2476E-03     109.715E-03    -53.6904E-03     96.0652E-03
            1554     9.38286E-03     50.3555E-03    -23.5118E+06    -95.9707E+06    -3.88268E+06     592.127E+03    -55.6246E-03     109.471E-03    -53.8460E-03     89.2362E-03    -55.8770E-03     109.310E-03    -53.6922E-03     88.6066E-03
            1555     8.52924E-03     50.2703E-03    -25.7043E+06    -110.393E+06    -5.30764E+06     8.73970E+03    -55.3865E-03     109.249E-03    -53.8620E-03     81.2545E-03    -55.5485E-03     108.943E-03    -53.6912E-03     80.7271E-03
            1556     7.67673E-03     50.1918E-03    -27.8051E+06    -120.057E+06    -5.28379E+06    -190.875E+03    -55.1126E-03     108.989E-03    -53.8760E-03     73.5265E-03    -55.2137E-03     108.580E-03    -53.6880E-03     73.0906E-03
            1557     6.82356E-03     50.1228E-03    -31.2685E+06    -132.362E+06    -6.93961E+06     178.999E+03    -54.8421E-03     108.731E-03    -53.8888E-03     66.0157E-03    -54.8979E-03     108.226E-03    -53.6862E-03     65.6658E-03
            1558     5.97079E-03     50.0591E-03    -34.4481E+06    -142.246E+06    -10.7794E+06     298.009E+03    -54.6253E-03     108.512E-03    -53.8870E-03     58.2509E-03    -54.6458E-03     107.937E-03    -53.6847E-03     57.9711E-03
            1559     5.11767E-03     50.0056E-03    -36.4034E+06    -144.747E+06    -14.7983E+06     178.547E+03    -54.4032E-03     108.274E-03    -53.8710E-03     50.3350E-03    -54.4009E-03     107.672E-03    -53.6823E-03     50.1127E-03
            1560     4.26498E-03     49.9580E-03    -39.0072E+06    -149.842E+06    -22.7847E+06     132.977E+03    -54.1816E-03     108.025E-03    -53.8438E-03     42.2829E-03    -54.1564E-03     107.396E-03    -53.6839E-03     42.1106E-03
            1561     3.41168E-03     49.9207E-03    -42.7162E+06    -156.390E+06    -31.9929E+06     82.1495E+03    -54.0239E-03     107.844E-03    -53.8197E-03     34.0689E-03    -53.9824E-03     107.188E-03    -53.6910E-03     33.9389E-03
            1562     2.55896E-03     49.8896E-03    -46.0068E+06    -160.839E+06    -38.5008E+06     27.8020E+03    -53.9230E-03     107.728E-03    -53.8049E-03     25.8018E-03    -53.8737E-03     107.056E-03    -53.6975E-03     25.7085E-03
            1563     1.70576E-03     49.8688E-03    -48.1859E+06    -164.577E+06    -44.4552E+06    -131.591E+03    -53.8514E-03     107.636E-03    -53.7844E-03     17.4993E-03    -53.7936E-03     106.952E-03    -53.6982E-03     17.4366E-03
            1564     852.995E-06     49.8545E-03    -49.1712E+06    -166.720E+06    -48.2277E+06    -283.040E+03    -53.7908E-03     107.559E-03    -53.7682E-03     9.51138E-03    -53.7263E-03     106.868E-03    -53.6963E-03     9.47541E-03
            1565     16.2185E-03     50.6535E-03    -4.95575E+06     156.337E+06     106.345E+06     535.741E+03    -59.3207E-03     113.176E-03    -53.8548E-03     192.214E-03    -67.9710E-03     122.055E-03    -53.5426E-03     194.029E-03
            1566     15.3542E-03     50.3228E-03    -10.3555E+06     147.978E+06     89.2374E+06     513.402E+03    -64.6155E-03     118.449E-03    -53.8332E-03     287.804E-03    -75.9072E-03     129.970E-03    -53.5866E-03     287.461E-03
            1567     14.5003E-03     50.0608E-03    -16.1489E+06     111.948E+06     37.7957E+06     356.174E+03    -62.1051E-03     115.795E-03    -53.6902E-03     225.718E-03    -67.5640E-03     121.485E-03    -53.6401E-03     223.803E-03
            1568     13.6486E-03     49.8694E-03    -18.3678E+06     71.9865E+06    -733.633E+03    -29.8598E+03    -58.9274E-03     112.502E-03    -53.5751E-03     165.850E-03    -61.4050E-03     115.173E-03    -53.6565E-03     164.150E-03
            1569     12.7942E-03     49.7261E-03    -18.8029E+06     20.2432E+06    -8.07110E+06     306.039E+03    -57.0271E-03     110.644E-03    -53.6169E-03     132.624E-03    -58.3887E-03     112.034E-03    -53.6594E-03     131.263E-03
            1570     11.9418E-03     49.6035E-03    -20.3055E+06    -28.7005E+06    -5.52936E+06     309.074E+03    -56.4716E-03     110.180E-03    -53.7084E-03     115.676E-03    -57.3106E-03     110.861E-03    -53.6650E-03     114.570E-03
            1571     11.0883E-03     49.4949E-03    -21.1039E+06    -59.2159E+06    -5.07006E+06     347.288E+03    -56.1859E-03     109.942E-03    -53.7560E-03     105.050E-03    -56.7412E-03     110.227E-03    -53.6649E-03     104.131E-03
            1572     10.2361E-03     49.3934E-03    -22.5248E+06    -80.0644E+06    -4.24556E+06     426.431E+03    -55.8797E-03     109.670E-03    -53.7907E-03     96.8651E-03    -56.2575E-03     109.696E-03    -53.6631E-03     96.1032E-03
            1573     9.38227E-03     49.3005E-03    -24.3304E+06    -95.9281E+06    -4.11071E+06     363.065E+03    -55.6729E-03     109.486E-03    -53.8131E-03     89.1299E-03    -55.9293E-03     109.327E-03    -53.6593E-03     88.4964E-03
            1574     8.53021E-03     49.2141E-03    -25.9718E+06    -109.535E+06    -4.99442E+06    -89.8699E+03    -55.3073E-03     109.135E-03    -53.8277E-03     81.1801E-03    -55.4716E-03     108.833E-03    -53.6562E-03     80.6531E-03
            1575     7.67664E-03     49.1375E-03    -28.5360E+06    -121.194E+06    -6.04437E+06    -66.4405E+03    -55.0209E-03     108.866E-03    -53.8453E-03     73.5792E-03    -55.1225E-03     108.454E-03    -53.6584E-03     73.1466E-03
            1576     6.82395E-03     49.0663E-03    -30.9946E+06    -132.478E+06    -6.91317E+06     611.879E+03    -54.8462E-03     108.707E-03    -53.8606E-03     65.9778E-03    -54.9004E-03     108.201E-03    -53.6581E-03     65.6337E-03
            1577     5.97084E-03     49.0050E-03    -33.9706E+06    -140.972E+06    -10.6113E+06    -400.505E+03    -54.5708E-03     108.428E-03    -53.8571E-03     58.2614E-03    -54.5909E-03     107.858E-03    -53.6565E-03     57.9736E-03
            1578     5.11796E-03     48.9492E-03    -37.2029E+06    -145.438E+06    -16.6741E+06    -1.12354E+06    -54.3232E-03     108.166E-03    -53.8424E-03     50.3778E-03    -54.3209E-03     107.563E-03    -53.6610E-03     50.1400E-03
            1579     4.26474E-03     48.9038E-03    -40.3485E+06    -150.688E+06    -23.3376E+06     36.5817E+03    -54.1511E-03     107.980E-03    -53.8289E-03     42.2817E-03    -54.1306E-03     107.349E-03    -53.6686E-03     42.1085E-03
            1580     3.41194E-03     48.8645E-03    -43.1615E+06    -155.855E+06    -30.7790E+06     524.106E+03    -54.0103E-03     107.821E-03    -53.8107E-03     34.0788E-03    -53.9735E-03     107.167E-03    -53.6760E-03     33.9549E-03
            1581     2.55880E-03     48.8354E-03    -45.6574E+06    -160.615E+06    -38.3590E+06     87.9793E+03    -53.9102E-03     107.699E-03    -53.7887E-03     25.7976E-03    -53.8597E-03     107.027E-03    -53.6814E-03     25.7053E-03
            1582     1.70598E-03     48.8127E-03    -47.6823E+06    -164.545E+06    -44.7484E+06    -118.494E+03    -53.8245E-03     107.595E-03    -53.7701E-03     17.4248E-03    -53.7638E-03     106.910E-03    -53.6861E-03     17.3623E-03
            1583     852.886E-06     48.8004E-03    -49.2540E+06    -167.110E+06    -48.7570E+06    -11.6173E+03    -53.7971E-03     107.542E-03    -53.7446E-03     9.44740E-03    -53.7318E-03     106.850E-03    -53.6747E-03     9.41479E-03
            1584     16.1996E-03     49.5854E-03    -6.23446E+06     155.391E+06     105.185E+06     144.031E+03    -59.0281E-03     112.900E-03    -53.8720E-03     192.981E-03    -67.6853E-03     121.782E-03    -53.5624E-03     194.790E-03
            1585     15.3559E-03     49.2747E-03    -11.8936E+06     146.929E+06     88.9668E+06     280.093E+03    -65.2116E-03     119.054E-03    -53.8427E-03     287.712E-03    -76.5054E-03     130.569E-03    -53.5936E-03     287.303E-03
            1586     14.5005E-03     49.0015E-03    -15.3422E+06     113.110E+06     40.0158E+06     679.566E+03    -62.4732E-03     116.154E-03    -53.6811E-03     226.752E-03    -67.9629E-03     121.875E-03    -53.6228E-03     224.814E-03
            1587     13.6478E-03     48.8146E-03    -17.5835E+06     72.8592E+06     311.576E+03     546.385E+03    -58.8845E-03     112.438E-03    -53.5532E-03     165.451E-03    -61.3462E-03     115.095E-03    -53.6318E-03     163.760E-03
            1588     12.7955E-03     48.6705E-03    -19.1923E+06     19.2306E+06    -8.84699E+06     142.674E+03    -56.9614E-03     110.554E-03    -53.5923E-03     132.874E-03    -58.3194E-03     111.938E-03    -53.6366E-03     131.516E-03
            1589     11.9414E-03     48.5488E-03    -19.2207E+06    -28.8167E+06    -4.88167E+06     160.586E+03    -56.4702E-03     110.159E-03    -53.6887E-03     115.524E-03    -57.3061E-03     110.838E-03    -53.6435E-03     114.414E-03
            1590     11.0892E-03     48.4383E-03    -20.7059E+06    -58.9732E+06    -4.71614E+06     417.955E+03    -56.1854E-03     109.918E-03    -53.7326E-03     104.605E-03    -56.7370E-03     110.200E-03    -53.6407E-03     103.688E-03
            1591     10.2356E-03     48.3389E-03    -22.4625E+06    -80.0334E+06    -4.20413E+06     431.002E+03    -55.9896E-03     109.748E-03    -53.7586E-03     96.7639E-03    -56.3670E-03     109.774E-03    -53.6310E-03     96.0011E-03
            1592     9.38367E-03     48.2440E-03    -23.8979E+06    -95.5161E+06    -3.76473E+06     333.014E+03    -55.5649E-03     109.343E-03    -53.7784E-03     88.9697E-03    -55.8194E-03     109.185E-03    -53.6241E-03     88.3377E-03
            1593     8.52977E-03     48.1600E-03    -26.0740E+06    -109.028E+06    -5.01031E+06     87.4768E+03    -55.1927E-03     108.992E-03    -53.7993E-03     81.2707E-03    -55.3575E-03     108.692E-03    -53.6285E-03     80.7487E-03
            1594     7.67718E-03     48.0812E-03    -28.3811E+06    -121.747E+06    -6.09677E+06    -21.3881E+03    -55.0247E-03     108.846E-03    -53.8213E-03     73.7133E-03    -55.1244E-03     108.430E-03    -53.6341E-03     73.2825E-03
            1595     6.82391E-03     48.0120E-03    -30.6234E+06    -132.343E+06    -8.26057E+06    -247.591E+03    -54.7968E-03     108.626E-03    -53.8296E-03     66.0187E-03    -54.8471E-03     108.122E-03    -53.6346E-03     65.6648E-03
            1596     5.97110E-03     47.9486E-03    -32.9712E+06    -139.799E+06    -11.3128E+06    -355.939E+03    -54.5415E-03     108.371E-03    -53.8297E-03     58.2101E-03    -54.5570E-03     107.806E-03    -53.6357E-03     57.9234E-03
            1597     5.11786E-03     47.8952E-03    -36.9268E+06    -146.146E+06    -16.8873E+06    -253.118E+03    -54.2949E-03     108.118E-03    -53.8230E-03     50.3387E-03    -54.2898E-03     107.512E-03    -53.6419E-03     50.1125E-03
            1598     4.26498E-03     47.8475E-03    -40.7068E+06    -151.527E+06    -24.2697E+06    -557.323E+03    -54.1312E-03     107.939E-03    -53.8081E-03     42.2338E-03    -54.1098E-03     107.306E-03    -53.6507E-03     42.0533E-03
            1599     3.41187E-03     47.8103E-03    -43.1664E+06    -156.021E+06    -31.2612E+06    -347.797E+03    -54.0119E-03     107.800E-03    -53.7880E-03     34.0388E-03    -53.9741E-03     107.146E-03    -53.6554E-03     33.9037E-03
            1600     2.55895E-03     47.7792E-03    -45.4253E+06    -160.455E+06    -38.4592E+06     154.399E+03    -53.8969E-03     107.659E-03    -53.7624E-03     25.7276E-03    -53.8454E-03     106.988E-03    -53.6561E-03     25.6363E-03
            1601     1.70594E-03     47.7585E-03    -47.7034E+06    -164.559E+06    -44.7556E+06     405.271E+03    -53.8090E-03     107.548E-03    -53.7387E-03     17.3898E-03    -53.7483E-03     106.863E-03    -53.6547E-03     17.3343E-03
            1602     853.014E-06     47.7442E-03    -49.0291E+06    -166.754E+06    -48.2141E+06     318.816E+03    -53.7661E-03     107.473E-03    -53.7066E-03     9.43988E-03    -53.7009E-03     106.781E-03    -53.6348E-03     9.41160E-03
            1603     16.2146E-03     48.5345E-03    -5.79635E+06     155.031E+06     105.211E+06     785.798E+03    -58.7917E-03     112.652E-03    -53.8604E-03     190.774E-03    -67.2646E-03     121.350E-03    -53.5507E-03     192.622E-03
            1604     15.3533E-03     48.2166E-03    -11.2766E+06     146.467E+06     87.9300E+06    -174.419E+03    -65.3454E-03     119.163E-03    -53.8175E-03     285.842E-03    -76.4678E-03     130.510E-03    -53.5739E-03     285.377E-03
            1605     14.5023E-03     47.9478E-03    -15.3231E+06     112.961E+06     40.3268E+06    -112.154E+03    -62.5708E-03     116.221E-03    -53.6506E-03     226.866E-03    -68.0681E-03     121.948E-03    -53.5905E-03     224.892E-03
            1606     13.6485E-03     47.7576E-03    -17.1098E+06     71.9857E+06     1.68080E+06     398.266E+03    -58.4618E-03     111.999E-03    -53.5369E-03     165.071E-03    -60.9031E-03     114.630E-03    -53.6081E-03     163.404E-03
            1607     12.7945E-03     47.6164E-03    -17.8370E+06     19.7503E+06    -7.86306E+06     535.320E+03    -57.0919E-03     110.670E-03    -53.5780E-03     132.924E-03    -58.4487E-03     112.056E-03    -53.6201E-03     131.566E-03
            1608     11.9429E-03     47.4914E-03    -19.7041E+06    -28.8484E+06    -5.24485E+06     458.274E+03    -56.5791E-03     110.241E-03    -53.6619E-03     115.703E-03    -57.4157E-03     110.920E-03    -53.6178E-03     114.596E-03
            1609     11.0891E-03     47.3850E-03    -20.7435E+06    -58.6271E+06    -4.71598E+06     516.046E+03    -56.1948E-03     109.896E-03    -53.7008E-03     104.728E-03    -56.7468E-03     110.180E-03    -53.6093E-03     103.814E-03
            1610     10.2368E-03     47.2812E-03    -21.5421E+06    -79.6702E+06    -3.84465E+06     503.014E+03    -55.8784E-03     109.608E-03    -53.7298E-03     96.8899E-03    -56.2511E-03     109.633E-03    -53.6022E-03     96.1318E-03
            1611     9.38310E-03     47.1906E-03    -23.3469E+06    -95.5502E+06    -3.81484E+06     369.661E+03    -55.4822E-03     109.238E-03    -53.7555E-03     88.9529E-03    -55.7332E-03     109.078E-03    -53.6021E-03     88.3234E-03
            1612     8.53034E-03     47.1035E-03    -25.1941E+06    -108.891E+06    -4.65366E+06     488.505E+03    -55.2195E-03     108.998E-03    -53.7786E-03     81.3919E-03    -55.3803E-03     108.696E-03    -53.6075E-03     80.8761E-03
            1613     7.67703E-03     47.0270E-03    -27.6114E+06    -121.421E+06    -5.54777E+06     154.716E+03    -54.9977E-03     108.797E-03    -53.7998E-03     73.6318E-03    -55.0942E-03     108.381E-03    -53.6114E-03     73.2047E-03
            1614     6.82423E-03     46.9557E-03    -30.5261E+06    -131.726E+06    -7.76136E+06    -572.589E+03    -54.7420E-03     108.553E-03    -53.8107E-03     66.0117E-03    -54.7931E-03     108.050E-03    -53.6143E-03     65.6548E-03
            1615     5.97100E-03     46.8944E-03    -33.7215E+06    -140.561E+06    -11.5618E+06    -507.941E+03    -54.5340E-03     108.345E-03    -53.8113E-03     58.1506E-03    -54.5516E-03     107.778E-03    -53.6164E-03     57.8623E-03
            1616     5.11818E-03     46.8390E-03    -36.4153E+06    -145.917E+06    -16.2540E+06    -67.5752E+03    -54.3240E-03     108.124E-03    -53.7999E-03     50.2399E-03    -54.3175E-03     107.517E-03    -53.6168E-03     50.0162E-03
            1617     4.26500E-03     46.7934E-03    -39.4322E+06    -151.179E+06    -24.4414E+06    -283.404E+03    -54.1251E-03     107.898E-03    -53.7730E-03     42.1753E-03    -54.0975E-03     107.265E-03    -53.6188E-03     41.9987E-03
            1618     3.41203E-03     46.7542E-03    -43.0880E+06    -156.890E+06    -32.7774E+06    -279.718E+03    -53.9864E-03     107.733E-03    -53.7467E-03     33.9715E-03    -53.9447E-03     107.077E-03    -53.6206E-03     33.8375E-03
            1619     2.55909E-03     46.7249E-03    -46.0794E+06    -160.869E+06    -38.7583E+06     213.503E+03    -53.8651E-03     107.590E-03    -53.7254E-03     25.6758E-03    -53.8157E-03     106.919E-03    -53.6191E-03     25.5855E-03
            1620     1.70599E-03     46.7026E-03    -47.8317E+06    -164.160E+06    -44.1404E+06     216.180E+03    -53.7634E-03     107.468E-03    -53.7046E-03     17.3464E-03    -53.7049E-03     106.785E-03    -53.6179E-03     17.2886E-03
            1621     853.042E-06     46.6899E-03    -48.7382E+06    -166.288E+06    -47.7168E+06    -9.82798E+03    -53.7098E-03     107.403E-03    -53.6937E-03     9.46325E-03    -53.6445E-03     106.713E-03    -53.6205E-03     9.43086E-03
            1622     16.2051E-03     47.4796E-03    -5.34022E+06     155.151E+06     105.571E+06     321.126E+03    -59.2892E-03     113.123E-03    -53.8339E-03     191.913E-03    -67.8287E-03     121.888E-03    -53.5233E-03     193.760E-03
            1623     15.3567E-03     47.1614E-03    -9.30338E+06     148.087E+06     90.0243E+06     1.15428E+06    -65.4564E-03     119.248E-03    -53.7917E-03     287.497E-03    -76.6298E-03     130.653E-03    -53.5428E-03     287.084E-03
            1624     14.5020E-03     46.8916E-03    -14.3267E+06     112.719E+06     39.9383E+06     713.746E+03    -62.3275E-03     115.954E-03    -53.6268E-03     226.976E-03    -67.8017E-03     121.662E-03    -53.5698E-03     225.044E-03
            1625     13.6484E-03     46.7040E-03    -17.4748E+06     71.8449E+06     102.413E+03     402.578E+03    -58.5156E-03     112.032E-03    -53.5163E-03     165.968E-03    -60.9638E-03     114.673E-03    -53.5946E-03     164.303E-03
            1626     12.7961E-03     46.5594E-03    -18.9898E+06     19.6159E+06    -8.88320E+06     625.668E+03    -57.1508E-03     110.710E-03    -53.5596E-03     133.120E-03    -58.5131E-03     112.101E-03    -53.6049E-03     131.761E-03
            1627     11.9416E-03     46.4374E-03    -19.4712E+06    -28.7573E+06    -5.21838E+06     489.195E+03    -56.6057E-03     110.248E-03    -53.6427E-03     115.659E-03    -57.4397E-03     110.926E-03    -53.5989E-03     114.555E-03
            1628     11.0899E-03     46.3275E-03    -20.2679E+06    -58.2723E+06    -4.51551E+06     563.158E+03    -56.1502E-03     109.831E-03    -53.6810E-03     104.660E-03    -56.6996E-03     110.115E-03    -53.5897E-03     103.748E-03
            1629     10.2362E-03     46.2279E-03    -21.8617E+06    -80.0715E+06    -4.51001E+06     486.463E+03    -55.7087E-03     109.424E-03    -53.7155E-03     96.9420E-03    -56.0801E-03     109.447E-03    -53.5902E-03     96.1876E-03
            1630     9.38346E-03     46.1338E-03    -23.3260E+06    -95.4209E+06    -3.95139E+06     284.664E+03    -55.5575E-03     109.303E-03    -53.7458E-03     89.1038E-03    -55.8084E-03     109.144E-03    -53.5934E-03     88.4731E-03
            1631     8.53040E-03     46.0495E-03    -25.2852E+06    -108.836E+06    -4.73761E+06     623.752E+03    -55.3318E-03     109.091E-03    -53.7592E-03     81.2577E-03    -55.4932E-03     108.790E-03    -53.5884E-03     80.7422E-03
            1632     7.67751E-03     45.9707E-03    -27.8186E+06    -120.736E+06    -5.61149E+06     576.880E+03    -54.9436E-03     108.718E-03    -53.7744E-03     73.6482E-03    -55.0415E-03     108.305E-03    -53.5871E-03     73.2282E-03
            1633     6.82420E-03     45.9016E-03    -30.9843E+06    -130.963E+06    -7.54461E+06     5.83346E+03    -54.7393E-03     108.526E-03    -53.7869E-03     65.9378E-03    -54.7938E-03     108.028E-03    -53.5898E-03     65.5887E-03
            1634     5.97131E-03     45.8383E-03    -34.1083E+06    -140.719E+06    -12.0855E+06    -876.734E+03    -54.5260E-03     108.308E-03    -53.7815E-03     58.0639E-03    -54.5443E-03     107.740E-03    -53.5885E-03     57.7716E-03
            1635     5.11819E-03     45.7847E-03    -37.0573E+06    -146.515E+06    -17.8266E+06    -778.795E+03    -54.3273E-03     108.088E-03    -53.7611E-03     50.1689E-03    -54.3207E-03     107.482E-03    -53.5840E-03     49.9364E-03
            1636     4.26528E-03     45.7375E-03    -40.3316E+06    -151.383E+06    -24.5742E+06     264.747E+03    -54.1395E-03     107.871E-03    -53.7317E-03     42.0901E-03    -54.1158E-03     107.238E-03    -53.5766E-03     41.9208E-03
            1637     3.41225E-03     45.6999E-03    -43.5921E+06    -156.733E+06    -32.0380E+06     448.605E+03    -53.9393E-03     107.641E-03    -53.7015E-03     33.8686E-03    -53.9014E-03     106.985E-03    -53.5713E-03     33.7445E-03
            1638     2.55904E-03     45.6692E-03    -46.1226E+06    -160.791E+06    -38.5414E+06    -184.171E+03    -53.8006E-03     107.479E-03    -53.6786E-03     25.6265E-03    -53.7518E-03     106.808E-03    -53.5713E-03     25.5312E-03
            1639     1.70621E-03     45.6481E-03    -47.8656E+06    -164.160E+06    -44.1889E+06    -437.610E+03    -53.7167E-03     107.376E-03    -53.6594E-03     17.3027E-03    -53.6583E-03     106.693E-03    -53.5729E-03     17.2365E-03
            1640     852.940E-06     45.6345E-03    -48.9949E+06    -166.547E+06    -48.1657E+06    -255.538E+03    -53.6796E-03     107.312E-03    -53.6326E-03     9.46834E-03    -53.6146E-03     106.622E-03    -53.5609E-03     9.43299E-03
            1641     16.2112E-03     46.4237E-03    -5.96551E+06     154.731E+06     104.775E+06    -712.706E+03    -58.9125E-03     112.755E-03    -53.8421E-03     191.408E-03    -67.5516E-03     121.618E-03    -53.5340E-03     193.227E-03
            1642     15.3548E-03     46.1051E-03    -11.4784E+06     147.100E+06     89.4447E+06    -276.576E+03    -65.5166E-03     119.324E-03    -53.8076E-03     287.628E-03    -76.8239E-03     130.854E-03    -53.5571E-03     287.223E-03
            1643     14.5017E-03     45.8375E-03    -15.3278E+06     112.483E+06     40.2483E+06     1.24789E+06    -62.4818E-03     116.117E-03    -53.6355E-03     226.830E-03    -67.9586E-03     121.822E-03    -53.5751E-03     224.902E-03
            1644     13.6484E-03     45.6476E-03    -17.9099E+06     72.9672E+06     266.580E+03     1.15489E+06    -58.6658E-03     112.177E-03    -53.5117E-03     165.998E-03    -61.1197E-03     114.826E-03    -53.5902E-03     164.334E-03
            1645     12.7948E-03     45.5042E-03    -18.8423E+06     20.0842E+06    -8.71205E+06     222.498E+03    -57.2403E-03     110.787E-03    -53.5469E-03     133.177E-03    -58.6034E-03     112.180E-03    -53.5922E-03     131.811E-03
            1646     11.9435E-03     45.3813E-03    -19.2172E+06    -28.8987E+06    -5.57665E+06     432.500E+03    -56.5946E-03     110.219E-03    -53.6246E-03     115.614E-03    -57.4262E-03     110.896E-03    -53.5827E-03     114.509E-03
            1647     11.0894E-03     45.2727E-03    -20.4696E+06    -59.1154E+06    -5.17323E+06     554.241E+03    -55.9966E-03     109.665E-03    -53.6681E-03     104.481E-03    -56.5429E-03     109.943E-03    -53.5785E-03     103.573E-03
            1648     10.2368E-03     45.1724E-03    -21.7020E+06    -79.7402E+06    -4.32360E+06     461.467E+03    -55.7824E-03     109.488E-03    -53.7059E-03     96.8293E-03    -56.1544E-03     109.513E-03    -53.5805E-03     96.0723E-03
            1649     9.38321E-03     45.0788E-03    -23.4059E+06    -95.3322E+06    -4.03998E+06     429.516E+03    -55.5876E-03     109.317E-03    -53.7296E-03     89.0277E-03    -55.8384E-03     109.158E-03    -53.5776E-03     88.3991E-03
            1650     8.53070E-03     44.9933E-03    -25.4607E+06    -109.093E+06    -4.87530E+06     587.937E+03    -55.2878E-03     109.030E-03    -53.7421E-03     81.0997E-03    -55.4489E-03     108.728E-03    -53.5714E-03     80.5846E-03
            1651     7.67740E-03     44.9167E-03    -27.3933E+06    -120.114E+06    -5.79011E+06     546.767E+03    -55.0561E-03     108.805E-03    -53.7485E-03     73.6301E-03    -55.1528E-03     108.394E-03    -53.5635E-03     73.2084E-03
            1652     6.82456E-03     44.8454E-03    -29.3796E+06    -130.132E+06    -7.60639E+06     64.3314E+03    -54.7764E-03     108.524E-03    -53.7476E-03     65.7908E-03    -54.8237E-03     108.027E-03    -53.5543E-03     65.4430E-03
            1653     5.97151E-03     44.7841E-03    -32.7181E+06    -140.380E+06    -11.9218E+06    -15.5518E+03    -54.5224E-03     108.260E-03    -53.7373E-03     57.8999E-03    -54.5343E-03     107.692E-03    -53.5459E-03     57.6191E-03
            1654     5.11845E-03     44.7289E-03    -37.3514E+06    -147.321E+06    -18.0621E+06     146.517E+03    -54.3059E-03     108.020E-03    -53.7137E-03     50.0116E-03    -54.2992E-03     107.410E-03    -53.5363E-03     49.7912E-03
            1655     4.26546E-03     44.6831E-03    -41.2086E+06    -151.773E+06    -24.4549E+06     75.6522E+03    -54.1022E-03     107.784E-03    -53.6816E-03     41.9496E-03    -54.0824E-03     107.150E-03    -53.5241E-03     41.7781E-03
            1656     3.41238E-03     44.6444E-03    -43.5876E+06    -156.086E+06    -30.9857E+06    -246.238E+03    -53.9083E-03     107.555E-03    -53.6470E-03     33.7723E-03    -53.8728E-03     106.901E-03    -53.5124E-03     33.6392E-03
            1657     2.55947E-03     44.6149E-03    -45.8089E+06    -160.511E+06    -38.3301E+06    -432.947E+03    -53.7304E-03     107.348E-03    -53.6173E-03     25.5627E-03    -53.6808E-03     106.677E-03    -53.5098E-03     25.4646E-03
            1658     1.70602E-03     44.5928E-03    -48.0097E+06    -164.643E+06    -44.8606E+06    -414.193E+03    -53.6514E-03     107.250E-03    -53.5989E-03     17.2835E-03    -53.5920E-03     106.566E-03    -53.5148E-03     17.2179E-03
            1659     853.273E-06     44.5800E-03    -49.4421E+06    -166.959E+06    -48.6356E+06    -111.285E+03    -53.6391E-03     107.198E-03    -53.5589E-03     9.43788E-03    -53.5750E-03     106.507E-03    -53.4883E-03     9.40442E-03
            1660     16.2068E-03     45.3694E-03    -5.58032E+06     155.191E+06     105.206E+06    -30.3518E+03    -59.0821E-03     112.934E-03    -53.8517E-03     192.444E-03    -67.6938E-03     121.772E-03    -53.5426E-03     194.235E-03
            1661     15.3544E-03     45.0486E-03    -12.8125E+06     145.460E+06     86.9232E+06    -780.388E+03    -65.5296E-03     119.331E-03    -53.8010E-03     286.850E-03    -76.7791E-03     130.799E-03    -53.5588E-03     286.373E-03
            1662     14.5021E-03     44.7813E-03    -17.0083E+06     111.232E+06     39.1227E+06    -510.519E+03    -62.6327E-03     116.258E-03    -53.6258E-03     226.092E-03    -68.1091E-03     121.956E-03    -53.5668E-03     224.126E-03
            1663     13.6490E-03     44.5928E-03    -17.3708E+06     72.7566E+06     1.70507E+06     439.544E+03    -58.6493E-03     112.151E-03    -53.5016E-03     165.618E-03    -61.0986E-03     114.792E-03    -53.5734E-03     163.946E-03
            1664     12.7963E-03     44.4484E-03    -17.6932E+06     20.7407E+06    -7.79561E+06     959.548E+03    -56.9661E-03     110.507E-03    -53.5411E-03     133.702E-03    -58.3265E-03     111.901E-03    -53.5845E-03     132.355E-03
            1665     11.9420E-03     44.3254E-03    -19.5521E+06    -28.8355E+06    -5.92735E+06     637.559E+03    -56.5318E-03     110.160E-03    -53.6287E-03     115.900E-03    -57.3669E-03     110.841E-03    -53.5882E-03     114.798E-03
            1666     11.0900E-03     44.2179E-03    -20.6193E+06    -59.3150E+06    -5.37898E+06     403.379E+03    -56.2029E-03     109.871E-03    -53.6683E-03     104.593E-03    -56.7513E-03     110.151E-03    -53.5793E-03     103.678E-03
            1667     10.2363E-03     44.1167E-03    -21.7364E+06    -79.5164E+06    -4.20453E+06     485.849E+03    -55.9689E-03     109.660E-03    -53.6908E-03     96.8353E-03    -56.3429E-03     109.687E-03    -53.5650E-03     96.0745E-03
            1668     9.38436E-03     44.0234E-03    -23.5417E+06    -95.3722E+06    -4.11484E+06     569.786E+03    -55.5439E-03     109.250E-03    -53.7062E-03     88.8679E-03    -55.7944E-03     109.090E-03    -53.5543E-03     88.2426E-03
            1669     8.53033E-03     43.9389E-03    -25.2147E+06    -109.044E+06    -4.88691E+06     323.956E+03    -55.3154E-03     109.032E-03    -53.7163E-03     81.0858E-03    -55.4749E-03     108.729E-03    -53.5460E-03     80.5676E-03
            1670     7.67789E-03     43.8602E-03    -26.6537E+06    -119.379E+06    -5.31663E+06    -218.281E+03    -55.1529E-03     108.866E-03    -53.7128E-03     73.3131E-03    -55.2476E-03     108.457E-03    -53.5276E-03     72.8801E-03
            1671     6.82491E-03     43.7912E-03    -29.2407E+06    -130.506E+06    -6.73456E+06     62.9358E+03    -54.8009E-03     108.504E-03    -53.7033E-03     65.5607E-03    -54.8478E-03     108.004E-03    -53.5053E-03     65.2132E-03
            1672     5.97179E-03     43.7282E-03    -32.7342E+06    -141.122E+06    -10.5078E+06     1.30931E+06    -54.5265E-03     108.213E-03    -53.6864E-03     57.7430E-03    -54.5393E-03     107.639E-03    -53.4869E-03     57.4794E-03
            1673     5.11894E-03     43.6745E-03    -36.3612E+06    -146.193E+06    -15.9462E+06     1.22361E+06    -54.2708E-03     107.925E-03    -53.6543E-03     49.8138E-03    -54.2636E-03     107.316E-03    -53.4693E-03     49.6076E-03
            1674     4.26570E-03     43.6276E-03    -39.6314E+06    -151.010E+06    -23.8349E+06    -251.523E+03    -54.0230E-03     107.636E-03    -53.6126E-03     41.8114E-03    -53.9972E-03     107.002E-03    -53.4554E-03     41.6363E-03
            1675     3.41271E-03     43.5899E-03    -42.7821E+06    -156.429E+06    -32.1506E+06    -606.611E+03    -53.8422E-03     107.416E-03    -53.5735E-03     33.6516E-03    -53.8004E-03     106.760E-03    -53.4454E-03     33.5143E-03
            1676     2.55935E-03     43.5598E-03    -45.7900E+06    -160.712E+06    -38.6448E+06    -111.416E+03    -53.6901E-03     107.234E-03    -53.5440E-03     25.4682E-03    -53.6395E-03     106.563E-03    -53.4378E-03     25.3744E-03
            1677     1.70651E-03     43.5384E-03    -48.2668E+06    -164.745E+06    -44.8843E+06     87.6996E+03    -53.5717E-03     107.094E-03    -53.5223E-03     17.2612E-03    -53.5134E-03     106.410E-03    -53.4378E-03     17.2025E-03
            1678     852.954E-06     43.5248E-03    -49.7904E+06    -167.290E+06    -48.9143E+06    -102.385E+03    -53.5469E-03     107.043E-03    -53.4963E-03     9.35918E-03    -53.4837E-03     106.351E-03    -53.4261E-03     9.32591E-03
            1679     16.2088E-03     44.3085E-03    -4.81230E+06     155.561E+06     105.977E+06     566.047E+03    -59.2513E-03     113.094E-03    -53.8428E-03     191.663E-03    -67.7860E-03     121.857E-03    -53.5315E-03     193.452E-03
            1680     15.3571E-03     43.9968E-03    -10.3894E+06     146.696E+06     88.4556E+06     833.296E+03    -65.7188E-03     119.499E-03    -53.7798E-03     286.275E-03    -76.8739E-03     130.881E-03    -53.5352E-03     285.787E-03
            1681     14.5018E-03     43.7239E-03    -15.5547E+06     111.012E+06     37.9205E+06    -289.239E+03    -62.2787E-03     115.878E-03    -53.5992E-03     226.304E-03    -67.7477E-03     121.576E-03    -53.5480E-03     224.357E-03
            1682     13.6495E-03     43.5380E-03    -18.6604E+06     71.3175E+06    -1.38410E+06    -386.190E+03    -58.4323E-03     111.923E-03    -53.4904E-03     166.312E-03    -60.8878E-03     114.569E-03    -53.5737E-03     164.640E-03
            1683     12.7948E-03     43.3934E-03    -19.4489E+06     20.0842E+06    -9.09465E+06     666.125E+03    -57.0760E-03     110.620E-03    -53.5438E-03     134.022E-03    -58.4469E-03     112.019E-03    -53.5902E-03     132.665E-03
            1684     11.9426E-03     43.2699E-03    -19.4896E+06    -28.3253E+06    -5.43290E+06     621.428E+03    -56.4741E-03     110.109E-03    -53.6347E-03     115.540E-03    -57.3056E-03     110.786E-03    -53.5925E-03     114.440E-03
            1685     11.0890E-03     43.1620E-03    -20.4793E+06    -58.8309E+06    -5.14722E+06     357.962E+03    -56.3810E-03     110.048E-03    -53.6670E-03     104.377E-03    -56.9292E-03     110.330E-03    -53.5778E-03     103.458E-03
            1686     10.2375E-03     43.0609E-03    -21.9617E+06    -79.8077E+06    -4.31044E+06     391.483E+03    -56.0298E-03     109.708E-03    -53.6785E-03     96.5478E-03    -56.4039E-03     109.734E-03    -53.5525E-03     95.7849E-03
            1687     9.38329E-03     42.9688E-03    -23.1168E+06    -94.9817E+06    -3.67300E+06     504.985E+03    -55.6916E-03     109.375E-03    -53.6830E-03     88.8166E-03    -55.9410E-03     109.215E-03    -53.5302E-03     88.1889E-03
            1688     8.53142E-03     42.8828E-03    -24.8624E+06    -108.100E+06    -4.22828E+06     134.084E+03    -55.4973E-03     109.171E-03    -53.6740E-03     80.9075E-03    -55.6577E-03     108.872E-03    -53.5023E-03     80.3846E-03
            1689     7.67818E-03     42.8056E-03    -28.0791E+06    -119.279E+06    -5.18672E+06    -26.2372E+03    -55.0949E-03     108.754E-03    -53.6590E-03     73.0183E-03    -55.1961E-03     108.347E-03    -53.4713E-03     72.5897E-03
            1690     6.82523E-03     42.7356E-03    -31.5326E+06    -131.577E+06    -6.80125E+06     448.131E+03    -54.7969E-03     108.443E-03    -53.6458E-03     65.3436E-03    -54.8535E-03     107.940E-03    -53.4433E-03     65.0011E-03
            1691     5.97242E-03     42.6737E-03    -34.2924E+06    -141.461E+06    -10.7803E+06     593.676E+03    -54.5016E-03     108.118E-03    -53.6169E-03     57.5866E-03    -54.5209E-03     107.545E-03    -53.4160E-03     57.3147E-03
            1692     5.11914E-03     42.6192E-03     -36.019E+06    -145.047E+06    -15.7887E+06     264.192E+03    -54.2038E-03     107.781E-03    -53.5769E-03     49.7123E-03    -54.1966E-03     107.176E-03    -53.3933E-03     49.4949E-03
            1693     4.26622E-03     42.5732E-03    -38.9413E+06    -150.356E+06    -23.5913E+06     356.237E+03    -53.9603E-03     107.493E-03    -53.5332E-03     41.6832E-03    -53.9321E-03     106.862E-03    -53.3766E-03     41.5167E-03
            1694     3.41280E-03     42.5350E-03    -42.7792E+06    -156.635E+06    -32.4405E+06     407.562E+03    -53.7565E-03     107.249E-03    -53.4926E-03     33.5459E-03    -53.7138E-03     106.593E-03    -53.3656E-03     33.4225E-03
            1695     2.55987E-03     42.5053E-03    -45.9470E+06    -161.027E+06    -39.0160E+06     292.661E+03    -53.6260E-03     107.087E-03    -53.4605E-03     25.3685E-03    -53.5752E-03     106.414E-03    -53.3555E-03     25.2802E-03
            1696     1.70633E-03     42.4837E-03    -48.0795E+06    -164.553E+06    -44.6333E+06     331.967E+03    -53.5139E-03     106.942E-03    -53.4280E-03     17.1769E-03    -53.4553E-03     106.258E-03    -53.3428E-03     17.1215E-03
            1697     853.433E-06     42.4705E-03    -49.5450E+06    -167.190E+06    -48.8603E+06     284.682E+03    -53.4304E-03     106.835E-03    -53.4045E-03     9.35299E-03    -53.3662E-03     106.143E-03    -53.3346E-03     9.32503E-03
            1698     16.2098E-03     43.2592E-03    -5.29592E+06     154.627E+06     105.201E+06    -21.4345E+03    -59.3694E-03     113.203E-03    -53.8336E-03     193.464E-03    -67.9430E-03     122.002E-03    -53.5241E-03     195.262E-03
            1699     15.3538E-03     42.9350E-03    -10.9458E+06     146.357E+06     88.3507E+06     388.477E+03    -65.5392E-03     119.322E-03    -53.7826E-03     286.845E-03    -76.7070E-03     130.714E-03    -53.5372E-03     286.373E-03
            1700     14.5040E-03     42.6725E-03    -15.3858E+06     111.967E+06     39.2271E+06     1.05502E+06    -62.1615E-03     115.779E-03    -53.6178E-03     226.526E-03    -67.6297E-03     121.477E-03    -53.5617E-03     224.621E-03
            1701     13.6468E-03     42.4820E-03    -18.1006E+06     71.7079E+06    -578.295E+03     677.790E+03    -58.7306E-03     112.234E-03    -53.5031E-03     166.570E-03    -61.1835E-03     114.879E-03    -53.5838E-03     164.900E-03
            1702     12.7964E-03     42.3368E-03    -19.2899E+06     19.6200E+06    -9.60285E+06    -95.4001E+03    -57.3636E-03     110.896E-03    -53.5323E-03     133.124E-03    -58.7264E-03     112.288E-03    -53.5808E-03     131.750E-03
            1703     11.9425E-03     42.2158E-03    -19.8215E+06    -28.5164E+06    -5.95919E+06     266.242E+03    -56.5950E-03     110.201E-03    -53.6057E-03     115.241E-03    -57.4235E-03     110.875E-03    -53.5654E-03     114.137E-03
            1704     11.0903E-03     42.1051E-03    -20.8136E+06    -58.7596E+06    -5.45058E+06     425.343E+03    -56.1427E-03     109.783E-03    -53.6406E-03     104.148E-03    -56.6887E-03     110.063E-03    -53.5525E-03     103.237E-03
            1705     10.2364E-03     42.0063E-03    -22.0050E+06    -79.2249E+06    -4.20723E+06     302.221E+03    -56.0725E-03     109.730E-03    -53.6573E-03     96.2206E-03    -56.4463E-03     109.756E-03    -53.5316E-03     95.4575E-03
            1706     9.38472E-03     41.9127E-03    -23.8833E+06    -94.8307E+06    -4.00415E+06     235.990E+03    -55.9773E-03     109.620E-03    -53.6424E-03     88.5385E-03    -56.2314E-03     109.464E-03    -53.4903E-03     87.9023E-03
            1707     8.53145E-03     41.8275E-03    -26.1672E+06    -108.145E+06    -4.83706E+06     430.981E+03    -55.5132E-03     109.126E-03    -53.6124E-03     80.4612E-03    -55.6782E-03     108.828E-03    -53.4418E-03     79.9429E-03
            1708     7.67886E-03     41.7506E-03    -28.6929E+06    -119.458E+06    -5.27578E+06     778.426E+03    -55.0710E-03     108.662E-03    -53.5910E-03     72.7940E-03    -55.1742E-03     108.255E-03    -53.4026E-03     72.3769E-03
            1709     6.82583E-03     41.6805E-03    -31.6367E+06    -131.347E+06    -8.00443E+06     523.356E+03    -54.7472E-03     108.313E-03    -53.5660E-03     65.1578E-03    -54.8025E-03     107.813E-03    -53.3697E-03     64.8175E-03
            1710     5.97271E-03     41.6188E-03    -34.2885E+06    -140.419E+06    -12.2012E+06    -611.397E+03    -54.4389E-03     107.970E-03    -53.5315E-03     57.4136E-03    -54.4572E-03     107.404E-03    -53.3392E-03     57.1274E-03
            1711     5.11974E-03     41.5646E-03    -37.6122E+06    -145.928E+06    -17.5523E+06    -666.904E+03    -54.1404E-03     107.632E-03    -53.4914E-03     49.5873E-03    -54.1369E-03     107.028E-03    -53.3131E-03     49.3591E-03
            1712     4.26634E-03     41.5185E-03    -40.5641E+06    -150.959E+06    -23.9554E+06     469.871E+03    -53.8871E-03     107.337E-03    -53.4502E-03     41.5245E-03    -53.8655E-03     106.705E-03    -53.2923E-03     41.3602E-03
            1713     3.41336E-03     41.4806E-03    -43.2209E+06    -156.079E+06    -31.3127E+06     838.437E+03    -53.6888E-03     107.097E-03    -53.4079E-03     33.4453E-03    -53.6507E-03     106.442E-03    -53.2755E-03     33.3280E-03
            1714     2.55977E-03     41.4508E-03    -45.7854E+06    -160.659E+06    -38.5779E+06     490.211E+03    -53.5447E-03     106.910E-03    -53.3654E-03     25.2922E-03    -53.4942E-03     106.239E-03    -53.2589E-03     25.2071E-03
            1715     1.70684E-03     41.4292E-03    -47.8174E+06    -164.454E+06    -44.5991E+06     316.141E+03    -53.4304E-03     106.754E-03    -53.3231E-03     17.0604E-03    -53.3706E-03     106.069E-03    -53.2383E-03     17.0049E-03
            1716     853.222E-06     41.4162E-03    -48.9209E+06    -166.542E+06    -48.0396E+06     449.890E+03    -53.3384E-03     106.618E-03    -53.2799E-03     9.33395E-03    -53.2732E-03     105.928E-03    -53.2077E-03     9.30825E-03
            1717     16.2065E-03     42.1968E-03    -5.91698E+06     154.792E+06     105.147E+06     97.0868E+03    -59.1001E-03     112.936E-03    -53.8363E-03     192.404E-03    -67.6588E-03     121.719E-03    -53.5265E-03     194.260E-03
            1718     15.3578E-03     41.8839E-03    -11.4841E+06     146.177E+06     88.6216E+06      378.21E+03    -65.0325E-03     118.838E-03    -53.8054E-03     286.328E-03    -76.1749E-03     130.202E-03    -53.5576E-03     285.942E-03
            1719     14.4986E-03     41.6149E-03    -15.8107E+06     111.676E+06     39.6171E+06     720.514E+03    -62.6473E-03     116.287E-03    -53.6395E-03     226.214E-03    -68.1050E-03     121.970E-03    -53.5804E-03     224.273E-03
            1720     13.6509E-03     41.4262E-03    -17.4806E+06     72.6920E+06     573.027E+03     892.833E+03    -59.2882E-03     112.780E-03    -53.4915E-03     166.165E-03    -61.7512E-03     115.437E-03    -53.5687E-03     164.470E-03
            1721     12.7951E-03     41.2821E-03    -18.1653E+06     19.8742E+06    -8.98351E+06     344.876E+03    -57.4479E-03     110.942E-03    -53.4944E-03     132.757E-03    -58.8029E-03     112.329E-03    -53.5418E-03     131.388E-03
            1722     11.9438E-03     41.1586E-03    -19.2436E+06    -28.7833E+06    -5.93067E+06     273.769E+03    -56.5624E-03     110.123E-03    -53.5602E-03     114.774E-03    -57.3865E-03     110.793E-03    -53.5203E-03     113.670E-03
            1723     11.0901E-03     41.0515E-03    -20.4942E+06    -58.4880E+06    -5.16766E+06     427.359E+03    -56.0883E-03     109.683E-03    -53.5947E-03     103.973E-03    -56.6311E-03     109.960E-03    -53.5060E-03     103.065E-03
            1724     10.2376E-03     40.9500E-03    -22.3558E+06    -79.4571E+06    -4.83373E+06     467.629E+03    -56.1873E-03     109.789E-03    -53.6014E-03     96.1428E-03    -56.5611E-03     109.815E-03    -53.4779E-03     95.3807E-03
            1725     9.38472E-03     40.8569E-03    -24.2020E+06    -94.7669E+06    -4.37071E+06     441.715E+03    -55.9973E-03     109.572E-03    -53.5749E-03     87.9402E-03    -56.2518E-03     109.417E-03    -53.4243E-03     87.3061E-03
            1726     8.53248E-03     40.7727E-03    -26.1576E+06    -108.132E+06    -5.30806E+06     572.551E+03    -55.4449E-03     108.983E-03    -53.5377E-03     80.0647E-03    -55.6080E-03     108.684E-03    -53.3695E-03     79.5501E-03
            1727     7.67929E-03     40.6951E-03    -28.0123E+06    -119.639E+06    -6.03828E+06     494.215E+03    -55.0493E-03     108.559E-03    -53.5099E-03     72.5859E-03    -55.1473E-03     108.151E-03    -53.3260E-03     72.1661E-03
            1728     6.82641E-03     40.6260E-03    -29.6642E+06    -130.156E+06    -7.51869E+06     13.5904E+03    -54.7064E-03     108.188E-03    -53.4814E-03     64.9433E-03    -54.7536E-03     107.689E-03    -53.2873E-03     64.5978E-03
            1729     5.97326E-03     40.5638E-03    -32.8771E+06    -140.250E+06    -11.8085E+06     43.3337E+03    -54.3844E-03     107.828E-03    -53.4438E-03     57.1641E-03    -54.3962E-03     107.260E-03    -53.2518E-03     56.8872E-03
            1730     5.12004E-03     40.5102E-03    -36.9895E+06    -146.405E+06    -17.3267E+06     208.943E+03    -54.0837E-03     107.483E-03    -53.3991E-03     49.3056E-03    -54.0765E-03     106.875E-03    -53.2198E-03     49.0891E-03
            1731     4.26697E-03     40.4639E-03    -40.9014E+06    -151.550E+06    -24.5667E+06    -63.9982E+03    -53.8052E-03     107.155E-03    -53.3497E-03     41.3369E-03    -53.7833E-03     106.521E-03    -53.1935E-03     41.1665E-03
            1732     3.41343E-03     40.4264E-03    -43.6054E+06    -156.040E+06    -31.2728E+06     123.456E+03    -53.6154E-03     106.919E-03    -53.3031E-03     33.2984E-03    -53.5792E-03     106.264E-03    -53.1700E-03     33.1724E-03
            1733     2.56041E-03     40.3964E-03    -45.8439E+06    -160.181E+06    -37.9786E+06     335.081E+03    -53.4405E-03     106.696E-03    -53.2557E-03     25.1429E-03    -53.3918E-03     106.026E-03    -53.1468E-03     25.0562E-03
            1734     1.70673E-03     40.3753E-03    -47.7464E+06    -164.230E+06    -44.4497E+06     145.686E+03    -53.2915E-03     106.509E-03    -53.2172E-03     16.9928E-03    -53.2319E-03     105.825E-03    -53.1321E-03     16.9356E-03
            1735     853.560E-06     40.3620E-03    -48.6765E+06    -166.203E+06    -47.8230E+06    -107.857E+03    -53.2689E-03     106.422E-03    -53.1534E-03     9.29338E-03    -53.2032E-03     105.733E-03    -53.0809E-03     9.26054E-03
            1736     16.2130E-03     41.1480E-03    -5.55013E+06     154.249E+06     104.697E+06     184.923E+03    -59.0783E-03     112.930E-03    -53.8520E-03     193.487E-03    -67.6671E-03     121.744E-03    -53.5441E-03     195.309E-03
            1737     15.3512E-03     40.8258E-03    -11.0814E+06     145.537E+06     88.5117E+06     414.988E+03    -65.6111E-03     119.421E-03    -53.8097E-03     286.454E-03    -76.7815E-03     130.812E-03    -53.5621E-03     285.995E-03
            1738     14.5050E-03     40.5601E-03    -15.3805E+06     111.617E+06     40.1172E+06     430.540E+03    -62.9708E-03     116.589E-03    -53.6182E-03     225.664E-03    -68.4236E-03     122.267E-03    -53.5572E-03     223.687E-03
            1739     13.6470E-03     40.3695E-03    -17.4280E+06     72.7969E+06      503.79E+03     522.406E+03    -59.2311E-03     112.686E-03    -53.4554E-03     165.842E-03    -61.6930E-03     115.343E-03    -53.5332E-03     164.146E-03
            1740     12.7981E-03     40.2259E-03    -18.1220E+06     20.5925E+06    -8.62101E+06     659.231E+03    -57.4946E-03     110.951E-03    -53.4561E-03     132.684E-03    -58.8524E-03     112.342E-03    -53.5027E-03     131.318E-03
            1741     11.9437E-03     40.1040E-03    -19.1601E+06    -28.3029E+06    -5.67649E+06     573.770E+03    -56.6136E-03     110.128E-03    -53.5146E-03     114.546E-03    -57.4381E-03     110.801E-03    -53.4741E-03     113.447E-03
            1742     11.0911E-03     39.9960E-03    -20.6489E+06    -58.9867E+06    -5.64632E+06     492.431E+03    -56.4175E-03     109.945E-03    -53.5278E-03     103.912E-03    -56.9607E-03     110.222E-03    -53.4406E-03     103.000E-03
            1743     10.2384E-03     39.8942E-03    -21.5188E+06    -79.4917E+06    -4.48866E+06     502.248E+03    -56.2504E-03     109.765E-03    -53.5147E-03     95.9220E-03    -56.6202E-03     109.789E-03    -53.3906E-03     95.1597E-03
            1744     9.38601E-03     39.8017E-03    -22.7757E+06    -94.8340E+06    -4.02131E+06     639.053E+03    -55.7397E-03     109.228E-03    -53.4880E-03     87.4725E-03    -55.9843E-03     109.066E-03    -53.3375E-03     86.8472E-03
            1745     8.53279E-03     39.7171E-03    -24.5768E+06    -108.119E+06    -4.75732E+06     570.008E+03    -55.3783E-03     108.836E-03    -53.4576E-03     79.7902E-03    -55.5337E-03     108.534E-03    -53.2890E-03     79.2767E-03
            1746     7.68011E-03     39.6407E-03    -26.7408E+06    -118.779E+06    -5.49119E+06     104.087E+03    -55.0340E-03     108.458E-03    -53.4239E-03     72.3294E-03    -55.1269E-03     108.050E-03    -53.2403E-03     71.9058E-03
            1747     6.82692E-03     39.5707E-03    -30.0014E+06    -130.559E+06    -6.67555E+06     122.935E+03    -54.6754E-03     108.067E-03    -53.3920E-03     64.6292E-03    -54.7245E-03     107.566E-03    -53.1926E-03     64.2860E-03
            1748     5.97396E-03     39.5098E-03    -33.4625E+06    -140.590E+06    -10.5821E+06     761.001E+03    -54.3379E-03     107.685E-03    -53.3466E-03     56.8733E-03    -54.3535E-03     107.113E-03    -53.1472E-03     56.6066E-03
            1749     5.12074E-03     39.4553E-03    -36.7165E+06    -145.804E+06    -16.9307E+06     651.530E+03    -53.9975E-03     107.285E-03    -53.2873E-03     49.0201E-03    -53.9901E-03     106.679E-03    -53.1073E-03     48.8104E-03
            1750     4.26731E-03     39.4102E-03    -39.8147E+06    -151.124E+06     -24.295E+06     172.462E+03    -53.7325E-03     106.961E-03    -53.2288E-03     41.1153E-03    -53.7060E-03     106.327E-03    -53.0734E-03     40.9487E-03
            1751     3.41411E-03     39.3718E-03    -43.2047E+06    -156.320E+06    -31.9995E+06    -138.494E+03    -53.5075E-03     106.679E-03    -53.1720E-03     33.1209E-03    -53.4677E-03     106.024E-03    -53.0427E-03     32.9923E-03
            1752     2.56049E-03     39.3427E-03    -45.8187E+06    -160.312E+06    -38.3419E+06    -124.110E+03    -53.2946E-03     106.422E-03    -53.1272E-03     24.9788E-03    -53.2450E-03     105.752E-03    -53.0200E-03     24.8867E-03
            1753     1.70713E-03     39.3212E-03    -47.6171E+06    -163.799E+06    -44.0847E+06    -80.3922E+03    -53.1626E-03     106.258E-03    -53.0956E-03     16.9049E-03    -53.1035E-03     105.576E-03    -53.0095E-03     16.8451E-03
            1754     853.413E-06     39.3082E-03    -49.0338E+06    -166.365E+06    -48.1470E+06    -196.704E+03    -53.1277E-03     106.177E-03    -53.0494E-03     9.23767E-03    -53.0631E-03     105.488E-03    -52.9778E-03     9.20394E-03
            1755     16.2017E-03     40.0858E-03    -5.25019E+06     153.948E+06     104.808E+06     345.772E+03    -59.3260E-03     113.178E-03    -53.8525E-03     191.295E-03    -67.8521E-03     121.929E-03    -53.5440E-03     193.091E-03
            1756     15.3595E-03     39.7722E-03    -11.3060E+06     145.217E+06     87.7293E+06     274.435E+03    -65.8520E-03     119.637E-03    -53.7851E-03     285.907E-03    -77.0053E-03     131.011E-03    -53.5406E-03     285.421E-03
            1757     14.4999E-03     39.5025E-03    -15.9014E+06     111.631E+06     39.4428E+06     122.457E+03    -63.0588E-03     116.641E-03    -53.5821E-03     226.139E-03    -68.5407E-03     122.348E-03    -53.5237E-03     224.148E-03
            1758     13.6524E-03     39.3151E-03    -17.8862E+06     72.7670E+06     340.822E+03     363.519E+03    -59.2209E-03     112.640E-03    -53.4188E-03     165.856E-03    -61.6815E-03     115.294E-03    -53.4967E-03     164.157E-03
            1759     12.7956E-03     39.1692E-03    -19.0150E+06     20.4584E+06    -9.24393E+06     553.918E+03    -57.4105E-03     110.829E-03    -53.4180E-03     132.404E-03    -58.7700E-03     112.220E-03    -53.4664E-03     131.039E-03
            1760     11.9446E-03     39.0490E-03    -20.0280E+06    -28.2691E+06    -6.21659E+06     459.381E+03    -56.9509E-03     110.414E-03    -53.4630E-03     114.291E-03    -57.7807E-03     111.090E-03    -53.4241E-03     113.182E-03
            1761     11.0919E-03     38.9397E-03    -20.4561E+06    -58.4050E+06    -5.40228E+06     446.049E+03    -56.6942E-03     110.144E-03    -53.4493E-03     103.803E-03    -57.2393E-03     110.424E-03    -53.3619E-03     102.884E-03
            1762     10.2398E-03     38.8389E-03    -21.5416E+06    -79.6248E+06    -4.62090E+06     344.901E+03    -56.1109E-03     109.534E-03    -53.4233E-03     95.6813E-03    -56.4775E-03     109.555E-03    -53.2997E-03     94.9225E-03
            1763     9.38652E-03     38.7466E-03    -22.8225E+06    -95.2138E+06    -4.40378E+06     303.838E+03    -55.6261E-03     109.025E-03    -53.3987E-03     87.5176E-03    -55.8681E-03     108.860E-03    -53.2495E-03     86.8927E-03
            1764     8.53376E-03     38.6625E-03    -24.4023E+06    -108.048E+06    -4.58086E+06     460.433E+03    -55.3635E-03     108.731E-03    -53.3673E-03     79.5757E-03    -55.5174E-03     108.428E-03    -53.1982E-03     79.0625E-03
            1765     7.68069E-03     38.5853E-03    -27.1042E+06    -118.336E+06    -5.07305E+06     655.792E+03    -55.0280E-03     108.353E-03    -53.3245E-03     71.9171E-03    -55.1234E-03     107.946E-03    -53.1390E-03     71.5013E-03
            1766     6.82788E-03     38.5167E-03    -30.2527E+06    -130.792E+06    -6.84200E+06     634.583E+03    -54.6391E-03     107.918E-03    -53.2786E-03     64.2699E-03    -54.6882E-03     107.415E-03    -53.0793E-03     63.9345E-03
            1767     5.97456E-03     38.4547E-03    -33.2357E+06    -140.821E+06    -10.7454E+06     644.787E+03    -54.2569E-03     107.480E-03    -53.2233E-03     56.5248E-03    -54.2703E-03     106.907E-03    -53.0246E-03     56.2578E-03
            1768     5.12137E-03     38.4018E-03    -36.3008E+06    -145.107E+06    -16.4607E+06     555.269E+03    -53.9158E-03     107.073E-03    -53.1572E-03     48.7479E-03    -53.9076E-03     106.469E-03    -52.9765E-03     48.5382E-03
            1769     4.26800E-03     38.3556E-03    -39.6874E+06    -150.656E+06    -23.9232E+06     373.783E+03    -53.6421E-03     106.731E-03    -53.0886E-03     40.8835E-03    -53.6159E-03     106.098E-03    -52.9322E-03     40.7204E-03
            1770     3.41452E-03     38.3184E-03    -42.5954E+06    -156.051E+06    -31.8928E+06     192.624E+03    -53.3608E-03     106.385E-03    -53.0241E-03     32.8547E-03    -53.3184E-03     105.730E-03    -52.8955E-03     32.7312E-03
            1771     2.56096E-03     38.2887E-03    -45.3523E+06    -160.289E+06    -38.6350E+06    -81.5447E+03    -53.1487E-03     106.126E-03    -52.9774E-03     24.8250E-03    -53.0962E-03     105.456E-03    -52.8724E-03     24.7341E-03
            1772     1.70729E-03     38.2677E-03    -47.6321E+06    -163.876E+06    -44.2312E+06    -58.9759E+03    -53.0400E-03     105.978E-03    -52.9384E-03     16.7818E-03    -52.9806E-03     105.296E-03    -52.8529E-03     16.7226E-03
            1773     853.763E-06     38.2545E-03    -49.1025E+06    -166.455E+06    -48.3199E+06     153.664E+03    -52.9572E-03     105.845E-03    -52.8881E-03     9.10054E-03    -52.8925E-03     105.156E-03    -52.8171E-03     9.07142E-03
            1774     16.2172E-03     39.0360E-03    -5.75035E+06     153.676E+06     104.798E+06     245.565E+03    -59.6271E-03     113.442E-03    -53.8153E-03     191.453E-03    -68.1849E-03     122.221E-03    -53.5058E-03     193.231E-03
            1775     15.3516E-03     38.7148E-03    -11.4788E+06     145.374E+06     87.9244E+06     560.642E+03    -65.6989E-03     119.446E-03    -53.7468E-03     286.580E-03    -76.8940E-03     130.861E-03    -53.5014E-03     286.128E-03
            1776     14.5054E-03     38.4471E-03    -16.0954E+06     111.691E+06     39.1018E+06     526.533E+03    -63.0394E-03     116.584E-03    -53.5449E-03     225.552E-03    -68.4980E-03     122.269E-03    -53.4880E-03     223.572E-03
            1777     13.6480E-03     38.2580E-03    -18.7668E+06     72.2928E+06    -661.433E+03     244.392E+03    -59.1708E-03     112.548E-03    -53.3772E-03     165.367E-03    -61.6236E-03     115.193E-03    -53.4581E-03     163.672E-03
            1778     12.7992E-03     38.1147E-03    -19.6905E+06     20.5852E+06    -9.74789E+06     211.061E+03    -57.6191E-03     110.987E-03    -53.3679E-03     132.230E-03    -58.9803E-03     112.380E-03    -53.4179E-03     130.857E-03
            1779     11.9448E-03     37.9925E-03    -19.6436E+06    -27.6224E+06    -5.78273E+06     189.065E+03    -57.1262E-03     110.524E-03    -53.3974E-03     114.187E-03    -57.9553E-03     111.202E-03    -53.3578E-03     113.071E-03
            1780     11.0934E-03     37.8838E-03    -20.3371E+06    -58.3919E+06    -5.49078E+06     271.053E+03    -56.6180E-03     109.991E-03    -53.3730E-03     103.487E-03    -57.1602E-03     110.270E-03    -53.2863E-03     102.569E-03
            1781     10.2400E-03     37.7841E-03    -21.8400E+06    -79.5818E+06    -4.91340E+06     289.468E+03    -56.0414E-03     109.387E-03    -53.3451E-03     95.4327E-03    -56.4065E-03     109.406E-03    -53.2226E-03     94.6776E-03
            1782     9.38737E-03     37.6915E-03    -23.5904E+06    -95.1266E+06    -4.71061E+06     234.354E+03    -55.7274E-03     109.039E-03    -53.3113E-03     87.3851E-03    -55.9723E-03     108.876E-03    -53.1627E-03     86.7594E-03
            1783     8.53456E-03     37.6072E-03    -25.7082E+06    -108.419E+06    -5.44901E+06     367.891E+03    -55.4282E-03     108.688E-03    -53.2602E-03     79.2456E-03    -55.5858E-03     108.386E-03    -53.0929E-03     78.7321E-03
            1784     7.68182E-03     37.5309E-03    -27.6815E+06    -118.416E+06    -5.54063E+06     637.734E+03    -54.9892E-03     108.192E-03    -53.2030E-03     71.5154E-03    -55.0857E-03     107.786E-03    -53.0189E-03     71.1008E-03
            1785     6.82859E-03     37.4618E-03    -29.8421E+06    -130.464E+06    -6.68797E+06     730.717E+03    -54.5786E-03     107.726E-03    -53.1476E-03     63.9077E-03    -54.6257E-03     107.224E-03    -52.9486E-03     63.5751E-03
            1786     5.97561E-03     37.4010E-03    -33.0480E+06    -140.733E+06    -10.6947E+06     555.917E+03    -54.1774E-03     107.260E-03    -53.0823E-03     56.1460E-03    -54.1895E-03     106.686E-03    -52.8838E-03     55.8793E-03
            1787     5.12206E-03     37.3474E-03    -36.4123E+06    -144.859E+06    -16.2492E+06     552.844E+03    -53.8204E-03     106.827E-03    -53.0066E-03     48.4546E-03    -53.8130E-03     106.223E-03    -52.8250E-03     48.2462E-03
            1788     4.26873E-03     37.3021E-03    -39.6202E+06    -150.328E+06    -23.7166E+06     443.804E+03    -53.5082E-03     106.437E-03    -52.9289E-03     40.5747E-03    -53.4822E-03     105.806E-03    -52.7720E-03     40.4138E-03
            1789     3.41508E-03     37.2647E-03    -42.7027E+06    -155.773E+06    -31.5283E+06     306.191E+03    -53.2178E-03     106.076E-03    -52.8583E-03     32.5879E-03    -53.1766E-03     105.422E-03    -52.7281E-03     32.4668E-03
            1790     2.56140E-03     37.2356E-03    -45.3682E+06    -160.053E+06    -38.2597E+06     326.148E+03    -53.0040E-03     105.806E-03    -52.8017E-03     24.6399E-03    -52.9524E-03     105.136E-03    -52.6951E-03     24.5551E-03
            1791     1.70764E-03     37.2142E-03    -47.6799E+06    -164.105E+06    -44.5534E+06     236.577E+03    -52.8564E-03     105.610E-03    -52.7538E-03     16.6583E-03    -52.7963E-03     104.927E-03    -52.6695E-03     16.6035E-03
            1792     853.840E-06     37.2014E-03    -48.8239E+06    -166.164E+06    -48.0479E+06     124.684E+03    -52.7654E-03     105.479E-03    -52.7137E-03     9.03124E-03    -52.7002E-03     104.790E-03    -52.6422E-03     9.00190E-03
            1793     16.2015E-03     37.9775E-03    -5.59384E+06     153.309E+06     104.442E+06     507.080E+03    -60.0064E-03     113.822E-03    -53.8156E-03     191.469E-03    -68.5875E-03     122.625E-03    -53.5076E-03     193.169E-03
            1794     15.3607E-03     37.6593E-03    -11.2283E+06     145.182E+06     88.1483E+06     380.775E+03    -66.4024E-03     120.123E-03    -53.7207E-03     286.729E-03    -77.6232E-03     131.564E-03    -53.4742E-03     286.178E-03
            1795     14.5019E-03     37.3913E-03    -15.3579E+06     112.140E+06     40.4714E+06     714.657E+03    -63.0292E-03     116.530E-03    -53.5013E-03     225.403E-03    -68.4825E-03     122.210E-03    -53.4393E-03     223.426E-03
            1796     13.6533E-03     37.2029E-03    -17.9401E+06     72.9207E+06     372.273E+03     561.582E+03    -59.1473E-03     112.476E-03    -53.3287E-03     165.208E-03    -61.5995E-03     115.122E-03    -53.4065E-03     163.520E-03
            1797     12.7969E-03     37.0583E-03    -18.5301E+06     20.7557E+06    -9.35910E+06     95.0021E+03    -57.7424E-03     111.052E-03    -53.3094E-03     132.344E-03    -59.0963E-03     112.441E-03    -53.3594E-03     130.969E-03
            1798     11.9469E-03     36.9364E-03    -19.3888E+06    -28.0294E+06    -6.01810E+06     111.228E+03    -57.1654E-03     110.494E-03    -53.3288E-03     114.217E-03    -57.9909E-03     111.169E-03    -53.2901E-03     113.100E-03
            1799     11.0932E-03     36.8288E-03    -20.6650E+06    -58.7923E+06    -5.87469E+06     289.604E+03    -56.5580E-03     109.857E-03    -53.2993E-03     102.926E-03    -57.0974E-03     110.132E-03    -53.2135E-03     102.012E-03
            1800     10.2412E-03     36.7286E-03    -21.8833E+06    -79.2597E+06    -4.83956E+06     348.434E+03    -56.1691E-03     109.430E-03    -53.2608E-03     94.9465E-03    -56.5340E-03     109.450E-03    -53.1383E-03     94.1909E-03
            1801     9.38833E-03     36.6368E-03    -23.8969E+06    -95.1068E+06    -4.73127E+06     543.297E+03    -55.8400E-03     109.047E-03    -53.2066E-03     86.9855E-03    -56.0855E-03     108.883E-03    -53.0577E-03     86.3636E-03
            1802     8.53569E-03     36.5521E-03    -25.8048E+06    -108.318E+06    -5.82415E+06     330.001E+03    -55.4036E-03     108.540E-03    -53.1368E-03     78.8213E-03    -55.5598E-03     108.237E-03    -52.9715E-03     78.3095E-03
            1803     7.68272E-03     36.4765E-03    -27.7082E+06    -118.406E+06    -6.04164E+06     111.897E+03    -54.9599E-03     108.027E-03    -53.0668E-03     71.1278E-03    -55.0546E-03     107.620E-03    -52.8851E-03     70.7087E-03
            1804     6.82975E-03     36.4076E-03    -30.1789E+06    -130.790E+06    -6.92764E+06     498.792E+03    -54.5145E-03     107.515E-03    -53.0010E-03     63.4995E-03    -54.5615E-03     107.011E-03    -52.8022E-03     63.1657E-03
            1805     5.97630E-03     36.3470E-03    -32.9271E+06    -140.383E+06    -10.3183E+06     676.932E+03    -54.1164E-03     107.039E-03    -52.9230E-03     55.7399E-03    -54.1282E-03     106.466E-03    -52.7233E-03     55.4764E-03
            1806     5.12313E-03     36.2939E-03    -36.3147E+06    -144.706E+06    -16.0400E+06     527.594E+03    -53.7103E-03     106.543E-03    -52.8326E-03     48.0583E-03    -53.7026E-03     105.939E-03    -52.6503E-03     47.8510E-03
            1807     4.26939E-03     36.2486E-03    -39.7161E+06    -150.224E+06    -23.4908E+06     527.042E+03    -53.3300E-03     106.078E-03    -52.7477E-03     40.2203E-03    -53.3045E-03     105.446E-03    -52.5897E-03     40.0620E-03
            1808     3.41576E-03     36.2116E-03    -42.8465E+06    -155.537E+06    -31.1489E+06     435.085E+03    -53.0625E-03     105.734E-03    -52.6715E-03     32.3372E-03    -53.0227E-03     105.080E-03    -52.5396E-03     32.2188E-03
            1809     2.56192E-03     36.1824E-03    -45.5872E+06    -159.961E+06    -38.0621E+06     327.221E+03    -52.8351E-03     105.439E-03    -52.6037E-03     24.4389E-03    -52.7849E-03     104.769E-03    -52.4959E-03     24.3549E-03
            1810     1.70804E-03     36.1615E-03    -47.3781E+06    -163.712E+06    -44.2776E+06     328.774E+03    -52.6513E-03     105.200E-03    -52.5491E-03     16.5218E-03    -52.5906E-03     104.519E-03    -52.4644E-03     16.4689E-03
            1811     853.961E-06     36.1485E-03    -48.3492E+06    -165.804E+06    -47.8911E+06     44.6650E+03    -52.5512E-03     105.069E-03    -52.5178E-03     8.89119E-03    -52.4844E-03     104.381E-03    -52.4467E-03     8.86107E-03
            1812     16.2156E-03     36.9214E-03    -4.87833E+06     153.389E+06     104.808E+06     722.241E+03    -60.2368E-03     114.048E-03    -53.8112E-03     191.057E-03    -68.7930E-03     122.828E-03    -53.5025E-03     192.748E-03
            1813     15.3531E-03     36.6023E-03    -10.8671E+06     145.526E+06     88.2781E+06     887.519E+03    -66.4679E-03     120.169E-03    -53.7013E-03     285.941E-03    -77.6548E-03     131.578E-03    -53.4552E-03     285.402E-03
            1814     14.5063E-03     36.3350E-03    -15.3415E+06     112.017E+06     40.3403E+06     553.753E+03    -63.1420E-03     116.615E-03    -53.4734E-03     225.712E-03    -68.6007E-03     122.300E-03    -53.4119E-03     223.731E-03
            1815     13.6498E-03     36.1471E-03    -16.7795E+06     74.0170E+06     1.43747E+06     537.961E+03    -59.5153E-03     112.804E-03    -53.2885E-03     165.627E-03    -61.9731E-03     115.461E-03    -53.3643E-03     163.924E-03
            1816     12.8008E-03     36.0026E-03    -17.6636E+06     20.6432E+06    -9.21119E+06     565.054E+03    -57.9760E-03     111.221E-03    -53.2454E-03     132.306E-03    -59.3252E-03     112.608E-03    -53.2958E-03     130.930E-03
            1817     11.9460E-03     35.8804E-03    -19.0276E+06    -28.7311E+06    -6.03362E+06     447.681E+03    -57.1915E-03     110.442E-03    -53.2507E-03     113.449E-03    -58.0085E-03     111.107E-03    -53.2117E-03     112.339E-03
            1818     11.0952E-03     35.7730E-03    -20.8305E+06    -57.9724E+06     -5.3596E+06     466.315E+03    -56.6065E-03     109.817E-03    -53.2102E-03     102.139E-03    -57.1469E-03     110.093E-03    -53.1228E-03     101.226E-03
            1819     10.2419E-03     35.6739E-03    -22.6159E+06    -79.4673E+06    -5.40016E+06     528.045E+03    -56.2650E-03     109.417E-03    -53.1522E-03     94.6075E-03    -56.6308E-03     109.436E-03    -53.0312E-03     93.8545E-03
            1820     9.38969E-03     35.5811E-03    -23.7282E+06    -95.2964E+06    -4.87181E+06     337.823E+03    -55.8879E-03     108.969E-03    -53.0808E-03     86.5191E-03    -56.1304E-03     108.803E-03    -52.9326E-03     85.8960E-03
            1821     8.53680E-03     35.4981E-03    -25.1137E+06    -107.732E+06    -5.63389E+06     201.430E+03    -55.3582E-03     108.355E-03    -52.9965E-03     78.3044E-03    -55.5103E-03     108.052E-03    -52.8320E-03     77.7939E-03
            1822     7.68388E-03     35.4216E-03    -27.4019E+06    -118.702E+06    -6.35993E+06     244.872E+03    -54.9038E-03     107.818E-03    -52.9139E-03     70.6500E-03    -54.9948E-03     107.409E-03    -52.7339E-03     70.2353E-03
            1823     6.83077E-03     35.3539E-03    -30.2646E+06    -130.983E+06    -7.29173E+06     379.115E+03    -54.4837E-03     107.316E-03    -52.8326E-03     62.9583E-03    -54.5294E-03     106.811E-03    -52.6352E-03     62.6248E-03
            1824     5.97762E-03     35.2931E-03    -33.3183E+06    -140.344E+06    -10.5934E+06     487.739E+03    -54.0164E-03     106.755E-03    -52.7384E-03     55.2831E-03    -54.0291E-03     106.182E-03    -52.5396E-03     55.0191E-03
            1825     5.12403E-03     35.2406E-03    -36.4033E+06    -144.465E+06    -15.8262E+06     602.857E+03    -53.5647E-03     106.202E-03    -52.6373E-03     47.5898E-03    -53.5574E-03     105.599E-03    -52.4542E-03     47.3853E-03
            1826     4.27041E-03     35.1957E-03    -39.7816E+06    -149.971E+06    -23.2261E+06     494.271E+03    -53.1680E-03     105.710E-03    -52.5419E-03     39.8643E-03    -53.1433E-03     105.079E-03    -52.3829E-03     39.7071E-03
            1827     3.41641E-03     35.1587E-03    -42.7645E+06    -155.336E+06    -31.0125E+06     328.951E+03    -52.8646E-03     105.321E-03    -52.4568E-03     32.0346E-03    -52.8247E-03     104.668E-03    -52.3246E-03     31.9162E-03
            1828     2.56249E-03     35.1299E-03    -45.2968E+06    -159.716E+06    -38.0777E+06     237.925E+03    -52.6272E-03     105.010E-03    -52.3825E-03     24.1709E-03    -52.5757E-03     104.341E-03    -52.2756E-03     24.0865E-03
            1829     1.70834E-03     35.1090E-03    -47.3019E+06    -163.414E+06    -44.0209E+06     146.270E+03    -52.4321E-03     104.757E-03    -52.3251E-03     16.3510E-03    -52.3718E-03     104.077E-03    -52.2396E-03     16.2963E-03
            1830     854.294E-06     35.0963E-03    -48.5383E+06    -165.624E+06    -47.6078E+06     178.625E+03    -52.3396E-03     104.615E-03    -52.2757E-03     8.89896E-03    -52.2743E-03     103.928E-03    -52.2032E-03     8.87125E-03
            1831     16.2032E-03     35.8622E-03    -5.60198E+06     152.467E+06     104.129E+06     276.736E+03    -60.3700E-03     114.163E-03    -53.7931E-03     191.808E-03    -68.8947E-03     122.907E-03    -53.4854E-03     193.468E-03
            1832     15.3608E-03     35.5464E-03    -11.1529E+06     145.537E+06     88.1012E+06     518.173E+03    -66.2836E-03     119.966E-03    -53.6826E-03     285.257E-03    -77.4040E-03     131.308E-03    -53.4370E-03     284.696E-03
            1833     14.5022E-03     35.2796E-03    -15.3470E+06     112.128E+06     39.8535E+06     509.841E+03    -63.4413E-03     116.887E-03    -53.4453E-03     225.424E-03    -68.8886E-03     122.562E-03    -53.3864E-03     223.431E-03
            1834     13.6537E-03     35.0902E-03    -17.7805E+06     73.2823E+06     445.302E+03     216.363E+03    -59.9902E-03     113.222E-03    -53.2315E-03     164.700E-03    -62.4435E-03     115.871E-03    -53.3098E-03     162.971E-03
            1835     12.7988E-03     34.9464E-03    -18.6364E+06     21.3831E+06    -9.10476E+06     942.386E+03    -58.0749E-03     111.240E-03    -53.1648E-03     131.430E-03    -59.4231E-03     112.624E-03    -53.2143E-03     130.059E-03
            1836     11.9494E-03     34.8244E-03    -19.6651E+06    -28.4420E+06    -6.49871E+06     907.446E+03    -57.1544E-03     110.311E-03    -53.1571E-03     113.355E-03    -57.9710E-03     110.976E-03    -53.1198E-03     112.255E-03
            1837     11.0954E-03     34.7181E-03    -20.7713E+06    -58.0994E+06    -5.53779E+06     638.915E+03    -56.7359E-03     109.842E-03    -53.1061E-03     101.891E-03    -57.2741E-03     110.116E-03    -53.0194E-03     100.979E-03
            1838     10.2437E-03     34.6182E-03    -22.0001E+06    -78.3531E+06    -4.78597E+06     721.481E+03    -56.3930E-03     109.422E-03    -53.0289E-03     94.2136E-03    -56.7564E-03     109.443E-03    -52.9073E-03     93.4638E-03
            1839     9.39076E-03     34.5266E-03    -23.8443E+06    -95.1829E+06    -5.33696E+06     10.2286E+03    -55.9126E-03     108.847E-03    -52.9345E-03     85.9202E-03    -56.1530E-03     108.681E-03    -52.7886E-03     85.2949E-03
            1840     8.53829E-03     34.4432E-03    -25.6308E+06    -108.304E+06    -6.13656E+06    -127.368E+03    -55.3729E-03     108.205E-03    -52.8323E-03     77.6249E-03    -55.5243E-03     107.899E-03    -52.6688E-03     77.1120E-03
            1841     7.68524E-03     34.3680E-03    -27.4936E+06    -118.886E+06    -6.67574E+06     385.838E+03    -54.8570E-03     107.587E-03    -52.7303E-03     70.0139E-03    -54.9462E-03     107.176E-03    -52.5515E-03     69.6035E-03
            1842     6.83213E-03     34.2996E-03    -30.0584E+06    -130.914E+06    -7.55810E+06     491.930E+03    -54.3718E-03     107.005E-03    -52.6329E-03     62.2987E-03    -54.4149E-03     106.498E-03    -52.4373E-03     61.9693E-03
            1843     5.97879E-03     34.2401E-03    -33.1593E+06    -140.163E+06    -10.6394E+06     395.798E+03    -53.8652E-03     106.393E-03    -52.5276E-03     54.6914E-03    -53.8765E-03     105.820E-03    -52.3295E-03     54.4285E-03
            1844     5.12515E-03     34.1874E-03    -36.3888E+06    -144.492E+06    -15.9130E+06     311.586E+03    -53.3840E-03     105.801E-03    -52.4171E-03     47.1068E-03    -53.3759E-03     105.197E-03    -52.2344E-03     46.9006E-03
            1845     4.27130E-03     34.1431E-03    -39.3454E+06    -149.551E+06    -22.9060E+06     363.934E+03    -53.0058E-03     105.316E-03    -52.3104E-03     39.4397E-03    -52.9796E-03     104.686E-03    -52.1511E-03     39.2823E-03
            1846     3.41737E-03     34.1064E-03    -42.5065E+06    -155.090E+06    -30.9822E+06     342.758E+03    -52.6575E-03     104.869E-03    -52.2112E-03     31.6878E-03    -52.6164E-03     104.216E-03    -52.0796E-03     31.5711E-03
            1847     2.56311E-03     34.0778E-03    -45.3610E+06    -159.520E+06    -37.8561E+06     237.838E+03    -52.3777E-03     104.510E-03    -52.1318E-03     23.8859E-03    -52.3270E-03     103.841E-03    -52.0240E-03     23.8028E-03
            1848     1.70888E-03     34.0571E-03    -47.4753E+06    -163.279E+06    -43.9014E+06     15.1259E+03    -52.1744E-03     104.248E-03    -52.0735E-03     16.1264E-03    -52.1152E-03     103.568E-03    -51.9875E-03     16.0706E-03
            1849     854.293E-06     34.0445E-03    -48.5326E+06    -165.477E+06    -47.6589E+06    -172.557E+03    -52.0754E-03     104.111E-03    -52.0356E-03     8.86096E-03    -52.0102E-03     103.424E-03    -51.9636E-03     8.82928E-03
            1850     16.2157E-03     34.8060E-03    -4.96562E+06     152.514E+06     104.423E+06     442.338E+03    -60.3240E-03     114.124E-03    -53.8001E-03     192.146E-03    -68.8039E-03     122.825E-03    -53.4920E-03     193.839E-03
            1851     15.3539E-03     34.4904E-03    -10.9426E+06     145.585E+06     88.4162E+06     621.288E+03    -66.9166E-03     120.592E-03    -53.6751E-03     285.166E-03    -77.9894E-03     131.886E-03    -53.4283E-03     284.568E-03
            1852     14.5069E-03     34.2227E-03    -15.3316E+06     111.881E+06     39.8555E+06     720.831E+03    -64.3351E-03     117.726E-03    -53.3913E-03     224.970E-03    -69.7897E-03     123.408E-03    -53.3320E-03     222.905E-03
            1853     13.6525E-03     34.0331E-03    -17.5486E+06     73.6588E+06     453.584E+03     811.663E+03    -59.9969E-03     113.139E-03    -53.1421E-03     163.751E-03    -62.4376E-03     115.778E-03    -53.2212E-03     162.030E-03
            1854     12.8035E-03     33.8910E-03    -18.8808E+06     21.5253E+06    -9.40664E+06     871.420E+03    -57.8195E-03     110.894E-03    -53.0748E-03     131.290E-03    -59.1623E-03     112.274E-03    -53.1256E-03     129.929E-03
            1855     11.9477E-03     33.7691E-03    -19.7898E+06    -28.5649E+06    -6.88614E+06     783.529E+03    -57.2455E-03     110.311E-03    -53.0655E-03     113.261E-03    -58.0614E-03     110.975E-03    -53.0298E-03     112.159E-03
            1856     11.0974E-03     33.6618E-03    -20.5283E+06    -58.0951E+06    -5.48274E+06     677.859E+03    -57.0142E-03     110.008E-03    -52.9936E-03     101.447E-03    -57.5484E-03     110.279E-03    -52.9070E-03     100.534E-03
            1857     10.2446E-03     33.5635E-03    -21.7685E+06    -77.8231E+06    -4.47765E+06     643.597E+03    -56.5954E-03     109.480E-03    -52.8849E-03     93.3696E-03    -56.9579E-03     109.502E-03    -52.7629E-03     92.6158E-03
            1858     9.39267E-03     33.4713E-03    -23.5676E+06    -94.3723E+06    -4.88079E+06     382.449E+03    -55.9171E-03     108.682E-03    -52.7651E-03     85.1670E-03    -56.1552E-03     108.516E-03    -52.6185E-03     84.5495E-03
            1859     8.53975E-03     33.3893E-03    -25.8406E+06    -108.194E+06    -5.89534E+06    -66.4998E+03    -55.3949E-03     108.037E-03    -52.6420E-03     76.9708E-03    -55.5461E-03     107.729E-03    -52.4771E-03     76.4609E-03
            1860     7.68707E-03     33.3136E-03    -28.1610E+06    -119.549E+06    -7.02302E+06     49.8173E+03    -54.8145E-03     107.330E-03    -52.5155E-03     69.2569E-03    -54.9039E-03     106.915E-03    -52.3365E-03     68.8447E-03
            1861     6.83379E-03     33.2468E-03    -30.3618E+06    -130.985E+06    -8.84014E+06     502.200E+03    -54.1741E-03     106.572E-03    -52.3976E-03     61.6957E-03    -54.2152E-03     106.066E-03    -52.2078E-03     61.3705E-03
            1862     5.98022E-03     33.1866E-03    -33.1219E+06    -139.667E+06    -11.6700E+06     337.367E+03    -53.6745E-03     105.959E-03    -52.2846E-03     54.1084E-03    -53.6838E-03     105.389E-03    -52.0924E-03     53.8478E-03
            1863     5.12650E-03     33.1354E-03    -36.2403E+06    -144.477E+06    -16.3110E+06     67.8969E+03    -53.2225E-03     105.387E-03    -52.1649E-03     46.5745E-03    -53.2124E-03     104.783E-03    -51.9844E-03     46.3674E-03
            1864     4.27244E-03     33.0906E-03    -39.6072E+06    -149.798E+06    -23.5584E+06     270.994E+03    -52.7914E-03     104.835E-03    -52.0434E-03     38.9212E-03    -52.7647E-03     104.204E-03    -51.8866E-03     38.7647E-03
            1865     3.41824E-03     33.0548E-03    -42.5665E+06    -154.777E+06    -30.6528E+06     405.593E+03    -52.4081E-03     104.346E-03    -51.9375E-03     31.2530E-03    -52.3679E-03     103.694E-03    -51.8047E-03     31.1387E-03
            1866     2.56386E-03     33.0260E-03    -45.2053E+06    -159.104E+06    -37.5811E+06     164.636E+03    -52.0991E-03     103.951E-03    -51.8523E-03     23.6127E-03    -52.0484E-03     103.284E-03    -51.7439E-03     23.5299E-03
            1867     1.70926E-03     33.0059E-03    -47.2038E+06    -163.038E+06    -43.9364E+06    -53.1096E+03    -51.9215E-03     103.703E-03    -51.7820E-03     15.9355E-03    -51.8612E-03     103.024E-03    -51.6968E-03     15.8797E-03
            1868     854.784E-06     32.9931E-03    -48.6764E+06    -165.702E+06    -48.1170E+06     107.457E+03    -51.7947E-03     103.508E-03    -51.7134E-03     8.64792E-03    -51.7292E-03     102.821E-03    -51.6431E-03     8.62011E-03
            1869     16.2026E-03     33.7466E-03    -5.25207E+06     152.286E+06     104.396E+06     447.782E+03    -60.7792E-03     114.570E-03    -53.7911E-03     191.217E-03    -69.2373E-03     123.248E-03    -53.4823E-03     192.831E-03
            1870     15.3595E-03     33.4335E-03    -10.9545E+06     145.457E+06     88.1642E+06     536.909E+03    -67.4745E-03     121.101E-03    -53.6264E-03     283.738E-03    -78.5060E-03     132.354E-03    -53.3806E-03     283.042E-03
            1871     14.5052E-03     33.1633E-03    -15.7468E+06     111.545E+06     39.6592E+06     870.253E+03    -64.2661E-03     117.585E-03    -53.3189E-03     224.058E-03    -69.6904E-03     123.234E-03    -53.2595E-03     221.988E-03
            1872     13.6567E-03     32.9784E-03    -17.8371E+06     73.7049E+06     375.611E+03     1.29145E+06    -59.7563E-03     112.829E-03    -53.0724E-03     163.871E-03    -62.1903E-03     115.460E-03    -53.1516E-03     162.173E-03
            1873     12.8002E-03     32.8350E-03    -18.9155E+06     21.5197E+06    -9.78500E+06     878.306E+03    -58.2436E-03     111.236E-03    -52.9919E-03     131.211E-03    -59.5917E-03     112.621E-03    -53.0446E-03     129.836E-03
            1874     11.9518E-03     32.7132E-03    -19.6938E+06    -27.8776E+06    -6.58505E+06     543.797E+03    -57.5958E-03     110.545E-03    -52.9495E-03     112.399E-03    -58.4087E-03     111.208E-03    -52.9134E-03     111.289E-03
            1875     11.0979E-03     32.6065E-03    -20.7784E+06    -57.9265E+06    -5.84757E+06     441.929E+03    -57.0994E-03     109.946E-03    -52.8469E-03     100.803E-03    -57.6306E-03     110.215E-03    -52.7620E-03     99.8898E-03
            1876     10.2471E-03     32.5072E-03    -21.9084E+06    -78.1721E+06    -4.66465E+06     590.640E+03    -56.6601E-03     109.378E-03    -52.7183E-03     92.5411E-03    -57.0196E-03     109.396E-03    -52.5965E-03     91.7880E-03
            1877     9.39424E-03     32.4179E-03    -23.5286E+06    -93.4501E+06    -4.51852E+06     892.116E+03    -56.0193E-03     108.592E-03    -52.5729E-03     84.4467E-03    -56.2569E-03     108.428E-03    -52.4259E-03     83.8372E-03
            1878     8.54176E-03     32.3341E-03    -25.7282E+06    -107.554E+06    -5.82412E+06     455.366E+03    -55.3523E-03     107.776E-03    -52.4237E-03     76.2791E-03    -55.5014E-03     107.469E-03    -52.2595E-03     75.7800E-03
            1879     7.68885E-03     32.2608E-03    -28.3420E+06    -119.927E+06    -6.98927E+06     218.404E+03    -54.6744E-03     106.957E-03    -52.2821E-03     68.5102E-03    -54.7622E-03     106.538E-03    -52.1020E-03     68.1044E-03
            1880     6.83546E-03     32.1933E-03    -31.1303E+06    -130.905E+06    -9.82646E+06     183.987E+03    -54.0422E-03     106.186E-03    -52.1436E-03     61.0927E-03    -54.0845E-03     105.681E-03    -51.9578E-03     60.7669E-03
            1881     5.98177E-03     32.1348E-03    -33.5144E+06    -139.330E+06    -12.7639E+06     27.3273E+03    -53.5109E-03     105.523E-03    -52.0117E-03     53.5102E-03    -53.5198E-03     104.955E-03    -51.8249E-03     53.2491E-03
            1882     5.12783E-03     32.0826E-03    -36.5964E+06    -144.683E+06    -16.5705E+06     167.673E+03    -53.0289E-03     104.908E-03    -51.8792E-03     45.9343E-03    -53.0192E-03     104.303E-03    -51.6992E-03     45.7310E-03
            1883     4.27383E-03     32.0395E-03    -39.8430E+06    -149.729E+06    -23.5544E+06     116.453E+03    -52.5414E-03     104.284E-03    -51.7429E-03     38.3510E-03    -52.5154E-03     103.654E-03    -51.5858E-03     38.1946E-03
            1884     3.41930E-03     32.0031E-03    -42.5575E+06    -154.796E+06    -31.0837E+06    -48.3976E+03    -52.1170E-03     103.742E-03    -51.6248E-03     30.7841E-03    -52.0758E-03     103.090E-03    -51.4941E-03     30.6657E-03
            1885     2.56465E-03     31.9755E-03    -44.8444E+06    -158.982E+06    -37.9293E+06     124.512E+03    -51.8105E-03     103.341E-03    -51.5302E-03     23.2297E-03    -51.7575E-03     102.674E-03    -51.4243E-03     23.1476E-03
            1886     1.70983E-03     31.9548E-03    -47.1503E+06    -163.021E+06    -44.1339E+06     425.317E+03    -51.5985E-03     103.053E-03    -51.4543E-03     15.7043E-03    -51.5376E-03     102.374E-03    -51.3702E-03     15.6556E-03
            1887     855.002E-06     31.9427E-03    -48.6698E+06    -165.306E+06    -47.6398E+06     364.434E+03    -51.4659E-03     102.852E-03    -51.3863E-03     8.50642E-03    -51.4016E-03     102.167E-03    -51.3143E-03     8.48240E-03
            1888     16.2167E-03     32.6933E-03    -5.75172E+06     151.748E+06     104.118E+06     446.431E+03    -61.9823E-03     115.730E-03    -53.7479E-03     190.829E-03    -70.3997E-03     124.364E-03    -53.4390E-03     192.317E-03
            1889     15.3580E-03     32.3742E-03    -10.4621E+06     145.483E+06     88.5758E+06     921.847E+03    -67.5293E-03     121.082E-03    -53.5523E-03     283.639E-03    -78.4970E-03     132.272E-03    -53.3052E-03     282.898E-03
            1890     14.5094E-03     32.1084E-03    -14.9926E+06     111.839E+06     40.0124E+06     1.28664E+06    -63.5096E-03     116.772E-03    -53.2624E-03     224.101E-03    -68.9040E-03     122.394E-03    -53.2028E-03     222.106E-03
            1891     13.6524E-03     31.9219E-03    -18.3259E+06     72.9915E+06    -329.108E+03     1.22953E+06    -60.2509E-03     113.269E-03    -53.0179E-03     163.934E-03    -62.6895E-03     115.902E-03    -53.0988E-03     162.217E-03
            1892     12.8059E-03     31.7778E-03    -19.3789E+06     22.5998E+06    -9.48188E+06     809.023E+03    -58.9380E-03     111.833E-03    -52.8945E-03     130.237E-03    -60.2911E-03     113.225E-03    -52.9466E-03     128.840E-03
            1893     11.9512E-03     31.6577E-03    -19.9157E+06    -26.8918E+06    -6.67984E+06     556.620E+03    -57.8771E-03     110.682E-03    -52.8046E-03     111.821E-03    -58.6882E-03     111.346E-03    -52.7702E-03     110.708E-03
            1894     11.1014E-03     31.5504E-03    -20.8279E+06    -58.3695E+06    -6.49615E+06     371.206E+03    -57.1608E-03     109.836E-03    -52.6751E-03     100.302E-03    -57.6865E-03     110.099E-03    -52.5927E-03     99.3912E-03
            1895     10.2479E-03     31.4530E-03    -22.0055E+06    -78.4728E+06    -4.94570E+06     618.690E+03    -56.6748E-03     109.203E-03    -52.5287E-03     91.8397E-03    -57.0291E-03     109.215E-03    -52.4077E-03     91.0923E-03
            1896     9.39644E-03     31.3621E-03    -23.4071E+06    -93.3724E+06    -4.72849E+06     793.139E+03    -56.1036E-03     108.461E-03    -52.3576E-03     83.4350E-03    -56.3379E-03     108.295E-03    -52.2119E-03     82.8255E-03
            1897     8.54391E-03     31.2813E-03    -25.2545E+06    -107.286E+06    -5.63529E+06     1.03729E+06    -55.2185E-03     107.406E-03    -52.1872E-03     75.4055E-03    -55.3629E-03     107.096E-03    -52.0232E-03     74.9193E-03
            1898     7.69060E-03     31.2069E-03    -27.5766E+06    -119.398E+06    -6.36616E+06     686.847E+03    -54.5313E-03     106.564E-03    -52.0331E-03     67.8412E-03    -54.6148E-03     106.145E-03    -51.8518E-03     67.4462E-03
            1899     6.83733E-03     31.1414E-03    -30.0091E+06    -130.313E+06    -8.18125E+06    -45.9638E+03    -54.0066E-03     105.882E-03    -51.8757E-03     60.2914E-03    -54.0452E-03     105.375E-03    -51.6841E-03     59.9649E-03
            1900     5.98364E-03     31.0821E-03    -33.0597E+06    -139.685E+06    -12.0421E+06     89.8805E+03    -53.3787E-03     105.090E-03    -51.7114E-03     52.7343E-03    -53.3848E-03     104.518E-03    -51.5212E-03     52.4769E-03
            1901     5.12969E-03     31.0317E-03    -36.2483E+06    -144.636E+06    -16.6426E+06     146.577E+03    -52.7632E-03     104.318E-03    -51.5546E-03     45.2317E-03    -52.7507E-03     103.711E-03    -51.3756E-03     45.0314E-03
            1902     4.27510E-03     30.9880E-03    -39.2055E+06    -149.470E+06    -23.5744E+06    -166.095E+03    -52.2570E-03     103.663E-03    -51.4056E-03     37.7320E-03    -52.2276E-03     103.032E-03    -51.2499E-03     37.5742E-03
            1903     3.42056E-03     30.9530E-03    -42.2828E+06    -154.888E+06    -31.7101E+06         188.141    -51.8375E-03     103.107E-03    -51.2695E-03     30.2600E-03    -51.7935E-03     102.455E-03    -51.1421E-03     30.1440E-03
            1904     2.56557E-03     30.9248E-03    -45.3162E+06    -159.393E+06    -38.5395E+06     405.685E+03    -51.4818E-03     102.641E-03    -51.1587E-03     22.8182E-03    -51.4295E-03     101.973E-03    -51.0546E-03     22.7412E-03
            1905     1.71061E-03     30.9051E-03    -47.1737E+06    -162.650E+06    -43.8938E+06     507.489E+03    -51.1961E-03     102.281E-03    -51.0845E-03     15.4066E-03    -51.1361E-03     101.603E-03    -50.9997E-03     15.3601E-03
            1906     855.134E-06     30.8926E-03    -48.1004E+06    -164.604E+06    -47.3450E+06     195.371E+03    -51.0742E-03     102.125E-03    -51.0512E-03     8.38285E-03    -51.0085E-03     101.442E-03    -50.9795E-03     8.35728E-03
            1907     16.2041E-03     31.6298E-03    -5.52323E+06     151.211E+06     103.617E+06     33.8727E+03    -61.9138E-03     115.626E-03    -53.7120E-03     190.700E-03    -70.3259E-03     124.255E-03    -53.4052E-03     192.231E-03
            1908     15.3622E-03     31.3161E-03    -10.7174E+06     144.920E+06     88.8462E+06     1.09784E+06    -67.1553E-03     120.688E-03    -53.5328E-03     283.685E-03    -78.1300E-03     131.881E-03    -53.2831E-03     283.048E-03
            1909     14.5052E-03     31.0547E-03    -15.1236E+06     111.719E+06     41.2064E+06     1.81711E+06    -64.4432E-03     117.670E-03    -53.2267E-03     223.619E-03    -69.8381E-03     123.288E-03    -53.1607E-03     221.583E-03
            1910     13.6584E-03     30.8624E-03    -17.5168E+06     74.6607E+06     963.968E+03     1.51419E+06    -60.8486E-03     113.774E-03    -52.9251E-03     163.061E-03    -63.2815E-03     116.407E-03    -53.0031E-03     161.324E-03
            1911     12.8036E-03     30.7222E-03    -18.6287E+06     22.8439E+06    -9.66894E+06     861.562E+03    -59.0437E-03     111.807E-03    -52.7632E-03     129.340E-03    -60.3804E-03     113.187E-03    -52.8177E-03     127.948E-03
            1912     11.9552E-03     30.6006E-03    -19.5289E+06    -26.8130E+06    -6.65576E+06     790.092E+03    -58.1227E-03     110.772E-03    -52.6497E-03     110.899E-03    -58.9283E-03     111.433E-03    -52.6158E-03     109.787E-03
            1913     11.1018E-03     30.4958E-03    -20.7892E+06    -57.9067E+06    -6.53828E+06     776.758E+03    -57.3269E-03     109.815E-03    -52.4884E-03     99.3533E-03    -57.8470E-03     110.075E-03    -52.4070E-03     98.4504E-03
            1914     10.2512E-03     30.3973E-03    -22.1969E+06    -78.8114E+06    -5.57231E+06     498.468E+03    -56.7564E-03     109.068E-03    -52.3117E-03     91.1458E-03    -57.1067E-03     109.076E-03    -52.1931E-03     90.4000E-03
            1915     9.39864E-03     30.3082E-03    -23.6206E+06    -93.6814E+06    -4.99721E+06     669.728E+03    -55.9738E-03     108.096E-03    -52.1221E-03     82.4584E-03    -56.2042E-03     107.924E-03    -51.9770E-03     81.8533E-03
            1916     8.54589E-03     30.2276E-03    -25.4402E+06    -107.400E+06    -6.00280E+06     1.04277E+06    -55.1583E-03     107.091E-03    -51.9327E-03     74.4281E-03    -55.3003E-03     106.779E-03    -51.7701E-03     73.9458E-03
            1917     7.69280E-03     30.1547E-03    -27.6617E+06    -118.377E+06    -6.56123E+06     880.909E+03    -54.5128E-03     106.263E-03    -51.7497E-03     67.0079E-03    -54.5959E-03     105.846E-03    -51.5708E-03     66.6187E-03
            1918     6.83938E-03     30.0884E-03    -30.7113E+06    -129.902E+06    -8.25549E+06     394.684E+03    -53.8799E-03     105.445E-03    -51.5647E-03     59.3145E-03    -53.9207E-03     104.939E-03    -51.3731E-03     58.9973E-03
            1919     5.98576E-03     30.0311E-03    -33.9614E+06    -139.483E+06    -12.1094E+06    -77.6425E+03    -53.1754E-03     104.551E-03    -51.3758E-03     51.8760E-03    -53.1849E-03     103.980E-03    -51.1848E-03     51.6200E-03
            1920     5.13134E-03     29.9804E-03    -36.5631E+06    -144.367E+06    -17.4757E+06    -399.981E+03    -52.5079E-03     103.700E-03    -51.1925E-03     44.5037E-03    -52.4952E-03     103.096E-03    -51.0176E-03     44.2996E-03
            1921     4.27687E-03     29.9381E-03    -39.5349E+06    -149.983E+06    -24.6525E+06     34.3355E+03    -51.9501E-03     102.975E-03    -51.0250E-03     37.0486E-03    -51.9194E-03     102.343E-03    -50.8735E-03     36.8963E-03
            1922     3.42180E-03     29.9027E-03    -42.8246E+06    -155.154E+06    -32.0390E+06     593.387E+03    -51.4919E-03     102.369E-03    -50.8771E-03     29.6988E-03    -51.4493E-03     101.717E-03    -50.7503E-03     29.5927E-03
            1923     2.56678E-03     29.8757E-03    -45.3643E+06    -159.009E+06    -38.3022E+06     425.118E+03    -51.1079E-03     101.862E-03    -50.7541E-03     22.4002E-03    -51.0565E-03     101.196E-03    -50.6493E-03     22.3251E-03
            1924     1.71111E-03     29.8557E-03    -47.1591E+06    -162.284E+06    -43.7549E+06     51.6959E+03    -50.8207E-03     101.480E-03    -50.6597E-03     15.0862E-03    -50.7613E-03     100.804E-03    -50.5748E-03     15.0348E-03
            1925     855.761E-06     29.8439E-03    -48.2771E+06    -164.391E+06    -47.3043E+06     130.462E+03    -50.6684E-03     101.247E-03    -50.5787E-03     8.25578E-03    -50.6039E-03     100.565E-03    -50.5069E-03     8.23015E-03
            1926     16.2194E-03     30.5761E-03    -5.50899E+06     150.648E+06     103.024E+06     191.918E+03    -61.9532E-03     115.677E-03    -53.7240E-03     190.456E-03    -70.3682E-03     124.309E-03    -53.4193E-03     191.932E-03
            1927     15.3552E-03     30.2612E-03    -12.3327E+06     143.563E+06     87.5018E+06     125.165E+03    -67.9487E-03     121.462E-03    -53.5130E-03     282.468E-03    -78.9231E-03     132.648E-03    -53.2658E-03     281.724E-03
            1928     14.5110E-03     29.9920E-03    -16.3232E+06     111.144E+06     41.1233E+06     807.362E+03    -65.2875E-03     118.440E-03    -53.1528E-03     222.385E-03    -70.6722E-03     124.042E-03    -53.0846E-03     220.269E-03
            1929     13.6573E-03     29.8089E-03    -17.6101E+06     75.2854E+06     1.18032E+06     1.39973E+06    -61.2090E-03     114.010E-03    -52.8015E-03     162.484E-03    -63.6381E-03     116.641E-03    -52.8792E-03     160.735E-03
            1930     12.8086E-03     29.6635E-03    -18.6052E+06     23.3728E+06    -9.89878E+06     1.44512E+06    -59.2197E-03     111.828E-03    -52.6087E-03     128.770E-03    -60.5486E-03     113.203E-03    -52.6651E-03     127.384E-03
            1931     11.9554E-03     29.5454E-03    -19.7823E+06    -26.4240E+06    -6.86931E+06     1.14821E+06    -58.2471E-03     110.718E-03    -52.4709E-03     109.687E-03    -59.0471E-03     111.374E-03    -52.4382E-03     108.580E-03
            1932     11.1056E-03     29.4396E-03    -20.8556E+06    -57.0343E+06    -6.52260E+06     933.600E+03    -57.5020E-03     109.782E-03    -52.2802E-03     98.5316E-03    -58.0194E-03     110.042E-03    -52.1999E-03     97.6319E-03
            1933     10.2528E-03     29.3429E-03    -22.2636E+06    -79.0859E+06    -6.08907E+06     663.675E+03    -56.7260E-03     108.802E-03    -52.0759E-03     90.1855E-03    -57.0709E-03     108.805E-03    -51.9594E-03     89.4466E-03
            1934     9.40090E-03     29.2539E-03    -23.9408E+06    -94.3896E+06    -5.62471E+06     739.678E+03    -55.8562E-03     107.725E-03    -51.8686E-03     81.4895E-03    -56.0819E-03     107.547E-03    -51.7252E-03     80.8918E-03
            1935     8.54825E-03     29.1748E-03    -25.6310E+06    -106.722E+06    -6.28940E+06     804.826E+03    -55.2515E-03     106.902E-03    -51.6502E-03     73.4745E-03    -55.3925E-03     106.591E-03    -51.4898E-03     72.9916E-03
            1936     7.69538E-03     29.1016E-03    -27.3601E+06    -118.000E+06    -7.06192E+06     780.379E+03    -54.5194E-03     105.944E-03    -51.4251E-03     65.8794E-03    -54.5987E-03     105.528E-03    -51.2496E-03     65.4917E-03
            1937     6.84197E-03     29.0372E-03    -29.6430E+06    -129.413E+06    -8.12871E+06     916.488E+03    -53.6376E-03     104.851E-03    -51.2132E-03     58.3068E-03    -53.6718E-03     104.344E-03    -51.0232E-03     58.0017E-03
            1938     5.98775E-03     28.9798E-03    -32.7882E+06    -138.417E+06    -11.6198E+06     230.677E+03    -52.9202E-03     103.927E-03    -51.0070E-03     50.9255E-03    -52.9246E-03     103.357E-03    -50.8168E-03     50.6775E-03
            1939     5.13355E-03     28.9305E-03    -36.8108E+06    -144.661E+06    -18.0980E+06    -117.573E+03    -52.2513E-03     103.051E-03    -50.7997E-03     43.6423E-03    -52.2375E-03     102.445E-03    -50.6270E-03     43.4451E-03
            1940     4.27854E-03     28.8882E-03    -40.5190E+06    -150.634E+06    -25.3618E+06     393.528E+03    -51.6233E-03     102.233E-03    -50.6100E-03     36.3321E-03    -51.5948E-03     101.600E-03    -50.4597E-03     36.1876E-03
            1941     3.42342E-03     28.8540E-03    -43.1604E+06    -154.837E+06    -31.7685E+06     368.998E+03    -51.0926E-03     101.542E-03    -50.4489E-03     29.1053E-03    -51.0522E-03     100.890E-03    -50.3207E-03     28.9987E-03
            1942     2.56764E-03     28.8268E-03    -45.2986E+06    -158.514E+06    -38.0135E+06     77.1468E+03    -50.6926E-03     101.007E-03    -50.3145E-03     21.9134E-03    -50.6418E-03     100.343E-03    -50.2090E-03     21.8355E-03
            1943     1.71218E-03     28.8077E-03    -47.2706E+06    -162.155E+06    -43.9344E+06    -13.7436E+03    -50.4081E-03     100.609E-03    -50.2012E-03     14.7945E-03    -50.3490E-03     99.9342E-03    -50.1172E-03     14.7434E-03
            1944     856.024E-06     28.7956E-03    -48.5674E+06    -164.469E+06    -47.7032E+06    -56.7629E+03    -50.2158E-03     100.305E-03    -50.0892E-03     8.08870E-03    -50.1521E-03     99.6234E-03    -50.0188E-03     8.06130E-03
            1945     16.1998E-03     29.5118E-03    -5.07568E+06     150.568E+06     103.464E+06     1.10280E+06    -62.7406E-03     116.463E-03    -53.7227E-03     188.242E-03    -71.0474E-03     124.987E-03    -53.4164E-03     189.593E-03
            1946     15.3653E-03     29.2010E-03    -11.4008E+06     144.050E+06     87.5922E+06     686.146E+03    -68.8783E-03     122.331E-03    -53.4528E-03     281.248E-03    -79.7843E-03     133.453E-03    -53.2071E-03     280.370E-03
            1947     14.5086E-03     28.9373E-03    -15.9496E+06     110.718E+06     39.8673E+06     438.499E+03    -65.4681E-03     118.516E-03    -53.0476E-03     222.046E-03    -70.8509E-03     124.119E-03    -52.9857E-03     219.907E-03
            1948     13.6606E-03     28.7483E-03    -18.4578E+06     74.1761E+06    -185.218E+03     1.01870E+06    -61.5801E-03     114.252E-03    -52.6722E-03     161.712E-03    -63.9989E-03     116.869E-03    -52.7539E-03     159.944E-03
            1949     12.8087E-03     28.6084E-03    -19.2881E+06     24.0500E+06    -9.89862E+06     1.27910E+06    -59.6152E-03     112.061E-03    -52.4456E-03     127.964E-03    -60.9475E-03     113.439E-03    -52.5020E-03     126.564E-03
            1950     11.9593E-03     28.4882E-03    -20.0072E+06    -25.5234E+06    -6.85203E+06     1.13572E+06    -58.3550E-03     110.629E-03    -52.2740E-03     108.873E-03    -59.1495E-03     111.282E-03    -52.2422E-03     107.770E-03
            1951     11.1068E-03     28.3850E-03    -20.8667E+06    -57.0700E+06    -6.85748E+06     1.06122E+06    -57.5684E-03     109.626E-03    -52.0576E-03     97.6598E-03    -58.0801E-03     109.881E-03    -51.9789E-03     96.7649E-03
            1952     10.2562E-03     28.2876E-03    -22.0401E+06    -78.8207E+06    -6.08018E+06     852.544E+03    -56.7468E-03     108.575E-03    -51.8285E-03     89.0786E-03    -57.0858E-03     108.574E-03    -51.7126E-03     88.3471E-03
            1953     9.40350E-03     28.2014E-03    -23.5835E+06    -94.0831E+06    -5.69320E+06     758.195E+03    -55.9641E-03     107.552E-03    -51.5878E-03     80.4358E-03    -56.1847E-03     107.371E-03    -51.4457E-03     79.8418E-03
            1954     8.55089E-03     28.1208E-03    -25.0533E+06    -106.173E+06    -6.05852E+06     746.194E+03    -55.2703E-03     106.602E-03    -51.3320E-03     72.4123E-03    -55.4062E-03     106.290E-03    -51.1720E-03     71.9331E-03
            1955     7.69824E-03     28.0500E-03    -27.2225E+06    -118.137E+06    -7.17489E+06     657.870E+03    -54.3816E-03     105.456E-03    -51.0740E-03     64.6493E-03    -54.4572E-03     105.036E-03    -50.8991E-03     64.2646E-03
            1956     6.84438E-03     27.9859E-03    -29.6624E+06    -129.063E+06    -9.07687E+06     705.208E+03    -53.4592E-03     104.288E-03    -50.8289E-03     57.2874E-03    -53.4906E-03     103.782E-03    -50.6441E-03     56.9845E-03
            1957     5.99039E-03     27.9297E-03    -32.5333E+06    -137.981E+06    -12.1433E+06     1.07527E+06    -52.6606E-03     103.258E-03    -50.5976E-03     49.9172E-03    -52.6620E-03     102.689E-03    -50.4110E-03     49.6845E-03
            1958     5.13553E-03     27.8807E-03    -36.3070E+06    -144.646E+06    -17.4663E+06     1.22350E+06    -51.9185E-03     102.293E-03    -50.3743E-03     42.6479E-03    -51.9021E-03     101.685E-03    -50.1992E-03     42.4716E-03
            1959     4.28057E-03     27.8396E-03    -39.9501E+06    -150.064E+06    -24.8865E+06     527.350E+03    -51.2474E-03     101.412E-03    -50.1648E-03     35.5351E-03    -51.2168E-03     100.779E-03    -50.0137E-03     35.3955E-03
            1960     3.42488E-03     27.8056E-03    -42.8975E+06    -154.509E+06    -31.9363E+06    -33.1929E+03    -50.6914E-03     100.675E-03    -49.9840E-03     28.4759E-03    -50.6494E-03     100.025E-03    -49.8574E-03     28.3667E-03
            1961     2.56919E-03     27.7793E-03    -45.4776E+06    -158.481E+06    -38.3858E+06    -37.3845E+03    -50.2282E-03     100.066E-03    -49.8380E-03     21.4349E-03    -50.1775E-03     99.4027E-03    -49.7341E-03     21.3576E-03
            1962     1.71267E-03     27.7602E-03    -47.4737E+06    -162.139E+06    -44.3123E+06     39.5358E+03    -49.9022E-03     99.6325E-03    -49.7303E-03     14.4866E-03    -49.8435E-03     98.9582E-03    -49.6479E-03     14.4377E-03
            1963     856.553E-06     27.7486E-03    -48.7729E+06    -164.468E+06    -48.0654E+06     112.387E+03    -49.7322E-03     99.3802E-03    -49.6480E-03     7.85906E-03    -49.6689E-03     98.6993E-03    -49.5791E-03     7.83445E-03
            1964     16.2224E-03     28.4571E-03    -5.16747E+06     150.264E+06     103.590E+06     1.00551E+06    -63.6919E-03     117.366E-03    -53.6741E-03     187.405E-03    -71.9248E-03     125.814E-03    -53.3666E-03     188.683E-03
            1965     15.3569E-03     28.1417E-03    -9.65327E+06     145.006E+06     89.0513E+06     1.68091E+06    -68.9739E-03     122.349E-03    -53.3747E-03     280.351E-03    -79.7877E-03     133.384E-03    -53.1257E-03     279.459E-03
            1966     14.5135E-03     27.8771E-03    -14.9485E+06     110.879E+06     40.3144E+06     1.74519E+06    -65.9282E-03     118.869E-03    -52.9404E-03     220.716E-03    -71.2678E-03     124.432E-03    -52.8779E-03     218.571E-03
            1967     13.6614E-03     27.6926E-03    -17.8641E+06     74.6074E+06    -122.389E+03     1.38989E+06    -61.8438E-03     114.373E-03    -52.5288E-03     160.918E-03    -64.2407E-03     116.971E-03    -52.6116E-03     159.152E-03
            1968     12.8123E-03     27.5494E-03    -18.7029E+06     23.9228E+06    -10.1779E+06     1.00737E+06    -59.8328E-03     112.105E-03    -52.2724E-03     126.890E-03    -61.1470E-03     113.467E-03    -52.3309E-03     125.489E-03
            1969     11.9606E-03     27.4335E-03    -19.1395E+06    -25.2400E+06    -6.38057E+06     1.16999E+06    -58.6119E-03     110.682E-03    -52.0704E-03     107.766E-03    -59.3947E-03     111.326E-03    -52.0379E-03     106.664E-03
            1970     11.1105E-03     27.3286E-03    -20.4402E+06    -56.6953E+06    -6.69595E+06     1.38884E+06    -57.6055E-03     109.428E-03    -51.8223E-03     96.5984E-03    -58.1084E-03     109.676E-03    -51.7439E-03     95.7138E-03
            1971     10.2580E-03     27.2343E-03    -21.9125E+06    -78.4695E+06    -6.21644E+06     1.06326E+06    -56.9207E-03     108.480E-03    -51.5594E-03     87.9254E-03    -57.2548E-03     108.476E-03    -51.4449E-03     87.1991E-03
            1972     9.40644E-03     27.1468E-03    -23.4588E+06    -93.1744E+06    -5.49588E+06     747.557E+03    -56.1658E-03     107.439E-03    -51.2734E-03     79.2296E-03    -56.3834E-03     107.259E-03    -51.1318E-03     78.6380E-03
            1973     8.55434E-03     27.0688E-03    -25.5996E+06    -106.628E+06    -6.66480E+06     795.630E+03    -55.1331E-03     106.111E-03    -50.9776E-03     71.0907E-03    -55.2662E-03     105.794E-03    -50.8192E-03     70.6186E-03
            1974     7.70071E-03     26.9980E-03    -27.8982E+06    -117.898E+06    -7.29129E+06     870.806E+03    -54.1508E-03     104.848E-03    -50.6972E-03     63.4051E-03    -54.2267E-03     104.428E-03    -50.5223E-03     63.0299E-03
            1975     6.84740E-03     26.9356E-03    -30.7047E+06    -128.836E+06    -9.22457E+06     864.194E+03    -53.2964E-03     103.721E-03    -50.4242E-03     56.0932E-03    -53.3310E-03     103.216E-03    -50.2390E-03     55.7965E-03
            1976     5.99289E-03     26.8799E-03    -33.6963E+06    -138.668E+06    -12.7628E+06     1.12903E+06    -52.3856E-03     102.546E-03    -50.1605E-03     48.8638E-03    -52.3892E-03     101.975E-03    -49.9744E-03     48.6366E-03
            1977     5.13818E-03     26.8322E-03    -36.2014E+06    -143.823E+06    -16.8185E+06     1.33684E+06    -51.5387E-03     101.456E-03    -49.9173E-03     41.7055E-03    -51.5226E-03     100.850E-03    -49.7403E-03     41.5353E-03
            1978     4.28249E-03     26.7916E-03    -39.1750E+06    -148.934E+06    -24.1090E+06     898.287E+03    -50.8386E-03     100.529E-03    -49.6904E-03     34.7214E-03    -50.8061E-03     99.8987E-03    -49.5382E-03     34.5902E-03
            1979     3.42670E-03     26.7585E-03    -42.5049E+06    -154.227E+06    -32.1908E+06     415.906E+03    -50.2400E-03     99.7323E-03    -49.4923E-03     27.7871E-03    -50.1956E-03     99.0828E-03    -49.3680E-03     27.6867E-03
            1980     2.57018E-03     26.7326E-03    -45.4413E+06    -158.394E+06    -38.7067E+06     226.478E+03    -49.7546E-03     99.0900E-03    -49.3353E-03     20.9031E-03    -49.7032E-03     98.4271E-03    -49.2333E-03     20.8314E-03
            1981     1.71384E-03     26.7140E-03    -47.7479E+06    -162.058E+06    -44.4835E+06     238.004E+03    -49.4028E-03     98.6224E-03    -49.2196E-03     14.0793E-03    -49.3452E-03     97.9490E-03    -49.1378E-03     14.0343E-03
            1982     856.747E-06     26.7024E-03    -49.1354E+06    -164.263E+06    -48.0858E+06     84.1708E+03    -49.2357E-03     98.3489E-03    -49.1132E-03     7.59047E-03    -49.1745E-03     97.6696E-03    -49.0442E-03     7.56607E-03
            1983     16.2021E-03     27.3929E-03    -5.80281E+06     148.931E+06     102.208E+06     5.25344E+03    -64.3484E-03     118.005E-03    -53.6562E-03     187.130E-03    -72.5935E-03     126.461E-03    -53.3527E-03     188.310E-03
            1984     15.3679E-03     27.0831E-03    -10.6176E+06     143.559E+06     89.0023E+06     1.21536E+06    -69.9408E-03     123.260E-03    -53.3191E-03     280.387E-03    -80.7473E-03     134.280E-03    -53.0668E-03     279.402E-03
            1985     14.5123E-03     26.8193E-03    -14.4818E+06     111.102E+06     42.2478E+06     2.30707E+06    -66.5008E-03     119.344E-03    -52.8431E-03     220.397E-03    -71.8060E-03     124.869E-03    -52.7720E-03     218.231E-03
            1986     13.6647E-03     26.6336E-03    -16.5986E+06     76.2071E+06     1.36984E+06     2.01107E+06    -62.3553E-03     114.740E-03    -52.3846E-03     160.128E-03    -64.7374E-03     117.330E-03    -52.4641E-03     158.354E-03
            1987     12.8133E-03     26.4934E-03    -17.6766E+06     24.4637E+06    -9.79707E+06     1.49799E+06    -60.1166E-03     112.202E-03    -52.0850E-03     125.809E-03    -61.4135E-03     113.551E-03    -52.1438E-03     124.414E-03
            1988     11.9642E-03     26.3759E-03    -18.8060E+06    -25.6506E+06    -6.67549E+06     1.66607E+06    -58.8013E-03     110.649E-03    -51.8473E-03     106.311E-03    -59.5713E-03     111.280E-03    -51.8162E-03     105.218E-03
            1989     11.1124E-03     26.2747E-03    -20.1725E+06    -55.9792E+06    -6.16841E+06     1.67122E+06    -57.8533E-03     109.416E-03    -51.5624E-03     95.1787E-03    -58.3510E-03     109.661E-03    -51.4828E-03     94.2980E-03
            1990     10.2617E-03     26.1791E-03    -21.9359E+06    -77.6079E+06    -6.15301E+06     1.33469E+06    -57.0950E-03     108.348E-03    -51.2528E-03     86.6530E-03    -57.4245E-03     108.342E-03    -51.1392E-03     85.9344E-03
            1991     9.40999E-03     26.0937E-03    -23.6383E+06    -93.2452E+06    -5.71501E+06     1.16640E+06    -56.1395E-03     107.067E-03    -50.9275E-03     77.7449E-03    -56.3521E-03     106.881E-03    -50.7866E-03     77.1651E-03
            1992     8.55716E-03     26.0165E-03    -25.7618E+06    -106.370E+06    -6.49776E+06     1.21498E+06    -54.9827E-03     105.585E-03    -50.6020E-03     69.6748E-03    -55.1130E-03     105.265E-03    -50.4429E-03     69.2150E-03
            1993     7.70434E-03     25.9474E-03    -28.2999E+06    -117.665E+06    -7.58374E+06     1.18133E+06    -53.9575E-03     104.249E-03    -50.2919E-03     62.2474E-03    -54.0321E-03     103.828E-03    -50.1181E-03     61.8833E-03
            1994     6.85006E-03     25.8853E-03    -31.0133E+06    -128.881E+06    -9.42896E+06     1.34244E+06    -53.0324E-03     103.025E-03    -49.9930E-03     54.8716E-03    -53.0657E-03     102.518E-03    -49.8083E-03     54.5872E-03
            1995     5.99586E-03     25.8313E-03    -34.0665E+06    -138.194E+06    -13.0564E+06     1.06263E+06    -52.0660E-03     101.770E-03    -49.7035E-03     47.6964E-03    -52.0700E-03     101.200E-03    -49.5190E-03     47.4737E-03
            1996     5.14034E-03     25.7843E-03     -37.166E+06    -143.605E+06    -17.5698E+06     523.761E+03    -51.1716E-03     100.607E-03    -49.4358E-03     40.7609E-03    -51.1582E-03     100.003E-03    -49.2616E-03     40.5851E-03
            1997     4.28478E-03     25.7447E-03    -39.7743E+06    -148.588E+06    -24.2398E+06     805.836E+03    -50.4224E-03     99.6120E-03    -49.1896E-03     33.8354E-03    -50.3924E-03     98.9836E-03    -49.0377E-03     33.7067E-03
            1998     3.42834E-03     25.7123E-03    -42.5444E+06    -153.659E+06    -31.8051E+06     993.841E+03    -49.7702E-03     98.7449E-03    -48.9748E-03     27.0027E-03    -49.7268E-03     98.0972E-03    -48.8493E-03     26.9127E-03
            1999     2.57179E-03     25.6869E-03    -45.4040E+06    -157.940E+06    -38.5278E+06     749.719E+03    -49.2590E-03     98.0604E-03    -48.8014E-03     20.2951E-03    -49.2080E-03     97.3992E-03    -48.6992E-03     20.2323E-03
            2000     1.71456E-03     25.6687E-03    -47.6113E+06    -161.578E+06    -44.3508E+06     413.266E+03    -48.8952E-03     97.5601E-03    -48.6649E-03     13.6730E-03    -48.8377E-03     96.8886E-03    -48.5834E-03     13.6317E-03
            2001     857.572E-06     25.6577E-03    -49.1152E+06    -164.019E+06    -48.2462E+06     155.433E+03    -48.6951E-03     97.2128E-03    -48.5178E-03     7.42648E-03    -48.6338E-03     96.5349E-03    -48.4500E-03     7.40380E-03
            2002     16.2198E-03     26.3329E-03    -5.31485E+06     148.873E+06     102.003E+06     117.133E+03    -64.6515E-03     118.311E-03    -53.6600E-03     186.990E-03    -72.8931E-03     126.767E-03    -53.3581E-03     188.082E-03
            2003     15.3586E-03     26.0213E-03    -12.1097E+06     141.329E+06     87.3022E+06    -39.4418E+03    -70.9486E-03     124.220E-03    -53.2716E-03     277.995E-03    -81.7053E-03     135.182E-03    -53.0225E-03     276.879E-03
            2004     14.5158E-03     25.7591E-03    -15.4831E+06     109.808E+06     42.5357E+06     1.09274E+06    -67.3032E-03     120.037E-03    -52.7333E-03     218.427E-03    -72.5584E-03     125.503E-03    -52.6574E-03     216.193E-03
            2005     13.6654E-03     25.5753E-03    -16.9032E+06     76.2363E+06     2.28461E+06     1.87559E+06    -62.7548E-03     114.975E-03    -52.2199E-03     158.068E-03    -65.1189E-03     117.543E-03    -52.2945E-03     156.276E-03
            2006     12.8175E-03     25.4355E-03    -18.0078E+06     25.0276E+06    -9.82598E+06     2.27669E+06    -60.2246E-03     112.103E-03    -51.8786E-03     124.350E-03    -61.5111E-03     113.443E-03    -51.9379E-03     122.967E-03
            2007     11.9662E-03     25.3203E-03    -19.6518E+06    -25.0175E+06    -7.11344E+06     2.21725E+06    -59.0297E-03     110.637E-03    -51.6076E-03     105.377E-03    -59.7949E-03     111.265E-03    -51.5784E-03     104.294E-03
            2008     11.1165E-03     25.2189E-03    -20.9074E+06    -55.5650E+06    -6.68114E+06     1.73792E+06    -58.2674E-03     109.542E-03    -51.2749E-03     93.9155E-03    -58.7640E-03     109.787E-03    -51.1975E-03     93.0321E-03
            2009     10.2651E-03     25.1252E-03    -21.8469E+06    -76.5615E+06    -5.86648E+06     1.60711E+06    -57.1986E-03     108.116E-03    -50.9174E-03     85.3480E-03    -57.5232E-03     108.108E-03    -50.8040E-03     84.6386E-03
            2010     9.41313E-03     25.0405E-03    -23.6618E+06    -93.2029E+06    -5.99328E+06     1.63587E+06    -55.9428E-03     106.503E-03    -50.5602E-03     76.3134E-03    -56.1486E-03     106.311E-03    -50.4207E-03     75.7500E-03
            2011     8.56092E-03     24.9651E-03    -25.6301E+06    -106.138E+06    -6.70108E+06     1.59693E+06    -54.8492E-03     105.058E-03    -50.2092E-03     68.3307E-03    -54.9746E-03     104.735E-03    -50.0517E-03     67.8831E-03
            2012     7.70714E-03     24.8970E-03    -27.7355E+06    -117.214E+06    -7.67301E+06     1.50943E+06    -53.8140E-03     103.680E-03    -49.8659E-03     60.9455E-03    -53.8829E-03     103.256E-03    -49.6940E-03     60.5922E-03
            2013     6.85352E-03     24.8362E-03    -30.0965E+06    -129.004E+06    -9.77938E+06     1.37839E+06    -52.7277E-03     102.265E-03    -49.5370E-03     53.5453E-03    -52.7530E-03     101.754E-03    -49.3552E-03     53.2683E-03
            2014     5.99839E-03     24.7833E-03    -32.7755E+06    -137.214E+06    -12.6062E+06     1.36871E+06    -51.7338E-03     100.960E-03    -49.2258E-03     46.4301E-03    -51.7315E-03     100.390E-03    -49.0424E-03     46.2168E-03
            2015     5.14322E-03     24.7374E-03    -36.3348E+06    -142.839E+06    -17.8354E+06     961.644E+03    -50.8255E-03     99.7538E-03    -48.9283E-03     39.5836E-03    -50.8074E-03     99.1514E-03    -48.7577E-03     39.4177E-03
            2016     4.28690E-03     24.6987E-03    -40.1269E+06    -149.034E+06    -25.2980E+06     662.673E+03    -49.9878E-03     98.6431E-03    -48.6553E-03     32.8132E-03    -49.9565E-03     98.0136E-03    -48.5075E-03     32.6864E-03
            2017     3.43037E-03     24.6670E-03    -43.0003E+06    -153.347E+06    -31.8395E+06     954.636E+03    -49.2846E-03     97.7076E-03    -48.4231E-03     26.1621E-03    -49.2433E-03     97.0617E-03    -48.2976E-03     26.0744E-03
            2018     2.57309E-03     24.6425E-03    -45.3413E+06    -157.245E+06    -38.2980E+06     916.676E+03    -48.7257E-03     96.9579E-03    -48.2323E-03     19.6753E-03    -48.6753E-03     96.2995E-03    -48.1300E-03     19.6169E-03
            2019     1.71574E-03     24.6247E-03    -47.2426E+06    -161.017E+06    -44.4167E+06     622.197E+03    -48.3179E-03     96.4043E-03    -48.0864E-03     13.2249E-03    -48.2591E-03     95.7350E-03    -48.0065E-03     13.1878E-03
            2020     857.772E-06     24.6140E-03    -48.4005E+06    -163.139E+06    -47.7621E+06     392.597E+03    -48.0970E-03     96.0587E-03    -47.9617E-03     7.19960E-03    -48.0341E-03     95.3834E-03    -47.8938E-03     7.18081E-03
            2021     16.2026E-03     25.2666E-03    -4.73606E+06     149.270E+06     102.915E+06     934.879E+03    -65.9593E-03     119.562E-03    -53.6022E-03     185.414E-03    -74.0377E-03     127.855E-03    -53.2972E-03     186.363E-03
            2022     15.3690E-03     24.9598E-03    -10.6892E+06     141.948E+06     87.9122E+06     339.922E+03    -71.2586E-03     124.406E-03    -53.1476E-03     274.254E-03    -81.7985E-03     135.157E-03    -52.8984E-03     273.040E-03
            2023     14.5170E-03     24.6999E-03    -16.1318E+06     108.114E+06     39.9396E+06     658.678E+03    -67.3712E-03     119.935E-03    -52.5639E-03     216.356E-03    -72.5634E-03     125.338E-03    -52.4975E-03     214.108E-03
            2024     13.6702E-03     24.5159E-03    -18.6805E+06     75.2562E+06    -348.357E+03     1.69654E+06    -62.8714E-03     114.898E-03    -52.0268E-03     157.260E-03    -65.2171E-03     117.446E-03    -52.1106E-03     155.469E-03
            2025     12.8189E-03     24.3796E-03    -19.5553E+06     25.5305E+06    -10.8381E+06     2.37314E+06    -60.4746E-03     112.137E-03    -51.6624E-03     123.101E-03    -61.7537E-03     113.469E-03    -51.7253E-03     121.720E-03
            2026     11.9696E-03     24.2634E-03    -20.0436E+06    -24.3765E+06    -7.55269E+06     2.05854E+06    -59.3130E-03     110.667E-03    -51.3539E-03     104.481E-03    -60.0707E-03     111.289E-03    -51.3273E-03     103.398E-03
            2027     11.1191E-03     24.1634E-03    -20.6672E+06    -54.9361E+06    -6.79991E+06     1.69076E+06    -58.5808E-03     109.557E-03    -50.9758E-03     92.6321E-03    -59.0699E-03     109.797E-03    -50.9002E-03     91.7495E-03
            2028     10.2688E-03     24.0713E-03    -21.8241E+06    -76.5296E+06    -6.15745E+06     1.87872E+06    -57.2203E-03     107.795E-03    -50.5748E-03     83.5506E-03    -57.5371E-03     107.781E-03    -50.4630E-03     82.8509E-03
            2029     9.41706E-03     23.9883E-03    -23.4756E+06    -92.7617E+06    -6.27108E+06     1.79683E+06    -55.8213E-03     106.007E-03    -50.1852E-03     75.0866E-03    -56.0203E-03     105.811E-03    -50.0480E-03     74.5352E-03
            2030     8.56384E-03     23.9141E-03    -25.1342E+06    -105.862E+06    -6.99554E+06     1.68101E+06    -54.8108E-03     104.611E-03    -49.7999E-03     66.9153E-03    -54.9292E-03     104.284E-03    -49.6449E-03     66.4756E-03
            2031     7.71110E-03     23.8468E-03    -27.1508E+06    -116.823E+06    -7.77697E+06     1.80343E+06    -53.6220E-03     103.042E-03    -49.4200E-03     59.3672E-03    -53.6847E-03     102.616E-03    -49.2501E-03     59.0246E-03
            2032     6.85647E-03     23.7882E-03    -30.0652E+06    -128.608E+06    -10.1620E+06     1.63008E+06    -52.4545E-03     101.513E-03    -49.0588E-03     52.1078E-03    -52.4769E-03     101.002E-03    -48.8795E-03     51.8406E-03
            2033     6.00169E-03     23.7358E-03    -33.0166E+06    -136.894E+06    -13.2367E+06     1.49061E+06    -51.4020E-03     100.119E-03    -48.7171E-03     45.0947E-03    -51.3984E-03     99.5507E-03    -48.5369E-03     44.8888E-03
            2034     5.14575E-03     23.6915E-03    -36.0135E+06    -142.105E+06    -17.8329E+06     1.65379E+06    -50.4281E-03     98.8212E-03    -48.3931E-03     38.3351E-03    -50.4081E-03     98.2206E-03    -48.2240E-03     38.1829E-03
            2035     4.28948E-03     23.6536E-03    -39.3562E+06    -148.531E+06    -25.4511E+06     1.45933E+06    -49.5376E-03     97.6305E-03    -48.0929E-03     31.7141E-03    -49.5020E-03     97.0017E-03    -47.9477E-03     31.6013E-03
            2036     3.43228E-03     23.6231E-03    -42.5886E+06    -153.036E+06    -32.4738E+06     945.210E+03    -48.7665E-03     96.6040E-03    -47.8374E-03     25.2854E-03    -48.7222E-03     95.9593E-03    -47.7162E-03     25.2008E-03
            2037     2.57476E-03     23.5990E-03    -45.1694E+06    -156.735E+06    -38.4017E+06     891.258E+03    -48.1617E-03     95.7952E-03    -47.6335E-03     18.9738E-03    -48.1108E-03     95.1389E-03    -47.5327E-03     18.9173E-03
            2038     1.71666E-03     23.5820E-03    -47.1561E+06    -160.204E+06    -43.9801E+06     771.953E+03    -47.7138E-03     95.1953E-03    -47.4815E-03     12.7540E-03    -47.6563E-03     94.5292E-03    -47.4007E-03     12.7203E-03
            2039     858.487E-06     23.5714E-03    -48.2918E+06    -162.282E+06    -47.4867E+06     367.230E+03    -47.4718E-03     94.8415E-03    -47.3698E-03     6.88676E-03    -47.4099E-03     94.1699E-03    -47.3019E-03     6.86841E-03
            2040     16.2242E-03     24.2066E-03    -5.08537E+06     148.614E+06     103.103E+06     794.303E+03    -67.5403E-03     121.036E-03    -53.4955E-03     182.822E-03    -75.4299E-03     129.136E-03    -53.1881E-03     183.657E-03
            2041     15.3653E-03     23.8983E-03    -9.62431E+06     142.645E+06     88.8436E+06     2.00240E+06    -70.8970E-03     123.903E-03    -53.0062E-03     274.274E-03    -81.2801E-03     134.500E-03    -52.7549E-03     273.098E-03
            2042     14.5208E-03     23.6396E-03    -15.1233E+06     108.278E+06     39.0323E+06     2.16045E+06    -67.3797E-03     119.802E-03    -52.4220E-03     216.675E-03    -72.5479E-03     125.187E-03    -52.3619E-03     214.448E-03
            2043     13.6696E-03     23.4583E-03    -18.3193E+06     74.9930E+06    -1.97282E+06     2.30328E+06    -63.3978E-03     115.257E-03    -51.8591E-03     156.564E-03    -65.7142E-03     117.780E-03    -51.9512E-03     154.769E-03
            2044     12.8228E-03     23.3202E-03    -19.3531E+06     26.2117E+06    -11.3839E+06     1.75677E+06    -61.1658E-03     112.610E-03    -51.4443E-03     121.560E-03    -62.4274E-03     113.929E-03    -51.5112E-03     120.160E-03
            2045     11.9728E-03     23.2091E-03    -19.2515E+06    -23.7248E+06    -7.68801E+06     1.62474E+06    -59.7368E-03     110.814E-03    -51.0769E-03     103.023E-03    -60.4810E-03     111.428E-03    -51.0531E-03     101.933E-03
            2046     11.1229E-03     23.1062E-03    -20.0688E+06    -55.2006E+06    -7.20168E+06     1.96842E+06    -58.4295E-03     109.093E-03    -50.6635E-03     91.1828E-03    -58.9023E-03     109.320E-03    -50.5904E-03     90.3181E-03
            2047     10.2724E-03     23.0184E-03    -21.7156E+06    -76.4131E+06    -6.53465E+06     2.04547E+06    -57.1996E-03     107.438E-03    -50.2388E-03     81.9051E-03    -57.5078E-03     107.417E-03    -50.1292E-03     81.2159E-03
            2048     9.41984E-03     22.9366E-03    -22.9861E+06    -91.7328E+06    -6.17410E+06     2.10962E+06    -56.0127E-03     105.819E-03    -49.8059E-03     73.6946E-03    -56.2059E-03     105.623E-03    -49.6704E-03     73.1517E-03
            2049     8.56822E-03     22.8627E-03    -24.9451E+06    -105.539E+06    -7.23443E+06     1.95646E+06    -54.7122E-03     104.085E-03    -49.3733E-03     65.2508E-03    -54.8247E-03     103.756E-03    -49.2203E-03     64.8227E-03
            2050     7.71421E-03     22.7984E-03    -27.5736E+06    -116.936E+06    -8.62265E+06     2.06424E+06    -53.4330E-03     102.388E-03    -48.9551E-03     57.7881E-03    -53.4927E-03     101.960E-03    -48.7886E-03     57.4560E-03
            2051     6.86011E-03     22.7399E-03    -29.7291E+06    -127.884E+06    -10.3356E+06     2.13628E+06    -52.2278E-03     100.785E-03    -48.5576E-03     50.5438E-03    -52.2465E-03     100.275E-03    -48.3807E-03     50.2894E-03
            2052     6.00480E-03     22.6901E-03    -32.7802E+06    -136.515E+06    -13.9421E+06     2.04716E+06    -51.0485E-03     99.2276E-03    -48.1791E-03     43.6171E-03    -51.0410E-03     98.6596E-03    -48.0034E-03     43.4244E-03
            2053     5.14876E-03     22.6461E-03    -36.2147E+06    -141.868E+06    -18.5737E+06     1.92239E+06    -49.9748E-03     97.8044E-03    -47.8296E-03     37.0335E-03    -49.9536E-03     97.2048E-03    -47.6642E-03     36.8900E-03
            2054     4.29190E-03     22.6100E-03    -39.1874E+06    -147.575E+06    -25.1427E+06     1.86138E+06    -49.0421E-03     96.5535E-03    -47.5114E-03     30.5518E-03    -49.0065E-03     95.9278E-03    -47.3663E-03     30.4482E-03
            2055     3.43441E-03     22.5801E-03    -42.1579E+06    -152.159E+06    -32.0928E+06     1.66007E+06    -48.2369E-03     95.4717E-03    -47.2348E-03     24.3630E-03    -48.1917E-03     94.8296E-03    -47.1135E-03     24.2908E-03
            2056     2.57633E-03     22.5570E-03    -45.1444E+06    -156.108E+06    -38.2545E+06     1.11315E+06    -47.5696E-03     94.5836E-03    -47.0140E-03     18.2343E-03    -47.5194E-03     93.9298E-03    -46.9134E-03     18.1831E-03
            2057     1.71779E-03     22.5405E-03    -47.1960E+06    -159.383E+06    -43.7272E+06     635.289E+03    -47.0969E-03     93.9488E-03    -46.8519E-03     12.2882E-03    -47.0410E-03     93.2863E-03    -46.7710E-03     12.2543E-03
            2058     858.957E-06     22.5302E-03    -48.4157E+06    -161.472E+06    -47.4514E+06     308.459E+03    -46.8353E-03     93.5695E-03    -46.7341E-03     6.66347E-03    -46.7753E-03     92.9020E-03    -46.6670E-03     6.64539E-03
            2059     16.2086E-03     23.1402E-03    -5.74870E+06     146.529E+06     101.205E+06    -236.075E+03    -67.8366E-03     121.343E-03    -53.5061E-03     183.364E-03    -75.7505E-03     129.463E-03    -53.2042E-03     184.123E-03
            2060     15.3712E-03     22.8382E-03    -10.6919E+06     140.772E+06     87.7298E+06     1.82463E+06    -72.0057E-03     124.997E-03    -52.9918E-03     275.397E-03    -82.3885E-03     135.587E-03    -52.7418E-03     274.103E-03
            2061     14.5191E-03     22.5796E-03    -14.4484E+06     108.728E+06     41.8555E+06     3.14623E+06    -68.8191E-03     121.170E-03    -52.3512E-03     215.786E-03    -73.9411E-03     126.506E-03    -52.2787E-03     213.484E-03
            2062     13.6745E-03     22.3978E-03    -16.4368E+06     76.5182E+06     408.884E+03     2.86052E+06    -64.2971E-03     115.997E-03    -51.7001E-03     154.246E-03    -66.5753E-03     118.488E-03    -51.7852E-03     152.437E-03
            2063     12.8244E-03     22.2633E-03    -17.3329E+06     27.3175E+06    -11.2980E+06     2.17566E+06    -61.6462E-03     112.856E-03    -51.2102E-03     120.009E-03    -62.8779E-03     114.156E-03    -51.2812E-03     118.615E-03
            2064     11.9767E-03     22.1505E-03    -18.6366E+06    -23.7634E+06    -8.16950E+06     2.15759E+06    -60.0017E-03     110.798E-03    -50.7958E-03     101.395E-03    -60.7315E-03     111.401E-03    -50.7752E-03     100.314E-03
            2065     11.1267E-03     22.0533E-03    -20.3826E+06    -55.6012E+06    -8.33848E+06     2.32486E+06    -58.3148E-03     108.664E-03    -50.3494E-03     89.7828E-03    -58.7751E-03     108.879E-03    -50.2809E-03     88.9367E-03
            2066     10.2745E-03     21.9642E-03    -21.3269E+06    -75.7665E+06    -6.68286E+06     2.33001E+06    -57.3674E-03     107.261E-03    -49.8940E-03     80.4640E-03    -57.6668E-03     107.236E-03    -49.7867E-03     79.7849E-03
            2067     9.42480E-03     21.8842E-03    -23.1789E+06    -91.1680E+06    -6.52610E+06     2.49478E+06    -56.1761E-03     105.585E-03    -49.4085E-03     71.4713E-03    -56.3650E-03     105.387E-03    -49.2753E-03     70.9364E-03
            2068     8.57127E-03     21.8133E-03     -25.567E+06    -105.823E+06    -8.29551E+06     2.46076E+06    -54.5867E-03     103.513E-03    -48.9263E-03     63.4780E-03    -54.6951E-03     103.179E-03    -48.7772E-03     63.0647E-03
            2069     7.71818E-03     21.7493E-03    -27.4166E+06    -116.269E+06    -8.99245E+06     2.38042E+06    -53.2934E-03     101.762E-03    -48.4681E-03     55.9434E-03    -53.3489E-03     101.333E-03    -48.3047E-03     55.6223E-03
            2070     6.86367E-03     21.6933E-03    -30.2934E+06    -127.817E+06    -11.2743E+06     2.56804E+06    -51.9512E-03     99.9804E-03    -48.0292E-03     48.7484E-03    -51.9683E-03     99.4690E-03    -47.8563E-03     48.5064E-03
            2071     6.00816E-03     21.6444E-03    -33.1908E+06    -135.725E+06    -14.5760E+06     2.63896E+06    -50.6683E-03     98.2854E-03    -47.6171E-03     42.0182E-03    -50.6609E-03     97.7206E-03    -47.4450E-03     41.8395E-03
            2072     5.15181E-03     21.6023E-03    -36.0311E+06    -141.092E+06    -19.4253E+06     2.16286E+06    -49.5032E-03     96.7416E-03    -47.2384E-03     35.5873E-03    -49.4793E-03     96.1453E-03    -47.0787E-03     35.4524E-03
            2073     4.29444E-03     21.5671E-03    -38.9596E+06    -147.346E+06    -25.6101E+06     2.12425E+06    -48.5097E-03     95.4117E-03    -46.9019E-03     29.3248E-03    -48.4715E-03     94.7864E-03    -46.7599E-03     29.2294E-03
            2074     3.43658E-03     21.5383E-03    -41.9101E+06    -150.958E+06    -31.2595E+06     2.13397E+06    -47.6580E-03     94.2717E-03    -46.6137E-03     23.2846E-03    -47.6137E-03     93.6334E-03    -46.4903E-03     23.2220E-03
            2075     2.57793E-03     21.5163E-03    -44.5244E+06    -154.624E+06    -37.4905E+06     1.45032E+06    -46.9648E-03     93.3422E-03    -46.3774E-03     17.4613E-03    -46.9143E-03     92.6935E-03    -46.2761E-03     17.4171E-03
            2076     1.71894E-03     21.5001E-03    -46.8465E+06    -158.484E+06    -43.8151E+06     773.125E+03    -46.4758E-03     92.6728E-03    -46.1970E-03     11.7324E-03    -46.4192E-03     92.0142E-03    -46.1183E-03     11.7021E-03
            2077     859.504E-06     21.4906E-03    -48.2645E+06    -160.701E+06    -47.4857E+06     329.381E+03    -46.1966E-03     92.2436E-03    -46.0470E-03     6.34141E-03    -46.1368E-03     91.5797E-03    -45.9814E-03     6.32447E-03
            2078     16.2166E-03     22.0741E-03    -5.14905E+06     145.510E+06     100.097E+06     239.865E+03    -67.3907E-03     121.031E-03    -53.6404E-03     184.220E-03    -75.3176E-03     129.166E-03    -53.3434E-03     184.880E-03
            2079     15.3632E-03     21.7742E-03    -12.2948E+06     138.896E+06     86.3577E+06     856.829E+03    -75.1163E-03     128.163E-03    -53.0471E-03     272.054E-03    -85.4449E-03     138.691E-03    -52.7988E-03     270.436E-03
            2080     14.5233E-03     21.5153E-03    -15.9108E+06     107.849E+06     42.1985E+06     1.65550E+06    -70.5981E-03     122.851E-03    -52.2526E-03     211.984E-03    -75.6519E-03     128.109E-03    -52.1749E-03     209.548E-03
            2081     13.6753E-03     21.3382E-03    -17.2234E+06     76.9668E+06     868.636E+03     2.37891E+06    -64.8360E-03     116.340E-03    -51.5043E-03     151.627E-03    -67.0855E-03     118.799E-03    -51.5865E-03     149.804E-03
            2082     12.8289E-03     21.2050E-03    -17.7293E+06     28.3149E+06    -11.6367E+06     2.98877E+06    -61.8899E-03     112.850E-03    -50.9603E-03     118.162E-03    -63.1047E-03     114.136E-03    -51.0338E-03     116.783E-03
            2083     11.9794E-03     21.0935E-03    -19.0277E+06    -24.2753E+06    -9.18875E+06     2.88966E+06    -60.0021E-03     110.513E-03    -50.5113E-03     99.1518E-03    -60.7135E-03     111.098E-03    -50.4944E-03     98.0916E-03
            2084     11.1292E-03     20.9997E-03    -19.9287E+06    -54.5540E+06    -8.06937E+06     2.68042E+06    -58.7385E-03     108.760E-03    -50.0215E-03     87.5364E-03    -59.1897E-03     108.970E-03    -49.9538E-03     86.6938E-03
            2085     10.2801E-03     20.9099E-03    -21.5026E+06    -75.5072E+06    -7.33588E+06     2.70045E+06    -57.4653E-03     106.973E-03    -49.5078E-03     78.5627E-03    -57.7560E-03     106.941E-03    -49.4038E-03     77.8960E-03
            2086     9.42754E-03     20.8330E-03    -23.3167E+06    -91.5794E+06    -6.95883E+06     2.81549E+06    -56.0671E-03     105.050E-03    -48.9834E-03     69.2251E-03    -56.2477E-03     104.843E-03    -48.8515E-03     68.7039E-03
            2087     8.57588E-03     20.7636E-03    -24.8475E+06    -104.572E+06    -7.84143E+06     2.93991E+06    -54.6452E-03     103.099E-03    -48.4542E-03     61.2722E-03    -54.7470E-03     102.765E-03    -48.3057E-03     60.8712E-03
            2088     7.72213E-03     20.7013E-03    -27.4709E+06    -116.135E+06    -9.42524E+06     2.98323E+06    -53.0690E-03     101.014E-03    -47.9447E-03     53.8178E-03    -53.1194E-03     100.582E-03    -47.7835E-03     53.5136E-03
            2089     6.86742E-03     20.6475E-03    -30.0425E+06    -127.690E+06    -11.2322E+06     3.30344E+06    -51.6214E-03     99.0919E-03    -47.4705E-03     46.7183E-03    -51.6338E-03     98.5771E-03    -47.2980E-03     46.4941E-03
            2090     6.01177E-03     20.5998E-03    -33.0625E+06    -134.504E+06    -15.1227E+06     3.05965E+06    -50.2467E-03     97.2685E-03    -47.0217E-03     40.1712E-03    -50.2369E-03     96.7077E-03    -46.8544E-03     40.0053E-03
            2091     5.15487E-03     20.5598E-03    -36.1853E+06    -140.108E+06    -20.5907E+06     2.60156E+06    -49.0177E-03     95.6298E-03    -46.6121E-03     33.9503E-03    -48.9924E-03     95.0384E-03    -46.4594E-03     33.8276E-03
            2092     4.29733E-03     20.5253E-03    -39.1661E+06    -146.961E+06    -26.5259E+06     2.45248E+06    -47.9445E-03     94.1987E-03    -46.2542E-03     27.9255E-03    -47.9054E-03     93.5757E-03    -46.1169E-03     27.8397E-03
            2093     3.43875E-03     20.4982E-03    -41.5763E+06    -149.703E+06    -31.3428E+06     2.03060E+06    -47.0334E-03     92.9853E-03    -45.9520E-03     22.1177E-03    -46.9884E-03     92.3522E-03    -45.8313E-03     22.0581E-03
            2094     2.57969E-03     20.4765E-03    -43.9491E+06    -153.377E+06    -37.2239E+06     1.71281E+06    -46.3338E-03     92.0364E-03    -45.7026E-03     16.5453E-03    -46.2823E-03     91.3923E-03    -45.6026E-03     16.5074E-03
            2095     1.72006E-03     20.4616E-03    -46.0909E+06    -157.089E+06    -43.3158E+06     1.36605E+06    -45.8154E-03     91.3216E-03    -45.5062E-03     11.0884E-03    -45.7575E-03     90.6680E-03    -45.4282E-03     11.0678E-03
            2096     860.221E-06     20.4518E-03    -47.7366E+06    -159.502E+06    -47.0551E+06     746.096E+03    -45.5103E-03     90.8455E-03    -45.3352E-03     6.00205E-03    -45.4501E-03     90.1861E-03    -45.2700E-03     5.99154E-03
            2097     16.2009E-03     21.0056E-03    -5.24312E+06     145.412E+06     100.522E+06     1.64679E+06    -69.2170E-03     122.796E-03    -53.5786E-03     179.508E-03    -76.9186E-03     130.703E-03    -53.2792E-03     179.974E-03
            2098     15.3695E-03     20.7013E-03    -11.9425E+06     139.396E+06     86.8713E+06     402.880E+03    -75.0788E-03     127.972E-03    -52.8935E-03     263.827E-03    -85.1178E-03     138.211E-03    -52.6440E-03     262.165E-03
            2099     14.5250E-03     20.4540E-03    -16.1670E+06     106.931E+06     40.1756E+06     584.619E+03    -70.3483E-03     122.390E-03    -52.0413E-03     205.896E-03    -75.2457E-03     127.493E-03    -51.9720E-03     203.470E-03
            2100     13.6795E-03     20.2774E-03    -18.3539E+06     75.5994E+06    -1.69786E+06     1.86791E+06    -65.0551E-03     116.310E-03    -51.2550E-03     148.979E-03    -67.2581E-03     118.721E-03    -51.3465E-03     147.150E-03
            2101     12.8317E-03     20.1459E-03    -18.7074E+06     27.6608E+06    -12.6849E+06     2.70852E+06    -62.0152E-03     112.694E-03    -50.6785E-03     115.035E-03    -63.2041E-03     113.951E-03    -50.7550E-03     113.656E-03
            2102     11.9831E-03     20.0389E-03    -18.9308E+06    -22.8718E+06    -9.06112E+06     3.09454E+06    -60.1650E-03     110.356E-03    -50.1907E-03     97.0025E-03    -60.8603E-03     110.929E-03    -50.1754E-03     95.9533E-03
            2103     11.1347E-03     19.9427E-03    -20.4717E+06    -53.9882E+06    -8.72522E+06     3.01615E+06    -59.0402E-03     108.689E-03    -49.6493E-03     85.4940E-03    -59.4832E-03     108.894E-03    -49.5850E-03     84.6591E-03
            2104     10.2835E-03     19.8586E-03    -21.6135E+06    -75.5537E+06    -8.17065E+06     2.98652E+06    -57.5318E-03     106.614E-03    -49.0820E-03     76.2031E-03    -57.8107E-03     106.572E-03    -48.9820E-03     75.5502E-03
            2105     9.43245E-03     19.7812E-03    -22.8078E+06    -91.3843E+06    -6.97983E+06     3.17072E+06    -56.0372E-03     104.550E-03    -48.5132E-03     67.0034E-03    -56.2055E-03     104.334E-03    -48.3825E-03     66.4996E-03
            2106     8.58007E-03     19.7141E-03    -25.1136E+06    -104.368E+06    -8.23393E+06     3.56289E+06    -54.5602E-03     102.495E-03    -47.9344E-03     58.5915E-03    -54.6559E-03     102.155E-03    -47.7878E-03     58.2084E-03
            2107     7.72649E-03     19.6548E-03    -27.4324E+06    -115.455E+06    -9.89640E+06     3.78746E+06    -52.8403E-03     100.216E-03    -47.3753E-03     51.3932E-03    -52.8849E-03     99.7817E-03    -47.2176E-03     51.1102E-03
            2108     6.87169E-03     19.6017E-03    -30.1490E+06    -127.524E+06    -11.8038E+06     3.79650E+06    -51.2397E-03     98.1016E-03    -46.8619E-03     44.4665E-03    -51.2477E-03     97.5842E-03    -46.6923E-03     44.2589E-03
            2109     6.01551E-03     19.5571E-03    -32.9442E+06    -133.215E+06    -16.0265E+06     3.89826E+06    -49.8064E-03     96.1813E-03    -46.3749E-03     38.0716E-03    -49.7934E-03     95.6250E-03    -46.2141E-03     37.9255E-03
            2110     5.15842E-03     19.5174E-03    -36.0873E+06    -138.802E+06    -21.8297E+06     3.42826E+06    -48.4997E-03     94.4302E-03    -45.9305E-03     32.0568E-03    -48.4719E-03     93.8448E-03    -45.7860E-03     31.9522E-03
            2111     4.30020E-03     19.4856E-03    -38.7799E+06    -145.688E+06    -27.1068E+06     2.51078E+06    -47.3435E-03     92.8909E-03    -45.5474E-03     26.2471E-03    -47.3020E-03     92.2731E-03    -45.4154E-03     26.1682E-03
            2112     3.44123E-03     19.4587E-03    -41.2345E+06    -148.729E+06    -32.1095E+06     2.06265E+06    -46.3870E-03     91.6075E-03    -45.2205E-03     20.7633E-03    -46.3397E-03     90.9790E-03    -45.1056E-03     20.7088E-03
            2113     2.58158E-03     19.4388E-03    -43.6110E+06    -152.526E+06    -37.5515E+06     1.95214E+06    -45.6327E-03     90.5854E-03    -44.9527E-03     15.4273E-03    -45.5798E-03     89.9450E-03    -44.8560E-03     15.3957E-03
            2114     1.72139E-03     19.4237E-03    -45.4451E+06    -155.513E+06    -42.6220E+06     1.70135E+06    -45.0527E-03     89.8042E-03    -44.7515E-03     10.3348E-03    -44.9947E-03     89.1564E-03    -44.6733E-03     10.3207E-03
            2115     860.733E-06     19.4154E-03    -46.4736E+06    -157.333E+06    -45.8397E+06     1.08734E+06    -44.7315E-03     89.3381E-03    -44.6066E-03     5.56682E-03    -44.6699E-03     88.6860E-03    -44.5403E-03     5.56190E-03
            2116     16.2299E-03     19.9472E-03    -4.74264E+06     145.832E+06     101.814E+06     1.67271E+06    -73.1528E-03     126.513E-03    -53.3599E-03     176.595E-03    -80.7285E-03     134.295E-03    -53.0554E-03     176.769E-03
            2117     15.3750E-03     19.6370E-03    -8.44438E+06     140.741E+06     89.3309E+06     2.11619E+06    -73.9597E-03     126.565E-03    -52.6052E-03     264.906E-03    -83.8677E-03     136.683E-03    -52.3503E-03     263.290E-03
            2118     14.5294E-03     19.3924E-03    -14.4391E+06     106.479E+06     40.3894E+06     2.40124E+06    -69.7542E-03     121.539E-03    -51.7849E-03     203.928E-03    -74.5131E-03     126.508E-03    -51.7165E-03     201.576E-03
            2119     13.6831E-03     19.2159E-03    -17.2705E+06     75.3964E+06    -2.13004E+06     2.28849E+06    -65.1189E-03     116.109E-03    -50.9897E-03     147.118E-03    -67.2700E-03     118.472E-03    -51.0846E-03     145.302E-03
            2120     12.8364E-03     19.0888E-03    -18.4546E+06     27.5041E+06    -14.0599E+06     2.88395E+06    -62.1552E-03     112.535E-03    -50.3794E-03     113.121E-03    -63.3098E-03     113.762E-03    -50.4628E-03     111.757E-03
            2121     11.9879E-03     18.9820E-03    -19.6878E+06    -22.4862E+06    -10.5972E+06     3.22504E+06    -60.5814E-03     110.427E-03    -49.8454E-03     95.6416E-03    -61.2634E-03     110.990E-03    -49.8373E-03     94.5985E-03
            2122     11.1378E-03     18.8885E-03    -20.3883E+06    -53.6464E+06    -9.49548E+06     3.04642E+06    -59.3207E-03     108.570E-03    -49.2494E-03     83.5823E-03    -59.7471E-03     108.761E-03    -49.1895E-03     82.7583E-03
            2123     10.2887E-03     18.8054E-03    -21.4350E+06    -74.9173E+06    -8.70614E+06     3.28507E+06    -57.9443E-03     106.558E-03    -48.6135E-03     73.3455E-03    -58.2096E-03     106.506E-03    -48.5173E-03     72.7044E-03
            2124     9.43753E-03     18.7308E-03    -23.0575E+06    -91.6544E+06    -8.04557E+06     3.71767E+06    -56.1131E-03     104.084E-03    -47.9712E-03     64.0792E-03    -56.2692E-03     103.857E-03    -47.8451E-03     63.5962E-03
            2125     8.58490E-03     18.6656E-03    -24.5308E+06    -104.498E+06    -8.55867E+06     4.12133E+06    -54.2680E-03     101.612E-03    -47.3437E-03     55.6252E-03    -54.3506E-03     101.261E-03    -47.1994E-03     55.2656E-03
            2126     7.73146E-03     18.6080E-03    -26.5796E+06    -114.885E+06    -10.3610E+06     4.52742E+06    -52.5867E-03     99.3252E-03    -46.7384E-03     48.4312E-03    -52.6207E-03     98.8871E-03    -46.5851E-03     48.1699E-03
            2127     6.87610E-03     18.5583E-03    -29.2994E+06    -126.971E+06    -12.3346E+06     4.67924E+06    -50.8924E-03     97.0676E-03    -46.1752E-03     41.7193E-03    -50.8913E-03     96.5475E-03    -46.0103E-03     41.5345E-03
            2128     6.01982E-03     18.5141E-03    -32.1967E+06    -132.203E+06    -16.1286E+06     4.59276E+06    -49.3417E-03     94.9845E-03    -45.6428E-03     35.4649E-03    -49.3228E-03     94.4288E-03    -45.4851E-03     35.3374E-03
            2129     5.16225E-03     18.4777E-03    -34.6324E+06    -136.918E+06    -21.1234E+06     3.95382E+06    -47.9241E-03     93.0824E-03    -45.1584E-03     29.6447E-03    -47.8903E-03     92.5009E-03    -45.0152E-03     29.5548E-03
            2130     4.30364E-03     18.4461E-03    -37.4510E+06    -143.986E+06    -26.5589E+06     3.23521E+06    -46.6823E-03     91.4206E-03    -44.7382E-03     24.1846E-03    -46.6358E-03     90.8070E-03    -44.6080E-03     24.1215E-03
            2131     3.44412E-03     18.4217E-03    -40.5495E+06    -147.619E+06    -32.5324E+06     2.70828E+06    -45.6467E-03     90.0234E-03    -44.3767E-03     19.0700E-03    -45.5961E-03     89.3991E-03    -44.2665E-03     19.0288E-03
            2132     2.58377E-03     18.4016E-03    -42.9852E+06    -151.330E+06    -37.9275E+06     2.27931E+06    -44.8018E-03     88.8899E-03    -44.0881E-03     14.1234E-03    -44.7464E-03     88.2546E-03    -43.9960E-03     14.0997E-03
            2133     1.72287E-03     18.3886E-03    -44.6581E+06    -153.687E+06    -41.9667E+06     1.72735E+06    -44.1932E-03     88.0738E-03    -43.8806E-03     9.44671E-03    -44.1346E-03     87.4327E-03    -43.8028E-03     9.43521E-03
            2134     861.509E-06     18.3794E-03    -45.8130E+06    -155.209E+06    -44.8254E+06     985.606E+03    -43.8581E-03     87.5873E-03    -43.7292E-03     5.08886E-03    -43.7977E-03     86.9433E-03    -43.6619E-03     5.08395E-03
            2135     16.2104E-03     18.8736E-03    -5.33668E+06     143.598E+06     99.8809E+06     177.702E+03    -74.4791E-03     127.826E-03    -53.3464E-03     175.791E-03    -81.9192E-03     135.467E-03    -53.0475E-03     175.752E-03
            2136     15.3759E-03     18.5731E-03    -9.57303E+06     138.819E+06     89.1499E+06     2.83514E+06    -75.9657E-03     128.488E-03    -52.5225E-03     265.982E-03    -85.7321E-03     138.455E-03    -52.2642E-03     264.147E-03
            2137     14.5321E-03     18.3282E-03    -13.2440E+06     107.526E+06     43.2664E+06     3.65572E+06    -70.4860E-03     122.128E-03    -51.6420E-03     204.811E-03    -75.2037E-03     127.055E-03    -51.5624E-03     202.433E-03
            2138     13.6866E-03     18.1568E-03    -16.1851E+06     75.6518E+06    -1.06561E+06     3.83321E+06    -65.8645E-03     116.653E-03    -50.7881E-03     145.957E-03    -67.9751E-03     118.978E-03    -50.8796E-03     144.146E-03
            2139     12.8385E-03     18.0297E-03    -18.5881E+06     27.7942E+06    -15.0092E+06     3.99787E+06    -62.9587E-03     113.060E-03    -50.1012E-03     111.512E-03    -64.0828E-03     114.260E-03    -50.1896E-03     110.161E-03
            2140     11.9912E-03     17.9256E-03    -19.4286E+06    -21.7359E+06    -11.5192E+06     3.38817E+06    -61.4736E-03     110.954E-03    -49.4803E-03     92.9809E-03    -62.1316E-03     111.499E-03    -49.4782E-03     91.9370E-03
            2141     11.1435E-03     17.8338E-03    -20.1457E+06    -53.1972E+06    -10.3066E+06     3.17180E+06    -60.0027E-03     108.791E-03    -48.7888E-03     80.4205E-03    -60.4078E-03     108.966E-03    -48.7339E-03     79.6048E-03
            2142     10.2938E-03     17.7519E-03    -21.1758E+06    -74.6660E+06    -9.55131E+06     3.60579E+06    -58.3601E-03     106.420E-03    -48.0597E-03     69.7735E-03    -58.6057E-03     106.353E-03    -47.9684E-03     69.1500E-03
            2143     9.44343E-03     17.6810E-03    -22.5156E+06    -91.5053E+06    -8.66027E+06     4.29853E+06    -56.2406E-03     103.574E-03    -47.3330E-03     59.9993E-03    -56.3793E-03     103.333E-03    -47.2110E-03     59.5392E-03
            2144     8.59111E-03     17.6179E-03    -24.6432E+06    -104.576E+06    -9.79596E+06     4.57972E+06    -54.0775E-03     100.710E-03    -46.6326E-03     51.9481E-03    -54.1475E-03     100.350E-03    -46.4942E-03     51.6127E-03
            2145     7.73672E-03     17.5631E-03    -26.4298E+06    -115.089E+06    -10.9970E+06     4.95459E+06    -52.2845E-03     98.2528E-03    -45.9682E-03     44.5938E-03    -52.3083E-03     97.8062E-03    -45.8180E-03     44.3534E-03
            2146     6.88186E-03     17.5147E-03    -28.5384E+06    -126.118E+06    -12.3826E+06     5.59713E+06    -50.5260E-03     95.8662E-03    -45.3402E-03     37.9195E-03    -50.5162E-03     95.3434E-03    -45.1779E-03     37.7593E-03
            2147     6.02505E-03     17.4739E-03    -31.1226E+06    -130.414E+06    -15.8400E+06     5.10541E+06    -48.7657E-03     93.5118E-03    -44.7461E-03     32.0313E-03    -48.7402E-03     92.9588E-03    -44.5911E-03     31.9217E-03
            2148     5.16705E-03     17.4380E-03    -33.9694E+06    -135.377E+06    -20.9725E+06     4.58068E+06    -47.1877E-03     91.4010E-03    -44.2133E-03     26.5675E-03    -47.1501E-03     90.8231E-03    -44.0726E-03     26.4952E-03
            2149     4.30780E-03     17.4096E-03    -36.9922E+06    -142.304E+06    -26.1209E+06     4.38202E+06    -45.8404E-03     89.5963E-03    -43.7559E-03     21.6430E-03    -45.7929E-03     88.9880E-03    -43.6265E-03     21.6025E-03
            2150     3.44750E-03     17.3851E-03    -39.8317E+06    -145.747E+06    -32.0486E+06     3.65164E+06    -44.7015E-03     88.0670E-03    -43.3655E-03     16.9914E-03    -44.6496E-03     87.4492E-03    -43.2567E-03     16.9685E-03
            2151     2.58644E-03     17.3678E-03    -42.1235E+06    -149.517E+06    -37.7777E+06     2.73479E+06    -43.8040E-03     86.8615E-03    -43.0575E-03     12.5809E-03    -43.7465E-03     86.2332E-03    -42.9685E-03     12.5675E-03
            2152     1.72456E-03     17.3540E-03    -43.7637E+06    -151.590E+06    -41.4620E+06     1.88184E+06    -43.1757E-03     86.0128E-03    -42.8371E-03     8.41403E-03    -43.1161E-03     85.3799E-03    -42.7612E-03     8.40747E-03
            2153     862.494E-06     17.3470E-03    -44.8895E+06    -153.083E+06    -44.1975E+06     984.370E+03    -42.8334E-03     85.4868E-03    -42.6534E-03     4.56774E-03    -42.7723E-03     84.8511E-03    -42.5873E-03     4.56440E-03
            2154     16.2176E-03     17.7924E-03    -5.44653E+06     141.982E+06     98.5719E+06     327.043E+03    -73.7860E-03     127.220E-03    -53.4339E-03     170.550E-03    -81.0101E-03     134.643E-03    -53.1390E-03     170.471E-03
            2155     15.3762E-03     17.5087E-03    -11.4060E+06      136.71E+06     86.8251E+06     944.441E+03    -77.1694E-03     129.731E-03    -52.5616E-03     260.127E-03    -86.6981E-03     139.453E-03    -52.3092E-03     258.149E-03
            2156     14.5307E-03     17.2629E-03    -15.2865E+06     105.976E+06     43.1788E+06     2.66235E+06    -72.3707E-03     123.950E-03    -51.5789E-03     202.193E-03    -77.0031E-03     128.779E-03    -51.4945E-03     199.673E-03
            2157     13.6873E-03     17.0942E-03    -17.7651E+06     75.0789E+06     527.367E+03     4.36923E+06    -67.5604E-03     118.163E-03    -50.6031E-03     141.861E-03    -69.6105E-03     120.416E-03    -50.6835E-03     140.013E-03
            2158     12.8433E-03     16.9713E-03    -18.2976E+06     29.3384E+06    -14.1335E+06     4.67329E+06    -64.5268E-03     114.297E-03    -49.7702E-03     107.060E-03    -65.6112E-03     115.462E-03    -49.8569E-03     105.692E-03
            2159     11.9970E-03     16.8672E-03    -18.7737E+06    -20.2684E+06    -12.0370E+06     3.95398E+06    -62.5619E-03     111.572E-03    -49.0101E-03     88.8302E-03    -63.1869E-03     112.094E-03    -49.0137E-03     87.7932E-03
            2160     11.1496E-03     16.7790E-03    -19.6204E+06    -52.6243E+06    -10.9792E+06     3.57334E+06    -60.8992E-03     109.094E-03    -48.1945E-03     75.8562E-03    -61.2762E-03     109.246E-03    -48.1446E-03     75.0538E-03
            2161     10.3010E-03     16.6992E-03    -20.6533E+06    -75.3422E+06    -10.7065E+06     4.13476E+06    -58.6417E-03     105.995E-03    -47.3536E-03     64.7252E-03    -58.8589E-03     105.903E-03    -47.2680E-03     64.1293E-03
            2162     9.45076E-03     16.6309E-03    -22.2720E+06    -91.7979E+06    -9.54111E+06     4.89184E+06    -56.3224E-03     102.856E-03    -46.5337E-03     54.9056E-03    -56.4413E-03     102.598E-03    -46.4160E-03     54.4727E-03
            2163     8.59828E-03     16.5719E-03    -24.1487E+06    -103.549E+06    -9.98496E+06     5.25929E+06    -54.1683E-03     99.9000E-03    -45.7317E-03     46.9391E-03    -54.2249E-03     99.5325E-03    -45.5965E-03     46.6286E-03
            2164     7.74486E-03     16.5181E-03    -26.6628E+06    -115.295E+06    -11.5047E+06     5.69787E+06    -51.9474E-03     96.9166E-03    -44.9693E-03     39.6635E-03    -51.9617E-03     96.4605E-03    -44.8209E-03     39.4504E-03
            2165     6.88897E-03     16.4738E-03    -29.0083E+06    -124.841E+06    -13.4362E+06     5.83055E+06    -49.8764E-03     94.1369E-03    -44.2606E-03     33.3218E-03    -49.8624E-03     93.6159E-03    -44.1047E-03     33.1807E-03
            2166     6.03198E-03     16.4339E-03    -31.0257E+06    -128.624E+06    -16.4338E+06     5.38657E+06    -47.9419E-03     91.5488E-03    -43.6069E-03     27.9335E-03    -47.9129E-03     91.0008E-03    -43.4576E-03     27.8412E-03
            2167     5.17315E-03     16.4020E-03    -33.4050E+06    -134.583E+06    -20.3982E+06     5.51605E+06    -46.2048E-03     89.2369E-03    -43.0321E-03     23.0734E-03    -46.1634E-03     88.6582E-03    -42.8905E-03     23.0246E-03
            2168     4.31303E-03     16.3736E-03    -36.2296E+06    -140.194E+06    -25.6538E+06     5.36033E+06    -44.7322E-03     87.2683E-03    -42.5361E-03     18.6884E-03    -44.6827E-03     86.6668E-03    -42.4086E-03     18.6695E-03
            2169     3.45184E-03     16.3525E-03    -38.8562E+06    -143.430E+06    -31.3734E+06     4.42809E+06    -43.5061E-03     85.6288E-03    -42.1227E-03     14.6206E-03    -43.4525E-03     85.0189E-03    -42.0152E-03     14.6145E-03
            2170     2.58955E-03     16.3346E-03    -41.0761E+06    -146.986E+06    -37.0161E+06     3.37477E+06    -42.5819E-03     84.3796E-03    -41.7976E-03     10.8132E-03    -42.5235E-03     83.7607E-03    -41.7100E-03     10.8130E-03
            2171     1.72689E-03     16.3234E-03    -42.7287E+06    -149.154E+06    -40.9740E+06     2.23722E+06    -41.9177E-03     83.4807E-03    -41.5630E-03     7.22801E-03    -41.8570E-03     82.8575E-03    -41.4896E-03     7.22925E-03
            2172     863.409E-06     16.3151E-03    -43.7394E+06    -150.686E+06    -43.4173E+06     1.32569E+06    -41.5710E-03     82.9320E-03    -41.3610E-03     3.90327E-03    -41.5086E-03     82.3053E-03    -41.2962E-03     3.90589E-03
            2173     16.2146E-03     16.7299E-03    -4.97432E+06     141.823E+06     98.7617E+06     954.844E+03    -75.0916E-03     128.654E-03    -53.5620E-03     175.146E-03    -82.2621E-03     136.024E-03    -53.2666E-03     174.774E-03
            2174     15.3706E-03     16.4318E-03    -11.7179E+06     134.705E+06     85.2781E+06     1.74771E+06    -80.1569E-03     132.722E-03    -52.5651E-03     254.590E-03    -89.3940E-03     142.149E-03    -52.3170E-03     252.176E-03
            2175     14.5355E-03     16.1995E-03    -16.6804E+06     104.155E+06     42.2601E+06     2.44204E+06    -74.6221E-03     126.025E-03    -51.4030E-03     194.567E-03    -79.0659E-03     130.657E-03    -51.3186E-03     191.928E-03
            2176     13.6923E-03     16.0290E-03    -18.6170E+06     74.3213E+06     1.47398E+06     3.44650E+06    -69.2932E-03     119.562E-03    -50.2685E-03     135.917E-03    -71.2517E-03     121.714E-03    -50.3419E-03     134.016E-03
            2177     12.8496E-03     15.9102E-03    -18.5298E+06     30.2786E+06    -13.7547E+06     4.22513E+06    -66.0435E-03     115.322E-03    -49.2781E-03     101.260E-03    -67.0755E-03     116.435E-03    -49.3639E-03     99.8713E-03
            2178     12.0042E-03     15.8103E-03    -18.4439E+06    -18.7187E+06    -12.3179E+06     4.18453E+06    -63.9453E-03     112.302E-03    -48.3569E-03     83.5029E-03    -64.5353E-03     112.796E-03    -48.3646E-03     82.4655E-03
            2179     11.1583E-03     15.7222E-03    -19.4858E+06    -52.4791E+06    -11.2209E+06     4.26779E+06    -61.6244E-03     109.021E-03    -47.3965E-03     69.5769E-03    -61.9679E-03     109.142E-03    -47.3483E-03     68.8000E-03
            2180     10.3109E-03     15.6477E-03    -20.9587E+06    -75.8910E+06    -11.3212E+06     4.65923E+06    -58.9088E-03     105.339E-03    -46.4302E-03     58.3998E-03    -59.1008E-03     105.220E-03    -46.3464E-03     57.8336E-03
            2181     9.45987E-03     15.5826E-03    -21.9989E+06    -91.9559E+06    -9.78671E+06     5.26365E+06    -56.4882E-03     101.978E-03    -45.4901E-03     49.0066E-03    -56.5870E-03     101.701E-03    -45.3738E-03     48.6002E-03
            2182     8.60882E-03     15.5248E-03    -23.1451E+06    -102.636E+06    -9.40113E+06     5.95669E+06    -54.0824E-03     98.6478E-03    -44.5654E-03     40.7676E-03    -54.1229E-03     98.2693E-03    -44.4300E-03     40.4854E-03
            2183     7.75457E-03     15.4768E-03    -24.6949E+06    -114.834E+06    -10.8186E+06     6.30511E+06    -51.4127E-03     95.1061E-03    -43.6934E-03     34.0968E-03    -51.4090E-03     94.6386E-03    -43.5452E-03     33.9116E-03
            2184     6.89862E-03     15.4332E-03    -26.5886E+06    -123.320E+06    -12.3050E+06     6.42987E+06    -48.9470E-03     91.8519E-03    -42.9050E-03     28.3812E-03    -48.9179E-03     91.3265E-03    -42.7492E-03     28.2663E-03
            2185     6.04040E-03     15.3981E-03    -29.3965E+06    -127.340E+06    -15.2123E+06     6.20973E+06    -46.8158E-03     89.0114E-03    -42.1955E-03     23.4762E-03    -46.7777E-03     88.4610E-03    -42.0443E-03     23.4098E-03
            2186     5.18067E-03     15.3665E-03    -32.4937E+06    -133.806E+06    -19.3953E+06     6.29617E+06    -44.9587E-03     86.5321E-03    -41.5735E-03     19.2149E-03    -44.9123E-03     85.9516E-03    -41.4293E-03     19.1881E-03
            2187     4.31953E-03     15.3421E-03    -35.1368E+06    -137.780E+06    -24.8428E+06     6.08763E+06    -43.3502E-03     84.3862E-03    -41.0361E-03     15.4180E-03    -43.2979E-03     83.7921E-03    -40.9096E-03     15.4179E-03
            2188     3.45693E-03     15.3209E-03    -37.6073E+06    -140.809E+06    -30.6452E+06     5.20648E+06    -42.0535E-03     82.6475E-03    -40.5940E-03     11.9978E-03    -41.9974E-03     82.0467E-03    -40.4885E-03     12.0088E-03
            2189     2.59370E-03     15.3060E-03    -39.7763E+06    -143.963E+06    -35.8272E+06     4.14679E+06    -41.0674E-03     81.3181E-03    -40.2507E-03     8.83462E-03    -41.0080E-03     80.7101E-03    -40.1634E-03     8.84957E-03
            2190     1.72935E-03     15.2939E-03    -41.5270E+06    -146.228E+06    -39.7969E+06     2.85926E+06    -40.3780E-03     80.3795E-03    -40.0015E-03     5.88606E-03    -40.3170E-03     79.7671E-03    -39.9282E-03     5.89863E-03
            2191     864.999E-06     15.2880E-03    -42.6585E+06    -147.570E+06    -42.2187E+06     1.60277E+06    -39.9843E-03     79.7918E-03    -39.8075E-03     3.19198E-03    -39.9228E-03     79.1773E-03    -39.7427E-03     3.19997E-03
            2192     16.2013E-03     15.6333E-03    -4.81711E+06     140.919E+06     98.4038E+06     1.50883E+06    -76.6531E-03     130.168E-03    -53.5145E-03     166.521E-03    -83.3876E-03     137.101E-03    -53.2198E-03     165.999E-03
            2193     15.3809E-03     15.3639E-03    -11.2007E+06     133.986E+06     86.2861E+06     2.14487E+06    -81.7534E-03     134.143E-03    -52.3897E-03     244.863E-03    -90.4890E-03     143.064E-03    -52.1363E-03     242.300E-03
            2194     14.5382E-03     15.1276E-03    -15.3349E+06     104.160E+06     43.7692E+06     3.19640E+06    -77.1500E-03     128.204E-03    -51.0537E-03     187.402E-03    -81.4101E-03     132.653E-03    -50.9636E-03     184.603E-03
            2195     13.7008E-03     14.9659E-03    -17.8086E+06     74.1041E+06     1.54911E+06     3.10896E+06    -71.0050E-03     120.736E-03    -49.7314E-03     129.319E-03    -72.8626E-03     122.790E-03    -49.8053E-03     127.379E-03
            2196     12.8573E-03     14.8481E-03    -18.9334E+06     29.8847E+06    -14.3604E+06     3.38414E+06    -67.5741E-03     116.149E-03    -48.5745E-03     95.1449E-03    -68.5473E-03     117.203E-03    -48.6622E-03     93.7359E-03
            2197     12.0155E-03     14.7508E-03    -19.5338E+06    -17.9371E+06    -13.1810E+06     4.43239E+06    -65.2519E-03     112.733E-03    -47.4813E-03     76.9258E-03    -65.8054E-03     113.192E-03    -47.4928E-03     75.8943E-03
            2198     11.1707E-03     14.6672E-03    -20.3227E+06    -51.9539E+06    -11.8689E+06     4.71108E+06    -62.2543E-03     108.617E-03    -46.3628E-03     62.9619E-03    -62.5681E-03     108.709E-03    -46.3173E-03     62.2126E-03
            2199     10.3220E-03     14.5971E-03    -21.0717E+06    -75.4736E+06    -11.5164E+06     4.83271E+06    -59.4610E-03     104.706E-03    -45.2448E-03     51.6372E-03    -59.6294E-03     104.565E-03    -45.1624E-03     51.0944E-03
            2200     9.47367E-03     14.5337E-03    -21.6253E+06    -92.0993E+06    -10.6107E+06     5.21877E+06    -56.5881E-03     100.736E-03    -44.1478E-03     42.2136E-03    -56.6651E-03     100.440E-03    -44.0360E-03     41.8301E-03
            2201     8.62104E-03     14.4817E-03    -22.4359E+06    -102.996E+06    -10.1267E+06     5.86401E+06    -53.4816E-03     96.5814E-03    -43.0999E-03     34.2749E-03    -53.5029E-03     96.1871E-03    -42.9686E-03     34.0179E-03
            2202     7.76690E-03     14.4353E-03    -23.7630E+06    -114.144E+06    -10.6025E+06     6.76192E+06    -50.5783E-03     92.7121E-03    -42.1338E-03     28.0553E-03    -50.5617E-03     92.2369E-03    -41.9868E-03     27.8980E-03
            2203     6.90984E-03     14.3974E-03    -26.0834E+06    -122.174E+06    -12.4546E+06     7.17989E+06    -47.8566E-03     89.1130E-03    -41.2564E-03     22.9815E-03    -47.8199E-03     88.5862E-03    -41.1037E-03     22.8953E-03
            2204     6.05077E-03     14.3631E-03    -28.5547E+06    -126.020E+06    -14.6383E+06     7.42915E+06    -45.4695E-03     85.9472E-03    -40.4777E-03     18.6379E-03    -45.4256E-03     85.3969E-03    -40.3267E-03     18.6030E-03
            2205     5.18994E-03     14.3360E-03    -31.3857E+06    -132.253E+06    -18.8900E+06     7.28972E+06    -43.4215E-03     83.2203E-03    -39.7988E-03     14.9237E-03    -43.3697E-03     82.6422E-03    -39.6560E-03     14.9222E-03
            2206     4.32724E-03     14.3121E-03    -34.1993E+06    -135.344E+06    -24.4691E+06     6.72468E+06    -41.6907E-03     80.9068E-03    -39.2161E-03     11.8519E-03    -41.6361E-03     80.3211E-03    -39.0926E-03     11.8699E-03
            2207     3.46356E-03     14.2942E-03    -36.5650E+06    -137.863E+06    -29.5708E+06     5.88294E+06    -40.3000E-03     79.0415E-03    -38.7415E-03     9.13638E-03    -40.2435E-03     78.4513E-03    -38.6365E-03     9.16362E-03
            2208     2.59836E-03     14.2792E-03    -38.5621E+06    -140.678E+06    -34.2799E+06     4.77557E+06    -39.2419E-03     77.6148E-03    -38.3730E-03     6.69390E-03    -39.1829E-03     77.0186E-03    -38.2845E-03     6.72235E-03
            2209     1.73289E-03     14.2697E-03    -40.0996E+06    -142.617E+06    -37.8818E+06     3.36708E+06    -38.5021E-03     76.6082E-03    -38.1060E-03     4.43229E-03    -38.4418E-03     76.0087E-03    -38.0305E-03     4.45493E-03
            2210     866.386E-06     14.2625E-03    -41.0439E+06    -143.928E+06    -40.7009E+06     1.75360E+06    -38.0599E-03     75.9798E-03    -37.9200E-03     2.36035E-03    -37.9978E-03     75.3789E-03    -37.8553E-03     2.37212E-03
            2211     16.2351E-03     14.5833E-03    -4.35717E+06     140.354E+06     98.6401E+06     2.21784E+06    -81.2852E-03     134.592E-03    -53.3069E-03     166.185E-03    -88.0001E-03     141.505E-03    -53.0109E-03     165.243E-03
            2212     15.3753E-03     14.2808E-03    -8.96397E+06     135.120E+06     88.8827E+06     2.85952E+06    -82.9483E-03     134.983E-03    -52.0343E-03     243.963E-03    -91.6122E-03     143.835E-03    -51.7728E-03     241.219E-03
            2213     14.5492E-03     14.0580E-03    -14.0687E+06     103.692E+06     45.4816E+06     3.17670E+06    -79.0376E-03     129.610E-03    -50.5725E-03     179.985E-03    -83.0652E-03     133.824E-03    -50.4751E-03     177.089E-03
            2214     13.7090E-03     13.8992E-03    -16.6079E+06     73.7276E+06     1.95261E+06     3.87715E+06    -73.4876E-03     122.539E-03    -49.0517E-03     123.587E-03    -75.2563E-03     124.506E-03    -49.1248E-03     121.591E-03
            2215     12.8710E-03     13.7859E-03    -18.3546E+06     30.6046E+06    -15.2384E+06     4.71682E+06    -69.6606E-03     117.335E-03    -47.6747E-03     89.2219E-03    -70.5756E-03     118.339E-03    -47.7687E-03     87.8066E-03
            2216     12.0282E-03     13.6907E-03    -19.6689E+06    -16.8191E+06    -14.2447E+06     4.74895E+06    -66.2780E-03     112.670E-03    -46.3916E-03     70.1468E-03    -66.7844E-03     113.088E-03    -46.4099E-03     69.1393E-03
            2217     11.1834E-03     13.6137E-03    -19.5495E+06    -51.0110E+06    -12.4546E+06     4.62820E+06    -63.2525E-03     108.349E-03    -45.0965E-03     55.8936E-03    -63.5310E-03     108.414E-03    -45.0565E-03     55.1607E-03
            2218     10.3384E-03     13.5447E-03    -20.1119E+06    -74.7641E+06    -11.8293E+06     5.02624E+06    -60.0626E-03     103.855E-03    -43.7925E-03     44.4329E-03    -60.2028E-03     103.693E-03    -43.7141E-03     43.9145E-03
            2219     9.48852E-03     13.4886E-03    -21.4709E+06    -92.1772E+06    -11.6543E+06     5.18309E+06    -56.2982E-03     98.8325E-03    -42.5344E-03     35.0108E-03    -56.3546E-03     98.5198E-03    -42.4279E-03     34.6549E-03
            2220     8.63658E-03     13.4391E-03    -22.5448E+06    -103.703E+06    -11.2563E+06     5.78418E+06    -52.7033E-03     94.0699E-03    -41.3666E-03     27.8126E-03    -52.7097E-03     93.6611E-03    -41.2398E-03     27.5820E-03
            2221     7.78104E-03     13.3985E-03    -24.2508E+06    -114.373E+06    -10.7969E+06     7.23942E+06    -49.5327E-03     89.8346E-03    -40.3019E-03     21.8809E-03    -49.5092E-03     89.3505E-03    -40.1549E-03     21.7522E-03
            2222     6.92339E-03     13.3627E-03    -26.0574E+06    -120.725E+06    -12.0282E+06     7.90091E+06    -46.5904E-03     85.9185E-03    -39.3282E-03     17.3446E-03    -46.5504E-03     85.3924E-03    -39.1755E-03     17.2859E-03
            2223     6.06330E-03     13.3333E-03    -28.2785E+06    -125.064E+06    -14.8916E+06     7.92526E+06    -43.8983E-03     82.3623E-03    -38.4640E-03     13.7415E-03    -43.8501E-03     81.8128E-03    -38.3161E-03     13.7281E-03
            2224     5.20077E-03     13.3076E-03    -30.5821E+06    -130.280E+06    -18.6295E+06     8.22333E+06    -41.6158E-03     79.3398E-03    -37.7240E-03     10.7879E-03    -41.5608E-03     78.7675E-03    -37.5839E-03     10.8107E-03
            2225     4.33680E-03     13.2875E-03    -33.1165E+06    -132.438E+06    -23.5460E+06     7.52003E+06    -39.7409E-03     76.8381E-03    -37.0972E-03     8.43776E-03    -39.6850E-03     76.2625E-03    -36.9749E-03     8.47519E-03
            2226     3.47093E-03     13.2702E-03    -35.4439E+06    -134.695E+06    -28.0797E+06     6.27586E+06    -38.2484E-03     74.8385E-03    -36.5901E-03     6.48267E-03    -38.1922E-03     74.2594E-03    -36.4838E-03     6.52186E-03
            2227     2.60443E-03     13.2579E-03    -37.1372E+06    -137.052E+06    -32.5263E+06     4.90037E+06    -37.1255E-03     73.3196E-03    -36.1941E-03     4.72477E-03    -37.0668E-03     72.7365E-03    -36.1041E-03     4.75957E-03
            2228     1.73654E-03     13.2480E-03    -38.3431E+06    -138.858E+06    -36.1184E+06     3.39061E+06    -36.3201E-03     72.2291E-03    -35.9090E-03     3.13364E-03    -36.2589E-03     71.6431E-03    -35.8326E-03     3.15963E-03
            2229     868.627E-06     13.2432E-03    -39.1005E+06    -140.005E+06    -38.5852E+06     1.96234E+06    -35.8643E-03     71.5757E-03    -35.7114E-03     1.65139E-03    -35.8012E-03     70.9883E-03    -35.6446E-03     1.66749E-03
            2230     16.2018E-03     13.4917E-03    -5.31717E+06     138.201E+06     97.0597E+06     1.04217E+06    -86.5269E-03     139.786E-03    -53.2587E-03     161.986E-03    -93.0305E-03     146.480E-03    -52.9660E-03     160.343E-03
            2231     15.3961E-03     13.2072E-03    -9.00658E+06     134.150E+06      89.491E+06     2.51706E+06    -88.0088E-03     139.709E-03    -51.7000E-03     239.764E-03    -96.4093E-03     148.294E-03    -51.4340E-03     236.352E-03
            2232     14.5529E-03     12.9856E-03    -13.3562E+06     103.270E+06     46.6399E+06     3.56954E+06    -81.3599E-03     131.353E-03    -49.9929E-03     175.076E-03    -85.2486E-03     135.426E-03    -49.8901E-03     172.078E-03
            2233     13.7205E-03     12.8294E-03    -16.2055E+06     72.8911E+06     3.08882E+06     5.09845E+06    -76.5476E-03     124.798E-03    -48.2509E-03     116.487E-03    -78.2064E-03     126.650E-03    -48.3176E-03     114.434E-03
            2234     12.8831E-03     12.7209E-03    -16.9968E+06     31.7683E+06    -13.9663E+06     5.83177E+06    -71.8085E-03     118.435E-03    -46.6261E-03     81.7403E-03    -72.6529E-03     119.373E-03    -46.7173E-03     80.3251E-03
            2235     12.0437E-03     12.6328E-03    -17.2219E+06    -14.5128E+06    -13.7118E+06     5.26971E+06    -67.9671E-03     113.075E-03    -45.1081E-03     62.5484E-03    -68.4208E-03     113.457E-03    -45.1307E-03     61.5546E-03
            2236     11.2016E-03     12.5579E-03    -18.5539E+06    -50.2658E+06    -12.7805E+06     5.34395E+06    -64.1437E-03     107.745E-03    -43.6011E-03     48.2819E-03    -64.3845E-03     107.779E-03    -43.5652E-03     47.5821E-03
            2237     10.3552E-03     12.4954E-03    -19.9194E+06    -74.8446E+06    -12.4477E+06     5.67789E+06    -59.9917E-03     102.119E-03    -42.1268E-03     37.0853E-03    -60.1063E-03     101.933E-03    -42.0517E-03     36.6068E-03
            2238     9.50649E-03     12.4442E-03    -21.4187E+06    -91.0805E+06    -11.3043E+06     5.82820E+06    -55.8123E-03     96.5469E-03    -40.7346E-03     28.2392E-03    -55.8544E-03     96.2229E-03    -40.6280E-03     27.9209E-03
            2239     8.65318E-03     12.4006E-03    -23.5715E+06    -104.154E+06    -11.5400E+06     6.48705E+06    -51.8952E-03     91.3375E-03    -39.4423E-03     21.6474E-03    -51.8951E-03     90.9178E-03    -39.3148E-03     21.4504E-03
            2240     7.79749E-03     12.3635E-03    -25.0526E+06    -114.348E+06    -10.9934E+06     7.15721E+06    -48.2910E-03     86.5600E-03    -38.2690E-03     16.3999E-03    -48.2642E-03     86.0704E-03    -38.1218E-03     16.2914E-03
            2241     6.93858E-03     12.3326E-03    -26.3809E+06    -119.716E+06    -10.9360E+06     7.69739E+06    -45.0187E-03     82.2333E-03    -37.2146E-03     12.5495E-03    -44.9790E-03     81.7067E-03    -37.0575E-03     12.5050E-03
            2242     6.07685E-03     12.3064E-03    -28.1840E+06    -124.226E+06    -14.0397E+06     8.38230E+06    -42.0949E-03     78.3771E-03    -36.2822E-03     9.75172E-03    -42.0459E-03     77.8278E-03    -36.1314E-03     9.75738E-03
            2243     5.21296E-03     12.2846E-03    -30.4377E+06    -128.249E+06    -18.6034E+06     8.47226E+06    -39.6203E-03     75.1054E-03    -35.4850E-03     7.59797E-03    -39.5660E-03     74.5414E-03    -35.3479E-03     7.63388E-03
            2244     4.34679E-03     12.2662E-03    -32.2475E+06    -129.159E+06    -21.7378E+06     7.70823E+06    -37.6014E-03     72.4292E-03    -34.8278E-03     5.91954E-03    -37.5476E-03     71.8652E-03    -34.7024E-03     5.96664E-03
            2245     3.47943E-03     12.2519E-03    -33.9668E+06    -131.005E+06    -25.9199E+06     6.25445E+06    -36.0187E-03     70.3157E-03    -34.2970E-03     4.59372E-03    -35.9632E-03     69.7494E-03    -34.1874E-03     4.63769E-03
            2246     2.61040E-03     12.2400E-03    -35.4887E+06    -133.509E+06    -30.8872E+06     4.64537E+06    -34.8335E-03     68.7193E-03    -33.8858E-03     3.39791E-03    -34.7738E-03     68.1488E-03    -33.7951E-03     3.43289E-03
            2247     1.74097E-03     12.2325E-03    -36.5466E+06    -135.150E+06    -34.2553E+06     3.22917E+06    -34.0130E-03     67.6093E-03    -33.5963E-03     2.29217E-03    -33.9508E-03     67.0365E-03    -33.5186E-03     2.31824E-03
            2248     870.415E-06     12.2268E-03    -37.1711E+06    -136.155E+06    -36.4524E+06     1.73558E+06    -33.5632E-03     66.9469E-03    -33.3837E-03     1.23238E-03    -33.4991E-03     66.3729E-03    -33.3146E-03     1.24671E-03
            2249     16.2304E-03     12.3923E-03    -4.83589E+06     136.879E+06     96.6053E+06     626.166E+03    -89.1293E-03     142.278E-03    -53.1489E-03     155.425E-03    -95.2946E-03     148.634E-03    -52.8573E-03     153.540E-03
            2250     15.3877E-03     12.1306E-03    -10.2787E+06     131.255E+06     87.1292E+06     1.20810E+06    -92.1686E-03     143.534E-03    -51.3654E-03     232.581E-03    -100.211E-03     151.754E-03    -51.1051E-03     228.788E-03
            2251     14.5659E-03     11.9061E-03    -14.4723E+06     101.688E+06     47.8420E+06     3.36135E+06    -86.9018E-03     136.247E-03    -49.3451E-03     167.849E-03    -90.6351E-03     140.152E-03    -49.2324E-03     164.504E-03
            2252     13.7346E-03     11.7591E-03    -16.4075E+06     72.5019E+06     6.66885E+06     4.93567E+06    -79.3763E-03     126.668E-03    -47.2913E-03     107.325E-03    -80.9012E-03     128.373E-03    -47.3393E-03     105.239E-03
            2253     12.8997E-03     11.6554E-03    -16.7751E+06     32.8868E+06    -13.1825E+06     5.62408E+06    -73.8962E-03     119.296E-03    -45.4003E-03     73.0993E-03    -74.6659E-03     120.163E-03    -45.4895E-03     71.6860E-03
            2254     12.0618E-03     11.5723E-03    -17.3405E+06    -12.9699E+06    -14.6957E+06     6.50999E+06    -69.3277E-03     112.975E-03    -43.6474E-03     54.6867E-03    -69.7382E-03     113.322E-03    -43.6769E-03     53.7271E-03
            2255     11.2202E-03     11.5041E-03    -18.8323E+06    -49.4112E+06    -12.8927E+06     6.88442E+06    -64.4403E-03     106.400E-03    -41.9597E-03     41.1325E-03    -64.6529E-03     106.409E-03    -41.9252E-03     40.4862E-03
            2256     10.3746E-03     11.4484E-03    -20.6635E+06    -74.1033E+06    -12.5232E+06     6.65100E+06    -59.4553E-03     99.8069E-03    -40.3516E-03     30.4486E-03    -59.5537E-03     99.6060E-03    -40.2768E-03     30.0181E-03
            2257     9.52408E-03     11.4020E-03    -22.1508E+06    -90.5118E+06    -10.9574E+06     6.74273E+06    -54.9788E-03     93.8346E-03    -38.8558E-03     22.5173E-03    -55.0130E-03     93.5012E-03    -38.7472E-03     22.2402E-03
            2258     8.67138E-03     11.3645E-03    -23.7124E+06    -103.180E+06    -10.1028E+06     7.13904E+06    -50.7720E-03     88.2450E-03    -37.4730E-03     16.6863E-03    -50.7682E-03     87.8205E-03    -37.3395E-03     16.5203E-03
            2259     7.81402E-03     11.3324E-03    -25.3841E+06    -113.314E+06    -10.7029E+06     6.98454E+06    -46.7374E-03     82.9593E-03    -36.2220E-03     12.5412E-03    -46.7095E-03     82.4704E-03    -36.0744E-03     12.4493E-03
            2260     6.95361E-03     11.3062E-03    -27.1594E+06    -119.708E+06    -10.1157E+06     7.20929E+06    -43.1978E-03     78.3252E-03    -35.1274E-03     9.50445E-03    -43.1606E-03     77.7960E-03    -34.9650E-03     9.46788E-03
            2261     6.09035E-03     11.2839E-03    -29.1764E+06    -123.511E+06    -12.3426E+06     8.19857E+06    -40.1577E-03     74.3262E-03    -34.1684E-03     7.42486E-03    -40.1159E-03     73.7781E-03    -34.0087E-03     7.43806E-03
            2262     5.22450E-03     11.2654E-03    -30.7540E+06    -125.496E+06    -16.7847E+06     7.88682E+06    -37.5790E-03     70.9253E-03    -33.3463E-03     5.93399E-03    -37.5322E-03     70.3723E-03    -33.2037E-03     5.96937E-03
            2263     4.35673E-03     11.2500E-03    -31.9332E+06    -126.106E+06    -19.7522E+06     6.54594E+06    -35.4841E-03     68.1609E-03    -32.6767E-03     4.83302E-03    -35.4358E-03     67.6086E-03    -32.5463E-03     4.87008E-03
            2264     3.48709E-03     11.2373E-03    -32.9031E+06    -127.655E+06    -23.9317E+06     5.48143E+06    -33.8581E-03     65.9999E-03    -32.1418E-03     3.87169E-03    -33.8049E-03     65.4458E-03    -32.0287E-03     3.90896E-03
            2265     2.61645E-03     11.2279E-03    -34.0624E+06    -130.028E+06    -28.8346E+06     4.22622E+06    -32.6568E-03     64.3925E-03    -31.7356E-03     2.97574E-03    -32.5980E-03     63.8344E-03    -31.6419E-03     3.00749E-03
            2266     1.74459E-03     11.2204E-03    -35.0001E+06    -131.727E+06    -32.3083E+06     2.65791E+06    -31.8586E-03     63.3114E-03    -31.4528E-03     2.05966E-03    -31.7964E-03     62.7506E-03    -31.3726E-03     2.07964E-03
            2267     872.630E-06     11.2167E-03    -35.4374E+06    -132.818E+06    -34.7047E+06     1.39158E+06    -31.4144E-03     62.6636E-03    -31.2492E-03     1.13517E-03    -31.3490E-03     62.1013E-03    -31.1788E-03     1.14573E-03
            2268     16.2160E-03     11.3243E-03    -3.89812E+06     136.183E+06     96.6785E+06     1.09489E+06    -94.5395E-03     147.573E-03    -53.0336E-03     155.912E-03    -100.692E-03     153.915E-03    -52.7420E-03     153.294E-03
            2269     15.3983E-03     11.0303E-03    -9.89497E+06     129.748E+06     87.3853E+06     1.65022E+06    -98.7834E-03     149.705E-03    -50.9215E-03     225.620E-03    -106.616E-03     157.711E-03    -50.6583E-03     221.035E-03
            2270     14.5776E-03     10.8267E-03    -14.1820E+06     99.9682E+06     48.7422E+06     2.56233E+06    -91.3567E-03     139.879E-03    -48.5226E-03     153.693E-03    -94.7536E-03     143.442E-03    -48.4033E-03     150.134E-03
            2271     13.7494E-03     10.6849E-03    -16.9945E+06     71.6216E+06     5.09028E+06     4.43556E+06    -82.1807E-03     128.323E-03    -46.1425E-03     97.6802E-03    -83.5816E-03     129.905E-03    -46.1962E-03     95.5582E-03
            2272     12.9181E-03     10.5888E-03    -18.6128E+06     33.0917E+06    -16.2123E+06     6.56208E+06    -75.2331E-03     119.247E-03    -44.0137E-03     64.2509E-03    -75.9354E-03     120.049E-03    -44.1157E-03     62.8754E-03
            2273     12.0809E-03     10.5132E-03    -20.2732E+06    -12.0638E+06    -16.7190E+06     7.71117E+06    -69.3431E-03     111.452E-03    -42.1090E-03     47.7954E-03    -69.7230E-03     111.767E-03    -42.1457E-03     46.9002E-03
            2274     11.2393E-03     10.4515E-03    -21.3962E+06    -48.1526E+06    -13.8880E+06     7.66711E+06    -64.0133E-03     104.330E-03    -40.3163E-03     35.0608E-03    -64.2134E-03     104.324E-03    -40.2849E-03     34.4656E-03
            2275     10.3929E-03     10.4035E-03    -22.2206E+06    -72.0429E+06    -11.6668E+06     7.32056E+06    -58.6247E-03     97.2516E-03    -38.6270E-03     25.3049E-03    -58.7191E-03     97.0461E-03    -38.5486E-03     24.9180E-03
            2276     9.54259E-03     10.3634E-03    -23.6818E+06    -89.4784E+06    -10.2844E+06     7.15262E+06    -53.5337E-03     90.6116E-03    -37.0779E-03     18.7937E-03    -53.5691E-03     90.2756E-03    -36.9652E-03     18.5520E-03
            2277     8.68712E-03     10.3312E-03    -24.7361E+06    -102.601E+06    -8.85487E+06     6.84585E+06    -49.0131E-03     84.6948E-03    -35.6817E-03     13.9122E-03    -49.0123E-03     84.2680E-03    -35.5414E-03     13.7653E-03
            2278     7.82878E-03     10.3054E-03    -26.1057E+06    -111.946E+06    -8.53542E+06     6.87086E+06    -44.9028E-03     79.3395E-03    -34.4367E-03     10.7788E-03    -44.8815E-03     78.8532E-03    -34.2792E-03     10.7010E-03
            2279     6.96655E-03     10.2835E-03    -28.3550E+06    -119.331E+06    -9.46799E+06     7.05210E+06    -41.2885E-03     74.6392E-03    -33.3507E-03     8.65554E-03    -41.2579E-03     74.1118E-03    -33.1839E-03     8.62804E-03
            2280     6.10155E-03     10.2656E-03    -30.0646E+06    -122.370E+06    -11.2231E+06     6.88285E+06    -38.2475E-03     70.6632E-03    -32.4156E-03     7.18567E-03    -38.2132E-03     70.1203E-03    -32.2507E-03     7.18923E-03
            2281     5.23404E-03     10.2503E-03    -30.9894E+06    -122.505E+06    -13.9143E+06     5.97445E+06    -35.7173E-03     67.3415E-03    -31.6242E-03     6.17633E-03    -35.6802E-03     66.7998E-03    -31.4712E-03     6.19192E-03
            2282     4.36447E-03     10.2377E-03    -31.8260E+06    -123.450E+06    -17.5607E+06     4.68205E+06    -33.6787E-03     64.6539E-03    -30.9753E-03     5.33693E-03    -33.6369E-03     64.1118E-03    -30.8379E-03     5.35311E-03
            2283     3.49334E-03     10.2274E-03    -32.7876E+06    -125.420E+06    -22.2823E+06     3.75175E+06    -32.1062E-03     62.5653E-03    -30.4592E-03     4.46498E-03    -32.0581E-03     62.0201E-03    -30.3412E-03     4.48194E-03
            2284     2.62092E-03     10.2190E-03    -33.3337E+06    -127.100E+06    -26.4371E+06     2.89795E+06    -30.9597E-03     61.0289E-03    -30.0693E-03     3.51449E-03    -30.9049E-03     60.4811E-03    -29.9688E-03     3.53032E-03
            2285     1.74781E-03     10.2133E-03    -33.9299E+06    -128.994E+06    -30.6198E+06     1.84974E+06    -30.1778E-03     59.9708E-03    -29.7930E-03     2.47661E-03    -30.1166E-03     59.4199E-03    -29.7098E-03     2.48691E-03
            2286     873.929E-06     10.2091E-03    -34.5015E+06    -130.413E+06    -33.6099E+06     962.792E+03    -29.7299E-03     59.3508E-03    -29.6209E-03     1.36807E-03    -29.6648E-03     58.7977E-03    -29.5498E-03     1.37346E-03
            2287     16.2204E-03     10.2125E-03    -3.35270E+06     135.507E+06     96.9389E+06     855.790E+03    -102.379E-03     155.174E-03    -52.7948E-03     147.703E-03    -108.194E-03     161.177E-03    -52.5018E-03     144.230E-03
            2288     15.4123E-03     9.93645E-03    -8.96980E+06     128.811E+06     88.4686E+06     1.08796E+06    -105.183E-03     155.431E-03    -50.2482E-03     212.458E-03    -112.474E-03     162.893E-03    -49.9797E-03     207.135E-03
            2289     14.5921E-03     9.74160E-03    -13.7035E+06     98.0749E+06     48.9323E+06     3.33046E+06    -93.7942E-03     141.303E-03    -47.5086E-03     140.891E-03    -96.8755E-03     144.544E-03    -47.3862E-03     137.301E-03
            2290     13.7692E-03     9.60873E-03    -18.0804E+06     69.6104E+06     3.25747E+06     6.20923E+06    -83.5919E-03     128.500E-03    -44.9080E-03     87.5492E-03    -84.8569E-03     129.940E-03    -44.9665E-03     85.4895E-03
            2291     12.9372E-03     9.52357E-03    -21.0118E+06     32.9085E+06    -18.5425E+06     8.44269E+06    -75.1757E-03     117.812E-03    -42.6362E-03     57.1573E-03    -75.8148E-03     118.548E-03    -42.7461E-03     55.8794E-03
            2292     12.0991E-03     9.45592E-03    -22.3708E+06    -10.6138E+06    -17.3764E+06     8.82536E+06    -68.6203E-03     109.283E-03    -40.6624E-03     42.5599E-03    -68.9748E-03     109.572E-03    -40.7014E-03     41.7404E-03
            2293     11.2562E-03     9.40137E-03    -23.7798E+06    -45.9617E+06    -13.2421E+06     8.07905E+06    -62.5919E-03     101.438E-03    -38.8459E-03     30.9247E-03    -62.7861E-03     101.424E-03    -38.8110E-03     30.3899E-03
            2294     10.4092E-03     9.36072E-03    -24.9999E+06    -70.1113E+06    -10.5193E+06     7.15043E+06    -56.9201E-03     94.0885E-03    -37.1683E-03     22.4677E-03    -57.0215E-03     93.8834E-03    -37.0830E-03     22.1196E-03
            2295     9.55643E-03     9.32824E-03    -25.5896E+06    -87.7700E+06    -8.25419E+06     6.41097E+06    -51.5460E-03     87.2068E-03    -35.6609E-03     17.4205E-03    -51.5911E-03     86.8741E-03    -35.5378E-03     17.1988E-03
            2296     8.69991E-03     9.30212E-03    -26.3140E+06    -101.383E+06    -6.59430E+06     5.85480E+06    -46.7979E-03     81.1366E-03    -34.3387E-03     13.7957E-03    -46.8078E-03     80.7127E-03    -34.1865E-03     13.6583E-03
            2297     7.83898E-03     9.28142E-03    -27.4324E+06    -111.609E+06    -5.32796E+06     5.92159E+06    -42.8536E-03     76.0443E-03    -33.1907E-03     11.4593E-03    -42.8436E-03     75.5564E-03    -33.0158E-03     11.3833E-03
            2298     6.97527E-03     9.26457E-03    -28.4780E+06    -117.980E+06    -6.15454E+06     6.00450E+06    -39.4515E-03     71.6438E-03    -32.1923E-03     10.0826E-03    -39.4284E-03     71.1188E-03    -32.0107E-03     10.0505E-03
            2299     6.10849E-03     9.25031E-03    -29.5947E+06    -120.229E+06    -8.86595E+06     4.86297E+06    -36.6143E-03     67.9506E-03    -31.3363E-03     9.06735E-03    -36.5846E-03     67.4148E-03    -31.1634E-03     9.05046E-03
            2300     5.23962E-03     9.23846E-03    -30.5905E+06    -120.158E+06    -11.3819E+06     3.41557E+06    -34.3280E-03     64.9491E-03    -30.6211E-03     8.20067E-03    -34.2964E-03     64.4154E-03    -30.4594E-03     8.18660E-03
            2301     4.36882E-03     9.22837E-03    -31.5625E+06    -121.497E+06    -15.5356E+06     2.39201E+06    -32.5006E-03     62.5292E-03    -30.0286E-03     7.26673E-03    -32.4636E-03     61.9940E-03    -29.8844E-03     7.25532E-03
            2302     3.49669E-03     9.21994E-03    -32.3821E+06    -123.750E+06    -20.7064E+06     1.45671E+06    -31.0776E-03     60.6287E-03    -29.5510E-03     6.18421E-03    -31.0324E-03     60.0892E-03    -29.4282E-03     6.17280E-03
            2303     2.62342E-03     9.21334E-03    -33.1929E+06    -125.713E+06    -25.2328E+06     789.736E+03    -30.0241E-03     59.2094E-03    -29.1853E-03     4.92029E-03    -29.9725E-03     58.6668E-03    -29.0810E-03     4.90975E-03
            2304     1.74938E-03     9.20816E-03    -33.7761E+06    -127.582E+06    -29.6146E+06     607.188E+03    -29.2922E-03     58.2122E-03    -28.9200E-03     3.44932E-03    -29.2337E-03     57.6667E-03    -28.8341E-03     3.44408E-03
            2305     874.840E-06     9.20542E-03    -34.1793E+06    -129.025E+06    -32.9351E+06     304.096E+03    -28.8590E-03     57.6063E-03    -28.7473E-03     1.90008E-03    -28.7952E-03     57.0587E-03    -28.6753E-03     1.89720E-03
            2306     16.2357E-03     9.10519E-03    -4.59324E+06     134.399E+06     96.7126E+06    -42.2114E+03    -109.473E-03     161.816E-03    -52.3430E-03     147.053E-03    -115.038E-03     167.563E-03    -52.0477E-03     143.078E-03
            2307     15.4221E-03     8.83595E-03    -8.91116E+06     126.774E+06     88.2152E+06     1.74825E+06    -108.179E-03     157.664E-03    -49.4850E-03     203.572E-03    -114.961E-03     164.611E-03    -49.2148E-03     198.065E-03
            2308     14.6105E-03     8.65280E-03    -14.8141E+06     95.1813E+06     48.6642E+06     5.41738E+06    -96.0279E-03     142.562E-03    -46.5338E-03     131.573E-03    -98.8240E-03     145.505E-03    -46.4070E-03     128.029E-03
            2309     13.7848E-03     8.53532E-03    -19.2400E+06     67.0471E+06     4.83263E+06     8.93588E+06    -83.6237E-03     127.425E-03    -43.8014E-03     79.4711E-03    -84.7460E-03     128.706E-03    -43.8465E-03     77.5729E-03
            2310     12.9517E-03     8.45914E-03    -22.3418E+06     33.4451E+06    -17.5142E+06     11.0565E+06    -74.1789E-03     115.655E-03    -41.4764E-03     52.3587E-03    -74.7601E-03     116.328E-03    -41.5801E-03     51.2232E-03
            2311     12.1142E-03     8.40020E-03    -25.1819E+06    -7.08643E+06    -16.5042E+06     10.2396E+06    -67.1154E-03     106.622E-03    -39.5062E-03     39.1376E-03    -67.4581E-03     106.899E-03    -39.5420E-03     38.4132E-03
            2312     11.2700E-03     8.35515E-03    -26.8060E+06    -42.7759E+06    -10.9385E+06     8.08715E+06    -60.1958E-03     97.9564E-03    -37.7606E-03     29.0156E-03    -60.3949E-03     97.9413E-03    -37.7144E-03     28.5461E-03
            2313     10.4193E-03     8.32134E-03    -27.2127E+06    -67.7899E+06    -7.52544E+06     5.86664E+06    -54.1516E-03     90.3647E-03    -36.2131E-03     22.3994E-03    -54.2636E-03     90.1620E-03    -36.1130E-03     22.0835E-03
            2314     9.56524E-03     8.29626E-03    -27.3727E+06    -86.0412E+06    -4.53589E+06     4.48498E+06    -48.9921E-03     83.8582E-03    -34.8661E-03     18.4851E-03    -49.0510E-03     83.5283E-03    -34.7244E-03     18.2695E-03
            2315     8.70572E-03     8.27646E-03    -27.7142E+06    -100.261E+06    -2.87317E+06     4.00698E+06    -44.4703E-03     78.1808E-03    -33.7106E-03     16.3245E-03    -44.4937E-03     77.7587E-03    -33.5394E-03     16.1841E-03
            2316     7.84323E-03     8.26058E-03    -28.2586E+06    -111.300E+06    -1.27780E+06     3.81533E+06    -40.8514E-03     73.5880E-03    -32.7366E-03     14.6948E-03    -40.8522E-03     73.0974E-03    -32.5406E-03     14.6051E-03
            2317     6.97754E-03     8.24796E-03    -29.0106E+06    -116.562E+06    -1.97852E+06     3.37690E+06    -37.9466E-03     69.8454E-03    -31.8988E-03     13.6076E-03    -37.9351E-03     69.3230E-03    -31.6976E-03     13.5492E-03
            2318     6.10979E-03     8.23725E-03    -29.4764E+06    -117.687E+06    -5.41793E+06     2.00841E+06    -35.5780E-03     66.7529E-03    -31.1749E-03     12.6701E-03    -35.5571E-03     66.2254E-03    -30.9886E-03     12.6208E-03
            2319     5.23996E-03     8.22812E-03    -30.0362E+06    -118.587E+06    -9.18655E+06     578.527E+03    -33.6804E-03     64.2471E-03    -30.5668E-03     11.5991E-03    -33.6520E-03     63.7179E-03    -30.3972E-03     11.5510E-03
            2320     4.36888E-03     8.22021E-03    -30.8300E+06    -120.384E+06    -13.9643E+06    -334.490E+03    -32.1717E-03     62.2297E-03    -30.0580E-03     10.2958E-03    -32.1353E-03     61.6970E-03    -29.9086E-03     10.2508E-03
            2321     3.49643E-03     8.21373E-03    -31.8514E+06    -122.952E+06    -19.4561E+06    -858.407E+03    -30.9812E-03     60.6208E-03    -29.6396E-03     8.74106E-03    -30.9365E-03     60.0830E-03    -29.5124E-03     8.70094E-03
            2322     2.62319E-03     8.20819E-03    -32.9853E+06    -125.530E+06    -24.7296E+06    -1.13386E+06    -30.0651E-03     59.3745E-03    -29.3093E-03     6.89733E-03    -30.0136E-03     58.8318E-03    -29.2031E-03     6.86287E-03
            2323     1.74914E-03     8.20439E-03    -33.9542E+06    -127.904E+06    -29.5922E+06    -1.11664E+06    -29.4110E-03     58.4747E-03    -29.0638E-03     4.80367E-03    -29.3530E-03     57.9279E-03    -28.9770E-03     4.77681E-03
            2324     874.756E-06     8.20156E-03    -34.3830E+06    -129.299E+06    -32.8007E+06    -638.534E+03    -29.0158E-03     57.9065E-03    -28.8907E-03     2.68081E-03    -28.9528E-03     57.3576E-03    -28.8174E-03     2.66616E-03
            2325     16.2367E-03     7.98977E-03    -4.83856E+06     132.523E+06     95.8970E+06    -321.250E+03    -115.131E-03     167.154E-03    -52.0229E-03     145.834E-03    -120.451E-03     172.650E-03    -51.7286E-03     141.379E-03
            2326     15.4348E-03     7.73243E-03    -9.33024E+06     123.259E+06     87.6716E+06     3.20108E+06    -111.993E-03     160.892E-03    -48.8988E-03     195.657E-03    -118.279E-03     167.332E-03    -48.6257E-03     189.942E-03
            2327     14.6182E-03     7.56174E-03    -15.8789E+06     91.6465E+06     50.1783E+06     7.87891E+06    -96.9730E-03     142.750E-03    -45.7773E-03     119.715E-03    -99.4274E-03     145.332E-03    -45.6363E-03     116.353E-03
            2328     13.7973E-03     7.46128E-03    -21.9639E+06     62.8014E+06     6.99298E+06     11.9938E+06    -82.6277E-03     125.619E-03    -42.9913E-03     70.5131E-03    -83.6031E-03     126.722E-03    -43.0155E-03     68.8379E-03
            2329     12.9641E-03     7.39832E-03    -26.6365E+06     34.7295E+06    -15.0457E+06     14.5115E+06    -72.0233E-03     112.729E-03    -40.7058E-03     48.9519E-03    -72.5698E-03     113.350E-03    -40.7928E-03     47.9931E-03
            2330     12.1227E-03     7.34626E-03    -29.3376E+06    -405.747E+03    -12.6636E+06     11.5929E+06    -64.1411E-03     103.002E-03    -38.8607E-03     38.2747E-03    -64.4908E-03     103.284E-03    -38.8809E-03     37.6697E-03
            2331     11.2759E-03     7.31299E-03    -30.0445E+06    -37.4222E+06    -6.08035E+06     6.36233E+06    -57.0079E-03     94.3144E-03    -37.3065E-03     29.5986E-03    -57.2238E-03     94.3095E-03    -37.2391E-03     29.1776E-03
            2332     10.4231E-03     7.28581E-03    -29.4933E+06    -64.9783E+06    -2.71050E+06     3.06818E+06    -50.7538E-03     86.7497E-03    -35.9959E-03     25.2854E-03    -50.8821E-03     86.5513E-03    -35.8725E-03     24.9854E-03
            2333     9.56480E-03     7.26769E-03    -28.8030E+06    -84.9219E+06     380.626E+03     1.29648E+06    -46.0719E-03     80.9870E-03    -34.9151E-03     22.5512E-03    -46.1447E-03     80.6555E-03    -34.7483E-03     22.3278E-03
            2334     8.70380E-03     7.25300E-03    -28.5850E+06    -99.8244E+06     2.56014E+06     881.064E+03    -42.3625E-03     76.3766E-03    -34.0141E-03     21.0667E-03    -42.3987E-03     75.9499E-03    -33.8151E-03     20.9049E-03
            2335     7.83918E-03     7.24181E-03    -28.7791E+06    -110.807E+06     3.19938E+06     636.696E+03    -39.3765E-03     72.6387E-03    -33.2622E-03     19.8848E-03    -39.3877E-03     72.1453E-03    -33.0438E-03     19.7658E-03
            2336     6.97266E-03     7.23219E-03    -28.9706E+06    -114.902E+06     1.48269E+06    -440.001E+03    -37.1488E-03     69.7675E-03    -32.6187E-03     18.6757E-03    -37.1451E-03     69.2489E-03    -32.4027E-03     18.5748E-03
            2337     6.10428E-03     7.22445E-03    -29.2040E+06    -116.030E+06    -2.44834E+06    -1.79527E+06    -35.3966E-03     67.4558E-03    -32.0592E-03     17.3797E-03    -35.3816E-03     66.9324E-03    -31.8609E-03     17.2850E-03
            2338     5.23475E-03     7.21734E-03    -29.6029E+06    -117.854E+06    -7.41033E+06    -2.81667E+06    -33.9713E-03     65.5505E-03    -31.5792E-03     15.8112E-03    -33.9448E-03     65.0219E-03    -31.4025E-03     15.7217E-03
            2339     4.36382E-03     7.21147E-03    -30.3857E+06    -120.563E+06    -13.2094E+06    -3.11697E+06    -32.8240E-03     63.9947E-03    -31.1707E-03     13.8959E-03    -32.7864E-03     63.4594E-03    -31.0179E-03     13.8168E-03
            2340     3.49227E-03     7.20614E-03    -31.5778E+06    -123.404E+06    -18.7574E+06    -3.00589E+06    -31.9043E-03     62.7349E-03    -30.8306E-03     11.6767E-03    -31.8587E-03     62.1934E-03    -30.6997E-03     11.6104E-03
            2341     2.61983E-03     7.20211E-03    -32.9084E+06    -126.420E+06    -24.3731E+06    -2.83184E+06    -31.1753E-03     61.7292E-03    -30.5539E-03     9.14833E-03    -31.1226E-03     61.1814E-03    -30.4448E-03     9.09324E-03
            2342     1.74699E-03     7.19876E-03    -34.0906E+06    -129.572E+06    -30.1595E+06    -2.34542E+06    -30.6307E-03     60.9726E-03    -30.3419E-03     6.34073E-03    -30.5702E-03     60.4183E-03    -30.2554E-03     6.29898E-03
            2343     873.517E-06     7.19705E-03    -34.9850E+06    -131.601E+06    -33.8750E+06    -1.45504E+06    -30.2719E-03     60.4935E-03    -30.2216E-03     3.52543E-03    -30.2072E-03     59.9354E-03    -30.1494E-03     3.50079E-03
            2344     16.2407E-03     6.86890E-03    -4.55671E+06     129.669E+06     94.3527E+06     698.700E+03    -120.035E-03     171.892E-03    -51.8571E-03     142.479E-03    -124.904E-03     176.932E-03    -51.5668E-03     137.665E-03
            2345     15.4375E-03     6.61847E-03    -11.7170E+06     117.676E+06     84.9203E+06     5.01704E+06    -115.237E-03     163.731E-03    -48.4938E-03     181.462E-03    -120.775E-03     169.404E-03    -48.2228E-03     175.699E-03
            2346     14.6320E-03     6.47310E-03    -19.8031E+06     86.3082E+06     52.3438E+06     10.4617E+06    -95.7829E-03     141.073E-03    -45.2901E-03     105.121E-03    -97.8608E-03     143.240E-03    -45.1248E-03     102.096E-03
            2347     13.8034E-03     6.38957E-03    -25.8670E+06     58.5313E+06     15.6285E+06     15.7448E+06    -79.3131E-03     121.934E-03    -42.6206E-03     63.0840E-03    -80.1609E-03     122.855E-03    -42.5898E-03     61.7190E-03
            2348     12.9671E-03     6.33928E-03    -29.2686E+06     38.4418E+06    -4.26421E+06     16.4422E+06    -68.1265E-03     108.661E-03    -40.5345E-03     47.5626E-03    -68.6487E-03     109.230E-03    -40.5692E-03     46.7971E-03
            2349     12.1229E-03     6.29876E-03    -29.9573E+06     8.67006E+06    -2.50043E+06     10.8307E+06    -59.7438E-03     98.6949E-03    -38.9511E-03     40.0438E-03    -60.0984E-03     98.9826E-03    -38.9328E-03     39.5451E-03
            2350     11.2723E-03     6.27190E-03    -29.9865E+06    -30.5258E+06     3.22059E+06     3.67213E+06    -52.8686E-03     90.5898E-03    -37.7212E-03     33.3176E-03    -53.0937E-03     90.5918E-03    -37.6174E-03     32.9415E-03
            2351     10.4158E-03     6.25562E-03    -29.9687E+06    -61.8057E+06     4.89431E+06    -983.840E+03    -47.5323E-03     84.2716E-03    -36.7393E-03     30.9916E-03    -47.6736E-03     84.0736E-03    -36.5818E-03     30.6867E-03
            2352     9.55528E-03     6.24032E-03    -29.3902E+06    -84.3162E+06     7.16844E+06    -2.94557E+06    -43.5847E-03     79.5598E-03    -35.9751E-03     29.0297E-03    -43.6690E-03     79.2201E-03    -35.7744E-03     28.7821E-03
            2353     8.69195E-03     6.23123E-03    -28.9926E+06    -100.161E+06     9.39656E+06    -3.47185E+06    -40.8684E-03     76.2370E-03    -35.3687E-03     27.6121E-03    -40.9154E-03     75.7986E-03    -35.1344E-03     27.4118E-03
            2354     7.82686E-03     6.22237E-03    -28.6131E+06    -110.181E+06     8.35418E+06    -4.03897E+06    -38.9134E-03     73.7658E-03    -34.8524E-03     26.2598E-03    -38.9322E-03     73.2676E-03    -34.6094E-03     26.0904E-03
            2355     6.96008E-03     6.21586E-03    -28.1273E+06    -113.855E+06     3.87957E+06    -5.11834E+06    -37.4060E-03     71.8002E-03    -34.3942E-03     24.4922E-03    -37.4032E-03     71.2819E-03    -34.1689E-03     24.3372E-03
            2356     6.09233E-03     6.20940E-03    -27.9607E+06    -115.829E+06    -1.34066E+06    -5.90727E+06    -36.2701E-03     70.2635E-03    -33.9935E-03     22.4503E-03    -36.2508E-03     69.7374E-03    -33.7917E-03     22.3067E-03
            2357     5.22356E-03     6.20445E-03    -28.6128E+06    -118.567E+06    -7.08448E+06    -5.99964E+06    -35.3352E-03     68.9757E-03    -33.6406E-03     20.0448E-03    -35.3032E-03     68.4414E-03    -33.4626E-03     19.9172E-03
            2358     4.35430E-03     6.19943E-03    -29.7083E+06    -122.053E+06    -13.5494E+06    -5.66316E+06    -34.5239E-03     67.8550E-03    -33.3311E-03     17.3567E-03    -34.4803E-03     67.3115E-03    -33.1788E-03     17.2471E-03
            2359     3.48416E-03     6.19568E-03    -30.9203E+06    -125.262E+06    -19.3130E+06    -4.93590E+06    -33.8490E-03     66.9205E-03    -33.0715E-03     14.3926E-03    -33.7967E-03     66.3692E-03    -32.9416E-03     14.3033E-03
            2360     2.61364E-03     6.19209E-03    -32.5324E+06    -128.642E+06    -25.0645E+06    -3.96826E+06    -33.3071E-03     66.1674E-03    -32.8603E-03     11.1385E-03    -33.2485E-03     65.6087E-03    -32.7519E-03     11.0702E-03
            2361     1.74260E-03     6.18990E-03    -34.2925E+06    -132.323E+06    -31.0172E+06    -2.74884E+06    -32.9031E-03     65.6023E-03    -32.6992E-03     7.66410E-03    -32.8386E-03     65.0356E-03    -32.6127E-03     7.61816E-03
            2362     871.457E-06     6.18814E-03    -35.5651E+06    -134.665E+06    -34.7573E+06    -1.41739E+06    -32.6465E-03     65.2530E-03    -32.6065E-03     4.23880E-03    -32.5792E-03     64.6815E-03    -32.5335E-03     4.21526E-03
            2363     16.2400E-03     5.73581E-03    -5.56526E+06     125.871E+06     91.2460E+06     2.53488E+06    -124.364E-03     176.186E-03    -51.8219E-03     140.317E-03    -128.752E-03     180.739E-03    -51.5401E-03     135.370E-03
            2364     15.4480E-03     5.50445E-03    -14.6275E+06     110.586E+06     80.8364E+06     8.42349E+06    -114.609E-03     162.959E-03    -48.3495E-03     168.399E-03    -119.335E-03     167.796E-03    -48.0845E-03     163.077E-03
            2365     14.6301E-03     5.38553E-03    -22.3446E+06     80.3204E+06     55.1438E+06     14.1990E+06    -92.2841E-03     137.550E-03    -45.2658E-03     92.4948E-03    -93.9778E-03     139.295E-03    -45.0742E-03     89.9792E-03
            2366     13.8031E-03     5.32306E-03    -26.8243E+06     57.2564E+06     29.3790E+06     17.1436E+06    -73.8011E-03     116.701E-03    -42.8994E-03     58.8140E-03    -74.5354E-03     117.461E-03    -42.7967E-03     57.7698E-03
            2367     12.9609E-03     5.28548E-03    -28.1811E+06     44.9915E+06     13.6291E+06     14.5075E+06    -62.5374E-03     103.727E-03    -41.1893E-03     50.7384E-03    -63.0417E-03     104.253E-03    -41.1456E-03     50.1324E-03
            2368     12.1122E-03     5.25357E-03    -27.3874E+06     18.5274E+06     11.8480E+06     7.55086E+06    -54.7414E-03     94.7293E-03    -39.9878E-03     44.5358E-03    -55.0906E-03     95.0141E-03    -39.9157E-03     44.1115E-03
            2369     11.2559E-03     5.23808E-03    -27.0321E+06    -23.7647E+06     14.4731E+06     325.477E+03    -48.5735E-03     87.7397E-03    -39.1662E-03     40.3182E-03    -48.7950E-03     87.7398E-03    -39.0202E-03     39.9779E-03
            2370     10.3968E-03     5.22322E-03    -27.7599E+06    -58.8522E+06     14.4955E+06    -4.60752E+06    -45.0036E-03     83.5731E-03    -38.5694E-03     38.8599E-03    -45.1461E-03     83.3666E-03    -38.3714E-03     38.5504E-03
            2371     9.53523E-03     5.21588E-03    -28.5544E+06    -83.3660E+06     15.2943E+06    -7.38334E+06    -42.4517E-03     80.5692E-03    -38.1175E-03     36.9168E-03    -42.5415E-03     80.2175E-03    -37.8787E-03     36.6377E-03
            2372     8.67081E-03     5.20689E-03    -28.4831E+06    -100.641E+06     15.4883E+06    -8.86601E+06    -40.7802E-03     78.5419E-03    -37.7617E-03     34.9757E-03    -40.8308E-03     78.0890E-03    -37.4970E-03     34.7224E-03
            2373     7.80608E-03     5.20139E-03    -27.9958E+06    -110.279E+06     11.2861E+06    -9.76580E+06    -39.7787E-03     77.2151E-03    -37.4364E-03     32.3798E-03    -39.7970E-03     76.7094E-03    -37.1795E-03     32.1468E-03
            2374     6.94051E-03     5.19537E-03    -27.1721E+06    -114.267E+06     3.94500E+06    -10.3970E+06    -38.9849E-03     76.1072E-03    -37.1223E-03     29.7118E-03    -38.9759E-03     75.5840E-03    -36.8975E-03     29.4957E-03
            2375     6.07434E-03     5.19101E-03    -26.6301E+06    -117.784E+06    -2.96082E+06    -10.0741E+06    -38.3270E-03     75.1644E-03    -36.8374E-03     26.5971E-03    -38.2952E-03     74.6278E-03    -36.6428E-03     26.4048E-03
            2376     5.20780E-03     5.18623E-03    -26.7913E+06    -121.095E+06    -9.02337E+06    -8.71089E+06    -37.7387E-03     74.3199E-03    -36.5812E-03     23.3468E-03    -37.6907E-03     73.7722E-03    -36.4119E-03     23.1880E-03
            2377     4.34063E-03     5.18300E-03    -27.9822E+06    -124.721E+06    -15.0548E+06    -7.27680E+06    -37.2336E-03     73.5822E-03    -36.3486E-03     19.8567E-03    -37.1751E-03     73.0244E-03    -36.2025E-03     19.7290E-03
            2378     3.47313E-03     5.17939E-03    -29.9037E+06    -128.432E+06    -20.9716E+06    -5.93128E+06    -36.7295E-03     72.8742E-03    -36.1447E-03     16.1667E-03    -36.6650E-03     72.3075E-03    -36.0200E-03     16.0665E-03
            2379     2.60519E-03     5.17708E-03    -31.9397E+06    -132.107E+06    -26.5486E+06    -4.08953E+06    -36.3038E-03     72.2850E-03    -35.9812E-03     12.3506E-03    -36.2350E-03     71.7098E-03    -35.8761E-03     12.2820E-03
            2380     1.73698E-03     5.17488E-03    -33.8995E+06    -135.394E+06    -31.4561E+06    -2.38596E+06    -36.0217E-03     71.8782E-03    -35.8565E-03     8.39351E-03    -35.9502E-03     71.2959E-03    -35.7683E-03     8.35299E-03
            2381     868.474E-06     5.17388E-03    -35.3374E+06    -137.495E+06    -34.5963E+06    -1.17957E+06    -35.8454E-03     71.5922E-03    -35.7468E-03     4.55868E-03    -35.7732E-03     71.0059E-03    -35.6692E-03     4.53849E-03
            2382     16.2436E-03     4.59951E-03    -7.23053E+06     119.951E+06     85.5940E+06     5.93738E+06    -128.835E-03     181.042E-03    -52.2068E-03     144.716E-03    -132.799E-03     185.159E-03    -51.9422E-03     139.596E-03
            2383     15.4356E-03     4.39508E-03    -15.0579E+06     102.756E+06     76.8396E+06     11.4095E+06    -113.292E-03     161.969E-03    -48.6764E-03     149.721E-03    -117.087E-03     165.860E-03    -48.4194E-03     144.953E-03
            2384     14.6253E-03     4.29578E-03    -19.1098E+06     76.8119E+06     60.9375E+06     15.6585E+06    -83.5203E-03     129.434E-03    -45.9137E-03     77.4958E-03    -84.7548E-03     130.704E-03    -45.6927E-03     75.6673E-03
            2385     13.7880E-03     4.26829E-03    -22.0716E+06     60.0314E+06     44.0212E+06     15.2280E+06    -65.6806E-03     109.791E-03    -44.1100E-03     61.4243E-03    -66.3158E-03     110.436E-03    -43.9449E-03     60.6640E-03
            2386     12.9394E-03     4.23236E-03    -22.9101E+06     52.9499E+06     30.1997E+06     10.3870E+06    -56.7472E-03     99.6649E-03    -42.9178E-03     59.0414E-03    -57.2170E-03     100.156E-03    -42.8103E-03     58.5485E-03
            2387     12.0864E-03     4.21509E-03    -22.7643E+06     27.0817E+06     23.6670E+06     3.39820E+06    -50.2432E-03     92.4016E-03    -42.1583E-03     53.4182E-03    -50.5683E-03     92.6746E-03    -42.0462E-03     53.0511E-03
            2388     11.2280E-03     4.20314E-03    -23.4904E+06    -18.3854E+06     21.9107E+06    -2.84911E+06    -46.4830E-03     88.1990E-03    -41.7160E-03     50.1119E-03    -46.6920E-03     88.1958E-03    -41.5457E-03     49.7907E-03
            2389     10.3664E-03     4.19319E-03    -24.7302E+06    -55.8015E+06     20.4086E+06    -7.52142E+06    -44.3348E-03     85.7581E-03    -41.4233E-03     47.0345E-03    -44.4648E-03     85.5427E-03    -41.2045E-03     46.7286E-03
            2390     9.50396E-03     4.18613E-03    -26.0899E+06    -81.5749E+06     19.2253E+06    -11.4889E+06    -43.4084E-03     84.6018E-03    -41.1933E-03     43.6783E-03    -43.4877E-03     84.2424E-03    -40.9411E-03     43.3709E-03
            2391     8.64222E-03     4.18014E-03    -26.4448E+06    -100.707E+06     16.2798E+06    -14.5720E+06    -42.7901E-03     83.7615E-03    -40.9714E-03     39.9876E-03    -42.8268E-03     83.2988E-03    -40.7056E-03     39.6769E-03
            2392     7.77910E-03     4.17442E-03    -25.3667E+06    -111.651E+06     9.09855E+06    -15.7663E+06    -42.1931E-03     82.9288E-03    -40.7356E-03     36.1509E-03    -42.1896E-03     82.4115E-03    -40.4915E-03     35.8533E-03
            2393     6.91603E-03     4.17008E-03    -24.4743E+06    -117.058E+06     136.632E+03    -15.1338E+06    -41.8401E-03     82.3354E-03    -40.4953E-03     32.2450E-03    -41.8056E-03     81.7970E-03    -40.2893E-03     31.9765E-03
            2394     6.05273E-03     4.16559E-03    -24.5754E+06    -121.942E+06    -7.67930E+06    -13.2553E+06    -41.4057E-03     81.6726E-03    -40.2669E-03     28.3274E-03    -41.3492E-03     81.1172E-03    -40.0929E-03     28.1006E-03
            2395     5.18880E-03     4.16265E-03    -25.3911E+06    -125.775E+06    -13.4086E+06    -10.6199E+06    -41.0146E-03     81.0727E-03    -40.0581E-03     24.4327E-03    -40.9455E-03     80.5047E-03    -39.9059E-03     24.2537E-03
            2396     4.32475E-03     4.15891E-03    -26.6800E+06    -128.918E+06    -17.9376E+06    -7.79739E+06    -40.6082E-03     80.4743E-03    -39.8661E-03     20.4188E-03    -40.5324E-03     79.8970E-03    -39.7301E-03     20.2873E-03
            2397     3.46047E-03     4.15697E-03    -28.7459E+06    -132.370E+06    -22.7893E+06    -5.31474E+06    -40.2095E-03     79.9019E-03    -39.6925E-03     16.4514E-03    -40.1306E-03     79.3161E-03    -39.5728E-03     16.3608E-03
            2398     2.59558E-03     4.15458E-03    -31.0693E+06    -135.731E+06    -27.5415E+06    -3.35627E+06    -39.8598E-03     79.4047E-03    -39.5449E-03     12.4810E-03    -39.7799E-03     78.8114E-03    -39.4408E-03     12.4229E-03
            2399     1.73060E-03     4.15323E-03    -32.7763E+06    -138.217E+06    -31.1941E+06    -1.83639E+06    -39.5846E-03     79.0155E-03    -39.4309E-03     8.43433E-03    -39.5038E-03     78.4170E-03    -39.3389E-03     8.40143E-03
            2400     865.469E-06     4.15211E-03    -33.8163E+06    -139.706E+06    -33.4539E+06    -834.999E+03    -39.4155E-03     78.7555E-03    -39.3400E-03     4.56536E-03    -39.3341E-03     78.1541E-03    -39.2557E-03     4.54984E-03
            2401     16.2107E-03     3.44557E-03    -6.33166E+06     113.611E+06     81.4541E+06     9.32230E+06    -132.934E-03     185.953E-03    -53.0194E-03     132.014E-03    -135.997E-03     189.167E-03    -52.7677E-03     127.134E-03
            2402     15.4378E-03     3.26989E-03    -10.9946E+06     96.2440E+06     75.9285E+06     12.2244E+06    -101.658E-03     151.357E-03    -49.6988E-03     122.362E-03    -104.215E-03     154.010E-03    -49.4428E-03     118.763E-03
            2403     14.6048E-03     3.24208E-03    -13.1783E+06     75.7683E+06     66.9582E+06     14.0371E+06    -69.7724E-03     117.451E-03    -47.6783E-03     78.5712E-03    -70.6505E-03     118.362E-03    -47.4342E-03     77.4413E-03
            2404     13.7514E-03     3.20661E-03    -13.6898E+06     66.5104E+06     55.9396E+06     10.7420E+06    -58.5424E-03     105.142E-03    -46.5998E-03     75.3873E-03    -59.0908E-03     105.717E-03    -46.3967E-03     74.8122E-03
            2405     12.9033E-03     3.18838E-03    -13.6469E+06     59.9043E+06     38.3625E+06     5.80942E+06    -53.3919E-03     99.2617E-03    -45.8698E-03     69.4027E-03    -53.7806E-03     99.7040E-03    -45.7450E-03     68.9975E-03
            2406     12.0433E-03     3.17572E-03    -15.9180E+06     32.4809E+06     22.5440E+06     1.42790E+06    -49.5946E-03     94.9914E-03    -45.3968E-03     62.2965E-03    -49.8575E-03     95.2467E-03    -45.3081E-03     61.9957E-03
            2407     11.1857E-03     3.16407E-03    -18.9492E+06    -13.7810E+06     15.8267E+06    -4.24983E+06    -48.1110E-03     93.2409E-03    -45.1299E-03     56.3434E-03    -48.2751E-03     93.2418E-03    -45.0033E-03     56.0566E-03
            2408     10.3277E-03     3.15938E-03    -20.3981E+06    -52.1523E+06     11.9188E+06    -10.2004E+06    -47.3992E-03     92.3083E-03    -44.9091E-03     50.2660E-03    -47.4853E-03     92.1007E-03    -44.7443E-03     49.9628E-03
            2409     9.46844E-03     3.15012E-03    -20.5536E+06    -78.9348E+06     8.06954E+06    -15.1058E+06    -46.7328E-03     91.4267E-03    -44.6940E-03     44.7997E-03    -46.7613E-03     91.0774E-03    -44.5094E-03     44.4735E-03
            2410     8.60951E-03     3.14592E-03    -20.5193E+06    -100.361E+06     4.33634E+06    -18.9902E+06    -46.3927E-03     90.8752E-03    -44.4825E-03     39.5460E-03    -46.3754E-03     90.4150E-03    -44.2856E-03     39.1989E-03
            2411     7.75013E-03     3.14109E-03    -20.3624E+06    -114.804E+06    -1.99326E+06    -19.9684E+06    -45.9770E-03     90.2251E-03    -44.2480E-03     35.0614E-03    -45.9228E-03     89.6956E-03    -44.0620E-03     34.7245E-03
            2412     6.89049E-03     3.13671E-03    -20.8812E+06    -123.048E+06    -9.09431E+06    -17.4939E+06    -45.4489E-03     89.4618E-03    -44.0130E-03     30.5392E-03    -45.3707E-03     88.8980E-03    -43.8498E-03     30.2520E-03
            2413     6.03011E-03     3.13395E-03    -22.1962E+06    -127.843E+06    -14.6919E+06    -13.7408E+06    -45.0438E-03     88.8372E-03    -43.7934E-03     26.4305E-03    -44.9543E-03     88.2566E-03    -43.6493E-03     26.2058E-03
            2414     5.16984E-03     3.13035E-03    -24.1985E+06    -131.591E+06    -19.1951E+06    -10.3839E+06    -44.6059E-03     88.1936E-03    -43.5877E-03     22.4771E-03    -44.5124E-03     87.6017E-03    -43.4578E-03     22.3071E-03
            2415     4.30903E-03     3.12859E-03    -26.2450E+06    -134.362E+06    -22.2359E+06    -7.13313E+06    -44.1418E-03     87.5480E-03    -43.4063E-03     18.6358E-03    -44.0487E-03     86.9483E-03    -43.2846E-03     18.5168E-03
            2416     3.44744E-03     3.12619E-03    -28.0521E+06    -136.537E+06    -24.7012E+06    -4.18299E+06    -43.7610E-03     87.0100E-03    -43.2490E-03     14.9026E-03    -43.6693E-03     86.4047E-03    -43.1338E-03     14.8292E-03
            2417     2.58618E-03     3.12502E-03    -29.6180E+06    -138.631E+06    -27.6232E+06    -2.26995E+06    -43.4317E-03     86.5429E-03    -43.1112E-03     11.2568E-03    -43.3399E-03     85.9329E-03    -43.0053E-03     11.2142E-03
            2418     1.72421E-03     3.12369E-03    -30.9435E+06    -140.370E+06    -30.1314E+06    -1.28366E+06    -43.1346E-03     86.1451E-03    -43.0105E-03     7.62423E-03    -43.0429E-03     85.5316E-03    -42.9128E-03     7.59936E-03
            2419     862.046E-06     3.12320E-03    -31.6790E+06    -141.303E+06    -31.4237E+06    -646.228E+03    -42.9807E-03     85.9398E-03    -42.9590E-03     4.17739E-03    -42.8892E-03     85.3244E-03    -42.8653E-03     4.16463E-03
            2420     16.2315E-03     2.27479E-03    -5.23227E+06     106.740E+06     80.4959E+06     9.82331E+06    -124.569E-03     179.721E-03    -55.1525E-03     138.933E-03    -126.837E-03     182.138E-03    -54.8972E-03     135.052E-03
            2421     15.3949E-03     2.20480E-03    -3.30593E+06     93.0618E+06     80.4981E+06     11.7984E+06    -84.0971E-03     136.636E-03    -52.5394E-03     127.934E-03    -85.6651E-03     138.293E-03    -52.2670E-03     125.875E-03
            2422     14.5433E-03     2.17452E-03    -6.09479E+06     79.4177E+06     73.3498E+06     9.91355E+06    -64.8143E-03     116.043E-03    -51.2290E-03     99.5947E-03    -65.4768E-03     116.751E-03    -50.9686E-03     98.8525E-03
            2423     13.7015E-03     2.15695E-03    -6.49948E+06     72.1809E+06     58.4269E+06     5.13974E+06    -60.7933E-03     111.185E-03    -50.3921E-03     87.3878E-03    -61.2175E-03     111.670E-03    -50.1952E-03     86.9268E-03
            2424     12.8432E-03     2.13656E-03    -6.64253E+06     62.0707E+06     31.1659E+06     3.47133E+06    -57.2113E-03     106.862E-03    -49.6505E-03     71.1793E-03    -57.4875E-03     107.241E-03    -49.5750E-03     70.8812E-03
            2425     11.9963E-03     2.12904E-03    -8.39901E+06     35.3997E+06     7.61019E+06     1.93961E+06    -54.9786E-03     104.053E-03    -49.0744E-03     59.3043E-03    -55.1441E-03     104.290E-03    -49.0755E-03     59.0933E-03
            2426     11.1415E-03     2.12011E-03    -10.3591E+06    -7.67876E+06    -4.01348E+06    -3.75412E+06    -53.6221E-03     102.274E-03    -48.6524E-03     50.5574E-03    -53.6949E-03     102.293E-03    -48.6463E-03     50.3375E-03
            2427     10.2885E-03     2.11210E-03    -11.9111E+06    -47.4787E+06    -12.5728E+06    -11.0809E+06    -52.6989E-03     100.973E-03    -48.2742E-03     43.0209E-03    -52.6956E-03     100.794E-03    -48.2510E-03     42.7487E-03
            2428     9.43556E-03     2.10872E-03    -12.0516E+06    -76.4129E+06    -18.6676E+06    -16.3069E+06    -51.6296E-03     99.5488E-03    -47.9192E-03     37.2833E-03    -51.5679E-03     99.2259E-03    -47.8843E-03     36.9755E-03
            2429     8.57937E-03     2.10284E-03    -13.0646E+06    -100.540E+06    -21.8230E+06    -18.8669E+06    -50.6033E-03     98.2166E-03    -47.6133E-03     32.1973E-03    -50.5018E-03     97.7741E-03    -47.5577E-03     31.8787E-03
            2430     7.72447E-03     2.09949E-03    -15.7744E+06    -119.626E+06    -23.4628E+06    -18.7842E+06    -49.8822E-03     97.2224E-03    -47.3402E-03     27.8034E-03    -49.7610E-03     96.6877E-03    -47.2612E-03     27.5019E-03
            2431     6.86769E-03     2.09691E-03    -18.4903E+06    -130.588E+06    -23.7920E+06    -15.8098E+06    -49.1239E-03     96.2086E-03    -47.0847E-03     24.0456E-03    -48.9975E-03     95.6212E-03    -46.9875E-03     23.7959E-03
            2432     6.01098E-03     2.09368E-03    -20.9639E+06    -134.762E+06    -24.2648E+06    -11.5083E+06    -48.4129E-03     95.2609E-03    -46.8480E-03     20.5424E-03    -48.2906E-03     94.6554E-03    -46.7435E-03     20.3583E-03
            2433     5.15326E-03     2.09220E-03    -23.3306E+06    -137.302E+06    -25.4563E+06    -7.74272E+06    -47.7810E-03     94.4184E-03    -46.6375E-03     17.3515E-03    -47.6639E-03     93.8044E-03    -46.5318E-03     17.2243E-03
            2434     4.29497E-03     2.09008E-03    -25.7806E+06    -139.171E+06    -26.5195E+06    -5.02376E+06    -47.2772E-03     93.7337E-03    -46.4564E-03     14.3469E-03    -47.1675E-03     93.1146E-03    -46.3498E-03     14.2615E-03
            2435     3.43692E-03     2.08914E-03    -27.4278E+06    -140.125E+06    -26.9302E+06    -3.05327E+06    -46.8444E-03     93.1477E-03    -46.3033E-03     11.4310E-03    -46.7404E-03     92.5264E-03    -46.1950E-03     11.3764E-03
            2436     2.57765E-03     2.08785E-03    -28.4396E+06    -140.925E+06    -27.6389E+06    -1.56913E+06    -46.4709E-03     92.6519E-03    -46.1811E-03     8.57712E-03    -46.3694E-03     92.0287E-03    -46.0737E-03     8.54622E-03
            2437     1.71873E-03     2.08739E-03    -28.9908E+06    -141.644E+06    -28.6478E+06    -736.073E+03    -46.2178E-03     92.3119E-03    -46.0940E-03     5.80115E-03    -46.1163E-03     91.6871E-03    -45.9899E-03     5.78487E-03
            2438     859.405E-06     2.08685E-03    -29.4408E+06    -142.344E+06    -29.6845E+06    -361.637E+03    -46.0830E-03     92.1152E-03    -46.0322E-03     3.20653E-03    -45.9810E-03     91.4890E-03    -45.9315E-03     3.19844E-03
            2439     16.1067E-03     1.14992E-03     795.774E+03     102.875E+06     87.0268E+06     6.92583E+06    -118.446E-03     178.490E-03    -60.0433E-03     151.414E-03    -120.006E-03     180.166E-03    -59.7585E-03     148.806E-03
            2440     15.2988E-03     1.12284E-03     16.0268E+03     92.4728E+06     84.4189E+06     7.43298E+06    -93.6237E-03     151.091E-03    -57.4669E-03     122.012E-03    -94.4454E-03     151.987E-03    -57.1789E-03     120.991E-03
            2441     14.4704E-03     1.10717E-03    -848.571E+03     84.9402E+06     74.6866E+06     4.02913E+06    -80.3556E-03     136.012E-03    -55.6567E-03     87.2881E-03    -80.7656E-03     136.498E-03    -55.4052E-03     86.8407E-03
            2442     13.6290E-03     1.08176E-03    -2.00582E+06     74.3356E+06     50.4848E+06     1.48903E+06    -72.7655E-03     126.978E-03    -54.2125E-03     63.5728E-03    -73.0349E-03     127.355E-03    -54.0650E-03     63.2889E-03
            2443     12.8006E-03     1.07781E-03    -2.45324E+06     60.4004E+06     17.4474E+06     1.93096E+06    -66.7991E-03     119.805E-03    -53.0059E-03     47.0066E-03    -66.9627E-03     120.121E-03    -53.0027E-03     46.8395E-03
            2444     11.9516E-03     1.06776E-03    -1.53941E+06     36.9417E+06    -9.93073E+06     2.16909E+06    -62.8579E-03     114.903E-03    -52.0450E-03     37.3333E-03    -62.9262E-03     115.125E-03    -52.1460E-03     37.2308E-03
            2445     11.1099E-03     1.06404E-03    -602.728E+03    -483.370E+03    -27.2410E+06    -1.73348E+06    -59.9750E-03     111.268E-03    -51.2931E-03     30.2091E-03    -59.9509E-03     111.318E-03    -51.4278E-03     30.0919E-03
            2446     10.2608E-03     1.05938E-03    -1.32757E+06    -42.0180E+06    -39.2385E+06    -7.89265E+06    -57.4989E-03     108.187E-03    -50.6881E-03     25.1616E-03    -57.3960E-03     108.044E-03    -50.8215E-03     24.9882E-03
            2447     9.40994E-03     1.05601E-03    -4.18633E+06    -75.7043E+06    -45.7858E+06    -11.3549E+06    -55.7560E-03     105.945E-03    -50.1892E-03     20.9908E-03    -55.6061E-03     105.644E-03    -50.3023E-03     20.7909E-03
            2448     8.56011E-03     1.05404E-03    -8.16398E+06    -102.277E+06    -47.2751E+06    -11.7808E+06    -54.1331E-03     103.909E-03    -49.7758E-03     18.1707E-03    -53.9607E-03     103.481E-03    -49.8520E-03     17.9780E-03
            2449     7.70578E-03     1.05165E-03    -12.8933E+06    -123.429E+06    -44.5732E+06    -11.2438E+06    -52.7850E-03     102.229E-03    -49.4438E-03     15.4247E-03    -52.6082E-03     101.697E-03    -49.4690E-03     15.2484E-03
            2450     6.85264E-03     1.04975E-03    -17.4321E+06    -136.588E+06    -39.3990E+06    -9.63031E+06    -51.7505E-03     100.916E-03    -49.1651E-03     13.1811E-03    -51.5842E-03     100.316E-03    -49.1388E-03     13.0318E-03
            2451     5.99754E-03     1.04885E-03    -21.0190E+06    -141.045E+06    -34.3473E+06    -6.71103E+06    -50.7766E-03     99.6966E-03    -48.9200E-03     11.2964E-03    -50.6285E-03     99.0726E-03    -48.8567E-03     11.1906E-03
            2452     5.14193E-03     1.04740E-03    -23.6890E+06    -141.756E+06    -30.8424E+06    -3.93501E+06    -50.0097E-03     98.7185E-03    -48.7088E-03     9.47822E-03    -49.8786E-03     98.0893E-03    -48.6232E-03     9.41256E-03
            2453     4.28603E-03     1.04679E-03    -25.4708E+06    -141.911E+06    -28.8626E+06    -2.35236E+06    -49.4015E-03     97.9314E-03    -48.5298E-03     7.80573E-03    -49.2818E-03     97.3009E-03    -48.4315E-03     7.76397E-03
            2454     3.42891E-03     1.04588E-03    -26.7416E+06    -142.246E+06    -28.2151E+06    -1.58856E+06    -48.9238E-03     97.3058E-03    -48.3820E-03     6.22801E-03    -48.8107E-03     96.6744E-03    -48.2781E-03     6.19895E-03
            2455     2.57242E-03     1.04564E-03    -27.5345E+06    -142.463E+06    -27.9514E+06    -990.269E+03    -48.5673E-03     96.8345E-03    -48.2672E-03     4.66399E-03    -48.4581E-03     96.2026E-03    -48.1604E-03     4.64512E-03
            2456     1.71482E-03     1.04520E-03    -27.8847E+06    -142.575E+06    -27.9048E+06    -341.686E+03    -48.3271E-03     96.5079E-03    -48.1808E-03     3.17711E-03    -48.2195E-03     95.8759E-03    -48.0732E-03     3.16878E-03
            2457     857.563E-06     1.04490E-03    -28.0902E+06    -142.794E+06    -28.2440E+06     75.3299E+03    -48.1882E-03     96.2858E-03    -48.0977E-03     1.72287E-03    -48.0806E-03     95.6535E-03    -47.9911E-03     1.72186E-03


