********************************************************************************
Field Output Report, written Tue May 28 20:02:28 2024

Source 1
---------

   ODB: G:/Abaqus_calc_2019/1740/Vel_20/odb/zeides_2a_8_red_1000_cal_10_vel_20_fric_050.odb
   Step: Step-1
   Frame: Increment   4366218: Step Time =   0.5277

Loc 1 : Nodal values from source 1

Output sorted by column "Nodal Label".

Field Output reported at nodes for region: DIE_2A_8_D0_36-1.Region_1
   Computation algorithm: EXTRAPOLATE_COMPUTE_AVERAGE
   Averaged at nodes
   Averaging regions: ODB_REGIONS

      Node Label     COORD.COOR1     COORD.COOR2
                          @Loc 1          @Loc 1
-------------------------------------------------
               1     17.3301E-03     144.015E-03


Field Output reported at nodes for region: DIE_2A_8_D0_36-1.Region_2
   Computation algorithm: EXTRAPOLATE_COMPUTE_AVERAGE
   Averaged at nodes
   Averaging regions: ODB_REGIONS

      Node Label     COORD.COOR1     COORD.COOR2
                          @Loc 1          @Loc 1
-------------------------------------------------
               1     17.3301E-03     144.015E-03


Field Output reported at nodes for part: WIRE-1
   Computation algorithm: EXTRAPOLATE_COMPUTE_AVERAGE
   Averaged at nodes
   Averaging regions: ODB_REGIONS

      Node Label     COORD.COOR1     COORD.COOR2           S.S11           S.S22           S.S33           S.S12         PE.PE11         PE.PE22         PE.PE33         PE.PE12         LE.LE11         LE.LE22         LE.LE33         LE.LE12
                          @Loc 1          @Loc 1          @Loc 1          @Loc 1          @Loc 1          @Loc 1          @Loc 1          @Loc 1          @Loc 1          @Loc 1          @Loc 1          @Loc 1          @Loc 1          @Loc 1
-------------------------------------------------------------------------------------------------------------------------------------------------------------------------------------------------------------------------------------------------
               1     304.677E-09     67.4297E-03    -118.904E+06    -237.652E+06    -119.207E+06     291.032E+03    -105.861E-03     211.420E-03    -105.559E-03     4.52983E-03    -105.938E-03     210.578E-03    -105.638E-03     4.47612E-03
               2     16.1992E-03     68.2101E-03    -3.14151E+06     106.793E+06     96.0912E+06    -163.877E+03    -104.893E-03     210.644E-03    -105.751E-03     16.9348E-03    -105.249E-03     211.089E-03    -105.420E-03     16.0533E-03
               3     16.2042E-03     136.314E-03    -21.5635E+06     17.5578E+06     23.4768E+06    -8.95396E+06    -95.6804E-03     200.894E-03    -105.213E-03     16.8914E-03    -95.8481E-03     200.986E-03    -105.090E-03     16.6634E-03
               4     259.366E-09     135.156E-03     39.4571E+06    -5.81266E+06     40.3846E+06    -2.57860E+06    -111.270E-03     221.738E-03    -110.468E-03    -3.21872E-03    -111.129E-03     221.587E-03    -110.315E-03    -3.28870E-03
               5    -163.389E-09     735.523E-18    -62.5332E+06    -194.843E+06    -62.1173E+06     221.381E+03    -100.607E-03     201.456E-03    -100.849E-03     396.338E-06    -100.546E-03     200.663E-03    -100.786E-03     396.462E-06
               6     16.1186E-03     735.523E-18    -1.68137E+06     106.361E+06     97.2475E+06     2.27025E+06    -147.587E-03     255.760E-03    -108.173E-03     55.8508E-03    -148.037E-03     256.296E-03    -107.838E-03     54.5151E-03
               7     809.651E-06     67.4350E-03    -117.558E+06    -232.546E+06    -114.720E+06     302.273E+03    -105.812E-03     211.464E-03    -105.652E-03     7.27749E-03    -105.898E-03     210.640E-03    -105.718E-03     7.18570E-03
               8     1.61926E-03     67.4461E-03    -113.534E+06    -220.534E+06    -102.786E+06     196.244E+03    -105.719E-03     211.482E-03    -105.763E-03     13.0152E-03    -105.822E-03     210.697E-03    -105.793E-03     12.8425E-03
               9     2.42894E-03     67.4640E-03    -107.503E+06    -203.535E+06    -86.4935E+06     111.190E+03    -105.664E-03     211.454E-03    -105.790E-03     18.9332E-03    -105.791E-03     210.727E-03    -105.771E-03     18.6766E-03
              10     3.23878E-03     67.4884E-03    -100.226E+06    -184.001E+06    -68.3910E+06     78.2698E+03    -105.687E-03     211.502E-03    -105.815E-03     24.5290E-03    -105.839E-03     210.843E-03    -105.745E-03     24.1896E-03
              11     4.04850E-03     67.5187E-03    -91.9280E+06    -164.929E+06    -50.6030E+06     8.58384E+03    -105.720E-03     211.563E-03    -105.843E-03     29.6653E-03    -105.893E-03     210.970E-03    -105.723E-03     29.2445E-03
              12     4.85838E-03     67.5546E-03    -83.6809E+06    -145.832E+06    -34.5170E+06     42.7087E+03    -105.718E-03     211.579E-03    -105.861E-03     34.2830E-03    -105.909E-03     211.055E-03    -105.701E-03     33.7849E-03
              13     5.66819E-03     67.5951E-03    -75.8830E+06    -127.984E+06    -20.4889E+06     113.941E+03    -105.729E-03     211.598E-03    -105.868E-03     38.3459E-03    -105.938E-03     211.142E-03    -105.675E-03     37.7735E-03
              14     6.47815E-03     67.6400E-03    -68.1176E+06    -110.569E+06    -8.22604E+06     43.8951E+03    -105.759E-03     211.626E-03    -105.868E-03     41.8437E-03    -105.982E-03     211.239E-03    -105.650E-03     41.1968E-03
              15     7.28804E-03     67.6883E-03    -60.8127E+06    -93.3450E+06     2.55815E+06    -12.6394E+03    -105.781E-03     211.643E-03    -105.862E-03     44.7167E-03    -106.019E-03     211.327E-03    -105.626E-03     43.9968E-03
              16     8.09808E-03     67.7395E-03    -53.9238E+06    -76.6972E+06     12.1955E+06     44.0511E+03    -105.814E-03     211.668E-03    -105.854E-03     47.0033E-03    -106.067E-03     211.422E-03    -105.604E-03     46.2123E-03
              17     8.90803E-03     67.7928E-03    -47.5230E+06    -58.9436E+06     20.9058E+06     172.644E+03    -105.845E-03     211.689E-03    -105.844E-03     48.7455E-03    -106.116E-03     211.521E-03    -105.585E-03     47.8838E-03
              18     9.71801E-03     67.8479E-03    -41.3233E+06    -40.6575E+06     28.9822E+06     323.781E+03    -105.839E-03     211.671E-03    -105.832E-03     49.9263E-03    -106.128E-03     211.586E-03    -105.569E-03     48.9931E-03
              19     10.5279E-03     67.9037E-03    -35.4659E+06    -18.2160E+06     36.9818E+06     295.284E+03    -105.783E-03     211.598E-03    -105.815E-03     50.5414E-03    -106.099E-03     211.616E-03    -105.552E-03     49.5330E-03
              20     11.3379E-03     67.9601E-03    -29.8314E+06     6.05296E+06     45.3640E+06     386.858E+03    -105.669E-03     211.464E-03    -105.795E-03     50.3696E-03    -106.014E-03     211.594E-03    -105.534E-03     49.2864E-03
              21     12.1482E-03     68.0151E-03    -24.9070E+06     33.7690E+06      52.795E+06     220.195E+03    -105.546E-03     211.311E-03    -105.765E-03     48.9684E-03    -105.927E-03     211.570E-03    -105.514E-03     47.8080E-03
              22     12.9584E-03     68.0680E-03    -20.8729E+06     68.0524E+06     61.7145E+06    -412.901E+03    -105.423E-03     211.159E-03    -105.735E-03     46.0849E-03    -105.850E-03     211.574E-03    -105.495E-03     44.8533E-03
              23     13.7680E-03     68.1172E-03    -15.6238E+06     93.4270E+06     66.9368E+06    -469.710E+03    -105.237E-03     210.937E-03    -105.700E-03     41.1464E-03    -105.679E-03     211.461E-03    -105.478E-03     39.8657E-03
              24     14.5782E-03     68.1582E-03    -9.09941E+06     105.278E+06     78.3505E+06     481.498E+03    -104.909E-03     210.618E-03    -105.708E-03     35.2671E-03    -105.348E-03     211.170E-03    -105.456E-03     33.9427E-03
              25     15.3892E-03     68.1931E-03    -4.42720E+06     107.967E+06     93.2568E+06     506.220E+03    -104.796E-03     210.544E-03    -105.748E-03     24.7140E-03    -105.195E-03     211.040E-03    -105.432E-03     23.5988E-03
              26     16.1990E-03     69.3829E-03    -1.53548E+06     108.010E+06     97.5430E+06     1.48308E+06    -104.999E-03     210.750E-03    -105.751E-03     16.9400E-03    -105.351E-03     211.197E-03    -105.418E-03     16.0700E-03
              27     16.1993E-03     70.5526E-03    -2.44990E+06     107.038E+06     96.1825E+06     729.319E+03    -104.647E-03     210.405E-03    -105.758E-03     16.3641E-03    -105.001E-03     210.851E-03    -105.428E-03     15.4719E-03
              28     16.1988E-03     71.7228E-03    -3.78361E+06     106.086E+06     94.9583E+06    -1.49588E+06    -104.790E-03     210.545E-03    -105.756E-03     16.4556E-03    -105.146E-03     210.990E-03    -105.429E-03     15.5459E-03
              29     16.1992E-03     72.8955E-03    -2.47589E+06     107.177E+06     96.6171E+06     199.932E+03    -104.825E-03     210.583E-03    -105.757E-03     16.8744E-03    -105.179E-03     211.028E-03    -105.426E-03     15.9997E-03
              30     16.1991E-03     74.0652E-03    -1.95461E+06     108.534E+06     97.3744E+06     522.923E+03    -104.781E-03     210.542E-03    -105.761E-03     16.7324E-03    -105.136E-03     210.993E-03    -105.428E-03     15.8485E-03
              31     16.1989E-03     75.2367E-03    -2.16729E+06     108.888E+06     97.5285E+06    -326.299E+03    -104.881E-03     210.639E-03    -105.757E-03     16.9561E-03    -105.239E-03     211.092E-03    -105.424E-03     16.0589E-03
              32     16.1995E-03     76.4079E-03    -2.91458E+06     108.113E+06     97.0690E+06    -278.315E+03    -104.837E-03     210.595E-03    -105.757E-03     17.0658E-03    -105.196E-03     211.045E-03    -105.424E-03     16.1772E-03
              33     16.1985E-03     77.5792E-03    -2.85484E+06     108.393E+06     96.6711E+06     463.420E+03    -104.687E-03     210.450E-03    -105.763E-03     16.9542E-03    -105.045E-03     210.902E-03    -105.432E-03     16.0806E-03
              34     16.1996E-03     78.7486E-03    -2.43772E+06     108.855E+06     97.4846E+06     4.73025E+03    -104.539E-03     210.302E-03    -105.763E-03     16.5324E-03    -104.896E-03     210.755E-03    -105.430E-03     15.6504E-03
              35     16.1988E-03     79.9199E-03    -2.08747E+06     109.325E+06     98.1497E+06     87.6694E+03    -104.752E-03     210.510E-03    -105.758E-03     16.6596E-03    -105.109E-03     210.963E-03    -105.423E-03     15.7766E-03
              36     16.1995E-03     81.0916E-03    -2.52603E+06     109.183E+06     97.4224E+06     190.901E+03    -104.739E-03     210.497E-03    -105.758E-03     16.8955E-03    -105.098E-03     210.952E-03    -105.425E-03     16.0112E-03
              37     16.1988E-03     82.2617E-03    -2.69211E+06     109.092E+06     96.9536E+06    -228.561E+03    -104.573E-03     210.332E-03    -105.759E-03     16.6820E-03    -104.932E-03     210.787E-03    -105.429E-03     15.7923E-03
              38     16.1995E-03     83.4319E-03    -1.87759E+06     109.796E+06     97.7235E+06     140.414E+03    -104.670E-03     210.423E-03    -105.753E-03     16.6081E-03    -105.026E-03     210.880E-03    -105.421E-03     15.7240E-03
              39     16.1991E-03     84.6038E-03    -2.94960E+06     109.798E+06     97.3964E+06    -151.909E+03    -104.852E-03     210.602E-03    -105.751E-03     16.6252E-03    -105.213E-03     211.061E-03    -105.418E-03     15.7369E-03
              40     16.1991E-03     85.7742E-03    -2.79760E+06     109.973E+06     97.3723E+06     248.813E+03    -104.838E-03     210.591E-03    -105.753E-03     16.7183E-03    -105.199E-03     211.049E-03    -105.421E-03     15.8404E-03
              41     16.1993E-03     86.9456E-03    -1.78100E+06     110.812E+06     98.7831E+06     98.8648E+03    -104.685E-03     210.443E-03    -105.758E-03     16.8638E-03    -105.044E-03     210.903E-03    -105.423E-03     15.9745E-03
              42     16.1990E-03     88.1165E-03    -3.16090E+06     110.303E+06     97.8785E+06     408.221E+03    -104.663E-03     210.421E-03    -105.758E-03     17.0468E-03    -105.028E-03     210.882E-03    -105.424E-03     16.1630E-03
              43     16.1994E-03     89.2867E-03    -2.65011E+06     111.169E+06     98.4483E+06     256.365E+03    -104.624E-03     210.383E-03    -105.759E-03     16.4663E-03    -104.988E-03     210.846E-03    -105.424E-03     15.5819E-03
              44     16.1990E-03     90.4572E-03    -2.21012E+06     112.469E+06     99.3943E+06    -117.492E+03    -104.700E-03     210.457E-03    -105.758E-03     16.2403E-03    -105.064E-03     210.925E-03    -105.420E-03     15.3472E-03
              45     16.1994E-03     91.6286E-03    -2.32105E+06     112.389E+06     99.1466E+06     64.8105E+03    -104.696E-03     210.449E-03    -105.753E-03     16.3593E-03    -105.060E-03     210.916E-03    -105.417E-03     15.4720E-03
              46     16.1992E-03     92.7993E-03    -2.45867E+06     112.545E+06     99.0169E+06     18.6788E+03    -104.748E-03     210.500E-03    -105.752E-03     16.5984E-03    -105.113E-03     210.968E-03    -105.416E-03     15.7125E-03
              47     16.1991E-03     93.9706E-03    -2.73766E+06     113.154E+06     98.7483E+06     459.151E+03    -104.858E-03     210.607E-03    -105.749E-03     17.0952E-03    -105.225E-03     211.080E-03    -105.415E-03     16.2187E-03
              48     16.1994E-03     95.1422E-03    -2.50213E+06     114.256E+06     99.8770E+06     547.056E+03    -104.603E-03     210.362E-03    -105.759E-03     16.8367E-03    -104.973E-03     210.839E-03    -105.422E-03     15.9537E-03
              49     16.1990E-03     96.3113E-03    -2.74460E+06     115.330E+06     100.747E+06     238.577E+03    -104.409E-03     210.175E-03    -105.766E-03     16.2118E-03    -104.782E-03     210.655E-03    -105.425E-03     15.3260E-03
              50     16.1996E-03     97.4818E-03    -2.25094E+06     116.117E+06     101.247E+06     68.4615E+03    -104.574E-03     210.332E-03    -105.757E-03     16.4356E-03    -104.947E-03     210.815E-03    -105.416E-03     15.5514E-03
              51     16.1991E-03     98.6547E-03    -2.55827E+06     117.132E+06     101.560E+06     587.605E+03    -104.581E-03     210.339E-03    -105.758E-03     16.9809E-03    -104.958E-03     210.828E-03    -105.417E-03     16.1029E-03
              52     16.1995E-03     99.8235E-03    -3.20703E+06     117.594E+06     101.235E+06     185.943E+03    -104.420E-03     210.185E-03    -105.766E-03     16.5924E-03    -104.799E-03     210.677E-03    -105.425E-03     15.7136E-03
              53     16.1989E-03     100.994E-03    -2.96150E+06     117.808E+06     101.865E+06    -117.458E+03    -104.411E-03     210.183E-03    -105.772E-03     16.2070E-03    -104.789E-03     210.674E-03    -105.430E-03     15.3225E-03
              54     16.1994E-03     102.165E-03    -1.87761E+06     119.042E+06     103.040E+06     719.070E+03    -104.158E-03     209.931E-03    -105.774E-03     16.3203E-03    -104.535E-03     210.426E-03    -105.428E-03     15.4415E-03
              55     16.1995E-03     103.335E-03    -2.21608E+06     120.768E+06     103.635E+06     29.8342E+03    -104.159E-03     209.926E-03    -105.767E-03     16.5627E-03    -104.543E-03     210.430E-03    -105.420E-03     15.6694E-03
              56     16.1993E-03     104.506E-03    -3.80795E+06     120.534E+06     102.505E+06     161.625E+03    -104.184E-03     209.947E-03    -105.763E-03     16.7781E-03    -104.572E-03     210.453E-03    -105.420E-03     15.9013E-03
              57     16.1996E-03     105.676E-03    -2.52789E+06     121.063E+06     103.019E+06     599.666E+03    -103.662E-03     209.434E-03    -105.772E-03     16.6476E-03    -104.045E-03     209.940E-03    -105.429E-03     15.7800E-03
              58     16.1995E-03     106.845E-03    -2.15119E+06     122.954E+06     103.977E+06     1.05866E+06    -103.361E-03     209.130E-03    -105.768E-03     16.4464E-03    -103.747E-03     209.643E-03    -105.423E-03     15.5801E-03
              59     16.2002E-03     108.014E-03    -2.85869E+06     121.659E+06     102.939E+06     154.228E+03    -103.423E-03     209.169E-03    -105.746E-03     16.5152E-03    -103.810E-03     209.678E-03    -105.403E-03     15.6352E-03
              60     16.2001E-03     109.184E-03    -3.03349E+06     120.507E+06     102.630E+06    -1.20757E+06    -103.439E-03     209.170E-03    -105.731E-03     16.6946E-03    -103.824E-03     209.674E-03    -105.388E-03     15.8018E-03
              61     16.2005E-03     110.353E-03    -2.01637E+06     121.883E+06     104.069E+06     37.6837E+03    -103.103E-03     208.828E-03    -105.725E-03     17.0612E-03    -103.486E-03     209.335E-03    -105.378E-03     16.2011E-03
              62     16.2009E-03     111.522E-03    -3.10689E+06     121.797E+06     103.685E+06     148.181E+03    -102.824E-03     208.538E-03    -105.715E-03     17.0440E-03    -103.212E-03     209.047E-03    -105.368E-03     16.1802E-03
              63     16.2008E-03     112.691E-03    -3.07881E+06     121.215E+06     103.497E+06     268.339E+03    -102.703E-03     208.400E-03    -105.697E-03     16.7398E-03    -103.090E-03     208.906E-03    -105.351E-03     15.8746E-03
              64     16.2019E-03     113.858E-03    -2.43875E+06     121.763E+06     104.656E+06    -202.634E+03    -102.775E-03     208.447E-03    -105.672E-03     16.5608E-03    -103.162E-03     208.954E-03    -105.322E-03     15.6845E-03
              65     16.2015E-03     115.028E-03    -2.17602E+06     121.431E+06     104.742E+06    -126.855E+03    -102.848E-03     208.488E-03    -105.640E-03     16.7788E-03    -103.233E-03     208.993E-03    -105.289E-03     15.9042E-03
              66     16.2031E-03     116.195E-03    -2.44793E+06     120.600E+06     104.682E+06    -762.540E+03    -103.208E-03     208.806E-03    -105.598E-03     17.5952E-03    -103.594E-03     209.308E-03    -105.246E-03     16.7137E-03
              67     16.2025E-03     117.367E-03    -3.77073E+06     117.816E+06     103.218E+06    -672.864E+03    -104.083E-03     209.635E-03    -105.552E-03     18.1751E-03    -104.469E-03     210.127E-03    -105.202E-03     17.2957E-03
              68     16.2036E-03     118.537E-03    -3.41109E+06     116.031E+06     102.414E+06     377.546E+03    -104.658E-03     210.171E-03    -105.513E-03     18.8259E-03    -105.039E-03     210.655E-03    -105.164E-03     17.9669E-03
              69     16.2035E-03     119.708E-03    -1.73668E+06     115.101E+06     102.109E+06    -1.42262E+06    -105.678E-03     211.142E-03    -105.464E-03     19.1302E-03    -106.051E-03     211.621E-03    -105.117E-03     18.2271E-03
              70     16.2039E-03     120.880E-03    -3.29810E+06     110.395E+06     98.4887E+06    -1.76578E+06    -107.280E-03     212.682E-03    -105.402E-03     19.4306E-03    -107.648E-03     213.144E-03    -105.065E-03     18.5157E-03
              71     16.2039E-03     122.055E-03    -1.92428E+06     105.638E+06     96.9817E+06    -2.14890E+06    -109.299E-03     214.636E-03    -105.337E-03     20.6997E-03    -109.652E-03     215.076E-03    -105.002E-03     19.7785E-03
              72     16.2042E-03     123.234E-03    -2.75687E+06     100.300E+06     95.3481E+06    -1.38172E+06    -111.379E-03     216.656E-03    -105.278E-03     21.9095E-03    -111.728E-03     217.075E-03    -104.942E-03     20.9819E-03
              73     16.2040E-03     124.413E-03    -1.96615E+06     91.9055E+06     92.1586E+06    -1.60324E+06    -113.041E-03     218.263E-03    -105.222E-03     23.3800E-03    -113.372E-03     218.645E-03    -104.891E-03     22.4348E-03
              74     16.2047E-03     125.594E-03    -3.99011E+06     82.2565E+06     88.9169E+06    -4.75217E+06    -115.170E-03     220.322E-03    -105.152E-03     24.5300E-03    -115.493E-03     220.665E-03    -104.821E-03     23.5310E-03
              75     16.2046E-03     126.778E-03    -1.19984E+06     73.2394E+06     88.4321E+06    -3.61308E+06    -117.707E-03     222.777E-03    -105.070E-03     25.5797E-03    -118.004E-03     223.073E-03    -104.732E-03     24.5778E-03
              76     16.2057E-03     127.966E-03    -2.64786E+06     61.6690E+06     86.2286E+06    -4.90471E+06    -120.390E-03     225.367E-03    -104.977E-03     27.6912E-03    -120.678E-03     225.614E-03    -104.631E-03     26.6525E-03
              77     16.2058E-03     129.156E-03    -480.269E+03     48.6401E+06     84.2112E+06    -3.09391E+06    -123.457E-03     228.319E-03    -104.862E-03     29.4355E-03    -123.713E-03     228.502E-03    -104.511E-03     28.4170E-03
              78     16.2074E-03     130.350E-03    -3.82729E+06     34.3088E+06     79.6753E+06    -4.00501E+06    -126.993E-03     231.719E-03    -104.727E-03     31.5657E-03    -127.238E-03     231.842E-03    -104.372E-03     30.5508E-03
              79     16.2073E-03     131.551E-03     1.77266E+06     27.3420E+06     80.2477E+06    -694.177E+03    -129.927E-03     234.530E-03    -104.604E-03     33.8755E-03    -130.135E-03     234.610E-03    -104.245E-03     32.9200E-03
              80     16.2094E-03     132.751E-03    -4.76354E+06     27.0629E+06     75.8651E+06     632.315E+03    -131.111E-03     235.613E-03    -104.502E-03     36.1645E-03    -131.338E-03     235.700E-03    -104.155E-03     35.3335E-03
              81     16.2091E-03     133.954E-03     320.148E+03     22.6148E+06     67.7914E+06    -2.17104E+06    -129.191E-03     233.638E-03    -104.446E-03     37.3681E-03    -129.357E-03     233.689E-03    -104.141E-03     36.7615E-03
              82     16.2117E-03     135.150E-03     7.21644E+06     18.7826E+06     47.7901E+06    -2.78066E+06    -111.400E-03     216.226E-03    -104.827E-03     26.9414E-03    -111.473E-03     216.257E-03    -104.625E-03     26.6389E-03
              83     15.3673E-03     136.255E-03    -11.0515E+06    -7.38160E+06     30.7485E+06    -4.79473E+06    -94.7374E-03     200.245E-03    -105.508E-03     8.68815E-03    -94.8240E-03     200.188E-03    -105.327E-03     8.48174E-03
              84     14.5334E-03     136.177E-03     3.77101E+06    -4.40901E+06     56.9880E+06     136.384E+03    -93.4059E-03     199.498E-03    -106.092E-03    -8.42496E-03    -93.4576E-03     199.392E-03    -105.807E-03    -8.58898E-03
              85     13.7131E-03     136.087E-03     7.84406E+06     6.22687E+06     74.3288E+06    -1.87548E+06    -92.7155E-03     199.364E-03    -106.649E-03    -21.0546E-03    -92.7862E-03     199.275E-03    -106.297E-03    -21.2263E-03
              86     12.8928E-03     135.999E-03     10.0898E+06    -2.47802E+06     78.4694E+06    -5.01369E+06    -93.0767E-03     200.250E-03    -107.173E-03    -27.5031E-03    -93.1293E-03     200.105E-03    -106.791E-03    -27.7064E-03
              87     12.0778E-03     135.909E-03     14.1841E+06     36.2377E+03     84.8132E+06    -3.93105E+06    -94.0210E-03     201.699E-03    -107.678E-03    -31.7651E-03    -94.0664E-03     201.549E-03    -107.275E-03    -31.9556E-03
              88     11.2639E-03     135.823E-03     15.9427E+06    -1.66418E+06     87.7447E+06    -2.29995E+06    -95.0425E-03     203.211E-03    -108.168E-03    -34.1078E-03    -95.0811E-03     203.045E-03    -107.750E-03    -34.2792E-03
              89     10.4522E-03     135.740E-03     16.0085E+06    -60.4312E+03     89.7478E+06    -2.34875E+06    -96.6256E-03     205.263E-03    -108.637E-03    -35.2654E-03    -96.6696E-03     205.101E-03    -108.212E-03    -35.4371E-03
              90     9.64180E-03     135.661E-03     15.8721E+06    -501.296E+03     90.3685E+06    -2.97476E+06    -98.4043E-03     207.470E-03    -109.065E-03    -35.5787E-03    -98.4497E-03     207.304E-03    -108.636E-03    -35.7591E-03
              91     8.83331E-03     135.586E-03     15.8990E+06    -105.366E+03     90.3796E+06    -3.77109E+06    -100.286E-03     209.725E-03    -109.438E-03    -35.2766E-03    -100.333E-03     209.560E-03    -109.009E-03    -35.4678E-03
              92     8.02625E-03     135.516E-03     16.4620E+06    -651.682E+03     88.5349E+06    -4.68253E+06    -102.058E-03     211.805E-03    -109.747E-03    -34.2042E-03    -102.099E-03     211.639E-03    -109.327E-03    -34.4054E-03
              93     7.22076E-03     135.451E-03     17.8604E+06    -223.961E+03     85.7672E+06    -5.44718E+06    -103.566E-03     213.569E-03    -110.003E-03    -32.5617E-03    -103.597E-03     213.407E-03    -109.600E-03    -32.7729E-03
              94     6.41576E-03     135.392E-03     19.6310E+06    -687.365E+03     81.9068E+06    -5.97112E+06    -104.923E-03     215.145E-03    -110.221E-03    -30.4904E-03    -104.941E-03     214.984E-03    -109.839E-03    -30.7070E-03
              95     5.61169E-03     135.339E-03     21.6492E+06    -1.17078E+06     77.3397E+06    -6.41070E+06    -106.275E-03     216.672E-03    -110.397E-03    -28.0837E-03    -106.276E-03     216.513E-03    -110.040E-03    -28.3018E-03
              96     4.80866E-03     135.293E-03     24.1630E+06    -858.740E+03     71.6675E+06    -6.65766E+06    -107.462E-03     217.982E-03    -110.520E-03    -25.3169E-03    -107.444E-03     217.830E-03    -110.195E-03    -25.5325E-03
              97     4.00594E-03     135.252E-03     27.1899E+06    -815.768E+03     64.3609E+06    -7.07806E+06    -108.428E-03     219.022E-03    -110.594E-03    -22.0275E-03    -108.386E-03     218.877E-03    -110.311E-03    -22.2377E-03
              98     3.20418E-03     135.219E-03     30.8402E+06    -2.17358E+06     57.1877E+06    -7.15017E+06    -109.224E-03     219.861E-03    -110.637E-03    -18.3545E-03    -109.152E-03     219.714E-03    -110.393E-03    -18.5527E-03
              99     2.40250E-03     135.192E-03     34.5722E+06    -2.63852E+06     50.9796E+06    -6.28998E+06    -109.755E-03     220.428E-03    -110.673E-03    -14.3531E-03    -109.656E-03     220.283E-03    -110.465E-03    -14.5235E-03
             100     1.60140E-03     135.173E-03     38.0160E+06    -2.91865E+06     45.5504E+06    -5.23752E+06    -110.162E-03     220.902E-03    -110.740E-03    -10.0310E-03    -110.039E-03     220.759E-03    -110.563E-03    -10.1687E-03
             101     800.573E-06     135.161E-03     39.5787E+06    -4.33665E+06     41.8832E+06    -3.67027E+06    -110.824E-03     221.452E-03    -110.628E-03    -5.47555E-03    -110.687E-03     221.306E-03    -110.470E-03    -5.57169E-03
             102     419.262E-09     133.972E-03     24.3871E+06    -12.1832E+06     24.5472E+06    -3.23827E+06    -105.631E-03     210.683E-03    -105.052E-03    -1.78741E-03    -105.532E-03     210.547E-03    -104.947E-03    -1.85862E-03
             103    -115.390E-09     132.815E-03    -10.1731E+06    -29.5915E+06    -10.8268E+06    -4.93032E+06    -96.3062E-03     192.344E-03    -96.0378E-03     635.800E-06    -96.3005E-03     192.225E-03    -96.0343E-03     555.585E-06
             104     263.339E-09     131.674E-03    -51.8934E+06    -52.7802E+06    -51.6939E+06    -5.73442E+06    -90.9275E-03     181.782E-03    -90.8540E-03     2.76683E-03    -91.0359E-03     181.668E-03    -90.9607E-03     2.68278E-03
             105    -287.417E-09     130.541E-03    -97.3151E+06    -76.0873E+06    -96.7540E+06    -5.60714E+06    -89.0362E-03     178.058E-03    -89.0216E-03     4.25464E-03    -89.2721E-03     177.959E-03    -89.2540E-03     4.18020E-03
             106     332.747E-09     129.408E-03    -142.958E+06    -98.3913E+06    -143.206E+06    -5.21948E+06    -89.5914E-03     178.965E-03    -89.3735E-03     5.24518E-03    -89.9558E-03     178.888E-03    -89.7395E-03     5.18687E-03
             107    -34.9254E-09     128.273E-03    -173.152E+06    -119.645E+06    -173.054E+06    -5.00908E+06    -91.3789E-03     182.718E-03    -91.3388E-03     5.76109E-03    -91.8203E-03     182.621E-03    -91.7795E-03     5.70552E-03
             108    -209.292E-09     127.132E-03    -171.568E+06    -135.742E+06    -171.240E+06    -2.85827E+06    -94.0198E-03     187.954E-03    -93.9339E-03     5.37993E-03    -94.4327E-03     187.772E-03    -94.3445E-03     5.34840E-03
             109     584.959E-09     125.985E-03    -148.576E+06    -145.055E+06    -149.361E+06    -1.52606E+06    -96.7914E-03     193.387E-03    -96.5960E-03     5.08708E-03    -97.1075E-03     193.094E-03    -96.9170E-03     5.06645E-03
             110    -659.500E-09     124.832E-03    -127.133E+06    -151.020E+06    -126.811E+06    -1.26092E+06    -98.9808E-03     198.148E-03    -99.1669E-03     4.70475E-03    -99.2137E-03     197.761E-03    -99.3977E-03     4.68190E-03
             111     424.916E-09     123.673E-03    -116.739E+06    -155.873E+06    -116.423E+06    -1.07442E+06    -101.268E-03     202.273E-03    -101.005E-03     4.50869E-03    -101.457E-03     201.832E-03    -101.192E-03     4.48438E-03
             112     230.197E-09     122.511E-03    -113.359E+06    -161.861E+06    -114.633E+06    -1.67938E+06    -103.056E-03     205.828E-03    -102.772E-03     4.60471E-03    -103.222E-03     205.350E-03    -102.946E-03     4.56703E-03
             113    -444.974E-09     121.345E-03    -112.797E+06    -169.530E+06    -111.758E+06    -1.85592E+06    -104.239E-03     208.816E-03    -104.577E-03     4.45683E-03    -104.395E-03     208.294E-03    -104.726E-03     4.41082E-03
             114     114.711E-09     120.175E-03    -113.457E+06    -177.571E+06    -114.225E+06    -1.94422E+06    -105.509E-03     211.241E-03    -105.732E-03     4.34611E-03    -105.653E-03     210.684E-03    -105.882E-03     4.28795E-03
             115    -163.147E-09     119.003E-03    -116.379E+06    -184.764E+06    -115.986E+06    -1.21401E+06    -106.777E-03     213.333E-03    -106.556E-03     4.23433E-03    -106.923E-03     212.747E-03    -106.700E-03     4.18422E-03
             116     563.610E-09     117.829E-03    -117.651E+06    -191.379E+06    -118.144E+06    -1.70256E+06    -107.938E-03     215.294E-03    -107.356E-03     4.17619E-03    -108.077E-03     214.679E-03    -107.499E-03     4.11562E-03
             117    -37.0182E-09     116.652E-03    -118.968E+06    -196.265E+06    -119.703E+06    -724.471E+03    -108.423E-03     216.526E-03    -108.102E-03     4.07372E-03    -108.560E-03     215.891E-03    -108.244E-03     4.01870E-03
             118     13.5992E-09     115.475E-03    -121.252E+06    -201.195E+06    -120.443E+06    -1.46640E+06    -108.623E-03     217.076E-03    -108.453E-03     3.97762E-03    -108.763E-03     216.421E-03    -108.588E-03     3.91033E-03
             119     285.275E-09     114.297E-03    -121.785E+06    -207.875E+06    -122.755E+06    -1.59839E+06    -108.700E-03     217.230E-03    -108.530E-03     4.02539E-03    -108.830E-03     216.545E-03    -108.666E-03     3.94976E-03
             120    -327.530E-09     113.120E-03    -122.589E+06    -211.375E+06    -122.148E+06    -179.434E+03    -108.448E-03     217.006E-03    -108.558E-03     3.94863E-03    -108.578E-03     216.305E-03    -108.684E-03     3.88807E-03
             121     189.987E-09     111.943E-03    -122.389E+06    -214.048E+06    -121.923E+06    -937.672E+03    -108.316E-03     216.603E-03    -108.286E-03     3.91845E-03    -108.441E-03     215.887E-03    -108.408E-03     3.84961E-03
             122    -6.42350E-09     110.766E-03    -122.187E+06    -217.815E+06    -122.914E+06    -802.626E+03    -107.977E-03     215.915E-03    -107.938E-03     4.06498E-03    -108.094E-03     215.182E-03    -108.060E-03     3.99448E-03
             123    -130.180E-09     109.591E-03    -123.939E+06    -221.196E+06    -123.861E+06    -720.603E+03    -107.453E-03     215.150E-03    -107.696E-03     4.12321E-03    -107.573E-03     214.404E-03    -107.815E-03     4.05149E-03
             124    -132.351E-09     108.416E-03    -123.374E+06    -224.729E+06    -122.639E+06    -897.343E+03    -107.161E-03     214.444E-03    -107.283E-03     4.04693E-03    -107.274E-03     213.677E-03    -107.391E-03     3.97409E-03
             125     198.515E-09     107.242E-03    -123.445E+06    -227.479E+06    -124.307E+06    -481.876E+03    -106.995E-03     213.732E-03    -106.737E-03     4.14085E-03    -107.103E-03     212.955E-03    -106.849E-03     4.07299E-03
             126     137.392E-09     106.070E-03    -124.631E+06    -229.969E+06    -123.854E+06    -647.176E+03    -106.565E-03     213.098E-03    -106.533E-03     4.14455E-03    -106.676E-03     212.309E-03    -106.638E-03     4.07584E-03
             127    -420.348E-09     104.898E-03    -124.205E+06    -232.585E+06    -124.489E+06    -592.938E+03    -106.247E-03     212.707E-03    -106.460E-03     4.09948E-03    -106.351E-03     211.906E-03    -106.565E-03     4.03083E-03
             128     349.300E-09     103.725E-03    -125.642E+06    -234.786E+06    -125.499E+06    -251.566E+03    -106.324E-03     212.530E-03    -106.206E-03     4.19789E-03    -106.430E-03     211.721E-03    -106.311E-03     4.13694E-03
             129    -93.5857E-09     102.554E-03    -125.656E+06    -236.166E+06    -125.685E+06    -311.018E+03    -106.103E-03     212.139E-03    -106.035E-03     4.27332E-03    -106.207E-03     211.323E-03    -106.139E-03     4.21248E-03
             130    -61.1070E-09     101.383E-03    -125.802E+06    -236.736E+06    -125.802E+06    -65.1774E+03    -105.947E-03     211.908E-03    -105.961E-03     4.33233E-03    -106.051E-03     211.090E-03    -106.064E-03     4.27102E-03
             131     185.158E-09     100.211E-03    -123.260E+06    -237.189E+06    -123.554E+06    -171.526E+03    -106.177E-03     211.951E-03    -105.774E-03     4.30195E-03    -106.271E-03     211.124E-03    -105.869E-03     4.23988E-03
             132     331.960E-09     99.0400E-03    -122.888E+06    -237.999E+06    -123.531E+06    -204.756E+03    -106.143E-03     211.860E-03    -105.717E-03     4.48614E-03    -106.234E-03     211.029E-03    -105.812E-03     4.42481E-03
             133    -175.742E-09     97.8694E-03    -123.484E+06    -239.231E+06    -123.390E+06    -289.479E+03    -105.878E-03     211.737E-03    -105.859E-03     4.46995E-03    -105.970E-03     210.899E-03    -105.950E-03     4.40711E-03
             134     42.6649E-09     96.6981E-03    -122.934E+06    -240.110E+06    -122.166E+06    -162.288E+03    -105.762E-03     211.619E-03    -105.857E-03     4.38888E-03    -105.852E-03     210.775E-03    -105.942E-03     4.32679E-03
             135    -64.5283E-09     95.5280E-03    -122.070E+06    -240.399E+06     -121.94E+06    -156.199E+03    -105.777E-03     211.604E-03    -105.827E-03     4.37266E-03    -105.863E-03     210.757E-03    -105.911E-03     4.31304E-03
             136    -1.39727E-09     94.3568E-03    -120.431E+06    -240.064E+06    -121.100E+06     296.869E+03    -105.811E-03     211.595E-03    -105.784E-03     4.28174E-03    -105.890E-03     210.746E-03    -105.867E-03     4.23009E-03
             137     95.8334E-09     93.1863E-03    -120.307E+06    -240.207E+06    -119.719E+06    -211.918E+03    -105.783E-03     211.556E-03    -105.772E-03     4.43745E-03    -105.864E-03     210.703E-03    -105.848E-03     4.37660E-03
             138    -174.698E-09     92.0156E-03    -119.605E+06    -241.137E+06    -120.018E+06    -235.705E+03    -105.870E-03     211.717E-03    -105.847E-03     4.46529E-03    -105.945E-03     210.859E-03    -105.924E-03     4.40106E-03
             139     277.793E-09     90.8444E-03    -120.019E+06    -240.641E+06    -120.365E+06     449.077E+03    -106.064E-03     211.864E-03    -105.800E-03     4.38004E-03    -106.141E-03     211.010E-03    -105.879E-03     4.32237E-03
             140     34.7115E-09     89.6736E-03    -119.028E+06    -239.881E+06    -118.867E+06    -76.6569E+03    -105.921E-03     211.701E-03    -105.781E-03     4.33324E-03    -105.996E-03     210.848E-03    -105.855E-03     4.26941E-03
             141    -127.359E-09     88.5028E-03    -119.625E+06    -240.278E+06    -119.173E+06    -166.597E+03    -105.711E-03     211.552E-03    -105.840E-03     4.36441E-03    -105.788E-03     210.697E-03    -105.914E-03     4.30118E-03
             142     6.72842E-09     87.3322E-03    -119.419E+06    -239.881E+06    -119.562E+06     204.834E+03    -105.869E-03     211.588E-03    -105.719E-03     4.15331E-03    -105.945E-03     210.736E-03    -105.796E-03     4.09840E-03
             143     348.031E-09     86.1617E-03    -119.165E+06    -239.444E+06    -119.297E+06     21.2922E+03    -105.728E-03     211.543E-03    -105.815E-03     4.33798E-03    -105.804E-03     210.692E-03    -105.891E-03     4.28120E-03
             144    -853.130E-09     84.9906E-03    -118.689E+06    -239.181E+06    -119.214E+06     79.7295E+03    -105.622E-03     211.608E-03    -105.986E-03     4.35868E-03    -105.696E-03     210.758E-03    -106.063E-03     4.29800E-03
             145     754.277E-09     83.8200E-03    -118.151E+06    -238.322E+06    -118.162E+06     363.098E+03    -105.865E-03     211.682E-03    -105.817E-03     4.23667E-03    -105.939E-03     210.834E-03    -105.891E-03     4.17923E-03
             146    -585.493E-09     82.6492E-03    -119.264E+06    -238.003E+06    -119.232E+06    -128.586E+03    -105.821E-03     211.623E-03    -105.802E-03     4.21231E-03    -105.900E-03     210.780E-03    -105.881E-03     4.14876E-03
             147     438.710E-09     81.4787E-03    -119.176E+06    -238.344E+06    -119.402E+06    -9.91217E+03    -105.837E-03     211.680E-03    -105.843E-03     4.14975E-03    -105.915E-03     210.835E-03    -105.921E-03     4.08974E-03
             148    -310.778E-09     80.3072E-03    -118.788E+06    -237.475E+06    -118.664E+06     180.499E+03    -105.722E-03     211.620E-03    -105.898E-03     4.40089E-03    -105.800E-03     210.778E-03    -105.975E-03     4.34662E-03
             149    -109.820E-09     79.1368E-03    -118.712E+06    -237.412E+06    -118.795E+06    -269.052E+03    -105.775E-03     211.479E-03    -105.704E-03     4.22994E-03    -105.853E-03     210.637E-03    -105.782E-03     4.16915E-03
             150     636.603E-09     77.9662E-03    -119.526E+06    -238.222E+06    -119.424E+06     77.6347E+03    -106.025E-03     211.523E-03    -105.499E-03     4.40251E-03    -106.104E-03     210.680E-03    -105.577E-03     4.34624E-03
             151    -318.688E-09     76.7957E-03    -119.611E+06    -237.517E+06    -119.341E+06     311.438E+03    -105.677E-03     211.556E-03    -105.879E-03     4.27674E-03    -105.758E-03     210.716E-03    -105.958E-03     4.22198E-03
             152    -332.106E-09     75.6252E-03    -119.233E+06    -237.122E+06    -119.127E+06    -52.4099E+03    -105.775E-03     211.598E-03    -105.823E-03     3.86829E-03    -105.855E-03     210.759E-03    -105.902E-03     3.80935E-03
             153     899.110E-09     74.4539E-03    -119.345E+06    -237.175E+06    -119.472E+06    -105.508E+03    -105.979E-03     211.610E-03    -105.631E-03     4.38178E-03    -106.059E-03     210.771E-03    -105.711E-03     4.32051E-03
             154    -912.021E-09     73.2832E-03    -119.128E+06    -237.035E+06    -119.189E+06    -56.0415E+03    -105.562E-03     211.464E-03    -105.902E-03     4.49504E-03    -105.641E-03     210.626E-03    -105.982E-03     4.43519E-03
             155     363.622E-09     72.1128E-03    -119.198E+06    -237.244E+06    -119.804E+06    -100.388E+03    -105.627E-03     211.451E-03    -105.824E-03     4.24280E-03    -105.706E-03     210.612E-03    -105.906E-03     4.18720E-03
             156    -147.842E-09     70.9423E-03    -119.472E+06    -237.255E+06    -119.713E+06     275.490E+03    -105.861E-03     211.559E-03    -105.698E-03     4.15495E-03    -105.941E-03     210.721E-03    -105.780E-03     4.10073E-03
             157     184.556E-09     69.7719E-03    -120.112E+06    -236.913E+06    -119.261E+06     154.516E+03    -105.843E-03     211.628E-03    -105.784E-03     4.08545E-03    -105.928E-03     210.791E-03    -105.863E-03     4.02845E-03
             158    -124.909E-09     68.6003E-03    -120.005E+06    -237.305E+06    -119.928E+06    -430.521E+03    -105.849E-03     211.545E-03    -105.696E-03     4.39522E-03    -105.932E-03     210.708E-03    -105.778E-03     4.33224E-03
             159    -7.64405E-09     66.2598E-03    -119.037E+06    -236.946E+06    -118.803E+06     206.312E+03    -105.695E-03     211.423E-03    -105.728E-03     4.42134E-03    -105.775E-03     210.584E-03    -105.806E-03     4.36446E-03
             160    -349.230E-09     65.0889E-03    -119.455E+06    -236.649E+06    -119.491E+06    -5.05922E+03    -105.572E-03     211.461E-03    -105.889E-03     4.27493E-03    -105.653E-03     210.625E-03    -105.970E-03     4.21709E-03
             161     184.057E-09     63.9182E-03    -119.408E+06    -237.310E+06    -119.362E+06    -90.1293E+03    -105.834E-03     211.541E-03    -105.707E-03     4.34264E-03    -105.915E-03     210.702E-03    -105.786E-03     4.28305E-03
             162     179.742E-09     62.7476E-03    -119.939E+06    -237.603E+06    -120.124E+06     53.0806E+03    -105.782E-03     211.475E-03    -105.692E-03     4.39075E-03    -105.864E-03     210.635E-03    -105.775E-03     4.33105E-03
             163    -408.897E-09     61.5772E-03    -118.818E+06    -236.738E+06    -118.906E+06     196.902E+03    -105.587E-03     211.285E-03    -105.699E-03     4.05755E-03    -105.665E-03     210.447E-03    -105.778E-03     4.00061E-03
             164     448.501E-09     60.4073E-03    -119.060E+06    -237.535E+06    -118.473E+06    -664.007E+03    -105.780E-03     211.414E-03    -105.634E-03     3.98020E-03    -105.859E-03     210.572E-03    -105.710E-03     3.91260E-03
             165    -253.734E-09     59.2365E-03    -119.378E+06    -238.013E+06    -119.811E+06     139.882E+03    -105.862E-03     211.753E-03    -105.890E-03     4.15343E-03    -105.941E-03     210.910E-03    -105.971E-03     4.09649E-03
             166     1.65713E-09     58.0647E-03    -119.666E+06    -236.612E+06    -119.567E+06     394.066E+03    -105.867E-03     211.761E-03    -105.895E-03     4.22230E-03    -105.949E-03     210.926E-03    -105.976E-03     4.16974E-03
             167     197.953E-09     56.8941E-03    -119.125E+06    -236.754E+06    -118.880E+06    -269.409E+03    -105.867E-03     211.574E-03    -105.707E-03     4.35717E-03    -105.948E-03     210.736E-03    -105.785E-03     4.29969E-03
             168    -143.587E-09     55.7238E-03    -118.064E+06    -236.902E+06    -119.087E+06     247.703E+03    -105.626E-03     211.603E-03    -105.977E-03     4.30388E-03    -105.701E-03     210.763E-03    -106.058E-03     4.25013E-03
             169    -497.774E-09     54.5528E-03    -119.536E+06    -236.115E+06    -119.407E+06     10.3116E+03    -105.595E-03     211.681E-03    -106.086E-03     4.10248E-03    -105.678E-03     210.848E-03    -106.167E-03     4.04289E-03
             170     338.206E-09     53.3818E-03    -119.243E+06    -237.279E+06    -119.205E+06    -608.223E+03    -105.813E-03     211.739E-03    -105.926E-03     4.32430E-03    -105.893E-03     210.899E-03    -106.005E-03     4.25609E-03
             171    -370.181E-09     52.2110E-03    -118.957E+06    -237.664E+06    -119.575E+06     362.943E+03    -105.923E-03     211.882E-03    -105.959E-03     4.25910E-03    -106.000E-03     211.040E-03    -106.039E-03     4.20251E-03
             172     330.303E-09     51.0398E-03    -119.776E+06    -236.152E+06    -119.102E+06     64.7098E+03    -105.897E-03     211.916E-03    -106.019E-03     4.21051E-03    -105.981E-03     211.082E-03    -106.098E-03     4.15173E-03
             173    -488.844E-09     49.8685E-03    -119.150E+06    -237.230E+06    -119.557E+06    -487.855E+03    -105.890E-03     211.958E-03    -106.068E-03     4.31957E-03    -105.968E-03     211.119E-03    -106.150E-03     4.25622E-03
             174     344.950E-09     48.6976E-03    -119.498E+06    -237.401E+06    -119.428E+06     457.048E+03    -106.089E-03     212.087E-03    -105.999E-03     4.10186E-03    -106.169E-03     211.248E-03    -106.078E-03     4.05056E-03
             175    -61.9768E-09     47.5260E-03    -119.687E+06    -236.981E+06    -118.995E+06      -4.483E+03    -106.185E-03     212.231E-03    -106.047E-03     4.36326E-03    -106.267E-03     211.393E-03    -106.124E-03     4.30672E-03
             176     1.16946E-09     46.3543E-03    -119.028E+06    -237.331E+06    -119.613E+06    -23.0137E+03    -106.171E-03     212.463E-03    -106.291E-03     4.54843E-03    -106.249E-03     211.623E-03    -106.373E-03     4.49050E-03
             177    -150.609E-09     45.1822E-03    -118.928E+06    -236.555E+06    -119.145E+06     348.160E+03    -106.095E-03     212.422E-03    -106.327E-03     4.41077E-03    -106.174E-03     211.585E-03    -106.407E-03     4.35727E-03
             178    -86.4726E-09     44.0109E-03    -119.306E+06    -236.794E+06    -119.277E+06    -19.7250E+03    -106.047E-03     212.376E-03    -106.328E-03     4.45213E-03    -106.128E-03     211.538E-03    -106.408E-03     4.39241E-03
             179    -139.569E-09     42.8392E-03    -120.229E+06    -237.885E+06    -119.778E+06    -172.260E+03    -106.394E-03     212.688E-03    -106.293E-03     4.34490E-03    -106.477E-03     211.847E-03    -106.373E-03     4.28150E-03
             180     524.904E-09     41.6666E-03    -118.638E+06    -237.576E+06    -118.493E+06     236.991E+03    -106.651E-03     212.827E-03    -106.176E-03     4.40663E-03    -106.728E-03     211.984E-03    -106.252E-03     4.35231E-03
             181    -148.890E-09     40.4947E-03    -119.323E+06    -237.265E+06    -119.044E+06    -138.679E+03    -106.446E-03     212.737E-03    -106.291E-03     4.49327E-03    -106.526E-03     211.897E-03    -106.369E-03     4.43398E-03
             182     17.5183E-09     39.3227E-03    -119.425E+06    -238.051E+06    -120.115E+06    -208.498E+03    -106.215E-03     212.756E-03    -106.541E-03     4.28031E-03    -106.293E-03     211.914E-03    -106.624E-03     4.21653E-03
             183    -430.433E-09     38.1510E-03    -118.367E+06    -237.450E+06    -118.185E+06     124.193E+03    -106.501E-03     213.017E-03    -106.517E-03     4.09443E-03    -106.577E-03     212.174E-03    -106.592E-03     4.03279E-03
             184     812.008E-09     36.9777E-03    -118.916E+06    -236.789E+06    -118.646E+06    -390.058E+03    -106.800E-03     213.200E-03    -106.400E-03     4.32579E-03    -106.879E-03     212.361E-03    -106.477E-03     4.25951E-03
             185    -552.189E-09     35.8054E-03    -119.264E+06    -237.386E+06    -119.584E+06     439.401E+03    -106.418E-03     212.976E-03    -106.558E-03     4.36799E-03    -106.497E-03     212.136E-03    -106.639E-03     4.31500E-03
             186     54.3906E-09     34.6332E-03    -119.019E+06    -236.479E+06    -118.275E+06     183.627E+03    -106.323E-03     212.879E-03    -106.556E-03     4.31726E-03    -106.404E-03     212.041E-03    -106.631E-03     4.25895E-03
             187     66.7610E-09     33.4606E-03    -119.171E+06    -236.603E+06    -119.450E+06    -364.890E+03    -106.445E-03     212.896E-03    -106.451E-03     4.48470E-03    -106.525E-03     212.060E-03    -106.532E-03     4.42025E-03
             188    -208.686E-09     32.2886E-03    -118.548E+06    -236.938E+06    -118.972E+06     404.437E+03    -106.392E-03     212.898E-03    -106.506E-03     4.49646E-03    -106.469E-03     212.058E-03    -106.586E-03     4.44019E-03
             189     151.106E-09     31.1161E-03    -118.797E+06    -236.475E+06    -118.529E+06     68.5299E+03    -106.345E-03     212.879E-03    -106.534E-03     4.48442E-03    -106.425E-03     212.041E-03    -106.611E-03     4.42454E-03
             190    -405.519E-09     29.9439E-03    -119.159E+06    -236.098E+06    -119.333E+06    -88.8960E+03    -106.175E-03     212.500E-03    -106.325E-03     4.25120E-03    -106.255E-03     211.666E-03    -106.407E-03     4.19305E-03
             191     406.326E-09     28.7728E-03    -118.538E+06    -236.004E+06    -118.396E+06     72.4598E+03    -106.295E-03     212.416E-03    -106.121E-03     4.43670E-03    -106.375E-03     211.580E-03    -106.198E-03     4.37666E-03
             192    -131.838E-09     27.6005E-03    -118.604E+06    -236.113E+06    -118.697E+06    -15.1742E+03    -106.125E-03     212.289E-03    -106.164E-03     4.29424E-03    -106.203E-03     211.453E-03    -106.244E-03     4.23287E-03
             193    -216.784E-09     26.4297E-03    -119.053E+06    -236.126E+06    -119.041E+06    -259.703E+03    -105.838E-03     211.731E-03    -105.892E-03     4.07300E-03    -105.919E-03     210.896E-03    -105.972E-03     4.01017E-03
             194     471.225E-09     25.2588E-03    -118.419E+06    -236.669E+06    -118.619E+06     174.578E+03    -105.799E-03     211.352E-03    -105.553E-03     4.34221E-03    -105.876E-03     210.513E-03    -105.631E-03     4.28769E-03
             195    -337.670E-09     24.0884E-03    -117.932E+06    -235.082E+06    -117.739E+06     404.428E+03    -105.326E-03     210.709E-03    -105.383E-03     4.01792E-03    -105.405E-03     209.876E-03    -105.459E-03     3.96582E-03
             196     107.333E-09     22.9201E-03    -118.397E+06    -234.824E+06    -117.976E+06    -235.650E+03    -104.996E-03     209.886E-03    -104.890E-03     3.76325E-03    -105.076E-03     209.055E-03    -104.968E-03     3.70427E-03
             197     292.432E-09     21.7507E-03    -117.239E+06    -235.237E+06    -117.314E+06     132.312E+03    -104.571E-03     208.868E-03    -104.297E-03     3.98522E-03    -104.646E-03     208.032E-03    -104.373E-03     3.93594E-03
             198    -257.050E-09     20.5844E-03    -117.372E+06    -234.445E+06    -117.247E+06     101.933E+03    -103.640E-03     207.288E-03    -103.648E-03     3.81484E-03    -103.717E-03     206.457E-03    -103.724E-03     3.76720E-03
             199     202.949E-09     19.4199E-03    -115.722E+06    -234.519E+06    -116.047E+06     127.544E+03    -102.740E-03     205.364E-03    -102.625E-03     3.30216E-03    -102.810E-03     204.529E-03    -102.697E-03     3.25585E-03
             200     29.6725E-09     18.2577E-03    -115.661E+06    -233.887E+06    -115.244E+06    -161.781E+03    -101.446E-03     202.687E-03    -101.240E-03     2.79368E-03    -101.519E-03     201.853E-03    -101.310E-03     2.74335E-03
             201     74.4436E-09     17.0997E-03    -115.670E+06    -233.466E+06    -115.619E+06     239.096E+03    -99.5857E-03     199.114E-03    -99.5283E-03     2.37767E-03    -99.6581E-03     198.283E-03    -99.6001E-03     2.33655E-03
             202    -85.7585E-09     15.9453E-03    -113.878E+06    -232.563E+06    -113.732E+06     364.968E+03    -97.3385E-03     194.615E-03    -97.2765E-03     1.89119E-03    -97.4060E-03     193.783E-03    -97.3428E-03     1.85782E-03
             203     200.975E-09     14.7977E-03    -113.937E+06    -231.779E+06    -114.273E+06     230.432E+03    -94.5589E-03     189.112E-03    -94.5529E-03     1.44139E-03    -94.6272E-03     188.284E-03    -94.6230E-03     1.40942E-03
             204    -307.980E-09     13.6566E-03    -112.011E+06    -230.637E+06    -112.441E+06     568.140E+03    -91.5294E-03     183.182E-03    -91.6529E-03     911.743E-06    -91.5923E-03     182.355E-03    -91.7183E-03     881.066E-06
             205     210.640E-09     12.5224E-03    -111.422E+06    -229.106E+06    -111.197E+06     48.4373E+03    -88.7699E-03     177.459E-03    -88.6896E-03     497.929E-06    -88.8339E-03     176.637E-03    -88.7518E-03     455.603E-06
             206     24.9848E-09     11.3946E-03    -110.742E+06    -228.440E+06    -110.705E+06    -18.0017E+03    -86.5077E-03     172.857E-03    -86.3492E-03     500.539E-06    -86.5698E-03     172.036E-03    -86.4109E-03     453.624E-06
             207     2.61061E-09     10.2708E-03    -108.727E+06    -228.044E+06    -108.397E+06     136.318E+03    -85.3127E-03     170.537E-03    -85.2241E-03     782.690E-06    -85.3686E-03     169.712E-03    -85.2778E-03     736.907E-06
             208     119.878E-09     9.14786E-03    -105.593E+06    -226.844E+06    -105.483E+06     584.604E+03    -85.5248E-03     171.020E-03    -85.4947E-03     1.34426E-03    -85.5710E-03     170.192E-03    -85.5401E-03     1.30814E-03
             209    -191.601E-09     8.02273E-03    -99.7564E+06    -224.228E+06    -99.9752E+06     838.227E+03    -86.9264E-03     173.908E-03    -86.9815E-03     1.67023E-03    -86.9554E-03     173.077E-03    -87.0116E-03     1.63884E-03
             210     170.329E-09     6.89329E-03    -93.8893E+06    -220.679E+06    -93.7663E+06     1.18098E+06    -89.1936E-03     178.389E-03    -89.1957E-03     1.85848E-03    -89.2075E-03     177.559E-03    -89.2084E-03     1.83292E-03
             211    -150.235E-09     5.75782E-03    -87.6734E+06    -215.684E+06    -87.3798E+06     1.35077E+06    -91.7654E-03     183.621E-03    -91.8557E-03     1.93593E-03    -91.7646E-03     182.797E-03    -91.8527E-03     1.91532E-03
             212    -13.7008E-09     4.61638E-03    -80.3748E+06    -209.879E+06    -80.3857E+06     1.45200E+06    -94.4141E-03     188.984E-03    -94.5698E-03     1.78920E-03    -94.3953E-03     188.168E-03    -94.5509E-03     1.77244E-03
             213    -76.7126E-09     3.46876E-03    -73.3536E+06    -204.125E+06    -73.3174E+06     1.18732E+06    -96.8456E-03     193.941E-03    -97.0954E-03     1.54609E-03    -96.8099E-03     193.134E-03    -97.0597E-03     1.53136E-03
             214    -240.000E-09     2.31581E-03    -67.5824E+06    -199.309E+06    -67.5504E+06     969.428E+03    -98.7812E-03     197.923E-03    -99.1419E-03     1.10127E-03    -98.7316E-03     197.123E-03    -99.0926E-03     1.09112E-03
             215    -31.6224E-09     1.15895E-03    -63.7361E+06    -195.953E+06    -63.5386E+06     650.134E+03    -100.123E-03     200.534E-03    -100.410E-03     601.212E-06    -100.065E-03     199.739E-03    -100.351E-03     598.776E-06
             216     813.604E-06     735.523E-18    -62.4879E+06    -194.662E+06    -61.7285E+06     471.080E+03    -100.681E-03     201.476E-03    -100.795E-03     552.166E-06    -100.621E-03     200.683E-03    -100.731E-03     549.668E-06
             217     1.62723E-03     735.523E-18    -62.4850E+06    -194.111E+06    -60.5546E+06     772.779E+03    -100.786E-03     201.542E-03    -100.756E-03     929.539E-06    -100.729E-03     200.749E-03    -100.686E-03     920.447E-06
             218     2.44079E-03     735.523E-18    -62.5637E+06    -193.157E+06    -58.6643E+06     945.957E+03    -100.881E-03     201.675E-03    -100.793E-03     1.39336E-03    -100.829E-03     200.885E-03    -100.716E-03     1.37743E-03
             219     3.25420E-03     735.523E-18    -62.6734E+06    -191.691E+06    -55.9154E+06     1.19990E+06    -101.038E-03     201.890E-03    -100.853E-03     1.88604E-03    -100.992E-03     201.104E-03    -100.763E-03     1.86466E-03
             220     4.06749E-03     735.523E-18    -62.5247E+06    -185.517E+06    -53.1023E+06     1.05807E+06    -101.255E-03     202.180E-03    -100.925E-03     2.37825E-03    -101.222E-03     201.421E-03    -100.831E-03     2.34585E-03
             221     4.88057E-03     735.523E-18    -62.1236E+06    -172.451E+06    -51.4463E+06     978.960E+03    -101.537E-03     202.541E-03    -101.004E-03     2.91791E-03    -101.524E-03     201.844E-03    -100.921E-03     2.87541E-03
             222     5.69324E-03     735.523E-18    -61.1879E+06    -155.627E+06    -50.0294E+06     217.186E+03    -101.897E-03     202.995E-03    -101.098E-03     3.49167E-03    -101.906E-03     202.378E-03    -101.033E-03     3.42974E-03
             223     6.50579E-03     735.523E-18    -59.5030E+06    -137.045E+06    -48.5745E+06    -328.005E+03    -102.371E-03     203.586E-03    -101.215E-03     4.07261E-03    -102.401E-03     203.058E-03    -101.173E-03     3.99285E-03
             224     7.31759E-03     735.523E-18    -56.8156E+06    -116.592E+06    -47.3410E+06    -1.72741E+06    -102.977E-03     204.334E-03    -101.358E-03     4.73164E-03    -103.024E-03     203.903E-03    -101.343E-03     4.62177E-03
             225     8.12908E-03     735.523E-18    -52.7833E+06    -94.2153E+06    -46.0914E+06    -2.73639E+06    -103.721E-03     205.251E-03    -101.531E-03     5.46959E-03    -103.783E-03     204.925E-03    -101.548E-03     5.33299E-03
             226     8.93959E-03     735.523E-18    -47.3570E+06    -69.6720E+06    -45.6223E+06    -4.40348E+06    -104.635E-03     206.368E-03    -101.734E-03     6.34810E-03    -104.706E-03     206.157E-03    -101.792E-03     6.17436E-03
             227     9.74944E-03     735.523E-18    -39.6701E+06    -41.3619E+06    -44.2124E+06    -6.65217E+06    -105.750E-03     207.727E-03    -101.977E-03     7.35116E-03    -105.826E-03     207.644E-03    -102.081E-03     7.12848E-03
             228     10.5581E-03     735.523E-18    -30.7374E+06    -6.71836E+06    -42.2855E+06    -7.09669E+06    -107.138E-03     209.402E-03    -102.264E-03     8.50223E-03    -107.224E-03     209.478E-03    -102.421E-03     8.24869E-03
             229     11.3656E-03     735.523E-18    -22.4934E+06     34.1186E+06    -35.5464E+06    -6.01293E+06    -108.863E-03     211.493E-03    -102.630E-03     9.97693E-03    -108.978E-03     211.752E-03    -102.825E-03     9.70659E-03
             230     12.1710E-03     735.523E-18    -16.0981E+06     67.4024E+06    -14.6994E+06    -4.05851E+06    -111.065E-03     214.224E-03    -103.159E-03     11.4531E-03    -111.229E-03     214.613E-03    -103.307E-03     11.1613E-03
             231     12.9754E-03     735.523E-18    -11.4614E+06     86.4045E+06     15.8755E+06    -816.519E+03    -114.079E-03     217.944E-03    -103.865E-03     13.4283E-03    -114.295E-03     218.380E-03    -103.894E-03     13.1207E-03
             232     13.7750E-03     735.523E-18    -8.26825E+06     98.1710E+06     50.4431E+06     400.867E+03    -118.124E-03     222.866E-03    -104.742E-03     16.6973E-03    -118.396E-03     223.311E-03    -104.620E-03     16.3313E-03
             233     14.5717E-03     735.523E-18    -5.97076E+06     105.439E+06     82.1321E+06     194.174E+03    -125.711E-03     231.562E-03    -105.851E-03     25.2726E-03    -126.051E-03     232.018E-03    -105.584E-03     24.6476E-03
             234     15.3560E-03     735.523E-18    -3.23068E+06     107.217E+06     96.2613E+06     2.03854E+06    -139.300E-03     246.623E-03    -107.323E-03     43.8804E-03    -139.714E-03     247.125E-03    -106.992E-03     42.8054E-03
             235     16.1693E-03     1.23795E-03    -1.47110E+06     107.503E+06     98.9260E+06     1.15680E+06    -140.154E-03     247.404E-03    -107.249E-03     53.0669E-03    -140.611E-03     247.949E-03    -106.908E-03     51.6613E-03
             236     16.1893E-03     2.44646E-03    -1.61156E+06     107.706E+06     100.368E+06     1.65522E+06    -133.242E-03     239.110E-03    -105.868E-03     42.8895E-03    -133.693E-03     239.647E-03    -105.520E-03     41.3872E-03
             237     16.1974E-03     3.65010E-03    -2.91318E+06     107.241E+06     98.8315E+06     798.289E+03    -133.416E-03     238.689E-03    -105.273E-03     31.7277E-03    -133.846E-03     239.203E-03    -104.930E-03     30.1748E-03
             238     16.1981E-03     4.85536E-03    -3.40912E+06     109.155E+06     98.0679E+06    -1.76799E+06    -131.951E-03     237.090E-03    -105.139E-03     27.5262E-03    -132.369E-03     237.599E-03    -104.802E-03     26.0104E-03
             239     16.1989E-03     6.05647E-03    -1.50339E+06     109.289E+06     98.5728E+06    -1.12021E+06    -128.776E-03     233.961E-03    -105.185E-03     26.4649E-03    -129.176E-03     234.458E-03    -104.848E-03     25.0604E-03
             240     16.1986E-03     7.25166E-03    -2.34651E+06     107.339E+06     96.8524E+06    -671.561E+03    -125.261E-03     230.527E-03    -105.265E-03     25.3317E-03    -125.653E-03     231.010E-03    -104.933E-03     24.0141E-03
             241     16.1986E-03     8.44340E-03    -1.96032E+06     106.343E+06     95.8517E+06    -301.585E+03    -122.361E-03     227.695E-03    -105.334E-03     24.2197E-03    -122.741E-03     228.168E-03    -105.007E-03     22.9825E-03
             242     16.1990E-03     9.63226E-03    -2.02093E+06     106.487E+06     96.0066E+06     631.621E+03    -119.420E-03     224.818E-03    -105.398E-03     22.9742E-03    -119.795E-03     225.285E-03    -105.069E-03     21.8066E-03
             243     16.1989E-03     10.8175E-03    -3.13621E+06     107.316E+06     96.1504E+06     207.871E+03    -116.604E-03     222.072E-03    -105.468E-03     21.6068E-03    -116.982E-03     222.540E-03    -105.138E-03     20.4856E-03
             244     16.1987E-03     11.9998E-03    -2.25198E+06     107.751E+06     96.4719E+06    -141.325E+03    -113.991E-03     219.529E-03    -105.538E-03     20.5987E-03    -114.361E-03     219.994E-03    -105.209E-03     19.5249E-03
             245     16.1989E-03     13.1790E-03    -2.80395E+06     107.303E+06     95.6002E+06    -58.6954E+03    -111.610E-03     217.206E-03    -105.597E-03     19.9673E-03    -111.977E-03     217.667E-03    -105.270E-03     18.9377E-03
             246     16.1987E-03     14.3567E-03    -2.54331E+06     107.135E+06     95.4779E+06     40.0548E+03    -109.607E-03     215.252E-03    -105.645E-03     19.6064E-03    -109.970E-03     215.709E-03    -105.320E-03     18.6178E-03
             247     16.1991E-03     15.5310E-03    -2.30946E+06     107.476E+06     95.8303E+06     47.5644E+03    -108.060E-03     213.741E-03    -105.680E-03     19.1797E-03    -108.421E-03     214.197E-03    -105.354E-03     18.2162E-03
             248     16.1988E-03     16.7052E-03    -2.93262E+06     106.555E+06     95.0776E+06    -121.111E+03    -106.873E-03     212.581E-03    -105.708E-03     18.5717E-03    -107.233E-03     213.033E-03    -105.383E-03     17.6223E-03
             249     16.1989E-03     17.8772E-03    -2.49096E+06     106.791E+06     95.6285E+06     149.545E+03    -105.982E-03     211.711E-03    -105.730E-03     18.3737E-03    -106.340E-03     212.162E-03    -105.403E-03     17.4405E-03
             250     16.1992E-03     19.0487E-03    -2.07138E+06     107.315E+06     96.3195E+06    -224.669E+03    -105.524E-03     211.265E-03    -105.741E-03     17.8486E-03    -105.882E-03     211.717E-03    -105.412E-03     16.9062E-03
             251     16.1988E-03     20.2207E-03    -2.52772E+06     107.011E+06     95.9546E+06    -231.074E+03    -105.116E-03     210.867E-03    -105.751E-03     17.9062E-03    -105.474E-03     211.318E-03    -105.423E-03     16.9750E-03
             252     16.1993E-03     21.3914E-03    -2.35623E+06     106.630E+06     95.9133E+06    -13.2537E+03    -104.733E-03     210.493E-03    -105.760E-03     18.1929E-03    -105.089E-03     210.941E-03    -105.432E-03     17.2817E-03
             253     16.1988E-03     22.5628E-03    -2.84538E+06     106.271E+06     95.3257E+06     78.7670E+03    -104.521E-03     210.291E-03    -105.770E-03     17.9294E-03    -104.878E-03     210.738E-03    -105.443E-03     17.0216E-03
             254     16.1990E-03     23.7321E-03    -2.50628E+06     106.673E+06     95.6960E+06     318.251E+03    -104.215E-03     209.988E-03    -105.774E-03     17.8677E-03    -104.571E-03     210.437E-03    -105.446E-03     16.9647E-03
             255     16.1994E-03     24.9027E-03    -2.17784E+06     106.875E+06     96.3872E+06    -196.663E+03    -104.108E-03     209.881E-03    -105.772E-03     17.9269E-03    -104.465E-03     210.329E-03    -105.442E-03     17.0127E-03
             256     16.1988E-03     26.0736E-03      -2.482E+06     107.264E+06     96.1644E+06    -72.7258E+03    -104.327E-03     210.100E-03    -105.773E-03     18.5305E-03    -104.686E-03     210.552E-03    -105.444E-03     17.6203E-03
             257     16.1991E-03     27.2437E-03    -2.24568E+06     107.102E+06     96.0561E+06     272.285E+03    -104.273E-03     210.046E-03    -105.773E-03     18.5160E-03    -104.630E-03     210.496E-03    -105.445E-03     17.6181E-03
             258     16.1991E-03     28.4139E-03    -2.12218E+06     106.954E+06     96.2257E+06     309.491E+03    -103.898E-03     209.680E-03    -105.782E-03     17.7465E-03    -104.253E-03     210.128E-03    -105.453E-03     16.8549E-03
             259     16.1988E-03     29.5830E-03    -2.84944E+06     106.771E+06     95.4441E+06     262.842E+03    -103.518E-03     209.311E-03    -105.794E-03     17.2137E-03    -103.873E-03     209.759E-03    -105.467E-03     16.3309E-03
             260     16.1991E-03     30.7520E-03    -2.73406E+06     106.691E+06     95.4037E+06    -171.182E+03    -103.476E-03     209.265E-03    -105.789E-03     17.2678E-03    -103.830E-03     209.711E-03    -105.463E-03     16.3873E-03
             261     16.1992E-03     31.9216E-03    -2.44858E+06     106.736E+06     96.2716E+06    -404.567E+03    -103.934E-03     209.709E-03    -105.775E-03     16.8365E-03    -104.288E-03     210.154E-03    -105.445E-03     15.9433E-03
             262     16.1991E-03     33.0913E-03    -1.44623E+06     107.987E+06     97.2828E+06     579.433E+03    -104.195E-03     209.964E-03    -105.769E-03     16.3433E-03    -104.546E-03     210.412E-03    -105.437E-03     15.4576E-03
             263     16.1993E-03     34.2624E-03    -3.12411E+06     106.201E+06     95.3507E+06     638.316E+03    -104.140E-03     209.910E-03    -105.770E-03     16.9569E-03    -104.495E-03     210.354E-03    -105.442E-03     16.0806E-03
             264     16.1988E-03     35.4331E-03    -4.08805E+06     105.056E+06     94.4366E+06    -408.351E+03    -104.014E-03     209.792E-03    -105.778E-03     17.2622E-03    -104.371E-03     210.233E-03    -105.452E-03     16.3784E-03
             265     16.1991E-03     36.6016E-03    -797.460E+03     108.391E+06     97.6655E+06     687.939E+03    -103.766E-03     209.555E-03    -105.789E-03     16.5548E-03    -104.116E-03     210.004E-03    -105.457E-03     15.6778E-03
             266     16.1990E-03     37.7715E-03    -2.35188E+06     106.944E+06     96.0176E+06     385.486E+03    -103.696E-03     209.479E-03    -105.783E-03     16.1806E-03    -104.049E-03     209.925E-03    -105.455E-03     15.2901E-03
             267     16.1992E-03     38.9412E-03    -3.58425E+06     105.717E+06     94.7427E+06    -1.13140E+06    -103.869E-03     209.644E-03    -105.775E-03     16.2295E-03    -104.223E-03     210.086E-03    -105.449E-03     15.3329E-03
             268     16.1990E-03     40.1111E-03    -1.78482E+06     107.520E+06     96.7484E+06    -304.831E+03    -104.097E-03     209.870E-03    -105.772E-03     16.3301E-03    -104.448E-03     210.315E-03    -105.442E-03     15.4523E-03
             269     16.1993E-03     41.2818E-03    -2.11806E+06     107.411E+06     96.5321E+06     145.393E+03    -104.204E-03     209.972E-03    -105.768E-03     16.3583E-03    -104.557E-03     210.418E-03    -105.438E-03     15.4734E-03
             270     16.1990E-03     42.4518E-03    -2.82297E+06     106.737E+06     95.6707E+06    -342.889E+03    -104.284E-03     210.052E-03    -105.768E-03     16.3379E-03    -104.638E-03     210.497E-03    -105.441E-03     15.4449E-03
             271     16.1989E-03     43.6226E-03    -2.61300E+06     106.634E+06     95.9050E+06     257.057E+03    -104.233E-03     210.005E-03    -105.772E-03     16.3733E-03    -104.585E-03     210.449E-03    -105.444E-03     15.4995E-03
             272     16.1992E-03     44.7922E-03    -2.20388E+06     107.100E+06     96.5199E+06    -73.2333E+03    -104.277E-03     210.047E-03    -105.771E-03     16.1636E-03    -104.628E-03     210.491E-03    -105.440E-03     15.2829E-03
             273     16.1989E-03     45.9627E-03    -2.70610E+06     106.751E+06     95.9822E+06     39.0975E+03    -104.682E-03     210.441E-03    -105.760E-03     16.3633E-03    -105.035E-03     210.886E-03    -105.431E-03     15.4817E-03
             274     16.1993E-03     47.1347E-03    -2.89673E+06     106.786E+06     96.0036E+06     283.814E+03    -104.798E-03     210.556E-03    -105.759E-03     16.5285E-03    -105.152E-03     211.001E-03    -105.429E-03     15.6443E-03
             275     16.1987E-03     48.3050E-03    -2.09034E+06     107.680E+06     96.6017E+06    -19.6848E+03    -104.620E-03     210.383E-03    -105.763E-03     16.5696E-03    -104.973E-03     210.831E-03    -105.434E-03     15.6788E-03
             276     16.1994E-03     49.4755E-03    -2.22879E+06     107.220E+06     96.5765E+06    -160.730E+03    -104.544E-03     210.307E-03    -105.763E-03     16.3664E-03    -104.896E-03     210.752E-03    -105.432E-03     15.4787E-03
             277     16.1988E-03     50.6466E-03    -2.67297E+06     106.934E+06     96.3420E+06    -190.679E+03    -104.636E-03     210.400E-03    -105.764E-03     16.2399E-03    -104.990E-03     210.844E-03    -105.433E-03     15.3588E-03
             278     16.1992E-03     51.8166E-03    -2.06272E+06     107.386E+06     96.8142E+06     229.081E+03    -104.735E-03     210.492E-03    -105.758E-03     16.6657E-03    -105.087E-03     210.937E-03    -105.426E-03     15.7895E-03
             279     16.1993E-03     52.9888E-03    -2.16755E+06     107.311E+06     96.8186E+06    -225.983E+03    -104.894E-03     210.645E-03    -105.751E-03     16.9056E-03    -105.248E-03     211.091E-03    -105.419E-03     16.0084E-03
             280     16.1988E-03     54.1597E-03    -3.14472E+06     106.710E+06     95.6510E+06    -151.241E+03    -104.875E-03     210.630E-03    -105.755E-03     16.5112E-03    -105.230E-03     211.075E-03    -105.427E-03     15.6223E-03
             281     16.1992E-03     55.3294E-03    -1.97407E+06     107.753E+06     96.7650E+06     999.175E+03    -104.747E-03     210.505E-03    -105.758E-03     16.4317E-03    -105.100E-03     210.952E-03    -105.428E-03     15.5607E-03
             282     16.1990E-03     56.5018E-03    -2.56986E+06     107.159E+06     96.1160E+06     443.688E+03    -104.791E-03     210.547E-03    -105.756E-03     16.5110E-03    -105.145E-03     210.994E-03    -105.427E-03     15.6180E-03
             283     16.1989E-03     57.6719E-03    -3.15573E+06     106.451E+06     95.6324E+06    -906.485E+03    -104.650E-03     210.409E-03    -105.759E-03     16.6399E-03    -105.005E-03     210.853E-03    -105.430E-03     15.7406E-03
             284     16.1994E-03     58.8426E-03    -1.88227E+06     107.631E+06     96.9382E+06    -351.340E+03    -104.713E-03     210.465E-03    -105.752E-03     16.8967E-03    -105.065E-03     210.911E-03    -105.421E-03     16.0166E-03
             285     16.1991E-03     60.0145E-03    -2.83591E+06     107.137E+06     95.8526E+06     284.045E+03    -104.916E-03     210.661E-03    -105.744E-03     16.8088E-03    -105.271E-03     211.108E-03    -105.416E-03     15.9267E-03
             286     16.1991E-03     61.1845E-03    -2.44850E+06     107.630E+06     96.4706E+06    -114.614E+03    -104.956E-03     210.704E-03    -105.749E-03     16.6967E-03    -105.311E-03     211.153E-03    -105.419E-03     15.8019E-03
             287     16.1991E-03     62.3564E-03    -2.26605E+06     107.329E+06     96.8452E+06     111.495E+03    -104.817E-03     210.571E-03    -105.754E-03     16.4882E-03    -105.170E-03     211.016E-03    -105.422E-03     15.6022E-03
             288     16.1992E-03     63.5267E-03    -2.70577E+06     107.117E+06     96.2072E+06     240.943E+03    -104.635E-03     210.392E-03    -105.757E-03     16.1661E-03    -104.989E-03     210.838E-03    -105.428E-03     15.2831E-03
             289     16.1990E-03     64.6967E-03    -2.67768E+06     107.333E+06     96.2019E+06    -338.279E+03    -104.924E-03     210.673E-03    -105.749E-03     16.2256E-03    -105.279E-03     211.120E-03    -105.419E-03     15.3281E-03
             290     16.1993E-03     65.8693E-03    -2.22186E+06     106.827E+06     96.6376E+06    -300.898E+03    -104.959E-03     210.706E-03    -105.747E-03     16.2169E-03    -105.312E-03     211.150E-03    -105.416E-03     15.3088E-03
             291     16.1991E-03     67.0398E-03    -1.87574E+06     107.146E+06     96.8711E+06    -149.349E+03    -104.613E-03     210.370E-03    -105.757E-03     16.4065E-03    -104.965E-03     210.815E-03    -105.425E-03     15.5087E-03
             292     809.647E-06     68.6056E-03    -118.437E+06    -232.806E+06    -115.686E+06    -133.077E+03    -105.758E-03     211.484E-03    -105.726E-03     7.20930E-03    -105.846E-03     210.661E-03    -105.795E-03     7.11221E-03
             293     1.61932E-03     68.6168E-03    -114.140E+06    -220.659E+06    -103.582E+06     121.883E+03    -105.695E-03     211.461E-03    -105.766E-03     13.0200E-03    -105.800E-03     210.678E-03    -105.798E-03     12.8457E-03
             294     2.42902E-03     68.6346E-03    -107.715E+06    -203.318E+06    -86.5479E+06     19.6125E+03    -105.714E-03     211.510E-03    -105.796E-03     18.9300E-03    -105.842E-03     210.785E-03    -105.778E-03     18.6711E-03
             295     3.23872E-03     68.6590E-03    -99.9205E+06    -184.059E+06    -68.1376E+06     36.7964E+03    -105.696E-03     211.525E-03    -105.829E-03     24.5325E-03    -105.847E-03     210.865E-03    -105.758E-03     24.1927E-03
             296     4.04850E-03     68.6895E-03    -91.9897E+06    -164.937E+06    -50.6569E+06     64.0104E+03    -105.691E-03     211.543E-03    -105.851E-03     29.6736E-03    -105.864E-03     210.950E-03    -105.732E-03     29.2538E-03
             297     4.85826E-03     68.7251E-03    -83.8804E+06    -146.018E+06    -34.5972E+06     111.977E+03    -105.703E-03     211.567E-03    -105.865E-03     34.3017E-03    -105.895E-03     211.044E-03    -105.704E-03     33.8045E-03
             298     5.66824E-03     68.7659E-03    -75.6186E+06    -127.927E+06    -20.2659E+06     142.556E+03    -105.742E-03     211.613E-03    -105.872E-03     38.3707E-03    -105.949E-03     211.157E-03    -105.678E-03     37.7981E-03
             299     6.47807E-03     68.8106E-03    -67.9591E+06    -110.376E+06    -8.06415E+06     82.2997E+03    -105.784E-03     211.657E-03    -105.872E-03     41.8319E-03    -106.008E-03     211.270E-03    -105.654E-03     41.1847E-03
             300     7.28806E-03     68.8591E-03    -60.6979E+06    -93.3284E+06     2.66782E+06     25.1915E+03    -105.804E-03     211.673E-03    -105.869E-03     44.6701E-03    -106.042E-03     211.357E-03    -105.632E-03     43.9505E-03
             301     8.09796E-03     68.9101E-03    -53.9530E+06    -76.8030E+06     12.0988E+06     14.1061E+03    -105.821E-03     211.683E-03    -105.861E-03     46.9913E-03    -106.074E-03     211.436E-03    -105.611E-03     46.2003E-03
             302     8.90791E-03     68.9638E-03    -47.5433E+06    -59.2480E+06     20.7781E+06     143.028E+03    -105.823E-03     211.673E-03    -105.850E-03     48.7708E-03    -106.094E-03     211.504E-03    -105.591E-03     47.9090E-03
             303     9.71789E-03     69.0186E-03    -41.5144E+06    -40.6883E+06     28.8502E+06     182.432E+03    -105.800E-03     211.635E-03    -105.835E-03     50.0009E-03    -106.090E-03     211.550E-03    -105.572E-03     49.0669E-03
             304     10.5280E-03     69.0748E-03    -35.7123E+06    -18.2919E+06     36.8334E+06     184.882E+03    -105.744E-03     211.559E-03    -105.815E-03     50.6351E-03    -106.061E-03     211.577E-03    -105.552E-03     49.6265E-03
             305     11.3381E-03     69.1306E-03    -30.4133E+06     5.70725E+06     44.9846E+06     350.152E+03    -105.686E-03     211.480E-03    -105.794E-03     50.3918E-03    -106.033E-03     211.609E-03    -105.533E-03     49.3082E-03
             306     12.1482E-03     69.1862E-03    -25.2052E+06     33.6300E+06     52.5033E+06     700.630E+03    -105.606E-03     211.372E-03    -105.766E-03     49.0593E-03    -105.988E-03     211.631E-03    -105.515E-03     47.9058E-03
             307     12.9579E-03     69.2392E-03    -19.6861E+06     69.1752E+06     62.3534E+06     377.005E+03    -105.330E-03     211.065E-03    -105.735E-03     46.2975E-03    -105.753E-03     211.483E-03    -105.495E-03     45.0783E-03
             308     13.7687E-03     69.2878E-03    -15.5643E+06     94.3698E+06     68.1885E+06    -598.665E+03    -105.008E-03     210.703E-03    -105.695E-03     41.4036E-03    -105.453E-03     211.230E-03    -105.468E-03     40.1253E-03
             309     14.5791E-03     69.3291E-03    -11.2650E+06     103.993E+06     77.5771E+06    -972.375E+03    -104.936E-03     210.631E-03    -105.695E-03     35.1485E-03    -105.382E-03     211.181E-03    -105.441E-03     33.8041E-03
             310     15.3893E-03     69.3633E-03    -5.01783E+06     107.481E+06     92.4761E+06     282.385E+03    -104.984E-03     210.721E-03    -105.738E-03     24.4612E-03    -105.385E-03     211.218E-03    -105.424E-03     23.3343E-03
             311     809.464E-06     69.7760E-03    -118.474E+06    -232.724E+06    -114.983E+06    -12.7583E+03    -105.765E-03     211.553E-03    -105.789E-03     7.03942E-03    -105.855E-03     210.730E-03    -105.854E-03     6.94292E-03
             312     1.61931E-03     69.7873E-03    -113.959E+06    -220.488E+06    -103.386E+06    -200.611E+03    -105.701E-03     211.496E-03    -105.795E-03     13.0034E-03    -105.806E-03     210.713E-03    -105.827E-03     12.8252E-03
             313     2.42893E-03     69.8053E-03    -107.560E+06    -203.256E+06    -86.7895E+06    -157.906E+03    -105.719E-03     211.533E-03    -105.814E-03     18.9114E-03    -105.846E-03     210.809E-03    -105.798E-03     18.6507E-03
             314     3.23858E-03     69.8297E-03    -100.229E+06    -184.412E+06    -68.3610E+06     42.3684E+03    -105.683E-03     211.525E-03    -105.843E-03     24.5253E-03    -105.834E-03     210.864E-03    -105.772E-03     24.1856E-03
             315     4.04846E-03     69.8600E-03    -92.1051E+06    -164.837E+06    -50.4337E+06     145.160E+03    -105.658E-03     211.517E-03    -105.859E-03     29.7042E-03    -105.831E-03     210.925E-03    -105.739E-03     29.2850E-03
             316     4.85839E-03     69.8959E-03    -83.7132E+06    -146.000E+06    -34.3258E+06     81.1760E+03    -105.711E-03     211.580E-03    -105.869E-03     34.3130E-03    -105.903E-03     211.056E-03    -105.707E-03     33.8146E-03
             317     5.66816E-03     69.9365E-03    -75.7531E+06    -127.947E+06    -20.4018E+06     73.8993E+03    -105.766E-03     211.642E-03    -105.876E-03     38.3729E-03    -105.974E-03     211.186E-03    -105.683E-03     37.7991E-03
             318     6.47807E-03     69.9815E-03    -68.0739E+06    -110.355E+06    -8.07602E+06     63.3621E+03    -105.794E-03     211.673E-03    -105.879E-03     41.8430E-03    -106.017E-03     211.286E-03    -105.661E-03     41.1957E-03
             319     7.28790E-03     70.0297E-03    -60.8082E+06    -93.4267E+06     2.66139E+06     128.788E+03    -105.813E-03     211.689E-03    -105.876E-03     44.7331E-03    -106.051E-03     211.372E-03    -105.639E-03     44.0146E-03
             320     8.09787E-03     70.0811E-03    -54.0719E+06    -76.8289E+06     12.0959E+06     243.362E+03    -105.808E-03     211.675E-03    -105.867E-03     47.0803E-03    -106.061E-03     211.429E-03    -105.617E-03     46.2920E-03
             321     8.90791E-03     70.1343E-03    -47.6511E+06    -59.0860E+06     20.7599E+06     1.93625E+03    -105.792E-03     211.645E-03    -105.853E-03     48.8687E-03    -106.063E-03     211.477E-03    -105.594E-03     48.0053E-03
             322     9.71798E-03     70.1896E-03    -41.4595E+06    -41.0103E+06     28.7272E+06     76.2245E+03    -105.779E-03     211.615E-03    -105.835E-03     50.0260E-03    -106.069E-03     211.528E-03    -105.572E-03     49.0907E-03
             323     10.5281E-03     70.2453E-03    -35.9074E+06    -18.2659E+06     36.6903E+06     239.437E+03    -105.746E-03     211.560E-03    -105.814E-03     50.5918E-03    -106.064E-03     211.579E-03    -105.552E-03     49.5837E-03
             324     11.3380E-03     70.3018E-03    -30.2933E+06     4.97237E+06     44.8322E+06     467.468E+03    -105.698E-03     211.492E-03    -105.794E-03     50.4144E-03    -106.043E-03     211.617E-03    -105.533E-03     49.3318E-03
             325     12.1480E-03     70.3570E-03    -25.0328E+06     33.5818E+06     52.4250E+06     630.398E+03    -105.530E-03     211.293E-03    -105.763E-03     49.1263E-03    -105.911E-03     211.552E-03    -105.513E-03     47.9723E-03
             326     12.9586E-03     70.4101E-03    -20.0145E+06     70.3612E+06     62.9960E+06     234.740E+03    -105.261E-03     210.992E-03    -105.731E-03     46.1395E-03    -105.689E-03     211.416E-03    -105.489E-03     44.9153E-03
             327     13.7686E-03     70.4582E-03    -14.1782E+06     95.0819E+06     68.8543E+06     195.491E+03    -105.125E-03     210.816E-03    -105.691E-03     40.9425E-03    -105.565E-03     211.343E-03    -105.464E-03     39.6671E-03
             328     14.5789E-03     70.5000E-03    -10.1589E+06     104.560E+06     77.6275E+06    -475.522E+03    -105.183E-03     210.882E-03    -105.699E-03     34.8579E-03    -105.624E-03     211.433E-03    -105.447E-03     33.5175E-03
             329     15.3884E-03     70.5353E-03    -5.78309E+06     106.739E+06     91.8076E+06    -269.960E+03    -104.949E-03     210.697E-03    -105.748E-03     24.1375E-03    -105.351E-03     211.192E-03    -105.436E-03     22.9978E-03
             330     809.701E-06     70.9469E-03    -117.801E+06    -232.565E+06    -114.890E+06     167.950E+03    -105.827E-03     211.579E-03    -105.752E-03     7.05966E-03    -105.914E-03     210.756E-03    -105.819E-03     6.96547E-03
             331     1.61907E-03     70.9579E-03    -113.709E+06    -220.172E+06    -103.027E+06    -47.7251E+03    -105.742E-03     211.555E-03    -105.813E-03     13.0761E-03    -105.847E-03     210.773E-03    -105.844E-03     12.8997E-03
             332     2.42886E-03     70.9760E-03    -107.815E+06    -203.440E+06    -86.8378E+06    -80.3699E+03    -105.684E-03     211.513E-03    -105.829E-03     19.0209E-03    -105.812E-03     210.788E-03    -105.812E-03     18.7613E-03
             333     3.23871E-03     71.0003E-03    -100.376E+06    -184.489E+06    -68.4140E+06    -35.3041E+03    -105.681E-03     211.529E-03    -105.848E-03     24.5284E-03    -105.833E-03     210.869E-03    -105.777E-03     24.1867E-03
             334     4.04844E-03     71.0307E-03    -92.2090E+06    -164.893E+06    -50.5977E+06     26.0362E+03    -105.683E-03     211.548E-03    -105.865E-03     29.6845E-03    -105.856E-03     210.956E-03    -105.745E-03     29.2635E-03
             335     4.85825E-03     71.0666E-03    -83.9581E+06    -146.052E+06    -34.4866E+06     138.245E+03    -105.713E-03     211.589E-03    -105.877E-03     34.3403E-03    -105.905E-03     211.065E-03    -105.715E-03     33.8430E-03
             336     5.66812E-03     71.1074E-03    -75.8198E+06    -127.876E+06    -20.2988E+06     88.2447E+03    -105.762E-03     211.646E-03    -105.883E-03     38.4037E-03    -105.971E-03     211.190E-03    -105.689E-03     37.8301E-03
             337     6.47799E-03     71.1521E-03    -68.0839E+06    -110.377E+06    -8.00898E+06     41.9857E+03    -105.775E-03     211.659E-03    -105.884E-03     41.8728E-03    -105.999E-03     211.272E-03    -105.665E-03     41.2253E-03
             338     7.28801E-03     71.2006E-03    -60.8796E+06    -93.5715E+06     2.64888E+06     56.3836E+03    -105.783E-03     211.661E-03    -105.877E-03     44.7875E-03    -106.022E-03     211.344E-03    -105.640E-03     44.0680E-03
             339     8.09795E-03     71.2517E-03    -53.8290E+06    -76.9038E+06     12.1417E+06     67.7390E+03    -105.811E-03     211.678E-03    -105.867E-03     47.1096E-03    -106.064E-03     211.431E-03    -105.617E-03     46.3184E-03
             340     8.90793E-03     71.3052E-03    -47.3768E+06    -58.7774E+06     20.9245E+06     146.170E+03    -105.816E-03     211.670E-03    -105.854E-03     48.8447E-03    -106.086E-03     211.503E-03    -105.595E-03     47.9825E-03
             341     9.71792E-03     71.3602E-03    -41.4921E+06    -41.1929E+06     28.6842E+06    -5.61580E+03    -105.802E-03     211.640E-03    -105.838E-03     49.9855E-03    -106.091E-03     211.552E-03    -105.575E-03     49.0476E-03
             342     10.5279E-03     71.4163E-03    -35.5958E+06    -18.5038E+06     36.7301E+06     134.325E+03    -105.745E-03     211.563E-03    -105.817E-03     50.6046E-03    -106.061E-03     211.580E-03    -105.555E-03     49.5941E-03
             343     11.3380E-03     71.4725E-03    -29.9776E+06     4.57586E+06     44.9475E+06     244.417E+03    -105.644E-03     211.439E-03    -105.795E-03     50.4488E-03    -105.988E-03     211.563E-03    -105.534E-03     49.3630E-03
             344     12.1483E-03     71.5279E-03    -24.0396E+06     33.6059E+06     52.9545E+06     450.098E+03    -105.501E-03     211.263E-03    -105.762E-03     49.0188E-03    -105.878E-03     211.520E-03    -105.511E-03     47.8611E-03
             345     12.9582E-03     71.5807E-03    -18.7654E+06     71.0781E+06     63.8208E+06     685.796E+03    -105.378E-03     211.111E-03    -105.733E-03     46.0612E-03    -105.802E-03     211.536E-03    -105.490E-03     44.8423E-03
             346     13.7685E-03     71.6294E-03    -14.6442E+06     94.5219E+06     68.1018E+06     136.797E+03    -105.351E-03     211.050E-03    -105.699E-03     41.0959E-03    -105.792E-03     211.577E-03    -105.474E-03     39.8182E-03
             347     14.5781E-03     71.6712E-03    -9.68067E+06     105.013E+06     77.8132E+06     792.579E+03    -105.076E-03     210.787E-03    -105.712E-03     35.1729E-03    -105.516E-03     211.340E-03    -105.461E-03     33.8503E-03
             348     15.3889E-03     71.7064E-03    -5.31920E+06     107.393E+06     92.3573E+06     146.285E+03    -104.793E-03     210.548E-03    -105.755E-03     24.3806E-03    -105.195E-03     211.044E-03    -105.441E-03     23.2553E-03
             349     809.524E-06     72.1177E-03    -117.957E+06    -232.472E+06    -115.338E+06    -62.9827E+03    -105.711E-03     211.506E-03    -105.795E-03     7.13510E-03    -105.798E-03     210.684E-03    -105.864E-03     7.03902E-03
             350     1.61933E-03     72.1287E-03    -114.090E+06    -220.146E+06    -103.266E+06    -13.0464E+03    -105.765E-03     211.554E-03    -105.789E-03     13.0732E-03    -105.871E-03     210.773E-03    -105.821E-03     12.8960E-03
             351     2.42894E-03     72.1466E-03    -107.931E+06    -203.504E+06    -86.6820E+06     39.1587E+03    -105.709E-03     211.533E-03    -105.824E-03     19.0072E-03    -105.837E-03     210.807E-03    -105.806E-03     18.7486E-03
             352     3.23860E-03     72.1711E-03    -100.218E+06    -184.363E+06    -68.2950E+06     8.87494E+03    -105.697E-03     211.546E-03    -105.849E-03     24.5623E-03    -105.848E-03     210.885E-03    -105.778E-03     24.2212E-03
             353     4.04838E-03     72.2014E-03    -92.0867E+06    -165.104E+06    -50.5553E+06     14.0454E+03    -105.715E-03     211.586E-03    -105.871E-03     29.7137E-03    -105.888E-03     210.992E-03    -105.751E-03     29.2926E-03
             354     4.85824E-03     72.2373E-03    -83.8076E+06    -146.099E+06    -34.3811E+06     42.7585E+03    -105.717E-03     211.602E-03    -105.884E-03     34.3979E-03    -105.909E-03     211.077E-03    -105.723E-03     33.8995E-03
             355     5.66813E-03     72.2780E-03    -75.6713E+06    -127.830E+06    -20.1829E+06     35.8984E+03    -105.734E-03     211.622E-03    -105.888E-03     38.4484E-03    -105.942E-03     211.166E-03    -105.694E-03     37.8741E-03
             356     6.47802E-03     72.3229E-03    -67.9586E+06    -110.354E+06    -8.00134E+06     54.6459E+03    -105.768E-03     211.654E-03    -105.885E-03     41.8833E-03    -105.992E-03     211.267E-03    -105.667E-03     41.2354E-03
             357     7.28793E-03     72.3712E-03    -60.5762E+06    -93.4486E+06     2.73925E+06    -10.6214E+03    -105.797E-03     211.676E-03    -105.879E-03     44.7548E-03    -106.035E-03     211.359E-03    -105.642E-03     44.0341E-03
             358     8.09793E-03     72.4226E-03    -53.8984E+06    -77.0329E+06     12.0579E+06     8.19037E+03    -105.821E-03     211.690E-03    -105.869E-03     47.0621E-03    -106.073E-03     211.443E-03    -105.619E-03     46.2699E-03
             359     8.90786E-03     72.4760E-03    -47.4405E+06    -58.9218E+06     20.8355E+06     109.888E+03    -105.829E-03     211.686E-03    -105.857E-03     48.8422E-03    -106.100E-03     211.519E-03    -105.599E-03     47.9787E-03
             360     9.71785E-03     72.5311E-03    -41.3736E+06    -40.8980E+06     28.8980E+06     164.736E+03    -105.801E-03     211.644E-03    -105.842E-03     50.0283E-03    -106.091E-03     211.557E-03    -105.579E-03     49.0922E-03
             361     10.5279E-03     72.5870E-03    -35.8698E+06    -18.7516E+06     36.7032E+06     127.172E+03    -105.730E-03     211.551E-03    -105.821E-03     50.6336E-03    -106.047E-03     211.567E-03    -105.558E-03     49.6218E-03
             362     11.3380E-03     72.6433E-03    -30.5028E+06     4.58774E+06     44.7620E+06     150.655E+03    -105.637E-03     211.435E-03    -105.797E-03     50.4014E-03    -105.984E-03     211.559E-03    -105.536E-03     49.3139E-03
             363     12.1480E-03     72.6986E-03    -25.6868E+06     33.5216E+06     52.0416E+06     84.3888E+03    -105.538E-03     211.301E-03    -105.763E-03     49.0104E-03    -105.921E-03     211.561E-03    -105.515E-03     47.8479E-03
             364     12.9584E-03     72.7517E-03    -20.4343E+06     69.9721E+06     62.2661E+06     156.563E+03    -105.417E-03     211.152E-03    -105.735E-03     46.2144E-03    -105.846E-03     211.576E-03    -105.495E-03     44.9893E-03
             365     13.7683E-03     72.8007E-03    -15.0870E+06     94.6113E+06     68.6273E+06     658.386E+03    -105.236E-03     210.941E-03    -105.705E-03     41.3813E-03    -105.679E-03     211.468E-03    -105.478E-03     40.1161E-03
             366     14.5786E-03     72.8424E-03    -10.0306E+06     105.197E+06     78.2355E+06     332.849E+03    -104.979E-03     210.689E-03    -105.711E-03     35.1531E-03    -105.421E-03     211.243E-03    -105.458E-03     33.8230E-03
             367     15.3890E-03     72.8761E-03    -4.84466E+06     107.731E+06     92.4944E+06    -39.3357E+03    -104.829E-03     210.579E-03    -105.750E-03     24.4080E-03    -105.230E-03     211.076E-03    -105.436E-03     23.2808E-03
             368     809.817E-06     73.2882E-03    -117.842E+06    -232.418E+06    -114.992E+06    -173.018E+03    -105.658E-03     211.488E-03    -105.830E-03     7.25408E-03    -105.745E-03     210.666E-03    -105.897E-03     7.15516E-03
             369     1.61921E-03     73.2995E-03    -113.741E+06    -220.315E+06    -103.012E+06    -33.0224E+03    -105.748E-03     211.527E-03    -105.779E-03     13.0182E-03    -105.853E-03     210.744E-03    -105.809E-03     12.8420E-03
             370     2.42887E-03     73.3173E-03    -107.549E+06    -203.513E+06    -86.3202E+06     150.298E+03    -105.723E-03     211.539E-03    -105.816E-03     18.9900E-03    -105.850E-03     210.812E-03    -105.797E-03     18.7332E-03
             371     3.23869E-03     73.3417E-03    -100.272E+06    -184.289E+06    -68.2057E+06     22.9808E+03    -105.708E-03     211.554E-03    -105.846E-03     24.6272E-03    -105.860E-03     210.894E-03    -105.774E-03     24.2867E-03
             372     4.04845E-03     73.3721E-03    -92.1197E+06    -165.020E+06    -50.4582E+06    -89.3187E+03    -105.732E-03     211.603E-03    -105.871E-03     29.7520E-03    -105.906E-03     211.010E-03    -105.750E-03     29.3291E-03
             373     4.85820E-03     73.4080E-03    -83.7657E+06    -146.230E+06    -34.4407E+06     46.7706E+03    -105.739E-03     211.626E-03    -105.887E-03     34.3791E-03    -105.931E-03     211.101E-03    -105.726E-03     33.8797E-03
             374     5.66806E-03     73.4487E-03    -75.6719E+06    -127.709E+06    -20.2982E+06     79.1349E+03    -105.726E-03     211.617E-03    -105.891E-03     38.4290E-03    -105.934E-03     211.162E-03    -105.698E-03     37.8551E-03
             375     6.47804E-03     73.4936E-03    -67.8828E+06    -110.412E+06    -8.11864E+06    -45.4113E+03    -105.772E-03     211.660E-03    -105.888E-03     41.8983E-03    -105.995E-03     211.273E-03    -105.670E-03     41.2491E-03
             376     7.28793E-03     73.5421E-03    -60.7879E+06    -93.6002E+06     2.55810E+06     167.666E+03    -105.825E-03     211.707E-03    -105.883E-03     44.7672E-03    -106.063E-03     211.390E-03    -105.646E-03     44.0482E-03
             377     8.09780E-03     73.5932E-03    -54.0297E+06    -76.8072E+06     12.2088E+06     146.179E+03    -105.824E-03     211.699E-03    -105.875E-03     47.0951E-03    -106.077E-03     211.453E-03    -105.625E-03     46.3037E-03
             378     8.90786E-03     73.6469E-03    -47.5315E+06    -59.0050E+06     20.8319E+06    -33.4987E+03    -105.808E-03     211.669E-03    -105.861E-03     48.8757E-03    -106.079E-03     211.502E-03    -105.603E-03     48.0099E-03
             379     9.71787E-03     73.7019E-03    -41.4257E+06    -41.0521E+06     28.8104E+06     60.4339E+03    -105.797E-03     211.642E-03    -105.845E-03     50.0239E-03    -106.086E-03     211.555E-03    -105.581E-03     49.0859E-03
             380     10.5279E-03     73.7579E-03    -35.4878E+06    -18.7887E+06     36.8067E+06     293.080E+03    -105.757E-03     211.581E-03    -105.824E-03     50.6037E-03    -106.072E-03     211.597E-03    -105.561E-03     49.5934E-03
             381     11.3379E-03     73.8141E-03    -30.0839E+06     4.73983E+06     44.9294E+06     396.112E+03    -105.690E-03     211.493E-03    -105.803E-03     50.3558E-03    -106.035E-03     211.618E-03    -105.542E-03     49.2704E-03
             382     12.1482E-03     73.8694E-03    -24.9470E+06     33.3209E+06     52.3220E+06     257.472E+03    -105.585E-03     211.358E-03    -105.773E-03     48.9899E-03    -105.965E-03     211.616E-03    -105.523E-03     47.8279E-03
             383     12.9580E-03     73.9227E-03    -20.0913E+06     69.3794E+06     62.2934E+06     168.252E+03    -105.320E-03     211.062E-03    -105.742E-03     46.1787E-03    -105.746E-03     211.482E-03    -105.502E-03     44.9521E-03
             384     13.7684E-03     73.9715E-03    -14.8748E+06     94.5181E+06     68.1920E+06     507.883E+03    -105.065E-03     210.766E-03    -105.701E-03     41.2961E-03    -105.506E-03     211.293E-03    -105.476E-03     40.0297E-03
             385     14.5789E-03     74.0130E-03    -9.92438E+06     105.069E+06     78.0185E+06     140.068E+03    -105.037E-03     210.742E-03    -105.705E-03     35.0979E-03    -105.479E-03     211.295E-03    -105.453E-03     33.7640E-03
             386     15.3885E-03     74.0480E-03    -4.94528E+06     108.048E+06     92.9336E+06    -23.8944E+03    -104.928E-03     210.679E-03    -105.751E-03     24.3302E-03    -105.331E-03     211.178E-03    -105.436E-03     23.1937E-03
             387     809.391E-06     74.4589E-03    -117.845E+06    -232.269E+06    -114.984E+06    -58.2980E+03    -105.831E-03     211.538E-03    -105.707E-03     7.21090E-03    -105.919E-03     210.716E-03    -105.774E-03     7.11408E-03
             388     1.61930E-03     74.4701E-03    -113.803E+06    -220.518E+06    -103.123E+06     84.4356E+03    -105.709E-03     211.500E-03    -105.791E-03     13.0572E-03    -105.813E-03     210.716E-03    -105.822E-03     12.8835E-03
             389     2.42903E-03     74.4880E-03    -107.666E+06    -203.686E+06    -86.4888E+06     196.534E+03    -105.733E-03     211.549E-03    -105.817E-03     18.9412E-03    -105.860E-03     210.822E-03    -105.798E-03     18.6846E-03
             390     3.23864E-03     74.5124E-03    -100.085E+06    -183.981E+06    -68.0098E+06     147.650E+03    -105.717E-03     211.567E-03    -105.850E-03     24.5446E-03    -105.869E-03     210.908E-03    -105.778E-03     24.2052E-03
             391     4.04840E-03     74.5428E-03    -92.0687E+06    -164.975E+06    -50.3890E+06     88.8977E+03    -105.718E-03     211.592E-03    -105.874E-03     29.7477E-03    -105.892E-03     210.999E-03    -105.753E-03     29.3268E-03
             392     4.85821E-03     74.5788E-03     -83.924E+06    -146.305E+06    -34.5686E+06    -36.6496E+03    -105.741E-03     211.629E-03    -105.888E-03     34.3821E-03    -105.933E-03     211.104E-03    -105.727E-03     33.8812E-03
             393     5.66807E-03     74.6194E-03    -75.7089E+06    -127.727E+06    -20.4241E+06     17.5174E+03    -105.763E-03     211.657E-03    -105.894E-03     38.4382E-03    -105.971E-03     211.203E-03    -105.701E-03     37.8629E-03
             394     6.47794E-03     74.6644E-03    -68.2745E+06    -110.476E+06    -8.16235E+06     181.104E+03    -105.780E-03     211.674E-03    -105.894E-03     41.9138E-03    -106.005E-03     211.288E-03    -105.676E-03     41.2673E-03
             395     7.28787E-03     74.7128E-03    -60.9534E+06    -93.6898E+06     2.59954E+06     22.3466E+03    -105.802E-03     211.690E-03    -105.888E-03     44.7835E-03    -106.041E-03     211.373E-03    -105.651E-03     44.0624E-03
             396     8.09788E-03     74.7641E-03    -53.9338E+06    -76.6841E+06     12.1530E+06     8.90534E+03    -105.828E-03     211.706E-03    -105.878E-03     47.1100E-03    -106.081E-03     211.460E-03    -105.628E-03     46.3163E-03
             397     8.90777E-03     74.8176E-03    -47.6666E+06    -58.9347E+06     20.7833E+06     122.742E+03    -105.829E-03     211.695E-03    -105.865E-03     48.8705E-03    -106.101E-03     211.528E-03    -105.607E-03     48.0060E-03
             398     9.71783E-03     74.8727E-03    -41.7059E+06    -41.1537E+06     28.6172E+06     83.4964E+03    -105.814E-03     211.665E-03    -105.850E-03     49.9965E-03    -106.105E-03     211.578E-03    -105.587E-03     49.0585E-03
             399     10.5278E-03     74.9287E-03    -36.0269E+06    -19.0998E+06     36.4462E+06    -18.9146E+03    -105.769E-03     211.599E-03    -105.830E-03     50.5855E-03    -106.086E-03     211.614E-03    -105.568E-03     49.5714E-03
             400     11.3379E-03     74.9850E-03    -30.3067E+06     4.28286E+06     44.7569E+06     386.174E+03    -105.713E-03     211.524E-03    -105.811E-03     50.4270E-03    -106.058E-03     211.646E-03    -105.549E-03     49.3410E-03
             401     12.1477E-03     75.0405E-03    -25.1575E+06     33.4294E+06     52.2024E+06     568.606E+03    -105.567E-03     211.346E-03    -105.779E-03     49.1157E-03    -105.948E-03     211.605E-03    -105.530E-03     47.9582E-03
             402     12.9582E-03     75.0935E-03    -20.0106E+06     70.1158E+06     62.4641E+06     540.087E+03    -105.294E-03     211.041E-03    -105.747E-03     46.1461E-03    -105.721E-03     211.464E-03    -105.507E-03     44.9269E-03
             403     13.7685E-03     75.1420E-03    -15.0912E+06     94.6625E+06     67.5451E+06     228.866E+03    -105.101E-03     210.805E-03    -105.703E-03     41.1907E-03    -105.543E-03     211.333E-03    -105.481E-03     39.9179E-03
             404     14.5785E-03     75.1843E-03    -10.4134E+06     104.688E+06     77.3144E+06     210.332E+03    -104.935E-03     210.641E-03    -105.706E-03     35.0976E-03    -105.377E-03     211.194E-03    -105.456E-03     33.7674E-03
             405     15.3892E-03     75.2187E-03    -5.02858E+06     108.113E+06     93.1787E+06     221.335E+03    -104.849E-03     210.599E-03    -105.750E-03     24.4599E-03    -105.252E-03     211.098E-03    -105.434E-03     23.3326E-03
             406     809.712E-06     75.6295E-03    -117.844E+06    -232.392E+06    -114.816E+06     100.222E+03    -105.757E-03     211.568E-03    -105.811E-03     6.93679E-03    -105.844E-03     210.745E-03    -105.877E-03     6.84143E-03
             407     1.61924E-03     75.6406E-03    -113.751E+06    -220.692E+06    -102.975E+06     104.752E+03    -105.722E-03     211.528E-03    -105.806E-03     13.0536E-03    -105.827E-03     210.744E-03    -105.836E-03     12.8788E-03
             408     2.42880E-03     75.6588E-03    -107.456E+06    -203.832E+06    -86.4926E+06     72.3632E+03    -105.716E-03     211.542E-03    -105.826E-03     19.0132E-03    -105.842E-03     210.814E-03    -105.807E-03     18.7550E-03
             409     3.23857E-03     75.6830E-03    -99.9208E+06    -184.009E+06    -68.1131E+06     243.929E+03    -105.726E-03     211.580E-03    -105.854E-03     24.6225E-03    -105.877E-03     210.920E-03    -105.783E-03     24.2836E-03
             410     4.04838E-03     75.7136E-03    -91.8420E+06    -164.913E+06    -50.2992E+06     213.397E+03    -105.717E-03     211.595E-03    -105.878E-03     29.7663E-03    -105.889E-03     211.002E-03    -105.757E-03     29.3470E-03
             411     4.85824E-03     75.7494E-03    -83.6194E+06    -146.098E+06    -34.3011E+06     119.197E+03    -105.737E-03     211.629E-03    -105.891E-03     34.3728E-03    -105.928E-03     211.104E-03    -105.730E-03     33.8742E-03
             412     5.66805E-03     75.7902E-03    -75.7307E+06    -127.909E+06    -20.2421E+06     132.829E+03    -105.790E-03     211.689E-03    -105.899E-03     38.4396E-03    -105.998E-03     211.233E-03    -105.705E-03     37.8649E-03
             413     6.47789E-03     75.8351E-03    -67.9401E+06    -110.504E+06    -7.94631E+06     155.612E+03    -105.802E-03     211.703E-03    -105.901E-03     41.9009E-03    -106.025E-03     211.316E-03    -105.682E-03     41.2533E-03
             414     7.28786E-03     75.8835E-03    -60.7757E+06    -93.4918E+06     2.63329E+06     174.782E+03    -105.798E-03     211.692E-03    -105.895E-03     44.7751E-03    -106.036E-03     211.375E-03    -105.658E-03     44.0558E-03
             415     8.09777E-03     75.9349E-03    -54.2563E+06    -76.8300E+06     11.9347E+06     178.124E+03    -105.828E-03     211.712E-03    -105.884E-03     47.0898E-03    -106.083E-03     211.466E-03    -105.634E-03     46.2984E-03
             416     8.90780E-03     75.9884E-03    -47.9663E+06    -59.1304E+06     20.6254E+06     247.914E+03    -105.844E-03     211.716E-03    -105.872E-03     48.8572E-03    -106.117E-03     211.549E-03    -105.613E-03     47.9943E-03
             417     9.71767E-03     76.0436E-03    -41.9930E+06    -40.8400E+06     28.6457E+06     209.588E+03    -105.815E-03     211.672E-03    -105.857E-03     50.0402E-03    -106.108E-03     211.587E-03    -105.593E-03     49.1041E-03
             418     10.5277E-03     76.0995E-03    -36.3421E+06    -19.0273E+06     36.3385E+06     60.2628E+03    -105.764E-03     211.600E-03    -105.835E-03     50.6690E-03    -106.083E-03     211.616E-03    -105.573E-03     49.6557E-03
             419     11.3377E-03     76.1560E-03    -30.9383E+06     3.34218E+06     43.9377E+06     24.8759E+03    -105.674E-03     211.486E-03    -105.812E-03     50.5252E-03    -106.020E-03     211.607E-03    -105.553E-03     49.4354E-03
             420     12.1481E-03     76.2114E-03    -25.3684E+06     33.4526E+06     51.9361E+06     566.288E+03    -105.529E-03     211.308E-03    -105.779E-03     49.1407E-03    -105.910E-03     211.567E-03    -105.531E-03     47.9855E-03
             421     12.9581E-03     76.2643E-03    -20.1449E+06     70.3980E+06     62.2530E+06     388.890E+03    -105.373E-03     211.121E-03    -105.747E-03     46.1819E-03    -105.801E-03     211.546E-03    -105.509E-03     44.9592E-03
             422     13.7680E-03     76.3131E-03    -15.0051E+06     94.9540E+06     68.3849E+06     5.24978E+03    -105.160E-03     210.873E-03    -105.713E-03     41.2660E-03    -105.603E-03     211.402E-03    -105.487E-03     39.9939E-03
             423     14.5786E-03     76.3548E-03    -9.83083E+06     105.459E+06     78.4554E+06     452.149E+03    -104.873E-03     210.588E-03    -105.715E-03     35.0574E-03    -105.315E-03     211.142E-03    -105.461E-03     33.7345E-03
             424     15.3887E-03     76.3895E-03    -5.13777E+06     108.012E+06     92.7944E+06     138.445E+03    -104.782E-03     210.532E-03    -105.751E-03     24.4473E-03    -105.184E-03     211.031E-03    -105.436E-03     23.3210E-03
             425     809.515E-06     76.8003E-03    -118.098E+06    -232.705E+06    -114.935E+06     232.578E+03    -105.735E-03     211.576E-03    -105.841E-03     7.14031E-03    -105.823E-03     210.752E-03    -105.907E-03     7.04610E-03
             426     1.61911E-03     76.8115E-03    -113.706E+06    -220.659E+06    -102.910E+06     95.4431E+03    -105.735E-03     211.547E-03    -105.812E-03     13.0424E-03    -105.839E-03     210.763E-03    -105.842E-03     12.8672E-03
             427     2.42904E-03     76.8292E-03    -107.485E+06    -203.959E+06    -86.4916E+06     82.3063E+03    -105.686E-03     211.514E-03    -105.828E-03     19.0629E-03    -105.812E-03     210.786E-03    -105.809E-03     18.8048E-03
             428     3.23872E-03     76.8540E-03    -100.022E+06    -184.333E+06    -68.3398E+06     145.876E+03    -105.724E-03     211.573E-03    -105.850E-03     24.6654E-03    -105.874E-03     210.913E-03    -105.779E-03     24.3252E-03
             429     4.04836E-03     76.8842E-03    -91.7558E+06    -164.713E+06    -50.2381E+06     130.437E+03    -105.756E-03     211.634E-03    -105.878E-03     29.7668E-03    -105.928E-03     211.042E-03    -105.758E-03     29.3460E-03
             430     4.85814E-03     76.9202E-03    -83.5633E+06    -146.218E+06    -34.1502E+06     180.231E+03    -105.769E-03     211.667E-03    -105.899E-03     34.3950E-03    -105.960E-03     211.142E-03    -105.736E-03     33.8968E-03
             431     5.66801E-03     76.9610E-03    -75.5628E+06    -128.009E+06    -20.1736E+06     324.318E+03    -105.788E-03     211.695E-03    -105.907E-03     38.4278E-03    -105.996E-03     211.239E-03    -105.713E-03     37.8558E-03
             432     6.47789E-03     77.0060E-03    -67.9631E+06    -110.489E+06    -8.02680E+06     359.936E+03    -105.803E-03     211.710E-03    -105.908E-03     41.8676E-03    -106.026E-03     211.323E-03    -105.689E-03     41.2227E-03
             433     7.28774E-03     77.0543E-03    -60.9535E+06    -93.6147E+06     2.55478E+06     425.215E+03    -105.816E-03     211.718E-03    -105.902E-03     44.7884E-03    -106.055E-03     211.401E-03    -105.665E-03     44.0720E-03
             434     8.09774E-03     77.1057E-03    -54.1968E+06    -76.7931E+06     12.0963E+06     421.049E+03    -105.830E-03     211.721E-03    -105.892E-03     47.1510E-03    -106.084E-03     211.476E-03    -105.641E-03     46.3625E-03
             435     8.90761E-03     77.1592E-03    -47.7660E+06    -59.2226E+06     20.6982E+06     294.423E+03    -105.824E-03     211.702E-03    -105.877E-03     48.9010E-03    -106.096E-03     211.534E-03    -105.619E-03     48.0389E-03
             436     9.71777E-03     77.2144E-03    -41.7046E+06    -40.6559E+06     28.6726E+06     232.311E+03    -105.812E-03     211.672E-03    -105.860E-03     50.0771E-03    -106.103E-03     211.587E-03    -105.597E-03     49.1414E-03
             437     10.5277E-03     77.2704E-03    -35.9112E+06    -18.8028E+06     36.5271E+06     109.407E+03    -105.769E-03     211.607E-03    -105.839E-03     50.6750E-03    -106.085E-03     211.624E-03    -105.577E-03     49.6627E-03
             438     11.3379E-03     77.3268E-03    -30.5126E+06     3.14852E+06     44.2165E+06     239.575E+03    -105.676E-03     211.493E-03    -105.817E-03     50.4318E-03    -106.020E-03     211.612E-03    -105.556E-03     49.3445E-03
             439     12.1478E-03     77.3821E-03    -25.2454E+06     33.0779E+06      51.936E+06     6.30972E+03    -105.523E-03     211.305E-03    -105.782E-03     49.0657E-03    -105.903E-03     211.563E-03    -105.534E-03     47.9030E-03
             440     12.9580E-03     77.4355E-03    -19.7647E+06     70.6516E+06     62.7498E+06     8.56214E+03    -105.331E-03     211.082E-03    -105.750E-03     46.2680E-03    -105.758E-03     211.507E-03    -105.510E-03     45.0408E-03
             441     13.7684E-03     77.4839E-03    -14.7196E+06     95.1344E+06     68.4505E+06     356.596E+03    -105.138E-03     210.850E-03    -105.712E-03     41.2703E-03    -105.580E-03     211.379E-03    -105.486E-03     39.9997E-03
             442     14.5784E-03     77.5257E-03    -10.1573E+06     105.287E+06     78.3333E+06     84.1947E+03    -105.004E-03     210.721E-03    -105.717E-03     35.1244E-03    -105.448E-03     211.276E-03    -105.464E-03     33.7884E-03
             443     15.3889E-03     77.5601E-03    -5.32602E+06     108.191E+06     92.9785E+06     193.016E+03    -104.830E-03     210.589E-03    -105.759E-03     24.5400E-03    -105.235E-03     211.089E-03    -105.443E-03     23.4118E-03
             444     809.656E-06     77.9711E-03    -117.656E+06    -232.809E+06    -114.831E+06     37.9950E+03    -105.893E-03     211.532E-03    -105.639E-03     7.20094E-03    -105.979E-03     210.707E-03    -105.705E-03     7.10569E-03
             445     1.61932E-03     77.9821E-03    -113.391E+06    -220.620E+06    -102.837E+06     82.3317E+03    -105.772E-03     211.572E-03    -105.800E-03     13.0212E-03    -105.875E-03     210.787E-03    -105.830E-03     12.8461E-03
             446     2.42877E-03     78.0000E-03    -107.406E+06    -204.115E+06    -86.3589E+06     189.501E+03    -105.746E-03     211.585E-03    -105.838E-03     18.9804E-03    -105.872E-03     210.855E-03    -105.818E-03     18.7230E-03
             447     3.23858E-03     78.0246E-03    -99.8767E+06    -184.298E+06    -68.0822E+06     148.659E+03    -105.706E-03     211.570E-03    -105.865E-03     24.5938E-03    -105.856E-03     210.909E-03    -105.793E-03     24.2538E-03
             448     4.04842E-03     78.0551E-03    -91.7984E+06    -164.825E+06    -50.2915E+06     176.094E+03    -105.742E-03     211.628E-03    -105.886E-03     29.7450E-03    -105.914E-03     211.035E-03    -105.766E-03     29.3248E-03
             449     4.85815E-03     78.0910E-03    -83.6708E+06    -146.460E+06    -34.2342E+06     298.588E+03    -105.788E-03     211.693E-03    -105.905E-03     34.4028E-03    -105.979E-03     211.166E-03    -105.743E-03     33.9060E-03
             450     5.66792E-03     78.1318E-03    -75.6350E+06    -128.267E+06    -20.2355E+06     389.823E+03    -105.781E-03     211.695E-03    -105.914E-03     38.4560E-03    -105.988E-03     211.237E-03    -105.720E-03     37.8849E-03
             451     6.47780E-03     78.1767E-03    -68.0182E+06    -110.619E+06    -8.04611E+06     521.347E+03    -105.789E-03     211.701E-03    -105.912E-03     41.9237E-03    -106.012E-03     211.313E-03    -105.693E-03     41.2808E-03
             452     7.28779E-03     78.2251E-03    -60.6537E+06    -93.6546E+06     2.80272E+06     476.162E+03    -105.828E-03     211.734E-03    -105.906E-03     44.8540E-03    -106.066E-03     211.416E-03    -105.668E-03     44.1384E-03
             453     8.09764E-03     78.2765E-03    -53.7858E+06    -76.8099E+06     12.2626E+06     434.366E+03    -105.840E-03     211.736E-03    -105.896E-03     47.1839E-03    -106.093E-03     211.490E-03    -105.645E-03     46.3960E-03
             454     8.90776E-03     78.3300E-03    -47.4685E+06    -58.9504E+06     20.8790E+06     398.851E+03    -105.840E-03     211.722E-03    -105.882E-03     48.9067E-03    -106.110E-03     211.554E-03    -105.623E-03     48.0462E-03
             455     9.71761E-03     78.3852E-03    -41.5164E+06    -40.7406E+06     28.7582E+06     319.962E+03    -105.828E-03     211.693E-03    -105.866E-03     50.0434E-03    -106.118E-03     211.608E-03    -105.603E-03     49.1084E-03
             456     10.5277E-03     78.4413E-03    -35.9908E+06    -18.5422E+06     36.7228E+06     250.856E+03    -105.766E-03     211.611E-03    -105.845E-03     50.6352E-03    -106.084E-03     211.629E-03    -105.582E-03     49.6247E-03
             457     11.3376E-03     78.4976E-03    -30.3438E+06     3.25093E+06     44.5161E+06    -120.819E+03    -105.679E-03     211.502E-03    -105.823E-03     50.4504E-03    -106.022E-03     211.620E-03    -105.561E-03     49.3585E-03
             458     12.1479E-03     78.5531E-03    -24.8836E+06     32.9075E+06     52.1238E+06     66.1881E+03    -105.512E-03     211.300E-03    -105.788E-03     49.1125E-03    -105.891E-03     211.556E-03    -105.539E-03     47.9490E-03
             459     12.9581E-03     78.6059E-03    -20.1087E+06     70.5675E+06     62.5897E+06     238.948E+03    -105.272E-03     211.024E-03    -105.752E-03     46.2753E-03    -105.700E-03     211.450E-03    -105.512E-03     45.0538E-03
             460     13.7681E-03     78.6552E-03    -15.0485E+06     95.0893E+06     68.3888E+06     105.183E+03    -105.120E-03     210.832E-03    -105.712E-03     41.2021E-03    -105.563E-03     211.361E-03    -105.486E-03     39.9287E-03
             461     14.5787E-03     78.6962E-03    -10.0865E+06     105.423E+06     78.3358E+06     430.681E+03    -105.042E-03     210.759E-03    -105.717E-03     35.2427E-03    -105.486E-03     211.314E-03    -105.464E-03     33.9121E-03
             462     15.3883E-03     78.7321E-03    -5.23959E+06     108.177E+06     93.0925E+06     304.594E+03    -104.768E-03     210.527E-03    -105.759E-03     24.5118E-03    -105.172E-03     211.026E-03    -105.442E-03     23.3884E-03
             463     809.627E-06     79.1416E-03    -117.382E+06    -232.683E+06    -114.656E+06    -201.323E+03    -105.784E-03     211.522E-03    -105.739E-03     7.09211E-03    -105.868E-03     210.697E-03    -105.805E-03     6.99372E-03
             464     1.61920E-03     79.1529E-03    -113.387E+06    -220.954E+06    -102.883E+06     77.8524E+03    -105.798E-03     211.600E-03    -105.802E-03     13.0395E-03    -105.900E-03     210.813E-03    -105.831E-03     12.8641E-03
             465     2.42889E-03     79.1709E-03    -107.229E+06    -204.160E+06    -86.1926E+06     185.785E+03    -105.782E-03     211.631E-03    -105.850E-03     19.0303E-03    -105.907E-03     210.901E-03    -105.829E-03     18.7725E-03
             466     3.23849E-03     79.1952E-03    -99.7592E+06    -184.360E+06    -68.0561E+06     166.894E+03    -105.737E-03     211.618E-03    -105.881E-03     24.6563E-03    -105.886E-03     210.956E-03    -105.809E-03     24.3161E-03
             467     4.04826E-03     79.2258E-03    -91.7388E+06    -165.173E+06    -50.3386E+06     409.237E+03    -105.729E-03     211.631E-03    -105.901E-03     29.8002E-03    -105.901E-03     211.036E-03    -105.781E-03     29.3831E-03
             468     4.85809E-03     79.2619E-03    -83.5173E+06    -146.594E+06    -34.0743E+06     526.512E+03    -105.749E-03     211.663E-03    -105.914E-03     34.3869E-03    -105.939E-03     211.136E-03    -105.751E-03     33.8934E-03
             469     5.66796E-03     79.3026E-03    -75.6014E+06    -128.335E+06    -20.1208E+06     396.548E+03    -105.758E-03     211.675E-03    -105.917E-03     38.4422E-03    -105.966E-03     211.217E-03    -105.722E-03     37.8711E-03
             470     6.47789E-03     79.3474E-03    -67.7641E+06    -110.815E+06    -7.91836E+06     349.335E+03    -105.799E-03     211.713E-03    -105.914E-03     41.9609E-03    -106.021E-03     211.324E-03    -105.694E-03     41.3158E-03
             471     7.28772E-03     79.3960E-03    -60.3739E+06    -93.7552E+06     2.86956E+06     512.183E+03    -105.844E-03     211.752E-03    -105.908E-03     44.8480E-03    -106.080E-03     211.433E-03    -105.670E-03     44.1332E-03
             472     8.09772E-03     79.4473E-03    -53.6837E+06    -76.8299E+06     12.3703E+06     597.876E+03    -105.860E-03     211.760E-03    -105.900E-03     47.1524E-03    -106.112E-03     211.513E-03    -105.649E-03     46.3668E-03
             473     8.90752E-03     79.5009E-03    -47.4110E+06    -58.9637E+06     21.0338E+06     612.189E+03    -105.854E-03     211.742E-03    -105.888E-03     48.9305E-03    -106.125E-03     211.574E-03    -105.628E-03     48.0728E-03
             474     9.71759E-03     79.5562E-03    -41.6210E+06    -40.6366E+06     28.9786E+06     568.655E+03    -105.820E-03     211.692E-03    -105.872E-03     50.1062E-03    -106.111E-03     211.607E-03    -105.608E-03     49.1744E-03
             475     10.5276E-03     79.6121E-03    -35.9815E+06    -18.2107E+06     36.9106E+06     357.426E+03    -105.750E-03     211.599E-03    -105.849E-03     50.7327E-03    -106.068E-03     211.618E-03    -105.586E-03     49.7238E-03
             476     11.3377E-03     79.6686E-03    -30.7978E+06     3.95785E+06     44.6486E+06    -89.4526E+03    -105.647E-03     211.472E-03    -105.825E-03     50.5174E-03    -105.993E-03     211.594E-03    -105.563E-03     49.4263E-03
             477     12.1478E-03     79.7237E-03    -25.5790E+06     32.5375E+06     51.8937E+06    -171.464E+03    -105.507E-03     211.295E-03    -105.788E-03     49.1670E-03    -105.888E-03     211.550E-03    -105.539E-03     48.0011E-03
             478     12.9579E-03     79.7771E-03    -19.7611E+06     70.3587E+06     62.5774E+06     255.367E+03    -105.311E-03     211.064E-03    -105.753E-03     46.3220E-03    -105.738E-03     211.489E-03    -105.513E-03     45.0991E-03
             479     13.7684E-03     79.8255E-03    -15.3209E+06     95.0008E+06     68.3642E+06     329.437E+03    -105.151E-03     210.866E-03    -105.715E-03     41.2717E-03    -105.596E-03     211.396E-03    -105.489E-03     40.0004E-03
             480     14.5782E-03     79.8678E-03    -10.6047E+06     104.881E+06     77.8099E+06     304.506E+03    -104.883E-03     210.599E-03    -105.716E-03     35.1814E-03    -105.328E-03     211.153E-03    -105.463E-03     33.8504E-03
             481     15.3892E-03     79.9021E-03    -4.67850E+06     108.707E+06     93.3665E+06     236.837E+03    -104.709E-03     210.461E-03    -105.752E-03     24.4529E-03    -105.112E-03     210.962E-03    -105.436E-03     23.3277E-03
             482     809.619E-06     80.3124E-03    -117.484E+06    -232.788E+06    -114.336E+06     177.224E+03    -105.745E-03     211.602E-03    -105.857E-03     7.21437E-03    -105.831E-03     210.776E-03    -105.921E-03     7.12048E-03
             483     1.61921E-03     80.3236E-03    -113.416E+06    -221.238E+06    -102.606E+06     152.217E+03    -105.764E-03     211.592E-03    -105.828E-03     13.0662E-03    -105.866E-03     210.803E-03    -105.855E-03     12.8913E-03
             484     2.42883E-03     80.3416E-03    -107.061E+06    -204.241E+06    -86.1640E+06     163.362E+03    -105.756E-03     211.610E-03    -105.854E-03     19.0191E-03    -105.880E-03     210.879E-03    -105.834E-03     18.7616E-03
             485     3.23857E-03     80.3661E-03    -99.8587E+06    -184.579E+06    -68.1105E+06     265.108E+03    -105.760E-03     211.643E-03    -105.883E-03     24.6747E-03    -105.910E-03     210.981E-03    -105.811E-03     24.3354E-03
             486     4.04825E-03     80.3966E-03    -91.7500E+06    -165.542E+06    -50.2531E+06     424.719E+03    -105.751E-03     211.660E-03    -105.908E-03     29.8677E-03    -105.922E-03     211.063E-03    -105.787E-03     29.4499E-03
             487     4.85804E-03     80.4326E-03    -83.3393E+06    -146.765E+06    -34.0817E+06     541.989E+03    -105.733E-03     211.653E-03    -105.920E-03     34.4206E-03    -105.922E-03     211.124E-03    -105.757E-03     33.9270E-03
             488     5.66794E-03     80.4733E-03    -75.4369E+06    -128.275E+06    -20.0344E+06     544.652E+03    -105.769E-03     211.690E-03    -105.921E-03     38.4279E-03    -105.975E-03     211.232E-03    -105.726E-03     37.8590E-03
             489     6.47779E-03     80.5183E-03    -67.9198E+06    -110.781E+06    -7.82755E+06     491.240E+03    -105.817E-03     211.737E-03    -105.920E-03     41.9283E-03    -106.040E-03     211.348E-03    -105.700E-03     41.2855E-03
             490     7.28772E-03     80.5668E-03    -60.7856E+06    -94.0540E+06     2.76679E+06     475.114E+03    -105.833E-03     211.747E-03    -105.914E-03     44.8330E-03    -106.071E-03     211.427E-03    -105.676E-03     44.1178E-03
             491     8.09756E-03     80.6181E-03    -53.8577E+06    -77.1293E+06     12.3689E+06     651.282E+03    -105.839E-03     211.743E-03    -105.904E-03     47.2068E-03    -106.092E-03     211.495E-03    -105.652E-03     46.4215E-03
             492     8.90763E-03     80.6718E-03    -47.4665E+06    -59.0191E+06     21.1726E+06     725.169E+03    -105.826E-03     211.715E-03    -105.889E-03     49.0169E-03    -106.097E-03     211.547E-03    -105.629E-03     48.1606E-03
             493     9.71759E-03     80.7269E-03    -41.3746E+06    -40.6105E+06     29.1468E+06     689.952E+03    -105.807E-03     211.678E-03    -105.871E-03     50.1904E-03    -106.097E-03     211.593E-03    -105.606E-03     49.2612E-03
             494     10.5277E-03     80.7831E-03    -35.7633E+06    -17.9437E+06     37.1062E+06     679.521E+03    -105.751E-03     211.598E-03    -105.847E-03     50.7509E-03    -106.069E-03     211.618E-03    -105.584E-03     49.7463E-03
             495     11.3377E-03     80.8392E-03    -30.5517E+06     4.76393E+06     45.0818E+06     525.784E+03    -105.655E-03     211.479E-03    -105.824E-03     50.4913E-03    -106.002E-03     211.604E-03    -105.561E-03     49.4075E-03
             496     12.1479E-03     80.8948E-03    -25.6935E+06     33.0604E+06     52.2583E+06    -16.5874E+03    -105.521E-03     211.310E-03    -105.789E-03     49.1388E-03    -105.905E-03     211.568E-03    -105.538E-03     47.9733E-03
             497     12.9582E-03     80.9477E-03    -21.1611E+06     69.3103E+06     61.9201E+06     1.55091E+03    -105.322E-03     211.076E-03    -105.754E-03     46.3180E-03    -105.753E-03     211.498E-03    -105.514E-03     45.0897E-03
             498     13.7680E-03     80.9970E-03    -15.4672E+06     94.7417E+06     67.9400E+06     586.383E+03    -105.098E-03     210.811E-03    -105.713E-03     41.3925E-03    -105.543E-03     211.340E-03    -105.488E-03     40.1240E-03
             499     14.5786E-03     81.0382E-03    -9.70825E+06     105.743E+06     78.5722E+06     57.5837E+03    -104.898E-03     210.614E-03    -105.715E-03     35.0820E-03    -105.341E-03     211.169E-03    -105.462E-03     33.7479E-03
             500     15.3888E-03     81.0727E-03    -4.93672E+06     108.630E+06     93.3867E+06    -197.150E+03    -104.776E-03     210.529E-03    -105.753E-03     24.3652E-03    -105.179E-03     211.030E-03    -105.437E-03     23.2328E-03
             501     809.438E-06     81.4830E-03    -117.476E+06    -233.288E+06    -114.626E+06     197.784E+03    -105.804E-03     211.644E-03    -105.840E-03     7.13721E-03    -105.889E-03     210.816E-03    -105.904E-03     7.04145E-03
             502     1.61916E-03     81.4944E-03    -113.160E+06    -221.233E+06    -102.404E+06     255.073E+03    -105.769E-03     211.615E-03    -105.846E-03     13.1073E-03    -105.871E-03     210.826E-03    -105.873E-03     12.9337E-03
             503     2.42882E-03     81.5123E-03    -107.273E+06    -204.490E+06    -86.2428E+06     248.056E+03    -105.750E-03     211.615E-03    -105.866E-03     19.0025E-03    -105.874E-03     210.883E-03    -105.845E-03     18.7465E-03
             504     3.23851E-03     81.5369E-03    -99.9338E+06    -184.828E+06    -68.0098E+06     431.808E+03    -105.739E-03     211.629E-03    -105.890E-03     24.6629E-03    -105.890E-03     210.965E-03    -105.817E-03     24.3262E-03
             505     4.04827E-03     81.5674E-03    -91.8615E+06    -165.670E+06    -50.2697E+06     397.886E+03    -105.741E-03     211.651E-03    -105.910E-03     29.8159E-03    -105.913E-03     211.054E-03    -105.788E-03     29.3981E-03
             506     4.85809E-03     81.6033E-03    -83.5802E+06    -147.069E+06    -34.3213E+06     432.595E+03    -105.751E-03     211.672E-03    -105.921E-03     34.4157E-03    -105.941E-03     211.142E-03    -105.758E-03     33.9205E-03
             507     5.66789E-03     81.6441E-03    -75.2882E+06    -128.381E+06    -19.8829E+06     569.929E+03    -105.794E-03     211.720E-03    -105.926E-03     38.5069E-03    -106.000E-03     211.261E-03    -105.730E-03     37.9380E-03
             508     6.47773E-03     81.6892E-03    -67.5441E+06    -110.841E+06    -7.52307E+06     618.326E+03    -105.817E-03     211.743E-03    -105.926E-03     41.9830E-03    -106.038E-03     211.353E-03    -105.705E-03     41.3413E-03
             509     7.28763E-03     81.7375E-03    -60.2507E+06    -94.1549E+06     3.14341E+06     663.724E+03    -105.810E-03     211.729E-03    -105.918E-03     44.8932E-03    -106.046E-03     211.407E-03    -105.679E-03     44.1802E-03
             510     8.09768E-03     81.7890E-03    -53.5328E+06    -77.4102E+06     12.4921E+06     633.428E+03    -105.812E-03     211.716E-03    -105.904E-03     47.2403E-03    -106.063E-03     211.466E-03    -105.652E-03     46.4554E-03
             511     8.90762E-03     81.8425E-03    -47.1162E+06    -59.1783E+06     21.2105E+06     734.097E+03    -105.819E-03     211.707E-03    -105.887E-03     49.0016E-03    -106.089E-03     211.537E-03    -105.627E-03     48.1461E-03
             512     9.71768E-03     81.8979E-03    -41.1136E+06    -40.6195E+06     29.2994E+06     795.351E+03    -105.811E-03     211.680E-03    -105.869E-03     50.1489E-03    -106.100E-03     211.594E-03    -105.604E-03     49.2207E-03
             513     10.5277E-03     81.9538E-03    -35.4864E+06    -18.2406E+06     37.2339E+06     917.822E+03    -105.748E-03     211.595E-03    -105.846E-03     50.7097E-03    -106.065E-03     211.613E-03    -105.582E-03     49.7074E-03
             514     11.3378E-03     82.0103E-03    -30.0741E+06     5.32321E+06     45.5074E+06     856.348E+03    -105.669E-03     211.492E-03    -105.824E-03     50.5052E-03    -106.015E-03     211.619E-03    -105.560E-03     49.4252E-03
             515     12.1478E-03     82.0654E-03    -25.0712E+06     33.1342E+06     52.6091E+06     733.157E+03    -105.545E-03     211.334E-03    -105.789E-03     49.1683E-03    -105.926E-03     211.592E-03    -105.538E-03     48.0116E-03
             516     12.9578E-03     82.1189E-03    -20.0556E+06     69.4736E+06     62.4943E+06     586.310E+03    -105.301E-03     211.055E-03    -105.755E-03     46.3405E-03    -105.728E-03     211.476E-03    -105.514E-03     45.1198E-03
             517     13.7685E-03     82.1673E-03    -14.8647E+06      95.415E+06     68.6375E+06    -289.146E+03    -105.076E-03     210.789E-03    -105.713E-03     41.2867E-03    -105.520E-03     211.320E-03    -105.487E-03     40.0072E-03
             518     14.5787E-03     82.2094E-03    -9.74483E+06     105.615E+06     78.6127E+06    -132.909E+03    -104.998E-03     210.715E-03    -105.716E-03     35.0686E-03    -105.441E-03     211.269E-03    -105.462E-03     33.7336E-03
             519     15.3886E-03     82.2439E-03    -4.98527E+06     108.639E+06     93.1110E+06     183.785E+03    -104.784E-03     210.539E-03    -105.755E-03     24.3664E-03    -105.187E-03     211.040E-03    -105.440E-03     23.2409E-03
             520     809.708E-06     82.6539E-03    -117.879E+06    -233.584E+06    -115.030E+06    -53.0440E+03    -105.829E-03     211.650E-03    -105.820E-03     7.16185E-03    -105.915E-03     210.821E-03    -105.886E-03     7.06221E-03
             521     1.61915E-03     82.6651E-03    -113.829E+06    -221.606E+06    -103.177E+06     204.100E+03    -105.797E-03     211.649E-03    -105.853E-03     13.0811E-03    -105.900E-03     210.861E-03    -105.882E-03     12.9065E-03
             522     2.42877E-03     82.6832E-03    -107.608E+06    -204.573E+06    -86.3002E+06     327.911E+03    -105.748E-03     211.626E-03    -105.878E-03     19.0102E-03    -105.874E-03     210.894E-03    -105.857E-03     18.7544E-03
             523     3.23848E-03     82.7076E-03    -99.7412E+06    -185.048E+06    -67.7729E+06     288.550E+03    -105.730E-03     211.628E-03    -105.898E-03     24.6929E-03    -105.879E-03     210.963E-03    -105.824E-03     24.3548E-03
             524     4.04824E-03     82.7383E-03    -91.4387E+06    -165.918E+06    -50.0444E+06     399.147E+03    -105.722E-03     211.636E-03    -105.914E-03     29.8151E-03    -105.892E-03     211.037E-03    -105.791E-03     29.3975E-03
             525     4.85804E-03     82.7740E-03    -83.3090E+06    -147.188E+06    -34.0219E+06     469.165E+03    -105.752E-03     211.675E-03    -105.923E-03     34.4607E-03    -105.941E-03     211.144E-03    -105.759E-03     33.9658E-03
             526     5.66789E-03     82.8150E-03    -75.2645E+06    -128.550E+06    -19.8580E+06     449.988E+03    -105.785E-03     211.712E-03    -105.926E-03     38.5636E-03    -105.991E-03     211.252E-03    -105.730E-03     37.9932E-03
             527     6.47779E-03     82.8599E-03    -67.5299E+06    -111.093E+06    -7.56016E+06     520.963E+03    -105.805E-03     211.729E-03    -105.924E-03     42.0149E-03    -106.026E-03     211.338E-03    -105.703E-03     41.3718E-03
             528     7.28772E-03     82.9085E-03    -60.2423E+06    -94.3886E+06     3.07066E+06     668.207E+03    -105.825E-03     211.742E-03    -105.917E-03     44.8917E-03    -106.060E-03     211.419E-03    -105.677E-03     44.1788E-03
             529     8.09762E-03     82.9597E-03    -53.3906E+06    -77.3666E+06     12.5504E+06     765.784E+03    -105.837E-03     211.742E-03    -105.905E-03     47.2061E-03    -106.087E-03     211.492E-03    -105.653E-03     46.4226E-03
             530     8.90763E-03     83.0135E-03    -47.0095E+06    -59.3444E+06     21.2472E+06     739.929E+03    -105.833E-03     211.723E-03    -105.890E-03     48.9677E-03    -106.102E-03     211.552E-03    -105.629E-03     48.1115E-03
             531     9.71757E-03     83.0686E-03    -41.0105E+06    -40.9413E+06     29.3236E+06     916.755E+03    -105.789E-03     211.660E-03    -105.871E-03     50.1205E-03    -106.077E-03     211.572E-03    -105.606E-03     49.1934E-03
             532     10.5276E-03     83.1248E-03    -35.3220E+06    -18.4373E+06     37.3599E+06     967.731E+03    -105.722E-03     211.568E-03    -105.847E-03     50.7181E-03    -106.037E-03     211.585E-03    -105.582E-03     49.7168E-03
             533     11.3378E-03     83.1809E-03    -29.8245E+06     5.42449E+06     45.6036E+06     940.150E+03    -105.668E-03     211.490E-03    -105.822E-03     50.5521E-03    -106.014E-03     211.617E-03    -105.559E-03     49.4741E-03
             534     12.1479E-03     83.2367E-03    -24.3559E+06      33.326E+06     53.1099E+06     768.638E+03    -105.553E-03     211.343E-03    -105.789E-03     49.1577E-03    -105.932E-03     211.599E-03    -105.537E-03     48.0022E-03
             535     12.9582E-03     83.2893E-03    -18.8011E+06     70.3822E+06     63.4628E+06     489.300E+03    -105.292E-03     211.047E-03    -105.755E-03     46.2452E-03    -105.715E-03     211.469E-03    -105.512E-03     45.0226E-03
             536     13.7680E-03     83.3386E-03    -14.6229E+06     96.0732E+06     69.2575E+06     451.016E+03    -105.092E-03     210.805E-03    -105.714E-03     41.3943E-03    -105.536E-03     211.338E-03    -105.486E-03     40.1242E-03
             537     14.5783E-03     83.3798E-03    -10.6281E+06     104.755E+06     77.9830E+06     108.061E+03    -104.925E-03     210.638E-03    -105.713E-03     35.3363E-03    -105.370E-03     211.191E-03    -105.460E-03     34.0047E-03
             538     15.3889E-03     83.4152E-03    -4.89147E+06     108.612E+06     92.8251E+06    -10.7804E+03    -104.731E-03     210.479E-03    -105.748E-03     24.4396E-03    -105.133E-03     210.980E-03    -105.434E-03     23.3119E-03
             539     809.440E-06     83.8247E-03    -117.022E+06    -233.777E+06    -114.013E+06     260.578E+03    -105.840E-03     211.674E-03    -105.834E-03     7.15159E-03    -105.922E-03     210.842E-03    -105.895E-03     7.05622E-03
             540     1.61910E-03     83.8361E-03    -113.220E+06    -221.983E+06    -102.410E+06     212.639E+03    -105.786E-03     211.647E-03    -105.860E-03     13.0717E-03    -105.887E-03     210.854E-03    -105.886E-03     12.8970E-03
             541     2.42879E-03     83.8538E-03    -106.850E+06    -204.679E+06    -85.8528E+06     259.565E+03    -105.752E-03     211.631E-03    -105.879E-03     19.0634E-03    -105.875E-03     210.897E-03    -105.857E-03     18.8066E-03
             542     3.23848E-03     83.8785E-03    -99.6334E+06    -185.257E+06    -67.8352E+06     364.847E+03    -105.723E-03     211.620E-03    -105.897E-03     24.7050E-03    -105.871E-03     210.954E-03    -105.824E-03     24.3679E-03
             543     4.04826E-03     83.9088E-03    -91.7711E+06    -166.228E+06    -50.1258E+06     437.377E+03    -105.719E-03     211.632E-03    -105.912E-03     29.8544E-03    -105.890E-03     211.032E-03    -105.789E-03     29.4371E-03
             544     4.85810E-03     83.9450E-03    -83.3455E+06    -147.209E+06    -33.9729E+06     416.805E+03    -105.759E-03     211.681E-03    -105.922E-03     34.4974E-03    -105.948E-03     211.150E-03    -105.757E-03     34.0018E-03
             545     5.66792E-03     83.9857E-03    -75.2549E+06    -128.738E+06    -19.9848E+06     492.330E+03    -105.778E-03     211.702E-03    -105.925E-03     38.5250E-03    -105.983E-03     211.242E-03    -105.729E-03     37.9555E-03
             546     6.47780E-03     84.0308E-03    -67.6753E+06    -111.390E+06    -7.77146E+06     638.280E+03    -105.802E-03     211.724E-03    -105.922E-03     41.9924E-03    -106.023E-03     211.332E-03    -105.702E-03     41.3513E-03
             547     7.28769E-03     84.0792E-03    -60.5246E+06    -94.4934E+06     2.93446E+06     640.350E+03    -105.843E-03     211.760E-03    -105.916E-03     44.8796E-03    -106.080E-03     211.437E-03    -105.677E-03     44.1658E-03
             548     8.09761E-03     84.1307E-03    -53.6092E+06    -77.5403E+06     12.4981E+06     647.228E+03    -105.853E-03     211.760E-03    -105.907E-03     47.2342E-03    -106.105E-03     211.510E-03    -105.654E-03     46.4480E-03
             549     8.90753E-03     84.1842E-03    -47.1390E+06    -59.4843E+06     21.2887E+06     827.500E+03    -105.818E-03     211.710E-03    -105.892E-03     49.0281E-03    -106.087E-03     211.539E-03    -105.631E-03     48.1727E-03
             550     9.71759E-03     84.2395E-03    -41.0960E+06    -41.1915E+06     29.2810E+06     778.099E+03    -105.772E-03     211.644E-03    -105.872E-03     50.1724E-03    -106.061E-03     211.556E-03    -105.606E-03     49.2437E-03
             551     10.5277E-03     84.2954E-03    -35.1749E+06    -18.7485E+06     37.3237E+06     964.511E+03    -105.736E-03     211.582E-03    -105.846E-03     50.7575E-03    -106.051E-03     211.597E-03    -105.582E-03     49.7563E-03
             552     11.3378E-03     84.3521E-03    -29.7271E+06     5.69014E+06     45.7390E+06     899.697E+03    -105.669E-03     211.491E-03    -105.822E-03     50.5485E-03    -106.015E-03     211.619E-03    -105.559E-03     49.4692E-03
             553     12.1479E-03     84.4073E-03    -24.4817E+06     33.8508E+06     53.3684E+06     543.371E+03    -105.526E-03     211.315E-03    -105.789E-03     49.1478E-03    -105.906E-03     211.574E-03    -105.536E-03     47.9893E-03
             554     12.9577E-03     84.4606E-03    -19.6815E+06     69.9114E+06     63.0900E+06     669.342E+03    -105.286E-03     211.040E-03    -105.754E-03     46.2124E-03    -105.712E-03     211.461E-03    -105.511E-03     44.9924E-03
             555     13.7686E-03     84.5087E-03    -14.8123E+06     95.9012E+06     68.8861E+06     896.664E+03    -105.026E-03     210.735E-03    -105.709E-03     41.3916E-03    -105.471E-03     211.268E-03    -105.482E-03     40.1275E-03
             556     14.5789E-03     84.5515E-03    -9.69818E+06     105.699E+06     78.5987E+06     752.099E+03    -104.858E-03     210.565E-03    -105.707E-03     35.2494E-03    -105.301E-03     211.120E-03    -105.453E-03     33.9269E-03
             557     15.3890E-03     84.5850E-03    -5.20664E+06     108.864E+06     93.0088E+06     162.385E+03    -104.829E-03     210.573E-03    -105.743E-03     24.3153E-03    -105.234E-03     211.075E-03    -105.428E-03     23.1894E-03
             558     809.624E-06     84.9958E-03    -117.459E+06    -234.265E+06    -114.777E+06     202.826E+03    -105.698E-03     211.597E-03    -105.899E-03     7.24656E-03    -105.781E-03     210.764E-03    -105.963E-03     7.15088E-03
             559     1.61921E-03     85.0067E-03    -113.414E+06    -222.077E+06    -102.797E+06     295.731E+03    -105.797E-03     211.628E-03    -105.831E-03     13.1535E-03    -105.898E-03     210.836E-03    -105.859E-03     12.9806E-03
             560     2.42881E-03     85.0248E-03    -107.435E+06    -205.051E+06    -86.4856E+06     376.231E+03    -105.776E-03     211.642E-03    -105.866E-03     19.0539E-03    -105.901E-03     210.908E-03    -105.845E-03     18.7989E-03
             561     3.23851E-03     85.0491E-03    -100.072E+06    -185.584E+06    -68.2069E+06     474.619E+03    -105.725E-03     211.618E-03    -105.892E-03     24.6572E-03    -105.875E-03     210.951E-03    -105.819E-03     24.3210E-03
             562     4.04831E-03     85.0797E-03    -91.7928E+06    -166.299E+06    -50.2350E+06     526.112E+03    -105.739E-03     211.650E-03    -105.911E-03     29.8507E-03    -105.910E-03     211.050E-03    -105.788E-03     29.4347E-03
             563     4.85804E-03     85.1157E-03    -83.6334E+06    -147.241E+06    -34.2132E+06     490.829E+03    -105.757E-03     211.679E-03    -105.922E-03     34.4774E-03    -105.947E-03     211.148E-03    -105.758E-03     33.9829E-03
             564     5.66788E-03     85.1565E-03    -75.6383E+06    -129.092E+06    -20.1448E+06     555.652E+03    -105.773E-03     211.698E-03    -105.925E-03     38.5318E-03    -105.980E-03     211.237E-03    -105.729E-03     37.9624E-03
             565     6.47778E-03     85.2015E-03    -67.8284E+06    -111.581E+06    -7.77302E+06     698.273E+03    -105.811E-03     211.735E-03    -105.923E-03     42.0287E-03    -106.033E-03     211.342E-03    -105.702E-03     41.3878E-03
             566     7.28769E-03     85.2501E-03    -60.5240E+06    -94.4812E+06     3.03193E+06     718.297E+03    -105.836E-03     211.753E-03    -105.917E-03     44.9077E-03    -106.072E-03     211.430E-03    -105.677E-03     44.1949E-03
             567     8.09762E-03     85.3014E-03    -53.8443E+06    -77.6298E+06     12.4781E+06     660.616E+03    -105.831E-03     211.737E-03    -105.906E-03     47.2415E-03    -106.083E-03     211.486E-03    -105.653E-03     46.4560E-03
             568     8.90765E-03     85.3551E-03    -47.3522E+06    -59.8292E+06     21.1605E+06     604.945E+03    -105.803E-03     211.693E-03    -105.889E-03     49.0165E-03    -106.073E-03     211.521E-03    -105.628E-03     48.1583E-03
             569     9.71769E-03     85.4102E-03    -41.1323E+06    -41.1717E+06     29.3250E+06     733.442E+03    -105.791E-03     211.660E-03    -105.870E-03     50.1745E-03    -106.079E-03     211.572E-03    -105.604E-03     49.2449E-03
             570     10.5276E-03     85.4664E-03    -35.4262E+06    -19.0266E+06     37.2292E+06     684.798E+03    -105.748E-03     211.594E-03    -105.846E-03     50.7906E-03    -106.064E-03     211.608E-03    -105.581E-03     49.7855E-03
             571     11.3377E-03     85.5227E-03    -29.7615E+06     5.44082E+06     45.6340E+06     933.482E+03    -105.622E-03     211.442E-03    -105.820E-03     50.6253E-03    -105.968E-03     211.569E-03    -105.557E-03     49.5474E-03
             572     12.1478E-03     85.5784E-03    -24.8277E+06     34.0187E+06     53.3834E+06     1.20740E+06    -105.462E-03     211.246E-03    -105.784E-03     49.2967E-03    -105.845E-03     211.507E-03    -105.530E-03     48.1480E-03
             573     12.9584E-03     85.6311E-03    -20.1153E+06     69.7363E+06     63.1989E+06     1.10347E+06    -105.327E-03     211.076E-03    -105.749E-03     46.3604E-03    -105.756E-03     211.498E-03    -105.505E-03     45.1454E-03
             574     13.7680E-03     85.6801E-03    -14.9438E+06     96.0606E+06     68.7025E+06     828.582E+03    -105.122E-03     210.829E-03    -105.706E-03     41.2115E-03    -105.568E-03     211.363E-03    -105.480E-03     39.9440E-03
             575     14.5785E-03     85.7212E-03    -9.96518E+06     106.168E+06     78.4418E+06     496.212E+03    -104.890E-03     210.598E-03    -105.708E-03     35.0651E-03    -105.334E-03     211.156E-03    -105.455E-03     33.7376E-03
             576     15.3890E-03     85.7570E-03    -5.11173E+06     109.422E+06     93.3018E+06     346.102E+03    -104.823E-03     210.569E-03    -105.747E-03     24.4161E-03    -105.228E-03     211.074E-03    -105.431E-03     23.2953E-03
             577     809.640E-06     86.1661E-03    -117.682E+06    -234.694E+06    -114.929E+06     153.413E+03    -105.762E-03     211.568E-03    -105.806E-03     7.21103E-03    -105.845E-03     210.733E-03    -105.870E-03     7.11695E-03
             578     1.61928E-03     86.1776E-03    -113.733E+06    -222.459E+06    -103.158E+06     320.840E+03    -105.790E-03     211.608E-03    -105.817E-03     13.1051E-03    -105.892E-03     210.815E-03    -105.846E-03     12.9320E-03
             579     2.42880E-03     86.1956E-03    -107.597E+06    -205.335E+06    -86.5894E+06     360.254E+03    -105.769E-03     211.624E-03    -105.855E-03     19.0183E-03    -105.893E-03     210.889E-03    -105.834E-03     18.7623E-03
             580     3.23853E-03     86.2198E-03    -99.9519E+06    -185.771E+06    -68.1228E+06     407.993E+03    -105.762E-03     211.649E-03    -105.888E-03     24.6789E-03    -105.910E-03     210.981E-03    -105.814E-03     24.3418E-03
             581     4.04821E-03     86.2505E-03    -91.8738E+06    -166.526E+06    -50.3865E+06     482.937E+03    -105.756E-03     211.668E-03    -105.912E-03     29.8650E-03    -105.926E-03     211.067E-03    -105.789E-03     29.4484E-03
             582     4.85806E-03     86.2865E-03    -83.6234E+06    -147.427E+06    -34.2272E+06     621.114E+03    -105.742E-03     211.666E-03    -105.924E-03     34.4740E-03    -105.931E-03     211.134E-03    -105.760E-03     33.9812E-03
             583     5.66795E-03     86.3273E-03    -75.4775E+06    -129.159E+06    -19.8843E+06     584.768E+03    -105.777E-03     211.704E-03    -105.927E-03     38.5560E-03    -105.983E-03     211.241E-03    -105.730E-03     37.9870E-03
             584     6.47778E-03     86.3724E-03    -67.6749E+06    -111.873E+06    -7.63454E+06     610.283E+03    -105.812E-03     211.737E-03    -105.925E-03     42.0282E-03    -106.032E-03     211.342E-03    -105.703E-03     41.3863E-03
             585     7.28768E-03     86.4209E-03    -60.4473E+06    -94.7062E+06     3.02811E+06     773.463E+03    -105.816E-03     211.732E-03    -105.917E-03     44.9192E-03    -106.051E-03     211.409E-03    -105.677E-03     44.2076E-03
             586     8.09764E-03     86.4723E-03    -53.6836E+06    -77.6708E+06     12.5840E+06     831.221E+03    -105.824E-03     211.728E-03    -105.904E-03     47.2368E-03    -106.076E-03     211.477E-03    -105.651E-03     46.4538E-03
             587     8.90762E-03     86.5258E-03    -47.4415E+06    -59.6703E+06     21.2629E+06     730.165E+03    -105.819E-03     211.708E-03    -105.888E-03     48.9806E-03    -106.090E-03     211.536E-03    -105.627E-03     48.1238E-03
             588     9.71759E-03     86.5811E-03    -41.6834E+06    -41.5300E+06     29.0789E+06     733.754E+03    -105.783E-03     211.652E-03    -105.869E-03     50.1822E-03    -106.074E-03     211.563E-03    -105.603E-03     49.2528E-03
             589     10.5277E-03     86.6372E-03    -36.0742E+06    -18.8581E+06     37.0582E+06     797.743E+03    -105.692E-03     211.535E-03    -105.843E-03     50.8180E-03    -106.011E-03     211.551E-03    -105.578E-03     49.8151E-03
             590     11.3378E-03     86.6936E-03    -30.7002E+06     4.65523E+06     45.0658E+06     790.348E+03    -105.572E-03     211.386E-03    -105.814E-03     50.6090E-03    -105.920E-03     211.511E-03    -105.550E-03     49.5298E-03
             591     12.1482E-03     86.7489E-03    -25.1978E+06     33.2766E+06     52.9245E+06     1.52167E+06    -105.467E-03     211.243E-03    -105.776E-03     49.2389E-03    -105.849E-03     211.500E-03    -105.523E-03     48.0946E-03
             592     12.9580E-03     86.8023E-03    -19.9809E+06     70.1904E+06     63.2200E+06     1.36173E+06    -105.338E-03     211.080E-03    -105.742E-03     46.3723E-03    -105.767E-03     211.504E-03    -105.498E-03     45.1607E-03
             593     13.7687E-03     86.8510E-03    -14.7937E+06     96.5994E+06     69.1973E+06     1.01434E+06    -105.216E-03     210.921E-03    -105.705E-03     41.2746E-03    -105.663E-03     211.457E-03    -105.477E-03     40.0084E-03
             594     14.5785E-03     86.8924E-03    -10.3101E+06     106.690E+06     78.6950E+06     780.236E+03    -104.994E-03     210.705E-03    -105.711E-03     35.1739E-03    -105.441E-03     211.267E-03    -105.458E-03     33.8493E-03
             595     15.3888E-03     86.9272E-03    -5.22903E+06     109.561E+06     93.5620E+06     98.8442E+03    -104.750E-03     210.502E-03    -105.751E-03     24.5798E-03    -105.157E-03     211.007E-03    -105.435E-03     23.4514E-03
             596     809.527E-06     87.3370E-03    -117.986E+06    -235.061E+06    -115.048E+06     142.508E+03    -105.829E-03     211.594E-03    -105.765E-03     7.19863E-03    -105.913E-03     210.759E-03    -105.829E-03     7.10395E-03
             597     1.61907E-03     87.3483E-03    -113.729E+06    -222.653E+06    -103.032E+06     89.0903E+03    -105.765E-03     211.589E-03    -105.824E-03     13.1768E-03    -105.867E-03     210.795E-03    -105.851E-03     13.0009E-03
             598     2.42894E-03     87.3662E-03    -107.413E+06    -205.555E+06    -86.5829E+06     193.673E+03    -105.765E-03     211.618E-03    -105.853E-03     19.0252E-03    -105.889E-03     210.882E-03    -105.832E-03     18.7678E-03
             599     3.23854E-03     87.3908E-03    -99.9415E+06    -186.087E+06    -68.3000E+06     389.972E+03    -105.770E-03     211.656E-03    -105.886E-03     24.6593E-03    -105.918E-03     210.986E-03    -105.813E-03     24.3220E-03
             600     4.04827E-03     87.4213E-03    -91.7915E+06    -166.755E+06    -50.2076E+06     507.518E+03    -105.745E-03     211.657E-03    -105.912E-03     29.8590E-03    -105.915E-03     211.055E-03    -105.788E-03     29.4422E-03
             601     4.85806E-03     87.4572E-03    -83.4546E+06    -147.640E+06    -33.9724E+06     495.834E+03    -105.763E-03     211.687E-03    -105.924E-03     34.4944E-03    -105.951E-03     211.154E-03    -105.759E-03     34.0000E-03
             602     5.66786E-03     87.4981E-03    -75.3320E+06    -129.233E+06    -19.8922E+06     568.678E+03    -105.790E-03     211.719E-03    -105.929E-03     38.5621E-03    -105.995E-03     211.255E-03    -105.731E-03     37.9934E-03
             603     6.47776E-03     87.5432E-03    -67.7669E+06    -112.220E+06    -7.76769E+06     695.158E+03    -105.795E-03     211.721E-03    -105.926E-03     42.0101E-03    -106.015E-03     211.325E-03    -105.704E-03     41.3691E-03
             604     7.28771E-03     87.5916E-03    -60.5204E+06    -95.0695E+06     2.93456E+06     883.676E+03    -105.798E-03     211.714E-03    -105.916E-03     44.9026E-03    -106.034E-03     211.389E-03    -105.676E-03     44.1923E-03
             605     8.09769E-03     87.6431E-03    -53.7629E+06    -77.8933E+06     12.5413E+06     1.01908E+06    -105.814E-03     211.717E-03    -105.903E-03     47.2578E-03    -106.066E-03     211.465E-03    -105.649E-03     46.4774E-03
             606     8.90762E-03     87.6967E-03    -47.5259E+06    -59.6518E+06     21.3009E+06     1.09467E+06    -105.816E-03     211.702E-03    -105.886E-03     49.0320E-03    -106.087E-03     211.531E-03    -105.624E-03     48.1803E-03
             607     9.71767E-03     87.7519E-03    -41.6465E+06    -41.5826E+06     29.1560E+06     1.06030E+06    -105.770E-03     211.637E-03    -105.866E-03     50.2082E-03    -106.061E-03     211.547E-03    -105.600E-03     49.2831E-03
             608     10.5277E-03     87.8079E-03    -36.2109E+06    -19.0544E+06     36.9293E+06     1.08992E+06    -105.677E-03     211.516E-03    -105.839E-03     50.7561E-03    -105.996E-03     211.531E-03    -105.574E-03     49.7566E-03
             609     11.3380E-03     87.8643E-03    -31.0233E+06     4.45045E+06     44.9815E+06     1.29186E+06    -105.616E-03     211.428E-03    -105.812E-03     50.5044E-03    -105.966E-03     211.553E-03    -105.548E-03     49.4304E-03
             610     12.1479E-03     87.9197E-03    -25.7914E+06     32.7159E+06     52.1666E+06     728.133E+03    -105.517E-03     211.292E-03    -105.775E-03     49.1526E-03    -105.900E-03     211.548E-03    -105.524E-03     47.9977E-03
             611     12.9584E-03     87.9730E-03    -20.0047E+06     70.2137E+06     62.8742E+06     975.083E+03    -105.292E-03     211.033E-03    -105.741E-03     46.2890E-03    -105.720E-03     211.457E-03    -105.500E-03     45.0751E-03
             612     13.7683E-03     88.0219E-03    -14.9890E+06     96.8828E+06     69.4387E+06     1.30488E+06    -105.132E-03     210.836E-03    -105.704E-03     41.2658E-03    -105.580E-03     211.373E-03    -105.475E-03     40.0049E-03
             613     14.5787E-03     88.0636E-03    -10.1688E+06     107.703E+06     79.4993E+06     642.321E+03    -105.035E-03     210.746E-03    -105.710E-03     35.1019E-03    -105.484E-03     211.310E-03    -105.454E-03     33.7742E-03
             614     15.3888E-03     88.0979E-03    -5.22783E+06     110.283E+06     94.1000E+06     451.573E+03    -104.816E-03     210.569E-03    -105.753E-03     24.5480E-03    -105.225E-03     211.078E-03    -105.435E-03     23.4238E-03
             615     809.663E-06     88.5077E-03    -117.802E+06    -235.092E+06    -114.768E+06    -148.035E+03    -105.743E-03     211.559E-03    -105.817E-03     7.28964E-03    -105.826E-03     210.723E-03    -105.879E-03     7.19006E-03
             616     1.61936E-03     88.5190E-03    -113.364E+06    -222.847E+06    -102.800E+06     34.1209E+03    -105.804E-03     211.621E-03    -105.817E-03     13.1866E-03    -105.903E-03     210.825E-03    -105.844E-03     13.0110E-03
             617     2.42876E-03     88.5371E-03    -107.337E+06    -205.911E+06    -86.4228E+06     217.725E+03    -105.795E-03     211.656E-03    -105.861E-03     19.0227E-03    -105.917E-03     210.917E-03    -105.839E-03     18.7656E-03
             618     3.23847E-03     88.5616E-03    -99.9432E+06    -186.295E+06    -68.2597E+06     245.057E+03    -105.737E-03     211.629E-03    -105.892E-03     24.6197E-03    -105.884E-03     210.958E-03    -105.818E-03     24.2802E-03
             619     4.04829E-03     88.5920E-03    -91.6851E+06    -167.124E+06    -50.3130E+06     382.950E+03    -105.742E-03     211.654E-03    -105.912E-03     29.8353E-03    -105.911E-03     211.050E-03    -105.788E-03     29.4174E-03
             620     4.85807E-03     88.6281E-03    -83.4321E+06    -147.868E+06    -34.1196E+06     627.255E+03    -105.774E-03     211.699E-03    -105.925E-03     34.4889E-03    -105.962E-03     211.165E-03    -105.760E-03     33.9964E-03
             621     5.66789E-03     88.6689E-03    -75.6335E+06    -129.560E+06    -20.0891E+06     812.600E+03    -105.780E-03     211.710E-03    -105.930E-03     38.5664E-03    -105.986E-03     211.245E-03    -105.732E-03     38.0007E-03
             622     6.47777E-03     88.7140E-03    -68.2125E+06    -112.395E+06    -7.96339E+06     834.422E+03    -105.786E-03     211.712E-03    -105.926E-03     42.0251E-03    -106.008E-03     211.316E-03    -105.704E-03     41.3858E-03
             623     7.28768E-03     88.7624E-03    -60.9984E+06    -95.4656E+06     2.75891E+06     875.280E+03    -105.797E-03     211.713E-03    -105.916E-03     44.9076E-03    -106.034E-03     211.386E-03    -105.675E-03     44.1967E-03
             624     8.09765E-03     88.8139E-03    -54.0484E+06    -78.1662E+06     12.4343E+06     1.06748E+06    -105.795E-03     211.697E-03    -105.901E-03     47.2603E-03    -106.048E-03     211.444E-03    -105.648E-03     46.4805E-03
             625     8.90772E-03     88.8674E-03    -47.5379E+06    -60.0121E+06     21.1976E+06     1.16707E+06    -105.789E-03     211.671E-03    -105.883E-03     49.0143E-03    -106.059E-03     211.498E-03    -105.621E-03     48.1637E-03
             626     9.71772E-03     88.9227E-03    -41.3412E+06    -41.6766E+06     29.2547E+06     1.26517E+06    -105.772E-03     211.634E-03    -105.862E-03     50.1591E-03    -106.061E-03     211.543E-03    -105.596E-03     49.2362E-03
             627     10.5278E-03     88.9787E-03    -35.6503E+06    -19.2549E+06     37.2044E+06     1.44913E+06    -105.732E-03     211.570E-03    -105.838E-03     50.7359E-03    -106.049E-03     211.583E-03    -105.572E-03     49.7396E-03
             628     11.3378E-03     89.0351E-03    -30.0090E+06     4.64294E+06     45.4186E+06     1.22643E+06    -105.676E-03     211.490E-03    -105.814E-03     50.5711E-03    -106.022E-03     211.614E-03    -105.550E-03     49.4959E-03
             629     12.1480E-03     89.0907E-03    -24.6735E+06     33.3193E+06     53.1766E+06     1.05197E+06    -105.547E-03     211.329E-03    -105.782E-03     49.1849E-03    -105.927E-03     211.586E-03    -105.529E-03     48.0322E-03
             630     12.9579E-03     89.1437E-03    -20.2455E+06     69.3769E+06     62.8696E+06     1.21756E+06    -105.289E-03     211.037E-03    -105.748E-03     46.2631E-03    -105.718E-03     211.458E-03    -105.505E-03     45.0501E-03
             631     13.7686E-03     89.1928E-03    -15.1674E+06     97.0160E+06     69.4606E+06     1.13192E+06    -105.062E-03     210.768E-03    -105.706E-03     41.2964E-03    -105.510E-03     211.306E-03    -105.478E-03     40.0367E-03
             632     14.5787E-03     89.2344E-03    -10.0981E+06     108.335E+06     79.8860E+06     885.413E+03    -105.008E-03     210.719E-03    -105.711E-03     35.1376E-03    -105.458E-03     211.286E-03    -105.454E-03     33.8150E-03
             633     15.3888E-03     89.2693E-03    -5.34643E+06     110.637E+06     94.1523E+06     507.178E+03    -104.823E-03     210.575E-03    -105.752E-03     24.2740E-03    -105.232E-03     211.085E-03    -105.434E-03     23.1501E-03
             634     809.567E-06     89.6783E-03    -117.618E+06    -235.021E+06    -114.574E+06     21.6937E+03    -105.869E-03     211.688E-03    -105.819E-03     7.15664E-03    -105.951E-03     210.851E-03    -105.881E-03     7.05852E-03
             635     1.61910E-03     89.6898E-03    -113.559E+06    -223.267E+06    -102.885E+06     162.236E+03    -105.780E-03     211.645E-03    -105.865E-03     13.0593E-03    -105.880E-03     210.847E-03    -105.891E-03     12.8855E-03
             636     2.42881E-03     89.7080E-03    -107.499E+06    -206.240E+06    -86.4866E+06     349.368E+03    -105.732E-03     211.609E-03    -105.878E-03     19.0029E-03    -105.855E-03     210.870E-03    -105.855E-03     18.7473E-03
             637     3.23853E-03     89.7321E-03    -100.190E+06    -186.441E+06    -68.2842E+06      478.65E+03    -105.740E-03     211.636E-03    -105.896E-03     24.6508E-03    -105.889E-03     210.965E-03    -105.822E-03     24.3143E-03
             638     4.04822E-03     89.7629E-03    -92.1483E+06    -167.230E+06    -50.5888E+06     360.992E+03    -105.760E-03     211.676E-03    -105.916E-03     29.8521E-03    -105.930E-03     211.072E-03    -105.793E-03     29.4342E-03
             639     4.85801E-03     89.7988E-03    -83.7908E+06    -148.468E+06    -34.4666E+06     511.387E+03    -105.751E-03     211.679E-03    -105.928E-03     34.4701E-03    -105.939E-03     211.143E-03    -105.764E-03     33.9761E-03
             640     5.66789E-03     89.8398E-03    -75.5766E+06    -129.993E+06    -20.1425E+06     838.425E+03    -105.756E-03     211.686E-03    -105.930E-03     38.5487E-03    -105.961E-03     211.219E-03    -105.732E-03     37.9833E-03
             641     6.47779E-03     89.8846E-03    -67.6994E+06    -112.505E+06    -7.70544E+06     927.996E+03    -105.784E-03     211.708E-03    -105.925E-03     42.0251E-03    -106.003E-03     211.311E-03    -105.702E-03     41.3872E-03
             642     7.28773E-03     89.9333E-03    -60.3916E+06    -95.6308E+06     3.00913E+06     896.307E+03    -105.803E-03     211.718E-03    -105.915E-03     44.9121E-03    -106.037E-03     211.390E-03    -105.674E-03     44.2012E-03
             643     8.09770E-03     89.9845E-03    -53.5104E+06    -78.5610E+06     12.4659E+06     949.026E+03    -105.805E-03     211.705E-03    -105.900E-03     47.2552E-03    -106.055E-03     211.450E-03    -105.646E-03     46.4729E-03
             644     8.90765E-03     90.0383E-03    -47.0948E+06    -60.4989E+06     21.2153E+06     1.29320E+06    -105.787E-03     211.669E-03    -105.882E-03     48.9955E-03    -106.054E-03     211.493E-03    -105.620E-03     48.1459E-03
             645     9.71775E-03     90.0934E-03    -41.3943E+06    -41.8954E+06     29.2875E+06     1.50217E+06    -105.770E-03     211.632E-03    -105.862E-03     50.1369E-03    -106.060E-03     211.541E-03    -105.595E-03     49.2167E-03
             646     10.5278E-03     90.1496E-03    -35.6564E+06    -19.3666E+06     37.3248E+06     1.34761E+06    -105.764E-03     211.602E-03    -105.839E-03     50.7637E-03    -106.080E-03     211.615E-03    -105.572E-03     49.7661E-03
             647     11.3379E-03     90.2060E-03    -30.3760E+06     4.80444E+06     45.5893E+06     1.37001E+06    -105.689E-03     211.506E-03    -105.817E-03     50.5682E-03    -106.037E-03     211.631E-03    -105.552E-03     49.4940E-03
             648     12.1478E-03     90.2616E-03    -25.6839E+06     32.7544E+06     52.7323E+06     1.66981E+06    -105.523E-03     211.306E-03    -105.784E-03     49.2100E-03    -105.906E-03     211.562E-03    -105.530E-03     48.0659E-03
             649     12.9583E-03     90.3147E-03    -20.3736E+06     69.6148E+06     63.0005E+06     1.64786E+06    -105.318E-03     211.068E-03    -105.750E-03     46.3195E-03    -105.748E-03     211.490E-03    -105.507E-03     45.1117E-03
             650     13.7681E-03     90.3633E-03    -15.4144E+06     97.3514E+06     69.0568E+06     1.09362E+06    -105.118E-03     210.827E-03    -105.708E-03     41.3062E-03    -105.569E-03     211.368E-03    -105.482E-03     40.0417E-03
             651     14.5786E-03     90.4055E-03    -10.7158E+06     108.100E+06     79.0166E+06     918.847E+03    -104.914E-03     210.625E-03    -105.711E-03     35.2256E-03    -105.365E-03     211.193E-03    -105.457E-03     33.9049E-03
             652     15.3888E-03     90.4403E-03    -5.14493E+06     111.549E+06     94.7362E+06     500.094E+03    -104.752E-03     210.504E-03    -105.752E-03     24.2495E-03    -105.163E-03     211.017E-03    -105.432E-03     23.1276E-03
             653     809.384E-06     90.8495E-03    -118.667E+06    -235.436E+06    -115.797E+06     336.183E+03    -105.945E-03     211.803E-03    -105.858E-03     7.21982E-03    -106.031E-03     210.968E-03    -105.923E-03     7.12460E-03
             654     1.61895E-03     90.8606E-03    -114.684E+06    -223.386E+06    -103.673E+06     251.735E+03    -105.750E-03     211.656E-03    -105.906E-03     13.0857E-03    -105.854E-03     210.861E-03    -105.934E-03     12.9123E-03
             655     2.42880E-03     90.8785E-03    -108.282E+06    -206.523E+06    -86.9560E+06     260.070E+03    -105.695E-03     211.590E-03    -105.895E-03     19.0069E-03    -105.821E-03     210.850E-03    -105.873E-03     18.7503E-03
             656     3.23850E-03     90.9031E-03    -100.282E+06    -186.539E+06    -68.3924E+06     219.221E+03    -105.739E-03     211.643E-03    -105.904E-03     24.6453E-03    -105.888E-03     210.972E-03    -105.830E-03     24.3056E-03
             657     4.04822E-03     90.9336E-03    -91.8820E+06    -167.474E+06    -50.3946E+06     432.518E+03    -105.748E-03     211.671E-03    -105.922E-03     29.8353E-03    -105.917E-03     211.065E-03    -105.798E-03     29.4179E-03
             658     4.85803E-03     90.9697E-03    -83.7477E+06    -148.781E+06    -34.3552E+06     564.646E+03    -105.739E-03     211.670E-03    -105.932E-03     34.4772E-03    -105.927E-03     211.133E-03    -105.766E-03     33.9835E-03
             659     5.66788E-03     91.0104E-03    -75.6085E+06    -130.385E+06    -20.3100E+06     526.695E+03    -105.755E-03     211.685E-03    -105.930E-03     38.5532E-03    -105.960E-03     211.218E-03    -105.733E-03     37.9833E-03
             660     6.47780E-03     91.0555E-03    -67.7225E+06    -112.852E+06    -7.96708E+06     711.569E+03    -105.776E-03     211.700E-03    -105.924E-03     42.0066E-03    -105.995E-03     211.301E-03    -105.702E-03     41.3655E-03
             661     7.28772E-03     91.1039E-03    -60.3938E+06    -95.8078E+06     2.82314E+06     892.935E+03    -105.797E-03     211.711E-03    -105.913E-03     44.8891E-03    -106.031E-03     211.382E-03    -105.673E-03     44.1783E-03
             662     8.09767E-03     91.1554E-03    -53.6416E+06    -78.9235E+06     12.3193E+06     1.04586E+06    -105.807E-03     211.707E-03    -105.900E-03     47.2440E-03    -106.057E-03     211.450E-03    -105.646E-03     46.4628E-03
             663     8.90770E-03     91.2090E-03    -47.3970E+06    -61.1172E+06     21.0307E+06     1.21249E+06    -105.802E-03     211.684E-03    -105.883E-03     49.0035E-03    -106.070E-03     211.506E-03    -105.620E-03     48.1523E-03
             664     9.71771E-03     91.2642E-03    -41.0269E+06    -42.3534E+06     29.3334E+06     1.52714E+06    -105.802E-03     211.666E-03    -105.864E-03     50.1571E-03    -106.089E-03     211.572E-03    -105.596E-03     49.2371E-03
             665     10.5278E-03     91.3204E-03    -35.3668E+06    -19.4692E+06     37.3818E+06     1.72591E+06    -105.764E-03     211.605E-03    -105.841E-03     50.7700E-03    -106.079E-03     211.617E-03    -105.575E-03     49.7778E-03
             666     11.3377E-03     91.3770E-03    -30.2019E+06     4.18287E+06     45.2674E+06     1.94380E+06    -105.664E-03     211.481E-03    -105.818E-03     50.5544E-03    -106.009E-03     211.603E-03    -105.554E-03     49.4884E-03
             667     12.1480E-03     91.4323E-03    -25.0112E+06     32.4227E+06     52.8342E+06     2.04254E+06    -105.530E-03     211.314E-03    -105.785E-03     49.1873E-03    -105.910E-03     211.567E-03    -105.531E-03     48.0482E-03
             668     12.9580E-03     91.4855E-03    -20.3891E+06     69.9873E+06     63.3090E+06     1.91676E+06    -105.323E-03     211.075E-03    -105.752E-03     46.2796E-03    -105.753E-03     211.497E-03    -105.507E-03     45.0761E-03
             669     13.7684E-03     91.5346E-03    -15.7480E+06     98.0308E+06     69.2806E+06     1.65186E+06    -105.098E-03     210.808E-03    -105.710E-03     41.3809E-03    -105.552E-03     211.352E-03    -105.482E-03     40.1252E-03
             670     14.5785E-03     91.5760E-03    -10.4789E+06     109.166E+06     79.3568E+06     687.029E+03    -104.875E-03     210.584E-03    -105.710E-03     35.3084E-03    -105.327E-03     211.157E-03    -105.456E-03     33.9851E-03
             671     15.3892E-03     91.6109E-03    -4.98812E+06     112.134E+06     94.6956E+06     43.5165E+03    -104.720E-03     210.468E-03    -105.748E-03     24.2820E-03    -105.131E-03     210.984E-03    -105.429E-03     23.1556E-03
             672     809.572E-06     92.0204E-03    -118.083E+06    -235.778E+06    -115.515E+06    -63.6820E+03    -105.840E-03     211.693E-03    -105.853E-03     7.25110E-03    -105.923E-03     210.855E-03    -105.917E-03     7.15190E-03
             673     1.61920E-03     92.0314E-03    -113.783E+06    -223.630E+06    -103.016E+06     173.836E+03    -105.809E-03     211.682E-03    -105.874E-03     13.0912E-03    -105.909E-03     210.883E-03    -105.899E-03     12.9160E-03
             674     2.42866E-03     92.0493E-03    -107.555E+06    -206.507E+06    -86.4854E+06     101.119E+03    -105.780E-03     211.677E-03    -105.897E-03     19.0863E-03    -105.903E-03     210.936E-03    -105.874E-03     18.8268E-03
             675     3.23840E-03     92.0739E-03    -100.369E+06    -186.638E+06    -68.6873E+06     128.191E+03    -105.726E-03     211.640E-03    -105.914E-03     24.6901E-03    -105.875E-03     210.969E-03    -105.841E-03     24.3492E-03
             676     4.04820E-03     92.1044E-03    -92.5026E+06    -168.012E+06    -50.9420E+06     298.676E+03    -105.710E-03     211.635E-03    -105.925E-03     29.8290E-03    -105.880E-03     211.028E-03    -105.802E-03     29.4100E-03
             677     4.85803E-03     92.1403E-03    -83.9911E+06    -148.923E+06    -34.7318E+06     413.908E+03    -105.744E-03     211.674E-03    -105.931E-03     34.4832E-03    -105.932E-03     211.137E-03    -105.766E-03     33.9872E-03
             678     5.66788E-03     92.1813E-03    -75.7631E+06    -130.433E+06    -20.5794E+06     446.494E+03    -105.771E-03     211.702E-03    -105.931E-03     38.5315E-03    -105.976E-03     211.234E-03    -105.735E-03     37.9601E-03
             679     6.47775E-03     92.2262E-03    -68.0398E+06    -113.344E+06    -8.40751E+06     516.686E+03    -105.775E-03     211.701E-03    -105.926E-03     41.9901E-03    -105.994E-03     211.301E-03    -105.705E-03     41.3463E-03
             680     7.28772E-03     92.2748E-03    -60.7215E+06    -96.2414E+06     2.48679E+06     794.006E+03    -105.788E-03     211.703E-03    -105.915E-03     44.8876E-03    -106.022E-03     211.372E-03    -105.675E-03     44.1755E-03
             681     8.09770E-03     92.3261E-03    -53.9730E+06    -79.3857E+06     12.1028E+06     1.03103E+06    -105.804E-03     211.705E-03    -105.901E-03     47.2178E-03    -106.054E-03     211.446E-03    -105.647E-03     46.4363E-03
             682     8.90769E-03     92.3798E-03    -47.3183E+06    -61.3473E+06     20.9231E+06     1.13805E+06    -105.829E-03     211.714E-03    -105.884E-03     48.9971E-03    -106.096E-03     211.534E-03    -105.622E-03     48.1446E-03
             683     9.71768E-03     92.4350E-03    -41.1990E+06    -43.0619E+06     28.8349E+06     1.23920E+06    -105.829E-03     211.696E-03    -105.867E-03     50.1547E-03    -106.114E-03     211.599E-03    -105.601E-03     49.2310E-03
             684     10.5276E-03     92.4913E-03    -35.2816E+06    -20.2353E+06     36.9308E+06     1.81158E+06    -105.737E-03     211.581E-03    -105.844E-03     50.7581E-03    -106.049E-03     211.589E-03    -105.579E-03     49.7678E-03
             685     11.3379E-03     92.5476E-03    -29.6064E+06     4.10756E+06     45.4873E+06     1.96941E+06    -105.646E-03     211.465E-03    -105.820E-03     50.5614E-03    -105.988E-03     211.586E-03    -105.555E-03     49.4958E-03
             686     12.1479E-03     92.6032E-03    -24.4610E+06     31.5441E+06     53.0060E+06     2.54910E+06    -105.549E-03     211.336E-03    -105.787E-03     49.2105E-03    -105.926E-03     211.584E-03    -105.532E-03     48.0770E-03
             687     12.9580E-03     92.6565E-03    -19.5341E+06      69.836E+06     63.5920E+06     2.73273E+06    -105.329E-03     211.083E-03    -105.754E-03     46.2978E-03    -105.755E-03     211.504E-03    -105.509E-03     45.1029E-03
             688     13.7683E-03     92.7050E-03    -14.5417E+06     99.5824E+06     70.0074E+06     1.60522E+06    -105.065E-03     210.775E-03    -105.710E-03     41.2120E-03    -105.515E-03     211.324E-03    -105.483E-03     39.9557E-03
             689     14.5789E-03     92.7472E-03    -9.49308E+06     110.458E+06     79.9594E+06     849.604E+03    -104.843E-03     210.552E-03    -105.708E-03     35.1112E-03    -105.294E-03     211.129E-03    -105.455E-03     33.7869E-03
             690     15.3887E-03     92.7816E-03    -4.79286E+06     112.549E+06     94.8006E+06     265.531E+03    -104.744E-03     210.490E-03    -105.746E-03     24.3659E-03    -105.155E-03     211.009E-03    -105.428E-03     23.2391E-03
             691     809.623E-06     93.1911E-03    -118.885E+06    -235.428E+06    -115.713E+06    -275.702E+03    -105.800E-03     211.591E-03    -105.790E-03     7.20228E-03    -105.887E-03     210.755E-03    -105.855E-03     7.10235E-03
             692     1.61916E-03     93.2022E-03    -114.644E+06    -224.013E+06    -104.374E+06    -198.215E+03    -105.826E-03     211.660E-03    -105.834E-03     13.0560E-03    -105.928E-03     210.862E-03    -105.864E-03     12.8765E-03
             693     2.42884E-03     93.2202E-03    -108.493E+06    -206.843E+06    -87.8466E+06     202.111E+03    -105.802E-03     211.679E-03    -105.877E-03     19.0827E-03    -105.927E-03     210.940E-03    -105.859E-03     18.8246E-03
             694     3.23841E-03     93.2447E-03    -101.129E+06    -186.715E+06    -69.2972E+06     346.965E+03    -105.742E-03     211.649E-03    -105.906E-03     24.7092E-03    -105.894E-03     210.979E-03    -105.836E-03     24.3705E-03
             695     4.04822E-03     93.2751E-03    -92.8726E+06    -167.948E+06    -51.4048E+06     174.629E+03    -105.734E-03     211.657E-03    -105.924E-03     29.8612E-03    -105.905E-03     211.052E-03    -105.802E-03     29.4401E-03
             696     4.85802E-03     93.3112E-03    -84.4379E+06    -149.023E+06    -35.2655E+06     41.5956E+03    -105.753E-03     211.685E-03    -105.932E-03     34.4779E-03    -105.943E-03     211.148E-03    -105.770E-03     33.9772E-03
             697     5.66784E-03     93.3520E-03    -76.2443E+06    -130.767E+06    -21.1075E+06     192.898E+03    -105.759E-03     211.692E-03    -105.933E-03     38.5214E-03    -105.965E-03     211.224E-03    -105.738E-03     37.9465E-03
             698     6.47776E-03     93.3970E-03    -68.4908E+06    -113.611E+06    -8.73570E+06     431.131E+03    -105.781E-03     211.708E-03    -105.927E-03     42.0047E-03    -106.002E-03     211.308E-03    -105.707E-03     41.3595E-03
             699     7.28768E-03     93.4455E-03    -61.1004E+06    -96.7376E+06     2.06538E+06     569.441E+03    -105.806E-03     211.724E-03    -105.917E-03     44.8850E-03    -106.041E-03     211.392E-03    -105.678E-03     44.1696E-03
             700     8.09764E-03     93.4969E-03    -54.1197E+06    -79.8875E+06     11.6451E+06     812.360E+03    -105.825E-03     211.729E-03    -105.904E-03     47.1906E-03    -106.074E-03     211.469E-03    -105.652E-03     46.4064E-03
             701     8.90763E-03     93.5506E-03    -47.7153E+06    -61.6699E+06     20.4425E+06     1.07144E+06    -105.830E-03     211.719E-03    -105.889E-03     49.0142E-03    -106.098E-03     211.539E-03    -105.628E-03     48.1616E-03
             702     9.71757E-03     93.6061E-03    -41.7189E+06    -43.5119E+06     28.3741E+06     1.32186E+06    -105.802E-03     211.672E-03    -105.870E-03     50.1814E-03    -106.089E-03     211.574E-03    -105.605E-03     49.2589E-03
             703     10.5277E-03     93.6619E-03    -36.0767E+06    -21.0184E+06     36.3149E+06     1.42075E+06    -105.736E-03     211.582E-03    -105.846E-03     50.7534E-03    -106.051E-03     211.589E-03    -105.582E-03     49.7575E-03
             704     11.3377E-03     93.7186E-03    -30.7486E+06     3.25979E+06     44.7344E+06     2.17205E+06    -105.655E-03     211.477E-03    -105.822E-03     50.5775E-03    -106.001E-03     211.596E-03    -105.558E-03     49.5154E-03
             705     12.1478E-03     93.7741E-03    -25.5483E+06     30.8002E+06     51.9708E+06     2.51528E+06    -105.503E-03     211.290E-03    -105.787E-03     49.1848E-03    -105.882E-03     211.537E-03    -105.534E-03     48.0529E-03
             706     12.9582E-03     93.8272E-03    -19.7368E+06     70.2876E+06     63.1878E+06     2.19842E+06    -105.274E-03     211.024E-03    -105.751E-03     46.3773E-03    -105.701E-03     211.448E-03    -105.508E-03     45.1795E-03
             707     13.7682E-03     93.8763E-03    -14.3769E+06     100.700E+06     70.4084E+06     1.82541E+06    -105.081E-03     210.788E-03    -105.708E-03     41.3981E-03    -105.532E-03     211.342E-03    -105.481E-03     40.1460E-03
             708     14.5782E-03     93.9174E-03    -9.80171E+06     111.178E+06     80.2677E+06     1.17171E+06    -104.839E-03     210.547E-03    -105.707E-03     35.1899E-03    -105.293E-03     211.127E-03    -105.453E-03     33.8711E-03
             709     15.3894E-03     93.9526E-03    -5.03711E+06     113.350E+06     94.9210E+06     725.246E+03    -104.766E-03     210.511E-03    -105.744E-03     24.6277E-03    -105.180E-03     211.033E-03    -105.427E-03     23.5113E-03
             710     809.586E-06     94.3618E-03    -119.384E+06    -235.219E+06    -116.699E+06     234.401E+03    -105.800E-03     211.599E-03    -105.799E-03     7.16516E-03    -105.889E-03     210.767E-03    -105.868E-03     7.07235E-03
             711     1.61920E-03     94.3731E-03    -115.856E+06    -223.891E+06    -104.962E+06    -12.4124E+03    -105.788E-03     211.619E-03    -105.831E-03     13.0848E-03    -105.895E-03     210.825E-03    -105.863E-03     12.9076E-03
             712     2.42874E-03     94.3910E-03    -109.480E+06    -207.090E+06    -88.4926E+06    -217.065E+03    -105.766E-03     211.630E-03    -105.864E-03     19.0504E-03    -105.895E-03     210.892E-03    -105.847E-03     18.7870E-03
             713     3.23855E-03     94.4154E-03    -101.459E+06    -186.857E+06    -69.9067E+06    -128.920E+03    -105.767E-03     211.660E-03    -105.893E-03     24.6839E-03    -105.919E-03     210.991E-03    -105.825E-03     24.3389E-03
             714     4.04820E-03     94.4460E-03    -93.1344E+06    -167.796E+06    -51.8318E+06    -51.1852E+03    -105.784E-03     211.705E-03    -105.920E-03     29.8582E-03    -105.957E-03     211.101E-03    -105.801E-03     29.4342E-03
             715     4.85794E-03     94.4820E-03    -84.9280E+06    -149.036E+06    -35.7857E+06    -33.1447E+03    -105.759E-03     211.694E-03    -105.934E-03     34.4527E-03    -105.951E-03     211.159E-03    -105.774E-03     33.9506E-03
             716     5.66786E-03     94.5227E-03    -76.8803E+06    -131.026E+06    -21.6625E+06    -3.05692E+03    -105.755E-03     211.691E-03    -105.936E-03     38.4949E-03    -105.963E-03     211.223E-03    -105.742E-03     37.9177E-03
             717     6.47776E-03     94.5678E-03    -68.9611E+06    -113.887E+06    -9.23580E+06     115.639E+03    -105.791E-03     211.722E-03    -105.930E-03     41.9756E-03    -106.013E-03     211.321E-03    -105.711E-03     41.3265E-03
             718     7.28765E-03     94.6163E-03    -61.5819E+06    -97.1409E+06     1.46119E+06     377.405E+03    -105.823E-03     211.744E-03    -105.921E-03     44.8675E-03    -106.058E-03     211.412E-03    -105.684E-03     44.1495E-03
             719     8.09758E-03     94.6677E-03      -54.62E+06    -80.3226E+06     11.1117E+06     602.882E+03    -105.838E-03     211.748E-03    -105.910E-03     47.2241E-03    -106.088E-03     211.487E-03    -105.659E-03     46.4371E-03
             720     8.90751E-03     94.7215E-03    -48.0637E+06    -62.2183E+06     19.9462E+06     891.952E+03    -105.812E-03     211.706E-03    -105.893E-03     49.0246E-03    -106.081E-03     211.525E-03    -105.634E-03     48.1700E-03
             721     9.71766E-03     94.7767E-03    -41.9536E+06    -44.0617E+06     27.9518E+06     1.22307E+06    -105.792E-03     211.666E-03    -105.874E-03     50.1725E-03    -106.079E-03     211.566E-03    -105.609E-03     49.2490E-03
             722     10.5276E-03     94.8329E-03    -36.3164E+06    -21.6844E+06     35.8694E+06     1.74394E+06    -105.766E-03     211.616E-03    -105.850E-03     50.7042E-03    -106.080E-03     211.620E-03    -105.586E-03     49.7123E-03
             723     11.3377E-03     94.8893E-03    -30.9452E+06     1.93713E+06     43.9322E+06     2.08597E+06    -105.652E-03     211.478E-03    -105.826E-03     50.5196E-03    -105.996E-03     211.591E-03    -105.564E-03     49.4571E-03
             724     12.1479E-03     94.9450E-03    -25.4469E+06     30.9579E+06     51.9719E+06     2.30113E+06    -105.484E-03     211.275E-03    -105.791E-03     49.1178E-03    -105.863E-03     211.522E-03    -105.539E-03     47.9843E-03
             725     12.9580E-03     94.9980E-03    -20.6249E+06     70.9671E+06     63.1461E+06     2.19591E+06    -105.198E-03     210.950E-03    -105.752E-03     46.1962E-03    -105.630E-03     211.378E-03    -105.510E-03     44.9980E-03
             726     13.7687E-03     95.0469E-03    -15.8438E+06     100.843E+06     70.4396E+06     1.79478E+06    -104.970E-03     210.677E-03    -105.706E-03     41.2728E-03    -105.429E-03     211.233E-03    -105.477E-03     40.0234E-03
             727     14.5791E-03     95.0887E-03    -10.8768E+06     111.841E+06     80.7321E+06     1.37192E+06    -104.994E-03     210.703E-03    -105.709E-03     35.0491E-03    -105.454E-03     211.287E-03    -105.451E-03     33.7336E-03
             728     15.3886E-03     95.1228E-03    -5.55922E+06     114.161E+06     95.3695E+06     770.556E+03    -104.825E-03     210.576E-03    -105.751E-03     24.3623E-03    -105.243E-03     211.103E-03    -105.432E-03     23.2396E-03
             729     809.535E-06     95.5325E-03    -120.427E+06    -235.480E+06    -117.482E+06    -61.2571E+03    -105.784E-03     211.606E-03    -105.822E-03     7.24463E-03    -105.876E-03     210.776E-03    -105.893E-03     7.14660E-03
             730     1.61916E-03     95.5439E-03    -115.907E+06    -223.476E+06    -105.119E+06    -74.6553E+03    -105.780E-03     211.613E-03    -105.833E-03     13.1012E-03    -105.888E-03     210.821E-03    -105.867E-03     12.9230E-03
             731     2.42890E-03     95.5617E-03    -109.659E+06     -206.44E+06    -88.5240E+06    -349.628E+03    -105.777E-03     211.642E-03    -105.865E-03     19.0075E-03    -105.907E-03     210.907E-03    -105.849E-03     18.7430E-03
             732     3.23847E-03     95.5863E-03    -102.194E+06    -187.000E+06    -70.5985E+06    -501.807E+03    -105.781E-03     211.678E-03    -105.896E-03     24.6356E-03    -105.936E-03     211.010E-03    -105.830E-03     24.2862E-03
             733     4.04819E-03     95.6169E-03    -93.9617E+06    -167.936E+06    -52.6795E+06    -341.544E+03    -105.765E-03     211.687E-03    -105.923E-03     29.8096E-03    -105.940E-03     211.086E-03    -105.806E-03     29.3821E-03
             734     4.85799E-03     95.6528E-03     -85.656E+06    -149.106E+06    -36.4674E+06    -220.583E+03    -105.769E-03     211.705E-03    -105.936E-03     34.4353E-03    -105.963E-03     211.172E-03    -105.778E-03     33.9311E-03
             735     5.66778E-03     95.6935E-03    -77.4311E+06    -131.041E+06    -22.2304E+06    -201.011E+03    -105.794E-03     211.734E-03    -105.940E-03     38.4838E-03    -106.003E-03     211.268E-03    -105.749E-03     37.9041E-03
             736     6.47763E-03     95.7386E-03    -69.6688E+06    -114.108E+06    -9.92853E+06    -108.812E+03    -105.803E-03     211.741E-03    -105.938E-03     41.9519E-03    -106.027E-03     211.341E-03    -105.721E-03     41.3000E-03
             737     7.28759E-03     95.7871E-03    -62.1668E+06    -97.4576E+06     883.080E+03    -13.8149E+03    -105.819E-03     211.748E-03    -105.929E-03     44.8510E-03    -106.057E-03     211.416E-03    -105.693E-03     44.1279E-03
             738     8.09754E-03     95.8386E-03    -54.9462E+06    -80.6843E+06     10.5447E+06     149.397E+03    -105.838E-03     211.754E-03    -105.916E-03     47.1926E-03    -106.089E-03     211.493E-03    -105.667E-03     46.3999E-03
             739     8.90756E-03     95.8922E-03    -48.1907E+06    -62.9211E+06     19.3532E+06     573.606E+03    -105.841E-03     211.742E-03    -105.901E-03     48.9333E-03    -106.108E-03     211.558E-03    -105.643E-03     48.0741E-03
             740     9.71747E-03     95.9475E-03    -42.0978E+06    -44.7952E+06     27.4131E+06     1.10480E+06    -105.817E-03     211.699E-03    -105.883E-03     50.0829E-03    -106.102E-03     211.597E-03    -105.620E-03     49.1578E-03
             741     10.5275E-03     96.0038E-03    -36.3208E+06    -22.7089E+06     35.3700E+06     1.50299E+06    -105.751E-03     211.610E-03    -105.859E-03     50.6493E-03    -106.063E-03     211.610E-03    -105.597E-03     49.6544E-03
             742     11.3376E-03     96.0602E-03    -30.6257E+06     1.19678E+06     43.9208E+06     2.12342E+06    -105.642E-03     211.476E-03    -105.835E-03     50.4206E-03    -105.983E-03     211.586E-03    -105.572E-03     49.3572E-03
             743     12.1477E-03     96.1157E-03    -25.8413E+06     30.1503E+06     51.4292E+06     2.56411E+06    -105.473E-03     211.270E-03    -105.797E-03     49.0805E-03    -105.851E-03     211.515E-03    -105.546E-03     47.9499E-03
             744     12.9580E-03     96.1689E-03    -20.8748E+06     71.2712E+06     62.9817E+06     2.68533E+06    -105.282E-03     211.042E-03    -105.761E-03     46.0783E-03    -105.716E-03     211.472E-03    -105.519E-03     44.8840E-03
             745     13.7681E-03     96.2173E-03    -15.7579E+06     101.945E+06     69.8962E+06     2.01771E+06    -105.069E-03     210.785E-03    -105.716E-03     40.8896E-03    -105.528E-03     211.348E-03    -105.492E-03     39.6369E-03
             746     14.5784E-03     96.2595E-03    -10.8465E+06     112.401E+06     79.9767E+06     1.13796E+06    -104.924E-03     210.643E-03    -105.719E-03     34.9326E-03    -105.384E-03     211.231E-03    -105.466E-03     33.6124E-03
             747     15.3887E-03     96.2949E-03    -5.46764E+06     115.054E+06     96.1114E+06     645.078E+03    -104.656E-03     210.417E-03    -105.761E-03     24.1738E-03    -105.075E-03     210.947E-03    -105.440E-03     23.0519E-03
             748     809.648E-06     96.7034E-03    -121.097E+06    -235.091E+06    -117.809E+06    -295.532E+03    -105.789E-03     211.633E-03    -105.844E-03     7.21720E-03    -105.884E-03     210.806E-03    -105.916E-03     7.11579E-03
             749     1.61917E-03     96.7145E-03    -116.561E+06    -223.107E+06    -106.095E+06    -417.472E+03    -105.816E-03     211.665E-03    -105.849E-03     13.0509E-03    -105.926E-03     210.877E-03    -105.887E-03     12.8688E-03
             750     2.42871E-03     96.7326E-03    -110.286E+06    -206.157E+06    -89.5179E+06    -390.867E+03    -105.805E-03     211.692E-03    -105.886E-03     18.9749E-03    -105.938E-03     210.961E-03    -105.875E-03     18.7100E-03
             751     3.23838E-03     96.7572E-03    -102.852E+06    -186.615E+06    -71.0249E+06    -473.914E+03    -105.769E-03     211.687E-03    -105.918E-03     24.5814E-03    -105.927E-03     211.023E-03    -105.853E-03     24.2325E-03
             752     4.04814E-03     96.7876E-03    -94.7082E+06    -167.978E+06    -53.2781E+06    -549.065E+03    -105.741E-03     211.677E-03    -105.936E-03     29.7263E-03    -105.919E-03     211.077E-03    -105.822E-03     29.2961E-03
             753     4.85796E-03     96.8236E-03    -86.1997E+06    -149.076E+06    -37.0418E+06    -520.423E+03    -105.765E-03     211.710E-03    -105.945E-03     34.3878E-03    -105.961E-03     211.178E-03    -105.789E-03     33.8802E-03
             754     5.66774E-03     96.8645E-03    -77.9804E+06    -131.047E+06    -22.7895E+06    -489.155E+03    -105.813E-03     211.762E-03    -105.949E-03     38.4561E-03    -106.025E-03     211.298E-03    -105.760E-03     37.8725E-03
             755     6.47761E-03     96.9093E-03    -70.0400E+06    -114.103E+06    -10.4748E+06    -504.426E+03    -105.839E-03     211.788E-03    -105.949E-03     41.9138E-03    -106.064E-03     211.390E-03    -105.734E-03     41.2557E-03
             756     7.28747E-03     96.9580E-03    -62.4453E+06    -97.6055E+06     238.394E+03    -472.104E+03    -105.850E-03     211.792E-03    -105.942E-03     44.7867E-03    -106.087E-03     211.461E-03    -105.709E-03     44.0573E-03
             757     8.09741E-03     97.0093E-03    -55.4769E+06    -81.0764E+06     9.76880E+06    -198.347E+03    -105.865E-03     211.797E-03    -105.931E-03     47.0894E-03    -106.117E-03     211.535E-03    -105.684E-03     46.2923E-03
             758     8.90731E-03     97.0631E-03    -49.0065E+06    -63.4816E+06     18.5467E+06     13.5527E+03    -105.861E-03     211.778E-03    -105.917E-03     48.8416E-03    -106.130E-03     211.594E-03    -105.661E-03     47.9745E-03
             759     9.71729E-03     97.1184E-03    -42.4555E+06    -45.6927E+06     26.6943E+06     381.995E+03    -105.811E-03     211.709E-03    -105.899E-03     50.0212E-03    -106.096E-03     211.604E-03    -105.637E-03     49.0861E-03
             760     10.5274E-03     97.1746E-03    -36.3215E+06    -23.7755E+06     34.8044E+06     1.17639E+06    -105.723E-03     211.595E-03    -105.873E-03     50.6100E-03    -106.032E-03     211.590E-03    -105.612E-03     49.6106E-03
             761     11.3375E-03     97.2311E-03    -30.7451E+06    -271.771E+03     43.0104E+06     1.97602E+06    -105.623E-03     211.468E-03    -105.845E-03     50.3628E-03    -105.961E-03     211.571E-03    -105.585E-03     49.2977E-03
             762     12.1477E-03     97.2864E-03    -25.1259E+06     29.0636E+06     51.0307E+06     2.72907E+06    -105.501E-03     211.308E-03    -105.807E-03     49.0004E-03    -105.873E-03     211.546E-03    -105.558E-03     47.8709E-03
             763     12.9578E-03     97.3396E-03    -20.2146E+06     71.1144E+06     62.6792E+06     3.11195E+06    -105.309E-03     211.080E-03    -105.771E-03     46.1678E-03    -105.739E-03     211.509E-03    -105.531E-03     44.9797E-03
             764     13.7679E-03     97.3889E-03    -15.4503E+06     103.272E+06     69.9441E+06     2.24979E+06    -105.118E-03     210.845E-03    -105.727E-03     41.2716E-03    -105.578E-03     211.415E-03    -105.505E-03     40.0223E-03
             765     14.5779E-03     97.4299E-03    -9.87967E+06     113.869E+06     80.4592E+06     1.18417E+06    -104.705E-03     210.430E-03    -105.725E-03     35.3475E-03    -105.163E-03     211.024E-03    -105.474E-03     34.0311E-03
             766     15.3889E-03     97.4655E-03    -4.59567E+06     115.847E+06     96.3464E+06     520.550E+03    -104.470E-03     210.226E-03    -105.756E-03     24.4500E-03    -104.887E-03     210.758E-03    -105.436E-03     23.3332E-03
             767     809.441E-06     97.8741E-03    -121.740E+06    -234.490E+06    -118.743E+06    -318.033E+03    -105.866E-03     211.737E-03    -105.871E-03     7.24595E-03    -105.964E-03     210.915E-03    -105.948E-03     7.14487E-03
             768     1.61907E-03     97.8855E-03    -117.271E+06    -222.656E+06    -106.640E+06    -444.669E+03    -105.836E-03     211.732E-03    -105.896E-03     13.0368E-03    -105.950E-03     210.949E-03    -105.937E-03     12.8541E-03
             769     2.42865E-03     97.9035E-03    -111.101E+06    -205.873E+06    -90.1939E+06    -650.472E+03    -105.790E-03     211.709E-03    -105.919E-03     18.9941E-03    -105.926E-03     210.981E-03    -105.910E-03     18.7252E-03
             770     3.23832E-03     97.9280E-03    -103.486E+06    -186.315E+06    -71.7156E+06    -694.815E+03    -105.766E-03     211.705E-03    -105.939E-03     24.6006E-03    -105.927E-03     211.045E-03    -105.877E-03     24.2488E-03
             771     4.04803E-03     97.9584E-03    -95.0898E+06    -167.454E+06    -53.6168E+06    -855.979E+03    -105.780E-03     211.738E-03    -105.957E-03     29.7061E-03    -105.960E-03     211.141E-03    -105.845E-03     29.2710E-03
             772     4.85777E-03     97.9944E-03    -86.6180E+06    -149.065E+06    -37.5841E+06    -912.706E+03    -105.789E-03     211.756E-03    -105.968E-03     34.3282E-03    -105.986E-03     211.226E-03    -105.814E-03     33.8144E-03
             773     5.66767E-03     98.0353E-03    -78.2684E+06    -130.765E+06    -23.4307E+06    -895.845E+03    -105.823E-03     211.793E-03    -105.970E-03     38.3611E-03    -106.035E-03     211.332E-03    -105.784E-03     37.7722E-03
             774     6.47744E-03     98.0803E-03    -70.2539E+06    -114.006E+06    -11.1463E+06    -993.206E+03    -105.871E-03     211.841E-03    -105.970E-03     41.7852E-03    -106.097E-03     211.445E-03    -105.758E-03     41.1205E-03
             775     7.28729E-03     98.1288E-03    -63.0003E+06    -97.9510E+06    -590.335E+03    -683.817E+03    -105.888E-03     211.853E-03    -105.965E-03     44.6833E-03    -106.126E-03     211.521E-03    -105.735E-03     43.9505E-03
             776     8.09715E-03     98.1803E-03    -56.2023E+06    -81.1865E+06     9.04216E+06    -521.410E+03    -105.879E-03     211.834E-03    -105.955E-03     47.0517E-03    -106.133E-03     211.574E-03    -105.711E-03     46.2495E-03
             777     8.90709E-03     98.2340E-03    -49.5076E+06    -63.8042E+06     17.8008E+06    -455.130E+03    -105.849E-03     211.788E-03    -105.939E-03     48.8187E-03    -106.119E-03     211.604E-03    -105.685E-03     47.9449E-03
             778     9.71713E-03     98.2892E-03    -43.5609E+06    -46.3802E+06     25.5693E+06    -186.500E+03    -105.802E-03     211.720E-03    -105.917E-03     49.9542E-03    -106.090E-03     211.614E-03    -105.659E-03     49.0112E-03
             779     10.5271E-03     98.3454E-03    -37.5528E+06    -25.1139E+06     33.4289E+06     308.068E+03    -105.716E-03     211.606E-03    -105.890E-03     50.5108E-03    -106.028E-03     211.598E-03    -105.632E-03     49.5004E-03
             780     11.3373E-03     98.4018E-03    -31.5077E+06    -1.67533E+06     41.8284E+06     1.21703E+06    -105.620E-03     211.480E-03    -105.860E-03     50.2653E-03    -105.958E-03     211.579E-03    -105.603E-03     49.1907E-03
             781     12.1474E-03     98.4573E-03    -26.0762E+06     27.3717E+06     49.7991E+06     2.43572E+06    -105.481E-03     211.303E-03    -105.821E-03     48.9543E-03    -105.854E-03     211.536E-03    -105.574E-03     47.8219E-03
             782     12.9575E-03     98.5107E-03    -20.3651E+06     70.9001E+06     62.0917E+06     2.89232E+06    -105.159E-03     210.937E-03    -105.779E-03     46.1832E-03    -105.588E-03     211.366E-03    -105.541E-03     44.9946E-03
             783     13.7682E-03     98.5592E-03    -15.2100E+06     104.960E+06     70.5731E+06     2.29861E+06    -104.857E-03     210.583E-03    -105.726E-03     41.3728E-03    -105.319E-03     211.159E-03    -105.503E-03     40.1303E-03
             784     14.5787E-03     98.6014E-03    -10.5907E+06     114.898E+06     81.0128E+06     1.26595E+06    -104.718E-03     210.437E-03    -105.719E-03     35.0485E-03    -105.182E-03     211.036E-03    -105.465E-03     33.7334E-03
             785     15.3892E-03     98.6344E-03    -5.33023E+06     116.584E+06     96.5164E+06     587.940E+03    -104.620E-03     210.373E-03    -105.753E-03     24.3318E-03    -105.041E-03     210.909E-03    -105.432E-03     23.2109E-03
             786     809.537E-06     99.0452E-03    -121.765E+06    -233.532E+06    -119.046E+06    -454.148E+03    -106.017E-03     211.844E-03    -105.827E-03     7.27457E-03    -106.116E-03     211.027E-03    -105.907E-03     7.17111E-03
             787     1.61893E-03     99.0564E-03    -117.938E+06    -222.294E+06    -107.228E+06    -613.228E+03    -105.849E-03     211.790E-03    -105.941E-03     13.0278E-03    -105.965E-03     211.010E-03    -105.984E-03     12.8417E-03
             788     2.42860E-03     99.0744E-03    -111.777E+06    -205.269E+06    -90.8286E+06    -621.602E+03    -105.794E-03     211.745E-03    -105.951E-03     18.9328E-03    -105.933E-03     211.022E-03    -105.945E-03     18.6635E-03
             789     3.23827E-03     99.0988E-03    -104.042E+06    -185.458E+06    -72.2792E+06    -1.10878E+06    -105.795E-03     211.761E-03    -105.966E-03     24.5459E-03    -105.959E-03     211.107E-03    -105.908E-03     24.1878E-03
             790     4.04795E-03     99.1294E-03    -95.5403E+06    -167.175E+06    -54.3907E+06    -1.25408E+06    -105.829E-03     211.816E-03    -105.987E-03     29.6478E-03    -106.011E-03     211.222E-03    -105.878E-03     29.2067E-03
             791     4.85765E-03     99.1653E-03    -87.2807E+06    -148.721E+06    -38.4202E+06    -1.22060E+06    -105.854E-03     211.855E-03    -106.001E-03     34.2505E-03    -106.053E-03     211.328E-03    -105.851E-03     33.7319E-03
             792     5.66733E-03     99.2062E-03    -79.1157E+06    -130.471E+06    -24.4056E+06    -1.38644E+06    -105.854E-03     211.860E-03    -106.006E-03     38.3022E-03    -106.069E-03     211.402E-03    -105.824E-03     37.7063E-03
             793     6.47719E-03     99.2513E-03    -71.4914E+06    -114.106E+06    -12.2505E+06    -1.17011E+06    -105.878E-03     211.882E-03    -106.004E-03     41.7420E-03    -106.108E-03     211.488E-03    -105.796E-03     41.0749E-03
             794     7.28701E-03     99.2998E-03    -64.1139E+06    -97.9650E+06    -1.43896E+06    -1.16049E+06    -105.905E-03     211.903E-03    -105.998E-03     44.6071E-03    -106.148E-03     211.575E-03    -105.770E-03     43.8677E-03
             795     8.09692E-03     99.3512E-03    -56.9585E+06    -81.3502E+06     8.12895E+06    -1.07824E+06    -105.875E-03     211.860E-03    -105.985E-03     46.9280E-03    -106.131E-03     211.601E-03    -105.744E-03     46.1181E-03
             796     8.90691E-03     99.4048E-03    -50.5403E+06    -64.1984E+06     16.7756E+06    -704.809E+03    -105.836E-03     211.802E-03    -105.966E-03     48.6975E-03    -106.109E-03     211.619E-03    -105.715E-03     47.8209E-03
             797     9.71682E-03     99.4602E-03    -44.2931E+06    -46.8499E+06     24.7015E+06    -329.513E+03    -105.800E-03     211.742E-03    -105.942E-03     49.8434E-03    -106.089E-03     211.636E-03    -105.687E-03     48.8986E-03
             798     10.5269E-03     99.5162E-03    -38.6293E+06    -25.3668E+06     32.4608E+06    -330.404E+03    -105.716E-03     211.628E-03    -105.912E-03     50.4127E-03    -106.031E-03     211.622E-03    -105.657E-03     49.3941E-03
             799     11.3370E-03     99.5727E-03    -33.0141E+06    -3.78146E+06     40.1756E+06     317.536E+03    -105.589E-03     211.469E-03    -105.880E-03     50.2500E-03    -105.928E-03     211.562E-03    -105.626E-03     49.1647E-03
             800     12.1471E-03     99.6281E-03    -27.1884E+06     25.3673E+06     48.0725E+06     1.70712E+06    -105.374E-03     211.209E-03    -105.834E-03     48.9525E-03    -105.747E-03     211.436E-03    -105.591E-03     47.8129E-03
             801     12.9577E-03     99.6811E-03    -21.5316E+06     71.3843E+06     61.4457E+06     1.96229E+06    -105.060E-03     210.846E-03    -105.786E-03     46.0646E-03    -105.495E-03     211.280E-03    -105.551E-03     44.8655E-03
             802     13.7679E-03     99.7299E-03    -15.8049E+06     105.516E+06     70.0190E+06     2.17659E+06    -104.817E-03     210.545E-03    -105.729E-03     41.0272E-03    -105.281E-03     211.125E-03    -105.509E-03     39.7836E-03
             803     14.5786E-03     99.7714E-03    -10.7200E+06     115.933E+06     81.0531E+06     1.67953E+06    -104.785E-03     210.509E-03    -105.724E-03     34.7379E-03    -105.250E-03     211.113E-03    -105.471E-03     33.4275E-03
             804     15.3883E-03     99.8067E-03    -5.84222E+06     117.646E+06     96.9610E+06     457.735E+03    -104.624E-03     210.387E-03    -105.763E-03     24.0749E-03    -105.050E-03     210.929E-03    -105.440E-03     22.9532E-03
             805     809.349E-06     100.216E-03    -122.213E+06    -232.608E+06    -119.384E+06    -200.277E+03    -106.030E-03     211.898E-03    -105.868E-03     7.14624E-03    -106.132E-03     211.087E-03    -105.951E-03     7.04626E-03
             806     1.61898E-03     100.228E-03    -118.615E+06    -221.500E+06    -107.572E+06    -504.359E+03    -105.882E-03     211.853E-03    -105.971E-03     12.9990E-03    -106.002E-03     211.078E-03    -106.016E-03     12.8145E-03
             807     2.42845E-03     100.245E-03    -112.161E+06    -204.346E+06    -91.1962E+06    -1.06144E+06    -105.879E-03     211.868E-03    -105.989E-03     18.9257E-03    -106.021E-03     211.151E-03    -105.986E-03     18.6495E-03
             808     3.23804E-03     100.270E-03    -104.545E+06    -184.662E+06    -73.2205E+06    -1.20505E+06    -105.867E-03     211.880E-03    -106.013E-03     24.4786E-03    -106.033E-03     211.232E-03    -105.960E-03     24.1186E-03
             809     4.04770E-03     100.300E-03    -96.8202E+06    -166.833E+06    -55.6199E+06    -1.31258E+06    -105.872E-03     211.908E-03    -106.036E-03     29.5531E-03    -106.059E-03     211.321E-03    -105.932E-03     29.1112E-03
             810     4.85736E-03     100.336E-03    -88.3085E+06    -148.017E+06    -39.3832E+06    -1.65019E+06    -105.883E-03     211.932E-03    -106.049E-03     34.1515E-03    -106.087E-03     211.412E-03    -105.904E-03     33.6268E-03
             811     5.66712E-03     100.377E-03    -80.0128E+06    -130.233E+06    -25.1016E+06    -1.70520E+06    -105.887E-03     211.941E-03    -106.054E-03     38.2103E-03    -106.106E-03     211.487E-03    -105.874E-03     37.6089E-03
             812     6.47691E-03     100.422E-03    -72.0510E+06    -114.097E+06    -12.8624E+06    -1.70486E+06    -105.909E-03     211.959E-03    -106.051E-03     41.6743E-03    -106.140E-03     211.567E-03    -105.845E-03     40.9996E-03
             813     7.28671E-03     100.471E-03    -64.4708E+06    -97.6795E+06    -2.10941E+06    -1.66780E+06    -105.918E-03     211.959E-03    -106.041E-03     44.4850E-03    -106.162E-03     211.634E-03    -105.816E-03     43.7389E-03
             814     8.09653E-03     100.522E-03    -57.4918E+06    -81.5116E+06     7.40432E+06    -1.57713E+06    -105.897E-03     211.923E-03    -106.026E-03     46.7735E-03    -106.154E-03     211.666E-03    -105.788E-03     45.9565E-03
             815     8.90643E-03     100.576E-03    -50.6170E+06    -64.5381E+06     16.1711E+06    -1.33535E+06    -105.841E-03     211.846E-03    -106.005E-03     48.5404E-03    -106.113E-03     211.662E-03    -105.757E-03     47.6552E-03
             816     9.71654E-03     100.631E-03    -44.0793E+06    -47.3887E+06     24.1400E+06    -983.740E+03    -105.774E-03     211.752E-03    -105.977E-03     49.6886E-03    -106.061E-03     211.644E-03    -105.724E-03     48.7358E-03
             817     10.5265E-03     100.687E-03    -38.0344E+06    -25.8080E+06     32.1296E+06    -238.304E+03    -105.678E-03     211.621E-03    -105.943E-03     50.2717E-03    -105.989E-03     211.612E-03    -105.689E-03     49.2547E-03
             818     11.3367E-03     100.743E-03    -32.6394E+06    -4.41032E+06     39.8429E+06    -179.242E+03    -105.528E-03     211.434E-03    -105.906E-03     50.0918E-03    -105.864E-03     211.523E-03    -105.653E-03     48.9993E-03
             819     12.1471E-03     100.799E-03    -26.7139E+06     23.4489E+06     47.4530E+06    -26.1929E+03    -105.336E-03     211.191E-03    -105.855E-03     48.7361E-03    -105.703E-03     211.409E-03    -105.613E-03     47.5726E-03
             820     12.9572E-03     100.852E-03    -20.7941E+06     69.9255E+06     61.0872E+06     1.53254E+06    -105.089E-03     210.895E-03    -105.805E-03     45.8025E-03    -105.518E-03     211.320E-03    -105.571E-03     44.5957E-03
             821     13.7679E-03     100.900E-03    -15.6475E+06     105.570E+06     70.0879E+06     2.04334E+06    -104.882E-03     210.632E-03    -105.750E-03     40.8670E-03    -105.345E-03     211.211E-03    -105.530E-03     39.6192E-03
             822     14.5778E-03     100.943E-03    -10.5413E+06     117.392E+06     81.5553E+06     1.53136E+06    -104.647E-03     210.390E-03    -105.743E-03     34.8821E-03    -105.114E-03     211.000E-03    -105.490E-03     33.5707E-03
             823     15.3890E-03     100.977E-03    -5.48596E+06     119.068E+06     97.7172E+06     618.641E+03    -104.447E-03     210.220E-03    -105.774E-03     24.0609E-03    -104.874E-03     210.768E-03    -105.450E-03     22.9423E-03
             824     809.476E-06     101.387E-03    -124.207E+06    -232.242E+06    -121.171E+06    -132.182E+03    -105.961E-03     211.933E-03    -105.972E-03     7.14606E-03    -106.071E-03     211.129E-03    -106.061E-03     7.04674E-03
             825     1.61888E-03     101.398E-03    -119.646E+06    -220.139E+06    -108.831E+06    -653.232E+03    -105.978E-03     211.983E-03    -106.004E-03     12.9563E-03    -106.104E-03     211.218E-03    -106.056E-03     12.7707E-03
             826     2.42840E-03     101.417E-03    -113.243E+06    -202.988E+06    -92.1263E+06    -1.24287E+06    -105.963E-03     212.008E-03    -106.045E-03     18.8428E-03    -106.112E-03     211.301E-03    -106.047E-03     18.5648E-03
             827     3.23785E-03     101.441E-03    -105.596E+06    -184.377E+06    -73.8378E+06    -1.42149E+06    -105.942E-03     212.021E-03    -106.078E-03     24.4286E-03    -106.113E-03     211.376E-03    -106.027E-03     24.0651E-03
             828     4.04739E-03     101.472E-03    -97.0174E+06    -165.789E+06    -55.8755E+06    -1.74096E+06    -105.933E-03     212.035E-03    -106.102E-03     29.5380E-03    -106.122E-03     211.453E-03    -106.000E-03     29.0891E-03
             829     4.85703E-03     101.508E-03    -88.6362E+06    -147.276E+06    -39.7918E+06    -2.04918E+06    -105.933E-03     212.047E-03    -106.114E-03     34.0721E-03    -106.140E-03     211.532E-03    -105.971E-03     33.5408E-03
             830     5.66676E-03     101.548E-03    -80.3868E+06    -129.913E+06    -25.5604E+06    -2.10748E+06    -105.960E-03     212.078E-03    -106.118E-03     38.0571E-03    -106.181E-03     211.627E-03    -105.941E-03     37.4497E-03
             831     6.47643E-03     101.593E-03    -72.4534E+06    -113.555E+06    -13.3148E+06    -2.25001E+06    -105.951E-03     212.066E-03    -106.115E-03     41.4619E-03    -106.185E-03     211.678E-03    -105.912E-03     40.7788E-03
             832     7.28626E-03     101.642E-03    -64.8949E+06    -97.4240E+06    -2.71669E+06    -2.41356E+06    -105.912E-03     212.013E-03    -106.100E-03     44.2998E-03    -106.158E-03     211.690E-03    -105.879E-03     43.5428E-03
             833     8.09613E-03     101.693E-03    -57.4303E+06    -81.3576E+06     6.95255E+06    -2.39331E+06    -105.905E-03     211.985E-03    -106.080E-03     46.6247E-03    -106.161E-03     211.729E-03    -105.844E-03     45.7964E-03
             834     8.90605E-03     101.747E-03    -50.5550E+06    -64.8030E+06     15.5941E+06    -2.18508E+06    -105.871E-03     211.927E-03    -106.056E-03     48.3575E-03    -106.141E-03     211.742E-03    -105.810E-03     47.4597E-03
             835     9.71595E-03     101.802E-03    -44.1249E+06    -47.6935E+06     23.5946E+06    -1.93702E+06    -105.769E-03     211.795E-03    -106.026E-03     49.4648E-03    -106.054E-03     211.686E-03    -105.774E-03     48.4983E-03
             836     10.5261E-03     101.858E-03    -37.5608E+06    -27.1407E+06     31.5717E+06    -1.47619E+06    -105.640E-03     211.626E-03    -105.986E-03     49.9985E-03    -105.945E-03     211.610E-03    -105.735E-03     48.9641E-03
             837     11.3363E-03     101.914E-03    -31.1083E+06    -3.93067E+06     40.2479E+06    -918.425E+03    -105.506E-03     211.451E-03    -105.945E-03     49.7490E-03    -105.836E-03     211.540E-03    -105.693E-03     48.6454E-03
             838     12.1464E-03     101.969E-03    -25.9769E+06     22.1791E+06     47.4321E+06    -552.584E+03    -105.326E-03     211.218E-03    -105.892E-03     48.4222E-03    -105.687E-03     211.428E-03    -105.650E-03     47.2498E-03
             839     12.9570E-03     102.022E-03    -21.2179E+06     66.5712E+06     59.8749E+06     959.671E+03    -105.042E-03     210.879E-03    -105.837E-03     45.7027E-03    -105.465E-03     211.290E-03    -105.604E-03     44.4880E-03
             840     13.7670E-03     102.071E-03    -15.7735E+06     106.277E+06     69.3130E+06     1.95180E+06    -104.721E-03     210.491E-03    -105.770E-03     40.8825E-03    -105.186E-03     211.076E-03    -105.555E-03     39.6338E-03
             841     14.5782E-03     102.113E-03    -10.3797E+06     118.461E+06     80.6725E+06     1.11173E+06    -104.472E-03     210.223E-03    -105.751E-03     34.8740E-03    -104.939E-03     210.839E-03    -105.504E-03     33.5619E-03
             842     15.3882E-03     102.147E-03    -4.81635E+06     119.701E+06     97.7256E+06     674.760E+03    -104.264E-03     210.039E-03    -105.775E-03     24.1160E-03    -104.688E-03     210.588E-03    -105.453E-03     23.0012E-03
             843     809.449E-06     102.559E-03    -123.968E+06    -231.365E+06    -121.204E+06    -559.400E+03    -106.086E-03     212.148E-03    -106.062E-03     7.03808E-03    -106.196E-03     211.348E-03    -106.153E-03     6.93377E-03
             844     1.61875E-03     102.570E-03    -119.655E+06    -218.839E+06    -109.255E+06    -908.803E+03    -106.055E-03     212.159E-03    -106.103E-03     12.8459E-03    -106.183E-03     211.401E-03    -106.159E-03     12.6557E-03
             845     2.42802E-03     102.588E-03    -113.469E+06    -201.720E+06    -92.2934E+06    -1.30266E+06    -106.033E-03     212.170E-03    -106.136E-03     18.7651E-03    -106.184E-03     211.469E-03    -106.141E-03     18.4859E-03
             846     3.23759E-03     102.612E-03    -105.832E+06    -183.220E+06    -73.7238E+06    -1.91240E+06    -106.016E-03     212.183E-03    -106.167E-03     24.3083E-03    -106.190E-03     211.544E-03    -106.116E-03     23.9373E-03
             847     4.04711E-03     102.643E-03    -97.5392E+06    -164.849E+06    -56.1727E+06    -2.22122E+06    -106.010E-03     212.197E-03    -106.187E-03     29.3692E-03    -106.202E-03     211.621E-03    -106.088E-03     28.9132E-03
             848     4.85671E-03     102.679E-03    -88.9357E+06    -146.352E+06    -39.9448E+06    -2.42888E+06    -106.029E-03     212.230E-03    -106.200E-03     33.9063E-03    -106.238E-03     211.719E-03    -106.059E-03     33.3687E-03
             849     5.66618E-03     102.720E-03    -80.3776E+06    -129.103E+06    -25.7733E+06    -2.81945E+06    -106.032E-03     212.237E-03    -106.205E-03     37.9087E-03    -106.254E-03     211.790E-03    -106.030E-03     37.2901E-03
             850     6.47588E-03     102.765E-03    -72.1540E+06    -112.981E+06    -13.6796E+06    -3.03149E+06    -105.999E-03     212.196E-03    -106.197E-03     41.2843E-03    -106.231E-03     211.811E-03    -105.997E-03     40.5890E-03
             851     7.28564E-03     102.813E-03    -64.5128E+06    -96.8379E+06    -3.00011E+06    -3.09959E+06    -105.959E-03     212.139E-03    -106.179E-03     44.0741E-03    -106.203E-03     211.818E-03    -105.960E-03     43.3060E-03
             852     8.09553E-03     102.864E-03    -57.5882E+06    -81.1395E+06     6.40528E+06    -3.12211E+06    -105.925E-03     212.080E-03    -106.155E-03     46.3393E-03    -106.181E-03     211.825E-03    -105.922E-03     45.5001E-03
             853     8.90539E-03     102.918E-03    -50.7855E+06    -64.7705E+06     15.0630E+06    -3.11971E+06    -105.872E-03     211.998E-03    -106.126E-03     48.0298E-03    -106.142E-03     211.814E-03    -105.883E-03     47.1185E-03
             854     9.71539E-03     102.973E-03    -44.2616E+06    -47.7228E+06     23.0476E+06    -3.00427E+06    -105.781E-03     211.872E-03    -106.091E-03     49.1418E-03    -106.066E-03     211.763E-03    -105.842E-03     48.1593E-03
             855     10.5254E-03     103.029E-03    -38.2284E+06    -27.4670E+06     30.7480E+06    -2.95202E+06    -105.644E-03     211.692E-03    -106.048E-03     49.6929E-03    -105.951E-03     211.676E-03    -105.799E-03     48.6378E-03
             856     11.3355E-03     103.085E-03    -32.3381E+06    -5.09006E+06     38.8045E+06    -2.33343E+06    -105.457E-03     211.457E-03    -106.000E-03     49.4641E-03    -105.789E-03     211.543E-03    -105.751E-03     48.3434E-03
             857     12.1460E-03     103.140E-03    -26.6393E+06     20.1727E+06     46.3110E+06    -577.552E+03    -105.216E-03     211.157E-03    -105.941E-03     48.1920E-03    -105.576E-03     211.359E-03    -105.700E-03     47.0205E-03
             858     12.9562E-03     103.193E-03    -21.3722E+06     64.6592E+06     59.1203E+06     826.200E+03    -104.819E-03     210.692E-03    -105.873E-03     45.5905E-03    -105.239E-03     211.094E-03    -105.641E-03     44.3768E-03
             859     13.7673E-03     103.242E-03    -16.1973E+06     106.264E+06     67.2960E+06     1.17814E+06    -104.459E-03     210.240E-03    -105.781E-03     40.8758E-03    -104.922E-03     210.828E-03    -105.575E-03     39.6226E-03
             860     14.5775E-03     103.283E-03    -11.0991E+06     118.901E+06     78.7848E+06     1.24100E+06    -104.234E-03     209.981E-03    -105.747E-03     35.0129E-03    -104.702E-03     210.603E-03    -105.509E-03     33.7082E-03
             861     15.3888E-03     103.318E-03    -5.45484E+06     120.192E+06     97.5591E+06     658.683E+03    -104.134E-03     209.904E-03    -105.770E-03     24.3656E-03    -104.563E-03     210.457E-03    -105.448E-03     23.2510E-03
             862     809.002E-06     103.730E-03    -124.083E+06    -229.725E+06    -121.141E+06    -579.391E+03    -106.233E-03     212.457E-03    -106.224E-03     7.00660E-03    -106.346E-03     211.665E-03    -106.317E-03     6.90145E-03
             863     1.61843E-03     103.741E-03    -119.818E+06    -217.347E+06    -109.190E+06    -1.25546E+06    -106.138E-03     212.383E-03    -106.244E-03     12.8459E-03    -106.269E-03     211.633E-03    -106.301E-03     12.6499E-03
             864     2.42794E-03     103.759E-03    -113.285E+06    -200.471E+06    -92.3897E+06    -1.76572E+06    -106.146E-03     212.406E-03    -106.260E-03     18.6928E-03    -106.298E-03     211.712E-03    -106.267E-03     18.4061E-03
             865     3.23713E-03     103.784E-03    -105.595E+06    -181.620E+06    -73.8256E+06    -2.17552E+06    -106.140E-03     212.428E-03    -106.288E-03     24.1318E-03    -106.314E-03     211.797E-03    -106.241E-03     23.7560E-03
             866     4.04659E-03     103.814E-03    -97.2125E+06    -163.648E+06    -55.8936E+06    -2.69057E+06    -106.126E-03     212.437E-03    -106.311E-03     29.1686E-03    -106.319E-03     211.866E-03    -106.213E-03     28.7044E-03
             867     4.85598E-03     103.850E-03    -88.3885E+06    -145.302E+06    -39.8538E+06    -3.09618E+06    -106.114E-03     212.434E-03    -106.320E-03     33.6930E-03    -106.322E-03     211.928E-03    -106.180E-03     33.1450E-03
             868     5.66564E-03     103.891E-03    -80.1392E+06    -127.839E+06    -26.0801E+06    -3.45720E+06    -106.082E-03     212.398E-03    -106.315E-03     37.6345E-03    -106.304E-03     211.957E-03    -106.144E-03     37.0054E-03
             869     6.47526E-03     103.936E-03    -72.2484E+06    -112.229E+06    -14.1740E+06     -3.7911E+06    -106.065E-03     212.367E-03    -106.302E-03     40.9947E-03    -106.297E-03     211.986E-03    -106.105E-03     40.2877E-03
             870     7.28493E-03     103.984E-03    -64.6592E+06    -96.3189E+06    -3.46802E+06    -3.89204E+06    -106.051E-03     212.334E-03    -106.282E-03     43.7761E-03    -106.296E-03     212.017E-03    -106.066E-03     42.9956E-03
             871     8.09460E-03     104.036E-03    -57.4319E+06    -80.5194E+06     6.12360E+06    -3.95268E+06    -105.981E-03     212.237E-03    -106.256E-03     46.0195E-03    -106.237E-03     211.986E-03    -106.026E-03     45.1671E-03
             872     8.90450E-03     104.089E-03    -50.6221E+06    -64.3723E+06     14.6164E+06    -4.08062E+06    -105.866E-03     212.086E-03    -106.220E-03     47.6923E-03    -106.134E-03     211.904E-03    -105.980E-03     46.7675E-03
             873     9.71449E-03     104.144E-03    -44.4704E+06    -48.2730E+06     22.1937E+06    -3.60549E+06    -105.752E-03     211.929E-03    -106.176E-03     48.8024E-03    -106.036E-03     211.818E-03    -105.931E-03     47.8124E-03
             874     10.5245E-03     104.200E-03    -39.0880E+06    -27.0386E+06     29.9682E+06    -3.13717E+06    -105.576E-03     211.700E-03    -106.123E-03     49.4150E-03    -105.886E-03     211.687E-03    -105.878E-03     48.3592E-03
             875     11.3348E-03     104.256E-03    -34.1704E+06    -6.23983E+06     37.2950E+06    -2.86683E+06    -105.325E-03     211.389E-03    -106.064E-03     49.2825E-03    -105.661E-03     211.473E-03    -105.818E-03     48.1569E-03
             876     12.1451E-03     104.311E-03    -28.8960E+06     17.7804E+06     43.8974E+06    -1.75520E+06    -105.019E-03     211.006E-03    -105.987E-03     48.0840E-03    -105.382E-03     211.202E-03    -105.752E-03     46.9020E-03
             877     12.9560E-03     104.363E-03    -22.5892E+06     62.8004E+06     57.4139E+06    -686.418E+03    -104.626E-03     210.532E-03    -105.906E-03     45.4161E-03    -105.046E-03     210.928E-03    -105.678E-03     44.1891E-03
             878     13.7666E-03     104.412E-03    -16.7222E+06     105.120E+06     66.6283E+06     575.823E+03    -104.246E-03     210.049E-03    -105.803E-03     40.6055E-03    -104.708E-03     210.632E-03    -105.598E-03     39.3503E-03
             879     14.5781E-03     104.453E-03    -11.4811E+06     120.298E+06     78.9188E+06     772.743E+03    -104.005E-03     209.761E-03    -105.756E-03     34.5798E-03    -104.476E-03     210.390E-03    -105.519E-03     33.2702E-03
             880     15.3890E-03     104.487E-03    -6.21071E+06     120.953E+06     97.2671E+06     80.1832E+03    -104.055E-03     209.825E-03    -105.770E-03     24.1784E-03    -104.487E-03     210.383E-03    -105.450E-03     23.0616E-03
             881     809.285E-06     104.902E-03    -122.778E+06    -227.566E+06    -120.090E+06    -913.616E+03    -106.316E-03     212.737E-03    -106.421E-03     6.94209E-03    -106.428E-03     211.953E-03    -106.513E-03     6.83090E-03
             882     1.61832E-03     104.913E-03    -118.664E+06    -215.625E+06    -108.239E+06    -1.43212E+06    -106.366E-03     212.767E-03    -106.402E-03     12.7413E-03    -106.494E-03     212.023E-03    -106.458E-03     12.5422E-03
             883     2.42729E-03     104.931E-03    -112.788E+06    -198.963E+06    -92.1016E+06    -1.89951E+06    -106.304E-03     212.734E-03    -106.431E-03     18.5236E-03    -106.455E-03     212.047E-03    -106.439E-03     18.2338E-03
             884     3.23669E-03     104.956E-03    -105.187E+06    -179.681E+06    -73.8104E+06    -2.66827E+06    -106.273E-03     212.725E-03    -106.451E-03     23.9789E-03    -106.449E-03     212.103E-03    -106.407E-03     23.5949E-03
             885     4.04589E-03     104.986E-03    -96.6459E+06    -162.083E+06    -56.0046E+06    -3.31955E+06    -106.267E-03     212.736E-03    -106.469E-03     28.9849E-03    -106.460E-03     212.172E-03    -106.374E-03     28.5099E-03
             886     4.85535E-03     105.022E-03    -88.4295E+06    -144.141E+06    -40.4117E+06    -3.65905E+06    -106.222E-03     212.694E-03    -106.471E-03     33.4421E-03    -106.431E-03     212.194E-03    -106.336E-03     32.8848E-03
             887     5.66471E-03     105.063E-03    -80.1945E+06    -126.448E+06    -26.5067E+06    -4.08547E+06    -106.186E-03     212.647E-03    -106.461E-03     37.3096E-03    -106.409E-03     212.214E-03    -106.294E-03     36.6706E-03
             888     6.47428E-03     105.108E-03    -72.1837E+06    -111.111E+06    -14.3995E+06    -4.48274E+06    -106.156E-03     212.600E-03    -106.444E-03     40.6270E-03    -106.390E-03     212.224E-03    -106.250E-03     39.9088E-03
             889     7.28389E-03     105.156E-03    -64.5108E+06    -95.4037E+06    -3.69449E+06    -4.81577E+06    -106.103E-03     212.520E-03    -106.417E-03     43.4123E-03    -106.347E-03     212.208E-03    -106.204E-03     42.6186E-03
             890     8.09363E-03     105.207E-03    -57.2416E+06    -79.8540E+06     5.72647E+06    -5.02891E+06    -106.005E-03     212.386E-03    -106.382E-03     45.6335E-03    -106.260E-03     212.138E-03    -106.154E-03     44.7662E-03
             891     8.90344E-03     105.260E-03    -50.5928E+06    -64.1054E+06     14.0929E+06    -4.82041E+06    -105.858E-03     212.194E-03    -106.336E-03     47.3503E-03    -106.125E-03     212.013E-03    -106.099E-03     46.4159E-03
             892     9.71341E-03     105.315E-03    -44.0790E+06    -48.6647E+06     21.7614E+06    -4.53057E+06    -105.668E-03     211.948E-03    -106.280E-03     48.4957E-03    -105.948E-03     211.835E-03    -106.036E-03     47.4957E-03
             893     10.5236E-03     105.371E-03    -37.7180E+06    -27.9875E+06     29.5897E+06    -3.52661E+06    -105.408E-03     211.617E-03    -106.209E-03     49.1082E-03    -105.707E-03     211.597E-03    -105.966E-03     48.0513E-03
             894     11.3340E-03     105.426E-03    -31.9791E+06    -6.09618E+06     37.6584E+06    -2.84918E+06    -105.128E-03     211.258E-03    -106.131E-03     49.0199E-03    -105.453E-03     211.339E-03    -105.887E-03     47.8997E-03
             895     12.1447E-03     105.481E-03    -26.6377E+06     16.4041E+06     43.9965E+06    -2.58797E+06    -104.849E-03     210.887E-03    -106.038E-03     47.8302E-03    -105.198E-03     211.072E-03    -105.803E-03     46.6416E-03
             896     12.9553E-03     105.533E-03    -21.6418E+06     61.4910E+06     57.0690E+06    -1.92826E+06    -104.479E-03     210.422E-03    -105.943E-03     45.2591E-03    -104.891E-03     210.811E-03    -105.716E-03     44.0199E-03
             897     13.7664E-03     105.582E-03    -15.6628E+06     103.005E+06     67.6426E+06    -979.218E+03    -104.137E-03     209.975E-03    -105.838E-03     40.4836E-03    -104.592E-03     210.544E-03    -105.626E-03     39.2109E-03
             898     14.5771E-03     105.623E-03    -9.39084E+06     119.013E+06     80.1843E+06     142.514E+03    -104.005E-03     209.789E-03    -105.784E-03     34.5878E-03    -104.465E-03     210.406E-03    -105.542E-03     33.2714E-03
             899     15.3881E-03     105.658E-03    -4.63449E+06     122.717E+06     97.8796E+06     514.903E+03    -103.829E-03     209.612E-03    -105.784E-03     24.2141E-03    -104.256E-03     210.176E-03    -105.466E-03     23.1051E-03
             900     808.882E-06     106.074E-03    -123.010E+06    -225.167E+06    -119.789E+06    -1.06336E+06    -106.591E-03     213.152E-03    -106.561E-03     6.96403E-03    -106.707E-03     212.380E-03    -106.655E-03     6.85141E-03
             901     1.61779E-03     106.086E-03    -118.828E+06    -213.815E+06    -108.487E+06    -1.65070E+06    -106.584E-03     213.195E-03    -106.611E-03     12.6355E-03    -106.716E-03     212.461E-03    -106.671E-03     12.4333E-03
             902     2.42693E-03     106.104E-03    -112.408E+06    -196.922E+06    -92.0786E+06    -2.28520E+06    -106.512E-03     213.154E-03    -106.642E-03     18.3582E-03    -106.665E-03     212.476E-03    -106.654E-03     18.0615E-03
             903     3.23593E-03     106.128E-03    -104.730E+06    -177.520E+06    -73.9368E+06    -3.00430E+06    -106.454E-03     213.112E-03    -106.658E-03     23.7822E-03    -106.630E-03     212.500E-03    -106.618E-03     23.3924E-03
             904     4.04517E-03     106.159E-03    -96.7877E+06    -160.365E+06    -56.5573E+06    -3.65510E+06    -106.418E-03     213.085E-03    -106.667E-03     28.6664E-03    -106.612E-03     212.530E-03    -106.577E-03     28.1862E-03
             905     4.85430E-03     106.194E-03    -88.3277E+06    -142.445E+06    -40.5831E+06    -4.35093E+06    -106.368E-03     213.031E-03    -106.663E-03     33.0900E-03    -106.578E-03     212.540E-03    -106.532E-03     32.5216E-03
             906     5.66374E-03     106.235E-03    -79.8460E+06    -124.794E+06    -26.4369E+06    -4.96703E+06    -106.321E-03     212.968E-03    -106.647E-03     36.9743E-03    -106.545E-03     212.542E-03    -106.483E-03     36.3216E-03
             907     6.47309E-03     106.280E-03    -71.6859E+06    -109.697E+06    -14.4132E+06    -5.49543E+06    -106.259E-03     212.881E-03    -106.622E-03     40.2634E-03    -106.492E-03     212.512E-03    -106.431E-03     39.5309E-03
             908     7.28265E-03     106.328E-03    -64.0176E+06    -94.2330E+06    -3.92242E+06    -5.78560E+06    -106.132E-03     212.715E-03    -106.583E-03     43.0098E-03    -106.374E-03     212.407E-03    -106.373E-03     42.2035E-03
             909     8.09233E-03     106.379E-03    -56.8325E+06    -78.9260E+06     5.50690E+06    -6.03101E+06    -105.977E-03     212.509E-03    -106.532E-03     45.2284E-03    -106.230E-03     212.265E-03    -106.308E-03     44.3493E-03
             910     8.90220E-03     106.432E-03    -49.8697E+06    -63.9000E+06     13.8946E+06    -6.08465E+06    -105.785E-03     212.254E-03    -106.469E-03     46.9583E-03    -106.048E-03     212.073E-03    -106.235E-03     46.0100E-03
             911     9.71229E-03     106.486E-03    -43.2564E+06    -48.3187E+06     21.5604E+06    -5.90023E+06    -105.515E-03     211.908E-03    -106.393E-03     48.1363E-03    -105.790E-03     211.795E-03    -106.152E-03     47.1229E-03
             912     10.5226E-03     106.541E-03    -36.6426E+06    -29.5678E+06     29.0966E+06    -5.39580E+06    -105.206E-03     211.507E-03    -106.301E-03     48.7868E-03    -105.496E-03     211.478E-03    -106.059E-03     47.7118E-03
             913     11.3332E-03     106.597E-03    -30.0985E+06    -6.89602E+06     37.9344E+06    -4.00537E+06    -104.911E-03     211.114E-03    -106.202E-03     48.7473E-03    -105.225E-03     211.186E-03    -105.959E-03     47.6201E-03
             914     12.1438E-03     106.651E-03    -24.4097E+06     15.8260E+06     44.8956E+06    -3.22050E+06    -104.659E-03     210.752E-03    -106.093E-03     47.6259E-03    -104.996E-03     210.929E-03    -105.856E-03     46.4354E-03
             915     12.9549E-03     106.703E-03    -18.9510E+06     60.5830E+06     57.6797E+06    -2.07404E+06    -104.279E-03     210.259E-03    -105.981E-03     45.1235E-03    -104.676E-03     210.637E-03    -105.753E-03     43.8876E-03
             916     13.7660E-03     106.751E-03    -14.5821E+06     101.961E+06     67.4536E+06    -1.15777E+06    -103.979E-03     209.840E-03    -105.860E-03     40.5523E-03    -104.427E-03     210.402E-03    -105.650E-03     39.2823E-03
             917     14.5773E-03     106.793E-03    -10.7118E+06     116.333E+06     78.3058E+06    -297.822E+03    -103.856E-03     209.650E-03    -105.794E-03     35.0244E-03    -104.317E-03     210.258E-03    -105.555E-03     33.7093E-03
             918     15.3883E-03     106.828E-03    -5.23974E+06     122.953E+06     97.0730E+06     1.01092E+06    -103.565E-03     209.347E-03    -105.782E-03     24.4305E-03    -103.995E-03     209.914E-03    -105.467E-03     23.3315E-03
             919     808.762E-06     107.248E-03    -122.430E+06    -222.698E+06    -119.858E+06    -801.334E+03    -106.908E-03     213.712E-03    -106.804E-03     6.91607E-03    -107.025E-03     212.951E-03    -106.902E-03     6.80613E-03
             920     1.61755E-03     107.259E-03    -118.498E+06    -211.158E+06    -108.016E+06    -1.91527E+06    -106.808E-03     213.689E-03    -106.881E-03     12.5010E-03    -106.942E-03     212.966E-03    -106.943E-03     12.2950E-03
             921     2.42621E-03     107.277E-03    -112.012E+06    -194.630E+06    -92.0400E+06    -2.94652E+06    -106.770E-03     213.670E-03    -106.900E-03     18.1365E-03    -106.925E-03     213.002E-03    -106.915E-03     17.8302E-03
             922     3.23512E-03     107.301E-03    -104.418E+06    -175.598E+06    -74.0393E+06    -3.49894E+06    -106.690E-03     213.604E-03    -106.913E-03     23.5110E-03    -106.867E-03     213.001E-03    -106.877E-03     23.1127E-03
             923     4.04403E-03     107.331E-03    -96.0955E+06    -158.031E+06    -56.2385E+06    -4.25973E+06    -106.607E-03     213.522E-03    -106.915E-03     28.3708E-03    -106.802E-03     212.978E-03    -106.828E-03     27.8809E-03
             924     4.85323E-03     107.367E-03    -87.7750E+06    -140.343E+06    -40.4649E+06    -5.04595E+06    -106.543E-03     213.444E-03    -106.901E-03     32.7265E-03    -106.753E-03     212.962E-03    -106.772E-03     32.1479E-03
             925     5.66233E-03     107.408E-03    -79.7016E+06    -122.959E+06    -26.5880E+06    -5.63413E+06    -106.442E-03     213.315E-03    -106.873E-03     36.5601E-03    -106.667E-03     212.898E-03    -106.712E-03     35.8990E-03
             926     6.47172E-03     107.452E-03    -71.9091E+06    -107.679E+06    -14.6646E+06    -6.33792E+06    -106.306E-03     213.137E-03    -106.831E-03     39.8562E-03    -106.542E-03     212.778E-03    -106.644E-03     39.1140E-03
             927     7.28117E-03     107.500E-03    -64.2243E+06    -92.7594E+06    -4.24633E+06    -7.09795E+06    -106.132E-03     212.904E-03    -106.773E-03     42.6137E-03    -106.376E-03     212.604E-03    -106.567E-03     41.7921E-03
             928     8.09093E-03     107.551E-03    -56.7926E+06    -77.9176E+06     5.12641E+06    -7.33219E+06    -105.906E-03     212.607E-03    -106.700E-03     44.8686E-03    -106.159E-03     212.367E-03    -106.479E-03     43.9770E-03
             929     8.90085E-03     107.603E-03    -50.0128E+06    -63.1111E+06     13.4748E+06    -7.39453E+06    -105.623E-03     212.236E-03    -106.613E-03     46.5823E-03    -105.887E-03     212.059E-03    -106.381E-03     45.6238E-03
             930     9.71106E-03     107.657E-03    -43.5346E+06    -47.8826E+06     21.1049E+06    -7.38303E+06    -105.309E-03     211.819E-03    -106.510E-03     47.7915E-03    -105.584E-03     211.708E-03    -106.272E-03     46.7673E-03
             931     10.5216E-03     107.712E-03    -37.5204E+06    -29.7583E+06     28.4763E+06    -7.13168E+06    -104.995E-03     211.389E-03    -106.394E-03     48.4650E-03    -105.287E-03     211.360E-03    -106.155E-03     47.3761E-03
             932     11.3323E-03     107.767E-03    -31.5453E+06       -9.23E+06     36.2237E+06    -6.10233E+06    -104.661E-03     210.933E-03    -106.272E-03     48.4991E-03    -104.974E-03     210.996E-03    -106.031E-03     47.3550E-03
             933     12.1434E-03     107.821E-03    -25.7346E+06     15.0657E+06     43.6395E+06    -4.24131E+06    -104.358E-03     210.498E-03    -106.140E-03     47.5419E-03    -104.697E-03     210.673E-03    -105.906E-03     46.3523E-03
             934     12.9545E-03     107.873E-03    -20.9458E+06     57.9903E+06     55.7087E+06    -2.42083E+06    -104.030E-03     210.036E-03    -106.007E-03     45.0995E-03    -104.429E-03     210.406E-03    -105.782E-03     43.8699E-03
             935     13.7658E-03     107.921E-03    -16.0354E+06     99.8698E+06     64.7378E+06    -108.015E+03    -103.727E-03     209.592E-03    -105.865E-03     40.7107E-03    -104.174E-03     210.149E-03    -105.663E-03     39.4638E-03
             936     14.5770E-03     107.962E-03    -11.5297E+06     117.913E+06     76.7605E+06     502.287E+03    -103.519E-03     209.300E-03    -105.781E-03     35.1779E-03    -103.983E-03     209.919E-03    -105.551E-03     33.8853E-03
             937     15.3886E-03     107.997E-03    -6.33290E+06     122.197E+06     95.6974E+06    -82.8130E+03    -103.419E-03     209.180E-03    -105.761E-03     24.4623E-03    -103.851E-03     209.746E-03    -105.450E-03     23.3539E-03
             938     808.373E-06     108.421E-03    -121.493E+06    -219.956E+06    -118.641E+06    -1.28176E+06    -107.150E-03     214.397E-03    -107.247E-03     6.76231E-03    -107.268E-03     213.647E-03    -107.345E-03     6.64527E-03
             939     1.61684E-03     108.432E-03    -117.028E+06    -208.212E+06    -107.117E+06    -2.01089E+06    -107.112E-03     214.326E-03    -107.214E-03     12.3175E-03    -107.245E-03     213.615E-03    -107.278E-03     12.1085E-03
             940     2.42550E-03     108.450E-03    -111.411E+06    -191.801E+06    -91.3093E+06    -2.99572E+06    -107.041E-03     214.260E-03    -107.218E-03     17.9118E-03    -107.198E-03     213.604E-03    -107.235E-03     17.6038E-03
             941     3.23410E-03     108.474E-03    -104.391E+06    -173.303E+06    -74.1043E+06    -4.02904E+06    -106.934E-03     214.149E-03    -107.215E-03     23.1912E-03    -107.113E-03     213.558E-03    -107.183E-03     22.7857E-03
             942     4.04296E-03     108.505E-03    -96.4858E+06    -155.561E+06    -56.8012E+06    -4.77346E+06    -106.817E-03     214.019E-03    -107.201E-03     28.0516E-03    -107.016E-03     213.488E-03    -107.120E-03     27.5555E-03
             943     4.85175E-03     108.540E-03    -88.1712E+06    -137.844E+06    -40.7276E+06    -5.67875E+06    -106.704E-03     213.876E-03    -107.173E-03     32.4171E-03    -106.919E-03     213.408E-03    -107.048E-03     31.8314E-03
             944     5.66087E-03     108.581E-03    -79.6594E+06    -120.888E+06    -26.7257E+06    -6.56994E+06    -106.544E-03     213.670E-03    -107.126E-03     36.2138E-03    -106.771E-03     213.263E-03    -106.969E-03     35.5426E-03
             945     6.47012E-03     108.625E-03    -71.6104E+06    -105.336E+06    -14.7481E+06    -7.28835E+06    -106.312E-03     213.371E-03    -107.060E-03     39.4717E-03    -106.548E-03     213.023E-03    -106.877E-03     38.7213E-03
             946     7.27973E-03     108.672E-03    -64.1642E+06    -90.8194E+06    -4.29275E+06    -7.88365E+06    -106.058E-03     213.033E-03    -106.974E-03     42.2502E-03    -106.304E-03     212.741E-03    -106.771E-03     41.4255E-03
             947     8.08941E-03     108.722E-03    -57.2223E+06    -76.6183E+06     4.81649E+06    -8.35737E+06    -105.765E-03     212.637E-03    -106.872E-03     44.5278E-03    -106.020E-03     212.403E-03    -106.654E-03     43.6316E-03
             948     8.89954E-03     108.775E-03    -50.5600E+06    -61.8761E+06     13.0916E+06    -8.69179E+06    -105.420E-03     212.174E-03    -106.754E-03     46.2621E-03    -105.686E-03     212.002E-03    -106.525E-03     45.2972E-03
             949     9.70999E-03     108.828E-03    -44.2386E+06    -47.3171E+06     20.5253E+06    -8.63485E+06    -105.087E-03     211.709E-03    -106.623E-03     47.4993E-03    -105.363E-03     211.601E-03    -106.387E-03     46.4705E-03
             950     10.5206E-03     108.883E-03    -38.2033E+06    -29.6605E+06     27.6812E+06    -8.20454E+06    -104.745E-03     211.225E-03    -106.480E-03     48.2396E-03    -105.037E-03     211.196E-03    -106.243E-03     47.1499E-03
             951     11.3316E-03     108.937E-03    -32.6363E+06    -10.5268E+06     34.7814E+06    -7.42742E+06    -104.394E-03     210.726E-03    -106.332E-03     48.3179E-03    -104.707E-03     210.785E-03    -106.096E-03     47.1698E-03
             952     12.1427E-03     108.991E-03    -27.2946E+06     12.2705E+06     41.5301E+06    -5.56788E+06    -104.061E-03     210.237E-03    -106.177E-03     47.4285E-03    -104.398E-03     210.401E-03    -105.947E-03     46.2364E-03
             953     12.9543E-03     109.043E-03    -21.5410E+06     55.1826E+06     54.5736E+06    -3.17314E+06    -103.779E-03     209.807E-03    -106.028E-03     45.0849E-03    -104.174E-03     210.163E-03    -105.804E-03     43.8584E-03
             954     13.7658E-03     109.090E-03    -15.9921E+06     96.3769E+06     63.1040E+06    -1.21019E+06    -103.547E-03     209.416E-03    -105.869E-03     40.5669E-03    -103.986E-03     209.957E-03    -105.670E-03     39.3096E-03
             955     14.5776E-03     109.132E-03    -10.0852E+06     117.871E+06     75.8069E+06     680.471E+03    -103.309E-03     209.078E-03    -105.769E-03     34.8671E-03    -103.764E-03     209.696E-03    -105.547E-03     33.5758E-03
             956     15.3891E-03     109.166E-03    -4.86402E+06     123.700E+06     96.1660E+06     207.151E+03    -103.311E-03     209.057E-03    -105.746E-03     24.3784E-03    -103.739E-03     209.628E-03    -105.438E-03     23.2754E-03
             957     808.117E-06     109.596E-03    -122.287E+06    -216.635E+06    -119.346E+06    -1.35705E+06    -107.484E-03     215.120E-03    -107.636E-03     6.76875E-03    -107.610E-03     214.389E-03    -107.741E-03     6.65017E-03
             958     1.61633E-03     109.607E-03    -118.033E+06    -205.274E+06    -107.912E+06    -2.45062E+06    -107.460E-03     215.034E-03    -107.574E-03     12.2296E-03    -107.600E-03     214.340E-03    -107.645E-03     12.0154E-03
             959     2.42453E-03     109.625E-03    -111.910E+06    -189.015E+06    -92.0096E+06    -3.21857E+06    -107.330E-03     214.895E-03    -107.566E-03     17.7323E-03    -107.491E-03     214.256E-03    -107.589E-03     17.4223E-03
             960     3.23299E-03     109.649E-03    -104.644E+06    -170.411E+06    -74.0647E+06      -4.114E+06    -107.191E-03     214.739E-03    -107.548E-03     22.9449E-03    -107.376E-03     214.162E-03    -107.519E-03     22.5404E-03
             961     4.04150E-03     109.679E-03    -96.2886E+06    -152.561E+06    -56.4864E+06    -5.44427E+06    -107.029E-03     214.544E-03    -107.516E-03     27.7583E-03    -107.231E-03     214.027E-03    -107.437E-03     27.2562E-03
             962     4.85040E-03     109.714E-03    -87.5731E+06    -135.021E+06    -40.5547E+06    -6.58005E+06    -106.811E-03     214.273E-03    -107.461E-03     32.1044E-03    -107.027E-03     213.816E-03    -107.341E-03     31.5115E-03
             963     5.65934E-03     109.754E-03    -79.5620E+06    -118.468E+06    -26.8376E+06    -7.36173E+06    -106.568E-03     213.951E-03    -107.383E-03     35.9211E-03    -106.797E-03     213.555E-03    -107.230E-03     35.2465E-03
             964     6.46858E-03     109.798E-03    -71.8535E+06    -103.077E+06    -14.7792E+06    -8.00686E+06    -106.288E-03     213.575E-03    -107.286E-03     39.1861E-03    -106.528E-03     213.237E-03    -107.107E-03     38.4352E-03
             965     7.27813E-03     109.845E-03    -64.5327E+06    -88.6843E+06    -4.34880E+06    -8.65078E+06    -105.939E-03     213.108E-03    -107.169E-03     41.9570E-03    -106.188E-03     212.826E-03    -106.969E-03     41.1332E-03
             966     8.08814E-03     109.895E-03    -57.3564E+06    -74.6374E+06     4.81669E+06    -9.26218E+06    -105.552E-03     212.584E-03    -107.032E-03     44.2168E-03    -105.809E-03     212.358E-03    -106.816E-03     43.3218E-03
             967     8.89840E-03     109.946E-03    -50.6109E+06    -60.3573E+06     12.9681E+06    -9.65976E+06    -105.195E-03     212.075E-03    -106.879E-03     46.0279E-03    -105.461E-03     211.909E-03    -106.654E-03     45.0653E-03
             968     9.70889E-03     109.999E-03    -44.4072E+06    -46.6899E+06     20.0077E+06    -9.75007E+06    -104.833E-03     211.550E-03    -106.717E-03     47.3091E-03    -105.108E-03     211.444E-03    -106.485E-03     46.2818E-03
             969     10.5199E-03     110.053E-03    -38.3999E+06    -29.6368E+06     27.0587E+06    -9.32702E+06    -104.460E-03     211.007E-03    -106.547E-03     48.1124E-03    -104.750E-03     210.977E-03    -106.313E-03     47.0246E-03
             970     11.3311E-03     110.107E-03    -32.6501E+06    -11.3226E+06     34.2708E+06    -8.39720E+06    -104.153E-03     210.530E-03    -106.377E-03     48.2471E-03    -104.462E-03     210.583E-03    -106.142E-03     47.1010E-03
             971     12.1425E-03     110.160E-03    -27.0281E+06     9.32468E+06     40.5064E+06    -6.92192E+06    -103.895E-03     210.099E-03    -106.204E-03     47.3596E-03    -104.224E-03     210.248E-03    -105.976E-03     46.1598E-03
             972     12.9540E-03     110.212E-03    -21.4640E+06     51.9934E+06     53.1753E+06    -4.70537E+06    -103.628E-03     209.670E-03    -106.042E-03     45.1265E-03    -104.015E-03     210.011E-03    -105.820E-03     43.8916E-03
             973     13.7656E-03     110.260E-03    -16.1094E+06     93.7816E+06     62.3905E+06    -2.23116E+06    -103.439E-03     209.316E-03    -105.877E-03     40.5133E-03    -103.872E-03     209.844E-03    -105.678E-03     39.2519E-03
             974     14.5769E-03     110.300E-03    -10.6010E+06     115.791E+06     74.2056E+06    -592.071E+03    -103.255E-03     209.023E-03    -105.768E-03     34.7486E-03    -103.707E-03     209.633E-03    -105.549E-03     33.4417E-03
             975     15.3888E-03     110.335E-03    -4.83219E+06     123.946E+06     95.3739E+06    -27.6021E+03    -103.112E-03     208.850E-03    -105.738E-03     24.5548E-03    -103.539E-03     209.422E-03    -105.433E-03     23.4567E-03
             976     807.849E-06     110.771E-03    -121.074E+06    -212.960E+06    -118.538E+06    -1.34022E+06    -107.924E-03     215.867E-03    -107.943E-03     6.64450E-03    -108.050E-03     215.151E-03    -108.051E-03     6.52816E-03
             977     1.61565E-03     110.782E-03    -117.528E+06    -201.864E+06    -107.127E+06    -2.52420E+06    -107.787E-03     215.726E-03    -107.939E-03     12.0527E-03    -107.932E-03     215.047E-03    -108.011E-03     11.8397E-03
             978     2.42371E-03     110.800E-03    -111.577E+06    -186.064E+06    -91.4913E+06    -3.69050E+06    -107.623E-03     215.536E-03    -107.913E-03     17.5926E-03    -107.787E-03     214.909E-03    -107.939E-03     17.2803E-03
             979     3.23189E-03     110.824E-03    -103.876E+06    -167.112E+06    -73.6031E+06    -4.81975E+06    -107.443E-03     215.318E-03    -107.875E-03     22.8060E-03    -107.629E-03     214.756E-03    -107.850E-03     22.3966E-03
             980     4.04030E-03     110.853E-03    -95.7361E+06    -149.086E+06    -56.1071E+06    -5.98446E+06    -107.207E-03     215.028E-03    -107.821E-03     27.5548E-03    -107.411E-03     214.526E-03    -107.746E-03     27.0519E-03
             981     4.84883E-03     110.888E-03    -87.8408E+06    -132.083E+06    -40.6026E+06    -7.02382E+06    -106.884E-03     214.621E-03    -107.737E-03     31.8432E-03    -107.104E-03     214.178E-03    -107.621E-03     31.2537E-03
             982     5.65792E-03     110.928E-03    -79.8198E+06    -115.887E+06    -26.7199E+06    -7.89111E+06    -106.521E-03     214.145E-03    -107.624E-03     35.6532E-03    -106.754E-03     213.761E-03    -107.474E-03     34.9837E-03
             983     6.46730E-03     110.971E-03    -71.7844E+06    -100.409E+06    -14.4682E+06    -8.80974E+06    -106.174E-03     213.662E-03    -107.488E-03     38.9618E-03    -106.417E-03     213.335E-03    -107.310E-03     38.2147E-03
             984     7.27692E-03     111.017E-03    -64.0036E+06    -86.2414E+06    -4.03493E+06    -9.68180E+06    -105.781E-03     213.114E-03    -107.333E-03     41.7217E-03    -106.029E-03     212.841E-03    -107.135E-03     40.9002E-03
             985     8.08695E-03     111.066E-03    -57.0636E+06    -72.6888E+06     4.83413E+06    -10.2471E+06    -105.346E-03     212.506E-03    -107.161E-03     44.0211E-03    -105.602E-03     212.288E-03    -106.948E-03     43.1310E-03
             986     8.89746E-03     111.117E-03    -50.4565E+06    -58.8693E+06     12.9123E+06    -10.4105E+06    -104.945E-03     211.921E-03    -106.976E-03     45.8651E-03    -105.209E-03     211.760E-03    -106.753E-03     44.9117E-03
             987     9.70833E-03     111.170E-03    -44.1128E+06    -45.1542E+06     20.1758E+06    -10.7309E+06    -104.574E-03     211.359E-03    -106.786E-03     47.1238E-03    -104.847E-03     211.257E-03    -106.555E-03     46.1023E-03
             988     10.5194E-03     111.223E-03    -38.2680E+06    -29.5266E+06     26.8478E+06    -10.5643E+06    -104.235E-03     210.827E-03    -106.592E-03     47.9332E-03    -104.522E-03     210.795E-03    -106.359E-03     46.8461E-03
             989     11.3308E-03     111.276E-03    -32.4719E+06    -11.8648E+06     33.8872E+06    -9.79557E+06    -103.973E-03     210.376E-03    -106.404E-03     48.1011E-03    -104.277E-03     210.425E-03    -106.170E-03     46.9517E-03
             990     12.1423E-03     111.330E-03    -26.7908E+06     7.24356E+06     39.7850E+06    -8.50922E+06    -103.811E-03     210.032E-03    -106.221E-03     47.2560E-03    -104.133E-03     210.169E-03    -105.993E-03     46.0468E-03
             991     12.9538E-03     111.381E-03    -21.0787E+06     48.1343E+06     51.4862E+06    -6.16480E+06    -103.521E-03     209.569E-03    -106.048E-03     45.0987E-03    -103.896E-03     209.891E-03    -105.830E-03     43.8541E-03
             992     13.7657E-03     111.429E-03    -15.0546E+06     90.6734E+06     61.8221E+06    -3.19786E+06    -103.293E-03     209.171E-03    -105.878E-03     40.7416E-03    -103.715E-03     209.682E-03    -105.679E-03     39.4779E-03
             993     14.5776E-03     111.470E-03    -10.2092E+06     113.962E+06     74.2736E+06    -1.08503E+06    -103.238E-03     209.004E-03    -105.766E-03     34.9459E-03    -103.685E-03     209.604E-03    -105.545E-03     33.6352E-03
             994     15.3890E-03     111.504E-03    -5.83030E+06     123.629E+06     94.7658E+06    -258.196E+03    -103.001E-03     208.730E-03    -105.729E-03     24.5460E-03    -103.432E-03     209.304E-03    -105.426E-03     23.4396E-03
             995     807.404E-06     111.948E-03    -121.160E+06    -209.505E+06    -118.221E+06    -1.39254E+06    -108.234E-03     216.511E-03    -108.277E-03     6.58502E-03    -108.366E-03     215.812E-03    -108.389E-03     6.47078E-03
             996     1.61512E-03     111.958E-03    -117.233E+06    -198.142E+06    -107.003E+06    -2.55381E+06    -108.073E-03     216.326E-03    -108.253E-03     12.0237E-03    -108.221E-03     215.665E-03    -108.331E-03     11.8131E-03
             997     2.42293E-03     111.975E-03    -110.934E+06    -182.172E+06    -90.8850E+06    -4.05557E+06    -107.889E-03     216.105E-03    -108.215E-03     17.5176E-03    -108.057E-03     215.495E-03    -108.245E-03     17.2068E-03
             998     3.23088E-03     111.999E-03    -103.554E+06    -163.856E+06    -73.4238E+06    -5.24674E+06    -107.630E-03     215.789E-03    -108.159E-03     22.6929E-03    -107.819E-03     215.241E-03    -108.138E-03     22.2880E-03
             999     4.03912E-03     112.028E-03    -95.6836E+06    -145.665E+06    -55.9546E+06    -6.26953E+06    -107.296E-03     215.372E-03    -108.076E-03     27.4244E-03    -107.504E-03     214.886E-03    -108.006E-03     26.9303E-03
            1000     4.84781E-03     112.063E-03    -87.3003E+06    -128.763E+06    -39.7459E+06    -7.46706E+06    -106.919E-03     214.882E-03    -107.963E-03     31.6939E-03    -107.142E-03     214.453E-03    -107.848E-03     31.1123E-03
            1001     5.65673E-03     112.101E-03    -78.9464E+06    -112.810E+06    -25.8006E+06    -8.58464E+06    -106.486E-03     214.305E-03    -107.818E-03     35.4655E-03    -106.719E-03     213.932E-03    -107.669E-03     34.8030E-03
            1002     6.46613E-03     112.144E-03    -70.9819E+06    -97.2421E+06    -13.9084E+06    -9.67542E+06    -106.000E-03     213.644E-03    -107.643E-03     38.7542E-03    -106.242E-03     213.328E-03    -107.469E-03     38.0160E-03
            1003     7.27606E-03     112.190E-03    -63.5876E+06    -83.8140E+06    -3.78398E+06    -10.5071E+06    -105.554E-03     213.003E-03    -107.449E-03     41.5239E-03    -105.802E-03     212.739E-03    -107.254E-03     40.7135E-03
            1004     8.08633E-03     112.238E-03    -56.5727E+06    -70.3775E+06     5.25161E+06    -11.1170E+06    -105.147E-03     212.392E-03    -107.245E-03     43.8699E-03    -105.402E-03     212.181E-03    -107.034E-03     42.9901E-03
            1005     8.89692E-03     112.288E-03    -49.9467E+06    -57.2466E+06     13.2032E+06    -11.6598E+06    -104.737E-03     211.771E-03    -107.034E-03     45.7308E-03    -104.999E-03     211.614E-03    -106.813E-03     44.7814E-03
            1006     9.70788E-03     112.340E-03    -43.6567E+06    -43.7020E+06     20.4088E+06    -11.6206E+06    -104.382E-03     211.204E-03    -106.822E-03     46.9937E-03    -104.653E-03     211.105E-03    -106.593E-03     45.9802E-03
            1007     10.5192E-03     112.393E-03    -37.7438E+06    -28.7643E+06     27.0588E+06    -11.5650E+06    -104.112E-03     210.726E-03    -106.614E-03     47.8027E-03    -104.396E-03     210.695E-03    -106.382E-03     46.7198E-03
            1008     11.3306E-03     112.446E-03    -32.2214E+06    -12.0946E+06     33.6697E+06    -11.0169E+06    -103.915E-03     210.331E-03    -106.417E-03     48.0119E-03    -104.215E-03     210.377E-03    -106.184E-03     46.8608E-03
            1009     12.1422E-03     112.499E-03    -26.8506E+06     5.99922E+06     39.3183E+06    -9.98735E+06    -103.735E-03     209.964E-03    -106.229E-03     47.1830E-03    -104.053E-03     210.094E-03    -106.002E-03     45.9671E-03
            1010     12.9538E-03     112.550E-03    -20.9515E+06     45.2260E+06     50.6511E+06    -8.34697E+06    -103.452E-03     209.503E-03    -106.052E-03     44.9478E-03    -103.820E-03     209.811E-03    -105.834E-03     43.6823E-03
            1011     13.7658E-03     112.597E-03    -15.2053E+06     85.3628E+06      59.952E+06    -4.97746E+06    -103.204E-03     209.079E-03    -105.875E-03     40.6521E-03    -103.615E-03     209.565E-03    -105.677E-03     39.3697E-03
            1012     14.5773E-03     112.639E-03    -10.3200E+06     110.694E+06     72.6211E+06    -1.32672E+06    -103.104E-03     208.858E-03    -105.754E-03     34.9156E-03    -103.544E-03     209.444E-03    -105.537E-03     33.6069E-03
            1013     15.3891E-03     112.673E-03    -5.46797E+06     123.942E+06     94.4204E+06     293.059E+03    -102.884E-03     208.595E-03    -105.712E-03     24.3477E-03    -103.312E-03     209.171E-03    -105.411E-03     23.2494E-03
            1014     807.438E-06     113.125E-03    -121.103E+06    -206.084E+06    -118.120E+06    -1.13192E+06    -108.422E-03     216.944E-03    -108.521E-03     6.54376E-03    -108.559E-03     216.262E-03    -108.638E-03     6.43466E-03
            1015     1.61482E-03     113.135E-03    -116.813E+06    -193.856E+06    -106.800E+06    -2.87267E+06    -108.314E-03     216.787E-03    -108.473E-03     11.9683E-03    -108.466E-03     216.147E-03    -108.557E-03     11.7614E-03
            1016     2.42232E-03     113.152E-03    -110.664E+06    -178.234E+06    -90.6350E+06    -4.27586E+06    -108.063E-03     216.497E-03    -108.434E-03     17.4550E-03    -108.235E-03     215.906E-03    -108.468E-03     17.1517E-03
            1017     3.23022E-03     113.175E-03    -103.399E+06    -160.326E+06    -72.7602E+06    -5.54075E+06    -107.706E-03     216.064E-03    -108.358E-03     22.6392E-03    -107.900E-03     215.532E-03    -108.339E-03     22.2435E-03
            1018     4.03844E-03     113.204E-03    -95.0720E+06    -141.797E+06    -55.0011E+06    -6.91256E+06    -107.310E-03     215.554E-03    -108.245E-03     27.3727E-03    -107.521E-03     215.084E-03    -108.176E-03     26.8872E-03
            1019     4.84702E-03     113.237E-03    -86.4719E+06    -125.149E+06    -38.9745E+06    -8.23475E+06    -106.877E-03     214.978E-03    -108.100E-03     31.6311E-03    -107.101E-03     214.563E-03    -107.988E-03     31.0605E-03
            1020     5.65605E-03     113.276E-03    -78.1677E+06    -109.419E+06    -25.1832E+06    -9.37734E+06    -106.396E-03     214.322E-03    -107.926E-03     35.4231E-03    -106.629E-03     213.962E-03    -107.780E-03     34.7736E-03
            1021     6.46555E-03     113.317E-03    -70.4151E+06    -94.1861E+06    -13.2677E+06    -10.2267E+06    -105.865E-03     213.589E-03    -107.724E-03     38.6806E-03    -106.107E-03     213.285E-03    -107.552E-03     37.9590E-03
            1022     7.27560E-03     113.362E-03    -63.0942E+06    -80.7488E+06    -2.98664E+06    -11.1933E+06    -105.370E-03     212.874E-03    -107.504E-03     41.4606E-03    -105.619E-03     212.621E-03    -107.310E-03     40.6660E-03
            1023     8.08601E-03     113.410E-03    -55.9138E+06    -67.7813E+06     6.03966E+06    -12.1529E+06    -104.957E-03     212.232E-03    -107.275E-03     43.7582E-03    -105.211E-03     212.029E-03    -107.066E-03     42.8889E-03
            1024     8.89682E-03     113.459E-03    -49.2284E+06    -55.1691E+06     13.9065E+06    -12.5714E+06    -104.598E-03     211.645E-03    -107.047E-03     45.6119E-03    -104.858E-03     211.494E-03    -106.826E-03     44.6733E-03
            1025     9.70793E-03     113.510E-03    -42.9478E+06    -42.3203E+06     20.8396E+06    -12.9565E+06    -104.303E-03     211.127E-03    -106.824E-03     46.9074E-03    -104.570E-03     211.031E-03    -106.596E-03     45.8973E-03
            1026     10.5193E-03     113.563E-03    -36.9164E+06    -28.3626E+06     27.3361E+06    -12.5508E+06    -104.096E-03     210.708E-03    -106.612E-03     47.7085E-03    -104.373E-03     210.675E-03    -106.381E-03     46.6309E-03
            1027     11.3306E-03     113.615E-03    -31.2827E+06    -11.6496E+06     34.0476E+06    -12.0013E+06    -103.887E-03     210.301E-03    -106.414E-03     47.9464E-03    -104.181E-03     210.344E-03    -106.182E-03     46.7984E-03
            1028     12.1422E-03     113.668E-03    -25.7544E+06     5.52457E+06     39.5766E+06    -11.3099E+06    -103.662E-03     209.886E-03    -106.223E-03     47.2160E-03    -103.973E-03     210.009E-03    -105.996E-03     45.9969E-03
            1029     12.9539E-03     113.719E-03    -20.8291E+06     43.1347E+06     49.9875E+06    -9.64144E+06    -103.420E-03     209.461E-03    -106.041E-03     45.1416E-03    -103.782E-03     209.758E-03    -105.824E-03     43.8713E-03
            1030     13.7655E-03     113.766E-03    -16.4694E+06     78.6321E+06     57.7766E+06    -6.23026E+06    -103.174E-03     209.038E-03    -105.864E-03     40.9465E-03    -103.578E-03     209.495E-03    -105.665E-03     39.6589E-03
            1031     14.5777E-03     113.807E-03    -11.3778E+06     105.509E+06     69.2962E+06    -1.72484E+06    -102.906E-03     208.635E-03    -105.729E-03     35.3560E-03    -103.339E-03     209.201E-03    -105.519E-03     34.0539E-03
            1032     15.3896E-03     113.842E-03    -5.49455E+06     124.226E+06     92.9934E+06      10.465E+03    -102.755E-03     208.433E-03    -105.678E-03     24.5455E-03    -103.182E-03     209.011E-03    -105.385E-03     23.4472E-03
            1033     807.149E-06     114.302E-03    -120.105E+06    -202.055E+06    -118.009E+06    -1.89481E+06    -108.613E-03     217.179E-03    -108.566E-03     6.59608E-03    -108.751E-03     216.516E-03    -108.689E-03     6.48251E-03
            1034     1.61447E-03     114.312E-03    -116.064E+06    -189.327E+06    -106.001E+06    -3.11980E+06    -108.389E-03     216.972E-03    -108.582E-03     11.9935E-03    -108.545E-03     216.351E-03    -108.670E-03     11.7936E-03
            1035     2.42207E-03     114.329E-03    -110.082E+06    -174.122E+06    -89.8321E+06    -4.67231E+06    -108.073E-03     216.595E-03    -108.522E-03     17.4743E-03    -108.249E-03     216.023E-03    -108.559E-03     17.1802E-03
            1036     3.22992E-03     114.351E-03    -102.451E+06    -156.044E+06    -71.6782E+06    -6.10400E+06    -107.678E-03     216.100E-03    -108.422E-03     22.6724E-03    -107.874E-03     215.586E-03    -108.406E-03     22.2881E-03
            1037     4.03820E-03     114.380E-03    -94.2208E+06    -137.865E+06    -54.1426E+06    -7.49957E+06    -107.238E-03     215.523E-03    -108.285E-03     27.4350E-03    -107.450E-03     215.068E-03    -108.219E-03     26.9646E-03
            1038     4.84688E-03     114.412E-03    -85.9074E+06    -121.220E+06    -38.3117E+06    -8.78152E+06    -106.744E-03     214.860E-03    -108.116E-03     31.6921E-03    -106.969E-03     214.461E-03    -108.007E-03     31.1400E-03
            1039     5.65609E-03     114.450E-03    -77.6344E+06    -105.671E+06    -24.2415E+06    -10.1443E+06    -106.228E-03     214.147E-03    -107.919E-03     35.4998E-03    -106.462E-03     213.801E-03    -107.774E-03     34.8678E-03
            1040     6.46572E-03     114.490E-03    -69.3655E+06    -90.9917E+06    -12.0637E+06    -11.3691E+06    -105.763E-03     213.465E-03    -107.702E-03     38.7733E-03    -106.004E-03     213.171E-03    -107.530E-03     38.0641E-03
            1041     7.27574E-03     114.534E-03    -61.4692E+06    -77.4202E+06    -1.64143E+06    -12.2732E+06    -105.301E-03     212.775E-03    -107.474E-03     41.5356E-03    -105.546E-03     212.531E-03    -107.280E-03     40.7541E-03
            1042     8.08629E-03     114.581E-03    -54.3410E+06    -65.0429E+06     7.23215E+06    -12.9614E+06    -104.886E-03     212.127E-03    -107.240E-03     43.8269E-03    -105.135E-03     211.931E-03    -107.031E-03     42.9737E-03
            1043     8.89713E-03     114.630E-03    -47.5994E+06    -53.1253E+06     14.9575E+06    -13.4381E+06    -104.577E-03     211.588E-03    -107.011E-03     45.5961E-03    -104.830E-03     211.440E-03    -106.790E-03     44.6704E-03
            1044     9.70821E-03     114.681E-03    -41.5071E+06    -40.0859E+06     21.9467E+06    -13.7360E+06    -104.324E-03     211.115E-03    -106.791E-03     46.8880E-03    -104.586E-03     211.024E-03    -106.563E-03     45.8897E-03
            1045     10.5194E-03     114.732E-03    -35.8118E+06    -28.0454E+06     27.8781E+06    -13.8303E+06    -104.100E-03     210.682E-03    -106.582E-03     47.7842E-03    -104.370E-03     210.645E-03    -106.350E-03     46.7113E-03
            1046     11.3308E-03     114.785E-03    -29.9794E+06    -11.3376E+06     34.4613E+06    -13.1926E+06    -103.823E-03     210.206E-03    -106.383E-03     48.0420E-03    -104.110E-03     210.246E-03    -106.150E-03     46.9005E-03
            1047     12.1426E-03     114.837E-03    -25.0013E+06     5.08659E+06     39.8775E+06    -12.2026E+06    -103.582E-03     209.772E-03    -106.190E-03     47.4436E-03    -103.886E-03     209.889E-03    -105.961E-03     46.2338E-03
            1048     12.9543E-03     114.888E-03    -20.1100E+06     41.0332E+06     49.8997E+06    -10.3971E+06    -103.361E-03     209.367E-03    -106.005E-03     45.5215E-03    -103.715E-03     209.650E-03    -105.786E-03     44.2594E-03
            1049     13.7665E-03     114.935E-03    -14.7294E+06     72.3705E+06     56.9236E+06    -6.95986E+06    -103.164E-03     208.991E-03    -105.827E-03     41.2107E-03    -103.547E-03     209.414E-03    -105.626E-03     39.9257E-03
            1050     14.5781E-03     114.976E-03    -9.76963E+06     99.6266E+06     67.4551E+06    -2.60844E+06    -102.933E-03     208.620E-03    -105.688E-03     35.4331E-03    -103.345E-03     209.156E-03    -105.481E-03     34.1251E-03
            1051     15.3905E-03     115.010E-03    -4.82311E+06     124.236E+06     92.1630E+06    -217.454E+03    -102.802E-03     208.440E-03    -105.638E-03     24.6695E-03    -103.224E-03     209.019E-03    -105.350E-03     23.5707E-03
            1052     807.317E-06     115.480E-03    -119.816E+06    -196.886E+06    -116.709E+06    -2.25437E+06    -108.517E-03     217.000E-03    -108.483E-03     6.70408E-03    -108.663E-03     216.360E-03    -108.607E-03     6.59404E-03
            1053     1.61466E-03     115.490E-03    -115.504E+06    -185.019E+06    -105.446E+06    -3.47279E+06    -108.264E-03     216.749E-03    -108.486E-03     12.1544E-03    -108.424E-03     216.148E-03    -108.577E-03     11.9618E-03
            1054     2.42229E-03     115.506E-03    -109.333E+06    -169.232E+06    -89.0172E+06    -5.03462E+06    -107.935E-03     216.348E-03    -108.413E-03     17.6304E-03    -108.114E-03     215.796E-03    -108.454E-03     17.3494E-03
            1055     3.23030E-03     115.528E-03    -101.628E+06    -151.661E+06    -70.8443E+06    -6.74120E+06    -107.531E-03     215.835E-03    -108.304E-03     22.8470E-03    -107.729E-03     215.339E-03    -108.291E-03     22.4776E-03
            1056     4.03866E-03     115.555E-03    -93.1749E+06    -133.585E+06    -52.9317E+06    -8.09383E+06    -107.060E-03     215.219E-03    -108.159E-03     27.6242E-03    -107.273E-03     214.781E-03    -108.095E-03     27.1731E-03
            1057     4.84753E-03     115.587E-03    -84.3914E+06    -116.825E+06    -36.6091E+06    -9.71235E+06    -106.567E-03     214.550E-03    -107.983E-03     31.8631E-03    -106.792E-03     214.166E-03    -107.874E-03     31.3283E-03
            1058     5.65683E-03     115.623E-03    -75.5777E+06    -101.476E+06    -22.4976E+06    -11.1968E+06    -106.090E-03     213.870E-03    -107.781E-03     35.6378E-03    -106.320E-03     213.537E-03    -107.636E-03     35.0229E-03
            1059     6.46664E-03     115.663E-03    -67.5653E+06    -87.2858E+06    -10.6015E+06    -12.3790E+06    -105.652E-03     213.216E-03    -107.564E-03     38.9517E-03    -105.888E-03     212.933E-03    -107.392E-03     38.2608E-03
            1060     7.27675E-03     115.707E-03    -60.1875E+06    -74.2997E+06    -461.969E+03    -13.3245E+06    -105.269E-03     212.611E-03    -107.342E-03     41.7067E-03    -105.511E-03     212.377E-03    -107.149E-03     40.9417E-03
            1061     8.08720E-03     115.752E-03    -53.0321E+06    -62.1725E+06     8.39599E+06    -13.9624E+06    -104.925E-03     212.047E-03    -107.122E-03     44.0848E-03    -105.170E-03     211.858E-03    -106.913E-03     43.2474E-03
            1062     8.89794E-03     115.801E-03    -46.3630E+06    -50.9123E+06     15.9822E+06    -14.4318E+06    -104.630E-03     211.537E-03    -106.906E-03     45.9382E-03    -104.879E-03     211.394E-03    -106.685E-03     45.0277E-03
            1063     9.70894E-03     115.851E-03    -40.1431E+06    -38.1424E+06     22.9775E+06    -14.6694E+06    -104.370E-03     211.068E-03    -106.698E-03     47.3268E-03    -104.627E-03     210.980E-03    -106.470E-03     46.3441E-03
            1064     10.5202E-03     115.902E-03    -34.2153E+06    -26.4183E+06     29.0678E+06    -14.6952E+06    -104.103E-03     210.602E-03    -106.498E-03     48.2086E-03    -104.367E-03     210.566E-03    -106.265E-03     47.1514E-03
            1065     11.3318E-03     115.954E-03    -28.9274E+06    -11.3590E+06     34.8401E+06    -14.3011E+06    -103.832E-03     210.135E-03    -106.303E-03     48.4120E-03    -104.111E-03     210.170E-03    -106.070E-03     47.2815E-03
            1066     12.1434E-03     116.006E-03    -23.8368E+06     3.82735E+06     40.2088E+06    -12.8156E+06    -103.599E-03     209.716E-03    -106.116E-03     47.7544E-03    -103.893E-03     209.822E-03    -105.886E-03     46.5606E-03
            1067     12.9554E-03     116.056E-03    -19.3588E+06     38.4217E+06     49.4894E+06    -10.9550E+06    -103.315E-03     209.248E-03    -105.933E-03     45.8784E-03    -103.658E-03     209.515E-03    -105.714E-03     44.6308E-03
            1068     13.7670E-03     116.104E-03    -15.1612E+06     66.4217E+06     55.6477E+06    -7.23133E+06    -103.144E-03     208.902E-03    -105.759E-03     41.6969E-03    -103.517E-03     209.297E-03    -105.555E-03     40.4261E-03
            1069     14.5791E-03     116.144E-03    -10.7188E+06     94.8675E+06     65.0002E+06    -2.74735E+06    -103.069E-03     208.687E-03    -105.618E-03     36.1185E-03    -103.475E-03     209.204E-03    -105.415E-03     34.8202E-03
            1070     15.3904E-03     116.179E-03    -5.45402E+06     123.087E+06     90.0327E+06    -977.057E+03    -103.093E-03     208.671E-03    -105.578E-03     25.5218E-03    -103.514E-03     209.249E-03    -105.298E-03     24.4177E-03
            1071     807.502E-06     116.657E-03    -118.042E+06    -191.610E+06    -115.407E+06    -1.70921E+06    -108.214E-03     216.364E-03    -108.149E-03     6.70799E-03    -108.360E-03     215.746E-03    -108.278E-03     6.61330E-03
            1072     1.61522E-03     116.667E-03    -114.245E+06    -180.017E+06    -103.804E+06    -3.79828E+06    -107.889E-03     216.046E-03    -108.157E-03     12.2210E-03    -108.052E-03     215.465E-03    -108.250E-03     12.0400E-03
            1073     2.42312E-03     116.682E-03    -107.533E+06    -163.965E+06    -87.2609E+06    -5.67562E+06    -107.619E-03     215.694E-03    -108.076E-03     17.8539E-03    -107.798E-03     215.164E-03    -108.119E-03     17.5861E-03
            1074     3.23131E-03     116.704E-03    -99.8702E+06    -146.696E+06    -69.0006E+06    -7.42078E+06    -107.243E-03     215.218E-03    -107.976E-03     23.0823E-03    -107.440E-03     214.741E-03    -107.963E-03     22.7300E-03
            1075     4.03996E-03     116.730E-03    -91.3710E+06    -128.866E+06    -51.2155E+06    -9.13303E+06    -106.789E-03     214.629E-03    -107.840E-03     27.8958E-03    -107.001E-03     214.208E-03    -107.776E-03     27.4609E-03
            1076     4.84900E-03     116.761E-03    -82.6593E+06    -111.852E+06    -35.1325E+06    -10.7772E+06    -106.369E-03     214.043E-03    -107.674E-03     32.2111E-03    -106.592E-03     213.678E-03    -107.568E-03     31.6957E-03
            1077     5.65844E-03     116.797E-03    -74.3778E+06    -97.3086E+06    -21.4072E+06    -12.1645E+06    -105.981E-03     213.474E-03    -107.493E-03     35.9802E-03    -106.210E-03     213.156E-03    -107.351E-03     35.3866E-03
            1078     6.46821E-03     116.836E-03    -66.4147E+06    -83.4460E+06    -9.42684E+06    -13.1795E+06    -105.566E-03     212.866E-03    -107.300E-03     39.2756E-03    -105.801E-03     212.596E-03    -107.129E-03     38.6088E-03
            1079     7.27850E-03     116.879E-03    -58.6631E+06    -70.7135E+06     988.571E+03    -14.2221E+06    -105.210E-03     212.310E-03    -107.099E-03     42.1280E-03    -105.448E-03     212.085E-03    -106.907E-03     41.3862E-03
            1080     8.08892E-03     116.924E-03    -51.3871E+06    -59.2452E+06     9.64247E+06    -15.1494E+06    -104.926E-03     211.824E-03    -106.898E-03     44.6140E-03    -105.165E-03     211.643E-03    -106.690E-03     43.7952E-03
            1081     8.89974E-03     116.972E-03    -44.6999E+06    -48.5413E+06     17.1223E+06    -15.6059E+06    -104.665E-03     211.368E-03    -106.703E-03     46.6175E-03    -104.907E-03     211.230E-03    -106.482E-03     45.7257E-03
            1082     9.71076E-03     117.021E-03    -38.3469E+06    -36.2101E+06     24.0358E+06    -15.7427E+06    -104.418E-03     210.932E-03    -106.513E-03     48.0313E-03    -104.667E-03     210.846E-03    -106.285E-03     47.0682E-03
            1083     10.5220E-03     117.072E-03    -32.7150E+06    -25.3041E+06     29.9089E+06    -15.3985E+06    -104.170E-03     210.501E-03    -106.331E-03     48.8806E-03    -104.426E-03     210.464E-03    -106.097E-03     47.8462E-03
            1084     11.3333E-03     117.124E-03    -27.6807E+06    -10.4480E+06     35.7768E+06    -14.8177E+06    -103.937E-03     210.090E-03    -106.153E-03     49.1307E-03    -104.209E-03     210.123E-03    -105.919E-03     48.0237E-03
            1085     12.1450E-03     117.175E-03    -22.8301E+06     1.91438E+06     40.3432E+06    -13.6473E+06    -103.720E-03     209.703E-03    -105.983E-03     48.4906E-03    -104.003E-03     209.795E-03    -105.751E-03     47.3137E-03
            1086     12.9565E-03     117.225E-03    -18.0362E+06     35.6149E+06     49.5489E+06    -11.0960E+06    -103.401E-03     209.214E-03    -105.813E-03     46.5807E-03    -103.730E-03     209.462E-03    -105.591E-03     45.3582E-03
            1087     13.7691E-03     117.272E-03    -13.8429E+06     60.5621E+06     55.5010E+06    -7.32774E+06    -103.283E-03     208.937E-03    -105.654E-03     42.3869E-03    -103.640E-03     209.299E-03    -105.444E-03     41.1335E-03
            1088     14.5806E-03     117.313E-03    -9.44930E+06     90.1653E+06     64.6038E+06    -3.26289E+06    -103.398E-03     208.926E-03    -105.528E-03     36.5479E-03    -103.791E-03     209.418E-03    -105.322E-03     35.2458E-03
            1089     15.3930E-03     117.347E-03    -5.38355E+06     122.473E+06     89.4274E+06    -1.05924E+06    -103.747E-03     209.259E-03    -105.512E-03     25.8775E-03    -104.166E-03     209.835E-03    -105.235E-03     24.7707E-03
            1090     807.846E-06     117.833E-03    -116.015E+06    -186.238E+06    -113.936E+06    -2.45930E+06    -107.695E-03     215.171E-03    -107.476E-03     6.82032E-03    -107.841E-03     214.574E-03    -107.607E-03     6.72506E-03
            1091     1.61610E-03     117.842E-03    -111.944E+06    -173.925E+06    -102.239E+06    -4.29486E+06    -107.336E-03     214.902E-03    -107.566E-03     12.4683E-03    -107.498E-03     214.345E-03    -107.663E-03     12.2970E-03
            1092     2.42453E-03     117.858E-03    -106.060E+06    -158.510E+06    -85.8699E+06    -6.25852E+06    -107.092E-03     214.593E-03    -107.501E-03     18.1755E-03    -107.273E-03     214.084E-03    -107.547E-03     17.9230E-03
            1093     3.23313E-03     117.878E-03    -98.2785E+06    -141.071E+06    -67.5762E+06    -8.16676E+06    -106.797E-03     214.218E-03    -107.421E-03     23.4162E-03    -106.996E-03     213.763E-03    -107.412E-03     23.0821E-03
            1094     4.04207E-03     117.904E-03    -89.8319E+06    -123.514E+06    -49.9765E+06    -10.0588E+06    -106.441E-03     213.755E-03    -107.314E-03     28.2573E-03    -106.653E-03     213.355E-03    -107.255E-03     27.8424E-03
            1095     4.85142E-03     117.935E-03    -81.3433E+06    -107.070E+06    -34.0373E+06    -11.4675E+06    -106.078E-03     213.261E-03    -107.182E-03     32.6890E-03    -106.301E-03     212.913E-03    -107.079E-03     32.1996E-03
            1096     5.66098E-03     117.970E-03    -73.1120E+06    -92.6596E+06    -20.0120E+06    -12.9117E+06    -105.761E-03     212.796E-03    -107.035E-03     36.6329E-03    -105.990E-03     212.495E-03    -106.894E-03     36.0667E-03
            1097     6.47091E-03     118.008E-03    -64.9682E+06    -79.2397E+06    -8.05374E+06    -14.4956E+06    -105.460E-03     212.337E-03    -106.877E-03     40.0545E-03    -105.693E-03     212.081E-03    -106.708E-03     39.4085E-03
            1098     7.28110E-03     118.050E-03    -57.1633E+06    -67.0905E+06     2.03060E+06    -15.5234E+06    -105.150E-03     211.861E-03    -106.711E-03     43.0099E-03    -105.384E-03     211.648E-03    -106.521E-03     42.2903E-03
            1099     8.09180E-03     118.095E-03    -50.1336E+06    -56.2037E+06     10.5543E+06    -15.9865E+06    -104.893E-03     211.435E-03    -106.542E-03     45.5112E-03    -105.128E-03     211.263E-03    -106.335E-03     44.7216E-03
            1100     8.90255E-03     118.142E-03    -43.6597E+06    -45.6882E+06     18.0004E+06    -16.5666E+06    -104.686E-03     211.063E-03    -106.377E-03     47.5364E-03    -104.925E-03     210.933E-03    -106.158E-03     46.6722E-03
            1101     9.71354E-03     118.191E-03    -37.6697E+06    -34.6702E+06     24.5488E+06    -16.5997E+06    -104.459E-03     210.674E-03    -106.215E-03     48.9691E-03    -104.703E-03     210.590E-03    -105.988E-03     48.0348E-03
            1102     10.5247E-03     118.242E-03    -32.3013E+06    -24.6666E+06     30.2496E+06    -15.9446E+06    -104.249E-03     210.308E-03    -106.059E-03     49.8935E-03    -104.500E-03     210.269E-03    -105.825E-03     48.8917E-03
            1103     11.3362E-03     118.293E-03    -27.5679E+06    -10.0460E+06     36.0554E+06    -15.0354E+06    -104.056E-03     209.962E-03    -105.906E-03     50.2315E-03    -104.325E-03     209.992E-03    -105.671E-03     49.1612E-03
            1104     12.1476E-03     118.344E-03    -23.3496E+06     1.53716E+06     40.3872E+06    -13.8556E+06    -103.911E-03     209.672E-03    -105.761E-03     49.5649E-03    -104.193E-03     209.760E-03    -105.528E-03     48.4207E-03
            1105     12.9595E-03     118.393E-03    -19.1404E+06     32.5559E+06     48.7438E+06    -11.6390E+06    -103.805E-03     209.428E-03    -105.623E-03     47.5492E-03    -104.132E-03     209.661E-03    -105.399E-03     46.3463E-03
            1106     13.7706E-03     118.440E-03    -14.7469E+06     54.7473E+06     53.7759E+06    -7.72494E+06    -103.906E-03     209.408E-03    -105.502E-03     43.2004E-03    -104.255E-03     209.743E-03    -105.292E-03     41.9593E-03
            1107     14.5822E-03     118.481E-03    -10.3270E+06     85.5234E+06     62.4067E+06    -4.21185E+06    -104.220E-03     209.640E-03    -105.420E-03     37.2396E-03    -104.607E-03     210.113E-03    -105.217E-03     35.9312E-03
            1108     15.3921E-03     118.517E-03    -5.66490E+06     120.261E+06     87.8882E+06    -1.25626E+06    -104.512E-03     209.961E-03    -105.450E-03     26.5384E-03    -104.927E-03     210.529E-03    -105.176E-03     25.4323E-03
            1109     808.958E-06     119.007E-03    -114.888E+06    -179.387E+06    -111.932E+06    -2.62725E+06    -106.734E-03     213.358E-03    -106.624E-03     6.95310E-03    -106.887E-03     212.791E-03    -106.757E-03     6.86369E-03
            1110     1.61757E-03     119.016E-03    -110.796E+06    -167.562E+06    -100.940E+06    -4.89972E+06    -106.609E-03     213.304E-03    -106.695E-03     12.7333E-03    -106.776E-03     212.776E-03    -106.796E-03     12.5702E-03
            1111     2.42646E-03     119.031E-03    -104.530E+06    -152.412E+06    -84.8800E+06    -6.85242E+06    -106.402E-03     213.087E-03    -106.684E-03     18.5480E-03    -106.586E-03     212.604E-03    -106.736E-03     18.3101E-03
            1112     3.23567E-03     119.052E-03    -96.8798E+06    -135.061E+06    -66.6990E+06    -8.92671E+06    -106.164E-03     212.805E-03    -106.641E-03     23.8957E-03    -106.364E-03     212.376E-03    -106.638E-03     23.5796E-03
            1113     4.04501E-03     119.077E-03    -88.6284E+06    -117.965E+06    -48.8407E+06    -10.7417E+06    -105.922E-03     212.497E-03    -106.575E-03     28.8941E-03    -106.136E-03     212.120E-03    -106.520E-03     28.5030E-03
            1114     4.85459E-03     119.107E-03    -80.2324E+06    -102.149E+06    -32.8207E+06    -12.3772E+06    -105.656E-03     212.143E-03    -106.487E-03     33.4936E-03    -105.880E-03     211.814E-03    -106.387E-03     33.0289E-03
            1115     5.66470E-03     119.142E-03    -71.8329E+06    -87.6907E+06    -19.0633E+06    -13.8551E+06    -105.402E-03     211.781E-03    -106.379E-03     37.5561E-03    -105.631E-03     211.499E-03    -106.243E-03     37.0187E-03
            1116     6.47491E-03     119.180E-03    -64.1089E+06    -74.6088E+06    -7.33537E+06    -15.1668E+06    -105.195E-03     211.456E-03    -106.261E-03     41.1068E-03    -105.429E-03     211.219E-03    -106.097E-03     40.4957E-03
            1117     7.28534E-03     119.221E-03    -57.1359E+06    -63.4669E+06     2.44350E+06    -16.1181E+06    -105.024E-03     211.164E-03    -106.140E-03     44.2275E-03    -105.260E-03     210.965E-03    -105.953E-03     43.5443E-03
            1118     8.09584E-03     119.266E-03    -50.4408E+06    -53.0015E+06     10.8636E+06    -16.8629E+06    -104.853E-03     210.871E-03    -106.018E-03     46.8880E-03    -105.092E-03     210.711E-03    -105.814E-03     46.1327E-03
            1119     8.90670E-03     119.313E-03    -44.0759E+06    -42.7357E+06     18.2939E+06    -17.2322E+06    -104.676E-03     210.572E-03    -105.896E-03     48.9817E-03    -104.918E-03     210.453E-03    -105.679E-03     48.1565E-03
            1120     9.71770E-03     119.361E-03    -38.3826E+06    -33.1224E+06     24.4953E+06    -17.2396E+06    -104.511E-03     210.285E-03    -105.774E-03     50.4257E-03    -104.757E-03     210.207E-03    -105.548E-03     49.5309E-03
            1121     10.5290E-03     119.411E-03    -33.0919E+06    -24.2847E+06     29.7677E+06    -16.4938E+06    -104.381E-03     210.036E-03    -105.656E-03     51.3287E-03    -104.631E-03     209.997E-03    -105.424E-03     50.3677E-03
            1122     11.3402E-03     119.462E-03    -27.9496E+06    -9.89657E+06     35.6164E+06    -15.3469E+06    -104.286E-03     209.828E-03    -105.541E-03     51.5610E-03    -104.552E-03     209.856E-03    -105.308E-03     50.5324E-03
            1123     12.1517E-03     119.512E-03    -23.2032E+06     909.266E+03     40.0136E+06    -13.8583E+06    -104.329E-03     209.770E-03    -105.441E-03     50.7976E-03    -104.605E-03     209.850E-03    -105.208E-03     49.6950E-03
            1124     12.9626E-03     119.562E-03    -19.1387E+06     29.3857E+06     47.6740E+06    -11.2790E+06    -104.470E-03     209.824E-03    -105.354E-03     48.8341E-03    -104.788E-03     210.040E-03    -105.130E-03     47.6683E-03
            1125     13.7740E-03     119.610E-03    -15.3111E+06     49.0148E+06     52.0347E+06    -7.91302E+06    -104.860E-03     210.155E-03    -105.295E-03     44.7012E-03    -105.200E-03     210.464E-03    -105.084E-03     43.4803E-03
            1126     14.5838E-03     119.652E-03    -11.6395E+06     80.6406E+06     60.2605E+06    -4.48335E+06    -105.351E-03     210.629E-03    -105.277E-03     38.9175E-03    -105.735E-03     211.083E-03    -105.076E-03     37.6194E-03
            1127     15.3946E-03     119.688E-03    -5.92988E+06     117.812E+06     86.3391E+06    -2.20848E+06    -105.593E-03     210.963E-03    -105.369E-03     27.5500E-03    -106.006E-03     211.522E-03    -105.100E-03     26.4245E-03
            1128     809.550E-06     120.179E-03    -112.089E+06    -172.211E+06    -109.634E+06    -2.76298E+06    -105.569E-03     211.256E-03    -105.687E-03     7.09864E-03    -105.722E-03     210.717E-03    -105.823E-03     7.01398E-03
            1129     1.61934E-03     120.189E-03    -108.261E+06    -160.701E+06    -98.0563E+06    -4.91488E+06    -105.589E-03     211.241E-03    -105.652E-03     12.9030E-03    -105.757E-03     210.738E-03    -105.752E-03     12.7537E-03
            1130     2.42903E-03     120.203E-03    -102.380E+06    -145.796E+06    -82.8248E+06    -7.29878E+06    -105.444E-03     211.099E-03    -105.655E-03     18.9019E-03    -105.628E-03     210.643E-03    -105.709E-03     18.6793E-03
            1131     3.23883E-03     120.224E-03    -95.4038E+06    -128.832E+06    -65.6352E+06    -9.30097E+06    -105.270E-03     210.903E-03    -105.633E-03     24.5967E-03    -105.473E-03     210.499E-03    -105.636E-03     24.3040E-03
            1132     4.04897E-03     120.249E-03    -87.7116E+06    -112.374E+06    -48.2423E+06    -11.1064E+06    -105.166E-03     210.766E-03    -105.599E-03     29.8265E-03    -105.384E-03     210.413E-03    -105.550E-03     29.4647E-03
            1133     4.85930E-03     120.278E-03    -79.8211E+06    -96.7281E+06    -32.5601E+06    -12.7419E+06    -105.067E-03     210.625E-03    -105.558E-03     34.5379E-03    -105.295E-03     210.320E-03    -105.465E-03     34.1081E-03
            1134     5.66948E-03     120.312E-03    -72.2679E+06    -82.7594E+06    -19.1232E+06    -14.1830E+06    -104.904E-03     210.407E-03    -105.503E-03     38.7588E-03    -105.139E-03     210.148E-03    -105.374E-03     38.2611E-03
            1135     6.48011E-03     120.350E-03    -64.8736E+06      -70.11E+06    -7.33867E+06    -15.3472E+06    -104.747E-03     210.181E-03    -105.434E-03     42.5313E-03    -104.988E-03     209.964E-03    -105.275E-03     41.9663E-03
            1136     7.29086E-03     120.391E-03    -57.8399E+06    -59.5161E+06     2.55271E+06    -16.3950E+06    -104.695E-03     210.055E-03    -105.360E-03     45.9084E-03    -104.937E-03     209.873E-03    -105.177E-03     45.2737E-03
            1137     8.10175E-03     120.436E-03    -51.2079E+06    -49.4385E+06     10.7787E+06    -17.2002E+06    -104.681E-03     209.968E-03    -105.287E-03     48.7562E-03    -104.925E-03     209.823E-03    -105.087E-03     48.0509E-03
            1138     8.91264E-03     120.482E-03    -45.3729E+06    -40.2310E+06     17.7155E+06    -17.5867E+06    -104.635E-03     209.852E-03    -105.218E-03     50.9486E-03    -104.882E-03     209.744E-03    -105.005E-03     50.1744E-03
            1139     9.72373E-03     120.531E-03    -39.8550E+06    -31.1961E+06     23.7707E+06    -17.5201E+06    -104.636E-03     209.788E-03    -105.152E-03     52.4368E-03    -104.886E-03     209.717E-03    -104.930E-03     51.5944E-03
            1140     10.5347E-03     120.580E-03    -34.3909E+06    -23.3034E+06     28.8781E+06    -17.2954E+06    -104.705E-03     209.800E-03    -105.095E-03     53.2369E-03    -104.958E-03     209.764E-03    -104.867E-03     52.3197E-03
            1141     11.3459E-03     120.631E-03    -29.0326E+06    -10.3232E+06     34.3430E+06    -16.2687E+06    -104.815E-03     209.862E-03    -105.047E-03     53.3096E-03    -105.079E-03     209.887E-03    -104.819E-03     52.3203E-03
            1142     12.1565E-03     120.682E-03    -23.9880E+06    -700.186E+03     38.6695E+06    -14.6043E+06    -105.061E-03     210.080E-03    -105.019E-03     52.4210E-03    -105.332E-03     210.151E-03    -104.790E-03     51.3551E-03
            1143     12.9675E-03     120.732E-03    -18.6442E+06     26.3531E+06     46.9890E+06    -11.9809E+06    -105.433E-03     210.444E-03    -105.011E-03     50.3549E-03    -105.739E-03     210.642E-03    -104.788E-03     49.2160E-03
            1144     13.7774E-03     120.780E-03    -13.6031E+06     43.9355E+06     51.0062E+06    -8.37421E+06    -106.085E-03     211.119E-03    -105.034E-03     46.0996E-03    -106.406E-03     211.399E-03    -104.823E-03     44.8927E-03
            1145     14.5872E-03     120.823E-03    -9.26948E+06     77.1694E+06     61.1830E+06    -5.14163E+06    -106.728E-03     211.834E-03    -105.106E-03     40.0061E-03    -107.095E-03     212.265E-03    -104.899E-03     38.7060E-03
            1146     15.3951E-03     120.860E-03    -5.10260E+06     115.561E+06     86.6086E+06    -2.66473E+06    -107.095E-03     212.374E-03    -105.279E-03     28.1205E-03    -107.500E-03     212.920E-03    -105.006E-03     26.9868E-03
            1147     810.633E-06     121.349E-03    -111.140E+06    -164.939E+06    -108.273E+06    -2.96375E+06    -104.301E-03     208.792E-03    -104.491E-03     7.43690E-03    -104.461E-03     208.286E-03    -104.632E-03     7.35999E-03
            1148     1.62115E-03     121.358E-03    -107.119E+06    -154.156E+06    -97.7824E+06    -4.82095E+06    -104.323E-03     208.732E-03    -104.408E-03     13.3774E-03    -104.496E-03     208.260E-03    -104.518E-03     13.2426E-03
            1149     2.43194E-03     121.373E-03    -102.146E+06    -139.256E+06    -82.5854E+06    -6.73975E+06    -104.210E-03     208.616E-03    -104.407E-03     19.3843E-03    -104.402E-03     208.192E-03    -104.470E-03     19.1895E-03
            1150     3.24301E-03     121.393E-03    -95.8686E+06    -122.545E+06    -65.6867E+06    -8.92370E+06    -104.143E-03     208.542E-03    -104.399E-03     25.3116E-03    -104.356E-03     208.170E-03    -104.410E-03     25.0525E-03
            1151     4.05392E-03     121.418E-03    -88.5345E+06    -106.500E+06    -48.8129E+06    -10.8232E+06    -104.161E-03     208.556E-03    -104.395E-03     30.7860E-03    -104.388E-03     208.233E-03    -104.356E-03     30.4643E-03
            1152     4.86470E-03     121.448E-03    -80.7879E+06    -91.4691E+06    -33.1353E+06    -12.4028E+06    -104.136E-03     208.528E-03    -104.392E-03     35.7673E-03    -104.374E-03     208.250E-03    -104.308E-03     35.3847E-03
            1153     5.67589E-03     121.481E-03    -73.3292E+06    -77.7206E+06    -19.3811E+06    -13.8180E+06    -104.090E-03     208.467E-03    -104.377E-03     40.3711E-03    -104.335E-03     208.233E-03    -104.255E-03     39.9264E-03
            1154     6.48702E-03     121.519E-03    -66.4855E+06    -65.5629E+06    -7.90066E+06    -15.0958E+06    -104.108E-03     208.463E-03    -104.355E-03     44.5219E-03    -104.360E-03     208.268E-03    -104.203E-03     44.0136E-03
            1155     7.29831E-03     121.560E-03    -60.0276E+06    -55.3677E+06     1.51825E+06    -16.1059E+06    -104.199E-03     208.531E-03    -104.332E-03     48.1354E-03    -104.452E-03     208.371E-03    -104.157E-03     47.5638E-03
            1156     8.10951E-03     121.604E-03    -54.1915E+06    -45.9686E+06     9.38157E+06    -16.8854E+06    -104.359E-03     208.676E-03    -104.317E-03     51.0980E-03    -104.617E-03     208.551E-03    -104.125E-03     50.4596E-03
            1157     8.92068E-03     121.651E-03    -48.5071E+06    -37.2537E+06     16.2446E+06    -17.5205E+06    -104.583E-03     208.898E-03    -104.315E-03     53.3440E-03    -104.843E-03     208.806E-03    -104.109E-03     52.6342E-03
            1158     9.73167E-03     121.699E-03    -42.8430E+06    -28.9033E+06     22.2398E+06    -18.0617E+06    -104.865E-03     209.193E-03    -104.327E-03     54.8877E-03    -105.127E-03     209.136E-03    -104.112E-03     54.1015E-03
            1159     10.5426E-03     121.749E-03    -37.2153E+06    -21.5552E+06     27.3955E+06    -18.1276E+06    -105.258E-03     209.618E-03    -104.360E-03     55.6174E-03    -105.520E-03     209.592E-03    -104.138E-03     54.7499E-03
            1160     11.3529E-03     121.800E-03    -31.7570E+06    -10.1087E+06     32.5021E+06    -17.7497E+06    -105.706E-03     210.119E-03    -104.413E-03     55.5041E-03    -105.977E-03     210.146E-03    -104.189E-03     54.5493E-03
            1161     12.1632E-03     121.851E-03    -26.0063E+06    -1.82968E+06     36.7780E+06    -16.3942E+06    -106.264E-03     210.757E-03    -104.493E-03     54.3559E-03    -106.536E-03     210.824E-03    -104.269E-03     53.3101E-03
            1162     12.9725E-03     121.902E-03    -20.5927E+06     23.1239E+06     44.5641E+06    -14.1464E+06    -106.911E-03     211.510E-03    -104.599E-03     52.0181E-03    -107.216E-03     211.695E-03    -104.380E-03     50.8815E-03
            1163     13.7817E-03     121.952E-03    -14.8219E+06     38.2885E+06     48.1245E+06    -10.4690E+06    -107.608E-03     212.338E-03    -104.730E-03     47.5818E-03    -107.920E-03     212.594E-03    -104.524E-03     46.3654E-03
            1164     14.5892E-03     121.996E-03    -9.60489E+06     73.5132E+06     59.9014E+06    -5.61288E+06    -108.179E-03     213.083E-03    -104.903E-03     41.5700E-03    -108.542E-03     213.498E-03    -104.697E-03     40.2710E-03
            1165     15.3975E-03     122.035E-03     -4.8828E+06     112.111E+06     85.6872E+06    -2.73977E+06    -108.830E-03     213.999E-03    -105.169E-03     29.6217E-03    -109.228E-03     214.529E-03    -104.896E-03     28.4875E-03
            1166     811.785E-06     122.515E-03    -112.617E+06    -157.994E+06    -110.561E+06    -2.50674E+06    -102.944E-03     205.780E-03    -102.836E-03     7.67542E-03    -103.118E-03     205.314E-03    -102.997E-03     7.61327E-03
            1167     1.62377E-03     122.524E-03    -109.805E+06    -148.131E+06    -100.033E+06    -4.41002E+06    -102.808E-03     205.708E-03    -102.900E-03     13.8342E-03    -102.998E-03     205.273E-03    -103.027E-03     13.7209E-03
            1168     2.43565E-03     122.539E-03    -104.092E+06    -133.050E+06    -84.5906E+06    -6.39457E+06    -102.819E-03     205.732E-03    -102.913E-03     20.0911E-03    -103.027E-03     205.343E-03    -102.992E-03     19.9248E-03
            1169     3.24748E-03     122.559E-03    -97.2344E+06    -116.519E+06    -66.7797E+06    -8.14080E+06    -102.834E-03     205.776E-03    -102.942E-03     26.2226E-03    -103.060E-03     205.437E-03    -102.966E-03     26.0042E-03
            1170     4.05946E-03     122.584E-03    -90.3178E+06    -101.014E+06    -49.8076E+06    -9.80314E+06    -102.787E-03     205.750E-03    -102.963E-03     32.0014E-03    -103.028E-03     205.456E-03    -102.934E-03     31.7316E-03
            1171     4.87170E-03     122.614E-03    -83.2465E+06    -86.1856E+06    -34.5850E+06    -11.4460E+06    -102.800E-03     205.768E-03    -102.968E-03     37.3595E-03    -103.053E-03     205.520E-03    -102.896E-03     37.0362E-03
            1172     5.68377E-03     122.648E-03    -76.3893E+06    -72.8995E+06    -21.2967E+06    -12.8454E+06    -102.940E-03     205.915E-03    -102.975E-03     42.3046E-03    -103.202E-03     205.709E-03    -102.865E-03     41.9272E-03
            1173     6.49591E-03     122.685E-03    -69.9630E+06    -61.3930E+06    -10.0287E+06    -13.8187E+06    -103.210E-03     206.205E-03    -102.995E-03     46.8046E-03    -103.478E-03     206.036E-03    -102.855E-03     46.3742E-03
            1174     7.30770E-03     122.727E-03    -64.0550E+06    -51.1425E+06    -521.618E+03    -14.8136E+06    -103.562E-03     206.597E-03    -103.034E-03     50.6821E-03    -103.835E-03     206.462E-03    -102.870E-03     50.1921E-03
            1175     8.11942E-03     122.771E-03    -58.1551E+06    -41.4701E+06     7.70716E+06    -16.4071E+06    -103.996E-03     207.092E-03    -103.095E-03     53.8662E-03    -104.273E-03     206.992E-03    -102.912E-03     53.3014E-03
            1176     8.93079E-03     122.818E-03    -51.9516E+06    -33.7583E+06     14.5193E+06    -17.8587E+06    -104.581E-03     207.763E-03    -103.182E-03     56.1917E-03    -104.856E-03     207.691E-03    -102.985E-03     55.5457E-03
            1177     9.74173E-03     122.867E-03    -45.8214E+06    -25.8231E+06     20.6070E+06    -18.5889E+06    -105.284E-03     208.585E-03    -103.301E-03     57.6846E-03    -105.557E-03     208.544E-03    -103.094E-03     56.9571E-03
            1178     10.5520E-03     122.918E-03    -39.8400E+06    -18.8836E+06     25.7045E+06    -19.5944E+06    -106.094E-03     209.549E-03    -103.455E-03     58.3120E-03    -106.366E-03     209.537E-03    -103.241E-03     57.4855E-03
            1179     11.3619E-03     122.970E-03    -33.4178E+06    -8.59764E+06     30.9327E+06    -19.9076E+06    -106.995E-03     210.638E-03    -103.643E-03     57.9391E-03    -107.269E-03     210.673E-03    -103.427E-03     57.0075E-03
            1180     12.1706E-03     123.022E-03    -27.2243E+06    -2.59741E+06     34.7473E+06    -19.0006E+06    -107.944E-03     211.812E-03    -103.868E-03     56.5734E-03    -108.214E-03     211.876E-03    -103.651E-03     55.5342E-03
            1181     12.9789E-03     123.074E-03    -21.3948E+06     19.9136E+06     42.0041E+06    -16.4282E+06    -108.707E-03     212.824E-03    -104.117E-03     54.0948E-03    -109.005E-03     212.995E-03    -103.905E-03     52.9600E-03
            1182     13.7859E-03     123.125E-03    -16.4919E+06     32.4820E+06     44.7036E+06    -12.3137E+06    -109.407E-03     213.786E-03    -104.379E-03     49.4685E-03    -109.713E-03     214.019E-03    -104.179E-03     48.2464E-03
            1183     14.5935E-03     123.170E-03    -10.9491E+06     68.0238E+06     56.9822E+06    -8.30729E+06    -110.062E-03     214.734E-03    -104.672E-03     42.9654E-03    -110.418E-03     215.128E-03    -104.470E-03     41.6351E-03
            1184     15.3994E-03     123.210E-03    -5.06531E+06     107.894E+06     84.2677E+06    -3.85431E+06    -110.835E-03     215.888E-03    -105.053E-03     30.7280E-03    -111.227E-03     216.401E-03    -104.781E-03     29.5704E-03
            1185     813.190E-06     123.678E-03    -115.649E+06    -152.192E+06    -112.752E+06    -2.00641E+06    -101.173E-03     202.242E-03    -101.069E-03     7.77579E-03    -101.367E-03     201.812E-03    -101.244E-03     7.72947E-03
            1186     1.62643E-03     123.687E-03    -112.216E+06    -142.395E+06    -102.337E+06    -3.81109E+06    -101.101E-03     202.245E-03    -101.144E-03     14.3213E-03    -101.308E-03     201.845E-03    -101.287E-03     14.2333E-03
            1187     2.43984E-03     123.701E-03    -107.263E+06    -127.469E+06    -87.6487E+06    -5.45813E+06    -101.142E-03     202.317E-03    -101.175E-03     20.9277E-03    -101.369E-03     201.965E-03    -101.273E-03     20.8002E-03
            1188     3.25304E-03     123.722E-03    -101.168E+06    -111.325E+06    -70.6229E+06    -6.99288E+06    -101.130E-03     202.342E-03    -101.212E-03     27.3894E-03    -101.376E-03     202.038E-03    -101.257E-03     27.2216E-03
            1189     4.06644E-03     123.747E-03    -94.6258E+06    -96.1563E+06    -53.5253E+06    -8.34838E+06    -101.100E-03     202.339E-03    -101.238E-03     33.5090E-03    -101.363E-03     202.079E-03    -101.229E-03     33.3025E-03
            1190     4.87990E-03     123.776E-03    -88.0147E+06    -81.2566E+06    -38.1408E+06    -9.64854E+06    -101.226E-03     202.483E-03    -101.257E-03     39.2022E-03    -101.502E-03     202.268E-03    -101.202E-03     38.9549E-03
            1191     5.69334E-03     123.811E-03    -81.1692E+06    -68.3415E+06    -24.4744E+06    -11.1165E+06    -101.580E-03     202.876E-03    -101.296E-03     44.4801E-03    -101.864E-03     202.700E-03    -101.202E-03     44.1852E-03
            1192     6.50639E-03     123.849E-03    -74.2650E+06    -57.1084E+06    -12.6650E+06    -12.6397E+06    -102.111E-03     203.480E-03    -101.369E-03     49.2941E-03    -102.398E-03     203.337E-03    -101.242E-03     48.9441E-03
            1193     7.31922E-03     123.891E-03    -67.1336E+06    -46.3198E+06    -2.40468E+06    -14.4196E+06    -102.802E-03     204.282E-03    -101.481E-03     53.4138E-03    -103.089E-03     204.174E-03    -101.328E-03     52.9963E-03
            1194     8.13137E-03     123.936E-03    -60.1306E+06    -36.2694E+06     6.37722E+06    -16.3162E+06    -103.659E-03     205.294E-03    -101.635E-03     56.7953E-03    -103.945E-03     205.219E-03    -101.463E-03     56.3004E-03
            1195     8.94292E-03     123.984E-03    -53.5927E+06    -29.0095E+06     13.3690E+06    -18.3086E+06    -104.714E-03     206.553E-03    -101.838E-03     59.2730E-03    -104.997E-03     206.504E-03    -101.652E-03     58.6888E-03
            1196     9.75357E-03     124.034E-03    -46.8854E+06    -21.9104E+06     19.4586E+06    -20.1059E+06    -105.958E-03     208.054E-03    -102.095E-03     60.7407E-03    -106.236E-03     208.031E-03    -101.898E-03     60.0564E-03
            1197     10.5633E-03     124.087E-03    -40.0853E+06    -14.6374E+06     24.9474E+06    -21.5761E+06    -107.294E-03     209.700E-03    -102.406E-03     61.2032E-03    -107.567E-03     209.707E-03    -102.202E-03     60.4076E-03
            1198     11.3717E-03     124.140E-03    -33.8709E+06    -6.56112E+06     29.6936E+06    -22.4914E+06    -108.629E-03     211.392E-03    -102.764E-03     60.6130E-03    -108.902E-03     211.436E-03    -102.556E-03     59.6969E-03
            1199     12.1794E-03     124.194E-03    -27.7189E+06    -3.04007E+06     32.8895E+06    -21.7865E+06    -109.844E-03     213.003E-03    -103.159E-03     58.9826E-03    -110.110E-03     213.065E-03    -102.950E-03     57.9488E-03
            1200     12.9856E-03     124.248E-03    -21.6879E+06     16.6986E+06     39.7684E+06    -19.2946E+06    -110.783E-03     214.355E-03    -103.572E-03     56.0751E-03    -111.071E-03     214.511E-03    -103.366E-03     54.9328E-03
            1201     13.7922E-03     124.300E-03    -15.7784E+06     26.0952E+06     41.8360E+06    -14.5832E+06    -111.726E-03     215.716E-03    -103.991E-03     51.0101E-03    -112.013E-03     215.919E-03    -103.796E-03     49.7717E-03
            1202     14.5961E-03     124.347E-03    -10.8972E+06     63.0842E+06     55.8376E+06    -10.5026E+06    -112.489E-03     216.929E-03    -104.440E-03     44.2480E-03    -112.836E-03     217.299E-03    -104.237E-03     42.8890E-03
            1203     15.4003E-03     124.388E-03    -5.47266E+06     102.043E+06     83.0009E+06    -5.53826E+06    -112.863E-03     217.813E-03    -104.950E-03     32.0482E-03    -113.248E-03     218.300E-03    -104.675E-03     30.8584E-03
            1204     814.948E-06     124.835E-03    -125.688E+06    -147.189E+06    -122.867E+06    -1.82794E+06    -99.0270E-03     198.155E-03    -99.1277E-03     8.06385E-03    -99.2642E-03     197.779E-03    -99.3464E-03     8.03048E-03
            1205     1.62986E-03     124.845E-03    -122.026E+06    -137.244E+06    -112.283E+06    -3.32555E+06    -99.0888E-03     198.194E-03    -99.1055E-03     14.9718E-03    -99.3378E-03     197.848E-03    -99.2910E-03     14.9121E-03
            1206     2.44447E-03     124.860E-03    -116.709E+06    -122.846E+06    -97.1075E+06    -4.85030E+06    -99.0631E-03     198.199E-03    -99.1361E-03     21.9346E-03    -99.3291E-03     197.896E-03    -99.2743E-03     21.8460E-03
            1207     3.25964E-03     124.880E-03    -109.728E+06    -107.063E+06    -78.9982E+06    -6.06152E+06    -99.0578E-03     198.223E-03    -99.1652E-03     28.6419E-03    -99.3389E-03     197.963E-03    -99.2459E-03     28.5279E-03
            1208     4.07469E-03     124.905E-03    -101.895E+06    -91.5402E+06    -60.2619E+06    -7.55256E+06    -99.2088E-03     198.413E-03    -99.2044E-03     35.0636E-03    -99.5018E-03     198.194E-03    -99.2252E-03     34.9180E-03
            1209     4.88964E-03     124.935E-03    -93.4962E+06    -76.7674E+06    -42.9686E+06    -9.09679E+06    -99.5530E-03     198.819E-03    -99.2665E-03     41.1454E-03    -99.8524E-03     198.639E-03    -99.2344E-03     40.9621E-03
            1210     5.70435E-03     124.970E-03    -84.7748E+06    -63.5110E+06    -27.7043E+06    -10.7035E+06    -100.145E-03     199.511E-03    -99.3663E-03     46.7438E-03    -100.445E-03     199.365E-03    -99.2898E-03     46.5159E-03
            1211     6.51863E-03     125.009E-03    -76.0692E+06    -51.8107E+06    -14.8007E+06    -12.8097E+06    -100.978E-03     200.493E-03    -99.5148E-03     51.7650E-03    -101.274E-03     200.378E-03    -99.4033E-03     51.4767E-03
            1212     7.33215E-03     125.052E-03    -67.7620E+06    -40.8871E+06    -3.95118E+06    -15.0619E+06    -102.056E-03     201.776E-03    -99.7203E-03     56.1256E-03    -102.347E-03     201.693E-03    -99.5825E-03     55.7655E-03
            1213     8.14491E-03     125.099E-03    -60.1914E+06    -30.8268E+06     5.34258E+06    -17.2960E+06    -103.415E-03     203.408E-03    -99.9932E-03     59.6733E-03    -103.703E-03     203.357E-03    -99.8345E-03     59.2310E-03
            1214     8.95652E-03     125.149E-03    -52.7709E+06    -23.3023E+06     13.1023E+06    -19.5407E+06    -105.042E-03     205.384E-03    -100.342E-03     62.2821E-03    -105.323E-03     205.357E-03    -100.166E-03     61.7439E-03
            1215     9.76679E-03     125.202E-03    -45.7160E+06    -16.2763E+06     19.5356E+06    -22.0770E+06    -106.853E-03     207.618E-03    -100.765E-03     63.7724E-03    -107.128E-03     207.616E-03    -100.577E-03     63.1205E-03
            1216     10.5755E-03     125.256E-03    -39.1197E+06    -10.6757E+06     24.7028E+06    -23.7493E+06    -108.709E-03     209.967E-03    -101.258E-03     64.1780E-03    -108.978E-03     209.988E-03    -101.062E-03     63.4078E-03
            1217     11.3828E-03     125.312E-03    -32.9995E+06    -3.41942E+06     29.5957E+06    -24.4498E+06    -110.440E-03     212.246E-03    -101.806E-03     63.4614E-03    -110.709E-03     212.300E-03    -101.605E-03     62.5676E-03
            1218     12.1886E-03     125.368E-03    -27.2962E+06    -2.32861E+06     32.3477E+06    -24.6350E+06    -111.982E-03     214.373E-03    -102.390E-03     61.4225E-03    -112.243E-03     214.435E-03    -102.186E-03     60.3917E-03
            1219     12.9937E-03     125.423E-03    -21.2869E+06     13.4795E+06     38.2079E+06    -22.4054E+06    -113.252E-03     216.241E-03    -102.989E-03     58.0780E-03    -113.528E-03     216.379E-03    -102.787E-03     56.9242E-03
            1220     13.7966E-03     125.477E-03    -15.5226E+06     19.1966E+06     39.6247E+06    -18.3321E+06    -114.235E-03     217.819E-03    -103.584E-03     52.8897E-03    -114.506E-03     217.989E-03    -103.392E-03     51.6218E-03
            1221     14.6001E-03     125.526E-03    -10.0780E+06     56.3454E+06     54.4074E+06    -11.6946E+06    -114.765E-03     218.952E-03    -104.187E-03     46.3188E-03    -115.096E-03     219.290E-03    -103.982E-03     44.9504E-03
            1222     15.4024E-03     125.569E-03    -5.61458E+06     95.1181E+06     81.2052E+06    -5.96950E+06    -115.010E-03     219.832E-03    -104.823E-03     33.7417E-03    -115.384E-03     220.289E-03    -104.546E-03     32.5377E-03
            1223     816.603E-06     125.989E-03    -146.841E+06    -141.305E+06    -144.772E+06    -2.74128E+06    -96.7507E-03     193.406E-03    -96.6548E-03     8.56354E-03    -97.0703E-03     193.122E-03    -96.9608E-03     8.52983E-03
            1224     1.63332E-03     125.998E-03    -141.466E+06    -131.332E+06    -131.995E+06    -5.05215E+06    -96.6824E-03     193.410E-03    -96.7275E-03     15.7155E-03    -97.0080E-03     193.149E-03    -96.9919E-03     15.6565E-03
            1225     2.45046E-03     126.013E-03    -132.842E+06    -117.350E+06    -113.194E+06    -7.33946E+06    -96.7006E-03     193.464E-03    -96.7636E-03     22.9144E-03    -97.0306E-03     193.234E-03    -96.9668E-03     22.8277E-03
            1226     3.26719E-03     126.033E-03    -122.082E+06    -102.398E+06    -91.4806E+06    -9.27562E+06    -96.8795E-03     193.705E-03    -96.8250E-03     29.8983E-03    -97.2091E-03     193.502E-03    -96.9569E-03     29.7849E-03
            1227     4.08400E-03     126.059E-03    -110.032E+06    -86.6632E+06    -69.4070E+06    -10.6997E+06    -97.2591E-03     194.182E-03    -96.9227E-03     36.5365E-03    -97.5838E-03     194.009E-03    -96.9845E-03     36.3994E-03
            1228     4.90053E-03     126.089E-03    -97.8856E+06    -71.9356E+06    -49.2323E+06    -12.2690E+06    -97.8852E-03     194.950E-03    -97.0645E-03     42.8221E-03    -98.2008E-03     194.805E-03    -97.0644E-03     42.6532E-03
            1229     5.71649E-03     126.125E-03    -86.2708E+06    -58.5316E+06    -31.9721E+06    -13.8267E+06    -98.7651E-03     196.023E-03    -97.2577E-03     48.6793E-03    -99.0691E-03     195.905E-03    -97.2076E-03     48.4700E-03
            1230     6.53177E-03     126.166E-03    -75.5706E+06    -46.4191E+06    -17.5071E+06    -15.4149E+06    -99.9389E-03     197.451E-03    -97.5125E-03     53.9318E-03    -100.231E-03     197.361E-03    -97.4232E-03     53.6701E-03
            1231     7.34617E-03     126.211E-03    -65.8153E+06    -35.1781E+06    -5.04586E+06    -17.3776E+06    -101.482E-03     199.326E-03    -97.8449E-03     58.5362E-03    -101.764E-03     199.265E-03    -97.7236E-03     58.2064E-03
            1232     8.15926E-03     126.259E-03    -56.8429E+06    -24.9606E+06     5.63792E+06    -19.4395E+06    -103.389E-03     201.657E-03    -98.2679E-03     62.2267E-03    -103.664E-03     201.625E-03    -98.1211E-03     61.8150E-03
            1233     8.97072E-03     126.312E-03    -48.9585E+06    -17.4225E+06     14.0982E+06    -21.5763E+06    -105.540E-03     204.325E-03    -98.7852E-03     64.9286E-03    -105.807E-03     204.316E-03    -98.6185E-03     64.4198E-03
            1234     9.78038E-03     126.368E-03    -42.0364E+06    -10.4166E+06     21.1626E+06    -23.5290E+06    -107.817E-03     207.208E-03    -99.3906E-03     66.5751E-03    -108.080E-03     207.223E-03    -99.2087E-03     65.9575E-03
            1235     10.5883E-03     126.426E-03    -35.8299E+06    -5.72529E+06     26.6021E+06    -25.5025E+06    -110.119E-03     210.191E-03    -100.072E-03     67.0371E-03    -110.377E-03     210.225E-03    -99.8791E-03     66.2939E-03
            1236     11.3942E-03     126.484E-03    -29.7494E+06    -494.929E+03     31.3939E+06    -26.4695E+06    -112.275E-03     213.087E-03    -100.812E-03     66.2150E-03    -112.530E-03     213.144E-03    -100.611E-03     65.3431E-03
            1237     12.1987E-03     126.544E-03    -24.4617E+06    -593.118E+03     34.0783E+06    -26.1947E+06    -114.201E-03     215.791E-03    -101.591E-03     64.0582E-03    -114.448E-03     215.851E-03    -101.384E-03     63.0520E-03
            1238     13.0010E-03     126.601E-03    -19.8198E+06     11.2980E+06     38.4956E+06    -25.1233E+06    -115.647E-03     218.023E-03    -102.375E-03     60.6972E-03    -115.910E-03     218.143E-03    -102.171E-03     59.5492E-03
            1239     13.8035E-03     126.657E-03    -15.2472E+06     12.3656E+06     38.6692E+06    -20.5490E+06    -116.654E-03     219.797E-03    -103.143E-03     55.2704E-03    -116.909E-03     219.930E-03    -102.946E-03     54.0069E-03
            1240     14.6041E-03     126.707E-03    -10.8761E+06     47.7086E+06     51.8086E+06    -14.6376E+06    -117.165E-03     221.059E-03    -103.895E-03     48.2104E-03    -117.482E-03     221.358E-03    -103.689E-03     46.8195E-03
            1241     15.4051E-03     126.753E-03    -4.91892E+06     85.5441E+06     78.7631E+06    -7.97298E+06    -117.458E-03     222.126E-03    -104.668E-03     35.1012E-03    -117.812E-03     222.539E-03    -104.392E-03     33.8652E-03
            1242     819.022E-06     127.136E-03    -168.849E+06    -131.342E+06    -165.917E+06    -5.02318E+06    -94.0584E-03     188.043E-03    -93.9848E-03     8.94306E-03    -94.4716E-03     187.872E-03    -94.3791E-03     8.89059E-03
            1243     1.63791E-03     127.145E-03    -161.745E+06    -121.188E+06    -151.642E+06    -9.59380E+06    -94.1261E-03     188.203E-03    -94.0769E-03     16.2412E-03    -94.5389E-03     188.051E-03    -94.4249E-03     16.1426E-03
            1244     2.45657E-03     127.160E-03    -151.372E+06    -108.100E+06    -131.322E+06    -13.9007E+06    -94.3048E-03     188.479E-03    -94.1745E-03     23.6551E-03    -94.7136E-03     188.347E-03    -94.4549E-03     23.5112E-03
            1245     3.27548E-03     127.181E-03    -138.078E+06    -94.2828E+06    -107.532E+06    -17.3897E+06    -94.7489E-03     189.069E-03    -94.3204E-03     30.8216E-03    -95.1451E-03     188.952E-03    -94.5211E-03     30.6390E-03
            1246     4.09384E-03     127.207E-03    -122.398E+06    -79.8615E+06    -82.9784E+06    -20.1201E+06    -95.4223E-03     189.947E-03    -94.5250E-03     37.5885E-03    -95.7964E-03     189.844E-03    -94.6466E-03     37.3712E-03
            1247     4.91166E-03     127.239E-03    -105.625E+06    -66.0338E+06    -60.0081E+06    -21.8931E+06    -96.3283E-03     191.113E-03    -94.7842E-03     44.0405E-03    -96.6723E-03     191.021E-03    -94.8354E-03     43.7932E-03
            1248     5.72889E-03     127.276E-03    -89.2434E+06    -53.8359E+06    -39.5195E+06    -22.6673E+06    -97.5527E-03     192.658E-03    -95.1058E-03     50.0462E-03    -97.8635E-03     192.576E-03    -95.0959E-03     49.7718E-03
            1249     6.54517E-03     127.319E-03    -74.3569E+06    -41.9041E+06    -21.5546E+06    -22.9117E+06    -99.1649E-03     194.670E-03    -95.5050E-03     55.4274E-03    -99.4475E-03     194.602E-03    -95.4442E-03     55.1198E-03
            1250     7.36007E-03     127.366E-03    -61.7738E+06    -30.8266E+06    -6.26047E+06    -22.7092E+06    -101.195E-03     197.193E-03    -95.9988E-03     60.1563E-03    -101.457E-03     197.145E-03    -95.8958E-03     59.8095E-03
            1251     8.17321E-03     127.418E-03    -51.7315E+06    -20.2728E+06     6.50376E+06    -22.7413E+06    -103.529E-03     200.124E-03    -96.5947E-03     64.0011E-03    -103.782E-03     200.102E-03    -96.4577E-03     63.5983E-03
            1252     8.98443E-03     127.474E-03    -43.6048E+06    -11.8708E+06     16.6526E+06    -23.7111E+06    -106.039E-03     203.327E-03    -97.2878E-03     66.9209E-03    -106.286E-03     203.329E-03    -97.1241E-03     66.4346E-03
            1253     9.79370E-03     127.534E-03    -36.4535E+06    -4.57434E+06     24.8501E+06    -25.4378E+06    -108.654E-03     206.721E-03    -98.0666E-03     68.8752E-03    -108.899E-03     206.748E-03    -97.8829E-03     68.2822E-03
            1254     10.6008E-03     127.595E-03    -30.0415E+06    -681.517E+03     30.9424E+06    -27.0207E+06    -111.312E-03     210.232E-03    -98.9205E-03     69.6140E-03    -111.550E-03     210.272E-03    -98.7212E-03     68.9025E-03
            1255     11.4057E-03     127.658E-03    -25.1032E+06     1.75269E+06     35.1160E+06    -27.1415E+06    -113.833E-03     213.665E-03    -99.8318E-03     69.0090E-03    -114.069E-03     213.717E-03    -99.6224E-03     68.1827E-03
            1256     12.2085E-03     127.720E-03    -21.1123E+06     930.809E+03     37.4309E+06    -26.6251E+06    -116.020E-03     216.799E-03    -100.778E-03     67.0241E-03    -116.253E-03     216.851E-03    -100.562E-03     66.0713E-03
            1257     13.0103E-03     127.781E-03    -17.4669E+06     11.6472E+06     41.6519E+06    -25.4864E+06    -117.748E-03     219.477E-03    -101.729E-03     63.5272E-03    -117.998E-03     219.586E-03    -101.512E-03     62.4328E-03
            1258     13.8098E-03     127.839E-03    -13.2250E+06     5.77320E+06     39.9873E+06    -22.9405E+06    -119.172E-03     221.836E-03    -102.664E-03     57.7633E-03    -119.406E-03     221.927E-03    -102.453E-03     56.5132E-03
            1259     14.6091E-03     127.892E-03    -8.13246E+06     37.5528E+06     52.7925E+06    -16.3804E+06    -119.886E-03     223.469E-03    -103.583E-03     50.1700E-03    -120.173E-03     223.708E-03    -103.361E-03     48.7857E-03
            1260     15.4071E-03     127.937E-03    -4.17956E+06     75.4735E+06     78.6567E+06    -8.13933E+06    -120.148E-03     224.655E-03    -104.508E-03     36.9373E-03    -120.484E-03     225.017E-03    -104.218E-03     35.7008E-03
            1261     821.114E-06     128.277E-03    -170.643E+06    -115.503E+06    -167.698E+06    -7.75156E+06    -91.4655E-03     182.856E-03    -91.3907E-03     9.10200E-03    -91.9079E-03     182.769E-03    -91.8143E-03     9.02041E-03
            1262     1.64211E-03     128.287E-03    -164.580E+06    -105.416E+06    -153.789E+06    -13.6174E+06    -91.7105E-03     183.230E-03    -91.5190E-03     16.1700E-03    -92.1569E-03     183.163E-03    -91.8965E-03     16.0302E-03
            1263     2.46312E-03     128.302E-03    -156.109E+06    -93.1351E+06    -134.803E+06    -19.7997E+06    -92.1585E-03     183.863E-03    -91.7047E-03     23.6820E-03    -92.6069E-03     183.817E-03    -92.0174E-03     23.4758E-03
            1264     3.28340E-03     128.324E-03    -144.729E+06    -80.8310E+06    -113.135E+06    -25.5825E+06    -92.8565E-03     184.814E-03    -91.9578E-03     30.9538E-03    -93.2964E-03     184.781E-03    -92.1965E-03     30.6831E-03
            1265     4.10319E-03     128.351E-03    -131.404E+06    -68.1887E+06    -91.1520E+06    -30.5772E+06    -93.8113E-03     186.088E-03    -92.2767E-03     37.7808E-03    -94.2341E-03     186.066E-03    -92.4430E-03     37.4506E-03
            1266     4.92237E-03     128.385E-03    -116.949E+06    -56.9047E+06    -70.2517E+06     -34.243E+06    -95.0698E-03     187.736E-03    -92.6657E-03     44.2552E-03    -95.4669E-03     187.719E-03    -92.7649E-03     43.8739E-03
            1267     5.74049E-03     128.424E-03    -100.924E+06    -47.3450E+06    -50.0378E+06    -36.2957E+06    -96.6921E-03     189.830E-03    -93.1380E-03     50.2375E-03    -97.0531E-03     189.810E-03    -93.1732E-03     49.8160E-03
            1268     6.55724E-03     128.469E-03    -83.8030E+06    -38.1897E+06    -30.2231E+06    -36.1114E+06    -98.7437E-03     192.452E-03    -93.7081E-03     55.6795E-03    -99.0634E-03     192.426E-03    -93.6824E-03     55.2352E-03
            1269     7.37226E-03     128.519E-03    -66.7932E+06    -29.0386E+06    -11.6002E+06    -34.0376E+06    -101.106E-03     195.486E-03    -94.3803E-03     60.4643E-03    -101.384E-03     195.458E-03    -94.2993E-03     60.0088E-03
            1270     8.18543E-03     128.575E-03    -50.9724E+06    -18.6185E+06     5.31718E+06    -31.3003E+06    -103.618E-03     198.761E-03    -95.1433E-03     64.4924E-03    -103.863E-03     198.744E-03    -95.0159E-03     64.0208E-03
            1271     8.99660E-03     128.635E-03    -38.0800E+06    -9.01008E+06     19.3309E+06    -29.0394E+06    -106.314E-03     202.301E-03    -95.9868E-03     67.8003E-03    -106.537E-03     202.301E-03    -95.8219E-03     67.2926E-03
            1272     9.80549E-03     128.698E-03    -29.3351E+06    -965.040E+03     29.7616E+06    -27.4730E+06    -109.143E-03     206.046E-03    -96.9037E-03     70.2056E-03    -109.358E-03     206.068E-03    -96.7110E-03     69.6402E-03
            1273     10.6122E-03     128.764E-03    -24.5318E+06     2.58065E+06     36.4555E+06    -26.4206E+06    -111.969E-03     209.856E-03    -97.8869E-03     71.4561E-03    -112.187E-03     209.890E-03    -97.6728E-03     70.8129E-03
            1274     11.4166E-03     128.831E-03    -21.0461E+06     4.03953E+06     40.5906E+06    -26.2024E+06    -114.722E-03     213.643E-03    -98.9206E-03     71.3932E-03    -114.942E-03     213.685E-03    -98.6930E-03     70.6454E-03
            1275     12.2190E-03     128.898E-03    -17.0397E+06     3.86857E+06     43.4324E+06    -26.4745E+06    -117.318E-03     217.311E-03    -99.9925E-03     69.6660E-03    -117.535E-03     217.356E-03    -99.7563E-03     68.7880E-03
            1276     13.0189E-03     128.962E-03    -13.4285E+06     9.98946E+06     46.6797E+06    -24.7902E+06    -119.565E-03     220.647E-03    -101.082E-03     66.1565E-03    -119.792E-03     220.727E-03    -100.843E-03     65.1481E-03
            1277     13.8177E-03     129.024E-03    -12.0727E+06     3.15136E+06     44.1803E+06    -21.7602E+06    -121.368E-03     223.533E-03    -102.165E-03     60.4670E-03    -121.591E-03     223.596E-03    -101.931E-03     59.3077E-03
            1278     14.6141E-03     129.078E-03    -9.77021E+06     30.4815E+06     54.4793E+06    -18.2115E+06    -122.560E-03     225.798E-03    -103.238E-03     52.7487E-03    -122.843E-03     225.997E-03    -102.996E-03     51.3917E-03
            1279     15.4110E-03     129.126E-03    -3.83241E+06     60.7032E+06     76.8990E+06    -9.42677E+06    -123.203E-03     227.519E-03    -104.317E-03     38.9971E-03    -123.512E-03     227.808E-03    -104.015E-03     37.7570E-03
            1280     823.003E-06     129.413E-03    -141.488E+06    -95.0266E+06    -138.569E+06    -8.75137E+06    -89.6279E-03     179.096E-03    -89.4679E-03     8.39306E-03    -89.9965E-03     179.027E-03    -89.8178E-03     8.29593E-03
            1281     1.64585E-03     129.423E-03    -136.455E+06    -86.1268E+06    -125.590E+06    -15.6562E+06    -89.9615E-03     179.627E-03    -89.6657E-03     15.1162E-03    -90.3362E-03     179.576E-03    -89.9709E-03     14.9425E-03
            1282     2.46804E-03     129.439E-03    -128.489E+06    -74.4004E+06    -107.534E+06    -22.3714E+06    -90.6564E-03     180.580E-03    -89.9233E-03     22.1946E-03    -91.0338E-03     180.549E-03    -90.1668E-03     21.9452E-03
            1283     3.28985E-03     129.462E-03    -119.831E+06    -62.8767E+06    -88.7783E+06    -29.0635E+06    -91.5664E-03     181.833E-03    -90.2663E-03     29.0582E-03    -91.9439E-03     181.819E-03    -90.4453E-03     28.7306E-03
            1284     4.11094E-03     129.491E-03    -110.698E+06    -52.3937E+06    -71.2391E+06    -34.9692E+06    -92.8085E-03     183.493E-03    -90.6845E-03     35.6061E-03    -93.1805E-03     183.493E-03    -90.8042E-03     35.2048E-03
            1285     4.93072E-03     129.527E-03    -101.288E+06    -43.1898E+06    -54.9270E+06    -39.8639E+06    -94.4178E-03     185.610E-03    -91.1921E-03     41.8047E-03    -94.7798E-03     185.618E-03    -91.2573E-03     41.3368E-03
            1286     5.74920E-03     129.568E-03    -92.0922E+06    -36.6124E+06    -40.3808E+06    -43.6528E+06    -96.3522E-03     188.147E-03    -91.7953E-03     47.7194E-03    -96.6995E-03     188.155E-03    -91.8105E-03     47.1929E-03
            1287     6.56606E-03     129.617E-03    -82.1381E+06    -31.6781E+06    -26.7030E+06    -45.7076E+06    -98.5775E-03     191.071E-03    -92.4936E-03     53.3275E-03    -98.9036E-03     191.071E-03    -92.4620E-03     52.7577E-03
            1288     7.38103E-03     129.671E-03    -70.8428E+06    -25.8422E+06    -12.8906E+06    -45.9243E+06    -100.952E-03     194.229E-03    -93.2779E-03     58.3521E-03    -101.252E-03     194.225E-03    -93.2022E-03     57.7539E-03
            1289     8.19417E-03     129.730E-03    -57.8822E+06    -18.1763E+06     1.55539E+06    -44.1795E+06    -103.449E-03     197.585E-03    -94.1356E-03     62.8029E-03    -103.721E-03     197.583E-03    -94.0175E-03     62.1910E-03
            1290     9.00543E-03     129.794E-03    -43.7200E+06    -10.4916E+06     16.6806E+06    -39.9603E+06    -106.139E-03     201.203E-03    -95.0638E-03     66.6407E-03    -106.379E-03     201.203E-03    -94.9017E-03     66.0351E-03
            1291     9.81456E-03     129.862E-03    -30.5058E+06    -3.77819E+06     30.6087E+06    -33.8055E+06    -108.953E-03     205.008E-03    -96.0550E-03     69.6025E-03    -109.165E-03     205.010E-03    -95.8523E-03     69.0144E-03
            1292     10.6213E-03     129.933E-03    -19.9482E+06     1.51907E+06     41.5893E+06    -27.9878E+06    -111.833E-03     208.932E-03    -97.0985E-03     71.5632E-03    -112.025E-03     208.938E-03    -96.8638E-03     70.9725E-03
            1293     11.4259E-03     130.004E-03    -13.6831E+06     5.81328E+06     48.7032E+06    -24.7292E+06    -114.784E-03     212.971E-03    -98.1871E-03     72.2487E-03    -114.972E-03     212.990E-03    -97.9322E-03     71.6056E-03
            1294     12.2279E-03     130.076E-03    -11.8302E+06     5.85895E+06     51.5015E+06    -23.1490E+06    -117.798E-03     217.119E-03    -99.3215E-03     71.3392E-03    -117.993E-03     217.144E-03    -99.0553E-03     70.6004E-03
            1295     13.0275E-03     130.145E-03    -11.7396E+06     7.79529E+06     52.7760E+06    -21.2946E+06    -120.631E-03     221.126E-03    -100.494E-03     68.4477E-03    -120.845E-03     221.173E-03    -100.225E-03     67.5884E-03
            1296     13.8246E-03     130.209E-03    -9.31128E+06     3.05682E+06     51.3895E+06    -19.9424E+06    -123.082E-03     224.769E-03    -101.687E-03     62.8162E-03    -123.289E-03     224.806E-03    -101.421E-03     61.7892E-03
            1297     14.6209E-03     130.268E-03    -5.86662E+06     25.4409E+06     60.6059E+06    -17.1924E+06    -124.933E-03     227.826E-03    -102.893E-03     55.0473E-03    -125.189E-03     227.976E-03    -102.618E-03     53.7961E-03
            1298     15.4137E-03     130.319E-03    -4.36250E+06     45.5143E+06     75.9379E+06    -9.39613E+06    -126.318E-03     230.431E-03    -104.113E-03     41.2365E-03    -126.603E-03     230.642E-03    -103.793E-03     40.0420E-03
            1299     823.548E-06     130.545E-03    -95.4506E+06    -73.0051E+06    -92.1847E+06    -9.04730E+06    -89.1814E-03     178.269E-03    -89.0874E-03     6.82594E-03    -89.4191E-03     178.176E-03    -89.3040E-03     6.70992E-03
            1300     1.64700E-03     130.556E-03    -90.5996E+06    -64.9014E+06    -80.2233E+06    -16.3708E+06    -89.6386E-03     178.913E-03    -89.2747E-03     12.4085E-03    -89.8813E-03     178.837E-03    -89.4504E-03     12.2007E-03
            1301     2.47000E-03     130.574E-03    -83.7666E+06    -54.8255E+06    -64.2712E+06    -23.4111E+06    -90.4090E-03     179.980E-03    -89.5710E-03     18.2429E-03    -90.6553E-03     179.921E-03    -89.6914E-03     17.9430E-03
            1302     3.29214E-03     130.598E-03    -75.8216E+06    -44.4866E+06    -47.0064E+06    -29.1604E+06    -91.4648E-03     181.431E-03    -89.9658E-03     23.8911E-03    -91.7116E-03     181.387E-03    -90.0264E-03     23.5133E-03
            1303     4.11322E-03     130.629E-03    -68.2380E+06    -35.7472E+06    -31.3308E+06    -34.1707E+06    -92.8437E-03     183.293E-03    -90.4491E-03     29.5467E-03    -93.0886E-03     183.259E-03    -90.4549E-03     29.0977E-03
            1304     4.93320E-03     130.667E-03    -61.5702E+06    -28.6042E+06    -18.3947E+06    -38.2281E+06    -94.5505E-03     185.570E-03    -91.0200E-03     35.0385E-03    -94.7919E-03     185.545E-03    -90.9812E-03     34.5292E-03
            1305     5.75161E-03     130.712E-03    -56.3299E+06    -24.0341E+06    -8.46421E+06    -41.1109E+06    -96.4641E-03     188.138E-03    -91.6734E-03     40.5113E-03    -96.7014E-03     188.114E-03    -91.5992E-03     39.9568E-03
            1306     6.56832E-03     130.763E-03    -53.0088E+06    -21.1401E+06    -1.26691E+06    -43.5807E+06    -98.4426E-03     190.833E-03    -92.3905E-03     46.0351E-03    -98.6792E-03     190.810E-03    -92.2893E-03     45.4407E-03
            1307     7.38355E-03     130.821E-03    -50.6441E+06    -17.9095E+06     5.15200E+06    -45.7974E+06    -100.511E-03     193.670E-03    -93.1590E-03     51.3253E-03    -100.752E-03     193.652E-03    -93.0339E-03     50.6934E-03
            1308     8.19709E-03     130.884E-03    -48.1659E+06    -13.8393E+06     12.1883E+06    -46.7379E+06    -102.784E-03     196.765E-03    -93.9806E-03     56.3980E-03    -103.030E-03     196.755E-03    -93.8297E-03     55.7418E-03
            1309     9.00862E-03     130.952E-03    -44.4572E+06    -11.3606E+06     19.9500E+06    -45.2200E+06    -105.204E-03     200.063E-03    -94.8584E-03     61.0608E-03    -105.449E-03     200.051E-03    -94.6777E-03     60.4054E-03
            1310     9.81822E-03     131.024E-03    -38.0556E+06    -7.90654E+06     29.5572E+06    -41.4326E+06    -107.750E-03     203.540E-03    -95.7901E-03     65.0612E-03    -107.986E-03     203.527E-03    -95.5756E-03     64.4243E-03
            1311     10.6260E-03     131.099E-03    -28.6111E+06    -3.75520E+06     40.6696E+06    -35.9506E+06    -110.552E-03     207.329E-03    -96.7771E-03     68.2060E-03    -110.768E-03     207.312E-03    -96.5268E-03     67.5937E-03
            1312     11.4313E-03     131.176E-03    -18.5322E+06     319.414E+03     50.9220E+06    -28.0208E+06    -113.609E-03     211.430E-03    -97.8209E-03     70.1541E-03    -113.803E-03     211.412E-03    -97.5399E-03     69.5758E-03
            1313     12.2342E-03     131.252E-03    -10.9215E+06     3.59474E+06     57.9925E+06    -21.2200E+06    -116.870E-03     215.792E-03    -98.9218E-03     70.6485E-03    -117.052E-03     215.780E-03    -98.6213E-03     70.0600E-03
            1314     13.0343E-03     131.327E-03    -5.92989E+06     6.31841E+06     61.4157E+06    -17.4497E+06    -120.317E-03     220.399E-03    -100.082E-03     69.1079E-03    -120.496E-03     220.402E-03    -99.7754E-03     68.4372E-03
            1315     13.8316E-03     131.397E-03    -3.82657E+06     6.33191E+06     60.9348E+06    -17.6756E+06    -123.841E-03     225.146E-03    -101.304E-03     64.7821E-03    -124.024E-03     225.161E-03    -101.003E-03     63.9317E-03
            1316     14.6247E-03     131.460E-03    -2.29220E+06     17.9901E+06     66.0679E+06    -15.3904E+06    -126.867E-03     229.463E-03    -102.596E-03     57.2405E-03    -127.087E-03     229.548E-03    -102.288E-03     56.1538E-03
            1317     15.4186E-03     131.514E-03     498.445E+03     30.0877E+06     76.5587E+06    -5.91852E+06    -129.029E-03     232.960E-03    -103.931E-03     43.2505E-03    -129.261E-03     233.079E-03    -103.593E-03     42.1754E-03
            1318     822.488E-06     131.679E-03    -50.7024E+06    -50.2218E+06    -47.9793E+06    -9.47385E+06    -91.1419E-03     182.107E-03    -90.9653E-03     4.43644E-03    -91.2536E-03     181.999E-03    -91.0588E-03     4.29781E-03
            1319     1.64439E-03     131.691E-03    -47.2037E+06    -43.6876E+06    -37.6774E+06    -16.4391E+06    -91.6122E-03     182.829E-03    -91.2163E-03     7.81990E-03    -91.7313E-03     182.733E-03    -91.2729E-03     7.57630E-03
            1320     2.46593E-03     131.709E-03     -42.043E+06    -35.5130E+06    -23.3490E+06    -22.6505E+06    -92.2606E-03     183.789E-03    -91.5288E-03     11.4206E-03    -92.3871E-03     183.707E-03    -91.5331E-03     11.0773E-03
            1321     3.28673E-03     131.735E-03    -36.3658E+06    -28.1086E+06    -8.82555E+06    -27.7222E+06    -93.2117E-03     185.125E-03    -91.9138E-03     15.1109E-03    -93.3426E-03     185.052E-03    -91.8644E-03     14.6811E-03
            1322     4.10672E-03     131.768E-03    -31.0792E+06    -21.4844E+06     3.94667E+06    -31.0293E+06    -94.3875E-03     186.761E-03    -92.3736E-03     18.9724E-03    -94.5214E-03     186.696E-03    -92.2777E-03     18.4809E-03
            1323     4.92540E-03     131.809E-03    -26.9704E+06    -16.4186E+06     14.1406E+06    -33.1847E+06    -95.7228E-03     188.619E-03    -92.8962E-03     23.0697E-03    -95.8596E-03     188.560E-03    -92.7626E-03     22.5346E-03
            1324     5.74281E-03     131.856E-03    -24.0523E+06    -13.9123E+06     21.7391E+06    -34.5452E+06    -97.1145E-03     190.580E-03    -93.4653E-03     27.3461E-03    -97.2528E-03     190.520E-03    -93.3016E-03     26.7815E-03
            1325     6.55925E-03     131.910E-03    -22.2944E+06    -11.4774E+06     27.9662E+06    -35.3147E+06    -98.4542E-03     192.515E-03    -94.0608E-03     31.9884E-03    -98.5976E-03     192.457E-03    -93.8720E-03     31.4082E-03
            1326     7.37455E-03     131.970E-03    -21.8022E+06    -8.67248E+06     33.2112E+06    -36.1706E+06    -99.8757E-03     194.547E-03    -94.6715E-03     36.8794E-03    -100.029E-03     194.496E-03    -94.4613E-03     36.2896E-03
            1327     8.18854E-03     132.036E-03    -22.8036E+06    -7.31942E+06     36.8336E+06    -36.4945E+06    -101.445E-03     196.745E-03    -95.2998E-03     42.0457E-03    -101.612E-03     196.698E-03    -95.0719E-03     41.4585E-03
            1328     9.00123E-03     132.108E-03    -25.4377E+06    -7.25858E+06     38.7190E+06    -36.4234E+06    -103.192E-03     199.142E-03    -95.9504E-03     47.3315E-03    -103.375E-03     199.098E-03    -95.7094E-03     46.7540E-03
            1329     9.81256E-03     132.183E-03    -28.4245E+06    -6.45671E+06     40.9681E+06    -36.3022E+06    -105.226E-03     201.865E-03    -96.6390E-03     52.4982E-03    -105.429E-03     201.826E-03    -96.3835E-03     51.9296E-03
            1330     10.6219E-03     132.263E-03    -30.0818E+06    -5.36954E+06     45.0588E+06    -35.2789E+06    -107.614E-03     204.999E-03    -97.3855E-03     57.2780E-03    -107.834E-03     204.963E-03    -97.1088E-03     56.7224E-03
            1331     11.4293E-03     132.344E-03    -27.9120E+06    -7.80352E+06     49.4709E+06    -31.6337E+06    -110.441E-03     208.641E-03    -98.2003E-03     61.2937E-03    -110.655E-03     208.586E-03    -97.9011E-03     60.7632E-03
            1332     12.2341E-03     132.426E-03    -21.7970E+06    -3.27243E+06     56.6203E+06    -24.8325E+06    -113.777E-03     212.875E-03    -99.0985E-03     64.1727E-03    -113.984E-03     212.830E-03    -98.7790E-03     63.6771E-03
            1333     13.0362E-03     132.506E-03    -14.9539E+06     2.44901E+06     64.1140E+06    -19.3723E+06    -117.718E-03     217.821E-03    -100.103E-03     65.2035E-03    -117.919E-03     217.792E-03    -99.7642E-03     64.6833E-03
            1334     13.8347E-03     132.583E-03    -8.96677E+06     9.25692E+06     68.6438E+06    -16.2213E+06    -122.341E-03     223.564E-03    -101.224E-03     63.4384E-03    -122.542E-03     223.569E-03    -100.881E-03     62.8054E-03
            1335     14.6303E-03     132.653E-03    -6.93701E+06     9.64925E+06     68.2338E+06    -11.9624E+06    -126.972E-03     229.444E-03    -102.472E-03     57.6454E-03    -127.184E-03     229.468E-03    -102.134E-03     56.8082E-03
            1336     15.4186E-03     132.712E-03    -6.23144E+06     14.4154E+06     70.6993E+06    -4.35101E+06    -130.118E-03     233.934E-03    -103.816E-03     44.8654E-03    -130.338E-03     233.979E-03    -103.474E-03     43.9651E-03
            1337     818.348E-06     132.820E-03    -10.2289E+06    -28.1484E+06    -7.86622E+06    -8.15407E+06    -96.3448E-03     192.510E-03    -96.1654E-03     845.101E-06    -96.3458E-03     192.394E-03    -96.1491E-03     708.038E-06
            1338     1.63640E-03     132.833E-03    -8.99848E+06    -23.9504E+06     412.278E+03    -14.4397E+06    -96.5582E-03     192.953E-03    -96.3947E-03     1.31508E-03    -96.5713E-03     192.844E-03    -96.3448E-03     1.06408E-03
            1339     2.45391E-03     132.852E-03    -6.01798E+06    -18.6639E+06     11.6184E+06    -19.4542E+06    -96.9606E-03     193.588E-03    -96.6277E-03     2.08028E-03    -96.9831E-03     193.486E-03    -96.5338E-03     1.73070E-03
            1340     3.27112E-03     132.879E-03    -3.51898E+06    -14.4908E+06     22.4401E+06    -22.6599E+06    -97.4936E-03     194.409E-03    -96.9152E-03     3.08351E-03    -97.5257E-03     194.308E-03    -96.7769E-03     2.66032E-03
            1341     4.08735E-03     132.914E-03    -1.68392E+06    -10.6791E+06     31.8449E+06    -24.6353E+06    -98.0746E-03     195.317E-03    -97.2425E-03     4.31208E-03    -98.1172E-03     195.220E-03    -97.0654E-03     3.83545E-03
            1342     4.90323E-03     132.955E-03    -326.081E+03    -7.78768E+06     40.0514E+06    -25.3907E+06    -98.5652E-03     196.153E-03    -97.5874E-03     6.07818E-03    -98.6179E-03     196.058E-03    -97.3754E-03     5.57092E-03
            1343     5.71855E-03     133.004E-03    -19.4977E+03    -6.85271E+06     46.8328E+06    -25.3998E+06    -99.0188E-03     196.950E-03    -97.9313E-03     8.23902E-03    -99.0820E-03     196.851E-03    -97.6872E-03     7.71585E-03
            1344     6.53327E-03     133.059E-03    -235.984E+03    -5.18024E+06     52.5809E+06    -25.2688E+06    -99.4460E-03     197.711E-03    -98.2647E-03     10.8863E-03    -99.5220E-03     197.613E-03    -97.9939E-03     10.3566E-03
            1345     7.34761E-03     133.121E-03    -1.33034E+06    -3.35085E+06     56.8420E+06    -24.4677E+06    -99.7969E-03     198.376E-03    -98.5794E-03     14.1378E-03    -99.8881E-03     198.285E-03    -98.2884E-03     13.6195E-03
            1346     8.16161E-03     133.189E-03    -3.21411E+06    -2.76815E+06     59.5582E+06    -23.3689E+06    -100.197E-03     199.072E-03    -98.8749E-03     17.9459E-03    -100.303E-03     198.984E-03    -98.5684E-03     17.4502E-03
            1347     8.97541E-03     133.262E-03    -5.22282E+06    -2.72975E+06     61.4456E+06    -22.5209E+06    -100.817E-03     199.981E-03    -99.1634E-03     22.2094E-03    -100.937E-03     199.894E-03    -98.8446E-03     21.7388E-03
            1348     9.78834E-03     133.340E-03    -7.78060E+06    -2.38270E+06     62.5609E+06    -21.8777E+06    -101.712E-03     201.173E-03    -99.4607E-03     26.8781E-03    -101.847E-03     201.090E-03    -99.1331E-03     26.4348E-03
            1349     10.6006E-03     133.422E-03    -11.1223E+06    -2.35266E+06     62.5345E+06    -21.5030E+06    -102.931E-03     202.711E-03    -99.7803E-03     32.0579E-03    -103.082E-03     202.634E-03    -99.4481E-03     31.6410E-03
            1350     11.4114E-03     133.507E-03    -15.5627E+06    -6.65408E+06     60.4339E+06    -21.9326E+06    -104.729E-03     204.873E-03    -100.144E-03     37.6924E-03    -104.893E-03     204.784E-03    -99.8095E-03     37.2878E-03
            1351     12.2206E-03     133.594E-03    -18.5903E+06    -7.99257E+06     59.6334E+06    -21.3547E+06    -107.340E-03     207.926E-03    -100.585E-03     43.5078E-03    -107.518E-03     207.837E-03    -100.249E-03     43.1164E-03
            1352     13.0268E-03     133.680E-03    -17.4970E+06    -464.962E+03     64.7824E+06    -18.5331E+06    -111.068E-03     212.226E-03    -101.158E-03     48.9698E-03    -111.262E-03     212.170E-03    -100.808E-03     48.5931E-03
            1353     13.8294E-03     133.765E-03    -14.3110E+06     8.05736E+06     69.2546E+06    -16.6310E+06    -115.798E-03     217.681E-03    -101.883E-03     53.0767E-03    -116.001E-03     217.662E-03    -101.527E-03     52.6573E-03
            1354     14.6257E-03     133.844E-03    -8.36758E+06    -713.356E+03     66.3679E+06    -11.1874E+06    -121.563E-03     224.347E-03    -102.784E-03     54.1125E-03    -121.735E-03     224.295E-03    -102.439E-03     53.5813E-03
            1355     15.4212E-03     133.910E-03    -1.90096E+06     4.83183E+06     65.5303E+06    -4.08885E+06    -126.999E-03     230.866E-03    -103.867E-03     45.4976E-03    -127.152E-03     230.840E-03    -103.544E-03     44.8946E-03
            1356     810.742E-06     133.978E-03     24.2085E+06    -11.0976E+06     26.7386E+06    -5.18763E+06    -105.342E-03     210.529E-03    -105.186E-03    -3.30800E-03    -105.249E-03     210.394E-03    -105.071E-03    -3.41916E-03
            1357     1.62177E-03     133.990E-03     23.7689E+06    -8.69875E+06     32.2684E+06    -8.91309E+06    -104.994E-03     210.317E-03    -105.322E-03    -6.20006E-03    -104.914E-03     210.186E-03    -105.183E-03    -6.38939E-03
            1358     2.43278E-03     134.010E-03     22.5117E+06    -6.91225E+06     39.1605E+06    -11.6518E+06    -104.922E-03     210.285E-03    -105.363E-03    -8.77136E-03    -104.860E-03     210.156E-03    -105.190E-03    -9.02496E-03
            1359     3.24323E-03     134.037E-03     20.9870E+06    -5.40767E+06     46.6965E+06    -13.1057E+06    -104.789E-03     210.241E-03    -105.452E-03    -11.0130E-03    -104.746E-03     210.110E-03    -105.241E-03    -11.3113E-03
            1360     4.05395E-03     134.072E-03     19.3313E+06    -3.37755E+06     54.3788E+06    -13.8104E+06    -104.480E-03     210.027E-03    -105.547E-03    -12.9314E-03    -104.459E-03     209.897E-03    -105.298E-03    -13.2604E-03
            1361     4.86432E-03     134.114E-03     17.3599E+06    -2.74440E+06     61.5647E+06    -13.7289E+06    -103.983E-03     209.606E-03    -105.622E-03    -14.4303E-03    -103.983E-03     209.472E-03    -105.336E-03    -14.7745E-03
            1362     5.67515E-03     134.163E-03     15.6629E+06    -2.51734E+06     67.8746E+06    -13.2866E+06    -103.341E-03     209.002E-03    -105.661E-03    -15.4059E-03    -103.359E-03     208.863E-03    -105.341E-03    -15.7551E-03
            1363     6.48611E-03     134.218E-03     13.9148E+06    -1.72213E+06     72.7296E+06    -12.7788E+06    -102.624E-03     208.282E-03    -105.659E-03    -15.9284E-03    -102.657E-03     208.144E-03    -105.313E-03    -16.2774E-03
            1364     7.29738E-03     134.279E-03     12.4050E+06    -1.17818E+06     76.4759E+06    -11.8783E+06    -101.803E-03     207.421E-03    -105.618E-03    -15.9336E-03    -101.850E-03     207.282E-03    -105.252E-03    -16.2732E-03
            1365     8.10931E-03     134.346E-03     11.2293E+06    -873.729E+03     79.4796E+06    -10.7403E+06    -100.928E-03     206.469E-03    -105.542E-03    -15.4380E-03    -100.986E-03     206.330E-03    -105.159E-03    -15.7609E-03
            1366     8.92138E-03     134.419E-03     9.97048E+06    -691.538E+03     81.4394E+06    -9.84461E+06    -100.018E-03     205.447E-03    -105.429E-03    -14.3968E-03    -100.085E-03     205.308E-03    -105.035E-03    -14.7039E-03
            1367     9.73420E-03     134.497E-03     8.62358E+06    -621.049E+03     81.8944E+06    -8.85351E+06    -99.1201E-03     204.398E-03    -105.278E-03    -12.6669E-03    -99.1950E-03     204.263E-03    -104.880E-03    -12.9542E-03
            1368     10.5475E-03     134.579E-03     7.11152E+06    -293.568E+03     81.1467E+06    -7.80835E+06    -98.4102E-03     203.508E-03    -105.098E-03    -10.1564E-03    -98.4921E-03     203.378E-03    -104.702E-03    -10.4201E-03
            1369     11.3616E-03     134.665E-03     5.74200E+06    -2.49477E+06     78.9761E+06    -7.68331E+06    -98.1152E-03     203.023E-03    -104.907E-03    -6.59845E-03    -98.1976E-03     202.888E-03    -104.517E-03    -6.84707E-03
            1370     12.1757E-03     134.753E-03     4.38190E+06    -3.95950E+06     75.6890E+06    -9.53031E+06    -98.5736E-03     203.307E-03    -104.733E-03    -1.85033E-03    -98.6558E-03     203.173E-03    -104.356E-03    -2.10673E-03
            1371     12.9896E-03     134.844E-03     2.41824E+06    -1.89550E+06     73.0268E+06    -10.3193E+06    -99.7574E-03     204.368E-03    -104.611E-03     4.37021E-03    -99.8483E-03     204.252E-03    -104.246E-03     4.11711E-03
            1372     13.8012E-03     134.936E-03    -775.788E+03     6.85079E+06     71.1893E+06    -8.36791E+06    -101.716E-03     206.273E-03    -104.557E-03     11.9506E-03    -101.833E-03     206.209E-03    -104.210E-03     11.7204E-03
            1373     14.6133E-03     135.021E-03    -2.73878E+06    -5.44229E+06     59.7221E+06    -7.17965E+06    -105.164E-03     209.754E-03    -104.590E-03     21.5256E-03    -105.263E-03     209.656E-03    -104.279E-03     21.2417E-03
            1374     15.4138E-03     135.103E-03     2.29924E+06    -3.42390E+06     48.4341E+06    -4.94624E+06    -109.384E-03     214.114E-03    -104.730E-03     27.0010E-03    -109.450E-03     214.041E-03    -104.486E-03     26.6773E-03
            1375     15.3882E-03     67.0221E-03    -4.74115E+06     107.282E+06     92.7543E+06    -152.629E+03    -104.797E-03     210.549E-03    -105.752E-03     24.0810E-03    -105.196E-03     211.043E-03    -105.436E-03     22.9486E-03
            1376     14.5786E-03     66.9875E-03    -9.81048E+06     104.700E+06     77.7625E+06     418.944E+03    -105.089E-03     210.795E-03    -105.707E-03     34.7407E-03    -105.528E-03     211.346E-03    -105.455E-03     33.4127E-03
            1377     13.7687E-03     66.9456E-03    -14.3782E+06     94.6320E+06     68.1525E+06     907.204E+03    -105.240E-03     210.936E-03    -105.696E-03     40.9185E-03    -105.679E-03     211.462E-03    -105.471E-03     39.6513E-03
            1378     12.9584E-03     66.8973E-03    -19.9395E+06     68.9704E+06     62.2626E+06    -138.438E+03    -105.349E-03     211.080E-03    -105.731E-03     46.1013E-03    -105.773E-03     211.497E-03    -105.491E-03     44.8727E-03
            1379     12.1481E-03     66.8444E-03    -25.7801E+06     32.6680E+06     51.9146E+06    -759.268E+03    -105.543E-03     211.305E-03    -105.761E-03     49.0066E-03    -105.925E-03     211.561E-03    -105.512E-03     47.8337E-03
            1380     11.3381E-03     66.7891E-03     -30.603E+06     5.55971E+06     45.0404E+06     55.4313E+03    -105.713E-03     211.504E-03    -105.791E-03     50.2543E-03    -106.061E-03     211.633E-03    -105.530E-03     49.1656E-03
            1381     10.5281E-03     66.7329E-03    -35.7406E+06    -18.1327E+06     36.8803E+06     378.993E+03    -105.773E-03     211.582E-03    -105.809E-03     50.4357E-03    -106.090E-03     211.600E-03    -105.546E-03     49.4283E-03
            1382     9.71799E-03     66.6771E-03    -41.4923E+06    -40.6666E+06     28.8677E+06     344.414E+03    -105.803E-03     211.631E-03    -105.827E-03     49.9259E-03    -106.093E-03     211.545E-03    -105.564E-03     48.9938E-03
            1383     8.90804E-03     66.6220E-03    -47.3994E+06    -58.5542E+06     21.0088E+06     296.613E+03    -105.816E-03     211.657E-03    -105.842E-03     48.7907E-03    -106.087E-03     211.491E-03    -105.583E-03     47.9311E-03
            1384     8.09803E-03     66.5688E-03    -53.8732E+06    -76.5486E+06     12.2265E+06     68.5635E+03    -105.812E-03     211.665E-03    -105.853E-03     47.0402E-03    -106.065E-03     211.420E-03    -105.603E-03     46.2496E-03
            1385     7.28811E-03     66.5176E-03    -60.8276E+06    -93.4148E+06     2.61638E+06     78.7903E+03    -105.793E-03     211.654E-03    -105.861E-03     44.7404E-03    -106.031E-03     211.337E-03    -105.624E-03     44.0222E-03
            1386     6.47812E-03     66.4693E-03    -68.1176E+06    -110.594E+06    -8.23599E+06     106.690E+03    -105.757E-03     211.623E-03    -105.866E-03     41.8267E-03    -105.980E-03     211.235E-03    -105.648E-03     41.1811E-03
            1387     5.66824E-03     66.4245E-03    -75.7493E+06    -127.777E+06    -20.5033E+06    -142.280E+03    -105.733E-03     211.599E-03    -105.865E-03     38.3539E-03    -105.942E-03     211.144E-03    -105.673E-03     37.7782E-03
            1388     4.85832E-03     66.3839E-03    -83.7926E+06    -146.142E+06    -34.3651E+06    -84.3435E+03    -105.724E-03     211.582E-03    -105.859E-03     34.3016E-03    -105.916E-03     211.058E-03    -105.697E-03     33.8017E-03
            1389     4.04859E-03     66.3480E-03    -91.9759E+06    -164.847E+06    -50.4563E+06     141.030E+03    -105.696E-03     211.537E-03    -105.841E-03     29.6962E-03    -105.869E-03     210.945E-03    -105.721E-03     29.2773E-03
            1390     3.23876E-03     66.3177E-03    -100.010E+06    -183.929E+06    -68.3799E+06    -43.6640E+03    -105.687E-03     211.501E-03    -105.814E-03     24.5470E-03    -105.838E-03     210.842E-03    -105.744E-03     24.2064E-03
            1391     2.42908E-03     66.2935E-03    -107.398E+06    -203.729E+06    -86.3820E+06    -76.2095E+03    -105.691E-03     211.476E-03    -105.785E-03     18.9247E-03    -105.817E-03     210.748E-03    -105.766E-03     18.6662E-03
            1392     1.61928E-03     66.2755E-03    -113.470E+06    -220.506E+06    -102.657E+06     15.7336E+03    -105.708E-03     211.461E-03    -105.754E-03     13.0149E-03    -105.811E-03     210.677E-03    -105.783E-03     12.8411E-03
            1393     809.677E-06     66.2642E-03    -117.575E+06    -232.183E+06    -114.429E+06     99.5695E+03    -105.712E-03     211.445E-03    -105.732E-03     7.21881E-03    -105.799E-03     210.622E-03    -105.797E-03     7.12422E-03
            1394     15.3895E-03     65.8510E-03    -5.11975E+06     107.174E+06     92.4436E+06     76.2534E+03    -104.892E-03     210.630E-03    -105.738E-03     24.0662E-03    -105.292E-03     211.124E-03    -105.424E-03     22.9365E-03
            1395     14.5790E-03     65.8163E-03    -10.4043E+06     104.409E+06     78.1990E+06     117.996E+03    -104.915E-03     210.614E-03    -105.699E-03     35.0694E-03    -105.357E-03     211.164E-03    -105.445E-03     33.7453E-03
            1396     13.7685E-03     65.7749E-03    -14.7408E+06     94.4140E+06     68.4963E+06     8.53102E+03    -105.111E-03     210.807E-03    -105.696E-03     41.2672E-03    -105.552E-03     211.333E-03    -105.470E-03     39.9936E-03
            1397     12.9581E-03     65.7264E-03    -18.9654E+06     70.1638E+06     62.8484E+06     560.749E+03    -105.394E-03     211.126E-03    -105.731E-03     46.1092E-03    -105.816E-03     211.547E-03    -105.491E-03     44.8899E-03
            1398     12.1482E-03     65.6734E-03    -24.3645E+06     33.1168E+06     52.5192E+06     75.1340E+03    -105.630E-03     211.388E-03    -105.758E-03     48.9223E-03    -106.006E-03     211.643E-03    -105.508E-03     47.7590E-03
            1399     11.3382E-03     65.6181E-03    -30.3718E+06     4.26866E+06     44.6277E+06    -363.642E+03    -105.699E-03     211.484E-03    -105.785E-03     50.2847E-03    -106.044E-03     211.606E-03    -105.524E-03     49.1910E-03
            1400     10.5281E-03     65.5622E-03    -35.7600E+06    -18.1877E+06     36.9034E+06     206.448E+03    -105.740E-03     211.545E-03    -105.804E-03     50.4946E-03    -106.057E-03     211.563E-03    -105.542E-03     49.4856E-03
            1401     9.71810E-03     65.5063E-03    -41.2198E+06    -40.4733E+06     28.9864E+06     215.418E+03    -105.770E-03     211.595E-03    -105.825E-03     49.9422E-03    -106.059E-03     211.510E-03    -105.562E-03     49.0089E-03
            1402     8.90797E-03     65.4513E-03    -47.1853E+06    -58.4904E+06     21.1037E+06     138.949E+03    -105.784E-03     211.626E-03    -105.842E-03     48.7693E-03    -106.054E-03     211.460E-03    -105.584E-03     47.9086E-03
            1403     8.09801E-03     65.3980E-03    -53.4974E+06    -76.4236E+06     12.3765E+06     222.613E+03    -105.816E-03     211.671E-03    -105.855E-03     47.0192E-03    -106.067E-03     211.426E-03    -105.605E-03     46.2312E-03
            1404     7.28804E-03     65.3469E-03    -60.3301E+06    -93.5915E+06     2.84898E+06     234.868E+03    -105.811E-03     211.674E-03    -105.863E-03     44.7103E-03    -106.047E-03     211.356E-03    -105.626E-03     43.9939E-03
            1405     6.47817E-03     65.2985E-03    -67.6654E+06    -110.259E+06    -7.83133E+06     121.001E+03    -105.768E-03     211.634E-03    -105.866E-03     41.8162E-03    -105.990E-03     211.247E-03    -105.648E-03     41.1702E-03
            1406     5.66822E-03     65.2539E-03    -75.4551E+06    -127.618E+06    -20.1222E+06     51.3874E+03    -105.735E-03     211.601E-03    -105.866E-03     38.3777E-03    -105.943E-03     211.146E-03    -105.672E-03     37.8045E-03
            1407     4.85841E-03     65.2131E-03    -83.5397E+06    -146.334E+06    -34.2809E+06     5.14176E+03    -105.703E-03     211.563E-03    -105.860E-03     34.3120E-03    -105.893E-03     211.036E-03    -105.698E-03     33.8141E-03
            1408     4.04849E-03     65.1775E-03    -91.8998E+06    -164.885E+06    -50.3973E+06    -117.760E+03    -105.676E-03     211.523E-03    -105.847E-03     29.7061E-03    -105.848E-03     210.930E-03    -105.727E-03     29.2847E-03
            1409     3.23868E-03     65.1470E-03    -100.054E+06    -183.903E+06    -68.1784E+06    -36.8129E+03    -105.687E-03     211.512E-03    -105.825E-03     24.5653E-03    -105.838E-03     210.853E-03    -105.754E-03     24.2252E-03
            1410     2.42895E-03     65.1228E-03    -107.641E+06    -203.706E+06    -86.5692E+06        -397.023    -105.718E-03     211.510E-03    -105.792E-03     18.9533E-03    -105.845E-03     210.783E-03    -105.773E-03     18.6951E-03
            1411     1.61941E-03     65.1049E-03    -114.063E+06    -220.549E+06    -103.296E+06    -133.175E+03    -105.712E-03     211.466E-03    -105.754E-03     13.0738E-03    -105.817E-03     210.683E-03    -105.786E-03     12.8967E-03
            1412     809.613E-06     65.0938E-03    -118.123E+06    -232.238E+06    -115.202E+06    -117.104E+03    -105.632E-03     211.444E-03    -105.813E-03     7.17100E-03    -105.720E-03     210.623E-03    -105.881E-03     7.07370E-03
            1413     15.3890E-03     64.6807E-03    -4.93940E+06     107.383E+06     92.6707E+06     376.823E+03    -104.890E-03     210.632E-03    -105.743E-03     24.3754E-03    -105.290E-03     211.128E-03    -105.428E-03     23.2510E-03
            1414     14.5785E-03     64.6457E-03    -9.69530E+06     104.525E+06     78.4701E+06     197.242E+03    -104.969E-03     210.671E-03    -105.702E-03     35.2384E-03    -105.409E-03     211.220E-03    -105.448E-03     33.9103E-03
            1415     13.7683E-03     64.6041E-03    -15.1564E+06     93.8633E+06     67.7536E+06    -250.124E+03    -105.201E-03     210.894E-03    -105.693E-03     41.0167E-03    -105.642E-03     211.417E-03    -105.468E-03     39.7389E-03
            1416     12.9584E-03     64.5552E-03    -20.6999E+06     69.4027E+06     61.7596E+06    -95.9632E+03    -105.416E-03     211.140E-03    -105.724E-03     45.9485E-03    -105.844E-03     211.562E-03    -105.486E-03     44.7211E-03
            1417     12.1483E-03     64.5025E-03    -25.3071E+06     33.9267E+06     52.3924E+06     36.8906E+03    -105.561E-03     211.314E-03    -105.753E-03     48.8528E-03    -105.943E-03     211.574E-03    -105.503E-03     47.6907E-03
            1418     11.3381E-03     64.4474E-03    -30.0803E+06     4.33531E+06     44.8538E+06     43.0592E+03    -105.643E-03     211.427E-03    -105.785E-03     50.2999E-03    -105.986E-03     211.549E-03    -105.523E-03     49.2129E-03
            1419     10.5281E-03     64.3913E-03    -35.6800E+06    -18.7750E+06     36.7859E+06    -165.271E+03    -105.730E-03     211.537E-03    -105.807E-03     50.5453E-03    -106.046E-03     211.552E-03    -105.544E-03     49.5323E-03
            1420     9.71799E-03     64.3356E-03    -41.2822E+06    -40.2696E+06     29.0602E+06     61.1068E+03    -105.787E-03     211.614E-03    -105.827E-03     49.9484E-03    -106.077E-03     211.530E-03    -105.564E-03     49.0134E-03
            1421     8.90805E-03     64.2806E-03    -47.3349E+06    -58.6793E+06     20.9925E+06     93.7008E+03    -105.797E-03     211.640E-03    -105.843E-03     48.7797E-03    -106.067E-03     211.473E-03    -105.584E-03     47.9184E-03
            1422     8.09799E-03     64.2273E-03    -53.6843E+06    -76.5089E+06     12.3376E+06     229.315E+03    -105.806E-03     211.662E-03    -105.856E-03     47.0190E-03    -106.058E-03     211.417E-03    -105.606E-03     46.2313E-03
            1423     7.28809E-03     64.1760E-03    -60.2953E+06    -93.4672E+06     2.92807E+06     229.743E+03    -105.792E-03     211.658E-03    -105.865E-03     44.6821E-03    -106.028E-03     211.339E-03    -105.628E-03     43.9658E-03
            1424     6.47809E-03     64.1280E-03    -67.5852E+06    -110.100E+06    -7.68183E+06     129.342E+03    -105.766E-03     211.636E-03    -105.871E-03     41.8340E-03    -105.988E-03     211.250E-03    -105.651E-03     41.1886E-03
            1425     5.66824E-03     64.0830E-03    -75.2904E+06    -127.679E+06    -19.9304E+06     153.946E+03    -105.728E-03     211.600E-03    -105.872E-03     38.3996E-03    -105.935E-03     211.144E-03    -105.677E-03     37.8283E-03
            1426     4.85829E-03     64.0426E-03    -83.5444E+06    -146.131E+06    -34.2344E+06     160.003E+03    -105.699E-03     211.566E-03    -105.867E-03     34.3335E-03    -105.890E-03     211.040E-03    -105.705E-03     33.8380E-03
            1427     4.04848E-03     64.0067E-03    -91.9512E+06    -164.709E+06    -50.4420E+06     25.9045E+03    -105.700E-03     211.552E-03    -105.853E-03     29.6828E-03    -105.872E-03     210.960E-03    -105.733E-03     29.2636E-03
            1428     3.23873E-03     63.9765E-03    -100.224E+06    -184.183E+06    -68.3186E+06    -9.45791E+03    -105.691E-03     211.520E-03    -105.829E-03     24.5054E-03    -105.843E-03     210.860E-03    -105.758E-03     24.1656E-03
            1429     2.42896E-03     63.9521E-03    -107.689E+06    -203.586E+06    -86.5122E+06     85.6538E+03    -105.687E-03     211.489E-03    -105.803E-03     18.8880E-03    -105.814E-03     210.763E-03    -105.784E-03     18.6305E-03
            1430     1.61918E-03     63.9343E-03    -113.727E+06    -220.407E+06    -102.980E+06    -76.7707E+03    -105.705E-03     211.486E-03    -105.781E-03     13.0275E-03    -105.809E-03     210.703E-03    -105.811E-03     12.8500E-03
            1431     809.644E-06     63.9232E-03    -117.922E+06    -232.603E+06    -114.952E+06    -163.594E+03    -105.776E-03     211.516E-03    -105.739E-03     7.21638E-03    -105.863E-03     210.692E-03    -105.806E-03     7.11745E-03
            1432     15.3884E-03     63.5092E-03    -4.93122E+06     107.166E+06     92.5815E+06    -362.871E+03    -104.923E-03     210.673E-03    -105.750E-03     24.0696E-03    -105.323E-03     211.168E-03    -105.435E-03     22.9319E-03
            1433     14.5789E-03     63.4747E-03    -9.73307E+06     104.486E+06     78.2521E+06     50.0273E+03    -105.221E-03     210.922E-03    -105.701E-03     34.9120E-03    -105.661E-03     211.471E-03    -105.447E-03     33.5747E-03
            1434     13.7689E-03     63.4330E-03    -14.7480E+06     94.3653E+06     68.0984E+06     798.492E+03    -105.224E-03     210.909E-03    -105.684E-03     41.0172E-03    -105.664E-03     211.434E-03    -105.459E-03     39.7551E-03
            1435     12.9585E-03     63.3845E-03    -19.8458E+06     69.7461E+06     62.1805E+06    -49.9784E+03    -105.309E-03     211.028E-03    -105.718E-03     46.0767E-03    -105.734E-03     211.449E-03    -105.480E-03     44.8538E-03
            1436     12.1482E-03     63.3316E-03    -25.1178E+06     33.4071E+06     52.3229E+06    -532.037E+03    -105.499E-03     211.251E-03    -105.752E-03     48.8977E-03    -105.879E-03     211.509E-03    -105.503E-03     47.7305E-03
            1437     11.3382E-03     63.2767E-03    -30.2508E+06     4.46141E+06     44.9248E+06    -98.3621E+03    -105.636E-03     211.422E-03    -105.787E-03     50.2607E-03    -105.980E-03     211.545E-03    -105.525E-03     49.1732E-03
            1438     10.5280E-03     63.2205E-03    -35.6918E+06    -18.7877E+06     36.7618E+06     17.4081E+03    -105.715E-03     211.524E-03    -105.809E-03     50.5136E-03    -106.031E-03     211.539E-03    -105.546E-03     49.5041E-03
            1439     9.71802E-03     63.1647E-03    -41.6121E+06    -40.5699E+06     28.8658E+06    -52.0503E+03    -105.776E-03     211.607E-03    -105.831E-03     49.9261E-03    -106.067E-03     211.522E-03    -105.567E-03     48.9900E-03
            1440     8.90794E-03     63.1099E-03    -47.5254E+06    -58.6210E+06     20.9240E+06     79.6877E+03    -105.812E-03     211.658E-03    -105.847E-03     48.8196E-03    -106.083E-03     211.492E-03    -105.588E-03     47.9578E-03
            1441     8.09805E-03     63.0564E-03    -53.9193E+06    -76.6936E+06     12.2241E+06     63.2682E+03    -105.806E-03     211.666E-03    -105.860E-03     47.0626E-03    -106.059E-03     211.420E-03    -105.609E-03     46.2731E-03
            1442     7.28799E-03     63.0055E-03    -60.8446E+06    -93.3360E+06     2.73021E+06     88.5578E+03    -105.781E-03     211.651E-03    -105.869E-03     44.7038E-03    -106.020E-03     211.334E-03    -105.632E-03     43.9867E-03
            1443     6.47809E-03     62.9571E-03    -67.9467E+06    -110.082E+06    -7.92388E+06     78.3833E+03    -105.759E-03     211.635E-03    -105.875E-03     41.8139E-03    -105.983E-03     211.249E-03    -105.657E-03     41.1684E-03
            1444     5.66813E-03     62.9125E-03    -75.6723E+06    -127.886E+06    -20.3124E+06     173.037E+03    -105.728E-03     211.605E-03    -105.877E-03     38.3429E-03    -105.936E-03     211.150E-03    -105.684E-03     37.7718E-03
            1445     4.85827E-03     62.8719E-03    -83.7264E+06    -146.021E+06    -34.3947E+06     277.249E+03    -105.716E-03     211.588E-03    -105.872E-03     34.3043E-03    -105.908E-03     211.064E-03    -105.711E-03     33.8100E-03
            1446     4.04848E-03     62.8360E-03    -91.7832E+06    -164.406E+06    -50.2873E+06     230.762E+03    -105.707E-03     211.564E-03    -105.857E-03     29.6749E-03    -105.880E-03     210.973E-03    -105.737E-03     29.2574E-03
            1447     3.23871E-03     62.8058E-03    -99.9746E+06    -184.132E+06    -68.2670E+06     90.3943E+03    -105.698E-03     211.531E-03    -105.833E-03     24.5287E-03    -105.849E-03     210.871E-03    -105.762E-03     24.1895E-03
            1448     2.42899E-03     62.7815E-03    -107.710E+06    -203.580E+06    -86.6771E+06    -93.8513E+03    -105.700E-03     211.504E-03    -105.804E-03     18.8830E-03    -105.828E-03     210.778E-03    -105.786E-03     18.6239E-03
            1449     1.61930E-03     62.7638E-03    -113.791E+06    -220.380E+06    -102.988E+06    -74.4308E+03    -105.722E-03     211.497E-03    -105.775E-03     12.9433E-03    -105.827E-03     210.714E-03    -105.805E-03     12.7674E-03
            1450     809.521E-06     62.7524E-03    -118.098E+06    -232.750E+06    -115.227E+06     32.3258E+03    -105.763E-03     211.489E-03    -105.726E-03     7.18453E-03    -105.850E-03     210.665E-03    -105.794E-03     7.08798E-03
            1451     15.3892E-03     62.3380E-03    -5.27420E+06     106.742E+06     92.1131E+06    -361.452E+03    -104.906E-03     210.650E-03    -105.744E-03     24.3018E-03    -105.306E-03     211.143E-03    -105.430E-03     23.1700E-03
            1452     14.5788E-03     62.3033E-03    -10.3794E+06     103.695E+06     77.4565E+06    -184.966E+03    -105.102E-03     210.799E-03    -105.698E-03     35.0583E-03    -105.542E-03     211.347E-03    -105.446E-03     33.7237E-03
            1453     13.7685E-03     62.2622E-03    -14.5513E+06     94.4771E+06     68.5423E+06     319.183E+03    -105.223E-03     210.912E-03    -105.689E-03     41.1366E-03    -105.663E-03     211.436E-03    -105.462E-03     39.8678E-03
            1454     12.9583E-03     62.2137E-03    -19.0917E+06     71.3320E+06     63.0997E+06     162.616E+03    -105.318E-03     211.040E-03    -105.722E-03     46.0986E-03    -105.742E-03     211.466E-03    -105.482E-03     44.8797E-03
            1455     12.1483E-03     62.1608E-03    -24.3621E+06     33.4651E+06     52.4600E+06    -142.958E+03    -105.497E-03     211.251E-03    -105.754E-03     48.9030E-03    -105.873E-03     211.508E-03    -105.505E-03     47.7417E-03
            1456     11.3381E-03     62.1059E-03    -30.0408E+06     3.54367E+06     44.6835E+06    -108.658E+03    -105.643E-03     211.432E-03    -105.789E-03     50.2884E-03    -105.984E-03     211.550E-03    -105.527E-03     49.2005E-03
            1457     10.5281E-03     62.0497E-03    -35.6717E+06    -18.4583E+06     36.8562E+06     235.558E+03    -105.713E-03     211.525E-03    -105.812E-03     50.5351E-03    -106.029E-03     211.542E-03    -105.549E-03     49.5285E-03
            1458     9.71790E-03     61.9940E-03    -41.3909E+06    -40.5738E+06     28.8750E+06     87.5178E+03    -105.762E-03     211.597E-03    -105.834E-03     49.9458E-03    -106.052E-03     211.511E-03    -105.571E-03     49.0121E-03
            1459     8.90794E-03     61.9390E-03    -47.4565E+06     -58.741E+06     20.8630E+06     32.3614E+03    -105.792E-03     211.644E-03    -105.852E-03     48.8052E-03    -106.063E-03     211.477E-03    -105.594E-03     47.9437E-03
            1460     8.09787E-03     61.8858E-03    -53.9046E+06    -76.7108E+06     12.0869E+06     114.549E+03    -105.802E-03     211.668E-03    -105.867E-03     47.0538E-03    -106.055E-03     211.422E-03    -105.617E-03     46.2652E-03
            1461     7.28799E-03     61.8346E-03    -60.7222E+06    -93.2769E+06     2.63330E+06     55.7055E+03    -105.799E-03     211.675E-03    -105.876E-03     44.7275E-03    -106.036E-03     211.359E-03    -105.640E-03     44.0099E-03
            1462     6.47805E-03     61.7864E-03    -68.1272E+06    -110.178E+06    -8.19524E+06     99.1677E+03    -105.778E-03     211.659E-03    -105.881E-03     41.8122E-03    -106.002E-03     211.274E-03    -105.664E-03     41.1667E-03
            1463     5.66816E-03     61.7418E-03    -75.8072E+06    -127.968E+06    -20.5115E+06     135.030E+03    -105.760E-03     211.641E-03    -105.880E-03     38.3328E-03    -105.969E-03     211.185E-03    -105.687E-03     37.7606E-03
            1464     4.85831E-03     61.7011E-03    -83.5892E+06    -145.899E+06    -34.4126E+06     61.9309E+03    -105.720E-03     211.593E-03    -105.873E-03     34.2742E-03    -105.911E-03     211.069E-03    -105.712E-03     33.7767E-03
            1465     4.04844E-03     61.6654E-03    -92.0192E+06    -164.548E+06    -50.5453E+06     129.295E+03    -105.673E-03     211.534E-03    -105.861E-03     29.6611E-03    -105.846E-03     210.943E-03    -105.742E-03     29.2425E-03
            1466     3.23863E-03     61.6351E-03    -100.069E+06    -183.946E+06    -68.2825E+06     262.960E+03    -105.685E-03     211.529E-03    -105.844E-03     24.5388E-03    -105.837E-03     210.871E-03    -105.774E-03     24.2022E-03
            1467     2.42891E-03     61.6108E-03    -107.287E+06    -203.197E+06    -86.7704E+06     126.515E+03    -105.747E-03     211.558E-03    -105.811E-03     18.9244E-03    -105.873E-03     210.834E-03    -105.795E-03     18.6681E-03
            1468     1.61931E-03     61.5930E-03    -113.826E+06    -220.669E+06    -103.426E+06    -42.2405E+03    -105.796E-03     211.549E-03    -105.753E-03     12.9670E-03    -105.900E-03     210.765E-03    -105.785E-03     12.7911E-03
            1469     809.839E-06     61.5819E-03    -117.809E+06    -232.605E+06    -114.786E+06     77.8373E+03    -105.696E-03     211.403E-03    -105.708E-03     6.98269E-03    -105.782E-03     210.579E-03    -105.773E-03     6.88659E-03
            1470     15.3889E-03     61.1676E-03    -5.22382E+06     107.042E+06     92.2360E+06     185.624E+03    -104.941E-03     210.680E-03    -105.740E-03     24.2582E-03    -105.341E-03     211.174E-03    -105.426E-03     23.1324E-03
            1471     14.5786E-03     61.1323E-03    -10.4842E+06     103.619E+06     77.4022E+06    -297.198E+03    -104.962E-03     210.659E-03    -105.696E-03     34.7932E-03    -105.403E-03     211.205E-03    -105.444E-03     33.4593E-03
            1472     13.7685E-03     61.0912E-03    -15.2396E+06     93.8218E+06     67.8532E+06    -519.669E+03    -105.138E-03     210.829E-03    -105.692E-03     40.9398E-03    -105.579E-03     211.353E-03    -105.466E-03     39.6589E-03
            1473     12.9585E-03     61.0427E-03    -20.1669E+06     71.4011E+06     62.6735E+06     141.773E+03    -105.340E-03     211.067E-03    -105.727E-03     46.0352E-03    -105.768E-03     211.496E-03    -105.488E-03     44.8145E-03
            1474     12.1481E-03     60.9902E-03    -25.4724E+06     33.9012E+06     52.0479E+06     153.997E+03    -105.497E-03     211.256E-03    -105.759E-03     48.9552E-03    -105.879E-03     211.517E-03    -105.511E-03     47.7981E-03
            1475     11.3381E-03     60.9349E-03    -30.7184E+06     3.13320E+06     44.1723E+06     31.3988E+03    -105.639E-03     211.433E-03    -105.794E-03     50.3398E-03    -105.983E-03     211.551E-03    -105.533E-03     49.2542E-03
            1476     10.5279E-03     60.8791E-03    -35.9431E+06    -18.5061E+06     36.5868E+06     9.14165E+03    -105.733E-03     211.549E-03    -105.817E-03     50.5372E-03    -106.049E-03     211.567E-03    -105.555E-03     49.5279E-03
            1477     9.71796E-03     60.8232E-03    -41.5272E+06    -40.4758E+06     28.6613E+06     89.6896E+03    -105.777E-03     211.615E-03    -105.838E-03     49.9342E-03    -106.067E-03     211.531E-03    -105.576E-03     49.0010E-03
            1478     8.90786E-03     60.7684E-03    -47.6294E+06    -58.9917E+06     20.6179E+06     195.696E+03    -105.782E-03     211.639E-03    -105.856E-03     48.7773E-03    -106.053E-03     211.471E-03    -105.599E-03     47.9181E-03
            1479     8.09789E-03     60.7150E-03    -53.9328E+06    -76.4947E+06     12.0343E+06     105.643E+03    -105.790E-03     211.662E-03    -105.872E-03     47.0214E-03    -106.043E-03     211.418E-03    -105.623E-03     46.2322E-03
            1480     7.28787E-03     60.6639E-03    -60.8004E+06    -93.3041E+06     2.46302E+06     41.8296E+03    -105.794E-03     211.677E-03    -105.883E-03     44.7050E-03    -106.032E-03     211.361E-03    -105.648E-03     43.9860E-03
            1481     6.47795E-03     60.6157E-03    -68.0905E+06    -110.259E+06    -8.22024E+06     103.650E+03    -105.798E-03     211.686E-03    -105.889E-03     41.8101E-03    -106.021E-03     211.301E-03    -105.671E-03     41.1636E-03
            1482     5.66811E-03     60.5710E-03    -75.7362E+06    -127.788E+06    -20.3691E+06     69.2749E+03    -105.776E-03     211.662E-03    -105.887E-03     38.3537E-03    -105.984E-03     211.207E-03    -105.694E-03     37.7804E-03
            1483     4.85828E-03     60.5304E-03    -83.9409E+06    -146.022E+06    -34.6291E+06     99.0537E+03    -105.726E-03     211.604E-03    -105.878E-03     34.2776E-03    -105.918E-03     211.080E-03    -105.718E-03     33.7803E-03
            1484     4.04845E-03     60.4948E-03    -92.0088E+06    -164.497E+06    -50.8309E+06     115.338E+03    -105.687E-03     211.552E-03    -105.865E-03     29.6485E-03    -105.860E-03     210.961E-03    -105.747E-03     29.2296E-03
            1485     3.23862E-03     60.4644E-03    -99.9589E+06    -183.842E+06    -68.4671E+06    -72.9974E+03    -105.689E-03     211.535E-03    -105.847E-03     24.5085E-03    -105.839E-03     210.877E-03    -105.778E-03     24.1679E-03
            1486     2.42888E-03     60.4401E-03    -107.289E+06    -203.363E+06    -86.3147E+06     86.3668E+03    -105.737E-03     211.557E-03    -105.820E-03     18.9028E-03    -105.863E-03     210.831E-03    -105.801E-03     18.6463E-03
            1487     1.61928E-03     60.4222E-03    -113.017E+06    -220.393E+06    -102.698E+06     257.080E+03    -105.775E-03     211.550E-03    -105.775E-03     12.9467E-03    -105.876E-03     210.766E-03    -105.805E-03     12.7738E-03
            1488     809.641E-06     60.4114E-03    -117.248E+06    -232.603E+06    -114.362E+06    -268.816E+03    -105.779E-03     211.469E-03    -105.691E-03     6.92740E-03    -105.863E-03     210.644E-03    -105.755E-03     6.82619E-03
            1489     15.3891E-03     59.9954E-03    -4.99242E+06     107.307E+06     92.3017E+06    -45.0604E+03    -104.928E-03     210.665E-03    -105.737E-03     24.1501E-03    -105.328E-03     211.160E-03    -105.424E-03     23.0192E-03
            1490     14.5793E-03     59.9623E-03    -9.61368E+06     104.330E+06     78.1992E+06    -70.8477E+03    -104.933E-03     210.629E-03    -105.696E-03     34.8827E-03    -105.371E-03     211.177E-03    -105.443E-03     33.5506E-03
            1491     13.7685E-03     59.9201E-03    -14.9966E+06     93.7006E+06     67.7444E+06     32.6819E+03    -105.042E-03     210.736E-03    -105.694E-03     41.1927E-03    -105.482E-03     211.258E-03    -105.469E-03     39.9247E-03
            1492     12.9581E-03     59.8721E-03    -20.4230E+06     70.2691E+06     62.0229E+06    -57.6651E+03    -105.296E-03     211.029E-03    -105.734E-03     46.0268E-03    -105.723E-03     211.454E-03    -105.496E-03     44.8041E-03
            1493     12.1481E-03     59.8192E-03    -25.5626E+06     34.0904E+06     52.0523E+06     246.529E+03    -105.529E-03     211.296E-03    -105.767E-03     48.9293E-03    -105.912E-03     211.558E-03    -105.519E-03     47.7736E-03
            1494     11.3379E-03     59.7644E-03    -30.7978E+06     3.77431E+06     44.0412E+06    -24.0320E+03    -105.670E-03     211.470E-03    -105.799E-03     50.3079E-03    -106.015E-03     211.591E-03    -105.540E-03     49.2222E-03
            1495     10.5279E-03     59.7080E-03    -36.1838E+06    -18.9360E+06     36.2186E+06    -283.783E+03    -105.738E-03     211.559E-03    -105.821E-03     50.4984E-03    -106.055E-03     211.575E-03    -105.560E-03     49.4847E-03
            1496     9.71783E-03     59.6525E-03    -41.8430E+06    -40.6414E+06     28.4685E+06     13.5790E+03    -105.780E-03     211.623E-03    -105.843E-03     49.9216E-03    -106.071E-03     211.539E-03    -105.582E-03     48.9861E-03
            1497     8.90785E-03     59.5975E-03    -47.6985E+06    -58.9442E+06     20.6114E+06     40.3856E+03    -105.806E-03     211.667E-03    -105.861E-03     48.7791E-03    -106.077E-03     211.500E-03    -105.603E-03     47.9166E-03
            1498     8.09784E-03     59.5443E-03    -54.1197E+06    -76.4569E+06     12.0503E+06     63.8188E+03    -105.804E-03     211.680E-03    -105.876E-03     46.9909E-03    -106.058E-03     211.435E-03    -105.626E-03     46.2002E-03
            1499     7.28787E-03     59.4931E-03    -60.9449E+06    -93.2514E+06     2.45640E+06     77.5643E+03    -105.785E-03     211.671E-03    -105.887E-03     44.6534E-03    -106.024E-03     211.356E-03    -105.651E-03     43.9345E-03
            1500     6.47796E-03     59.4449E-03    -68.0608E+06    -110.302E+06    -8.25089E+06     18.8997E+03    -105.766E-03     211.660E-03    -105.895E-03     41.7934E-03    -105.989E-03     211.274E-03    -105.677E-03     41.1461E-03
            1501     5.66806E-03     59.4002E-03    -75.6449E+06    -127.732E+06    -20.4143E+06     43.7796E+03    -105.750E-03     211.647E-03    -105.898E-03     38.3559E-03    -105.957E-03     211.192E-03    -105.705E-03     37.7823E-03
            1502     4.85818E-03     59.3598E-03    -83.5704E+06    -146.099E+06    -34.4599E+06    -28.1494E+03    -105.749E-03     211.641E-03    -105.892E-03     34.2973E-03    -105.939E-03     211.116E-03    -105.731E-03     33.7978E-03
            1503     4.04840E-03     59.3240E-03    -91.7052E+06    -164.488E+06    -50.3195E+06     12.8521E+03    -105.749E-03     211.622E-03    -105.874E-03     29.6510E-03    -105.921E-03     211.031E-03    -105.754E-03     29.2301E-03
            1504     3.23869E-03     59.2938E-03    -99.8421E+06    -183.550E+06    -68.2538E+06     43.2746E+03    -105.720E-03     211.565E-03    -105.845E-03     24.5031E-03    -105.871E-03     210.907E-03    -105.775E-03     24.1637E-03
            1505     2.42896E-03     59.2693E-03    -107.423E+06    -203.725E+06    -86.3454E+06    -144.107E+03    -105.685E-03     211.507E-03    -105.823E-03     18.9270E-03    -105.811E-03     210.779E-03    -105.803E-03     18.6675E-03
            1506     1.61923E-03     59.2516E-03    -113.576E+06    -220.268E+06    -102.531E+06     31.7803E+03    -105.675E-03     211.499E-03    -105.824E-03     12.9649E-03    -105.780E-03     210.715E-03    -105.852E-03     12.7897E-03
            1507     809.514E-06     59.2407E-03    -117.802E+06    -232.405E+06    -114.998E+06     221.781E+03    -105.771E-03     211.631E-03    -105.860E-03     7.03270E-03    -105.858E-03     210.809E-03    -105.927E-03     6.93889E-03
            1508     15.3891E-03     58.8252E-03    -4.75657E+06     107.158E+06     92.0796E+06    -170.890E+03    -104.765E-03     210.510E-03    -105.745E-03     24.4672E-03    -105.163E-03     211.004E-03    -105.433E-03     23.3416E-03
            1509     14.5781E-03     58.7909E-03    -10.0156E+06     103.794E+06     77.3869E+06     307.235E+03    -104.990E-03     210.696E-03    -105.707E-03     35.0694E-03    -105.428E-03     211.243E-03    -105.456E-03     33.7425E-03
            1510     13.7685E-03     58.7498E-03    -14.7379E+06     94.0556E+06     68.1116E+06     478.132E+03    -105.155E-03     210.858E-03    -105.703E-03     41.1755E-03    -105.594E-03     211.381E-03    -105.478E-03     39.9142E-03
            1511     12.9582E-03     58.7009E-03    -20.0169E+06     70.3248E+06     62.1590E+06     275.673E+03    -105.303E-03     211.042E-03    -105.739E-03     46.0243E-03    -105.728E-03     211.466E-03    -105.501E-03     44.8079E-03
            1512     12.1479E-03     58.6485E-03    -25.2372E+06     33.8876E+06     52.0354E+06     21.9313E+03    -105.564E-03     211.335E-03    -105.771E-03     48.8217E-03    -105.944E-03     211.595E-03    -105.524E-03     47.6618E-03
            1513     11.3380E-03     58.5932E-03    -30.3391E+06     4.29061E+06     44.4043E+06    -22.8174E+03    -105.679E-03     211.481E-03    -105.803E-03     50.2036E-03    -106.022E-03     211.604E-03    -105.543E-03     49.1165E-03
            1514     10.5278E-03     58.5375E-03    -35.9609E+06    -19.0091E+06     36.3564E+06    -107.181E+03    -105.724E-03     211.550E-03    -105.825E-03     50.4487E-03    -106.040E-03     211.565E-03    -105.564E-03     49.4362E-03
            1515     9.71778E-03     58.4816E-03    -41.5842E+06    -40.8923E+06     28.6809E+06    -207.283E+03    -105.792E-03     211.640E-03    -105.848E-03     49.8896E-03    -106.081E-03     211.554E-03    -105.585E-03     48.9497E-03
            1516     8.90778E-03     58.4268E-03    -47.6056E+06    -58.8827E+06     20.7649E+06    -41.9788E+03    -105.814E-03     211.679E-03    -105.865E-03     48.7140E-03    -106.085E-03     211.512E-03    -105.607E-03     47.8494E-03
            1517     8.09783E-03     58.3734E-03    -54.0712E+06    -76.5326E+06     11.9891E+06    -39.1677E+03    -105.799E-03     211.678E-03    -105.879E-03     47.0002E-03    -106.053E-03     211.434E-03    -105.630E-03     46.2081E-03
            1518     7.28792E-03     58.3224E-03    -60.5797E+06    -93.2484E+06     2.63903E+06    -20.0151E+03    -105.774E-03     211.666E-03    -105.892E-03     44.7185E-03    -106.011E-03     211.349E-03    -105.656E-03     43.9987E-03
            1519     6.47791E-03     58.2742E-03    -67.7229E+06    -110.277E+06    -8.06343E+06    -8.52286E+03    -105.742E-03     211.645E-03    -105.903E-03     41.8529E-03    -105.964E-03     211.259E-03    -105.686E-03     41.2056E-03
            1520     5.66795E-03     58.2295E-03    -75.4621E+06    -127.759E+06    -20.3447E+06    -83.9364E+03    -105.745E-03     211.654E-03    -105.909E-03     38.3785E-03    -105.952E-03     211.199E-03    -105.716E-03     37.8032E-03
            1521     4.85811E-03     58.1889E-03    -83.4515E+06    -146.077E+06    -34.3221E+06    -10.1256E+03    -105.767E-03     211.672E-03    -105.905E-03     34.2835E-03    -105.957E-03     211.147E-03    -105.744E-03     33.7844E-03
            1522     4.04835E-03     58.1532E-03    -91.9975E+06    -164.652E+06    -50.5574E+06     24.5394E+03    -105.754E-03     211.640E-03    -105.886E-03     29.6438E-03    -105.927E-03     211.048E-03    -105.766E-03     29.2234E-03
            1523     3.23865E-03     58.1230E-03    -100.194E+06    -183.582E+06    -68.1958E+06     121.038E+03    -105.714E-03     211.575E-03    -105.861E-03     24.5524E-03    -105.866E-03     210.918E-03    -105.791E-03     24.2138E-03
            1524     2.42890E-03     58.0988E-03    -107.600E+06    -203.396E+06    -86.5337E+06     173.306E+03    -105.685E-03     211.529E-03    -105.844E-03     18.9807E-03    -105.813E-03     210.803E-03    -105.826E-03     18.7249E-03
            1525     1.61910E-03     58.0810E-03    -114.178E+06    -220.542E+06    -103.390E+06    -32.8253E+03    -105.705E-03     211.549E-03    -105.845E-03     12.9636E-03    -105.810E-03     210.767E-03    -105.876E-03     12.7881E-03
            1526     809.411E-06     58.0699E-03    -118.409E+06    -232.137E+06    -115.217E+06     130.660E+03    -105.799E-03     211.672E-03    -105.873E-03     7.05034E-03    -105.889E-03     210.852E-03    -105.941E-03     6.95647E-03
            1527     15.3882E-03     57.6546E-03    -5.05564E+06     106.937E+06     92.1535E+06     29.5237E+03    -104.814E-03     210.568E-03    -105.754E-03     24.1546E-03    -105.212E-03     211.061E-03    -105.441E-03     23.0314E-03
            1528     14.5787E-03     57.6197E-03    -9.56567E+06     104.157E+06     77.1626E+06     529.858E+03    -105.042E-03     210.752E-03    -105.710E-03     34.6463E-03    -105.477E-03     211.299E-03    -105.461E-03     33.3246E-03
            1529     13.7683E-03     57.5787E-03    -14.7465E+06     94.0574E+06     67.5219E+06     188.735E+03    -105.192E-03     210.895E-03    -105.703E-03     40.8779E-03    -105.630E-03     211.419E-03    -105.481E-03     39.6085E-03
            1530     12.9580E-03     57.5303E-03    -19.3891E+06     70.6650E+06     62.9807E+06     201.845E+03    -105.370E-03     211.111E-03    -105.742E-03     45.9324E-03    -105.794E-03     211.535E-03    -105.501E-03     44.7138E-03
            1531     12.1481E-03     57.4773E-03    -24.4256E+06     33.8884E+06     52.5655E+06     244.859E+03    -105.539E-03     211.311E-03    -105.771E-03     48.7314E-03    -105.917E-03     211.569E-03    -105.522E-03     47.5732E-03
            1532     11.3379E-03     57.4225E-03    -30.0880E+06     4.51244E+06     44.8218E+06     172.307E+03    -105.646E-03     211.450E-03    -105.804E-03     50.1251E-03    -105.989E-03     211.573E-03    -105.543E-03     49.0395E-03
            1533     10.5278E-03     57.3665E-03    -35.4416E+06    -18.6009E+06     36.8245E+06    -37.7138E+03    -105.727E-03     211.555E-03    -105.828E-03     50.4055E-03    -106.042E-03     211.571E-03    -105.565E-03     49.3939E-03
            1534     9.71782E-03     57.3108E-03    -41.2118E+06    -41.0665E+06     28.8077E+06    -113.340E+03    -105.774E-03     211.625E-03    -105.851E-03     49.8809E-03    -106.062E-03     211.538E-03    -105.588E-03     48.9428E-03
            1535     8.90782E-03     57.2559E-03    -47.4676E+06    -58.9763E+06     20.7892E+06    -150.998E+03    -105.773E-03     211.643E-03    -105.870E-03     48.7588E-03    -106.043E-03     211.475E-03    -105.612E-03     47.8934E-03
            1536     8.09778E-03     57.2027E-03    -53.6343E+06    -76.4222E+06     12.1719E+06    -162.006E+03    -105.771E-03     211.659E-03    -105.889E-03     47.0731E-03    -106.023E-03     211.414E-03    -105.639E-03     46.2800E-03
            1537     7.28769E-03     57.1516E-03    -60.4739E+06    -93.5303E+06     2.62243E+06    -111.323E+03    -105.771E-03     211.676E-03    -105.905E-03     44.7572E-03    -106.008E-03     211.358E-03    -105.668E-03     44.0361E-03
            1538     6.47780E-03     57.1035E-03    -67.8794E+06    -110.299E+06    -8.08701E+06     103.317E+03    -105.770E-03     211.686E-03    -105.916E-03     41.8558E-03    -105.993E-03     211.300E-03    -105.698E-03     41.2094E-03
            1539     5.66792E-03     57.0587E-03    -75.6574E+06    -127.603E+06    -20.3891E+06     106.540E+03    -105.762E-03     211.682E-03    -105.920E-03     38.4038E-03    -105.971E-03     211.228E-03    -105.727E-03     37.8311E-03
            1540     4.85810E-03     57.0181E-03    -84.0709E+06    -146.299E+06    -34.6950E+06     59.1881E+03    -105.751E-03     211.668E-03    -105.917E-03     34.3222E-03    -105.943E-03     211.143E-03    -105.756E-03     33.8240E-03
            1541     4.04831E-03     56.9825E-03    -92.1295E+06    -164.473E+06    -50.7430E+06     93.3727E+03    -105.723E-03     211.627E-03    -105.905E-03     29.6462E-03    -105.896E-03     211.037E-03    -105.786E-03     29.2267E-03
            1542     3.23845E-03     56.9523E-03    -100.153E+06    -183.685E+06    -68.5677E+06    -32.5096E+03    -105.716E-03     211.604E-03    -105.888E-03     24.5130E-03    -105.868E-03     210.947E-03    -105.819E-03     24.1722E-03
            1543     2.42872E-03     56.9281E-03    -107.496E+06    -203.460E+06    -86.4148E+06     113.895E+03    -105.754E-03     211.623E-03    -105.868E-03     18.9074E-03    -105.881E-03     210.897E-03    -105.850E-03     18.6501E-03
            1544     1.61920E-03     56.9103E-03    -113.117E+06    -220.283E+06    -102.662E+06     221.801E+03    -105.803E-03     211.640E-03    -105.837E-03     12.9653E-03    -105.905E-03     210.856E-03    -105.867E-03     12.7937E-03
            1545     809.723E-06     56.8991E-03    -117.357E+06    -232.111E+06    -114.621E+06    -84.3760E+03    -105.846E-03     211.608E-03    -105.761E-03     7.16966E-03    -105.932E-03     210.785E-03    -105.828E-03     7.07571E-03
            1546     15.3893E-03     56.4828E-03    -5.50740E+06     106.704E+06     91.8962E+06    -134.520E+03    -104.823E-03     210.574E-03    -105.750E-03     24.2176E-03    -105.224E-03     211.067E-03    -105.438E-03     23.0862E-03
            1547     14.5786E-03     56.4492E-03    -10.4846E+06     103.476E+06     77.1718E+06    -167.480E+03    -105.010E-03     210.719E-03    -105.709E-03     34.8590E-03    -105.449E-03     211.264E-03    -105.458E-03     33.5294E-03
            1548     13.7683E-03     56.4076E-03    -14.7204E+06     94.0540E+06     68.1598E+06     48.9063E+03    -105.223E-03     210.926E-03    -105.703E-03     40.8911E-03    -105.662E-03     211.449E-03    -105.477E-03     39.6183E-03
            1549     12.9584E-03     56.3592E-03    -19.8966E+06     70.5686E+06     62.9404E+06     42.1460E+03    -105.362E-03     211.100E-03    -105.738E-03     45.8585E-03    -105.788E-03     211.524E-03    -105.497E-03     44.6358E-03
            1550     12.1481E-03     56.3066E-03    -25.1088E+06     34.2634E+06     52.5866E+06     182.362E+03    -105.490E-03     211.259E-03    -105.769E-03     48.6931E-03    -105.871E-03     211.520E-03    -105.519E-03     47.5356E-03
            1551     11.3379E-03     56.2517E-03    -29.7288E+06     4.69790E+06     45.0371E+06    -61.4246E+03    -105.597E-03     211.402E-03    -105.805E-03     50.1481E-03    -105.940E-03     211.525E-03    -105.543E-03     49.0605E-03
            1552     10.5279E-03     56.1957E-03    -35.2515E+06    -18.6832E+06     36.8810E+06     159.647E+03    -105.687E-03     211.518E-03    -105.832E-03     50.4919E-03    -106.000E-03     211.533E-03    -105.569E-03     49.4839E-03
            1553     9.71776E-03     56.1401E-03    -41.2477E+06    -40.6914E+06     28.7782E+06     245.212E+03    -105.724E-03     211.582E-03    -105.859E-03     49.9833E-03    -106.012E-03     211.496E-03    -105.596E-03     49.0513E-03
            1554     8.90761E-03     56.0852E-03    -47.1819E+06    -58.8795E+06     20.7801E+06    -82.6966E+03    -105.757E-03     211.639E-03    -105.882E-03     48.8445E-03    -106.026E-03     211.471E-03    -105.624E-03     47.9806E-03
            1555     8.09758E-03     56.0320E-03    -53.9373E+06    -76.5690E+06     12.0838E+06    -76.2612E+03    -105.787E-03     211.690E-03    -105.902E-03     47.0675E-03    -106.040E-03     211.444E-03    -105.653E-03     46.2750E-03
            1556     7.28770E-03     55.9809E-03    -61.0328E+06    -93.6311E+06     2.35157E+06     66.1933E+03    -105.792E-03     211.709E-03    -105.917E-03     44.7352E-03    -106.031E-03     211.392E-03    -105.681E-03     44.0163E-03
            1557     6.47773E-03     55.9327E-03    -68.1916E+06    -110.442E+06    -8.28469E+06     66.3706E+03    -105.787E-03     211.714E-03    -105.927E-03     41.8510E-03    -106.011E-03     211.328E-03    -105.710E-03     41.2038E-03
            1558     5.66786E-03     55.8879E-03    -75.8464E+06    -127.569E+06    -20.4631E+06     195.106E+03    -105.751E-03     211.684E-03    -105.933E-03     38.4185E-03    -105.961E-03     211.231E-03    -105.740E-03     37.8465E-03
            1559     4.85797E-03     55.8474E-03    -83.7236E+06    -146.154E+06    -34.6410E+06     66.1536E+03    -105.715E-03     211.651E-03    -105.936E-03     34.3710E-03    -105.906E-03     211.126E-03    -105.776E-03     33.8731E-03
            1560     4.04814E-03     55.8116E-03    -91.8764E+06    -164.589E+06    -50.4955E+06    -87.9838E+03    -105.739E-03     211.670E-03    -105.931E-03     29.6931E-03    -105.911E-03     211.078E-03    -105.812E-03     29.2706E-03
            1561     3.23847E-03     55.7816E-03    -99.9029E+06    -183.476E+06    -68.4820E+06     18.1410E+03    -105.787E-03     211.695E-03    -105.908E-03     24.4953E-03    -105.938E-03     211.039E-03    -105.840E-03     24.1544E-03
            1562     2.42884E-03     55.7571E-03    -107.323E+06    -203.594E+06    -86.7074E+06    -150.748E+03    -105.794E-03     211.670E-03    -105.876E-03     18.8785E-03    -105.919E-03     210.943E-03    -105.859E-03     18.6184E-03
            1563     1.61916E-03     55.7395E-03    -113.545E+06    -220.336E+06    -102.702E+06    -75.9902E+03    -105.801E-03     211.645E-03    -105.843E-03     13.0381E-03    -105.905E-03     210.861E-03    -105.873E-03     12.8623E-03
            1564     809.514E-06     55.7282E-03    -117.126E+06    -231.873E+06    -114.573E+06     206.296E+03    -105.722E-03     211.623E-03    -105.901E-03     7.21566E-03    -105.807E-03     210.802E-03    -105.968E-03     7.12331E-03
            1565     15.3886E-03     55.3133E-03    -5.03519E+06     106.927E+06     92.1570E+06     279.590E+03    -104.818E-03     210.569E-03    -105.751E-03     24.3351E-03    -105.217E-03     211.063E-03    -105.438E-03     23.2129E-03
            1566     14.5783E-03     55.2775E-03    -10.6218E+06     103.195E+06     77.3291E+06    -648.531E+03    -105.052E-03     210.762E-03    -105.710E-03     34.9236E-03    -105.492E-03     211.307E-03    -105.458E-03     33.5872E-03
            1567     13.7686E-03     55.2368E-03    -15.4299E+06     93.4144E+06     67.9225E+06    -391.088E+03    -105.231E-03     210.933E-03    -105.702E-03     40.8239E-03    -105.672E-03     211.453E-03    -105.475E-03     39.5509E-03
            1568     12.9581E-03     55.1883E-03    -19.8260E+06     70.8863E+06     62.8205E+06     46.7317E+03    -105.292E-03     211.029E-03    -105.737E-03     45.8929E-03    -105.719E-03     211.454E-03    -105.497E-03     44.6725E-03
            1569     12.1481E-03     55.1358E-03    -24.5558E+06     34.6574E+06     52.6326E+06    -205.995E+03    -105.438E-03     211.209E-03    -105.772E-03     48.8186E-03    -105.817E-03     211.471E-03    -105.523E-03     47.6576E-03
            1570     11.3379E-03     55.0810E-03    -30.2042E+06     4.06692E+06     44.4175E+06     11.1697E+03    -105.567E-03     211.379E-03    -105.811E-03     50.3141E-03    -105.910E-03     211.500E-03    -105.551E-03     49.2297E-03
            1571     10.5276E-03     55.0250E-03    -35.8307E+06    -18.7812E+06     36.5109E+06     253.332E+03    -105.639E-03     211.481E-03    -105.842E-03     50.5766E-03    -105.954E-03     211.497E-03    -105.581E-03     49.5705E-03
            1572     9.71751E-03     54.9694E-03    -41.3223E+06    -40.5651E+06     28.7135E+06     197.929E+03    -105.728E-03     211.600E-03    -105.873E-03     50.0032E-03    -106.017E-03     211.515E-03    -105.610E-03     49.0703E-03
            1573     8.90751E-03     54.9144E-03    -47.3675E+06    -58.6145E+06     20.7039E+06     233.692E+03    -105.791E-03     211.687E-03    -105.895E-03     48.8221E-03    -106.062E-03     211.521E-03    -105.638E-03     47.9616E-03
            1574     8.09757E-03     54.8611E-03    -53.6674E+06    -76.7104E+06     12.0285E+06     129.844E+03    -105.808E-03     211.723E-03    -105.914E-03     47.0457E-03    -106.060E-03     211.477E-03    -105.665E-03     46.2550E-03
            1575     7.28755E-03     54.8101E-03    -60.5747E+06    -93.7584E+06     2.55589E+06     208.432E+03    -105.799E-03     211.729E-03    -105.930E-03     44.7686E-03    -106.035E-03     211.410E-03    -105.694E-03     44.0507E-03
            1576     6.47767E-03     54.7618E-03    -68.0521E+06    -110.301E+06    -8.15211E+06     208.049E+03    -105.775E-03     211.717E-03    -105.942E-03     41.9063E-03    -105.999E-03     211.331E-03    -105.724E-03     41.2605E-03
            1577     5.66775E-03     54.7172E-03    -75.7052E+06    -127.518E+06    -20.4486E+06     25.7040E+03    -105.747E-03     211.698E-03    -105.951E-03     38.4397E-03    -105.955E-03     211.244E-03    -105.759E-03     37.8648E-03
            1578     4.85788E-03     54.6766E-03    -83.6455E+06    -145.894E+06    -34.5329E+06     33.7196E+03    -105.732E-03     211.688E-03    -105.956E-03     34.3506E-03    -105.923E-03     211.165E-03    -105.796E-03     33.8519E-03
            1579     4.04803E-03     54.6409E-03    -91.9780E+06    -164.721E+06    -50.7385E+06     37.7515E+03    -105.755E-03     211.706E-03    -105.951E-03     29.7001E-03    -105.927E-03     211.114E-03    -105.833E-03     29.2797E-03
            1580     3.23835E-03     54.6104E-03    -100.127E+06    -183.537E+06    -68.4160E+06    -2.40175E+03    -105.789E-03     211.722E-03    -105.933E-03     24.5449E-03    -105.941E-03     211.066E-03    -105.864E-03     24.2035E-03
            1581     2.42874E-03     54.5865E-03    -107.673E+06    -203.288E+06    -86.8668E+06     52.6961E+03    -105.815E-03     211.718E-03    -105.903E-03     18.9572E-03    -105.942E-03     210.993E-03    -105.886E-03     18.6990E-03
            1582     1.61911E-03     54.5686E-03    -114.187E+06    -220.578E+06    -103.524E+06    -187.608E+03    -105.825E-03     211.695E-03    -105.870E-03     13.0446E-03    -105.930E-03     210.912E-03    -105.903E-03     12.8664E-03
            1583     809.578E-06     54.5575E-03    -118.257E+06    -231.938E+06    -115.066E+06    -200.469E+03    -105.708E-03     211.679E-03    -105.971E-03     7.05118E-03    -105.798E-03     210.859E-03    -106.038E-03     6.95125E-03
            1584     15.3889E-03     54.1414E-03    -4.88022E+06     107.160E+06     92.6179E+06     350.340E+03    -104.972E-03     210.720E-03    -105.748E-03     23.9966E-03    -105.370E-03     211.213E-03    -105.433E-03     22.8748E-03
            1585     14.5790E-03     54.1071E-03    -9.31614E+06     104.172E+06     78.1389E+06     385.357E+03    -104.981E-03     210.684E-03    -105.703E-03     34.6236E-03    -105.416E-03     211.229E-03    -105.450E-03     33.3031E-03
            1586     13.7682E-03     54.0656E-03    -14.9500E+06     93.6395E+06     67.6970E+06    -314.246E+03    -105.009E-03     210.710E-03    -105.700E-03     40.8679E-03    -105.448E-03     211.231E-03    -105.476E-03     39.5978E-03
            1587     12.9584E-03     54.0176E-03    -20.4168E+06     70.4421E+06     62.3003E+06    -607.024E+03    -105.209E-03     210.954E-03    -105.746E-03     45.9745E-03    -105.636E-03     211.379E-03    -105.507E-03     44.7474E-03
            1588     12.1477E-03     53.9652E-03    -25.7154E+06     33.9586E+06     51.8181E+06     24.7167E+03    -105.421E-03     211.206E-03    -105.784E-03     48.9579E-03    -105.804E-03     211.467E-03    -105.537E-03     47.8012E-03
            1589     11.3376E-03     53.9101E-03    -30.9429E+06     4.24864E+06     44.1293E+06     293.812E+03    -105.591E-03     211.416E-03    -105.825E-03     50.2957E-03    -105.937E-03     211.540E-03    -105.566E-03     49.2140E-03
            1590     10.5276E-03     53.8544E-03    -36.1645E+06    -18.7487E+06     36.2591E+06    -91.3043E+03    -105.675E-03     211.530E-03    -105.855E-03     50.5346E-03    -105.992E-03     211.547E-03    -105.594E-03     49.5230E-03
            1591     9.71745E-03     53.7985E-03    -41.8304E+06    -40.8494E+06     28.4057E+06    -9.97263E+03    -105.742E-03     211.626E-03    -105.884E-03     49.9922E-03    -106.033E-03     211.541E-03    -105.622E-03     49.0556E-03
            1592     8.90745E-03     53.7436E-03    -47.6890E+06    -58.5651E+06     20.6246E+06     90.1098E+03    -105.773E-03     211.682E-03    -105.908E-03     48.8618E-03    -106.045E-03     211.517E-03    -105.651E-03     47.9989E-03
            1593     8.09739E-03     53.6903E-03    -54.0095E+06    -76.7753E+06     11.9357E+06     198.624E+03    -105.794E-03     211.724E-03    -105.931E-03     47.1442E-03    -106.047E-03     211.479E-03    -105.681E-03     46.3540E-03
            1594     7.28750E-03     53.6393E-03    -60.7365E+06    -93.7577E+06     2.48461E+06     239.355E+03    -105.798E-03     211.747E-03    -105.949E-03     44.8448E-03    -106.036E-03     211.429E-03    -105.713E-03     44.1262E-03
            1595     6.47748E-03     53.5910E-03    -67.8435E+06    -110.106E+06    -8.14510E+06     166.595E+03    -105.788E-03     211.751E-03    -105.962E-03     41.9489E-03    -106.011E-03     211.366E-03    -105.745E-03     41.3020E-03
            1596     5.66760E-03     53.5463E-03    -75.5430E+06    -127.345E+06    -20.3178E+06     115.586E+03    -105.783E-03     211.754E-03    -105.971E-03     38.4333E-03    -105.991E-03     211.301E-03    -105.779E-03     37.8591E-03
            1597     4.85779E-03     53.5057E-03    -83.8396E+06    -145.946E+06    -34.5768E+06     97.1618E+03    -105.774E-03     211.747E-03    -105.973E-03     34.3592E-03    -105.966E-03     211.224E-03    -105.813E-03     33.8605E-03
            1598     4.04810E-03     53.4699E-03    -92.0422E+06    -164.506E+06    -50.6622E+06     27.0095E+03    -105.751E-03     211.719E-03    -105.968E-03     29.7412E-03    -105.924E-03     211.129E-03    -105.849E-03     29.3203E-03
            1599     3.23826E-03     53.4397E-03    -100.077E+06    -183.737E+06    -68.3362E+06    -51.7348E+03    -105.755E-03     211.715E-03    -105.960E-03     24.5472E-03    -105.907E-03     211.057E-03    -105.890E-03     24.2050E-03
            1600     2.42852E-03     53.4154E-03    -107.492E+06    -203.328E+06    -86.3536E+06     76.9037E+03    -105.828E-03     211.771E-03    -105.944E-03     18.9334E-03    -105.955E-03     211.046E-03    -105.925E-03     18.6748E-03
            1601     1.61909E-03     53.3976E-03    -113.170E+06    -220.138E+06    -102.696E+06     119.590E+03    -105.880E-03     211.792E-03    -105.911E-03     13.0068E-03    -105.983E-03     211.009E-03    -105.941E-03     12.8320E-03
            1602     809.518E-06     53.3867E-03    -117.427E+06    -232.482E+06    -114.789E+06    -305.795E+03    -105.847E-03     211.755E-03    -105.908E-03     7.13833E-03    -105.932E-03     210.932E-03    -105.975E-03     7.03663E-03
            1603     15.3892E-03     52.9698E-03    -5.27841E+06     106.668E+06     92.0328E+06    -363.164E+03    -104.834E-03     210.576E-03    -105.742E-03     24.3081E-03    -105.234E-03     211.069E-03    -105.429E-03     23.1759E-03
            1604     14.5787E-03     52.9366E-03    -9.94538E+06     103.861E+06     77.9743E+06     248.528E+03    -104.851E-03     210.558E-03    -105.707E-03     34.9797E-03    -105.289E-03     211.103E-03    -105.453E-03     33.6599E-03
            1605     13.7686E-03     52.8950E-03    -14.0981E+06     94.5816E+06     68.8123E+06     517.819E+03    -104.970E-03     210.682E-03    -105.712E-03     41.0999E-03    -105.407E-03     211.206E-03    -105.485E-03     39.8405E-03
            1606     12.9575E-03     52.8470E-03    -19.8965E+06     69.8834E+06     62.4513E+06     324.514E+03    -105.182E-03     210.941E-03    -105.758E-03     45.8729E-03    -105.607E-03     211.361E-03    -105.519E-03     44.6572E-03
            1607     12.1477E-03     52.7942E-03    -25.6969E+06     33.8208E+06     52.1193E+06     221.635E+03    -105.438E-03     211.237E-03    -105.799E-03     48.8275E-03    -105.821E-03     211.497E-03    -105.550E-03     47.6719E-03
            1608     11.3376E-03     52.7394E-03    -30.8836E+06     4.77010E+06     44.2804E+06    -129.577E+03    -105.588E-03     211.426E-03    -105.838E-03     50.2574E-03    -105.935E-03     211.552E-03    -105.579E-03     49.1695E-03
            1609     10.5274E-03     52.6834E-03    -36.2740E+06    -18.9150E+06     36.2145E+06    -71.1191E+03    -105.694E-03     211.562E-03    -105.868E-03     50.5731E-03    -106.011E-03     211.579E-03    -105.607E-03     49.5609E-03
            1610     9.71740E-03     52.6277E-03    -41.9631E+06    -40.8129E+06     28.3818E+06    -136.762E+03    -105.728E-03     211.626E-03    -105.898E-03     50.0795E-03    -106.020E-03     211.542E-03    -105.636E-03     49.1407E-03
            1611     8.90723E-03     52.5728E-03    -48.0464E+06    -58.8963E+06     20.4614E+06    -21.6562E+03    -105.743E-03     211.669E-03    -105.926E-03     48.9413E-03    -106.016E-03     211.503E-03    -105.669E-03     48.0768E-03
            1612     8.09722E-03     52.5195E-03    -54.4713E+06    -76.8061E+06     11.7429E+06     115.855E+03    -105.785E-03     211.737E-03    -105.952E-03     47.1882E-03    -106.040E-03     211.492E-03    -105.703E-03     46.3962E-03
            1613     7.28719E-03     52.4684E-03    -61.0531E+06    -93.5381E+06     2.29109E+06    -64.5873E+03    -105.809E-03     211.781E-03    -105.972E-03     44.8579E-03    -106.049E-03     211.465E-03    -105.736E-03     44.1348E-03
            1614     6.47737E-03     52.4202E-03    -68.1321E+06    -110.149E+06    -8.27564E+06    -84.4113E+03    -105.817E-03     211.803E-03    -105.986E-03     41.9859E-03    -106.042E-03     211.419E-03    -105.769E-03     41.3345E-03
            1615     5.66754E-03     52.3754E-03    -75.7247E+06    -127.511E+06    -20.3831E+06     108.671E+03    -105.815E-03     211.809E-03    -105.994E-03     38.4896E-03    -106.024E-03     211.356E-03    -105.801E-03     37.9139E-03
            1616     4.85774E-03     52.3349E-03    -83.5037E+06    -145.714E+06    -34.2456E+06     98.4844E+03    -105.796E-03     211.793E-03    -105.996E-03     34.4137E-03    -105.988E-03     211.269E-03    -105.835E-03     33.9137E-03
            1617     4.04786E-03     52.2991E-03    -91.8580E+06    -164.443E+06    -50.2977E+06     39.1113E+03    -105.773E-03     211.765E-03    -105.992E-03     29.7650E-03    -105.946E-03     211.174E-03    -105.872E-03     29.3431E-03
            1618     3.23822E-03     52.2688E-03    -100.094E+06    -183.738E+06    -68.3281E+06      78.135E+03    -105.786E-03     211.768E-03    -105.982E-03     24.5960E-03    -105.938E-03     211.110E-03    -105.912E-03     24.2560E-03
            1619     2.42864E-03     52.2444E-03    -107.485E+06    -203.396E+06    -86.7223E+06    -106.814E+03    -105.827E-03     211.794E-03    -105.967E-03     18.9626E-03    -105.953E-03     211.068E-03    -105.950E-03     18.7021E-03
            1620     1.61893E-03     52.2266E-03    -113.706E+06    -220.137E+06    -103.005E+06    -75.4742E+03    -105.870E-03     211.823E-03    -105.952E-03     12.9909E-03    -105.975E-03     211.041E-03    -105.983E-03     12.8128E-03
            1621     809.488E-06     52.2156E-03    -117.644E+06    -232.391E+06    -114.931E+06     247.875E+03    -105.910E-03     211.862E-03    -105.952E-03     7.12150E-03    -105.996E-03     211.039E-03    -106.019E-03     7.02608E-03
            1622     15.3887E-03     51.8002E-03    -4.83259E+06     107.044E+06     92.4131E+06    -2.76606E+03    -104.738E-03     210.491E-03    -105.753E-03     24.2261E-03    -105.136E-03     210.984E-03    -105.439E-03     23.1047E-03
            1623     14.5781E-03     51.7652E-03    -10.3401E+06     103.422E+06     77.1658E+06    -457.085E+03    -104.885E-03     210.601E-03    -105.716E-03     34.7802E-03    -105.323E-03     211.146E-03    -105.466E-03     33.4474E-03
            1624     13.7679E-03     51.7245E-03    -15.0412E+06     93.7086E+06     67.7305E+06    -100.259E+03    -105.073E-03     210.791E-03    -105.718E-03     40.8230E-03    -105.512E-03     211.313E-03    -105.493E-03     39.5535E-03
            1625     12.9583E-03     51.6760E-03    -19.1743E+06     70.1384E+06     62.9871E+06     648.985E+03    -105.200E-03     210.965E-03    -105.765E-03     45.8122E-03    -105.622E-03     211.385E-03    -105.524E-03     44.6010E-03
            1626     12.1476E-03     51.6236E-03    -24.1198E+06     34.3733E+06     52.9301E+06     654.130E+03    -105.376E-03     211.183E-03    -105.807E-03     48.8220E-03    -105.753E-03     211.442E-03    -105.557E-03     47.6731E-03
            1627     11.3373E-03     51.5685E-03    -29.9658E+06     4.98493E+06     44.7652E+06     290.755E+03    -105.536E-03     211.387E-03    -105.851E-03     50.3317E-03    -105.880E-03     211.512E-03    -105.591E-03     49.2504E-03
            1628     10.5273E-03     51.5126E-03    -35.8026E+06    -18.8567E+06     36.4368E+06     7.97617E+03    -105.662E-03     211.547E-03    -105.885E-03     50.6336E-03    -105.977E-03     211.563E-03    -105.624E-03     49.6221E-03
            1629     9.71706E-03     51.4569E-03    -41.5641E+06    -40.8022E+06     28.5623E+06     2.97435E+03    -105.742E-03     211.660E-03    -105.918E-03     50.0697E-03    -106.032E-03     211.575E-03    -105.655E-03     49.1313E-03
            1630     8.90708E-03     51.4021E-03    -47.5430E+06    -59.0393E+06     20.6006E+06     23.3534E+03    -105.772E-03     211.717E-03    -105.945E-03     48.9210E-03    -106.043E-03     211.550E-03    -105.688E-03     48.0556E-03
            1631     8.09705E-03     51.3486E-03    -53.8956E+06    -76.6323E+06     11.9280E+06    -108.247E+03    -105.783E-03     211.754E-03    -105.971E-03     47.1805E-03    -106.036E-03     211.509E-03    -105.722E-03     46.3849E-03
            1632     7.28715E-03     51.2975E-03    -60.7802E+06    -93.4519E+06     2.46387E+06    -152.295E+03    -105.805E-03     211.799E-03    -105.994E-03     44.8887E-03    -106.044E-03     211.483E-03    -105.758E-03     44.1635E-03
            1633     6.47717E-03     51.2492E-03    -68.2262E+06    -110.442E+06    -8.28377E+06    -45.4909E+03    -105.817E-03     211.829E-03    -106.012E-03     42.0194E-03    -106.041E-03     211.443E-03    -105.794E-03     41.3672E-03
            1634     5.66731E-03     51.2044E-03    -75.9587E+06    -127.543E+06    -20.5017E+06    -56.5813E+03    -105.814E-03     211.838E-03    -106.023E-03     38.5644E-03    -106.025E-03     211.385E-03    -105.831E-03     37.9856E-03
            1635     4.85751E-03     51.1638E-03    -83.9009E+06    -145.648E+06    -34.4182E+06    -23.8329E+03    -105.827E-03     211.855E-03    -106.027E-03     34.4704E-03    -106.021E-03     211.333E-03    -105.867E-03     33.9679E-03
            1636     4.04789E-03     51.1281E-03    -92.2203E+06    -164.503E+06    -50.7620E+06     122.517E+03    -105.824E-03     211.843E-03    -106.020E-03     29.7872E-03    -105.998E-03     211.254E-03    -105.901E-03     29.3657E-03
            1637     3.23812E-03     51.0978E-03    -100.314E+06    -183.698E+06    -68.5981E+06     122.933E+03    -105.818E-03     211.825E-03    -106.007E-03     24.6525E-03    -105.970E-03     211.168E-03    -105.938E-03     24.3126E-03
            1638     2.42845E-03     51.0734E-03    -107.766E+06    -203.124E+06    -86.8922E+06     73.8225E+03    -105.845E-03     211.839E-03    -105.993E-03     19.0287E-03    -105.974E-03     211.115E-03    -105.977E-03     18.7695E-03
            1639     1.61898E-03     51.0557E-03    -114.174E+06    -220.418E+06    -103.609E+06    -37.1221E+03    -105.902E-03     211.880E-03    -105.978E-03     13.0192E-03    -106.008E-03     211.098E-03    -106.011E-03     12.8417E-03
            1640     809.378E-06     51.0444E-03    -118.411E+06    -232.087E+06    -115.063E+06    -29.1330E+03    -105.916E-03     211.910E-03    -105.994E-03     7.07902E-03    -106.006E-03     211.090E-03    -106.062E-03     6.98170E-03
            1641     15.3887E-03     50.6285E-03    -4.76843E+06     107.253E+06     92.7141E+06     60.0529E+03    -104.773E-03     210.533E-03    -105.760E-03     24.0030E-03    -105.171E-03     211.026E-03    -105.445E-03     22.8813E-03
            1642     14.5788E-03     50.5950E-03    -9.86112E+06     104.030E+06     77.9344E+06     91.7358E+03    -104.951E-03     210.674E-03    -105.723E-03     34.7402E-03    -105.389E-03     211.220E-03    -105.469E-03     33.4138E-03
            1643     13.7684E-03     50.5532E-03    -15.3424E+06     93.3952E+06     67.7050E+06    -203.369E+03    -105.009E-03     210.732E-03    -105.723E-03     40.8251E-03    -105.449E-03     211.252E-03    -105.497E-03     39.5552E-03
            1644     12.9576E-03     50.5055E-03    -20.4854E+06     69.2195E+06     62.0952E+06    -120.431E+03    -105.149E-03     210.920E-03    -105.771E-03     45.9616E-03    -105.575E-03     211.339E-03    -105.531E-03     44.7412E-03
            1645     12.1475E-03     50.4528E-03    -25.2956E+06     34.0835E+06     52.3587E+06     379.545E+03    -105.370E-03     211.186E-03    -105.816E-03     48.9330E-03    -105.752E-03     211.447E-03    -105.567E-03     47.7804E-03
            1646     11.3373E-03     50.3979E-03    -29.9431E+06     5.57166E+06     45.0059E+06     574.848E+03    -105.522E-03     211.384E-03    -105.863E-03     50.3069E-03    -105.866E-03     211.512E-03    -105.603E-03     49.2280E-03
            1647     10.5270E-03     50.3418E-03    -35.3987E+06    -18.4566E+06     36.6496E+06     268.257E+03    -105.634E-03     211.533E-03    -105.899E-03     50.5700E-03    -105.949E-03     211.551E-03    -105.638E-03     49.5613E-03
            1648     9.71701E-03     50.2861E-03    -41.2484E+06    -40.8696E+06     28.6695E+06     67.6389E+03    -105.724E-03     211.659E-03    -105.935E-03     50.0416E-03    -106.013E-03     211.573E-03    -105.672E-03     49.1031E-03
            1649     8.90694E-03     50.2311E-03    -47.4279E+06    -58.9560E+06     20.7114E+06     58.5898E+03    -105.766E-03     211.731E-03    -105.965E-03     48.9801E-03    -106.037E-03     211.564E-03    -105.707E-03     48.1132E-03
            1650     8.09696E-03     50.1778E-03    -53.9759E+06    -76.4065E+06     12.0775E+06     43.2397E+03    -105.792E-03     211.786E-03    -105.993E-03     47.2870E-03    -106.047E-03     211.542E-03    -105.744E-03     46.4918E-03
            1651     7.28686E-03     50.1266E-03    -60.9631E+06    -93.5380E+06     2.36002E+06     4.58841E+03    -105.809E-03     211.827E-03    -106.018E-03     44.9637E-03    -106.049E-03     211.511E-03    -105.782E-03     44.2391E-03
            1652     6.47704E-03     50.0782E-03    -68.2051E+06    -110.561E+06    -8.38036E+06     18.0939E+03    -105.807E-03     211.846E-03    -106.039E-03     42.0419E-03    -106.032E-03     211.460E-03    -105.821E-03     41.3896E-03
            1653     5.66715E-03     50.0335E-03    -75.8781E+06    -127.375E+06    -20.5180E+06     18.7101E+03    -105.813E-03     211.868E-03    -106.055E-03     38.5964E-03    -106.023E-03     211.416E-03    -105.863E-03     38.0183E-03
            1654     4.85737E-03     49.9927E-03    -84.1605E+06    -145.833E+06    -34.7997E+06    -34.3619E+03    -105.835E-03     211.898E-03    -106.063E-03     34.5132E-03    -106.029E-03     211.376E-03    -105.903E-03     34.0100E-03
            1655     4.04759E-03     49.9571E-03    -92.1855E+06    -164.525E+06     -50.857E+06    -26.8828E+03    -105.865E-03     211.923E-03    -106.058E-03     29.8592E-03    -106.039E-03     211.333E-03    -105.940E-03     29.4344E-03
            1656     3.23804E-03     49.9267E-03    -100.305E+06    -183.528E+06    -68.6823E+06    -43.5596E+03    -105.878E-03     211.921E-03    -106.042E-03     24.6832E-03    -106.031E-03     211.265E-03    -105.974E-03     24.3390E-03
            1657     2.42843E-03     49.9025E-03    -107.675E+06    -203.324E+06    -86.5336E+06     10.1802E+03    -105.893E-03     211.918E-03    -106.025E-03     19.0380E-03    -106.021E-03     211.193E-03    -106.007E-03     18.7779E-03
            1658     1.61884E-03     49.8843E-03    -113.387E+06    -220.083E+06    -102.734E+06     197.482E+03    -105.939E-03     211.943E-03    -106.005E-03     13.0549E-03    -106.042E-03     211.161E-03    -106.035E-03     12.8811E-03
            1659     809.564E-06     49.8735E-03    -117.549E+06    -232.166E+06    -115.012E+06    -114.253E+03    -105.928E-03     211.958E-03    -106.030E-03     7.14159E-03    -106.013E-03     211.136E-03    -106.098E-03     7.04396E-03
            1660     15.3887E-03     49.4584E-03    -4.88323E+06     107.019E+06     92.4322E+06    -180.749E+03    -104.650E-03     210.412E-03    -105.762E-03     24.2271E-03    -105.048E-03     210.905E-03    -105.448E-03     23.1032E-03
            1661     14.5780E-03     49.4233E-03    -10.0941E+06     103.786E+06     77.6971E+06     160.089E+03    -104.859E-03     210.590E-03    -105.731E-03     34.8937E-03    -105.298E-03     211.136E-03    -105.478E-03     33.5721E-03
            1662     13.7679E-03     49.3831E-03    -15.0713E+06     93.6372E+06     67.8508E+06     428.260E+03    -105.007E-03     210.742E-03    -105.735E-03     40.9029E-03    -105.447E-03     211.263E-03    -105.509E-03     39.6410E-03
            1663     12.9577E-03     49.3346E-03    -20.1254E+06     69.3808E+06     62.1839E+06     130.525E+03    -105.186E-03     210.969E-03    -105.783E-03     45.9466E-03    -105.611E-03     211.388E-03    -105.543E-03     44.7280E-03
            1664     12.1473E-03     49.2821E-03    -25.4731E+06     33.5611E+06     52.0608E+06    -178.902E+03    -105.393E-03     211.220E-03    -105.826E-03     48.8531E-03    -105.775E-03     211.479E-03    -105.578E-03     47.6901E-03
            1665     11.3371E-03     49.2271E-03    -30.6523E+06     5.41054E+06     44.6813E+06     85.9654E+03    -105.514E-03     211.387E-03    -105.873E-03     50.3551E-03    -105.862E-03     211.515E-03    -105.613E-03     49.2682E-03
            1666     10.5271E-03     49.1710E-03    -35.8083E+06    -17.9411E+06     36.7152E+06     309.810E+03    -105.598E-03     211.510E-03    -105.912E-03     50.6703E-03    -105.916E-03     211.531E-03    -105.651E-03     49.6613E-03
            1667     9.71678E-03     49.1152E-03    -41.6066E+06    -40.8758E+06     28.5562E+06     219.070E+03    -105.660E-03     211.613E-03    -105.953E-03     50.1596E-03    -105.950E-03     211.528E-03    -105.691E-03     49.2225E-03
            1668     8.90666E-03     49.0603E-03    -47.8043E+06    -58.8873E+06     20.5711E+06     189.609E+03    -105.731E-03     211.721E-03    -105.990E-03     49.0805E-03    -106.004E-03     211.556E-03    -105.732E-03     48.2143E-03
            1669     8.09658E-03     49.0069E-03    -54.1194E+06    -76.3548E+06     12.0244E+06     146.934E+03    -105.809E-03     211.830E-03    -106.021E-03     47.3817E-03    -106.064E-03     211.588E-03    -105.772E-03     46.5863E-03
            1670     7.28683E-03     48.9556E-03    -60.8642E+06    -93.3588E+06     2.39063E+06     52.0427E+03    -105.827E-03     211.873E-03    -106.047E-03     45.0378E-03    -106.066E-03     211.558E-03    -105.811E-03     44.3124E-03
            1671     6.47680E-03     48.9074E-03    -68.2132E+06    -110.558E+06    -8.44485E+06    -73.0523E+03    -105.832E-03     211.901E-03    -106.069E-03     42.1465E-03    -106.057E-03     211.516E-03    -105.852E-03     41.4918E-03
            1672     5.66698E-03     48.8623E-03    -75.8057E+06    -127.334E+06    -20.5786E+06    -41.6550E+03    -105.837E-03     211.923E-03    -106.086E-03     38.6484E-03    -106.047E-03     211.471E-03    -105.895E-03     38.0682E-03
            1673     4.85716E-03     48.8218E-03    -83.7149E+06    -145.768E+06    -34.5918E+06    -76.4340E+03    -105.833E-03     211.933E-03    -106.099E-03     34.5547E-03    -106.026E-03     211.410E-03    -105.939E-03     34.0498E-03
            1674     4.04748E-03     48.7858E-03    -92.1011E+06    -164.815E+06    -50.5516E+06     44.5233E+03    -105.878E-03     211.981E-03    -106.103E-03     29.9059E-03    -106.052E-03     211.389E-03    -105.983E-03     29.4810E-03
            1675     3.23783E-03     48.7556E-03    -100.144E+06    -183.243E+06    -68.4977E+06     126.002E+03    -105.935E-03     212.022E-03    -106.087E-03     24.7129E-03    -106.088E-03     211.367E-03    -106.018E-03     24.3698E-03
            1676     2.42837E-03     48.7311E-03    -107.624E+06    -203.351E+06    -86.9245E+06    -70.4215E+03    -105.953E-03     212.015E-03    -106.063E-03     19.1026E-03    -106.080E-03     211.291E-03    -106.046E-03     18.8406E-03
            1677     1.61891E-03     48.7133E-03    -114.047E+06    -220.239E+06    -103.289E+06    -76.0237E+03    -105.959E-03     212.003E-03    -106.044E-03     13.1408E-03    -106.065E-03     211.222E-03    -106.076E-03     12.9635E-03
            1678     809.240E-06     48.7020E-03    -118.145E+06    -232.082E+06    -115.072E+06     238.717E+03    -106.029E-03     212.047E-03    -106.018E-03     7.09712E-03    -106.118E-03     211.227E-03    -106.085E-03     7.00445E-03
            1679     15.3886E-03     48.2875E-03    -4.96336E+06     106.927E+06     92.3457E+06     265.491E+03    -104.673E-03     210.435E-03    -105.762E-03     24.0995E-03    -105.071E-03     210.928E-03    -105.448E-03     22.9803E-03
            1680     14.5783E-03     48.2529E-03    -10.1741E+06     103.289E+06     77.1784E+06     132.958E+03    -104.753E-03     210.485E-03    -105.732E-03     34.4740E-03    -105.190E-03     211.028E-03    -105.481E-03     33.1525E-03
            1681     13.7677E-03     48.2120E-03    -14.9729E+06     93.5919E+06     67.6810E+06     14.1172E+03    -104.945E-03     210.686E-03    -105.741E-03     40.6572E-03    -105.384E-03     211.208E-03    -105.517E-03     39.3860E-03
            1682     12.9575E-03     48.1638E-03    -19.9648E+06     69.7587E+06     62.4470E+06     207.597E+03    -105.186E-03     210.979E-03    -105.793E-03     45.9065E-03    -105.612E-03     211.400E-03    -105.553E-03     44.6855E-03
            1683     12.1473E-03     48.1114E-03    -25.1678E+06     33.7654E+06     52.1910E+06     140.546E+03    -105.337E-03     211.175E-03    -105.838E-03     48.9467E-03    -105.718E-03     211.435E-03    -105.590E-03     47.7874E-03
            1684     11.3370E-03     48.0563E-03    -30.6464E+06     5.17206E+06     44.5859E+06    -30.7424E+03    -105.466E-03     211.356E-03    -105.890E-03     50.5259E-03    -105.814E-03     211.484E-03    -105.630E-03     49.4367E-03
            1685     10.5266E-03     48.0003E-03    -36.2176E+06    -18.2417E+06     36.4480E+06     98.9343E+03    -105.576E-03     211.509E-03    -105.933E-03     50.8150E-03    -105.896E-03     211.530E-03    -105.672E-03     49.8015E-03
            1686     9.71658E-03     47.9444E-03    -41.8202E+06    -40.6736E+06     28.4917E+06     299.424E+03    -105.668E-03     211.644E-03    -105.977E-03     50.2384E-03    -105.960E-03     211.561E-03    -105.714E-03     49.3009E-03
            1687     8.90643E-03     47.8895E-03    -47.5822E+06    -58.6118E+06     20.6067E+06     82.2262E+03    -105.739E-03     211.753E-03    -106.014E-03     49.1277E-03    -106.011E-03     211.589E-03    -105.757E-03     48.2596E-03
            1688     8.09650E-03     47.8358E-03    -53.9639E+06    -76.4655E+06     11.9884E+06    -6.55742E+03    -105.774E-03     211.825E-03    -106.051E-03     47.4142E-03    -106.029E-03     211.582E-03    -105.802E-03     46.6156E-03
            1689     7.28635E-03     47.7847E-03    -60.6864E+06    -93.2708E+06     2.56539E+06     67.1682E+03    -105.816E-03     211.899E-03    -106.083E-03     45.1273E-03    -106.055E-03     211.584E-03    -105.847E-03     44.4007E-03
            1690     6.47658E-03     47.7362E-03    -67.8463E+06    -110.327E+06    -8.23913E+06    -8.10965E+03    -105.867E-03     211.975E-03    -106.108E-03     42.2591E-03    -106.091E-03     211.590E-03    -105.891E-03     41.6035E-03
            1691     5.66678E-03     47.6913E-03    -75.8983E+06    -127.477E+06    -20.6116E+06    -142.143E+03    -105.866E-03     211.993E-03    -106.126E-03     38.7477E-03    -106.077E-03     211.541E-03    -105.935E-03     38.1642E-03
            1692     4.85702E-03     47.6506E-03    -84.1169E+06    -145.865E+06    -34.7157E+06     55.3174E+03    -105.880E-03     212.020E-03    -106.140E-03     34.6672E-03    -106.074E-03     211.498E-03    -105.980E-03     34.1629E-03
            1693     4.04729E-03     47.6147E-03    -92.2545E+06    -164.874E+06    -50.8653E+06     59.4764E+03    -105.908E-03     212.050E-03    -106.143E-03     29.9777E-03    -106.082E-03     211.459E-03    -106.024E-03     29.5522E-03
            1694     3.23771E-03     47.5842E-03    -100.109E+06    -183.298E+06    -68.3723E+06     62.7559E+03    -105.927E-03     212.063E-03    -106.137E-03     24.7524E-03    -106.079E-03     211.408E-03    -106.068E-03     24.4077E-03
            1695     2.42816E-03     47.5599E-03    -107.460E+06    -203.066E+06    -86.6368E+06     184.555E+03    -105.974E-03     212.101E-03    -106.128E-03     19.1522E-03    -106.101E-03     211.378E-03    -106.111E-03     18.8922E-03
            1696     1.61868E-03     47.5420E-03    -113.652E+06    -220.289E+06    -103.240E+06    -47.9602E+03    -106.029E-03     212.147E-03    -106.117E-03     13.2474E-03    -106.133E-03     211.364E-03    -106.149E-03     13.0693E-03
            1697     809.492E-06     47.5308E-03    -117.980E+06    -232.093E+06    -114.796E+06    -117.773E+03    -106.119E-03     212.198E-03    -106.079E-03     7.30046E-03    -106.207E-03     211.377E-03    -106.146E-03     7.20348E-03
            1698     15.3888E-03     47.1161E-03    -5.06528E+06     106.835E+06     92.2644E+06     121.433E+03    -104.702E-03     210.459E-03    -105.757E-03     23.8804E-03    -105.100E-03     210.951E-03    -105.443E-03     22.7576E-03
            1699     14.5784E-03     47.0827E-03    -9.82989E+06     103.739E+06     78.1121E+06     147.298E+03    -104.663E-03     210.394E-03    -105.731E-03     34.5606E-03    -105.100E-03     210.938E-03    -105.477E-03     33.2403E-03
            1700     13.7679E-03     47.0413E-03    -14.9786E+06     93.6043E+06     68.1354E+06     195.942E+03    -104.815E-03     210.561E-03    -105.746E-03     40.9551E-03    -105.255E-03     211.082E-03    -105.519E-03     39.6915E-03
            1701     12.9574E-03     46.9931E-03    -20.1305E+06     69.6018E+06     62.2651E+06     167.138E+03    -105.036E-03     210.839E-03    -105.804E-03     45.9876E-03    -105.461E-03     211.260E-03    -105.564E-03     44.7679E-03
            1702     12.1469E-03     46.9406E-03    -25.1812E+06     34.0406E+06     52.3146E+06     178.989E+03    -105.285E-03     211.142E-03    -105.858E-03     49.0510E-03    -105.666E-03     211.404E-03    -105.609E-03     47.8920E-03
            1703     11.3366E-03     46.8857E-03    -30.3658E+06     5.23189E+06     44.6068E+06     156.014E+03    -105.460E-03     211.373E-03    -105.912E-03     50.5653E-03    -105.807E-03     211.501E-03    -105.653E-03     49.4769E-03
            1704     10.5265E-03     46.8294E-03    -35.9380E+06    -18.4960E+06     36.3783E+06     88.9780E+03    -105.574E-03     211.532E-03    -105.958E-03     50.8392E-03    -105.892E-03     211.551E-03    -105.697E-03     49.8242E-03
            1705     9.71627E-03     46.7737E-03    -41.4837E+06    -40.5030E+06     28.6067E+06    -28.7760E+03    -105.686E-03     211.689E-03    -106.003E-03     50.3403E-03    -105.977E-03     211.607E-03    -105.741E-03     49.3969E-03
            1706     8.90629E-03     46.7184E-03    -47.5281E+06    -58.5039E+06     20.7225E+06     36.7191E+03    -105.742E-03     211.785E-03    -106.043E-03     49.2671E-03    -106.015E-03     211.621E-03    -105.786E-03     48.3960E-03
            1707     8.09614E-03     46.6651E-03    -54.0459E+06    -76.3837E+06     11.9948E+06    -11.3858E+03    -105.770E-03     211.853E-03    -106.082E-03     47.5232E-03    -106.026E-03     211.610E-03    -105.833E-03     46.7226E-03
            1708     7.28623E-03     46.6136E-03    -60.8976E+06    -93.4675E+06     2.48072E+06    -29.2186E+03    -105.815E-03     211.934E-03    -106.119E-03     45.2021E-03    -106.055E-03     211.618E-03    -105.883E-03     44.4731E-03
            1709     6.47627E-03     46.5650E-03    -68.2094E+06    -110.262E+06    -8.28713E+06     172.279E+03    -105.838E-03     211.989E-03    -106.151E-03     42.3007E-03    -106.064E-03     211.605E-03    -105.933E-03     41.6461E-03
            1710     5.66643E-03     46.5202E-03    -75.7360E+06    -127.321E+06    -20.5629E+06     180.377E+03    -105.877E-03     212.053E-03    -106.176E-03     38.8586E-03    -106.087E-03     211.602E-03    -105.984E-03     38.2778E-03
            1711     4.85670E-03     46.4793E-03    -83.7695E+06    -146.003E+06    -34.6788E+06    -20.0005E+03    -105.940E-03     212.132E-03    -106.192E-03     34.8170E-03    -106.132E-03     211.609E-03    -106.032E-03     34.3102E-03
            1712     4.04717E-03     46.4433E-03    -91.9363E+06    -164.688E+06    -50.6505E+06    -84.8168E+03    -105.954E-03     212.150E-03    -106.196E-03     30.1003E-03    -106.128E-03     211.560E-03    -106.077E-03     29.6713E-03
            1713     3.23754E-03     46.4129E-03    -100.050E+06    -183.491E+06    -68.3185E+06    -71.4115E+03    -105.959E-03     212.154E-03    -106.195E-03     24.8580E-03    -106.111E-03     211.498E-03    -106.126E-03     24.5108E-03
            1714     2.42798E-03     46.3885E-03    -107.503E+06    -203.061E+06    -86.4309E+06     10.3890E+03    -106.009E-03     212.204E-03    -106.195E-03     19.1768E-03    -106.136E-03     211.480E-03    -106.177E-03     18.9141E-03
            1715     1.61859E-03     46.3705E-03    -113.412E+06    -219.977E+06    -102.766E+06     46.0802E+03    -106.071E-03     212.271E-03    -106.200E-03     13.2490E-03    -106.175E-03     211.490E-03    -106.231E-03     13.0708E-03
            1716     809.080E-06     46.3592E-03    -117.496E+06    -232.262E+06    -114.921E+06    -11.1562E+03    -106.135E-03     212.384E-03    -106.248E-03     7.40963E-03    -106.221E-03     211.561E-03    -106.316E-03     7.31249E-03
            1717     15.3891E-03     45.9460E-03    -5.10745E+06     106.752E+06     92.0805E+06     63.3271E+03    -104.607E-03     210.367E-03    -105.760E-03     23.9831E-03    -105.005E-03     210.859E-03    -105.447E-03     22.8626E-03
            1718     14.5781E-03     45.9120E-03    -10.0469E+06     103.421E+06     77.5805E+06     177.319E+03    -104.642E-03     210.379E-03    -105.737E-03     34.7856E-03    -105.080E-03     210.923E-03    -105.484E-03     33.4641E-03
            1719     13.7676E-03     45.8708E-03    -14.6265E+06     93.9042E+06     68.1708E+06     228.290E+03    -104.785E-03     210.540E-03    -105.755E-03     41.0324E-03    -105.223E-03     211.062E-03    -105.529E-03     39.7686E-03
            1720     12.9571E-03     45.8226E-03    -19.3135E+06     69.7723E+06     62.7104E+06     194.805E+03    -104.974E-03     210.793E-03    -105.818E-03     46.0338E-03    -105.397E-03     211.213E-03    -105.578E-03     44.8151E-03
            1721     12.1467E-03     45.7700E-03    -24.7264E+06     33.5959E+06     52.3744E+06     287.116E+03    -105.250E-03     211.126E-03    -105.876E-03     49.0196E-03    -105.629E-03     211.385E-03    -105.627E-03     47.8609E-03
            1722     11.3365E-03     45.7147E-03    -30.2065E+06     5.44420E+06     44.7033E+06     265.474E+03    -105.424E-03     211.358E-03    -105.934E-03     50.5573E-03    -105.771E-03     211.488E-03    -105.675E-03     49.4693E-03
            1723     10.5261E-03     45.6588E-03    -35.6423E+06    -18.1785E+06     36.6066E+06     95.0764E+03    -105.546E-03     211.530E-03    -105.984E-03     50.9565E-03    -105.863E-03     211.551E-03    -105.723E-03     49.9403E-03
            1724     9.71603E-03     45.6026E-03    -41.4800E+06    -40.5685E+06     28.6726E+06     26.0815E+03    -105.645E-03     211.680E-03    -106.035E-03     50.4921E-03    -105.937E-03     211.597E-03    -105.773E-03     49.5471E-03
            1725     8.90583E-03     45.5476E-03    -47.6014E+06    -58.6138E+06     20.7330E+06     44.5836E+03    -105.724E-03     211.805E-03    -106.081E-03     49.4048E-03    -105.998E-03     211.642E-03    -105.824E-03     48.5311E-03
            1726     8.09587E-03     45.4939E-03    -53.9595E+06    -76.1838E+06     12.1109E+06     85.8671E+03    -105.808E-03     211.931E-03    -106.123E-03     47.7055E-03    -106.064E-03     211.690E-03    -105.874E-03     46.9039E-03
            1727     7.28593E-03     45.4425E-03    -60.9536E+06    -93.4382E+06     2.34601E+06     41.4222E+03    -105.844E-03     212.004E-03    -106.160E-03     45.3767E-03    -106.084E-03     211.690E-03    -105.925E-03     44.6465E-03
            1728     6.47603E-03     45.3940E-03    -68.2327E+06    -110.558E+06    -8.35393E+06     18.8435E+03    -105.857E-03     212.052E-03    -106.195E-03     42.4119E-03    -106.082E-03     211.667E-03    -105.978E-03     41.7538E-03
            1729     5.66614E-03     45.3489E-03    -75.6876E+06    -127.152E+06    -20.3870E+06     140.337E+03    -105.900E-03     212.125E-03    -106.225E-03     38.9052E-03    -106.110E-03     211.674E-03    -106.033E-03     38.3228E-03
            1730     4.85645E-03     45.3079E-03    -83.5633E+06    -145.666E+06    -34.4961E+06     84.9686E+03    -105.927E-03     212.175E-03    -106.248E-03     34.8285E-03    -106.119E-03     211.654E-03    -106.088E-03     34.3216E-03
            1731     4.04675E-03     45.2719E-03    -91.9976E+06    -164.779E+06    -50.6295E+06    -106.324E+03    -105.963E-03     212.227E-03    -106.264E-03     30.1847E-03    -106.137E-03     211.636E-03    -106.145E-03     29.7542E-03
            1732     3.23726E-03     45.2415E-03    -100.192E+06    -183.623E+06    -68.3467E+06    -82.6218E+03    -106.046E-03     212.314E-03    -106.268E-03     24.9811E-03    -106.199E-03     211.657E-03    -106.198E-03     24.6325E-03
            1733     2.42791E-03     45.2168E-03    -107.768E+06    -203.004E+06    -86.7193E+06    -25.2705E+03    -106.113E-03     212.371E-03    -106.258E-03     19.2598E-03    -106.242E-03     211.648E-03    -106.241E-03     18.9952E-03
            1734     1.61848E-03     45.1990E-03    -114.192E+06    -220.111E+06    -103.466E+06    -11.2129E+03    -106.173E-03     212.413E-03    -106.239E-03     13.2449E-03    -106.280E-03     211.633E-03    -106.272E-03     13.0654E-03
            1735     809.280E-06     45.1874E-03    -117.892E+06    -232.061E+06    -115.042E+06     184.595E+03    -106.154E-03     212.431E-03    -106.278E-03     7.30510E-03    -106.241E-03     211.611E-03    -106.346E-03     7.21011E-03
            1736     15.3880E-03     44.7753E-03    -5.23800E+06     106.514E+06     91.9921E+06    -13.0008E+03    -104.482E-03     210.256E-03    -105.773E-03     23.9415E-03    -104.880E-03     210.746E-03    -105.460E-03     22.8220E-03
            1737     14.5781E-03     44.7414E-03    -10.0060E+06     103.462E+06     77.6080E+06     235.436E+03    -104.721E-03     210.473E-03    -105.752E-03     34.7768E-03    -105.159E-03     211.017E-03    -105.500E-03     33.4546E-03
            1738     13.7676E-03     44.7003E-03    -14.7235E+06     93.8488E+06     68.1975E+06     157.346E+03    -104.792E-03     210.561E-03    -105.769E-03     41.0240E-03    -105.231E-03     211.083E-03    -105.543E-03     39.7565E-03
            1739     12.9571E-03     44.6521E-03    -20.2452E+06     69.1668E+06     62.2059E+06     117.547E+03    -104.972E-03     210.805E-03    -105.832E-03     46.1690E-03    -105.398E-03     211.224E-03    -105.592E-03     44.9480E-03
            1740     12.1467E-03     44.5992E-03    -25.3224E+06     33.8219E+06     52.2243E+06     394.967E+03    -105.200E-03     211.093E-03    -105.893E-03     49.1567E-03    -105.583E-03     211.354E-03    -105.644E-03     47.9987E-03
            1741     11.3361E-03     44.5443E-03    -30.5592E+06     5.89942E+06     44.7133E+06     304.078E+03    -105.352E-03     211.309E-03    -105.957E-03     50.6763E-03    -105.702E-03     211.441E-03    -105.698E-03     49.5880E-03
            1742     10.5259E-03     44.4878E-03    -36.0727E+06    -18.1254E+06     36.5675E+06     136.915E+03    -105.487E-03     211.501E-03    -106.014E-03     51.0619E-03    -105.808E-03     211.523E-03    -105.753E-03     50.0443E-03
            1743     9.71562E-03     44.4320E-03    -41.7323E+06     -40.523E+06     28.6549E+06     94.5424E+03    -105.601E-03     211.673E-03    -106.072E-03     50.5989E-03    -105.895E-03     211.591E-03    -105.809E-03     49.6534E-03
            1744     8.90550E-03     44.3766E-03    -47.7254E+06    -58.5826E+06     20.6301E+06     12.5415E+03    -105.711E-03     211.834E-03    -106.123E-03     49.5465E-03    -105.986E-03     211.672E-03    -105.866E-03     48.6710E-03
            1745     8.09544E-03     44.3229E-03    -54.1644E+06    -76.3748E+06     11.8959E+06     69.9234E+03    -105.807E-03     211.978E-03    -106.170E-03     47.8327E-03    -106.064E-03     211.737E-03    -105.922E-03     47.0288E-03
            1746     7.28546E-03     44.2713E-03    -60.7776E+06    -93.2900E+06     2.44064E+06     144.035E+03    -105.869E-03     212.081E-03    -106.212E-03     45.4836E-03    -106.109E-03     211.767E-03    -105.977E-03     44.7524E-03
            1747     6.47565E-03     44.2227E-03    -67.8595E+06    -110.401E+06    -8.16177E+06    -49.4528E+03    -105.935E-03     212.183E-03    -106.248E-03     42.5824E-03    -106.159E-03     211.798E-03    -106.030E-03     41.9209E-03
            1748     5.66598E-03     44.1775E-03    -75.8421E+06    -127.394E+06    -20.4395E+06    -115.943E+03    -105.958E-03     212.234E-03    -106.276E-03     39.0675E-03    -106.169E-03     211.783E-03    -106.084E-03     38.4794E-03
            1749     4.85624E-03     44.1365E-03    -84.0574E+06    -145.552E+06    -34.6248E+06     58.1222E+03    -105.947E-03     212.249E-03    -106.301E-03     34.8894E-03    -106.142E-03     211.729E-03    -106.142E-03     34.3804E-03
            1750     4.04653E-03     44.1005E-03    -92.1198E+06    -164.572E+06    -50.6888E+06     102.960E+03    -105.997E-03     212.319E-03    -106.322E-03     30.1965E-03    -106.171E-03     211.730E-03    -106.204E-03     29.7677E-03
            1751     3.23701E-03     44.0696E-03    -100.386E+06    -183.735E+06    -68.5898E+06    -13.7772E+03    -106.089E-03     212.419E-03    -106.330E-03     24.9546E-03    -106.243E-03     211.763E-03    -106.261E-03     24.6055E-03
            1752     2.42761E-03     44.0452E-03    -107.951E+06    -203.039E+06    -86.8357E+06     6.28706E+03    -106.203E-03     212.521E-03    -106.318E-03     19.2774E-03    -106.332E-03     211.798E-03    -106.301E-03     19.0125E-03
            1753     1.61848E-03     44.0269E-03    -113.971E+06    -220.030E+06    -103.272E+06    -1.01394E+03    -106.289E-03     212.564E-03    -106.276E-03     13.2981E-03    -106.395E-03     211.784E-03    -106.308E-03     13.1185E-03
            1754     809.357E-06     44.0157E-03    -117.963E+06    -232.116E+06    -115.037E+06    -57.1803E+03    -106.177E-03     212.464E-03    -106.287E-03     7.33032E-03    -106.265E-03     211.643E-03    -106.354E-03     7.23107E-03
            1755     15.3886E-03     43.6047E-03    -4.95102E+06     106.704E+06     92.1881E+06     85.8618E+03    -104.357E-03     210.137E-03    -105.780E-03     24.0020E-03    -104.754E-03     210.628E-03    -105.467E-03     22.8876E-03
            1756     14.5776E-03     43.5705E-03    -10.0277E+06     103.395E+06      77.567E+06     2.48472E+03    -104.618E-03     210.384E-03    -105.765E-03     34.7000E-03    -105.056E-03     210.928E-03    -105.513E-03     33.3762E-03
            1757     13.7672E-03     43.5299E-03    -14.9542E+06     93.6408E+06     67.8989E+06     141.908E+03    -104.822E-03     210.606E-03    -105.784E-03     41.0275E-03    -105.262E-03     211.129E-03    -105.559E-03     39.7568E-03
            1758     12.9567E-03     43.4814E-03    -19.7765E+06     69.0262E+06     62.5078E+06     255.088E+03    -104.957E-03     210.807E-03    -105.850E-03     46.1912E-03    -105.381E-03     211.225E-03    -105.609E-03     44.9694E-03
            1759     12.1462E-03     43.4287E-03    -24.9804E+06     33.7345E+06     52.4438E+06     379.673E+03    -105.113E-03     211.029E-03    -105.915E-03     49.2236E-03    -105.495E-03     211.289E-03    -105.666E-03     48.0642E-03
            1760     11.3360E-03     43.3734E-03    -30.3293E+06     6.25418E+06     44.9532E+06     392.527E+03    -105.289E-03     211.275E-03    -105.986E-03     50.8630E-03    -105.639E-03     211.409E-03    -105.726E-03     49.7745E-03
            1761     10.5255E-03     43.3173E-03    -35.8610E+06    -17.8765E+06     36.6418E+06     218.917E+03    -105.455E-03     211.504E-03    -106.049E-03     51.2542E-03    -105.775E-03     211.527E-03    -105.788E-03     50.2364E-03
            1762     9.71525E-03     43.2610E-03    -41.6688E+06    -40.4228E+06     28.6120E+06     83.8044E+03    -105.597E-03     211.708E-03    -106.111E-03     50.7587E-03    -105.890E-03     211.627E-03    -105.849E-03     49.8114E-03
            1763     8.90509E-03     43.2057E-03    -47.8887E+06    -58.5690E+06     20.5701E+06     93.5562E+03    -105.711E-03     211.879E-03    -106.167E-03     49.6807E-03    -105.987E-03     211.717E-03    -105.910E-03     48.8043E-03
            1764     8.09504E-03     43.1517E-03    -54.2485E+06    -76.4149E+06     11.8631E+06    -2.91802E+03    -105.801E-03     212.020E-03    -106.219E-03     47.9312E-03    -106.059E-03     211.780E-03    -105.971E-03     47.1243E-03
            1765     7.28515E-03     43.1001E-03    -60.9446E+06    -93.2724E+06     2.47373E+06    -76.5894E+03    -105.882E-03     212.149E-03    -106.267E-03     45.5936E-03    -106.123E-03     211.836E-03    -106.031E-03     44.8571E-03
            1766     6.47525E-03     43.0513E-03    -68.2150E+06    -110.255E+06    -8.23740E+06     30.6327E+03    -105.959E-03     212.265E-03    -106.307E-03     42.7132E-03    -106.185E-03     211.883E-03    -106.089E-03     42.0503E-03
            1767     5.66549E-03     43.0059E-03    -75.8085E+06    -127.396E+06    -20.5203E+06    -15.0672E+03    -106.010E-03     212.348E-03    -106.338E-03     39.1625E-03    -106.221E-03     211.897E-03    -106.146E-03     38.5728E-03
            1768     4.85587E-03     42.9651E-03    -83.9699E+06    -145.688E+06    -34.7039E+06    -94.9819E+03    -106.063E-03     212.423E-03    -106.359E-03     35.0145E-03    -106.258E-03     211.903E-03    -106.200E-03     34.5010E-03
            1769     4.04644E-03     42.9287E-03    -92.2010E+06    -164.572E+06    -50.7286E+06     42.4875E+03    -106.108E-03     212.477E-03    -106.370E-03     30.2997E-03    -106.283E-03     211.888E-03    -106.251E-03     29.8682E-03
            1770     3.23697E-03     42.8980E-03    -100.288E+06    -183.566E+06    -68.6587E+06     82.2500E+03    -106.144E-03     212.513E-03    -106.369E-03     25.0007E-03    -106.298E-03     211.858E-03    -106.300E-03     24.6522E-03
            1771     2.42761E-03     42.8732E-03    -107.893E+06    -203.123E+06    -86.9017E+06    -93.7114E+03    -106.220E-03     212.580E-03    -106.360E-03     19.3142E-03    -106.349E-03     211.857E-03    -106.343E-03     19.0477E-03
            1772     1.61836E-03     42.8550E-03    -113.918E+06    -219.868E+06    -103.103E+06    -50.8770E+03    -106.266E-03     212.612E-03    -106.345E-03     13.2953E-03    -106.373E-03     211.832E-03    -106.377E-03     13.1141E-03
            1773     809.077E-06     42.8439E-03    -118.381E+06    -232.436E+06    -115.202E+06    -36.6277E+03    -106.331E-03     212.646E-03    -106.315E-03     7.26890E-03    -106.420E-03     211.824E-03    -106.382E-03     7.16890E-03
            1774     15.3882E-03     42.4345E-03    -4.88727E+06     106.443E+06     91.9294E+06     130.163E+03    -104.295E-03     210.073E-03    -105.778E-03     23.9310E-03    -104.691E-03     210.563E-03    -105.466E-03     22.8134E-03
            1775     14.5776E-03     42.4002E-03    -9.44903E+06     103.331E+06     77.4053E+06     272.097E+03    -104.454E-03     210.223E-03    -105.769E-03     34.6461E-03    -104.888E-03     210.766E-03    -105.518E-03     33.3278E-03
            1776     13.7671E-03     42.3590E-03    -14.7920E+06     93.6047E+06     67.7663E+06     59.4667E+03    -104.701E-03     210.498E-03    -105.797E-03     40.9621E-03    -105.141E-03     211.021E-03    -105.572E-03     39.6873E-03
            1777     12.9567E-03     42.3109E-03    -20.0648E+06     68.8068E+06     62.4836E+06     443.763E+03    -104.857E-03     210.729E-03    -105.872E-03     46.2187E-03    -105.284E-03     211.148E-03    -105.630E-03     44.9966E-03
            1778     12.1462E-03     42.2582E-03    -25.2517E+06     33.8480E+06     52.3070E+06     577.044E+03    -105.034E-03     210.978E-03    -105.944E-03     49.4629E-03    -105.418E-03     211.240E-03    -105.695E-03     48.3066E-03
            1779     11.3353E-03     42.2029E-03    -30.5841E+06     6.49325E+06     44.7074E+06     325.373E+03    -105.253E-03     211.273E-03    -106.020E-03     51.0774E-03    -105.604E-03     211.409E-03    -105.762E-03     49.9880E-03
            1780     10.5250E-03     42.1463E-03    -35.9940E+06    -17.7060E+06     36.6476E+06     194.742E+03    -105.449E-03     211.538E-03    -106.089E-03     51.4004E-03    -105.771E-03     211.563E-03    -105.828E-03     50.3806E-03
            1781     9.71483E-03     42.0902E-03    -41.7310E+06    -40.3728E+06     28.6560E+06     156.871E+03    -105.618E-03     211.772E-03    -106.154E-03     50.9167E-03    -105.913E-03     211.693E-03    -105.892E-03     49.9676E-03
            1782     8.90470E-03     42.0345E-03    -47.6428E+06    -58.4610E+06     20.7561E+06     74.2380E+03    -105.734E-03     211.947E-03    -106.213E-03     49.8075E-03    -106.009E-03     211.785E-03    -105.955E-03     48.9286E-03
            1783     8.09467E-03     41.9805E-03    -53.9965E+06    -76.2066E+06     12.1098E+06    -12.9475E+03    -105.816E-03     212.084E-03    -106.268E-03     48.0410E-03    -106.074E-03     211.845E-03    -106.019E-03     47.2318E-03
            1784     7.28465E-03     41.9287E-03    -60.9348E+06    -93.2576E+06     2.48262E+06    -78.9397E+03    -105.902E-03     212.221E-03    -106.319E-03     45.7012E-03    -106.144E-03     211.908E-03    -106.083E-03     44.9622E-03
            1785     6.47491E-03     41.8798E-03    -68.2348E+06    -110.347E+06    -8.32019E+06    -119.218E+03    -105.980E-03     212.343E-03    -106.363E-03     42.7732E-03    -106.207E-03     211.960E-03    -106.145E-03     42.1062E-03
            1786     5.66518E-03     41.8344E-03    -75.8969E+06    -127.468E+06    -20.5321E+06    -17.1949E+03    -106.061E-03     212.458E-03    -106.397E-03     39.1983E-03    -106.272E-03     212.007E-03    -106.205E-03     38.6066E-03
            1787     4.85562E-03     41.7932E-03    -83.7522E+06    -145.561E+06    -34.5450E+06     52.5005E+03    -106.145E-03     212.563E-03    -106.417E-03     35.0562E-03    -106.339E-03     212.043E-03    -106.258E-03     34.5427E-03
            1788     4.04613E-03     41.7569E-03    -92.1619E+06    -164.662E+06    -50.7693E+06    -89.8577E+03    -106.190E-03     212.612E-03    -106.423E-03     30.3690E-03    -106.365E-03     212.023E-03    -106.304E-03     29.9343E-03
            1789     3.23682E-03     41.7261E-03    -100.194E+06    -183.592E+06    -68.5006E+06    -39.1483E+03    -106.231E-03     212.646E-03    -106.415E-03     25.1594E-03    -106.384E-03     211.990E-03    -106.346E-03     24.8087E-03
            1790     2.42754E-03     41.7013E-03    -107.298E+06    -202.904E+06    -86.7606E+06    -91.7738E+03    -106.263E-03     212.663E-03    -106.400E-03     19.4009E-03    -106.390E-03     211.940E-03    -106.384E-03     19.1334E-03
            1791     1.61821E-03     41.6831E-03    -113.484E+06    -220.214E+06    -103.117E+06    -276.114E+03    -106.286E-03     212.680E-03    -106.393E-03     13.2449E-03    -106.390E-03     211.898E-03    -106.425E-03     13.0596E-03
            1792     809.051E-06     41.6718E-03    -117.361E+06    -232.517E+06    -114.359E+06    -7.66105E+03    -106.479E-03     212.765E-03    -106.285E-03     7.27262E-03    -106.565E-03     211.940E-03    -106.350E-03     7.17457E-03
            1793     15.3886E-03     41.2640E-03    -5.02788E+06     106.261E+06     91.7795E+06    -253.433E+03    -104.239E-03     210.016E-03    -105.776E-03     23.9909E-03    -104.636E-03     210.506E-03    -105.464E-03     22.8669E-03
            1794     14.5778E-03     41.2301E-03    -10.2612E+06     102.519E+06     76.8776E+06    -125.618E+03    -104.309E-03     210.082E-03    -105.773E-03     34.8626E-03    -104.746E-03     210.623E-03    -105.522E-03     33.5412E-03
            1795     13.7669E-03     41.1885E-03    -14.7652E+06     93.7432E+06     67.7392E+06     719.174E+03    -104.429E-03     210.243E-03    -105.814E-03     41.2650E-03    -104.868E-03     210.766E-03    -105.589E-03     40.0076E-03
            1796     12.9560E-03     41.1406E-03    -20.0308E+06     68.5813E+06     62.0696E+06     751.251E+03    -104.728E-03     210.630E-03    -105.901E-03     46.4683E-03    -105.154E-03     211.047E-03    -105.661E-03     45.2536E-03
            1797     12.1452E-03     41.0878E-03    -25.5117E+06     34.0230E+06     52.3640E+06     613.277E+03    -105.077E-03     211.058E-03    -105.980E-03     49.6236E-03    -105.463E-03     211.322E-03    -105.731E-03     48.4654E-03
            1798     11.3351E-03     41.0322E-03    -30.6553E+06     7.18206E+06     45.1422E+06     292.944E+03    -105.293E-03     211.350E-03    -106.057E-03     51.1318E-03    -105.647E-03     211.490E-03    -105.797E-03     50.0395E-03
            1799     10.5247E-03     40.9756E-03    -36.0129E+06    -17.7773E+06     36.7424E+06    -109.141E+03    -105.458E-03     211.584E-03    -106.126E-03     51.4426E-03    -105.780E-03     211.609E-03    -105.864E-03     50.4167E-03
            1800     9.71438E-03     40.9191E-03    -41.3908E+06    -40.2985E+06     28.8311E+06    -63.3327E+03    -105.617E-03     211.811E-03    -106.194E-03     50.9791E-03    -105.911E-03     211.732E-03    -105.932E-03     50.0251E-03
            1801     8.90429E-03     40.8634E-03    -47.1687E+06    -58.4439E+06     20.9458E+06    -41.7591E+03    -105.755E-03     212.011E-03    -106.256E-03     49.8700E-03    -106.029E-03     211.849E-03    -105.998E-03     48.9870E-03
            1802     8.09425E-03     40.8092E-03    -53.6526E+06    -76.1744E+06     12.2496E+06    -4.37897E+03    -105.866E-03     212.178E-03    -106.312E-03     48.0853E-03    -106.122E-03     211.938E-03    -106.062E-03     47.2741E-03
            1803     7.28444E-03     40.7573E-03    -60.5587E+06    -93.2760E+06     2.69482E+06     41.4200E+03    -105.939E-03     212.302E-03    -106.363E-03     45.7195E-03    -106.180E-03     211.989E-03    -106.127E-03     44.9805E-03
            1804     6.47455E-03     40.7082E-03    -67.7485E+06    -110.249E+06    -8.04274E+06     12.6688E+03    -106.010E-03     212.418E-03    -106.409E-03     42.8021E-03    -106.235E-03     212.035E-03    -106.191E-03     42.1354E-03
            1805     5.66490E-03     40.6626E-03    -75.4243E+06    -127.547E+06    -20.3193E+06    -112.696E+03    -106.097E-03     212.542E-03    -106.445E-03     39.2850E-03    -106.306E-03     212.090E-03    -106.252E-03     38.6920E-03
            1806     4.85538E-03     40.6213E-03    -83.5100E+06    -145.674E+06    -34.3189E+06    -38.5725E+03    -106.174E-03     212.644E-03    -106.469E-03     35.1386E-03    -106.367E-03     212.122E-03    -106.309E-03     34.6231E-03
            1807     4.04597E-03     40.5849E-03    -91.6771E+06    -164.382E+06    -50.3615E+06     67.4742E+03    -106.248E-03     212.724E-03    -106.476E-03     30.4050E-03    -106.421E-03     212.135E-03    -106.357E-03     29.9713E-03
            1808     3.23658E-03     40.5540E-03    -99.9906E+06    -183.791E+06    -68.3598E+06    -84.5543E+03    -106.305E-03     212.770E-03    -106.465E-03     25.1405E-03    -106.457E-03     212.113E-03    -106.395E-03     24.7885E-03
            1809     2.42736E-03     40.5291E-03    -107.610E+06    -202.789E+06    -86.7682E+06    -9.99365E+03    -106.334E-03     212.775E-03    -106.441E-03     19.3455E-03    -106.462E-03     212.053E-03    -106.425E-03     19.0791E-03
            1810     1.61829E-03     40.5111E-03    -113.640E+06    -220.165E+06    -103.511E+06    -86.0558E+03    -106.373E-03     212.783E-03    -106.410E-03     13.2717E-03    -106.477E-03     212.002E-03    -106.444E-03     13.0902E-03
            1811     809.173E-06     40.4996E-03    -117.844E+06    -232.809E+06    -115.135E+06    -256.614E+03    -106.423E-03     212.765E-03    -106.342E-03     7.35892E-03    -106.509E-03     211.941E-03    -106.410E-03     7.25804E-03
            1812     15.3883E-03     40.0941E-03    -4.70187E+06     106.346E+06     91.8351E+06     113.302E+03    -104.097E-03     209.881E-03    -105.784E-03     24.1497E-03    -104.492E-03     210.371E-03    -105.472E-03     23.0386E-03
            1813     14.5774E-03     40.0597E-03    -10.4795E+06     102.209E+06     76.7841E+06     217.209E+03    -104.163E-03     209.953E-03    -105.790E-03     35.0923E-03    -104.601E-03     210.493E-03    -105.539E-03     33.7786E-03
            1814     13.7665E-03     40.0189E-03    -14.9901E+06     93.5981E+06     67.7226E+06    -277.704E+03    -104.371E-03     210.209E-03    -105.838E-03     41.4260E-03    -104.811E-03     210.732E-03    -105.614E-03     40.1589E-03
            1815     12.9555E-03     39.9700E-03    -18.4552E+06     67.8217E+06     62.6944E+06     224.116E+03    -104.756E-03     210.686E-03    -105.930E-03     46.4325E-03    -105.173E-03     211.097E-03    -105.688E-03     45.2100E-03
            1816     12.1453E-03     39.9171E-03    -23.0606E+06     34.0217E+06     53.8173E+06     905.996E+03    -105.102E-03     211.113E-03    -106.011E-03     49.4517E-03    -105.478E-03     211.372E-03    -105.758E-03     48.2935E-03
            1817     11.3346E-03     39.8614E-03    -28.7002E+06     8.17173E+06     46.2988E+06     671.349E+03    -105.307E-03     211.394E-03    -106.087E-03     51.1124E-03    -105.655E-03     211.535E-03    -105.826E-03     50.0223E-03
            1818     10.5244E-03     39.8047E-03    -34.6009E+06    -17.4397E+06     37.3455E+06     230.135E+03    -105.502E-03     211.657E-03    -106.155E-03     51.4645E-03    -105.819E-03     211.681E-03    -105.893E-03     50.4404E-03
            1819     9.71416E-03     39.7481E-03    -40.7745E+06    -40.2734E+06     29.1206E+06     3.88379E+03    -105.652E-03     211.875E-03    -106.223E-03     50.9510E-03    -105.944E-03     211.794E-03    -105.960E-03     49.9962E-03
            1820     8.90395E-03     39.6922E-03    -47.1141E+06    -58.6028E+06     21.0310E+06     48.5572E+03    -105.763E-03     212.048E-03    -106.285E-03     49.7898E-03    -106.037E-03     211.885E-03    -106.026E-03     48.9069E-03
            1821     8.09404E-03     39.6378E-03    -53.4776E+06    -76.1087E+06     12.4076E+06     121.966E+03    -105.863E-03     212.207E-03    -106.344E-03     48.0661E-03    -106.119E-03     211.966E-03    -106.094E-03     47.2558E-03
            1822     7.28411E-03     39.5858E-03    -60.2203E+06    -93.2285E+06     2.80118E+06     18.6725E+03    -105.965E-03     212.362E-03    -106.397E-03     45.7768E-03    -106.204E-03     212.048E-03    -106.160E-03     45.0372E-03
            1823     6.47441E-03     39.5366E-03    -67.4508E+06    -110.230E+06    -7.78978E+06     24.9451E+03    -106.051E-03     212.494E-03    -106.443E-03     42.8599E-03    -106.275E-03     212.110E-03    -106.225E-03     42.1937E-03
            1824     5.66471E-03     39.4908E-03    -75.2271E+06    -127.434E+06    -20.0655E+06     137.225E+03    -106.115E-03     212.596E-03    -106.481E-03     39.3053E-03    -106.325E-03     212.144E-03    -106.287E-03     38.7158E-03
            1825     4.85513E-03     39.4493E-03    -83.5753E+06    -145.709E+06    -34.5216E+06    -32.7286E+03    -106.199E-03     212.704E-03    -106.505E-03     35.1338E-03    -106.391E-03     212.183E-03    -106.346E-03     34.6193E-03
            1826     4.04570E-03     39.4128E-03    -91.8899E+06    -164.585E+06    -50.5699E+06    -3.73599E+03    -106.285E-03     212.800E-03    -106.514E-03     30.3982E-03    -106.459E-03     212.210E-03    -106.395E-03     29.9646E-03
            1827     3.23658E-03     39.3818E-03    -99.9052E+06    -183.489E+06    -68.2819E+06     205.943E+03    -106.333E-03     212.838E-03    -106.504E-03     25.1439E-03    -106.485E-03     212.182E-03    -106.435E-03     24.7957E-03
            1828     2.42737E-03     39.3570E-03    -107.407E+06    -202.859E+06    -86.4821E+06     108.632E+03    -106.377E-03     212.860E-03    -106.483E-03     19.4063E-03    -106.505E-03     212.137E-03    -106.466E-03     19.1421E-03
            1829     1.61813E-03     39.3388E-03    -113.725E+06    -220.069E+06    -102.859E+06     231.275E+03    -106.433E-03     212.881E-03    -106.448E-03     13.3159E-03    -106.539E-03     212.100E-03    -106.478E-03     13.1391E-03
            1830     809.092E-06     39.3275E-03    -117.936E+06    -232.758E+06    -115.266E+06     130.214E+03    -106.336E-03     212.819E-03    -106.483E-03     7.24453E-03    -106.423E-03     211.995E-03    -106.550E-03     7.14692E-03
            1831     15.3881E-03     38.9240E-03    -5.10694E+06     106.002E+06     91.8618E+06     107.920E+03    -103.935E-03     209.733E-03    -105.797E-03     24.0302E-03    -104.332E-03     210.221E-03    -105.484E-03     22.9195E-03
            1832     14.5770E-03     38.8900E-03    -8.91594E+06     103.863E+06     78.3751E+06     680.192E+03    -104.168E-03     209.978E-03    -105.810E-03     34.9250E-03    -104.602E-03     210.522E-03    -105.556E-03     33.6153E-03
            1833     13.7661E-03     38.8485E-03    -14.8522E+06     93.5383E+06     67.9309E+06     91.8116E+03    -104.482E-03     210.335E-03    -105.853E-03     41.2869E-03    -104.922E-03     210.858E-03    -105.628E-03     40.0155E-03
            1834     12.9558E-03     38.7996E-03    -21.4275E+06     67.4722E+06     61.2802E+06    -372.230E+03    -104.774E-03     210.713E-03    -105.939E-03     46.4497E-03    -105.204E-03     211.128E-03    -105.699E-03     45.2180E-03
            1835     12.1448E-03     38.7465E-03    -25.9385E+06     33.5995E+06     52.1399E+06    -588.309E+03    -105.064E-03     211.082E-03    -106.019E-03     49.4459E-03    -105.451E-03     211.346E-03    -105.769E-03     48.2679E-03
            1836     11.3345E-03     38.6907E-03    -29.8235E+06     7.80376E+06     45.8180E+06     285.220E+03    -105.297E-03     211.397E-03    -106.100E-03     50.9865E-03    -105.650E-03     211.538E-03    -105.839E-03     49.8897E-03
            1837     10.5241E-03     38.6337E-03    -34.8931E+06    -16.8646E+06     37.4791E+06     644.200E+03    -105.495E-03     211.664E-03    -106.170E-03     51.3589E-03    -105.814E-03     211.691E-03    -105.907E-03     50.3392E-03
            1838     9.71397E-03     38.5770E-03    -40.7024E+06    -40.1684E+06     29.2833E+06     459.579E+03    -105.661E-03     211.899E-03    -106.238E-03     50.9418E-03    -105.952E-03     211.819E-03    -105.975E-03     49.9918E-03
            1839     8.90403E-03     38.5209E-03    -47.0206E+06    -58.3885E+06     21.1029E+06     295.409E+03    -105.755E-03     212.056E-03    -106.301E-03     49.8699E-03    -106.028E-03     211.894E-03    -106.043E-03     48.9906E-03
            1840     8.09388E-03     38.4666E-03    -53.5490E+06    -76.1037E+06     12.3906E+06     141.507E+03    -105.854E-03     212.217E-03    -106.363E-03     48.1556E-03    -106.110E-03     211.977E-03    -106.113E-03     47.3464E-03
            1841     7.28395E-03     38.4142E-03    -60.3410E+06    -92.9246E+06     2.86454E+06     104.211E+03    -105.977E-03     212.395E-03    -106.418E-03     45.8117E-03    -106.217E-03     212.083E-03    -106.182E-03     45.0737E-03
            1842     6.47419E-03     38.3648E-03    -67.8188E+06    -110.416E+06    -8.05635E+06     107.513E+03    -106.075E-03     212.540E-03    -106.465E-03     42.8757E-03    -106.300E-03     212.156E-03    -106.246E-03     42.2108E-03
            1843     5.66461E-03     38.3189E-03    -75.7508E+06    -127.454E+06    -20.3570E+06     227.966E+03    -106.157E-03     212.657E-03    -106.500E-03     39.3559E-03    -106.369E-03     212.206E-03    -106.307E-03     38.7677E-03
            1844     4.85513E-03     38.2773E-03    -83.6381E+06    -145.414E+06    -34.4297E+06     281.072E+03    -106.236E-03     212.758E-03    -106.522E-03     35.1570E-03    -106.430E-03     212.239E-03    -106.362E-03     34.6472E-03
            1845     4.04579E-03     38.2406E-03    -91.9604E+06    -164.799E+06    -50.7988E+06     135.549E+03    -106.280E-03     212.810E-03    -106.530E-03     30.3712E-03    -106.453E-03     212.219E-03    -106.412E-03     29.9399E-03
            1846     3.23632E-03     38.2096E-03    -99.9470E+06    -183.333E+06    -68.3353E+06    -24.6836E+03    -106.305E-03     212.835E-03    -106.530E-03     25.0931E-03    -106.458E-03     212.180E-03    -106.461E-03     24.7423E-03
            1847     2.42709E-03     38.1847E-03    -107.004E+06    -202.811E+06    -86.1967E+06     28.8654E+03    -106.366E-03     212.892E-03    -106.526E-03     19.4218E-03    -106.492E-03     212.168E-03    -106.507E-03     19.1560E-03
            1848     1.61815E-03     38.1665E-03    -113.104E+06    -220.194E+06    -102.427E+06     81.6268E+03    -106.436E-03     212.953E-03    -106.517E-03     13.3871E-03    -106.538E-03     212.169E-03    -106.546E-03     13.2070E-03
            1849     809.097E-06     38.1552E-03    -117.034E+06    -232.254E+06    -113.849E+06     88.5691E+03    -106.481E-03     212.995E-03    -106.514E-03     7.18103E-03    -106.566E-03     212.171E-03    -106.577E-03     7.08134E-03
            1850     15.3879E-03     37.7542E-03    -5.39894E+06     105.694E+06     91.7109E+06    -687.235E+03    -103.879E-03     209.683E-03    -105.804E-03     24.1512E-03    -104.277E-03     210.172E-03    -105.491E-03     23.0230E-03
            1851     14.5771E-03     37.7198E-03    -10.6163E+06     102.198E+06     76.6508E+06    -212.549E+03    -104.266E-03     210.079E-03    -105.812E-03     35.0889E-03    -104.705E-03     210.620E-03    -105.562E-03     33.7642E-03
            1852     13.7665E-03     37.6781E-03    -14.7270E+06     93.8033E+06     67.7473E+06     1.44206E+06    -104.535E-03     210.389E-03    -105.854E-03     41.3021E-03    -104.975E-03     210.913E-03    -105.630E-03     40.0446E-03
            1853     12.9553E-03     37.6293E-03    -19.3297E+06     70.1953E+06     62.8145E+06     410.112E+03    -104.783E-03     210.722E-03    -105.940E-03     46.4521E-03    -105.208E-03     211.146E-03    -105.699E-03     45.2294E-03
            1854     12.1451E-03     37.5758E-03    -25.1894E+06     33.3414E+06     52.1690E+06    -1.21387E+06    -105.099E-03     211.116E-03    -106.017E-03     49.4212E-03    -105.482E-03     211.377E-03    -105.768E-03     48.2335E-03
            1855     11.3346E-03     37.5199E-03    -30.7031E+06     5.78925E+06     44.9853E+06    -900.629E+03    -105.282E-03     211.380E-03    -106.098E-03     50.9820E-03    -105.634E-03     211.514E-03    -105.837E-03     49.8690E-03
            1856     10.5243E-03     37.4629E-03    -35.6744E+06    -16.9786E+06     37.1670E+06     250.599E+03    -105.418E-03     211.590E-03    -106.171E-03     51.4656E-03    -105.741E-03     211.618E-03    -105.909E-03     50.4417E-03
            1857     9.71398E-03     37.4058E-03    -41.0900E+06    -40.0229E+06     29.0157E+06     525.428E+03    -105.581E-03     211.828E-03    -106.246E-03     51.0771E-03    -105.875E-03     211.749E-03    -105.984E-03     50.1288E-03
            1858     8.90365E-03     37.3498E-03    -46.8085E+06    -57.9813E+06     21.1605E+06     411.006E+03    -105.754E-03     212.068E-03    -106.314E-03     49.9938E-03    -106.028E-03     211.908E-03    -106.056E-03     49.1156E-03
            1859     8.09376E-03     37.2951E-03    -53.3286E+06    -75.8940E+06     12.4076E+06     251.271E+03    -105.911E-03     212.285E-03    -106.374E-03     48.2558E-03    -106.166E-03     212.046E-03    -106.125E-03     47.4469E-03
            1860     7.28397E-03     37.2426E-03    -60.5674E+06    -93.0795E+06     2.73679E+06     288.967E+03    -106.004E-03     212.431E-03    -106.427E-03     45.8821E-03    -106.245E-03     212.119E-03    -106.191E-03     45.1458E-03
            1861     6.47419E-03     37.1931E-03    -67.8954E+06    -110.344E+06    -8.16258E+06     414.087E+03    -106.091E-03     212.562E-03    -106.472E-03     42.9199E-03    -106.316E-03     212.179E-03    -106.254E-03     42.2583E-03
            1862     5.66453E-03     37.1470E-03    -75.3534E+06    -127.179E+06    -20.3106E+06     150.888E+03    -106.180E-03     212.686E-03    -106.505E-03     39.3994E-03    -106.390E-03     212.235E-03    -106.313E-03     38.8097E-03
            1863     4.85508E-03     37.1052E-03    -83.4712E+06    -145.729E+06    -34.2185E+06     143.137E+03    -106.237E-03     212.766E-03    -106.529E-03     35.2292E-03    -106.430E-03     212.244E-03    -106.368E-03     34.7168E-03
            1864     4.04566E-03     37.0685E-03    -91.5072E+06    -164.304E+06    -50.2051E+06     284.779E+03    -106.277E-03     212.817E-03    -106.540E-03     30.4433E-03    -106.450E-03     212.227E-03    -106.420E-03     30.0126E-03
            1865     3.23650E-03     37.0374E-03    -99.7389E+06    -183.185E+06    -68.2500E+06    -2.08623E+03    -106.319E-03     212.857E-03    -106.538E-03     25.1210E-03    -106.471E-03     212.203E-03    -106.469E-03     24.7697E-03
            1866     2.42723E-03     37.0125E-03    -107.576E+06    -203.081E+06    -86.6050E+06    -86.8612E+03    -106.350E-03     212.887E-03    -106.537E-03     19.3620E-03    -106.478E-03     212.164E-03    -106.520E-03     19.0940E-03
            1867     1.61786E-03     36.9940E-03    -113.387E+06    -220.003E+06    -103.149E+06    -24.4777E+03    -106.396E-03     212.944E-03    -106.548E-03     13.2909E-03    -106.499E-03     212.163E-03    -106.581E-03     13.1090E-03
            1868     808.759E-06     36.9828E-03    -117.392E+06    -232.153E+06    -114.791E+06    -238.330E+03    -106.617E-03     213.096E-03    -106.479E-03     7.24952E-03    -106.703E-03     212.274E-03    -106.546E-03     7.14647E-03
            1869     15.3879E-03     36.5848E-03    -4.93524E+06     105.841E+06     91.5518E+06     516.827E+03    -103.995E-03     209.797E-03    -105.802E-03     24.2579E-03    -104.391E-03     210.286E-03    -105.491E-03     23.1461E-03
            1870     14.5769E-03     36.5491E-03    -11.4752E+06     101.110E+06     76.1339E+06    -259.075E+03    -104.308E-03     210.116E-03    -105.808E-03     34.9691E-03    -104.748E-03     210.653E-03    -105.557E-03     33.6434E-03
            1871     13.7661E-03     36.5080E-03    -15.2285E+06     93.5072E+06     68.0664E+06    -890.052E+03    -104.539E-03     210.389E-03    -105.850E-03     41.2236E-03    -104.982E-03     210.912E-03    -105.623E-03     39.9372E-03
            1872     12.9558E-03     36.4586E-03    -18.4868E+06     70.8561E+06     63.3926E+06    -387.353E+03    -104.799E-03     210.731E-03    -105.932E-03     46.4402E-03    -105.222E-03     211.157E-03    -105.691E-03     45.2058E-03
            1873     12.1451E-03     36.4052E-03    -23.0723E+06     34.3623E+06     53.2751E+06     52.3052E+03    -105.021E-03     211.034E-03    -106.012E-03     49.5310E-03    -105.397E-03     211.295E-03    -105.762E-03     48.3620E-03
            1874     11.3347E-03     36.3492E-03    -29.2978E+06     4.84421E+06     44.8332E+06    -165.259E+03    -105.218E-03     211.315E-03    -106.096E-03     51.2128E-03    -105.563E-03     211.442E-03    -105.837E-03     50.1106E-03
            1875     10.5242E-03     36.2921E-03    -35.6847E+06    -17.8978E+06     36.6320E+06     40.5939E+03    -105.405E-03     211.578E-03    -106.173E-03     51.6985E-03    -105.726E-03     211.603E-03    -105.913E-03     50.6714E-03
            1876     9.71378E-03     36.2350E-03    -41.4022E+06    -39.7668E+06     28.7885E+06      276.95E+03    -105.587E-03     211.837E-03    -106.249E-03     51.1840E-03    -105.883E-03     211.761E-03    -105.988E-03     50.2316E-03
            1877     8.90377E-03     36.1785E-03    -47.4031E+06    -58.0393E+06     20.8772E+06     314.491E+03    -105.755E-03     212.073E-03    -106.318E-03     50.0607E-03    -106.031E-03     211.914E-03    -106.061E-03     49.1797E-03
            1878     8.09376E-03     36.1236E-03    -53.8097E+06    -75.6350E+06     12.2274E+06     421.013E+03    -105.905E-03     212.284E-03    -106.379E-03     48.3598E-03    -106.164E-03     212.048E-03    -106.130E-03     47.5508E-03
            1879     7.28388E-03     36.0710E-03    -60.4553E+06    -93.1774E+06     2.56256E+06     323.391E+03    -106.038E-03     212.469E-03    -106.430E-03     46.0262E-03    -106.279E-03     212.157E-03    -106.195E-03     45.2878E-03
            1880     6.47418E-03     36.0213E-03    -67.6006E+06    -110.200E+06    -7.98879E+06     210.519E+03    -106.145E-03     212.616E-03    -106.472E-03     43.0576E-03    -106.370E-03     212.233E-03    -106.254E-03     42.3913E-03
            1881     5.66466E-03     35.9751E-03    -75.3905E+06    -126.996E+06    -20.0601E+06     349.039E+03    -106.181E-03     212.684E-03    -106.503E-03     39.4498E-03    -106.392E-03     212.235E-03    -106.310E-03     38.8607E-03
            1882     4.85508E-03     35.9332E-03    -83.4794E+06    -145.579E+06    -34.3609E+06     209.858E+03    -106.202E-03     212.729E-03    -106.527E-03     35.2651E-03    -106.395E-03     212.209E-03    -106.367E-03     34.7520E-03
            1883     4.04570E-03     35.8963E-03    -91.8430E+06    -164.347E+06    -50.3774E+06     66.7904E+03    -106.263E-03     212.806E-03    -106.542E-03     30.4901E-03    -106.438E-03     212.217E-03    -106.423E-03     30.0552E-03
            1884     3.23626E-03     35.8652E-03    -99.7685E+06    -182.887E+06    -68.1873E+06     363.998E+03    -106.343E-03     212.883E-03    -106.540E-03     25.1756E-03    -106.496E-03     212.230E-03    -106.471E-03     24.8272E-03
            1885     2.42718E-03     35.8401E-03    -107.184E+06    -202.901E+06    -86.7261E+06     100.307E+03    -106.407E-03     212.931E-03    -106.524E-03     19.3725E-03    -106.533E-03     212.208E-03    -106.508E-03     19.1060E-03
            1886     1.61821E-03     35.8219E-03    -113.627E+06    -220.083E+06    -102.903E+06    -91.6992E+03    -106.438E-03     212.943E-03    -106.504E-03     13.2789E-03    -106.543E-03     212.161E-03    -106.535E-03     13.0959E-03
            1887     809.128E-06     35.8101E-03    -117.781E+06    -232.189E+06    -114.825E+06     268.930E+03    -106.433E-03     212.959E-03    -106.526E-03     7.29426E-03    -106.520E-03     212.137E-03    -106.593E-03     7.19888E-03
            1888     15.3881E-03     35.4134E-03    -5.02762E+06     106.019E+06     91.9437E+06     754.731E+03    -104.149E-03     209.944E-03    -105.795E-03     24.4163E-03    -104.546E-03     210.433E-03    -105.482E-03     23.3068E-03
            1889     14.5777E-03     35.3799E-03    -8.53623E+06     104.222E+06     79.2012E+06     567.691E+03    -104.314E-03     210.114E-03    -105.800E-03     34.9250E-03    -104.749E-03     210.659E-03    -105.543E-03     33.6068E-03
            1890     13.7667E-03     35.3371E-03    -14.7823E+06     93.7315E+06     68.3355E+06    -1.12486E+06    -104.460E-03     210.298E-03    -105.838E-03     41.4316E-03    -104.902E-03     210.822E-03    -105.611E-03     40.1430E-03
            1891     12.9558E-03     35.2885E-03    -21.2839E+06     69.3875E+06     61.4726E+06    -1.01299E+06    -104.674E-03     210.597E-03    -105.923E-03     46.6529E-03    -105.107E-03     211.022E-03    -105.685E-03     45.4116E-03
            1892     12.1452E-03     35.2347E-03    -26.6387E+06     33.7979E+06     51.2623E+06    -160.597E+03    -104.914E-03     210.923E-03    -106.009E-03     49.8098E-03    -105.304E-03     211.190E-03    -105.763E-03     48.6407E-03
            1893     11.3345E-03     35.1788E-03    -31.3747E+06     5.07758E+06     43.8200E+06     336.999E+03    -105.195E-03     211.294E-03    -106.099E-03     51.3979E-03    -105.549E-03     211.427E-03    -105.842E-03     50.3022E-03
            1894     10.5241E-03     35.1212E-03    -36.3898E+06    -17.9480E+06     36.2591E+06     122.210E+03    -105.446E-03     211.623E-03    -106.177E-03     51.8225E-03    -105.771E-03     211.650E-03    -105.917E-03     50.7936E-03
            1895     9.71399E-03     35.0639E-03    -42.1291E+06    -39.9175E+06     28.4469E+06     40.4494E+03    -105.633E-03     211.884E-03    -106.250E-03     51.3724E-03    -105.932E-03     211.809E-03    -105.989E-03     50.4138E-03
            1896     8.90376E-03     35.0073E-03    -48.1354E+06    -58.0485E+06     20.5073E+06     145.092E+03    -105.765E-03     212.081E-03    -106.317E-03     50.2730E-03    -106.045E-03     211.925E-03    -106.060E-03     49.3876E-03
            1897     8.09371E-03     34.9522E-03    -54.3258E+06    -75.7542E+06     11.9245E+06     139.038E+03    -105.895E-03     212.273E-03    -106.378E-03     48.5184E-03    -106.156E-03     212.038E-03    -106.130E-03     47.7036E-03
            1898     7.28386E-03     34.8993E-03    -60.9826E+06    -92.9169E+06     2.43650E+06     187.076E+03    -106.050E-03     212.479E-03    -106.430E-03     46.1494E-03    -106.294E-03     212.170E-03    -106.194E-03     45.4066E-03
            1899     6.47423E-03     34.8494E-03    -68.1935E+06    -110.203E+06    -8.31593E+06     188.126E+03    -106.153E-03     212.622E-03    -106.469E-03     43.1669E-03    -106.381E-03     212.241E-03    -106.252E-03     42.4973E-03
            1900     5.66462E-03     34.8031E-03    -75.8058E+06    -127.120E+06    -20.4449E+06     185.570E+03    -106.191E-03     212.689E-03    -106.498E-03     39.5634E-03    -106.404E-03     212.241E-03    -106.306E-03     38.9693E-03
            1901     4.85516E-03     34.7613E-03    -83.8004E+06    -145.259E+06    -34.4471E+06     324.212E+03    -106.222E-03     212.742E-03    -106.520E-03     35.3533E-03    -106.417E-03     212.224E-03    -106.360E-03     34.8396E-03
            1902     4.04567E-03     34.7242E-03     -91.874E+06    -164.241E+06    -50.6513E+06     248.304E+03    -106.270E-03     212.800E-03    -106.531E-03     30.5341E-03    -106.444E-03     212.212E-03    -106.412E-03     30.1000E-03
            1903     3.23650E-03     34.6929E-03    -99.8735E+06    -183.080E+06    -68.3708E+06    -70.4969E+03    -106.335E-03     212.862E-03    -106.527E-03     25.1742E-03    -106.488E-03     212.209E-03    -106.459E-03     24.8191E-03
            1904     2.42722E-03     34.6678E-03    -107.096E+06    -202.383E+06    -86.3615E+06     151.133E+03    -106.403E-03     212.912E-03    -106.509E-03     19.3824E-03    -106.530E-03     212.191E-03    -106.493E-03     19.1160E-03
            1905     1.61810E-03     34.6495E-03    -113.163E+06    -220.028E+06    -102.722E+06     112.846E+03    -106.446E-03     212.926E-03    -106.480E-03     13.4063E-03    -106.549E-03     212.144E-03    -106.511E-03     13.2258E-03
            1906     809.086E-06     34.6380E-03    -117.501E+06    -232.158E+06    -114.196E+06     4.84838E+03    -106.390E-03     212.899E-03    -106.509E-03     7.37447E-03    -106.477E-03     212.076E-03    -106.573E-03     7.27488E-03
            1907     15.3884E-03     34.2439E-03    -5.62119E+06     105.553E+06     91.3564E+06    -761.737E+03    -104.074E-03     209.859E-03    -105.786E-03     24.5660E-03    -104.473E-03     210.348E-03    -105.474E-03     23.4372E-03
            1908     14.5772E-03     34.2090E-03    -9.49364E+06     103.298E+06     77.5602E+06    -341.877E+03    -104.198E-03     209.990E-03    -105.792E-03     35.4047E-03    -104.635E-03     210.535E-03    -105.540E-03     34.0739E-03
            1909     13.7666E-03     34.1675E-03    -13.7553E+06     94.7156E+06     68.3056E+06     1.01637E+06    -104.422E-03     210.259E-03    -105.837E-03     41.8530E-03    -104.861E-03     210.788E-03    -105.613E-03     40.5900E-03
            1910     12.9557E-03     34.1179E-03    -19.9726E+06     69.5915E+06     62.2023E+06     639.593E+03    -104.638E-03     210.568E-03    -105.929E-03     46.9126E-03    -105.067E-03     210.992E-03    -105.690E-03     45.6919E-03
            1911     12.1449E-03     34.0646E-03    -26.1877E+06     33.5374E+06     51.6028E+06     273.320E+03    -104.966E-03     210.982E-03    -106.016E-03     49.9389E-03    -105.355E-03     211.248E-03    -105.769E-03     48.7708E-03
            1912     11.3345E-03     34.0079E-03    -31.7353E+06     5.32941E+06     43.8812E+06    -477.603E+03    -105.225E-03     211.328E-03    -106.103E-03     51.5780E-03    -105.582E-03     211.464E-03    -105.845E-03     50.4681E-03
            1913     10.5242E-03     33.9504E-03    -36.8370E+06    -18.0834E+06     36.1096E+06    -411.908E+03    -105.446E-03     211.626E-03    -106.180E-03     52.0211E-03    -105.774E-03     211.654E-03    -105.920E-03     50.9818E-03
            1914     9.71373E-03     33.8928E-03    -42.1373E+06    -40.0274E+06     28.4027E+06    -177.427E+03    -105.642E-03     211.895E-03    -106.253E-03     51.5834E-03    -105.942E-03     211.821E-03    -105.992E-03     50.6184E-03
            1915     8.90373E-03     33.8361E-03    -47.9670E+06    -58.1232E+06     20.5179E+06    -142.997E+03    -105.812E-03     212.130E-03    -106.318E-03     50.4420E-03    -106.092E-03     211.974E-03    -106.061E-03     49.5487E-03
            1916     8.09382E-03     33.7808E-03    -54.3335E+06    -75.8659E+06     11.8165E+06    -10.4803E+03    -105.956E-03     212.330E-03    -106.374E-03     48.6865E-03    -106.218E-03     212.095E-03    -106.126E-03     47.8658E-03
            1917     7.28398E-03     33.7277E-03    -61.1884E+06    -93.0111E+06     2.25890E+06     101.502E+03    -106.049E-03     212.471E-03    -106.422E-03     46.2859E-03    -106.294E-03     212.162E-03    -106.187E-03     45.5389E-03
            1918     6.47422E-03     33.6775E-03    -68.3829E+06    -110.115E+06    -8.49867E+06     145.948E+03    -106.119E-03     212.582E-03    -106.463E-03     43.2521E-03    -106.348E-03     212.202E-03    -106.246E-03     42.5791E-03
            1919     5.66462E-03     33.6312E-03    -75.8083E+06    -127.088E+06    -20.6871E+06     58.9052E+03    -106.195E-03     212.688E-03    -106.493E-03     39.6272E-03    -106.407E-03     212.240E-03    -106.302E-03     39.0288E-03
            1920     4.85513E-03     33.5891E-03    -83.5085E+06    -145.356E+06    -34.5299E+06    -19.8452E+03    -106.257E-03     212.769E-03    -106.512E-03     35.4254E-03    -106.451E-03     212.250E-03    -106.352E-03     34.9048E-03
            1921     4.04587E-03     33.5521E-03    -91.7625E+06    -163.972E+06    -50.4387E+06     24.3083E+03    -106.293E-03     212.810E-03    -106.516E-03     30.6423E-03    -106.468E-03     212.223E-03    -106.398E-03     30.2043E-03
            1922     3.23643E-03     33.5206E-03    -100.011E+06    -183.004E+06    -68.2574E+06     162.632E+03    -106.318E-03     212.827E-03    -106.509E-03     25.2780E-03    -106.472E-03     212.174E-03    -106.440E-03     24.9258E-03
            1923     2.42732E-03     33.4956E-03    -107.660E+06    -202.459E+06    -86.7056E+06     104.044E+03    -106.361E-03     212.856E-03    -106.495E-03     19.4593E-03    -106.491E-03     212.136E-03    -106.478E-03     19.1913E-03
            1924     1.61811E-03     33.4771E-03    -113.783E+06    -219.716E+06    -103.332E+06     114.932E+03    -106.415E-03     212.889E-03    -106.474E-03     13.3242E-03    -106.521E-03     212.110E-03    -106.507E-03     13.1429E-03
            1925     808.962E-06     33.4657E-03    -117.717E+06    -232.135E+06    -115.125E+06    -89.2227E+03    -106.443E-03     212.899E-03    -106.457E-03     7.33001E-03    -106.529E-03     212.078E-03    -106.525E-03     7.22933E-03
            1926     15.3884E-03     33.0746E-03    -4.50245E+06     106.434E+06     92.0521E+06     101.322E+03    -104.058E-03     209.839E-03    -105.781E-03     24.2180E-03    -104.454E-03     210.330E-03    -105.469E-03     23.0962E-03
            1927     14.5772E-03     33.0390E-03    -10.9825E+06     101.503E+06     75.9428E+06    -1.06853E+06    -104.036E-03     209.825E-03    -105.789E-03     35.3050E-03    -104.476E-03     210.366E-03    -105.540E-03     33.9664E-03
            1928     13.7662E-03     32.9971E-03    -15.2953E+06     93.3323E+06     67.2013E+06    -377.576E+03    -104.348E-03     210.190E-03    -105.842E-03     41.7343E-03    -104.792E-03     210.716E-03    -105.619E-03     40.4504E-03
            1929     12.9555E-03     32.9478E-03    -18.2343E+06     69.5218E+06     63.3213E+06     1.13046E+06    -104.699E-03     210.638E-03    -105.939E-03     46.9236E-03    -105.121E-03     211.059E-03    -105.697E-03     45.7026E-03
            1930     12.1450E-03     32.8939E-03    -23.0119E+06     34.5757E+06     53.6543E+06     1.17585E+06    -105.011E-03     211.035E-03    -106.025E-03     50.0818E-03    -105.389E-03     211.300E-03    -105.773E-03     48.9206E-03
            1931     11.3345E-03     32.8374E-03    -29.0212E+06     6.56351E+06     45.3165E+06     493.032E+03    -105.263E-03     211.370E-03    -106.107E-03     51.7517E-03    -105.611E-03     211.507E-03    -105.848E-03     50.6506E-03
            1932     10.5240E-03     32.7796E-03    -35.4713E+06    -18.3913E+06     36.5084E+06    -331.481E+03    -105.471E-03     211.653E-03    -106.182E-03     52.1759E-03    -105.793E-03     211.678E-03    -105.922E-03     51.1339E-03
            1933     9.71391E-03     32.7217E-03    -41.5378E+06    -40.1506E+06     28.6196E+06    -278.245E+03    -105.672E-03     211.926E-03    -106.254E-03     51.6926E-03    -105.970E-03     211.851E-03    -105.992E-03     50.7219E-03
            1934     8.90372E-03     32.6648E-03    -47.6740E+06    -58.2396E+06     20.5992E+06    -65.5815E+03    -105.846E-03     212.161E-03    -106.316E-03     50.5671E-03    -106.125E-03     212.005E-03    -106.059E-03     49.6701E-03
            1935     8.09379E-03     32.6092E-03    -54.0534E+06    -75.9347E+06     11.8924E+06    -47.4063E+03    -105.982E-03     212.351E-03    -106.369E-03     48.8316E-03    -106.243E-03     212.116E-03    -106.121E-03     48.0059E-03
            1936     7.28403E-03     32.5561E-03    -60.6677E+06    -93.0528E+06     2.30470E+06    -56.2484E+03    -106.063E-03     212.477E-03    -106.415E-03     46.4346E-03    -106.306E-03     212.168E-03    -106.180E-03     45.6820E-03
            1937     6.47431E-03     32.5058E-03    -67.9156E+06    -110.120E+06    -8.46422E+06    -126.600E+03    -106.138E-03     212.591E-03    -106.453E-03     43.3838E-03    -106.365E-03     212.211E-03    -106.237E-03     42.7047E-03
            1938     5.66471E-03     32.4592E-03    -75.5660E+06    -127.171E+06    -20.4453E+06     5.39946E+03    -106.206E-03     212.688E-03    -106.482E-03     39.6858E-03    -106.418E-03     212.240E-03    -106.290E-03     39.0850E-03
            1939     4.85523E-03     32.4171E-03    -83.5912E+06    -145.121E+06    -34.4967E+06     44.0692E+03    -106.260E-03     212.756E-03    -106.496E-03     35.4418E-03    -106.454E-03     212.239E-03    -106.337E-03     34.9208E-03
            1940     4.04576E-03     32.3799E-03    -92.0664E+06    -164.145E+06    -50.7752E+06    -50.4087E+03    -106.293E-03     212.789E-03    -106.497E-03     30.6178E-03    -106.468E-03     212.203E-03    -106.379E-03     30.1775E-03
            1941     3.23661E-03     32.3485E-03    -100.044E+06    -183.065E+06    -68.2832E+06     84.9579E+03    -106.303E-03     212.790E-03    -106.487E-03     25.2364E-03    -106.457E-03     212.137E-03    -106.418E-03     24.8820E-03
            1942     2.42723E-03     32.3233E-03    -107.082E+06    -202.384E+06    -86.1924E+06     161.135E+03    -106.337E-03     212.811E-03    -106.474E-03     19.4446E-03    -106.465E-03     212.090E-03    -106.456E-03     19.1772E-03
            1943     1.61821E-03     32.3049E-03    -113.384E+06    -219.645E+06    -102.672E+06     112.621E+03    -106.383E-03     212.842E-03    -106.458E-03     13.3725E-03    -106.488E-03     212.062E-03    -106.489E-03     13.1910E-03
            1944     809.217E-06     32.2935E-03    -117.424E+06    -231.882E+06    -114.576E+06     273.887E+03    -106.395E-03     212.873E-03    -106.478E-03     7.39912E-03    -106.481E-03     212.052E-03    -106.544E-03     7.30210E-03
            1945     15.3885E-03     31.9036E-03    -4.55197E+06     106.607E+06     92.0484E+06     239.170E+03    -104.039E-03     209.828E-03    -105.790E-03     24.5826E-03    -104.436E-03     210.321E-03    -105.477E-03     23.4586E-03
            1946     14.5778E-03     31.8701E-03    -9.53452E+06     103.213E+06     77.6607E+06     483.381E+03    -104.156E-03     209.955E-03    -105.799E-03     35.8046E-03    -104.595E-03     210.501E-03    -105.547E-03     34.4817E-03
            1947     13.7665E-03     31.8267E-03    -16.0962E+06     92.4090E+06     66.9488E+06    -600.311E+03    -104.333E-03     210.181E-03    -105.848E-03     42.2402E-03    -104.780E-03     210.704E-03    -105.624E-03     40.9537E-03
            1948     12.9557E-03     31.7776E-03    -21.8192E+06     67.9506E+06     61.0608E+06    -557.982E+03    -104.703E-03     210.644E-03    -105.941E-03     47.2011E-03    -105.139E-03     211.066E-03    -105.702E-03     45.9554E-03
            1949     12.1448E-03     31.7233E-03    -25.9388E+06     34.7880E+06     52.4324E+06     366.111E+03    -105.044E-03     211.070E-03    -106.026E-03     50.2575E-03    -105.437E-03     211.342E-03    -105.777E-03     49.0837E-03
            1950     11.3344E-03     31.6667E-03    -30.1730E+06     7.38853E+06     45.1813E+06     599.026E+03    -105.292E-03     211.400E-03    -106.108E-03     51.8203E-03    -105.648E-03     211.544E-03    -105.849E-03     50.7167E-03
            1951     10.5242E-03     31.6086E-03    -35.1909E+06    -17.7173E+06     36.8007E+06      393.21E+03    -105.510E-03     211.691E-03    -106.181E-03     52.3014E-03    -105.833E-03     211.719E-03    -105.920E-03     51.2640E-03
            1952     9.71380E-03     31.5507E-03    -41.1951E+06    -40.3347E+06     28.6330E+06     60.5637E+03    -105.713E-03     211.962E-03    -106.249E-03     51.8689E-03    -106.010E-03     211.887E-03    -105.988E-03     50.8979E-03
            1953     8.90384E-03     31.4934E-03    -47.3628E+06    -58.2430E+06     20.6939E+06     4.08280E+03    -105.871E-03     212.179E-03    -106.308E-03     50.7040E-03    -106.149E-03     212.023E-03    -106.052E-03     49.8040E-03
            1954     8.09391E-03     31.4378E-03    -53.8429E+06    -75.9223E+06     11.9940E+06    -30.6207E+03    -105.979E-03     212.339E-03    -106.360E-03     48.9077E-03    -106.240E-03     212.105E-03    -106.112E-03     48.0788E-03
            1955     7.28401E-03     31.3844E-03    -60.7953E+06    -92.9499E+06     2.34677E+06    -72.2322E+03    -106.087E-03     212.491E-03    -106.404E-03     46.4856E-03    -106.331E-03     212.183E-03    -106.169E-03     45.7297E-03
            1956     6.47437E-03     31.3340E-03    -67.8426E+06    -110.086E+06    -8.40318E+06    -79.2618E+03    -106.169E-03     212.607E-03    -106.438E-03     43.4241E-03    -106.396E-03     212.227E-03    -106.222E-03     42.7436E-03
            1957     5.66482E-03     31.2873E-03    -75.4812E+06    -127.276E+06    -20.4865E+06    -185.202E+03    -106.223E-03     212.684E-03    -106.460E-03     39.7486E-03    -106.435E-03     212.235E-03    -106.269E-03     39.1438E-03
            1958     4.85535E-03     31.2451E-03    -83.7204E+06    -145.358E+06    -34.3935E+06    -50.4596E+03    -106.272E-03     212.742E-03    -106.470E-03     35.4685E-03    -106.467E-03     212.224E-03    -106.310E-03     34.9452E-03
            1959     4.04608E-03     31.2078E-03    -91.5928E+06    -163.971E+06    -50.3231E+06     151.513E+03    -106.280E-03     212.746E-03    -106.466E-03     30.5836E-03    -106.455E-03     212.159E-03    -106.347E-03     30.1453E-03
            1960     3.23663E-03     31.1765E-03    -99.5792E+06    -183.052E+06    -68.2272E+06    -101.372E+03    -106.287E-03     212.738E-03    -106.451E-03     25.2333E-03    -106.439E-03     212.084E-03    -106.382E-03     24.8763E-03
            1961     2.42753E-03     31.1512E-03    -107.294E+06    -202.597E+06    -86.2928E+06    -62.5631E+03    -106.299E-03     212.734E-03    -106.435E-03     19.4346E-03    -106.427E-03     212.013E-03    -106.417E-03     19.1649E-03
            1962     1.61814E-03     31.1328E-03    -113.185E+06    -219.491E+06    -102.522E+06     167.279E+03    -106.322E-03     212.749E-03    -106.427E-03     13.3359E-03    -106.426E-03     211.970E-03    -106.457E-03     13.1558E-03
            1963     808.837E-06     31.1211E-03    -117.211E+06    -231.610E+06    -114.313E+06     88.7573E+03    -106.347E-03     212.826E-03    -106.480E-03     7.38660E-03    -106.433E-03     212.006E-03    -106.545E-03     7.28769E-03
            1964     15.3874E-03     30.7340E-03    -5.40339E+06     105.959E+06     91.3039E+06    -211.313E+03    -103.784E-03     209.598E-03    -105.813E-03     25.0274E-03    -104.185E-03     210.090E-03    -105.503E-03     23.9011E-03
            1965     14.5765E-03     30.6991E-03    -10.0427E+06     102.947E+06     77.4516E+06     639.298E+03    -104.332E-03     210.160E-03    -105.828E-03     36.1237E-03    -104.775E-03     210.708E-03    -105.575E-03     34.7941E-03
            1966     13.7661E-03     30.6572E-03    -14.5323E+06     93.9648E+06     68.0655E+06     1.09764E+06    -104.615E-03     210.481E-03    -105.866E-03     42.4985E-03    -105.060E-03     211.010E-03    -105.641E-03     41.2260E-03
            1967     12.9552E-03     30.6069E-03    -20.2358E+06     68.2012E+06     61.6077E+06    -341.103E+03    -104.838E-03     210.785E-03    -105.947E-03     47.3389E-03    -105.268E-03     211.207E-03    -105.708E-03     46.0911E-03
            1968     12.1450E-03     30.5529E-03    -25.6269E+06     33.9319E+06     52.1989E+06    -881.523E+03    -105.120E-03     211.146E-03    -106.026E-03     50.2837E-03    -105.511E-03     211.415E-03    -105.777E-03     49.0866E-03
            1969     11.3346E-03     30.4958E-03    -30.5829E+06     7.08276E+06     45.0050E+06    -197.995E+03    -105.320E-03     211.425E-03    -106.105E-03     51.9255E-03    -105.679E-03     211.569E-03    -105.846E-03     50.8064E-03
            1970     10.5240E-03     30.4378E-03    -35.8779E+06    -17.6298E+06     36.5022E+06     206.549E+03    -105.543E-03     211.717E-03    -106.174E-03     52.4085E-03    -105.870E-03     211.748E-03    -105.914E-03     51.3642E-03
            1971     9.71399E-03     30.3794E-03    -41.1221E+06    -39.9919E+06     28.7815E+06     252.203E+03    -105.744E-03     211.984E-03    -106.240E-03     51.9506E-03    -106.042E-03     211.910E-03    -105.978E-03     50.9785E-03
            1972     8.90390E-03     30.3221E-03    -47.1311E+06    -58.3097E+06     20.7371E+06     50.7789E+03    -105.884E-03     212.180E-03    -106.296E-03     50.7802E-03    -106.162E-03     212.024E-03    -106.039E-03     49.8776E-03
            1973     8.09397E-03     30.2663E-03    -53.5724E+06    -75.8164E+06     12.0778E+06     39.7465E+03    -106.020E-03     212.364E-03    -106.344E-03     48.9919E-03    -106.280E-03     212.130E-03    -106.096E-03     48.1614E-03
            1974     7.28427E-03     30.2128E-03    -60.2014E+06    -92.8976E+06     2.64508E+06     43.5101E+03    -106.127E-03     212.509E-03    -106.382E-03     46.5236E-03    -106.370E-03     212.201E-03    -106.147E-03     45.7672E-03
            1975     6.47459E-03     30.1621E-03    -67.5781E+06    -110.016E+06    -8.00357E+06     10.0089E+03    -106.186E-03     212.597E-03    -106.411E-03     43.4042E-03    -106.413E-03     212.216E-03    -106.193E-03     42.7231E-03
            1976     5.66498E-03     30.1155E-03    -75.6187E+06    -127.133E+06    -20.4434E+06    -19.8411E+03    -106.231E-03     212.657E-03    -106.426E-03     39.7258E-03    -106.444E-03     212.210E-03    -106.234E-03     39.1225E-03
            1977     4.85554E-03     30.0729E-03    -83.5956E+06    -145.549E+06    -34.6892E+06    -154.251E+03    -106.253E-03     212.683E-03    -106.430E-03     35.4285E-03    -106.447E-03     212.164E-03    -106.271E-03     34.9037E-03
            1978     4.04609E-03     30.0359E-03    -91.6773E+06    -164.146E+06    -50.4476E+06    -133.821E+03    -106.251E-03     212.674E-03    -106.423E-03     30.5615E-03    -106.425E-03     212.087E-03    -106.305E-03     30.1201E-03
            1979     3.23686E-03     30.0043E-03     -99.872E+06    -182.825E+06    -68.1707E+06     158.764E+03    -106.255E-03     212.660E-03    -106.406E-03     25.2142E-03    -106.408E-03     212.008E-03    -106.337E-03     24.8616E-03
            1980     2.42744E-03     29.9792E-03    -107.449E+06    -202.630E+06    -86.6924E+06     121.048E+03    -106.293E-03     212.671E-03    -106.378E-03     19.3952E-03    -106.421E-03     211.950E-03    -106.362E-03     19.1278E-03
            1981     1.61838E-03     29.9607E-03    -113.795E+06    -219.546E+06    -103.123E+06         233.749    -106.341E-03     212.674E-03    -106.333E-03     13.2446E-03    -106.447E-03     211.896E-03    -106.366E-03     13.0621E-03
            1982     809.372E-06     29.9491E-03    -117.825E+06    -231.326E+06    -114.897E+06     3.83689E+03    -106.265E-03     212.580E-03    -106.315E-03     7.17699E-03    -106.354E-03     211.763E-03    -106.383E-03     7.07898E-03
            1983     15.3877E-03     29.5645E-03    -5.24723E+06     106.001E+06     91.5699E+06     318.613E+03    -103.818E-03     209.636E-03    -105.818E-03     24.7215E-03    -104.219E-03     210.129E-03    -105.506E-03     23.5962E-03
            1984     14.5765E-03     29.5288E-03    -10.5098E+06     102.318E+06     76.6700E+06    -70.2074E+03    -104.343E-03     210.171E-03    -105.827E-03     35.3290E-03    -104.785E-03     210.716E-03    -105.577E-03     33.9863E-03
            1985     13.7658E-03     29.4861E-03    -14.6569E+06     93.9612E+06     67.8410E+06     123.118E+03    -104.667E-03     210.531E-03    -105.864E-03     41.7624E-03    -105.111E-03     211.060E-03    -105.640E-03     40.4717E-03
            1986     12.9558E-03     29.4365E-03    -18.3866E+06     70.1432E+06     62.9569E+06     297.535E+03    -104.874E-03     210.818E-03    -105.944E-03     47.1488E-03    -105.300E-03     211.245E-03    -105.704E-03     45.9050E-03
            1987     12.1449E-03     29.3820E-03    -24.0683E+06     33.2403E+06     52.2824E+06    -368.349E+03    -105.128E-03     211.147E-03    -106.019E-03     50.3384E-03    -105.511E-03     211.411E-03    -105.771E-03     49.1443E-03
            1988     11.3345E-03     29.3253E-03    -29.9675E+06     6.11790E+06     44.9471E+06    -81.7272E+03    -105.382E-03     211.479E-03    -106.097E-03     52.0122E-03    -105.737E-03     211.619E-03    -105.837E-03     50.8902E-03
            1989     10.5244E-03     29.2667E-03    -35.5523E+06    -17.3031E+06     36.7163E+06     113.540E+03    -105.601E-03     211.762E-03    -106.161E-03     52.5074E-03    -105.928E-03     211.795E-03    -105.901E-03     51.4592E-03
            1990     9.71414E-03     29.2084E-03    -41.4081E+06    -40.1933E+06     28.6017E+06    -2.63881E+03    -105.771E-03     211.993E-03    -106.222E-03     52.0220E-03    -106.070E-03     211.920E-03    -105.961E-03     51.0439E-03
            1991     8.90409E-03     29.1508E-03    -47.2991E+06    -58.0154E+06     20.7479E+06     54.9886E+03    -105.914E-03     212.188E-03    -106.274E-03     50.8286E-03    -106.194E-03     212.034E-03    -106.017E-03     49.9236E-03
            1992     8.09422E-03     29.0948E-03    -53.4852E+06    -75.8430E+06     12.1758E+06    -58.5162E+03    -106.064E-03     212.381E-03    -106.317E-03     49.0229E-03    -106.324E-03     212.146E-03    -106.068E-03     48.1897E-03
            1993     7.28445E-03     29.0410E-03    -60.3425E+06    -93.0254E+06     2.69056E+06     35.2743E+03    -106.163E-03     212.511E-03    -106.348E-03     46.5125E-03    -106.407E-03     212.202E-03    -106.112E-03     45.7550E-03
            1994     6.47482E-03     28.9905E-03    -67.7434E+06    -110.049E+06    -8.14077E+06     182.537E+03    -106.219E-03     212.585E-03    -106.366E-03     43.3711E-03    -106.447E-03     212.205E-03    -106.149E-03     42.6916E-03
            1995     5.66534E-03     28.9435E-03    -75.2035E+06    -126.853E+06    -20.3392E+06     106.914E+03    -106.241E-03     212.613E-03    -106.372E-03     39.6537E-03    -106.452E-03     212.165E-03    -106.181E-03     39.0521E-03
            1996     4.85583E-03     28.9012E-03    -83.3766E+06    -145.422E+06    -34.5751E+06     42.0798E+03    -106.230E-03     212.599E-03    -106.368E-03     35.2801E-03    -106.423E-03     212.080E-03    -106.209E-03     34.7588E-03
            1997     4.04642E-03     28.8639E-03    -91.9150E+06    -164.316E+06    -50.7790E+06     60.2235E+03    -106.221E-03     212.574E-03    -106.353E-03     30.3668E-03    -106.395E-03     211.986E-03    -106.235E-03     29.9285E-03
            1998     3.23698E-03     28.8324E-03    -99.8679E+06    -182.918E+06    -68.3416E+06    -26.2560E+03    -106.223E-03     212.548E-03    -106.325E-03     24.9966E-03    -106.375E-03     211.895E-03    -106.257E-03     24.6424E-03
            1999     2.42778E-03     28.8072E-03    -107.039E+06    -202.461E+06    -86.1872E+06     27.9987E+03    -106.232E-03     212.520E-03    -106.288E-03     19.2480E-03    -106.359E-03     211.798E-03    -106.271E-03     18.9805E-03
            2000     1.61853E-03     28.7886E-03    -113.030E+06    -219.516E+06    -102.399E+06     57.5757E+03    -106.223E-03     212.470E-03    -106.247E-03     13.2635E-03    -106.326E-03     211.690E-03    -106.277E-03     13.0825E-03
            2001     809.285E-06     28.7774E-03    -117.145E+06    -231.206E+06    -114.124E+06     35.7114E+03    -106.251E-03     212.424E-03    -106.173E-03     7.33216E-03    -106.337E-03     211.605E-03    -106.238E-03     7.23285E-03
            2002     15.3880E-03     28.3941E-03    -5.19566E+06     105.869E+06     91.5098E+06     19.2933E+03    -104.118E-03     209.913E-03    -105.795E-03     25.0937E-03    -104.519E-03     210.406E-03    -105.483E-03     23.9600E-03
            2003     14.5777E-03     28.3587E-03    -9.79748E+06     103.127E+06     77.7160E+06     114.538E+03    -104.344E-03     210.142E-03    -105.799E-03     35.4132E-03    -104.784E-03     210.689E-03    -105.545E-03     34.0783E-03
            2004     13.7668E-03     28.3159E-03     -14.487E+06     94.0088E+06     68.3289E+06    -194.822E+03    -104.429E-03     210.268E-03    -105.840E-03     41.7996E-03    -104.872E-03     210.796E-03    -105.614E-03     40.5127E-03
            2005     12.9555E-03     28.2660E-03    -20.1810E+06     69.2267E+06     61.8587E+06    -183.969E+03    -104.745E-03     210.671E-03    -105.925E-03     47.1982E-03    -105.177E-03     211.097E-03    -105.687E-03     45.9510E-03
            2006     12.1451E-03     28.2116E-03    -25.0979E+06     33.6692E+06     52.0599E+06     257.489E+03    -105.139E-03     211.143E-03    -106.004E-03     50.3004E-03    -105.527E-03     211.411E-03    -105.757E-03     49.1140E-03
            2007     11.3348E-03     28.1543E-03    -30.1842E+06     5.66117E+06     44.6780E+06    -123.349E+03    -105.411E-03     211.490E-03    -106.079E-03     52.0083E-03    -105.766E-03     211.629E-03    -105.820E-03     50.8846E-03
            2008     10.5244E-03     28.0958E-03    -35.5128E+06    -17.3546E+06     36.8012E+06     73.8709E+03    -105.629E-03     211.769E-03    -106.141E-03     52.5534E-03    -105.956E-03     211.802E-03    -105.880E-03     51.5031E-03
            2009     9.71435E-03     28.0372E-03    -41.1760E+06    -39.9284E+06     28.7485E+06     24.6432E+03    -105.822E-03     212.018E-03    -106.196E-03     52.0719E-03    -106.122E-03     211.947E-03    -105.935E-03     51.0922E-03
            2010     8.90440E-03     27.9794E-03    -47.2483E+06    -58.1266E+06     20.7866E+06    -96.2279E+03    -105.999E-03     212.239E-03    -106.240E-03     50.8701E-03    -106.278E-03     212.084E-03    -105.983E-03     49.9616E-03
            2011     8.09456E-03     27.9233E-03    -53.8378E+06    -75.8592E+06     12.1131E+06     120.864E+03    -106.128E-03     212.400E-03    -106.272E-03     48.9706E-03    -106.390E-03     212.167E-03    -106.023E-03     48.1386E-03
            2012     7.28486E-03     27.8694E-03    -60.9054E+06    -93.1537E+06     2.25904E+06     142.165E+03    -106.210E-03     212.500E-03    -106.290E-03     46.3634E-03    -106.456E-03     212.192E-03    -106.055E-03     45.6069E-03
            2013     6.47528E-03     27.8187E-03    -67.8138E+06    -109.921E+06    -8.43130E+06     28.4821E+03    -106.253E-03     212.548E-03    -106.295E-03     43.1692E-03    -106.481E-03     212.169E-03    -106.079E-03     42.4886E-03
            2014     5.66570E-03     27.7717E-03    -75.1858E+06    -126.883E+06    -20.4063E+06     91.3050E+03    -106.238E-03     212.527E-03    -106.289E-03     39.4065E-03    -106.449E-03     212.080E-03    -106.098E-03     38.8058E-03
            2015     4.85627E-03     27.7293E-03    -83.0816E+06    -145.279E+06    -34.2650E+06     222.214E+03    -106.208E-03     212.482E-03    -106.274E-03     35.0625E-03    -106.400E-03     211.962E-03    -106.114E-03     34.5448E-03
            2016     4.04687E-03     27.6921E-03    -91.3615E+06    -164.146E+06    -50.2331E+06     151.524E+03    -106.182E-03     212.428E-03    -106.246E-03     30.1989E-03    -106.354E-03     211.839E-03    -106.127E-03     29.7638E-03
            2017     3.23754E-03     27.6607E-03    -99.5781E+06    -182.864E+06    -68.0827E+06     106.105E+03    -106.149E-03     212.353E-03    -106.204E-03     24.8712E-03    -106.301E-03     211.699E-03    -106.135E-03     24.5207E-03
            2018     2.42812E-03     27.6354E-03    -107.081E+06    -202.477E+06    -86.3316E+06    -29.4351E+03    -106.089E-03     212.251E-03    -106.162E-03     19.1297E-03    -106.216E-03     211.530E-03    -106.145E-03     18.8632E-03
            2019     1.61863E-03     27.6172E-03    -113.297E+06    -219.449E+06    -102.803E+06    -80.9162E+03    -106.050E-03     212.188E-03    -106.138E-03     13.0954E-03    -106.154E-03     211.409E-03    -106.169E-03     12.9138E-03
            2020     809.069E-06     27.6056E-03    -117.235E+06    -231.272E+06    -114.478E+06    -39.3913E+03    -106.090E-03     212.239E-03    -106.148E-03     7.16521E-03    -106.177E-03     211.420E-03    -106.215E-03     7.06517E-03
            2021     15.3885E-03     27.2241E-03     -5.0127E+06     106.219E+06     91.7327E+06    -86.8142E+03    -104.278E-03     210.060E-03    -105.783E-03     25.6255E-03    -104.679E-03     210.555E-03    -105.471E-03     24.4908E-03
            2022     14.5775E-03     27.1880E-03    -10.1448E+06     102.671E+06     76.9684E+06    -405.160E+03    -104.293E-03     210.073E-03    -105.780E-03     35.8362E-03    -104.734E-03     210.620E-03    -105.529E-03     34.4936E-03
            2023     13.7667E-03     27.1463E-03    -14.6343E+06     93.7702E+06     67.6774E+06     99.3667E+03    -104.463E-03     210.284E-03    -105.821E-03     42.3041E-03    -104.908E-03     210.814E-03    -105.598E-03     41.0175E-03
            2024     12.9561E-03     27.0955E-03    -19.4319E+06     69.1186E+06     62.2614E+06     91.3395E+03    -104.813E-03     210.720E-03    -105.907E-03     47.4713E-03    -105.242E-03     211.145E-03    -105.668E-03     46.2280E-03
            2025     12.1455E-03     27.0409E-03    -24.5866E+06     33.7698E+06     52.3515E+06    -106.202E+03    -105.178E-03     211.159E-03    -105.981E-03     50.4208E-03    -105.565E-03     211.427E-03    -105.733E-03     49.2295E-03
            2026     11.3350E-03     26.9835E-03    -29.7664E+06     5.99423E+06     44.9436E+06     75.7216E+03    -105.462E-03     211.513E-03    -106.051E-03     52.0490E-03    -105.816E-03     211.652E-03    -105.792E-03     50.9273E-03
            2027     10.5248E-03     26.9248E-03    -35.3904E+06    -17.5314E+06     36.8387E+06    -25.4568E+03    -105.681E-03     211.787E-03    -106.106E-03     52.4820E-03    -106.007E-03     211.819E-03    -105.846E-03     51.4290E-03
            2028     9.71472E-03     26.8660E-03    -41.1850E+06    -39.6268E+06     28.8236E+06     164.836E+03    -105.903E-03     212.057E-03    -106.153E-03     51.9758E-03    -106.204E-03     211.986E-03    -105.892E-03     50.9971E-03
            2029     8.90479E-03     26.8081E-03    -47.3531E+06    -58.2349E+06     20.5842E+06     247.691E+03    -106.099E-03     212.283E-03    -106.184E-03     50.7173E-03    -106.379E-03     212.128E-03    -105.928E-03     49.8125E-03
            2030     8.09511E-03     26.7516E-03    -53.7013E+06    -75.8919E+06     11.8347E+06     221.536E+03    -106.216E-03     212.415E-03    -106.199E-03     48.7516E-03    -106.477E-03     212.181E-03    -105.952E-03     47.9206E-03
            2031     7.28551E-03     26.6978E-03    -60.0909E+06    -92.8503E+06     2.39228E+06     80.5298E+03    -106.266E-03     212.467E-03    -106.201E-03     46.1598E-03    -106.507E-03     212.159E-03    -105.967E-03     45.4036E-03
            2032     6.47595E-03     26.6469E-03    -67.4584E+06    -109.869E+06    -8.20146E+06    -31.2969E+03    -106.273E-03     212.464E-03    -106.192E-03     42.9426E-03    -106.498E-03     212.084E-03    -105.976E-03     42.2629E-03
            2033     5.66652E-03     26.6001E-03    -75.5148E+06    -127.048E+06    -20.4351E+06     51.2381E+03    -106.227E-03     212.397E-03    -106.170E-03     39.1324E-03    -106.439E-03     211.948E-03    -105.978E-03     38.5337E-03
            2034     4.85695E-03     26.5577E-03    -83.5815E+06    -145.347E+06    -34.5472E+06     178.369E+03    -106.145E-03     212.284E-03    -106.138E-03     34.7831E-03    -106.339E-03     211.765E-03    -105.979E-03     34.2681E-03
            2035     4.04742E-03     26.5206E-03    -91.5762E+06    -163.996E+06    -50.4475E+06     259.575E+03    -106.069E-03     212.169E-03    -106.099E-03     29.9573E-03    -106.243E-03     211.581E-03    -105.981E-03     29.5274E-03
            2036     3.23789E-03     26.4891E-03    -99.6139E+06    -182.669E+06    -68.1190E+06     178.490E+03    -106.009E-03     212.061E-03    -106.052E-03     24.6721E-03    -106.160E-03     211.408E-03    -105.984E-03     24.3257E-03
            2037     2.42841E-03     26.4642E-03    -107.048E+06    -202.329E+06    -86.2551E+06     184.901E+03    -105.975E-03     211.976E-03    -106.001E-03     18.8983E-03    -106.102E-03     211.255E-03    -105.984E-03     18.6372E-03
            2038     1.61896E-03     26.4459E-03    -113.225E+06    -219.355E+06    -102.755E+06     94.2617E+03    -105.958E-03     211.901E-03    -105.943E-03     12.9221E-03    -106.062E-03     211.122E-03    -105.974E-03     12.7452E-03
            2039     809.791E-06     26.4342E-03    -117.552E+06    -231.258E+06    -114.723E+06    -130.442E+03    -105.892E-03     211.793E-03    -105.901E-03     7.00089E-03    -105.980E-03     210.975E-03    -105.969E-03     6.90145E-03
            2040     15.3883E-03     26.0531E-03    -4.82723E+06     106.432E+06     92.0728E+06     194.853E+03    -104.228E-03     210.012E-03    -105.784E-03     25.4814E-03    -104.629E-03     210.508E-03    -105.471E-03     24.3451E-03
            2041     14.5776E-03     26.0189E-03    -10.2403E+06     102.379E+06     76.4510E+06    -139.365E+03    -104.301E-03     210.081E-03    -105.780E-03     35.9260E-03    -104.742E-03     210.628E-03    -105.531E-03     34.5851E-03
            2042     13.7667E-03     25.9753E-03    -15.5301E+06     92.9367E+06     66.8205E+06    -527.246E+03    -104.684E-03     210.499E-03    -105.815E-03     42.5276E-03    -105.132E-03     211.028E-03    -105.593E-03     41.2256E-03
            2043     12.9562E-03     25.9253E-03    -20.0966E+06     69.8229E+06     62.3216E+06    -42.0758E+03    -105.004E-03     210.893E-03    -105.889E-03     47.5556E-03    -105.439E-03     211.324E-03    -105.650E-03     46.3036E-03
            2044     12.1457E-03     25.8702E-03    -25.1876E+06     34.0257E+06     52.0410E+06     4.91302E+03    -105.285E-03     211.236E-03    -105.951E-03     50.5167E-03    -105.676E-03     211.507E-03    -105.704E-03     49.3256E-03
            2045     11.3355E-03     25.8126E-03    -30.4241E+06     5.83308E+06     44.4864E+06    -86.7646E+03    -105.584E-03     211.594E-03    -106.010E-03     52.0185E-03    -105.941E-03     211.734E-03    -105.752E-03     50.8926E-03
            2046     10.5254E-03     25.7538E-03    -35.6638E+06    -17.5307E+06     36.4762E+06     163.994E+03    -105.834E-03     211.885E-03    -106.051E-03     52.3891E-03    -106.161E-03     211.918E-03    -105.792E-03     51.3369E-03
            2047     9.71541E-03     25.6948E-03    -41.3898E+06    -39.8779E+06     28.4642E+06     302.492E+03    -106.046E-03     212.126E-03    -106.081E-03     51.8055E-03    -106.346E-03     212.056E-03    -105.821E-03     50.8275E-03
            2048     8.90567E-03     25.6366E-03    -47.3822E+06    -57.8947E+06     20.4463E+06     254.821E+03    -106.192E-03     212.286E-03    -106.093E-03     50.4646E-03    -106.472E-03     212.133E-03    -105.839E-03     49.5602E-03
            2049     8.09599E-03     25.5802E-03    -53.6330E+06    -75.7267E+06     11.8361E+06    -24.1664E+03    -106.276E-03     212.369E-03    -106.092E-03     48.4565E-03    -106.536E-03     212.135E-03    -105.846E-03     47.6240E-03
            2050     7.28637E-03     25.5262E-03    -60.5201E+06    -92.8665E+06     2.41927E+06     39.2542E+03    -106.291E-03     212.369E-03    -106.078E-03     45.8167E-03    -106.534E-03     212.060E-03    -105.843E-03     45.0624E-03
            2051     6.47684E-03     25.4754E-03    -67.8365E+06    -109.849E+06    -8.32981E+06     302.346E+03    -106.248E-03     212.299E-03    -106.051E-03     42.5862E-03    -106.475E-03     211.919E-03    -105.835E-03     41.9149E-03
            2052     5.66725E-03     25.4286E-03    -75.4323E+06    -126.828E+06    -20.5639E+06     171.819E+03    -106.185E-03     212.196E-03    -106.011E-03     38.7941E-03    -106.396E-03     211.748E-03    -105.820E-03     38.2016E-03
            2053     4.85781E-03     25.3864E-03    -83.4627E+06    -145.483E+06    -34.6617E+06    -19.1227E+03    -106.093E-03     212.054E-03    -105.960E-03     34.4221E-03    -106.285E-03     211.533E-03    -105.802E-03     33.9089E-03
            2054     4.04824E-03     25.3494E-03    -91.5731E+06    -164.003E+06    -50.4718E+06     68.1232E+03    -105.957E-03     211.858E-03    -105.902E-03     29.5450E-03    -106.129E-03     211.270E-03    -105.783E-03     29.1170E-03
            2055     3.23860E-03     25.3181E-03    -99.3419E+06    -182.442E+06    -68.0026E+06     146.973E+03    -105.831E-03     211.671E-03    -105.840E-03     24.2411E-03    -105.981E-03     211.019E-03    -105.772E-03     23.8986E-03
            2056     2.42898E-03     25.2931E-03    -106.640E+06    -202.330E+06    -85.9272E+06     84.2756E+03    -105.774E-03     211.556E-03    -105.782E-03     18.6372E-03    -105.900E-03     210.834E-03    -105.763E-03     18.3786E-03
            2057     1.61945E-03     25.2749E-03    -112.526E+06    -219.072E+06    -101.822E+06     198.729E+03    -105.724E-03     211.450E-03    -105.725E-03     12.8040E-03    -105.826E-03     210.670E-03    -105.753E-03     12.6308E-03
            2058     809.461E-06     25.2638E-03    -116.645E+06    -231.060E+06    -113.797E+06     235.166E+03    -105.740E-03     211.365E-03    -105.625E-03     7.07946E-03    -105.825E-03     210.545E-03    -105.690E-03     6.98683E-03
            2059     15.3884E-03     24.8836E-03    -4.93626E+06     106.055E+06     91.6350E+06    -3.14968E+03    -104.134E-03     209.918E-03    -105.784E-03     25.2626E-03    -104.535E-03     210.412E-03    -105.472E-03     24.1211E-03
            2060     14.5772E-03     24.8483E-03    -9.81593E+06     103.053E+06     77.3902E+06     399.586E+03    -104.467E-03     210.248E-03    -105.782E-03     36.0688E-03    -104.908E-03     210.796E-03    -105.530E-03     34.7349E-03
            2061     13.7670E-03     24.8049E-03    -15.0394E+06     93.5462E+06     67.7989E+06     17.8779E+03    -104.884E-03     210.689E-03    -105.806E-03     42.5054E-03    -105.331E-03     211.219E-03    -105.581E-03     41.2110E-03
            2062     12.9565E-03     24.7545E-03    -20.6458E+06     69.1440E+06     61.6484E+06    -296.293E+03    -105.180E-03     211.043E-03    -105.863E-03     47.4280E-03    -105.617E-03     211.473E-03    -105.625E-03     46.1679E-03
            2063     12.1464E-03     24.6995E-03    -25.5587E+06     34.4628E+06     51.9160E+06     9.90427E+03    -105.505E-03     211.415E-03    -105.910E-03     50.4327E-03    -105.898E-03     211.689E-03    -105.663E-03     49.2369E-03
            2064     11.3361E-03     24.6417E-03    -30.9496E+06     5.83861E+06     43.9126E+06    -72.6597E+03    -105.783E-03     211.732E-03    -105.949E-03     51.8877E-03    -106.142E-03     211.875E-03    -105.693E-03     50.7602E-03
            2065     10.5261E-03     24.5826E-03    -36.4644E+06    -18.1803E+06     35.8069E+06    -91.4146E+03    -106.039E-03     212.010E-03    -105.971E-03     52.1574E-03    -106.369E-03     212.041E-03    -105.712E-03     51.1004E-03
            2066     9.71645E-03     24.5234E-03    -41.7256E+06    -39.8786E+06     28.3139E+06     49.2629E+03    -106.204E-03     212.183E-03    -105.979E-03     51.5484E-03    -106.506E-03     212.113E-03    -105.719E-03     50.5669E-03
            2067     8.90672E-03     24.4652E-03    -47.3581E+06    -57.6224E+06     20.5825E+06    -10.5956E+03    -106.298E-03     212.268E-03    -105.970E-03     50.1827E-03    -106.578E-03     212.115E-03    -105.715E-03     49.2764E-03
            2068     8.09712E-03     24.4087E-03    -53.7649E+06    -75.5928E+06     11.9348E+06    -5.42300E+03    -106.343E-03     212.289E-03    -105.947E-03     48.0660E-03    -106.603E-03     212.056E-03    -105.699E-03     47.2366E-03
            2069     7.28764E-03     24.3548E-03    -60.7001E+06    -93.0740E+06     2.24292E+06     52.2668E+03    -106.314E-03     212.223E-03    -105.909E-03     45.3487E-03    -106.557E-03     211.913E-03    -105.675E-03     44.5991E-03
            2070     6.47807E-03     24.3042E-03    -67.7125E+06    -109.824E+06    -8.38774E+06     17.4855E+03    -106.234E-03     212.092E-03    -105.858E-03     42.0483E-03    -106.459E-03     211.711E-03    -105.643E-03     41.3787E-03
            2071     5.66852E-03     24.2574E-03    -75.0622E+06    -126.711E+06    -20.3646E+06     124.793E+03    -106.109E-03     211.906E-03    -105.796E-03     38.1894E-03    -106.318E-03     211.457E-03    -105.606E-03     37.6023E-03
            2072     4.85886E-03     24.2153E-03    -82.7915E+06    -145.227E+06    -34.3181E+06     139.464E+03    -105.979E-03     211.703E-03    -105.724E-03     33.8449E-03    -106.167E-03     211.181E-03    -105.565E-03     33.3399E-03
            2073     4.04930E-03     24.1785E-03    -91.0540E+06    -163.973E+06    -50.3944E+06    -25.8138E+03    -105.827E-03     211.467E-03    -105.640E-03     29.0380E-03    -105.996E-03     210.877E-03    -105.522E-03     28.6142E-03
            2074     3.23961E-03     24.1476E-03     -99.348E+06    -182.662E+06    -67.9793E+06     26.2622E+03    -105.631E-03     211.185E-03    -105.554E-03     23.8149E-03    -105.781E-03     210.531E-03    -105.485E-03     23.4763E-03
            2075     2.42969E-03     24.1228E-03    -106.655E+06    -202.110E+06    -85.9119E+06     211.169E+03    -105.468E-03     210.952E-03    -105.484E-03     18.2782E-03    -105.593E-03     210.230E-03    -105.466E-03     18.0257E-03
            2076     1.61963E-03     24.1047E-03    -112.814E+06    -219.019E+06    -102.384E+06     126.823E+03    -105.421E-03     210.848E-03    -105.427E-03     12.4502E-03    -105.523E-03     210.069E-03    -105.458E-03     12.2786E-03
            2077     810.022E-06     24.0935E-03    -116.794E+06    -230.665E+06    -113.857E+06     203.354E+03    -105.381E-03     210.772E-03    -105.391E-03     6.73460E-03    -105.466E-03     209.954E-03    -105.456E-03     6.64223E-03
            2078     15.3882E-03     23.7140E-03    -5.18077E+06     105.980E+06     91.4256E+06     226.308E+03    -104.404E-03     210.184E-03    -105.780E-03     25.2893E-03    -104.806E-03     210.678E-03    -105.469E-03     24.1507E-03
            2079     14.5778E-03     23.6776E-03    -10.0160E+06     102.842E+06     76.6237E+06     27.0325E+03    -104.704E-03     210.464E-03    -105.761E-03     35.9451E-03    -105.146E-03     211.014E-03    -105.512E-03     34.5977E-03
            2080     13.7672E-03     23.6342E-03    -14.5163E+06     94.1107E+06     67.4578E+06     196.992E+03    -104.978E-03     210.752E-03    -105.774E-03     42.3268E-03    -105.424E-03     211.285E-03    -105.552E-03     41.0301E-03
            2081     12.9570E-03     23.5836E-03    -19.6407E+06     69.3635E+06     62.0265E+06     29.3730E+03    -105.374E-03     211.197E-03    -105.823E-03     47.3661E-03    -105.806E-03     211.626E-03    -105.585E-03     46.1096E-03
            2082     12.1468E-03     23.5284E-03    -25.2166E+06     33.8855E+06     51.9397E+06     53.9489E+03    -105.788E-03     211.640E-03    -105.852E-03     50.2670E-03    -106.178E-03     211.911E-03    -105.605E-03     49.0672E-03
            2083     11.3371E-03     23.4706E-03    -30.5090E+06     6.52981E+06     44.5406E+06     168.778E+03    -106.078E-03     211.946E-03    -105.868E-03     51.6496E-03    -106.437E-03     212.090E-03    -105.610E-03     50.5223E-03
            2084     10.5274E-03     23.4112E-03    -35.8486E+06    -18.0088E+06     36.0979E+06    -390.194E+03    -106.263E-03     212.124E-03    -105.861E-03     51.8459E-03    -106.590E-03     212.155E-03    -105.602E-03     50.7846E-03
            2085     9.71769E-03     23.3522E-03    -41.4852E+06    -40.1570E+06     28.3167E+06    -469.926E+03    -106.387E-03     212.229E-03    -105.842E-03     51.1333E-03    -106.686E-03     212.156E-03    -105.582E-03     50.1463E-03
            2086     8.90817E-03     23.2938E-03    -47.3122E+06    -57.7932E+06     20.6397E+06    -145.444E+03    -106.450E-03     212.254E-03    -105.804E-03     49.6623E-03    -106.728E-03     212.099E-03    -105.549E-03     48.7570E-03
            2087     8.09873E-03     23.2373E-03    -53.4702E+06    -75.7157E+06     11.9491E+06     49.2369E+03    -106.436E-03     212.186E-03    -105.750E-03     47.4307E-03    -106.694E-03     211.950E-03    -105.503E-03     46.6065E-03
            2088     7.28916E-03     23.1836E-03    -59.9914E+06    -92.8244E+06     2.44236E+06     18.0400E+03    -106.358E-03     212.039E-03    -105.681E-03     44.6326E-03    -106.597E-03     211.728E-03    -105.447E-03     43.8885E-03
            2089     6.47970E-03     23.1330E-03    -67.3359E+06    -109.833E+06    -8.31674E+06    -27.8176E+03    -106.223E-03     211.820E-03    -105.597E-03     41.2877E-03    -106.445E-03     211.437E-03    -105.382E-03     40.6238E-03
            2090     5.67017E-03     23.0867E-03    -75.1184E+06    -126.855E+06    -20.5014E+06     16.0639E+03    -106.019E-03     211.522E-03    -105.503E-03     37.4160E-03    -106.226E-03     211.072E-03    -105.313E-03     36.8348E-03
            2091     4.86049E-03     23.0448E-03    -83.0005E+06    -145.169E+06    -34.4658E+06     175.008E+03    -105.780E-03     211.183E-03    -105.403E-03     33.0912E-03    -105.969E-03     210.662E-03    -105.245E-03     32.5950E-03
            2092     4.05060E-03     23.0083E-03    -91.1286E+06    -163.717E+06    -50.5052E+06     243.946E+03    -105.559E-03     210.858E-03    -105.299E-03     28.3368E-03    -105.728E-03     210.269E-03    -105.182E-03     27.9239E-03
            2093     3.24067E-03     22.9776E-03    -99.1121E+06    -182.632E+06    -68.1718E+06     156.259E+03    -105.370E-03     210.560E-03    -105.190E-03     23.2107E-03    -105.518E-03     209.905E-03    -105.122E-03     22.8796E-03
            2094     2.43068E-03     22.9533E-03    -106.502E+06    -202.082E+06    -85.9325E+06     99.2637E+03    -105.188E-03     210.275E-03    -105.087E-03     17.7641E-03    -105.312E-03     209.553E-03    -105.069E-03     17.5153E-03
            2095     1.62061E-03     22.9352E-03    -112.477E+06    -218.865E+06    -101.889E+06     162.589E+03    -105.027E-03     210.031E-03    -105.004E-03     12.1441E-03    -105.128E-03     209.251E-03    -105.033E-03     11.9773E-03
            2096     810.271E-06     22.9240E-03    -116.683E+06    -230.407E+06    -113.591E+06    -7.09135E+03    -104.976E-03     209.906E-03    -104.929E-03     6.53318E-03    -105.062E-03     209.089E-03    -104.994E-03     6.44067E-03
            2097     15.3884E-03     22.5423E-03    -4.94062E+06     106.121E+06     91.7429E+06     103.725E+03    -104.690E-03     210.459E-03    -105.770E-03     25.3141E-03    -105.091E-03     210.954E-03    -105.458E-03     24.1690E-03
            2098     14.5784E-03     22.5073E-03    -9.60468E+06     103.267E+06     77.3780E+06     57.4081E+03    -104.946E-03     210.683E-03    -105.737E-03     36.0254E-03    -105.388E-03     211.233E-03    -105.486E-03     34.6731E-03
            2099     13.7679E-03     22.4635E-03    -14.2504E+06     94.3316E+06     67.8895E+06    -164.299E+03    -105.199E-03     210.933E-03    -105.734E-03     42.4159E-03    -105.646E-03     211.467E-03    -105.511E-03     41.1096E-03
            2100     12.9576E-03     22.4125E-03    -18.8212E+06     68.6497E+06     62.4677E+06     81.7639E+03    -105.648E-03     211.414E-03    -105.766E-03     47.2352E-03    -106.076E-03     211.837E-03    -105.526E-03     45.9737E-03
            2101     12.1480E-03     22.3572E-03    -23.7733E+06     33.5624E+06     52.7586E+06     367.031E+03    -106.106E-03     211.877E-03    -105.771E-03     49.9735E-03    -106.490E-03     212.143E-03    -105.522E-03     48.7742E-03
            2102     11.3383E-03     22.2990E-03    -29.0006E+06     7.20645E+06     45.3584E+06     164.202E+03    -106.383E-03     212.140E-03    -105.756E-03     51.2813E-03    -106.736E-03     212.284E-03    -105.498E-03     50.1517E-03
            2103     10.5288E-03     22.2399E-03    -34.6742E+06    -17.4728E+06     36.6962E+06    -57.7080E+03    -106.568E-03     212.284E-03    -105.716E-03     51.3652E-03    -106.889E-03     212.314E-03    -105.457E-03     50.3078E-03
            2104     9.71947E-03     22.1807E-03    -40.7848E+06    -40.2462E+06     28.5510E+06    -203.950E+03    -106.679E-03     212.337E-03    -105.659E-03     50.5023E-03    -106.974E-03     212.262E-03    -105.399E-03     49.5201E-03
            2105     8.91017E-03     22.1225E-03    -47.1113E+06    -58.2276E+06     20.4910E+06    -144.432E+03    -106.672E-03     212.251E-03    -105.579E-03     48.8363E-03    -106.947E-03     212.093E-03    -105.324E-03     47.9346E-03
            2106     8.10076E-03     22.0662E-03    -53.4424E+06    -75.7029E+06     11.8788E+06    -30.4112E+03    -106.574E-03     212.056E-03    -105.482E-03     46.4693E-03    -106.830E-03     211.819E-03    -105.235E-03     45.6501E-03
            2107     7.29150E-03     22.0126E-03    -60.1795E+06    -92.7804E+06     2.29808E+06     106.699E+03    -106.401E-03     211.770E-03    -105.369E-03     43.5722E-03    -106.639E-03     211.458E-03    -105.136E-03     42.8373E-03
            2108     6.48199E-03     21.9625E-03    -67.2006E+06    -109.703E+06    -8.44927E+06     152.580E+03    -106.154E-03     211.399E-03    -105.245E-03     40.2069E-03    -106.374E-03     211.015E-03    -105.030E-03     39.5552E-03
            2109     5.67230E-03     21.9163E-03    -74.6441E+06    -126.784E+06    -20.4854E+06     84.2149E+03    -105.868E-03     210.981E-03    -105.113E-03     36.3459E-03    -106.071E-03     210.528E-03    -104.923E-03     35.7758E-03
            2110     4.86250E-03     21.8750E-03    -82.6887E+06    -145.183E+06    -34.3664E+06     91.1702E+03    -105.539E-03     210.517E-03    -104.978E-03     32.0618E-03    -105.724E-03     209.994E-03    -104.820E-03     31.5746E-03
            2111     4.05246E-03     21.8389E-03    -90.8144E+06    -163.693E+06    -50.2698E+06     163.603E+03    -105.215E-03     210.060E-03    -104.845E-03     27.4059E-03    -105.382E-03     209.469E-03    -104.727E-03     27.0020E-03
            2112     3.24220E-03     21.8085E-03    -98.6426E+06    -182.362E+06    -67.8374E+06     169.986E+03    -104.966E-03     209.680E-03    -104.714E-03     22.3977E-03    -105.112E-03     209.024E-03    -104.645E-03     22.0754E-03
            2113     2.43186E-03     21.7844E-03    -105.765E+06    -202.033E+06    -85.6141E+06     67.6546E+03    -104.761E-03     209.348E-03    -104.587E-03     17.1594E-03    -104.881E-03     208.624E-03    -104.569E-03     16.9164E-03
            2114     1.62135E-03     21.7669E-03    -111.688E+06    -218.702E+06    -101.277E+06     23.0111E+03    -104.532E-03     209.019E-03    -104.486E-03     11.7211E-03    -104.631E-03     208.238E-03    -104.514E-03     11.5575E-03
            2115     810.539E-06     21.7561E-03    -115.763E+06    -230.284E+06    -112.798E+06     84.8105E+03    -104.488E-03     208.860E-03    -104.372E-03     6.46984E-03    -104.571E-03     208.041E-03    -104.434E-03     6.38342E-03
            2116     15.3889E-03     21.3722E-03    -4.88478E+06     106.168E+06     91.6349E+06    -313.237E+03    -104.836E-03     210.589E-03    -105.754E-03     25.5161E-03    -105.237E-03     211.084E-03    -105.442E-03     24.3651E-03
            2117     14.5781E-03     21.3359E-03    -9.70280E+06     103.253E+06     77.5492E+06    -330.922E+03    -105.204E-03     210.915E-03    -105.710E-03     36.0586E-03    -105.648E-03     211.466E-03    -105.458E-03     34.6961E-03
            2118     13.7685E-03     21.2925E-03    -14.6755E+06     93.9449E+06     68.0236E+06     192.836E+03    -105.655E-03     211.340E-03    -105.685E-03     42.3807E-03    -106.104E-03     211.873E-03    -105.460E-03     41.0690E-03
            2119     12.9588E-03     21.2412E-03    -20.1560E+06     68.8937E+06     61.6520E+06     191.252E+03    -106.056E-03     211.738E-03    -105.682E-03     47.1674E-03    -106.491E-03     212.167E-03    -105.445E-03     45.9026E-03
            2120     12.1492E-03     21.1855E-03    -25.1738E+06     33.6983E+06     51.8348E+06    -300.123E+03    -106.464E-03     212.120E-03    -105.656E-03     49.7127E-03    -106.855E-03     212.390E-03    -105.409E-03     48.5024E-03
            2121     11.3399E-03     21.1275E-03    -29.7985E+06     6.79325E+06     44.8941E+06    -119.127E+03    -106.776E-03     212.383E-03    -105.607E-03     50.7561E-03    -107.132E-03     212.527E-03    -105.349E-03     49.6212E-03
            2122     10.5308E-03     21.0682E-03    -35.0969E+06    -17.1652E+06     36.6623E+06     284.205E+03    -106.988E-03     212.511E-03    -105.523E-03     50.6004E-03    -107.311E-03     212.542E-03    -105.264E-03     49.5484E-03
            2123     9.72178E-03     21.0092E-03    -40.8234E+06    -40.0507E+06     28.4902E+06     191.340E+03    -107.067E-03     212.480E-03    -105.412E-03     49.5198E-03    -107.361E-03     212.404E-03    -105.153E-03     48.5454E-03
            2124     8.91277E-03     20.9511E-03    -46.7736E+06    -58.0752E+06     20.5133E+06    -4.68363E+03    -106.976E-03     212.251E-03    -105.276E-03     47.6518E-03    -107.248E-03     212.092E-03    -105.021E-03     46.7572E-03
            2125     8.10379E-03     20.8952E-03    -53.1721E+06    -75.7771E+06     11.7783E+06    -35.1852E+03    -106.763E-03     211.883E-03    -105.120E-03     45.1676E-03    -107.014E-03     211.642E-03    -104.874E-03     44.3576E-03
            2126     7.29443E-03     20.8420E-03    -59.7340E+06    -92.8083E+06     2.33379E+06    -3.64013E+03    -106.460E-03     211.410E-03    -104.950E-03     42.1485E-03    -106.692E-03     211.094E-03    -104.717E-03     41.4234E-03
            2127     6.48496E-03     20.7925E-03    -66.7460E+06    -109.622E+06    -8.24573E+06     64.8663E+03    -106.076E-03     210.847E-03    -104.771E-03     38.6795E-03    -106.292E-03     210.460E-03    -104.556E-03     38.0393E-03
            2128     5.67525E-03     20.7468E-03    -74.3338E+06    -126.661E+06    -20.3886E+06     157.223E+03    -105.635E-03     210.223E-03    -104.588E-03     34.8058E-03    -105.835E-03     209.768E-03    -104.399E-03     34.2505E-03
            2129     4.86518E-03     20.7061E-03    -82.1949E+06    -145.228E+06    -34.2993E+06     210.050E+03    -105.212E-03     209.620E-03    -104.408E-03     30.5854E-03    -105.393E-03     209.093E-03    -104.250E-03     30.1131E-03
            2130     4.05486E-03     20.6705E-03    -90.2451E+06    -163.678E+06    -50.1221E+06     360.391E+03    -104.800E-03     209.030E-03    -104.230E-03     26.0500E-03    -104.963E-03     208.437E-03    -104.113E-03     25.6619E-03
            2131     3.24427E-03     20.6407E-03    -98.2425E+06    -182.196E+06    -67.7781E+06     329.076E+03    -104.406E-03     208.469E-03    -104.063E-03     21.2301E-03    -104.549E-03     207.813E-03    -103.995E-03     20.9217E-03
            2132     2.43337E-03     20.6169E-03    -105.692E+06    -201.651E+06    -85.7065E+06     247.534E+03    -104.108E-03     208.027E-03    -103.919E-03     16.1642E-03    -104.228E-03     207.304E-03    -103.902E-03     15.9328E-03
            2133     1.62234E-03     20.5999E-03    -111.805E+06    -218.473E+06    -101.810E+06     172.449E+03    -103.915E-03     207.707E-03    -103.791E-03     10.9455E-03    -104.014E-03     206.928E-03    -103.821E-03     10.7894E-03
            2134     811.418E-06     20.5891E-03    -115.896E+06    -230.087E+06    -113.222E+06     97.6324E+03    -103.741E-03     207.430E-03    -103.689E-03     6.08370E-03    -103.824E-03     206.613E-03    -103.753E-03     6.00026E-03
            2135     15.3888E-03     20.2010E-03    -4.79716E+06     106.457E+06     92.0425E+06    -82.9437E+03    -105.221E-03     210.956E-03    -105.735E-03     25.3564E-03    -105.623E-03     211.453E-03    -105.423E-03     24.1982E-03
            2136     14.5793E-03     20.1649E-03    -10.2821E+06     102.585E+06     76.4492E+06    -60.8125E+03    -105.577E-03     211.241E-03    -105.665E-03     35.9753E-03    -106.021E-03     211.792E-03    -105.416E-03     34.6084E-03
            2137     13.7693E-03     20.1207E-03    -15.6514E+06     93.0617E+06     66.6445E+06     90.6594E+03    -106.083E-03     211.696E-03    -105.613E-03     42.2069E-03    -106.535E-03     212.229E-03    -105.392E-03     40.8837E-03
            2138     12.9601E-03     20.0695E-03    -20.0379E+06     70.4272E+06     62.1859E+06     219.295E+03    -106.578E-03     212.158E-03    -105.579E-03     46.8808E-03    -107.016E-03     212.594E-03    -105.342E-03     45.6091E-03
            2139     12.1509E-03     20.0137E-03    -25.1364E+06     34.4317E+06     51.7775E+06    -405.692E+03    -107.025E-03     212.532E-03    -105.507E-03     49.2175E-03    -107.416E-03     212.806E-03    -105.262E-03     48.0015E-03
            2140     11.3421E-03     19.9554E-03    -30.6532E+06     5.69989E+06     44.0613E+06    -566.631E+03    -107.366E-03     212.771E-03    -105.405E-03     49.9637E-03    -107.722E-03     212.910E-03    -105.149E-03     48.8217E-03
            2141     10.5335E-03     19.8963E-03    -35.7690E+06    -17.2278E+06     36.2474E+06    -83.6126E+03    -107.548E-03     212.807E-03    -105.259E-03     49.4898E-03    -107.873E-03     212.838E-03    -105.001E-03     48.4348E-03
            2142     9.72496E-03     19.8373E-03    -40.9440E+06    -39.7257E+06     28.3655E+06    -57.0779E+03    -107.547E-03     212.628E-03    -105.080E-03     48.1180E-03    -107.839E-03     212.551E-03    -104.821E-03     47.1462E-03
            2143     8.91637E-03     19.7799E-03    -46.6324E+06    -57.9107E+06     20.4382E+06    -110.213E+03    -107.366E-03     212.236E-03    -104.870E-03     45.9926E-03    -107.635E-03     212.074E-03    -104.616E-03     45.1064E-03
            2144     8.10747E-03     19.7244E-03    -52.6923E+06    -75.7075E+06     11.8204E+06    -104.545E+03    -107.034E-03     211.669E-03    -104.636E-03     43.2688E-03    -107.280E-03     211.425E-03    -104.390E-03     42.4708E-03
            2145     7.29849E-03     19.6720E-03    -59.4391E+06    -92.8823E+06     2.26757E+06    -67.6960E+03    -106.582E-03     210.967E-03    -104.384E-03     40.0588E-03    -106.810E-03     210.647E-03    -104.152E-03     39.3482E-03
            2146     6.48911E-03     19.6230E-03    -66.7434E+06    -109.810E+06    -8.45705E+06     197.871E+03    -106.006E-03     210.130E-03    -104.124E-03     36.4321E-03    -106.217E-03     209.739E-03    -103.911E-03     35.8110E-03
            2147     5.67921E-03     19.5785E-03    -74.3318E+06    -126.640E+06    -20.6646E+06     429.591E+03    -105.374E-03     209.239E-03    -103.866E-03     32.5671E-03    -105.570E-03     208.782E-03    -103.678E-03     32.0345E-03
            2148     4.86891E-03     19.5383E-03    -82.1994E+06    -145.078E+06    -34.7329E+06     461.157E+03    -104.780E-03     208.395E-03    -103.615E-03     28.4280E-03    -104.959E-03     207.867E-03    -103.459E-03     27.9786E-03
            2149     4.05826E-03     19.5036E-03    -90.0848E+06    -163.649E+06    -50.3916E+06     454.393E+03    -104.208E-03     207.582E-03    -103.375E-03     24.0387E-03    -104.367E-03     206.987E-03    -103.259E-03     23.6696E-03
            2150     3.24714E-03     19.4745E-03    -97.7104E+06    -181.796E+06    -67.5673E+06     564.096E+03    -103.676E-03     206.830E-03    -103.154E-03     19.4928E-03    -103.815E-03     206.173E-03    -103.087E-03     19.2032E-03
            2151     2.43569E-03     19.4514E-03    -104.774E+06    -201.120E+06    -85.1684E+06     476.344E+03    -103.247E-03     206.216E-03    -102.969E-03     14.7970E-03    -103.363E-03     205.493E-03    -102.951E-03     14.5814E-03
            2152     1.62400E-03     19.4345E-03    -110.761E+06    -218.111E+06    -100.710E+06     267.339E+03    -102.956E-03     205.780E-03    -102.823E-03     10.0341E-03    -103.051E-03     204.999E-03    -102.850E-03     9.88821E-03
            2153     811.950E-06     19.4243E-03    -114.533E+06    -229.790E+06    -111.824E+06     168.096E+03    -102.793E-03     205.486E-03    -102.692E-03     5.47307E-03    -102.872E-03     204.666E-03    -102.752E-03     5.39428E-03
            2154     15.3897E-03     19.0298E-03    -5.20439E+06     105.995E+06     91.5201E+06     72.1706E+03    -105.692E-03     211.402E-03    -105.710E-03     25.4867E-03    -106.096E-03     211.899E-03    -105.399E-03     24.3215E-03
            2155     14.5797E-03     18.9930E-03    -10.2101E+06     102.643E+06     76.9206E+06     363.294E+03    -106.139E-03     211.751E-03    -105.613E-03     36.1993E-03    -106.585E-03     212.302E-03    -105.362E-03     34.8326E-03
            2156     13.7708E-03     18.9489E-03    -14.7244E+06     93.9217E+06      67.603E+06     53.8682E+03    -106.702E-03     212.225E-03    -105.523E-03     42.1293E-03    -107.152E-03     212.760E-03    -105.300E-03     40.8003E-03
            2157     12.9617E-03     18.8970E-03    -19.8459E+06     70.0163E+06     61.8202E+06    -447.759E+03    -107.295E-03     212.733E-03    -105.438E-03     46.3520E-03    -107.730E-03     213.166E-03    -105.201E-03     45.0650E-03
            2158     12.1533E-03     18.8412E-03    -24.7580E+06     34.8613E+06     51.9667E+06    -114.547E+03    -107.828E-03     213.133E-03    -105.305E-03     48.3077E-03    -108.216E-03     213.407E-03    -105.060E-03     47.0915E-03
            2159     11.3451E-03     18.7829E-03    -30.0491E+06     6.10582E+06     44.1684E+06    -174.490E+03    -108.172E-03     213.301E-03    -105.128E-03     48.7012E-03    -108.523E-03     213.439E-03    -104.873E-03     47.5648E-03
            2160     10.5372E-03     18.7238E-03    -35.4677E+06    -17.5910E+06     36.0406E+06    -644.321E+03    -108.303E-03     213.201E-03    -104.898E-03     47.7772E-03    -108.622E-03     213.226E-03    -104.641E-03     46.7205E-03
            2161     9.72917E-03     18.6655E-03    -40.8790E+06    -39.6478E+06     28.1618E+06    -414.617E+03    -108.209E-03     212.834E-03    -104.625E-03     45.9640E-03    -108.496E-03     212.754E-03    -104.367E-03     44.9990E-03
            2162     8.92104E-03     18.6084E-03    -46.7066E+06    -58.0246E+06     20.0673E+06    -280.220E+03    -107.910E-03     212.221E-03    -104.311E-03     43.4194E-03    -108.173E-03     212.054E-03    -104.059E-03     42.5464E-03
            2163     8.11281E-03     18.5541E-03    -52.9351E+06    -75.6892E+06     11.4694E+06    -37.5170E+03    -107.416E-03     211.384E-03    -103.968E-03     40.3550E-03    -107.657E-03     211.135E-03    -103.724E-03     39.5764E-03
            2164     7.30400E-03     18.5024E-03    -59.7525E+06    -93.0012E+06     1.72084E+06     159.810E+03    -106.718E-03     210.322E-03    -103.605E-03     36.9631E-03    -106.941E-03     209.998E-03    -103.374E-03     36.2781E-03
            2165     6.49471E-03     18.4548E-03    -66.7113E+06    -110.054E+06    -9.03415E+06     218.185E+03    -105.908E-03     209.144E-03    -103.235E-03     33.2971E-03    -106.114E-03     208.748E-03    -103.024E-03     32.7007E-03
            2166     5.68479E-03     18.4112E-03    -73.7671E+06    -126.572E+06    -20.8020E+06     373.213E+03    -105.064E-03     207.934E-03    -102.870E-03     29.5104E-03    -105.253E-03     207.472E-03    -102.684E-03     29.0022E-03
            2167     4.87427E-03     18.3723E-03    -81.4181E+06    -144.768E+06    -34.4848E+06     501.508E+03    -104.196E-03     206.717E-03    -102.520E-03     25.5408E-03    -104.368E-03     206.185E-03    -102.365E-03     25.1159E-03
            2168     4.06299E-03     18.3387E-03    -89.2581E+06    -163.370E+06    -50.0340E+06     511.270E+03    -103.376E-03     205.571E-03    -102.195E-03     21.4480E-03    -103.530E-03     204.973E-03    -102.079E-03     21.1008E-03
            2169     3.25120E-03     18.3104E-03    -97.1730E+06    -181.656E+06    -67.2030E+06     528.504E+03    -102.655E-03     204.559E-03    -101.904E-03     17.2950E-03    -102.791E-03     203.900E-03    -101.836E-03     17.0234E-03
            2170     2.43889E-03     18.2882E-03    -104.272E+06    -200.560E+06    -84.5157E+06     647.861E+03    -102.054E-03     203.720E-03    -101.666E-03     13.1125E-03    -102.169E-03     202.997E-03    -101.646E-03     12.9142E-03
            2171     1.62604E-03     18.2720E-03    -109.908E+06    -217.409E+06    -100.066E+06     420.897E+03    -101.645E-03     203.136E-03    -101.491E-03     8.88607E-03    -101.738E-03     202.356E-03    -101.516E-03     8.75368E-03
            2172     813.146E-06     18.2620E-03    -114.085E+06    -229.404E+06    -111.277E+06    -14.3253E+03    -101.474E-03     202.803E-03    -101.330E-03     4.75737E-03    -101.551E-03     201.984E-03    -101.388E-03     4.68081E-03
            2173     15.3893E-03     17.8575E-03    -4.98840E+06     106.152E+06     91.5946E+06     116.655E+03    -106.333E-03     212.017E-03    -105.684E-03     25.6521E-03    -106.737E-03     212.514E-03    -105.372E-03     24.4801E-03
            2174     14.5809E-03     17.8208E-03    -9.93764E+06     102.820E+06     77.4489E+06     -65.758E+03    -106.987E-03     212.533E-03    -105.545E-03     35.9944E-03    -107.434E-03     213.084E-03    -105.293E-03     34.6074E-03
            2175     13.7721E-03     17.7759E-03    -14.4403E+06     94.1580E+06     67.8332E+06    -176.598E+03    -107.642E-03     213.039E-03    -105.397E-03     41.6905E-03    -108.091E-03     213.574E-03    -105.173E-03     40.3472E-03
            2176     12.9643E-03     17.7240E-03    -19.3785E+06     70.2813E+06     61.9185E+06    -47.9131E+03    -108.327E-03     213.567E-03    -105.240E-03     45.4999E-03    -108.759E-03     214.000E-03    -105.004E-03     44.2100E-03
            2177     12.1565E-03     17.6679E-03    -24.7882E+06     34.7300E+06     51.9122E+06    -260.788E+03    -108.908E-03     213.931E-03    -105.022E-03     46.9572E-03    -109.294E-03     214.201E-03    -104.777E-03     45.7358E-03
            2178     11.3494E-03     17.6097E-03    -29.5114E+06     6.82439E+06     44.4010E+06    -424.556E+03    -109.247E-03     213.991E-03    -104.744E-03     46.8009E-03    -109.593E-03     214.128E-03    -104.489E-03     45.6627E-03
            2179     10.5422E-03     17.5511E-03    -34.7254E+06    -17.4423E+06     35.9704E+06    -463.256E+03    -109.331E-03     213.729E-03    -104.397E-03     45.3279E-03    -109.641E-03     213.749E-03    -104.142E-03     44.2809E-03
            2180     9.73524E-03     17.4932E-03    -40.5334E+06    -39.9572E+06     27.7953E+06    -460.223E+03    -109.132E-03     213.127E-03    -103.995E-03     42.9367E-03    -109.411E-03     213.040E-03    -103.739E-03     41.9832E-03
            2181     8.92796E-03     17.4373E-03    -46.4138E+06    -58.0700E+06     19.7936E+06    -202.286E+03    -108.613E-03     212.156E-03    -103.543E-03     39.9861E-03    -108.868E-03     211.982E-03    -103.292E-03     39.1323E-03
            2182     8.12013E-03     17.3838E-03    -52.7669E+06    -76.0227E+06     11.0321E+06     8.86074E+03    -107.834E-03     210.891E-03    -103.057E-03     36.6500E-03    -108.067E-03     210.635E-03    -102.815E-03     35.8942E-03
            2183     7.31179E-03     17.3339E-03    -59.1333E+06    -92.9364E+06     1.58268E+06     242.433E+03    -106.843E-03     209.395E-03    -102.552E-03     33.1017E-03    -107.057E-03     209.065E-03    -102.324E-03     32.4416E-03
            2184     6.50245E-03     17.2877E-03    -65.8335E+06    -109.874E+06    -8.93226E+06     296.985E+03    -105.741E-03     207.785E-03    -102.044E-03     29.4550E-03    -105.938E-03     207.384E-03    -101.834E-03     28.8844E-03
            2185     5.69239E-03     17.2458E-03    -73.3679E+06    -126.586E+06    -20.8804E+06     407.086E+03    -104.567E-03     206.113E-03    -101.546E-03     25.8011E-03    -104.750E-03     205.646E-03    -101.360E-03     25.3166E-03
            2186     4.88131E-03     17.2086E-03    -81.1562E+06    -144.627E+06    -34.5915E+06     553.055E+03    -103.375E-03     204.449E-03    -101.074E-03     22.1343E-03    -103.542E-03     203.915E-03    -100.920E-03     21.7322E-03
            2187     4.06940E-03     17.1764E-03    -89.0192E+06    -163.050E+06    -49.9360E+06     663.810E+03    -102.258E-03     202.903E-03    -100.645E-03     18.4593E-03    -102.409E-03     202.304E-03    -100.530E-03     18.1347E-03
            2188     3.25657E-03     17.1496E-03    -96.7686E+06    -181.347E+06    -67.0351E+06     798.767E+03    -101.283E-03     201.553E-03    -100.270E-03     14.7871E-03    -101.416E-03     200.893E-03    -100.202E-03     14.5358E-03
            2189     2.44300E-03     17.1284E-03    -103.986E+06    -200.039E+06    -84.5596E+06     636.320E+03    -100.515E-03     200.480E-03    -99.9644E-03     11.1497E-03    -100.628E-03     199.758E-03    -99.9463E-03     10.9646E-03
            2190     1.62902E-03     17.1130E-03    -109.914E+06    -216.619E+06    -99.9619E+06     496.207E+03    -99.9681E-03     199.707E-03    -99.7389E-03     7.56608E-03    -100.061E-03     198.931E-03    -99.7652E-03     7.44433E-03
            2191     814.574E-06     17.1033E-03    -114.019E+06    -228.775E+06    -111.231E+06     386.368E+03    -99.6661E-03     199.254E-03    -99.5879E-03     4.07437E-03    -99.7441E-03     198.438E-03    -99.6470E-03     4.00885E-03
            2192     15.3905E-03     16.6841E-03    -5.03135E+06     106.185E+06     91.3476E+06    -84.1923E+03    -107.259E-03     212.896E-03    -105.637E-03     25.5808E-03    -107.664E-03     213.395E-03    -105.327E-03     24.3865E-03
            2193     14.5821E-03     16.6474E-03    -9.62910E+06     103.267E+06     77.5311E+06    -111.608E+03    -108.077E-03     213.518E-03    -105.441E-03     35.6366E-03    -108.524E-03     214.072E-03    -105.189E-03     34.2273E-03
            2194     13.7748E-03     16.6020E-03    -14.7858E+06     94.1381E+06     67.5801E+06    -218.118E+03    -108.901E-03     214.116E-03    -105.216E-03     41.0375E-03    -109.351E-03     214.652E-03    -104.993E-03     39.6788E-03
            2195     12.9676E-03     16.5497E-03    -19.4358E+06     70.4490E+06     61.7965E+06    -148.128E+03    -109.704E-03     214.668E-03    -104.964E-03     44.3199E-03    -110.134E-03     215.100E-03    -104.729E-03     43.0174E-03
            2196     12.1614E-03     16.4935E-03    -23.9275E+06     35.2814E+06     51.9122E+06    -328.162E+03    -110.360E-03     214.990E-03    -104.629E-03     45.1386E-03    -110.739E-03     215.258E-03    -104.386E-03     43.9095E-03
            2197     11.3552E-03     16.4356E-03    -29.4047E+06     6.80552E+06     43.8568E+06    -582.728E+03    -110.661E-03     214.877E-03    -104.216E-03     44.2741E-03    -111.001E-03     215.009E-03    -103.964E-03     43.1325E-03
            2198     10.5494E-03     16.3774E-03    -34.8934E+06    -17.3044E+06     35.6055E+06    -324.182E+03    -110.606E-03     214.326E-03    -103.720E-03     42.2076E-03    -110.910E-03     214.342E-03    -103.466E-03     41.1677E-03
            2199     9.74336E-03     16.3206E-03    -40.3224E+06    -40.0122E+06     27.5422E+06    -164.683E+03    -110.189E-03     213.346E-03    -103.157E-03     39.3483E-03    -110.460E-03     213.252E-03    -102.903E-03     38.4104E-03
            2200     8.93693E-03     16.2661E-03    -46.1725E+06    -58.1656E+06     19.5006E+06    -72.7786E+03    -109.384E-03     211.921E-03    -102.537E-03     36.0411E-03    -109.631E-03     211.741E-03    -102.288E-03     35.2053E-03
            2201     8.12979E-03     16.2145E-03    -52.3436E+06    -75.9941E+06     10.7259E+06     47.2606E+03    -108.260E-03     210.140E-03    -101.880E-03     32.4398E-03    -108.485E-03     209.878E-03    -101.641E-03     31.7034E-03
            2202     7.32153E-03     16.1666E-03    -58.8621E+06    -93.0191E+06     1.28968E+06     161.782E+03    -106.940E-03     208.146E-03    -101.206E-03     28.7665E-03    -107.147E-03     207.810E-03    -100.979E-03     28.1245E-03
            2203     6.51244E-03     16.1225E-03    -65.8233E+06    -109.765E+06    -9.13726E+06     520.466E+03    -105.459E-03     205.989E-03    -100.530E-03     25.1224E-03    -105.651E-03     205.584E-03    -100.321E-03     24.5739E-03
            2204     5.70192E-03     16.0829E-03    -73.1821E+06    -126.491E+06    -21.0252E+06     735.095E+03    -103.870E-03     203.745E-03    -99.8741E-03     21.5746E-03    -104.049E-03     203.275E-03    -99.6897E-03     21.1128E-03
            2205     4.89022E-03     16.0478E-03    -80.9441E+06    -144.297E+06    -34.7680E+06     792.636E+03    -102.300E-03     201.560E-03    -99.2601E-03     18.1909E-03    -102.463E-03     201.025E-03    -99.1074E-03     17.8098E-03
            2206     4.07723E-03     16.0177E-03    -88.7967E+06    -162.827E+06    -50.1415E+06     762.493E+03    -100.844E-03     199.552E-03    -98.7072E-03     14.9550E-03    -100.992E-03     198.951E-03    -98.5931E-03     14.6485E-03
            2207     3.26316E-03     15.9926E-03    -96.3384E+06    -180.920E+06    -66.7560E+06     847.780E+03    -99.5957E-03     197.824E-03    -98.2283E-03     11.8298E-03    -99.7264E-03     197.164E-03    -98.1601E-03     11.5942E-03
            2208     2.44823E-03     15.9728E-03    -103.245E+06    -199.147E+06    -84.0953E+06     913.043E+03    -98.6067E-03     196.440E-03    -97.8330E-03     8.82945E-03    -98.7168E-03     195.720E-03    -97.8150E-03     8.66044E-03
            2209     1.63253E-03     15.9584E-03    -108.741E+06    -215.882E+06    -99.1925E+06     588.538E+03    -97.8739E-03     195.414E-03    -97.5402E-03     5.94050E-03    -97.9630E-03     194.638E-03    -97.5655E-03     5.82857E-03
            2210     816.332E-06     15.9495E-03    -112.491E+06    -228.004E+06    -109.702E+06     366.480E+03    -97.4536E-03     194.803E-03    -97.3496E-03     3.20264E-03    -97.5272E-03     193.986E-03    -97.4044E-03     3.14339E-03
            2211     15.3912E-03     15.5105E-03    -5.22319E+06     106.202E+06     91.1206E+06    -298.391E+03    -108.533E-03     214.105E-03    -105.572E-03     25.9737E-03    -108.940E-03     214.606E-03    -105.263E-03     24.7581E-03
            2212     14.5843E-03     15.4723E-03    -10.1017E+06     102.888E+06     76.8792E+06    -350.963E+03    -109.530E-03     214.825E-03    -105.295E-03     35.4751E-03    -109.979E-03     215.380E-03    -105.045E-03     34.0394E-03
            2213     13.7778E-03     15.4268E-03    -14.3868E+06     94.7756E+06     67.6779E+06    -32.3821E+03    -110.581E-03     215.551E-03    -104.969E-03     40.3010E-03    -111.030E-03     216.089E-03    -104.747E-03     38.9230E-03
            2214     12.9725E-03     15.3740E-03    -19.5211E+06     70.4814E+06     61.2819E+06    -407.025E+03    -111.526E-03     216.115E-03    -104.589E-03     42.8681E-03    -111.954E-03     216.546E-03    -104.357E-03     41.5446E-03
            2215     12.1674E-03     15.3178E-03    -24.8446E+06     35.3617E+06     51.2096E+06    -512.069E+03    -112.151E-03     216.258E-03    -104.107E-03     42.8800E-03    -112.530E-03     216.525E-03    -103.866E-03     41.6357E-03
            2216     11.3631E-03     15.2603E-03    -29.6670E+06     7.23082E+06     43.6836E+06    -387.834E+03    -112.333E-03     215.861E-03    -103.528E-03     41.3752E-03    -112.669E-03     215.991E-03    -103.277E-03     40.2314E-03
            2217     10.5586E-03     15.2032E-03    -34.6965E+06    -17.5801E+06     35.2778E+06    -412.241E+03    -112.049E-03     214.902E-03    -102.853E-03     38.7362E-03    -112.346E-03     214.911E-03    -102.601E-03     37.6976E-03
            2218     9.75368E-03     15.1479E-03    -40.1236E+06    -39.9302E+06     27.2452E+06    -116.372E+03    -111.307E-03     213.411E-03    -102.104E-03     35.3545E-03    -111.571E-03     213.311E-03    -101.852E-03     34.4251E-03
            2219     8.94811E-03     15.0953E-03    -45.8441E+06    -58.1596E+06     19.1753E+06     82.8500E+03    -110.164E-03     211.457E-03    -101.293E-03     31.6193E-03    -110.403E-03     211.271E-03    -101.046E-03     30.7951E-03
            2220     8.14147E-03     15.0463E-03    -52.0250E+06    -75.8026E+06     10.4958E+06     242.291E+03    -108.697E-03     209.139E-03    -100.442E-03     27.7730E-03    -108.915E-03     208.873E-03    -100.204E-03     27.0492E-03
            2221     7.33375E-03     15.0008E-03    -58.7120E+06    -92.9947E+06     946.885E+03     459.270E+03    -106.951E-03     206.524E-03    -99.5721E-03     23.9807E-03    -107.153E-03     206.184E-03    -99.3474E-03     23.3536E-03
            2222     6.52433E-03     14.9597E-03    -65.6653E+06    -109.837E+06    -9.51826E+06     612.913E+03    -105.023E-03     203.732E-03    -98.7085E-03     20.3851E-03    -105.209E-03     203.323E-03    -98.5017E-03     19.8488E-03
            2223     5.71354E-03     14.9229E-03    -72.9145E+06    -126.282E+06    -21.2279E+06     777.531E+03    -103.017E-03     200.892E-03    -97.8745E-03     17.0296E-03    -103.191E-03     200.420E-03    -97.6918E-03     16.5790E-03
            2224     4.90099E-03     14.8908E-03    -80.3282E+06    -143.902E+06    -34.6347E+06     961.247E+03    -101.028E-03     198.124E-03    -97.0957E-03     13.9639E-03    -101.187E-03     197.587E-03    -96.9438E-03     13.5945E-03
            2225     4.08688E-03     14.8632E-03    -87.9591E+06    -162.242E+06    -49.8467E+06     1.04148E+06    -99.1949E-03     195.588E-03    -96.3934E-03     11.1844E-03    -99.3383E-03     194.988E-03    -96.2799E-03     10.8900E-03
            2226     3.27138E-03     14.8404E-03    -95.7510E+06    -180.550E+06    -66.5409E+06     1.01086E+06    -97.6103E-03     193.393E-03    -95.7832E-03     8.65564E-03    -97.7377E-03     192.733E-03    -95.7153E-03     8.42957E-03
            2227     2.45463E-03     14.8223E-03    -102.782E+06    -198.306E+06    -83.4972E+06     1.04336E+06    -96.3267E-03     191.606E-03    -95.2793E-03     6.33837E-03    -96.4360E-03     190.888E-03    -95.2602E-03     6.17654E-03
            2228     1.63698E-03     14.8094E-03    -108.478E+06    -214.731E+06    -98.9206E+06     851.568E+03    -95.3842E-03     190.279E-03    -94.8943E-03     4.18306E-03    -95.4738E-03     189.507E-03    -94.9203E-03     4.07832E-03
            2229     818.743E-06     14.8012E-03    -112.421E+06    -227.078E+06    -110.086E+06     406.282E+03    -94.7799E-03     189.423E-03    -94.6430E-03     2.30098E-03    -94.8540E-03     188.611E-03    -94.7012E-03     2.24536E-03
            2230     15.3923E-03     14.3340E-03    -4.85184E+06     106.719E+06     91.4985E+06    -26.6557E+03    -110.227E-03     215.718E-03    -105.492E-03     26.1926E-03    -110.635E-03     216.223E-03    -105.182E-03     24.9489E-03
            2231     14.5868E-03     14.2962E-03    -10.0043E+06     103.208E+06     76.6710E+06    -341.615E+03    -111.513E-03     216.619E-03    -105.105E-03     35.2343E-03    -111.964E-03     217.178E-03    -104.857E-03     33.7613E-03
            2232     13.7823E-03     14.2494E-03    -14.8316E+06     94.4599E+06     66.9652E+06    -867.399E+03    -112.731E-03     217.377E-03    -104.646E-03     39.3990E-03    -113.182E-03     217.916E-03    -104.427E-03     37.9755E-03
            2233     12.9785E-03     14.1963E-03    -18.8133E+06     70.9603E+06     61.7982E+06    -617.242E+03    -113.679E-03     217.793E-03    -104.113E-03     41.1851E-03    -114.104E-03     218.224E-03    -103.880E-03     39.8304E-03
            2234     12.1757E-03     14.1405E-03    -23.2707E+06     35.7132E+06      51.767E+06    -394.286E+03    -114.201E-03     217.656E-03    -103.455E-03     40.5150E-03    -114.570E-03     217.919E-03    -103.214E-03     39.2546E-03
            2235     11.3726E-03     14.0838E-03    -28.3980E+06     7.14993E+06     43.7111E+06    -409.923E+03    -114.172E-03     216.858E-03    -102.686E-03     38.3185E-03    -114.497E-03     216.982E-03    -102.437E-03     37.1642E-03
            2236     10.5696E-03     14.0283E-03    -33.8890E+06    -17.5613E+06     35.1244E+06    -5.73567E+03    -113.597E-03     215.408E-03    -101.811E-03     35.0138E-03    -113.884E-03     215.411E-03    -101.561E-03     33.9729E-03
            2237     9.76604E-03     13.9750E-03    -39.7119E+06    -39.8400E+06     26.9768E+06     143.265E+03    -112.482E-03     213.337E-03    -100.855E-03     31.1346E-03    -112.738E-03     213.233E-03    -100.605E-03     30.2038E-03
            2238     8.96130E-03     13.9253E-03    -45.7725E+06    -58.0122E+06     18.8126E+06     312.229E+03    -110.928E-03     210.762E-03    -99.8346E-03     27.0692E-03    -111.161E-03     210.573E-03    -99.5900E-03     26.2446E-03
            2239     8.15535E-03     13.8790E-03    -51.9313E+06    -75.7700E+06     10.1241E+06     542.483E+03    -109.020E-03     207.796E-03    -98.7758E-03     23.0370E-03    -109.233E-03     207.527E-03    -98.5400E-03     22.3136E-03
            2240     7.34764E-03     13.8372E-03    -58.2094E+06    -92.7490E+06     792.964E+03     678.563E+03    -106.802E-03     204.506E-03    -97.7039E-03     19.2377E-03    -106.998E-03     204.164E-03    -97.4811E-03     18.6095E-03
            2241     6.53820E-03     13.7997E-03    -65.1288E+06    -109.622E+06    -9.70055E+06     788.511E+03    -104.394E-03     201.042E-03    -96.6481E-03     15.8137E-03    -104.575E-03     200.632E-03    -96.4433E-03     15.2755E-03
            2242     5.72660E-03     13.7665E-03    -72.4038E+06    -126.089E+06    -21.4123E+06     959.827E+03    -101.947E-03     197.582E-03    -95.6347E-03     12.7622E-03    -102.117E-03     197.109E-03    -95.4540E-03     12.3088E-03
            2243     4.91314E-03     13.7380E-03    -79.9949E+06    -143.511E+06    -34.6974E+06     1.11448E+06    -99.5774E-03     194.265E-03    -94.6874E-03     10.1054E-03    -99.7342E-03     193.729E-03    -94.5368E-03     9.73139E-03
            2244     4.09770E-03     13.7136E-03    -87.8512E+06    -161.733E+06    -49.7493E+06     1.28166E+06    -97.3553E-03     191.184E-03    -93.8285E-03     7.83289E-03    -97.4983E-03     190.585E-03    -93.7154E-03     7.53431E-03
            2245     3.28049E-03     13.6936E-03    -95.2516E+06    -179.819E+06    -66.1288E+06     1.29106E+06    -95.4015E-03     188.482E-03    -93.0803E-03     5.89246E-03    -95.5278E-03     187.823E-03    -93.0121E-03     5.66282E-03
            2246     2.46181E-03     13.6779E-03    -101.975E+06    -197.524E+06    -82.7397E+06     1.01958E+06    -93.8078E-03     186.270E-03    -92.4627E-03     4.20562E-03    -93.9152E-03     185.554E-03    -92.4421E-03     4.03678E-03
            2247     1.64193E-03     13.6666E-03    -107.596E+06    -213.565E+06    -97.6504E+06     809.022E+03    -92.6143E-03     184.608E-03    -91.9941E-03     2.73409E-03    -92.7030E-03     183.840E-03    -92.0167E-03     2.62365E-03
            2248     821.154E-06     13.6597E-03    -111.053E+06    -225.784E+06    -108.437E+06     666.349E+03    -91.8267E-03     183.553E-03    -91.7261E-03     1.48609E-03    -91.8982E-03     182.743E-03    -91.7799E-03     1.43022E-03
            2249     15.3940E-03     13.1567E-03    -5.21193E+06     106.772E+06     91.4445E+06    -106.306E+03    -112.332E-03     217.716E-03    -105.385E-03     26.4940E-03    -112.745E-03     218.225E-03    -105.075E-03     25.2086E-03
            2250     14.5901E-03     13.1168E-03    -9.66837E+06     103.922E+06     77.0656E+06    -353.997E+03    -113.863E-03     218.732E-03    -104.869E-03     35.1167E-03    -114.317E-03     219.297E-03    -104.621E-03     33.5975E-03
            2251     13.7878E-03     13.0698E-03    -14.4919E+06     95.0786E+06     67.2608E+06    -761.902E+03    -115.194E-03     219.448E-03    -104.254E-03     38.6181E-03    -115.646E-03     219.992E-03    -104.035E-03     37.1511E-03
            2252     12.9862E-03     13.0166E-03    -19.8638E+06     70.9842E+06     60.6784E+06    -1.33536E+06    -116.064E-03     219.604E-03    -103.540E-03     39.6911E-03    -116.492E-03     220.038E-03    -103.311E-03     38.2947E-03
            2253     12.1848E-03     12.9613E-03    -24.4533E+06     35.3696E+06     50.3381E+06    -962.623E+03    -116.448E-03     219.135E-03    -102.687E-03     38.1194E-03    -116.818E-03     219.398E-03    -102.451E-03     36.8249E-03
            2254     11.3839E-03     12.9061E-03    -29.2435E+06     6.61393E+06     42.7547E+06        -274.929    -116.127E-03     217.839E-03    -101.712E-03     35.1083E-03    -116.452E-03     217.960E-03    -101.466E-03     33.9348E-03
            2255     10.5824E-03     12.8526E-03    -34.7748E+06    -17.4068E+06     34.3572E+06     386.609E+03    -115.120E-03     215.744E-03    -100.624E-03     31.2192E-03    -115.409E-03     215.748E-03    -100.377E-03     30.1621E-03
            2256     9.77985E-03     12.8025E-03    -40.2593E+06    -39.5695E+06     26.3615E+06     547.711E+03    -113.566E-03     213.021E-03    -99.4556E-03     26.9751E-03    -113.822E-03     212.918E-03    -99.2081E-03     26.0286E-03
            2257     8.97605E-03     12.7559E-03    -45.9291E+06    -57.7904E+06     18.3384E+06     586.799E+03    -111.520E-03     209.747E-03    -98.2274E-03     22.7488E-03    -111.752E-03     209.559E-03    -97.9853E-03     21.9071E-03
            2258     8.17037E-03     12.7137E-03    -51.9434E+06    -75.6027E+06     9.72258E+06     673.812E+03    -109.059E-03     206.031E-03    -96.9722E-03     18.7261E-03    -109.271E-03     205.763E-03    -96.7387E-03     17.9838E-03
            2259     7.36267E-03     12.6760E-03    -58.4324E+06    -92.5099E+06     343.582E+03     821.499E+03    -106.342E-03     202.062E-03    -95.7196E-03     15.1346E-03    -106.538E-03     201.721E-03    -95.4991E-03     14.4871E-03
            2260     6.55261E-03     12.6429E-03    -65.0727E+06    -109.230E+06    -9.97548E+06     965.150E+03    -103.499E-03     197.997E-03    -94.4981E-03     12.0201E-03    -103.680E-03     197.588E-03    -94.2952E-03     11.4620E-03
            2261     5.74025E-03     12.6142E-03    -72.0503E+06    -125.881E+06    -21.4071E+06     1.11155E+06    -100.642E-03     193.977E-03    -93.3346E-03     9.38808E-03    -100.810E-03     193.505E-03    -93.1546E-03     8.91441E-03
            2262     4.92550E-03     12.5896E-03    -79.4452E+06    -143.066E+06    -34.2962E+06     1.25147E+06    -97.9125E-03     190.165E-03    -92.2524E-03     7.19055E-03    -98.0681E-03     189.630E-03    -92.1013E-03     6.79612E-03
            2263     4.10862E-03     12.5693E-03    -86.9449E+06    -161.161E+06    -48.8076E+06     1.24621E+06    -95.3868E-03     186.659E-03    -91.2725E-03     5.40857E-03    -95.5278E-03     186.061E-03    -91.1568E-03     5.08835E-03
            2264     3.28964E-03     12.5526E-03    -94.2587E+06    -179.049E+06    -64.8136E+06     1.19826E+06    -93.1392E-03     183.556E-03    -90.4169E-03     3.98139E-03    -93.2638E-03     182.898E-03    -90.3446E-03     3.73234E-03
            2265     2.46892E-03     12.5397E-03    -100.921E+06    -196.387E+06    -81.4247E+06     948.272E+03    -91.2757E-03     180.988E-03    -89.7124E-03     2.78844E-03    -91.3815E-03     180.274E-03    -89.6884E-03     2.60428E-03
            2266     1.64674E-03     12.5306E-03    -106.474E+06    -212.669E+06    -96.6072E+06     541.788E+03    -89.8988E-03     179.082E-03    -89.1832E-03     1.78997E-03    -89.9848E-03     178.315E-03    -89.2034E-03     1.66565E-03
            2267     823.660E-06     12.5249E-03    -110.132E+06    -224.651E+06    -107.351E+06     213.326E+03    -89.0569E-03     177.884E-03    -88.8270E-03     912.755E-06    -89.1269E-03     177.077E-03    -88.8783E-03     844.307E-06
            2268     15.3958E-03     11.9760E-03    -4.98142E+06     107.169E+06     92.2806E+06    -262.731E+03    -114.824E-03     220.082E-03    -105.258E-03     27.0560E-03    -115.243E-03     220.596E-03    -104.945E-03     25.7211E-03
            2269     14.5945E-03     11.9354E-03    -10.0694E+06     104.051E+06     76.8780E+06    -486.209E+03    -116.454E-03     221.045E-03    -104.592E-03     35.2855E-03    -116.914E-03     221.617E-03    -104.344E-03     33.7115E-03
            2270     13.7938E-03     11.8876E-03    -14.6271E+06     95.4157E+06     66.5296E+06    -628.615E+03    -117.860E-03     221.663E-03    -103.803E-03     37.9356E-03    -118.316E-03     222.213E-03    -103.588E-03     36.4148E-03
            2271     12.9943E-03     11.8347E-03    -19.4240E+06     71.7361E+06     60.5128E+06    -610.459E+03    -118.704E-03     221.601E-03    -102.897E-03     38.0000E-03    -119.133E-03     222.040E-03    -102.670E-03     36.5602E-03
            2272     12.1955E-03     11.7803E-03    -25.4388E+06     34.7305E+06     49.3281E+06    -454.848E+03    -118.760E-03     220.595E-03    -101.835E-03     35.6021E-03    -119.133E-03     220.858E-03    -101.602E-03     34.2687E-03
            2273     11.3962E-03     11.7271E-03    -31.1433E+06     6.07270E+06     41.3648E+06    -19.8858E+03    -117.986E-03     218.634E-03    -100.648E-03     31.9726E-03    -118.317E-03     218.757E-03    -100.405E-03     30.7581E-03
            2274     10.5961E-03     11.6768E-03    -35.9225E+06    -17.0635E+06     33.4861E+06     245.361E+03    -116.486E-03     215.838E-03    -99.3515E-03     27.6675E-03    -116.780E-03     215.847E-03    -99.1073E-03     26.5689E-03
            2275     9.79464E-03     11.6301E-03    -40.8571E+06    -39.3951E+06     25.6653E+06     298.528E+03    -114.357E-03     212.342E-03    -97.9851E-03     23.1953E-03    -114.616E-03     212.242E-03    -97.7404E-03     22.2056E-03
            2276     8.99123E-03     11.5880E-03    -46.1157E+06    -57.5848E+06     17.9416E+06     507.103E+03    -111.671E-03     208.251E-03    -96.5798E-03     18.9805E-03    -111.905E-03     208.065E-03    -96.3397E-03     18.0983E-03
            2277     8.18557E-03     11.5505E-03    -51.9404E+06    -75.3867E+06     9.53554E+06     677.519E+03    -108.636E-03     203.810E-03    -95.1738E-03     15.2654E-03    -108.849E-03     203.544E-03    -94.9415E-03     14.4851E-03
            2278     7.37727E-03     11.5179E-03    -57.9346E+06    -92.1075E+06     537.472E+03     733.749E+03    -105.441E-03     199.237E-03    -93.7968E-03     12.1138E-03    -105.636E-03     198.899E-03    -93.5766E-03     11.4286E-03
            2279     6.56639E-03     11.4898E-03    -64.4204E+06    -109.046E+06    -9.38555E+06     832.044E+03    -102.216E-03     194.692E-03    -92.4758E-03     9.50488E-03    -102.397E-03     194.285E-03    -92.2712E-03     8.90989E-03
            2280     5.75284E-03     11.4660E-03    -71.4314E+06    -125.564E+06    -20.4476E+06     1.01420E+06    -99.0577E-03     190.291E-03    -91.2333E-03     7.42680E-03    -99.2263E-03     189.820E-03    -91.0499E-03     6.91942E-03
            2281     4.93671E-03     11.4461E-03    -78.5016E+06    -142.587E+06    -32.9511E+06     1.02398E+06    -96.0664E-03     186.159E-03    -90.0925E-03     5.78409E-03    -96.2214E-03     185.625E-03    -89.9367E-03     5.35869E-03
            2282     4.11810E-03     11.4299E-03    -85.6982E+06    -160.558E+06    -47.1203E+06     968.449E+03    -93.3739E-03     182.446E-03    -89.0725E-03     4.48155E-03    -93.5132E-03     181.848E-03    -88.9510E-03     4.13377E-03
            2283     3.29744E-03     11.4171E-03    -92.9117E+06    -178.256E+06    -62.7965E+06     768.704E+03    -91.0258E-03     179.215E-03    -88.1888E-03     3.42541E-03    -91.1486E-03     178.557E-03    -88.1095E-03     3.15070E-03
            2284     2.47480E-03     11.4074E-03    -99.6411E+06    -195.460E+06    -79.3749E+06     522.431E+03    -89.0915E-03     176.553E-03    -87.4619E-03     2.49349E-03    -89.1957E-03     175.840E-03    -87.4309E-03     2.28849E-03
            2285     1.65074E-03     11.4005E-03    -105.438E+06    -211.943E+06    -95.0185E+06     335.521E+03    -87.6698E-03     174.581E-03    -86.9111E-03     1.64391E-03    -87.7541E-03     173.814E-03    -86.9260E-03     1.50665E-03
            2286     825.652E-06     11.3962E-03    -109.412E+06    -224.076E+06    -106.472E+06     94.9818E+03    -86.7999E-03     173.315E-03    -86.5153E-03     869.372E-06    -86.8684E-03     172.509E-03    -86.5641E-03     793.648E-06
            2287     15.3982E-03     10.7925E-03    -5.80499E+06     107.498E+06     92.0037E+06     226.038E+03    -117.537E-03     222.649E-03    -105.112E-03     27.7349E-03    -117.966E-03     223.173E-03    -104.800E-03     26.3376E-03
            2288     14.5985E-03     10.7510E-03    -10.4143E+06     104.977E+06     77.0650E+06    -344.556E+03    -119.323E-03     223.608E-03    -104.285E-03     35.3737E-03    -119.794E-03     224.191E-03    -104.037E-03     33.7238E-03
            2289     13.8007E-03     10.7026E-03    -15.1911E+06     95.4497E+06     66.1683E+06    -868.703E+03    -120.694E-03     224.005E-03    -103.311E-03     37.2135E-03    -121.158E-03     224.562E-03    -103.096E-03     35.6191E-03
            2290     13.0037E-03     10.6500E-03    -20.8850E+06     70.7171E+06     59.2359E+06    -15.1394E+03    -121.290E-03     223.494E-03    -102.204E-03     36.3552E-03    -121.727E-03     223.936E-03    -101.980E-03     34.8560E-03
            2291     12.2065E-03     10.5977E-03    -26.0989E+06     35.4196E+06     48.9018E+06     753.013E+03    -120.924E-03     221.862E-03    -100.938E-03     33.1995E-03    -121.304E-03     222.134E-03    -100.707E-03     31.8208E-03
            2292     11.4089E-03     10.5474E-03    -31.1641E+06     7.08217E+06     41.1022E+06    -47.2246E+03    -119.584E-03     219.136E-03    -99.5519E-03     28.9798E-03    -119.920E-03     219.268E-03    -99.3115E-03     27.7057E-03
            2293     10.6100E-03     10.5007E-03    -35.9599E+06    -17.1163E+06     33.1026E+06    -515.936E+03    -117.417E-03     215.492E-03    -98.0751E-03     24.4114E-03    -117.713E-03     215.504E-03    -97.8327E-03     23.2440E-03
            2294     9.80908E-03     10.4588E-03    -40.7135E+06    -39.3021E+06     25.6991E+06    -179.040E+03    -114.529E-03     211.088E-03    -96.5588E-03     20.0350E-03    -114.791E-03     210.992E-03    -96.3142E-03     18.9826E-03
            2295     9.00566E-03     10.4219E-03    -46.0994E+06    -57.6048E+06     18.1064E+06     80.3586E+03    -111.153E-03     206.195E-03    -95.0422E-03     16.2381E-03    -111.391E-03     206.013E-03    -94.8013E-03     15.2977E-03
            2296     8.19925E-03     10.3901E-03    -51.5390E+06    -75.0461E+06     10.2837E+06     251.798E+03    -107.572E-03     201.138E-03    -93.5662E-03     13.1238E-03    -107.789E-03     200.876E-03    -93.3312E-03     12.2903E-03
            2297     7.39000E-03     10.3630E-03    -57.4947E+06    -91.7915E+06     1.76768E+06     248.921E+03    -103.956E-03     196.114E-03    -92.1587E-03     10.6647E-03    -104.155E-03     195.779E-03    -91.9334E-03     9.93099E-03
            2298     6.57771E-03     10.3405E-03    -63.8245E+06    -108.891E+06    -7.78593E+06     292.279E+03    -100.442E-03     191.285E-03    -90.8435E-03     8.79790E-03    -100.626E-03     190.879E-03    -90.6319E-03     8.16058E-03
            2299     5.76258E-03     10.3219E-03    -70.0912E+06    -125.237E+06    -18.2043E+06     222.404E+03    -97.1447E-03     186.783E-03    -89.6388E-03     7.39522E-03    -97.3135E-03     186.312E-03    -89.4466E-03     6.84910E-03
            2300     4.94476E-03     10.3070E-03    -76.7454E+06    -142.178E+06    -30.0526E+06     148.120E+03    -94.1496E-03     182.710E-03    -88.5600E-03     6.29538E-03    -94.3031E-03     182.173E-03    -88.3928E-03     5.83666E-03
            2301     4.12456E-03     10.2950E-03    -83.6804E+06    -160.147E+06    -43.7207E+06     29.4380E+03    -91.5187E-03     179.137E-03    -87.6184E-03     5.34824E-03    -91.6552E-03     178.535E-03    -87.4835E-03     4.97257E-03
            2302     3.30219E-03     10.2859E-03    -90.5151E+06    -177.612E+06    -59.2197E+06    -178.415E+03    -89.3244E-03     176.144E-03    -86.8199E-03     4.43106E-03    -89.4425E-03     175.482E-03    -86.7272E-03     4.13317E-03
            2303     2.47826E-03     10.2792E-03    -97.1030E+06    -195.415E+06    -75.8783E+06    -252.549E+03    -87.5963E-03     173.768E-03    -86.1717E-03     3.49651E-03    -87.6936E-03     173.047E-03    -86.1270E-03     3.27497E-03
            2304     1.65296E-03     10.2746E-03    -102.858E+06    -211.913E+06    -91.6582E+06     97.4688E+03    -86.3279E-03     172.013E-03    -85.6847E-03     2.46677E-03    -86.4044E-03     171.238E-03    -85.6866E-03     2.32331E-03
            2305     826.755E-06     10.2719E-03    -107.067E+06    -223.586E+06    -103.701E+06     274.401E+03    -85.5605E-03     170.914E-03    -85.3535E-03     1.35128E-03    -85.6220E-03     170.103E-03    -85.3925E-03     1.27654E-03
            2306     15.4003E-03     9.60576E-03    -4.76816E+06     107.826E+06     92.0495E+06     140.286E+03    -120.457E-03     225.419E-03    -104.962E-03     28.8514E-03    -120.889E-03     225.950E-03    -104.652E-03     27.3841E-03
            2307     14.6037E-03     9.56334E-03    -10.2341E+06     105.816E+06     77.4659E+06     269.808E+03    -122.345E-03     226.312E-03    -103.967E-03     35.8826E-03    -122.827E-03     226.908E-03    -103.718E-03     34.1573E-03
            2308     13.8080E-03     9.51457E-03    -16.2259E+06     94.7236E+06     65.5680E+06     1.08912E+06    -123.565E-03     226.368E-03    -102.803E-03     36.7890E-03    -124.041E-03     226.932E-03    -102.589E-03     35.1415E-03
            2309     13.0127E-03     9.46353E-03    -22.2573E+06     70.4355E+06     58.3241E+06     876.115E+03    -123.741E-03     225.238E-03    -101.498E-03     34.7363E-03    -124.189E-03     225.689E-03    -101.276E-03     33.1712E-03
            2310     12.2177E-03     9.41333E-03    -26.8047E+06     36.8905E+06     49.0925E+06    -207.800E+03    -122.751E-03     222.797E-03    -100.045E-03     30.6492E-03    -123.143E-03     223.083E-03    -99.8146E-03     29.1780E-03
            2311     11.4214E-03     9.36712E-03    -30.3055E+06     8.46836E+06     42.0095E+06    -833.033E+03    -120.593E-03     219.090E-03    -98.4967E-03     26.0598E-03    -120.934E-03     219.232E-03    -98.2550E-03     24.6974E-03
            2312     10.6230E-03     9.32524E-03    -34.7657E+06    -17.0656E+06     34.1402E+06    -927.002E+03    -117.452E-03     214.354E-03    -96.9022E-03     21.6569E-03    -117.750E-03     214.369E-03    -96.6563E-03     20.4133E-03
            2313     9.82186E-03     9.28924E-03    -40.0785E+06    -39.6204E+06     26.8404E+06    -693.835E+03    -113.704E-03     209.029E-03    -95.3251E-03     17.9118E-03    -113.970E-03     208.935E-03    -95.0753E-03     16.7912E-03
            2314     9.01742E-03     9.25851E-03    -45.2128E+06    -57.3484E+06     19.8963E+06    -550.845E+03    -109.710E-03     203.515E-03    -93.8045E-03     15.0115E-03    -109.953E-03     203.337E-03    -93.5563E-03     14.0115E-03
            2315     8.20982E-03     9.23294E-03    -50.7627E+06    -74.9058E+06     12.4147E+06    -652.257E+03    -105.687E-03     198.064E-03    -92.3772E-03     12.8787E-03    -105.909E-03     197.805E-03    -92.1329E-03     11.9928E-03
            2316     7.39873E-03     9.21196E-03    -56.4417E+06    -91.4444E+06     4.48595E+06    -727.163E+03    -101.816E-03     192.884E-03    -91.0679E-03     11.3786E-03    -102.020E-03     192.551E-03    -90.8311E-03     10.6029E-03
            2317     6.58458E-03     9.19504E-03    -61.9822E+06    -108.456E+06    -4.22823E+06    -1.19160E+06    -98.2596E-03     188.154E-03    -89.8941E-03     10.3067E-03    -98.4448E-03     187.746E-03    -89.6681E-03     9.63095E-03
            2318     5.76751E-03     9.18166E-03    -67.9159E+06    -125.079E+06    -13.9445E+06    -1.56162E+06    -95.1026E-03     183.965E-03    -88.8629E-03     9.46215E-03    -95.2706E-03     183.489E-03    -88.6528E-03     8.88240E-03
            2319     4.94797E-03     9.17116E-03    -74.0191E+06    -141.998E+06    -25.1277E+06    -1.84730E+06    -92.3965E-03     180.373E-03    -87.9762E-03     8.67554E-03    -92.5466E-03     179.829E-03    -87.7886E-03     8.18742E-03
            2320     4.12633E-03     9.16323E-03    -80.2393E+06    -160.309E+06    -38.6091E+06    -1.99124E+06    -90.1591E-03     177.390E-03    -87.2307E-03     7.80326E-03    -90.2875E-03     176.776E-03    -87.0749E-03     7.40304E-03
            2321     3.30301E-03     9.15728E-03    -86.8667E+06    -178.227E+06    -54.8425E+06    -1.68778E+06    -88.3863E-03     175.005E-03    -86.6190E-03     6.72818E-03    -88.4929E-03     174.330E-03    -86.5088E-03     6.41586E-03
            2322     2.47827E-03     9.15300E-03    -93.6263E+06    -196.657E+06    -72.6227E+06    -796.532E+03    -87.0807E-03     173.221E-03    -86.1408E-03     5.40021E-03    -87.1642E-03     172.485E-03    -86.0830E-03     5.17744E-03
            2323     1.65266E-03     9.15022E-03    -99.7269E+06    -212.617E+06    -89.1376E+06     139.106E+03    -86.1932E-03     171.987E-03    -85.7941E-03     3.82470E-03    -86.2570E-03     171.201E-03    -85.7869E-03     3.68637E-03
            2324     826.412E-06     9.14858E-03    -104.040E+06    -222.818E+06    -101.076E+06     520.133E+03    -85.6843E-03     171.258E-03    -85.5736E-03     2.16142E-03    -85.7357E-03     170.442E-03    -85.6050E-03     2.09363E-03
            2325     15.4025E-03     8.41581E-03    -4.02903E+06     108.344E+06     92.7789E+06    -313.494E+03    -123.466E-03     228.286E-03    -104.820E-03     29.8842E-03    -123.905E-03     228.826E-03    -104.508E-03     28.3345E-03
            2326     14.6078E-03     8.37211E-03    -9.20460E+06     103.435E+06     77.9704E+06     772.696E+03    -125.429E-03     229.083E-03    -103.654E-03     36.0998E-03    -125.915E-03     229.677E-03    -103.401E-03     34.2825E-03
            2327     13.8146E-03     8.32401E-03    -13.5916E+06     93.8090E+06     67.5398E+06     2.15011E+06    -126.401E-03     228.704E-03    -102.303E-03     35.6500E-03    -126.874E-03     229.266E-03    -102.081E-03     33.9152E-03
            2328     13.0222E-03     8.27423E-03    -16.8749E+06     73.9911E+06     62.7278E+06     1.20474E+06    -125.841E-03     226.657E-03    -100.817E-03     32.4560E-03    -126.282E-03     227.120E-03    -100.586E-03     30.7940E-03
            2329     12.2284E-03     8.22838E-03    -21.3732E+06     38.6449E+06     52.8311E+06    -439.443E+03    -123.753E-03     222.970E-03    -99.2167E-03     27.9495E-03    -124.134E-03     223.260E-03    -98.9776E-03     26.3809E-03
            2330     11.4326E-03     8.18678E-03    -27.0888E+06     8.69289E+06     44.8038E+06    -959.083E+03    -120.343E-03     217.927E-03    -97.5845E-03     23.6261E-03    -120.680E-03     218.070E-03    -97.3338E-03     22.1823E-03
            2331     10.6337E-03     8.15186E-03    -33.0246E+06    -16.9583E+06     36.8165E+06    -707.560E+03    -116.125E-03     212.109E-03    -95.9841E-03     20.1273E-03    -116.426E-03     212.127E-03    -95.7275E-03     18.8251E-03
            2332     9.83105E-03     8.12240E-03    -38.5496E+06    -39.2525E+06     29.8428E+06    -873.549E+03    -111.622E-03     206.098E-03    -94.4761E-03     17.6170E-03    -111.894E-03     206.008E-03    -94.2141E-03     16.4515E-03
            2333     9.02479E-03     8.09857E-03    -44.0263E+06    -56.8198E+06     23.3408E+06    -1.49536E+06    -107.158E-03     200.251E-03    -93.0937E-03     15.9923E-03    -107.408E-03     200.077E-03    -92.8307E-03     14.9544E-03
            2334     8.21468E-03     8.07945E-03    -49.0706E+06    -74.3500E+06     16.5764E+06    -2.19138E+06    -102.986E-03     194.849E-03    -91.8625E-03     15.0264E-03    -103.214E-03     194.590E-03    -91.6007E-03     14.1102E-03
            2335     7.40136E-03     8.06451E-03    -53.8333E+06    -90.7944E+06     9.65911E+06    -3.15813E+06    -99.2591E-03     190.052E-03    -90.7928E-03     14.4078E-03    -99.4644E-03     189.716E-03    -90.5349E-03     13.6028E-03
            2336     6.58495E-03     8.05285E-03    -58.8974E+06    -108.137E+06     1.81141E+06    -3.83312E+06    -96.0597E-03     185.945E-03    -89.8857E-03     13.8512E-03    -96.2429E-03     185.531E-03    -89.6345E-03     13.1527E-03
            2337     5.76618E-03     8.04396E-03    -64.1660E+06    -124.996E+06    -7.64241E+06    -4.54791E+06    -93.4081E-03     182.538E-03    -89.1303E-03     13.1791E-03    -93.5696E-03     182.051E-03    -88.8942E-03     12.5779E-03
            2338     4.94530E-03     8.03726E-03    -69.6745E+06    -142.714E+06    -19.7779E+06    -4.95556E+06    -91.3026E-03     179.815E-03    -88.5129E-03     12.2542E-03    -91.4396E-03     179.256E-03    -88.3038E-03     11.7457E-03
            2339     4.12288E-03     8.03225E-03    -75.7861E+06    -162.176E+06    -35.3247E+06    -4.38427E+06    -89.7163E-03     177.733E-03    -88.0164E-03     10.9665E-03    -89.8258E-03     177.100E-03    -87.8480E-03     10.5543E-03
            2340     3.29930E-03     8.02862E-03    -82.3460E+06    -181.106E+06    -53.0056E+06    -2.69042E+06    -88.5706E-03     176.197E-03    -87.6261E-03     9.30509E-03    -88.6538E-03     175.498E-03    -87.5092E-03     8.99580E-03
            2341     2.47501E-03     8.02603E-03    -88.9618E+06    -199.233E+06    -70.7538E+06    -528.872E+03    -87.7928E-03     175.127E-03    -87.3343E-03     7.29364E-03    -87.8524E-03     174.369E-03    -87.2702E-03     7.08617E-03
            2342     1.65021E-03     8.02425E-03    -94.7854E+06    -213.145E+06    -85.9279E+06     800.802E+03    -87.3169E-03     174.445E-03    -87.1285E-03     5.03924E-03    -87.3602E-03     173.644E-03    -87.1116E-03     4.91690E-03
            2343     825.228E-06     8.02324E-03    -98.5583E+06    -221.349E+06    -96.2858E+06     968.360E+03    -87.0356E-03     174.049E-03    -87.0131E-03     2.76959E-03    -87.0688E-03     173.226E-03    -87.0306E-03     2.71098E-03
            2344     15.4046E-03     7.22201E-03    -4.06782E+06     108.539E+06     93.2295E+06    -659.973E+03    -126.541E-03     231.207E-03    -104.666E-03     30.5158E-03    -126.992E-03     231.758E-03    -104.351E-03     28.8606E-03
            2345     14.6129E-03     7.17796E-03    -7.52087E+06     101.443E+06     80.1737E+06    -918.466E+03    -128.452E-03     231.786E-03    -103.334E-03     35.5865E-03    -128.942E-03     232.376E-03    -103.069E-03     33.6264E-03
            2346     13.8224E-03     7.12976E-03    -10.4852E+06     93.2987E+06     71.5527E+06    -594.292E+03    -128.626E-03     230.443E-03    -101.817E-03     33.9732E-03    -129.099E-03     231.003E-03    -101.579E-03     32.0900E-03
            2347     13.0308E-03     7.08421E-03    -13.9361E+06     75.2307E+06     65.9018E+06     433.710E+03    -126.733E-03     226.930E-03    -100.198E-03     30.1160E-03    -127.176E-03     227.401E-03    -99.9570E-03     28.3412E-03
            2348     12.2376E-03     7.04297E-03    -19.2521E+06     39.3950E+06     56.2780E+06     1.02823E+06    -123.032E-03     221.587E-03    -98.5550E-03     25.8576E-03    -123.418E-03     221.882E-03    -98.3028E-03     24.2291E-03
            2349     11.4408E-03     7.00926E-03    -25.7208E+06     9.73013E+06     48.6313E+06     860.499E+03    -118.227E-03     215.206E-03    -96.9795E-03     22.7475E-03    -118.574E-03     215.356E-03    -96.7132E-03     21.2819E-03
            2350     10.6395E-03     6.98136E-03    -31.9972E+06    -15.9688E+06     40.7860E+06    -304.942E+03    -113.154E-03     208.683E-03    -95.5288E-03     20.8522E-03    -113.466E-03     208.707E-03    -95.2553E-03     19.5391E-03
            2351     9.83434E-03     6.95960E-03    -37.2766E+06    -37.6150E+06     34.7444E+06    -1.78338E+06    -108.240E-03     202.490E-03    -94.2498E-03     19.9195E-03    -108.522E-03     202.406E-03    -93.9675E-03     18.7505E-03
            2352     9.02485E-03     6.94259E-03    -41.7834E+06    -55.3794E+06     29.1896E+06    -3.48333E+06    -103.799E-03     196.954E-03    -93.1546E-03     19.5791E-03    -104.054E-03     196.780E-03    -92.8677E-03     18.5435E-03
            2353     8.21204E-03     6.92966E-03    -45.9771E+06    -72.9883E+06     23.4283E+06    -5.30034E+06    -100.027E-03     192.272E-03    -92.2456E-03     19.3838E-03    -100.254E-03     192.010E-03    -91.9560E-03     18.4674E-03
            2354     7.39613E-03     6.91978E-03    -50.3079E+06    -90.1211E+06     16.6024E+06    -6.83146E+06    -96.9493E-03     188.456E-03    -91.5065E-03     19.0449E-03    -97.1503E-03     188.111E-03    -91.2199E-03     18.2381E-03
            2355     6.57808E-03     6.91241E-03    -54.5452E+06    -108.283E+06     7.64378E+06    -8.05133E+06    -94.5364E-03     185.452E-03    -90.9160E-03     18.3592E-03    -94.7072E-03     185.023E-03    -90.6416E-03     17.6522E-03
            2356     5.75810E-03     6.90686E-03    -58.9427E+06    -126.003E+06    -4.22488E+06    -8.47342E+06    -92.7221E-03     183.169E-03    -90.4474E-03     17.2105E-03    -92.8613E-03     182.664E-03    -90.2003E-03     16.6004E-03
            2357     4.93695E-03     6.90269E-03    -64.3238E+06    -145.735E+06    -19.6953E+06    -7.57918E+06    -91.4274E-03     181.506E-03    -90.0790E-03     15.5712E-03    -91.5335E-03     180.924E-03    -89.8729E-03     15.0629E-03
            2358     4.11492E-03     6.89956E-03    -70.6470E+06    -166.619E+06    -37.2961E+06    -5.25177E+06    -90.5440E-03     180.338E-03    -89.7935E-03     13.4904E-03    -90.6184E-03     179.678E-03    -89.6360E-03     13.0926E-03
            2359     3.29239E-03     6.89718E-03    -77.5129E+06    -186.086E+06    -54.4921E+06    -2.05329E+06    -89.9688E-03     179.547E-03    -89.5777E-03     11.0760E-03    -90.0184E-03     178.818E-03    -89.4680E-03     10.7924E-03
            2360     2.46951E-03     6.89545E-03    -84.0561E+06    -202.071E+06    -69.9941E+06     806.761E+03    -89.6053E-03     179.020E-03    -89.4150E-03     8.45841E-03    -89.6374E-03     178.239E-03    -89.3501E-03     8.27929E-03
            2361     1.64646E-03     6.89422E-03    -89.2797E+06    -212.524E+06    -82.5634E+06     1.98175E+06    -89.3723E-03     178.667E-03    -89.2951E-03     5.74994E-03    -89.3939E-03     177.857E-03    -89.2703E-03     5.64952E-03
            2362     823.225E-06     6.89347E-03    -92.6717E+06    -218.566E+06    -90.8076E+06     1.60888E+06    -89.2377E-03     178.459E-03    -89.2209E-03     3.12258E-03    -89.2535E-03     177.633E-03    -89.2237E-03     3.07536E-03
            2363     15.4075E-03     6.02495E-03    -4.60959E+06     108.795E+06     94.3706E+06    -1.23662E+06    -129.656E-03     234.159E-03    -104.503E-03     31.2395E-03    -130.122E-03     234.721E-03    -104.182E-03     29.4823E-03
            2364     14.6181E-03     5.97952E-03    -10.1269E+06     102.895E+06     80.3191E+06    -1.76493E+06    -130.646E-03     233.659E-03    -103.013E-03     35.3559E-03    -131.165E-03     234.275E-03    -102.746E-03     33.2767E-03
            2365     13.8287E-03     5.93497E-03    -15.4140E+06     91.9415E+06     69.8786E+06    -2.29127E+06    -129.348E-03     230.740E-03    -101.392E-03     32.7088E-03    -129.854E-03     231.315E-03    -101.153E-03     30.7072E-03
            2366     13.0380E-03     5.89349E-03    -20.1605E+06     71.8780E+06     64.6358E+06    -774.800E+03    -125.374E-03     225.146E-03    -99.7724E-03     28.7646E-03    -125.853E-03     225.622E-03    -99.5242E-03     26.9146E-03
            2367     12.2428E-03     5.86127E-03    -24.6830E+06     39.3542E+06     57.6117E+06     1.07126E+06    -119.902E-03     218.157E-03    -98.2552E-03     25.8822E-03    -120.327E-03     218.468E-03    -97.9884E-03     24.2450E-03
            2368     11.4426E-03     5.83530E-03    -29.1812E+06     11.8145E+06     52.3310E+06     471.648E+03    -114.154E-03     211.070E-03    -96.9166E-03     24.7032E-03    -114.532E-03     211.236E-03    -96.6297E-03     23.2681E-03
            2369     10.6380E-03     5.81581E-03    -32.8305E+06    -12.4428E+06     46.4266E+06    -1.98319E+06    -108.822E-03     204.604E-03    -95.7818E-03     24.5285E-03    -109.155E-03     204.642E-03    -95.4841E-03     23.2622E-03
            2370     9.82865E-03     5.80112E-03    -36.2733E+06    -34.9939E+06     41.2840E+06    -5.12805E+06    -104.286E-03     199.151E-03    -94.8647E-03     24.7426E-03    -104.577E-03     199.069E-03    -94.5549E-03     23.6189E-03
            2371     9.01607E-03     5.79021E-03    -39.3541E+06    -53.0284E+06     35.9555E+06    -7.89274E+06    -100.655E-03     194.794E-03    -94.1385E-03     24.8016E-03    -100.909E-03     194.616E-03    -93.8248E-03     23.8043E-03
            2372     8.20061E-03     5.78201E-03    -42.2727E+06    -71.8118E+06     28.6942E+06    -10.2080E+06    -97.8836E-03     191.459E-03    -93.5754E-03     24.3848E-03    -98.0990E-03     191.186E-03    -93.2665E-03     23.4969E-03
            2373     7.38336E-03     5.77588E-03    -45.1885E+06    -90.2166E+06     18.5224E+06    -11.7697E+06    -95.8564E-03     188.995E-03    -93.1390E-03     23.3843E-03    -96.0311E-03     188.636E-03    -92.8500E-03     22.5950E-03
            2374     6.56454E-03     5.77122E-03    -48.8690E+06    -110.095E+06     5.07017E+06    -12.0700E+06    -94.4464E-03     187.248E-03    -92.8015E-03     21.7908E-03    -94.5792E-03     186.802E-03    -92.5456E-03     21.0981E-03
            2375     5.74504E-03     5.76761E-03    -54.0553E+06    -130.186E+06    -10.8647E+06    -10.5760E+06    -93.5012E-03     186.039E-03    -92.5382E-03     19.6940E-03    -93.5977E-03     185.513E-03    -92.3254E-03     19.1073E-03
            2376     4.92491E-03     5.76480E-03    -60.4346E+06    -151.702E+06    -27.6355E+06    -7.39096E+06    -92.8851E-03     185.221E-03    -92.3356E-03     17.2133E-03    -92.9495E-03     184.612E-03    -92.1662E-03     16.7441E-03
            2377     4.10449E-03     5.76257E-03    -67.5467E+06    -173.280E+06    -43.4741E+06    -3.26406E+06    -92.4876E-03     184.669E-03    -92.1818E-03     14.5003E-03    -92.5265E-03     183.979E-03    -92.0499E-03     14.1537E-03
            2378     3.28381E-03     5.76086E-03    -74.5859E+06    -191.189E+06    -57.8614E+06     680.274E+03    -92.2294E-03     184.289E-03    -92.0592E-03     11.6633E-03    -92.2511E-03     183.534E-03    -91.9632E-03     11.4326E-03
            2379     2.46302E-03     5.75953E-03    -80.4954E+06    -203.326E+06    -70.3289E+06     2.90661E+06    -92.0512E-03     184.008E-03    -91.9568E-03     8.77858E-03    -92.0627E-03     183.215E-03    -91.8969E-03     8.63808E-03
            2380     1.64208E-03     5.75864E-03    -84.4125E+06    -210.225E+06    -79.7498E+06     3.11523E+06    -91.9197E-03     183.796E-03    -91.8767E-03     5.90853E-03    -91.9241E-03     182.986E-03    -91.8482E-03     5.82955E-03
            2381     821.083E-06     5.75811E-03    -86.7280E+06    -214.238E+06    -85.4136E+06     2.08139E+06    -91.8148E-03     183.665E-03    -91.8499E-03     3.20962E-03    -91.8149E-03     182.844E-03    -91.8405E-03     3.17229E-03
            2382     15.4106E-03     4.82414E-03    -6.39956E+06     109.111E+06     95.5570E+06    -390.326E+03    -132.153E-03     236.551E-03    -104.398E-03     32.7150E-03    -132.644E-03     237.129E-03    -104.069E-03     30.8832E-03
            2383     14.6221E-03     4.78057E-03    -12.1740E+06     105.187E+06     82.1627E+06     358.663E+03    -131.345E-03     234.163E-03    -102.818E-03     36.0536E-03    -131.897E-03     234.807E-03    -102.542E-03     33.9299E-03
            2384     13.8332E-03     4.73885E-03    -18.8007E+06     90.9867E+06     71.1022E+06    -388.487E+03    -127.374E-03     228.600E-03    -101.226E-03     32.4328E-03    -127.911E-03     229.188E-03    -100.975E-03     30.4216E-03
            2385     13.0395E-03     4.70791E-03    -26.3476E+06     70.5448E+06     65.4221E+06    -966.752E+03    -121.060E-03     220.850E-03    -99.7906E-03     30.0373E-03    -121.575E-03     221.333E-03    -99.5276E-03     28.2404E-03
            2386     12.2398E-03     4.68403E-03    -31.0561E+06     40.5758E+06     59.0741E+06    -2.49867E+06    -114.683E-03     213.267E-03    -98.5842E-03     29.3790E-03    -115.142E-03     213.590E-03    -98.3026E-03     27.8198E-03
            2387     11.4353E-03     4.66734E-03    -32.8954E+06     14.3417E+06     55.9379E+06    -4.56360E+06    -109.103E-03     206.733E-03    -97.6306E-03     29.6761E-03    -109.502E-03     206.905E-03    -97.3241E-03     28.3349E-03
            2388     10.6258E-03     4.65492E-03    -34.3556E+06    -7.93617E+06     50.2872E+06    -7.74663E+06    -104.680E-03     201.568E-03    -96.8880E-03     30.0144E-03    -105.022E-03     201.614E-03    -96.5753E-03     28.8461E-03
            2389     9.81341E-03     4.64594E-03    -35.4388E+06    -31.9229E+06     42.8470E+06    -11.4887E+06    -101.443E-03     197.773E-03    -96.3300E-03     29.7272E-03    -101.724E-03     197.691E-03    -96.0181E-03     28.6846E-03
            2390     8.99859E-03     4.63906E-03    -36.5274E+06    -51.5320E+06     33.1780E+06    -14.2771E+06    -99.1405E-03     195.045E-03    -95.9045E-03     28.7560E-03    -99.3670E-03     194.863E-03    -95.6109E-03     27.8195E-03
            2391     8.18254E-03     4.63388E-03    -38.1476E+06    -72.4452E+06     20.5120E+06    -15.7072E+06    -97.5824E-03     193.162E-03    -95.5795E-03     27.1020E-03    -97.7536E-03     192.881E-03    -95.3166E-03     26.2612E-03
            2392     7.36537E-03     4.62975E-03    -41.3505E+06    -93.4172E+06     5.82003E+06    -15.0267E+06    -96.5541E-03     191.882E-03    -95.3282E-03     24.9160E-03    -96.6774E-03     191.510E-03    -95.1037E-03     24.1776E-03
            2393     6.54790E-03     4.62647E-03    -46.6402E+06    -115.595E+06    -10.0387E+06    -12.3249E+06    -95.8930E-03     191.025E-03    -95.1323E-03     22.3681E-03    -95.9775E-03     190.563E-03    -94.9473E-03     21.7435E-03
            2394     5.72990E-03     4.62381E-03    -53.2357E+06    -137.365E+06    -25.3249E+06    -8.37700E+06    -95.4605E-03     190.439E-03    -94.9787E-03     19.6240E-03    -95.5158E-03     189.891E-03    -94.8289E-03     19.1198E-03
            2395     4.91177E-03     4.62164E-03    -60.2745E+06    -159.313E+06    -38.5111E+06    -3.87169E+06    -95.1721E-03     190.034E-03    -94.8619E-03     16.7894E-03    -95.2048E-03     189.398E-03    -94.7360E-03     16.4065E-03
            2396     4.09339E-03     4.61996E-03    -66.8857E+06    -179.757E+06    -49.5879E+06     470.051E+03    -94.9717E-03     189.741E-03    -94.7697E-03     13.9312E-03    -94.9861E-03     189.024E-03    -94.6600E-03     13.6638E-03
            2397     3.27493E-03     4.61857E-03    -72.3236E+06    -194.282E+06    -59.8268E+06     3.54350E+06    -94.8098E-03     189.494E-03    -94.6844E-03     11.0964E-03    -94.8111E-03     188.722E-03    -94.5969E-03     10.9254E-03
            2398     2.45630E-03     4.61758E-03    -76.2050E+06    -201.986E+06    -69.1000E+06     4.46174E+06    -94.6760E-03     189.281E-03    -94.6047E-03     8.31424E-03    -94.6686E-03     188.486E-03    -94.5469E-03     8.21008E-03
            2399     1.63759E-03     4.61688E-03    -78.6220E+06    -206.442E+06    -75.3887E+06     3.63799E+06    -94.5826E-03     189.128E-03    -94.5456E-03     5.58980E-03    -94.5693E-03     188.321E-03    -94.5092E-03     5.52826E-03
            2400     818.818E-06     4.61650E-03    -79.9394E+06    -208.969E+06    -79.0482E+06     2.23250E+06    -94.4803E-03     189.026E-03    -94.5458E-03     3.01479E-03    -94.4631E-03     188.212E-03    -94.5221E-03     2.98470E-03
            2401     15.4095E-03     3.62201E-03    -5.69316E+06     108.908E+06     97.1908E+06     1.13359E+06    -132.884E-03     237.403E-03    -104.519E-03     36.9200E-03    -133.394E-03     237.998E-03    -104.182E-03     35.0587E-03
            2402     14.6226E-03     3.57894E-03    -11.6596E+06     105.507E+06     83.4079E+06     1.32844E+06    -129.340E-03     232.321E-03    -102.981E-03     39.3816E-03    -129.909E-03     232.982E-03    -102.700E-03     37.2979E-03
            2403     13.8303E-03     3.54948E-03    -17.8367E+06     90.2509E+06     71.7426E+06     2.02361E+06    -122.397E-03     223.997E-03    -101.599E-03     35.8236E-03    -122.928E-03     224.578E-03    -101.346E-03     33.9959E-03
            2404     13.0306E-03     3.52806E-03    -23.9158E+06     75.7416E+06     65.8082E+06     135.811E+03    -115.222E-03     215.728E-03    -100.505E-03     34.8713E-03    -115.717E-03     216.217E-03    -100.252E-03     33.3409E-03
            2405     12.2258E-03     3.51371E-03    -29.4647E+06     46.5614E+06     56.8031E+06    -6.31425E+06    -109.628E-03     209.315E-03    -99.6873E-03     34.6149E-03    -110.059E-03     209.643E-03    -99.4280E-03     33.2914E-03
            2406     11.4162E-03     3.50372E-03    -32.1686E+06     17.1628E+06     49.2771E+06    -11.7805E+06    -105.652E-03     204.744E-03    -99.0916E-03     34.0151E-03    -106.015E-03     204.911E-03    -98.8235E-03     32.8511E-03
            2407     10.6047E-03     3.49616E-03    -32.4586E+06    -4.35133E+06     38.6476E+06    -15.3879E+06    -102.935E-03     201.563E-03    -98.6283E-03     32.6369E-03    -103.229E-03     201.615E-03    -98.3817E-03     31.6038E-03
            2408     9.79133E-03     3.49038E-03    -32.8659E+06    -30.7836E+06     25.6306E+06    -18.1849E+06    -101.113E-03     199.390E-03    -98.2773E-03     30.5941E-03    -101.334E-03     199.311E-03    -98.0569E-03     29.6589E-03
            2409     8.97721E-03     3.48582E-03    -34.5384E+06    -53.1660E+06     11.0463E+06    -18.7782E+06    -99.9017E-03     197.898E-03    -97.9966E-03     28.1349E-03    -100.064E-03     197.717E-03    -97.8142E-03     27.2964E-03
            2410     8.16225E-03     3.48205E-03    -38.4456E+06    -77.2556E+06    -3.40322E+06    -16.9314E+06    -99.0944E-03     196.873E-03    -97.7789E-03     25.4136E-03    -99.2089E-03     196.587E-03    -97.6282E-03     24.6819E-03
            2411     7.34709E-03     3.47900E-03    -44.1771E+06    -100.767E+06    -16.9036E+06    -13.0740E+06    -98.5385E-03     196.145E-03    -97.6065E-03     22.6148E-03    -98.6191E-03     195.760E-03    -97.4808E-03     22.0022E-03
            2412     6.53135E-03     3.47646E-03    -50.5193E+06    -123.631E+06    -28.6280E+06    -8.46630E+06    -98.1345E-03     195.605E-03    -97.4703E-03     19.8408E-03    -98.1895E-03     195.124E-03    -97.3609E-03     19.3483E-03
            2413     5.71553E-03     3.47439E-03    -56.5679E+06    -145.175E+06    -38.4658E+06    -3.91690E+06    -97.8335E-03     195.195E-03    -97.3614E-03     17.1347E-03    -97.8674E-03     194.624E-03    -97.2612E-03     16.7557E-03
            2414     4.89936E-03     3.47273E-03    -61.8158E+06    -165.842E+06    -46.3758E+06     129.831E+03    -97.6077E-03     194.883E-03    -97.2749E-03     14.5060E-03    -97.6216E-03     194.222E-03    -97.1767E-03     14.2300E-03
            2415     4.08312E-03     3.47136E-03    -66.0856E+06    -183.823E+06    -52.8115E+06     3.12183E+06    -97.4264E-03     194.629E-03    -97.2025E-03     11.9620E-03    -97.4225E-03     193.890E-03    -97.1041E-03     11.7730E-03
            2416     3.26670E-03     3.47037E-03    -69.2343E+06    -194.725E+06    -59.4526E+06     4.64990E+06    -97.2696E-03     194.398E-03    -97.1285E-03     9.49816E-03    -97.2529E-03     193.616E-03    -97.0430E-03     9.37576E-03
            2417     2.45014E-03     3.46961E-03    -71.2510E+06    -199.031E+06    -65.7945E+06     4.63924E+06    -97.1372E-03     194.195E-03    -97.0576E-03     7.09245E-03    -97.1127E-03     193.401E-03    -96.9946E-03     7.01552E-03
            2418     1.63347E-03     3.46911E-03    -72.4991E+06    -201.943E+06    -70.1547E+06     3.60107E+06    -97.0411E-03     194.049E-03    -97.0077E-03     4.75164E-03    -97.0107E-03     193.247E-03    -96.9606E-03     4.70596E-03
            2419     816.751E-06     3.46882E-03    -73.1841E+06    -203.619E+06    -72.5885E+06     2.02774E+06    -96.9241E-03     193.966E-03    -97.0419E-03     2.57497E-03    -96.8900E-03     193.160E-03    -97.0035E-03     2.55114E-03
            2420     15.4027E-03     2.41563E-03    -4.91963E+06     107.475E+06     97.4989E+06     1.91084E+06    -131.214E-03     236.386E-03    -105.172E-03     45.9220E-03    -131.734E-03     236.988E-03    -104.833E-03     44.1795E-03
            2421     14.6115E-03     2.38414E-03    -11.5468E+06     103.103E+06     80.1647E+06     2.77060E+06    -125.202E-03     229.015E-03    -103.813E-03     44.9347E-03    -125.746E-03     229.653E-03    -103.545E-03     43.1510E-03
            2422     13.8129E-03     2.36600E-03    -16.5609E+06     92.9229E+06     62.8340E+06     1.90406E+06    -117.714E-03     220.407E-03    -102.694E-03     39.7084E-03    -118.183E-03     220.967E-03    -102.490E-03     38.2998E-03
            2423     13.0092E-03     2.35435E-03    -19.6063E+06     81.8866E+06     50.1384E+06    -1.05425E+06    -111.882E-03     213.752E-03    -101.869E-03     37.0388E-03    -112.288E-03     214.233E-03    -101.709E-03     35.9292E-03
            2424     12.2011E-03     2.34621E-03    -22.7491E+06     56.2035E+06     32.1674E+06    -6.71508E+06    -108.122E-03     209.372E-03    -101.250E-03     34.0747E-03    -108.447E-03     209.723E-03    -101.138E-03     33.1265E-03
            2425     11.3921E-03     2.33976E-03    -26.5150E+06     23.4044E+06     17.8290E+06    -14.9365E+06    -105.708E-03     206.508E-03    -100.800E-03     31.0194E-03    -105.963E-03     206.700E-03    -100.706E-03     30.1246E-03
            2426     10.5814E-03     2.33497E-03    -29.6361E+06    -4.21731E+06     4.37980E+06    -19.2251E+06    -104.054E-03     204.492E-03    -100.438E-03     27.9460E-03    -104.249E-03     204.554E-03    -100.367E-03     27.1125E-03
            2427     9.76996E-03     2.33107E-03    -33.1615E+06    -33.1181E+06    -8.27757E+06    -18.9803E+06    -102.878E-03     203.025E-03    -100.147E-03     24.9613E-03    -103.020E-03     202.955E-03    -100.092E-03     24.2194E-03
            2428     8.95763E-03     2.32784E-03    -38.6268E+06    -59.4268E+06    -18.9561E+06    -16.4719E+06    -101.990E-03     201.902E-03    -99.9126E-03     22.1282E-03    -102.097E-03     201.716E-03    -99.8652E-03     21.4886E-03
            2429     8.14491E-03     2.32521E-03    -44.9299E+06    -85.1793E+06    -28.0755E+06    -12.2444E+06    -101.298E-03     201.021E-03    -99.7233E-03     19.4924E-03    -101.380E-03     200.722E-03    -99.6750E-03     18.9649E-03
            2430     7.33144E-03     2.32298E-03    -50.9260E+06    -109.067E+06    -35.3260E+06    -7.97732E+06    -100.749E-03     200.319E-03    -99.5698E-03     17.0502E-03    -100.811E-03     199.915E-03    -99.5144E-03     16.6267E-03
            2431     6.51783E-03     2.32119E-03    -55.8081E+06    -130.881E+06    -41.2333E+06    -4.08239E+06    -100.311E-03     199.754E-03    -99.4430E-03     14.7807E-03    -100.353E-03     199.252E-03    -99.3784E-03     14.4504E-03
            2432     5.70365E-03     2.31970E-03    -59.6302E+06    -151.233E+06    -46.0459E+06    -741.060E+03    -99.9579E-03     199.297E-03    -99.3392E-03     12.6593E-03    -99.9793E-03     198.703E-03    -99.2637E-03     12.4110E-03
            2433     4.88939E-03     2.31848E-03    -62.4829E+06    -169.860E+06    -50.0627E+06     1.91278E+06    -99.6739E-03     198.928E-03    -99.2546E-03     10.6689E-03    -99.6741E-03     198.249E-03    -99.1680E-03     10.4914E-03
            2434     4.07477E-03     2.31758E-03    -64.5515E+06    -185.419E+06    -53.6673E+06     3.55145E+06    -99.4523E-03     198.636E-03    -99.1835E-03     8.77814E-03    -99.4330E-03     197.884E-03    -99.0893E-03     8.65667E-03
            2435     3.26002E-03     2.31686E-03    -66.0226E+06    -193.480E+06    -58.0113E+06     4.03422E+06    -99.2778E-03     198.390E-03    -99.1118E-03     6.96099E-03    -99.2462E-03     197.605E-03    -99.0256E-03     6.87954E-03
            2436     2.44516E-03     2.31637E-03    -66.8494E+06    -196.090E+06    -62.2517E+06     3.68312E+06    -99.1395E-03     198.185E-03    -99.0457E-03     5.20010E-03    -99.1009E-03     197.393E-03    -98.9757E-03     5.14731E-03
            2437     1.63018E-03     2.31607E-03    -67.2092E+06    -197.838E+06    -65.2148E+06     2.82640E+06    -99.0397E-03     198.038E-03    -98.9983E-03     3.48259E-03    -98.9951E-03     197.241E-03    -98.9400E-03     3.45132E-03
            2438     815.095E-06     2.31587E-03    -67.4296E+06    -198.913E+06    -66.9671E+06     1.63949E+06    -98.8901E-03     197.951E-03    -99.0606E-03     1.86821E-03    -98.8417E-03     197.152E-03    -99.0092E-03     1.85222E-03
            2439     15.3797E-03     1.21372E-03    -3.90824E+06     106.730E+06     96.4996E+06     2.14424E+06    -134.541E-03     241.041E-03    -106.500E-03     47.8231E-03    -135.007E-03     241.592E-03    -106.167E-03     46.4735E-03
            2440     14.5855E-03     1.19251E-03    -8.14383E+06     103.651E+06     80.6501E+06     2.45998E+06    -124.367E-03     229.513E-03    -105.146E-03     36.6158E-03    -124.792E-03     230.044E-03    -104.881E-03     35.5399E-03
            2441     13.7870E-03     1.18523E-03    -11.9355E+06     96.9847E+06     53.6277E+06     602.095E+03    -117.134E-03     221.221E-03    -104.087E-03     28.6484E-03    -117.480E-03     221.714E-03    -103.942E-03     27.8941E-03
            2442     12.9838E-03     1.17933E-03    -15.2143E+06     85.1124E+06     25.9172E+06    -1.64114E+06    -112.763E-03     216.033E-03    -103.270E-03     24.6828E-03    -113.044E-03     216.487E-03    -103.242E-03     24.0909E-03
            2443     12.1797E-03     1.17502E-03    -18.1367E+06     64.3130E+06    -1.84695E+06    -5.11252E+06    -109.864E-03     212.478E-03    -102.614E-03     21.2131E-03    -110.076E-03     212.859E-03    -102.690E-03     20.6955E-03
            2444     11.3726E-03     1.17178E-03    -22.6800E+06     31.0830E+06    -20.5318E+06    -10.2510E+06    -107.759E-03     209.886E-03    -102.127E-03     18.4068E-03    -107.909E-03     210.125E-03    -102.241E-03     17.9044E-03
            2445     10.5644E-03     1.16912E-03    -29.8966E+06    -6.03208E+06    -29.9028E+06    -13.1707E+06    -106.167E-03     207.938E-03    -101.771E-03     15.9959E-03    -106.281E-03     208.011E-03    -101.869E-03     15.5159E-03
            2446     9.75480E-03     1.16701E-03    -37.8750E+06    -38.3436E+06    -35.7282E+06    -11.8694E+06    -104.916E-03     206.401E-03    -101.486E-03     13.9244E-03    -105.010E-03     206.328E-03    -101.554E-03     13.5074E-03
            2447     8.94442E-03     1.16531E-03    -44.9307E+06    -66.6470E+06    -39.0297E+06    -8.76844E+06    -103.892E-03     205.145E-03    -101.253E-03     12.1281E-03    -103.973E-03     204.943E-03    -101.287E-03     11.7887E-03
            2448     8.13305E-03     1.16387E-03    -50.9205E+06    -91.8279E+06    -42.1988E+06    -5.84863E+06    -103.060E-03     204.116E-03    -101.056E-03     10.5473E-03    -103.127E-03     203.798E-03    -101.060E-03     10.2762E-03
            2449     7.32131E-03     1.16271E-03    -55.3648E+06    -114.672E+06    -44.6320E+06    -3.44366E+06    -102.380E-03     203.273E-03    -100.892E-03     9.14376E-03    -102.432E-03     202.849E-03    -100.869E-03     8.92969E-03
            2450     6.50877E-03     1.16172E-03    -58.6916E+06    -135.524E+06    -47.0251E+06    -1.39933E+06    -101.833E-03     202.589E-03    -100.755E-03     7.88590E-03    -101.866E-03     202.068E-03    -100.709E-03     7.72105E-03
            2451     5.69606E-03     1.16093E-03    -60.9378E+06    -154.571E+06    -49.2299E+06     278.874E+03    -101.394E-03     202.037E-03    -100.643E-03     6.73538E-03    -101.406E-03     201.427E-03    -100.576E-03     6.61277E-03
            2452     4.88278E-03     1.16034E-03    -62.3310E+06    -171.873E+06    -51.2431E+06     1.50544E+06    -101.049E-03     201.601E-03    -100.552E-03     5.66092E-03    -101.039E-03     200.908E-03    -100.469E-03     5.57330E-03
            2453     4.06936E-03     1.15983E-03    -63.1463E+06    -185.602E+06    -53.4691E+06     2.18770E+06    -100.788E-03     201.264E-03    -100.476E-03     4.64520E-03    -100.759E-03     200.507E-03    -100.383E-03     4.58466E-03
            2454     3.25571E-03     1.15947E-03    -63.5464E+06    -192.176E+06    -56.4674E+06     2.26264E+06    -100.584E-03     200.989E-03    -100.405E-03     3.67652E-03    -100.543E-03     200.203E-03    -100.316E-03     3.63459E-03
            2455     2.44188E-03     1.15923E-03    -63.7282E+06    -193.967E+06    -59.6621E+06     1.96531E+06    -100.435E-03     200.778E-03    -100.343E-03     2.74720E-03    -100.386E-03     199.987E-03    -100.268E-03     2.71900E-03
            2456     1.62797E-03     1.15906E-03    -63.7264E+06    -195.077E+06    -61.7890E+06     1.50180E+06    -100.340E-03     200.641E-03    -100.301E-03     1.84379E-03    -100.286E-03     199.848E-03    -100.235E-03     1.82703E-03
            2457     814.019E-06     1.15902E-03    -63.7476E+06    -195.736E+06    -63.0772E+06     940.880E+03    -100.214E-03     200.561E-03    -100.347E-03     998.206E-06    -100.157E-03     199.767E-03    -100.287E-03     991.149E-06


