********************************************************************************
Field Output Report, written Tue May 28 20:14:23 2024

Source 1
---------

   ODB: G:/Abaqus_calc_2019/1740/Vel_20/odb/zeides_2a_8_red_2000_cal_30_vel_20_fric_050.odb
   Step: Step-1
   Frame: Increment   7021826: Step Time =   0.7467

Loc 1 : Nodal values from source 1

Output sorted by column "Nodal Label".

Field Output reported at nodes for region: DIE_2A_8_D0_36-1.Region_1
   Computation algorithm: EXTRAPOLATE_COMPUTE_AVERAGE
   Averaged at nodes
   Averaging regions: ODB_REGIONS

      Node Label     COORD.COOR1     COORD.COOR2
                          @Loc 1          @Loc 1
-------------------------------------------------
               1     15.4045E-03     184.042E-03


Field Output reported at nodes for region: DIE_2A_8_D0_36-1.Region_2
   Computation algorithm: EXTRAPOLATE_COMPUTE_AVERAGE
   Averaged at nodes
   Averaging regions: ODB_REGIONS

      Node Label     COORD.COOR1     COORD.COOR2
                          @Loc 1          @Loc 1
-------------------------------------------------
               1     15.4045E-03     184.042E-03


Field Output reported at nodes for part: WIRE-1
   Computation algorithm: EXTRAPOLATE_COMPUTE_AVERAGE
   Averaged at nodes
   Averaging regions: ODB_REGIONS

      Node Label     COORD.COOR1     COORD.COOR2           S.S11           S.S22           S.S33           S.S12         PE.PE11         PE.PE22         PE.PE33         PE.PE12         LE.LE11         LE.LE22         LE.LE33         LE.LE12
                          @Loc 1          @Loc 1          @Loc 1          @Loc 1          @Loc 1          @Loc 1          @Loc 1          @Loc 1          @Loc 1          @Loc 1          @Loc 1          @Loc 1          @Loc 1          @Loc 1
-------------------------------------------------------------------------------------------------------------------------------------------------------------------------------------------------------------------------------------------------
               1    -159.385E-09     85.6495E-03    -119.076E+06    -241.145E+06    -119.365E+06    -132.516E+03    -224.681E-03     449.638E-03    -224.957E-03     2.75662E-03    -224.753E-03     448.778E-03    -225.031E-03     2.81335E-03
               2     14.3820E-03     86.6090E-03    -337.230E+03     81.7013E+06     98.0630E+06     274.495E+03    -223.651E-03     448.483E-03    -224.832E-03     37.3833E-03    -224.027E-03     448.864E-03    -224.460E-03     34.2667E-03
               3     14.4056E-03     172.798E-03    -16.7533E+06     25.5537E+06     49.1119E+06    -10.2659E+06    -170.776E-03     394.792E-03    -224.015E-03     9.45357E-03    -170.957E-03     394.884E-03    -223.782E-03     9.44468E-03
               4    -125.132E-09     171.460E-03     49.3604E+06    -11.4497E+06     46.8891E+06    -3.76320E+06    -243.535E-03     486.740E-03    -243.205E-03    -9.78190E-03    -243.360E-03     486.521E-03    -243.026E-03    -10.0203E-03
               5    -18.6234E-09    -457.967E-18    -62.6176E+06    -226.997E+06    -63.2804E+06    -959.280E+03    -203.214E-03     406.960E-03    -203.745E-03     315.726E-06    -203.106E-03     406.007E-03    -203.642E-03     284.958E-06
               6     14.2868E-03    -457.967E-18     5.70455E+06     78.8881E+06     102.578E+06    -1.37311E+06    -335.257E-03     562.091E-03    -226.834E-03     73.1943E-03    -335.838E-03     562.681E-03    -226.444E-03     66.9793E-03
               7     718.881E-06     85.6536E-03    -118.250E+06    -238.075E+06    -116.505E+06    -39.8887E+03    -224.773E-03     449.674E-03    -224.901E-03     4.57732E-03    -224.850E-03     448.824E-03    -224.967E-03     4.67680E-03
               8     1.43750E-03     85.6638E-03    -115.731E+06    -229.316E+06    -108.600E+06     91.9947E+03    -224.857E-03     449.720E-03    -224.863E-03     8.33481E-03    -224.946E-03     448.898E-03    -224.905E-03     8.51312E-03
               9     2.15625E-03     85.6798E-03    -111.578E+06    -216.168E+06    -96.6579E+06     179.773E+03    -224.848E-03     449.745E-03    -224.896E-03     12.2912E-03    -224.953E-03     448.966E-03    -224.905E-03     12.5299E-03
              10     2.87493E-03     85.7022E-03    -106.175E+06    -199.770E+06    -81.9661E+06      243.93E+03    -224.851E-03     449.781E-03    -224.931E-03     16.2522E-03    -224.974E-03     449.056E-03    -224.897E-03     16.5252E-03
              11     3.59371E-03     85.7305E-03    -99.8962E+06    -182.066E+06    -65.8470E+06     268.756E+03    -224.842E-03     449.807E-03    -224.965E-03     20.1135E-03    -224.985E-03     449.139E-03    -224.885E-03     20.3804E-03
              12     4.31252E-03     85.7645E-03    -93.0587E+06    -162.467E+06    -49.4872E+06     346.097E+03    -224.811E-03     449.801E-03    -224.990E-03     23.8728E-03    -224.974E-03     449.200E-03    -224.866E-03     24.0853E-03
              13     5.03140E-03     85.8040E-03    -85.8653E+06    -140.382E+06    -33.6960E+06     307.450E+03    -224.797E-03     449.800E-03    -225.002E-03     27.4837E-03    -224.983E-03     449.280E-03    -224.843E-03     27.5909E-03
              14     5.75036E-03     85.8487E-03    -78.4664E+06    -117.765E+06    -18.6588E+06     92.8516E+03    -224.811E-03     449.821E-03    -225.009E-03     30.9757E-03    -225.020E-03     449.387E-03    -224.818E-03     30.9188E-03
              15     6.46930E-03     85.8984E-03    -71.1554E+06    -94.3050E+06    -4.66188E+06    -71.2707E+03    -224.813E-03     449.823E-03    -225.010E-03     34.3182E-03    -225.048E-03     449.484E-03    -224.793E-03     34.0351E-03
              16     7.18827E-03     85.9526E-03    -63.7854E+06    -68.5342E+06     8.50140E+06    -336.426E+03    -224.778E-03     449.779E-03    -225.001E-03     37.4934E-03    -225.044E-03     449.550E-03    -224.767E-03     36.9205E-03
              17     7.90737E-03     86.0109E-03    -56.1560E+06    -38.8969E+06     21.3422E+06    -162.342E+03    -224.723E-03     449.704E-03    -224.981E-03     40.4977E-03    -225.026E-03     449.607E-03    -224.736E-03     39.5822E-03
              18     8.62650E-03     86.0731E-03    -48.7772E+06    -928.885E+03     34.6477E+06     571.750E+03    -224.643E-03     449.590E-03    -224.947E-03     43.3345E-03    -225.001E-03     449.672E-03    -224.702E-03     42.0230E-03
              19     9.34577E-03     86.1387E-03    -42.1864E+06     24.6499E+06     44.7478E+06     1.02944E+06    -224.594E-03     449.509E-03    -224.915E-03     45.9784E-03    -224.995E-03     449.718E-03    -224.665E-03     44.2041E-03
              20     10.0651E-03     86.2071E-03    -35.6518E+06     40.6925E+06     54.3734E+06     1.14517E+06    -224.571E-03     449.465E-03    -224.894E-03     48.2289E-03    -225.004E-03     449.758E-03    -224.629E-03     45.9429E-03
              21     10.7843E-03     86.2780E-03    -28.8570E+06     56.2033E+06     67.2506E+06     1.11880E+06    -224.529E-03     449.420E-03    -224.891E-03     49.8532E-03    -224.997E-03     449.790E-03    -224.594E-03     47.0360E-03
              22     11.5035E-03     86.3494E-03    -22.2908E+06     62.2036E+06     80.1484E+06     905.408E+03    -224.501E-03     449.405E-03    -224.905E-03     50.7351E-03    -224.991E-03     449.804E-03    -224.562E-03     47.4158E-03
              23     12.2226E-03     86.4208E-03    -17.0739E+06     66.5712E+06     89.8158E+06     192.286E+03    -224.429E-03     449.338E-03    -224.909E-03     50.4215E-03    -224.933E-03     449.756E-03    -224.531E-03     46.6894E-03
              24     12.9429E-03     86.4891E-03    -12.3070E+06     71.0843E+06     94.1716E+06     261.953E+03    -224.417E-03     449.308E-03    -224.891E-03     49.7103E-03    -224.934E-03     449.760E-03    -224.505E-03     45.4917E-03
              25     13.6609E-03     86.5575E-03    -4.93166E+06     77.9442E+06     96.6914E+06     570.723E+03    -224.057E-03     448.911E-03    -224.854E-03     43.4729E-03    -224.508E-03     449.341E-03    -224.476E-03     39.6516E-03
              26     14.3812E-03     88.0924E-03    -1.26969E+06     80.9698E+06     97.1373E+06    -675.672E+03    -224.524E-03     449.350E-03    -224.826E-03     36.5217E-03    -224.903E-03     449.730E-03    -224.456E-03     33.3209E-03
              27     14.3801E-03     89.5825E-03    -6.18208E+06     77.8315E+06     93.0292E+06     677.417E+03    -225.049E-03     449.892E-03    -224.843E-03     36.7026E-03    -225.438E-03     450.266E-03    -224.482E-03     33.6078E-03
              28     14.3808E-03     91.0672E-03    -1.17848E+06     80.2332E+06     94.7367E+06     510.750E+03    -223.575E-03     448.416E-03    -224.841E-03     37.8547E-03    -223.948E-03     448.795E-03    -224.482E-03     34.7532E-03
              29     14.3826E-03     92.5499E-03    -1.28288E+06     80.6906E+06     96.0416E+06    -960.082E+03    -224.024E-03     448.846E-03    -224.822E-03     37.2963E-03    -224.403E-03     449.229E-03    -224.457E-03     34.0866E-03
              30     14.3791E-03     94.0396E-03    -4.90864E+06     79.4146E+06     94.3838E+06     335.095E+03    -224.925E-03     449.767E-03    -224.843E-03     36.5611E-03    -225.313E-03     450.146E-03    -224.479E-03     33.4385E-03
              31     14.3819E-03     95.5229E-03    -1.31322E+06     81.9026E+06     96.3391E+06     64.8475E+03    -223.966E-03     448.810E-03    -224.845E-03     37.4558E-03    -224.343E-03     449.195E-03    -224.480E-03     34.3567E-03
              32     14.3812E-03     97.0078E-03    -1.49539E+06     83.7153E+06     99.2397E+06     76.3419E+03    -224.238E-03     449.074E-03    -224.836E-03     36.8258E-03    -224.625E-03     449.466E-03    -224.459E-03     33.6435E-03
              33     14.3804E-03     98.4978E-03    -3.70105E+06     83.3916E+06     98.1134E+06     1.67729E+06    -224.006E-03     448.852E-03    -224.846E-03     37.4600E-03    -224.401E-03     449.245E-03    -224.471E-03     34.3779E-03
              34     14.3823E-03     99.9773E-03    -2.22444E+06     86.7412E+06     100.270E+06    -183.675E+03    -223.880E-03     448.711E-03    -224.831E-03     37.6446E-03    -224.276E-03     449.116E-03    -224.452E-03     34.5320E-03
              35     14.3806E-03     101.467E-03    -2.32008E+06     86.8329E+06     99.8368E+06     34.7281E+03    -224.411E-03     449.213E-03    -224.802E-03     36.6771E-03    -224.806E-03     449.618E-03    -224.425E-03     33.5381E-03
              36     14.3829E-03     102.950E-03    -2.97497E+06     88.2091E+06     100.201E+06     696.700E+03    -224.164E-03     448.949E-03    -224.785E-03     37.6351E-03    -224.566E-03     449.364E-03    -224.408E-03     34.5134E-03
              37     14.3814E-03     104.438E-03    -2.86907E+06     89.7811E+06     100.626E+06    -59.6974E+03    -224.149E-03     448.912E-03    -224.763E-03     37.4951E-03    -224.554E-03     449.334E-03    -224.386E-03     34.3411E-03
              38     14.3833E-03     105.922E-03    -1.31105E+06     91.2935E+06     102.092E+06    -147.384E+03    -223.595E-03     448.326E-03    -224.731E-03     38.1003E-03    -223.998E-03     448.752E-03    -224.351E-03     34.9658E-03
              39     14.3837E-03     107.406E-03    -1.90008E+06     93.4096E+06     104.235E+06     34.3751E+03    -224.040E-03     448.731E-03    -224.691E-03     37.8271E-03    -224.451E-03     449.164E-03    -224.302E-03     34.6996E-03
              40     14.3830E-03     108.894E-03    -4.57290E+06     93.0935E+06     102.984E+06     947.583E+03    -224.108E-03     448.795E-03    -224.688E-03     36.8406E-03    -224.528E-03     449.231E-03    -224.301E-03     33.7213E-03
              41     14.3840E-03     110.376E-03    -2.39428E+06     96.9132E+06     105.323E+06     1.31195E+06    -223.400E-03     448.071E-03    -224.672E-03     37.6444E-03    -223.822E-03     448.524E-03    -224.282E-03     34.4811E-03
              42     14.3849E-03     111.860E-03    -3.04874E+06     98.1644E+06     105.153E+06     514.155E+03    -223.828E-03     448.422E-03    -224.594E-03     37.4930E-03    -224.256E-03     448.883E-03    -224.206E-03     34.2807E-03
              43     14.3858E-03     113.347E-03    -2.16519E+06     101.319E+06     106.872E+06     1.04085E+06    -223.600E-03     448.131E-03    -224.530E-03     37.7426E-03    -224.032E-03     448.604E-03    -224.140E-03     34.5339E-03
              44     14.3871E-03     114.830E-03    -1.21241E+06     103.997E+06     108.099E+06     13.3902E+03    -223.384E-03     447.853E-03    -224.470E-03     37.8595E-03    -223.819E-03     448.340E-03    -224.078E-03     34.5683E-03
              45     14.3873E-03     116.313E-03    -2.39001E+06     104.038E+06     108.380E+06    -1.13562E+06    -223.782E-03     448.186E-03    -224.403E-03     37.6820E-03    -224.223E-03     448.672E-03    -224.009E-03     34.3945E-03
              46     14.3889E-03     117.800E-03    -3.23093E+06     104.517E+06     109.251E+06     180.696E+03    -224.122E-03     448.474E-03    -224.352E-03     37.9408E-03    -224.565E-03     448.959E-03    -223.952E-03     34.7823E-03
              47     14.3881E-03     119.284E-03    -6.02975E+06     106.057E+06     108.912E+06     2.35380E+06    -224.136E-03     448.454E-03    -224.319E-03     37.4789E-03    -224.593E-03     448.951E-03    -223.919E-03     34.3481E-03
              48     14.3899E-03     120.769E-03    -3.17440E+06     110.530E+06     111.652E+06     1.28902E+06    -223.361E-03     447.644E-03    -224.283E-03     37.7185E-03    -223.820E-03     448.160E-03    -223.880E-03     34.4567E-03
              49     14.3905E-03     122.252E-03    -2.16471E+06     112.610E+06     113.308E+06    -947.605E+03    -223.385E-03     447.601E-03    -224.216E-03     38.1691E-03    -223.849E-03     448.128E-03    -223.809E-03     34.8185E-03
              50     14.3914E-03     123.737E-03    -1.90622E+06     115.853E+06     115.276E+06     1.09742E+06    -223.271E-03     447.431E-03    -224.160E-03     37.5000E-03    -223.736E-03     447.966E-03    -223.749E-03     34.2534E-03
              51     14.3925E-03     125.219E-03    -3.47169E+06     117.310E+06     114.970E+06     1.31901E+06    -222.898E-03     447.012E-03    -224.115E-03     37.7358E-03    -223.371E-03     447.557E-03    -223.705E-03     34.5121E-03
              52     14.3924E-03     126.702E-03     -3.8437E+06     119.786E+06     116.023E+06     779.138E+03    -223.358E-03     447.421E-03    -224.063E-03     37.7199E-03    -223.841E-03     447.979E-03    -223.651E-03     34.4441E-03
              53     14.3938E-03     128.186E-03    -1.63219E+06     123.998E+06     119.091E+06     1.26906E+06    -222.744E-03     446.773E-03    -224.028E-03     37.2723E-03    -223.228E-03     447.345E-03    -223.610E-03     33.9510E-03
              54     14.3942E-03     129.667E-03    -3.80584E+06     125.899E+06     119.051E+06     422.550E+03    -222.492E-03     446.474E-03    -223.983E-03     37.8801E-03    -222.989E-03     447.060E-03    -223.565E-03     34.5646E-03
              55     14.3950E-03     131.150E-03    -4.06209E+06     128.196E+06     120.205E+06     55.3854E+03    -222.542E-03     446.466E-03    -223.924E-03     37.7546E-03    -223.043E-03     447.058E-03    -223.503E-03     34.5054E-03
              56     14.3964E-03     132.632E-03    -1.65310E+06     132.495E+06     124.467E+06     129.114E+03    -221.980E-03     445.871E-03    -223.891E-03     37.7336E-03    -222.483E-03     446.477E-03    -223.459E-03     34.4566E-03
              57     14.3961E-03     134.113E-03    -2.88045E+06     134.011E+06     124.702E+06     1.59479E+06    -221.992E-03     445.855E-03    -223.863E-03     37.5471E-03    -222.504E-03     446.471E-03    -223.430E-03     34.2638E-03
              58     14.3970E-03     135.595E-03    -3.89665E+06     135.161E+06     124.237E+06     1.34119E+06    -221.705E-03     445.524E-03    -223.819E-03     38.1541E-03    -222.220E-03     446.144E-03    -223.388E-03     34.9767E-03
              59     14.3983E-03     137.075E-03    -3.39176E+06     138.687E+06     126.768E+06    -750.127E+03    -221.611E-03     445.381E-03    -223.770E-03     38.2742E-03    -222.132E-03     446.014E-03    -223.332E-03     35.0739E-03
              60     14.3980E-03     138.556E-03    -2.13835E+06     141.184E+06     127.876E+06     1.81554E+06    -221.375E-03     445.103E-03    -223.728E-03     37.9665E-03    -221.895E-03     445.746E-03    -223.290E-03     34.7946E-03
              61     14.4000E-03     140.035E-03    -2.69351E+06     142.036E+06     127.813E+06     108.461E+03    -221.399E-03     445.072E-03    -223.673E-03     39.0015E-03    -221.924E-03     445.721E-03    -223.236E-03     35.8278E-03
              62     14.3993E-03     141.517E-03    -5.16116E+06     141.962E+06     127.372E+06    -658.952E+03    -221.869E-03     445.496E-03    -223.627E-03     38.5229E-03    -222.405E-03     446.149E-03    -223.189E-03     35.3127E-03
              63     14.4006E-03     142.997E-03    -1.73994E+06     144.678E+06     129.597E+06     1.50206E+06    -221.315E-03     444.913E-03    -223.597E-03     38.7581E-03    -221.842E-03     445.572E-03    -223.157E-03     35.5791E-03
              64     14.4014E-03     144.475E-03    -4.04040E+06     145.149E+06     129.030E+06    -144.599E+03    -221.697E-03     445.235E-03    -223.538E-03     39.0238E-03    -222.238E-03     445.903E-03    -223.098E-03     35.7644E-03
              65     14.4012E-03     145.959E-03    -4.20397E+06     143.763E+06     129.195E+06     4.40964E+03    -222.783E-03     446.274E-03    -223.491E-03     39.2900E-03    -223.320E-03     446.932E-03    -223.047E-03     36.1127E-03
              66     14.4020E-03     147.441E-03    -4.18471E+06     143.161E+06     129.987E+06    -690.354E+03    -222.990E-03     446.455E-03    -223.465E-03     39.8579E-03    -223.527E-03     447.108E-03    -223.017E-03     36.6949E-03
              67     14.4021E-03     148.923E-03    -3.06354E+06     139.884E+06     128.785E+06    -839.667E+03    -222.984E-03     446.416E-03    -223.432E-03     39.7151E-03    -223.510E-03     447.055E-03    -222.987E-03     36.5101E-03
              68     14.4029E-03     150.405E-03    -3.12044E+06     135.389E+06     126.415E+06    -746.537E+03    -223.591E-03     446.975E-03    -223.385E-03     40.0542E-03    -224.107E-03     447.595E-03    -222.944E-03     36.8729E-03
              69     14.4028E-03     151.889E-03    -3.31682E+06     129.532E+06     123.769E+06    -2.16121E+06    -224.973E-03     448.287E-03    -223.314E-03     40.7658E-03    -225.477E-03     448.881E-03    -222.879E-03     37.6046E-03
              70     14.4040E-03     153.376E-03     -2.3415E+06     123.288E+06     123.325E+06    -3.29421E+06    -226.210E-03     449.461E-03    -223.251E-03     41.8401E-03    -226.698E-03     450.020E-03    -222.810E-03     38.7425E-03
              71     14.4039E-03     154.864E-03    -1.92151E+06     117.448E+06     120.965E+06    -695.146E+03    -227.100E-03     450.290E-03    -223.190E-03     42.8344E-03    -227.577E-03     450.827E-03    -222.753E-03     39.7465E-03
              72     14.4048E-03     156.351E-03    -3.23575E+06     108.404E+06     113.738E+06    -1.69104E+06    -228.996E-03     452.082E-03    -223.086E-03     43.8182E-03    -229.459E-03     452.588E-03    -222.670E-03     40.6911E-03
              73     14.4050E-03     157.844E-03    -1.26921E+06     98.5275E+06     106.760E+06    -3.99976E+06    -232.075E-03     455.027E-03    -222.951E-03     44.3568E-03    -232.500E-03     455.487E-03    -222.559E-03     41.2760E-03
              74     14.4057E-03     159.344E-03    -3.97053E+06     87.2866E+06     99.5240E+06    -3.40846E+06    -235.078E-03     457.915E-03    -222.837E-03     45.8615E-03    -235.484E-03     458.328E-03    -222.460E-03     42.9581E-03
              75     14.4055E-03     160.845E-03    -2.58627E+06     79.7018E+06     98.2833E+06     94.6538E+03    -237.748E-03     460.497E-03    -222.749E-03     47.1359E-03    -238.133E-03     460.871E-03    -222.369E-03     44.3300E-03
              76     14.4065E-03     162.349E-03    -3.17473E+06     72.5937E+06     99.1473E+06    -1.58365E+06    -240.474E-03     463.137E-03    -222.663E-03     48.4699E-03    -240.858E-03     463.480E-03    -222.268E-03     45.5643E-03
              77     14.4065E-03     163.859E-03    -2.89509E+06     59.1847E+06     101.575E+06    -4.81152E+06    -243.014E-03     465.594E-03    -222.580E-03     50.2302E-03    -243.382E-03     465.867E-03    -222.153E-03     47.3117E-03
              78     14.4085E-03     165.372E-03    -1.87988E+06     44.8748E+06     104.745E+06    -3.69639E+06    -244.965E-03     467.461E-03    -222.496E-03     51.7901E-03    -245.308E-03     467.653E-03    -222.034E-03     49.0208E-03
              79     14.4087E-03     166.887E-03    -622.711E+03     35.9609E+06     106.087E+06     29.3205E+03    -245.721E-03     468.131E-03    -222.410E-03     52.6933E-03    -246.038E-03     468.267E-03    -221.931E-03     50.1809E-03
              80     14.4112E-03     168.400E-03    -4.01444E+06     30.3880E+06     102.264E+06    -422.703E+03    -243.286E-03     465.645E-03    -222.359E-03     52.2360E-03    -243.584E-03     465.740E-03    -221.886E-03     50.2165E-03
              81     14.4119E-03     169.907E-03      -90.68E+03     27.2390E+06     94.4625E+06    -491.937E+03    -234.566E-03     456.996E-03    -222.430E-03     49.7963E-03    -234.784E-03     457.037E-03    -221.997E-03     48.8129E-03
              82     14.4141E-03     171.395E-03     2.20788E+06     26.8943E+06     72.0674E+06    -2.33124E+06    -199.487E-03     422.751E-03    -223.264E-03     28.5302E-03    -199.620E-03     422.790E-03    -222.946E-03     28.4064E-03
              83     13.6151E-03     172.718E-03    -17.2895E+06    -5.89079E+06     52.9976E+06    -5.49781E+06    -172.957E-03     398.326E-03    -225.369E-03    -15.8353E-03    -173.102E-03     398.268E-03    -225.071E-03    -15.7161E-03
              84     12.8404E-03     172.615E-03    -17.1445E+06    -7.05690E+06     76.7959E+06    -359.827E+03    -177.257E-03     405.180E-03    -227.922E-03    -61.1848E-03    -177.459E-03     405.108E-03    -227.503E-03    -60.7411E-03
              85     12.0858E-03     172.503E-03    -10.7879E+06     9.33996E+06     97.3498E+06    -4.24180E+06    -181.621E-03     411.784E-03    -230.163E-03    -91.9039E-03    -181.879E-03     411.776E-03    -229.674E-03    -91.2871E-03
              86     11.3431E-03     172.392E-03    -3.74322E+06    -2.07259E+06     100.993E+06    -8.99846E+06    -186.441E-03     418.602E-03    -232.161E-03    -108.237E-03    -186.667E-03     418.522E-03    -231.647E-03    -107.674E-03
              87     10.6087E-03     172.286E-03    -1.55176E+06    -1.23468E+06     106.279E+06    -9.95468E+06    -192.125E-03     426.121E-03    -233.996E-03    -116.910E-03    -192.351E-03     426.029E-03    -233.460E-03    -116.409E-03
              88     9.87989E-03     172.185E-03     1.21543E+06    -1.77250E+06     109.660E+06    -11.3592E+06    -198.616E-03     434.256E-03    -235.641E-03    -121.268E-03    -198.829E-03     434.145E-03    -235.091E-03    -120.839E-03
              89     9.15741E-03     172.090E-03     5.08539E+06    -3.17473E+06     109.624E+06    -11.9947E+06    -205.144E-03     442.201E-03    -237.058E-03    -122.288E-03    -205.333E-03     442.069E-03    -236.513E-03    -121.916E-03
              90     8.43964E-03     171.999E-03     9.07000E+06    -3.94950E+06     108.243E+06    -11.5361E+06    -211.031E-03     449.299E-03    -238.268E-03    -120.486E-03    -211.191E-03     449.149E-03    -237.734E-03    -120.168E-03
              91     7.72583E-03     171.915E-03     12.4992E+06    -2.96604E+06     105.790E+06    -11.2503E+06    -216.282E-03     455.587E-03    -239.305E-03    -116.525E-03    -216.416E-03     455.429E-03    -238.790E-03    -116.284E-03
              92     7.01533E-03     171.838E-03     15.4688E+06    -3.08360E+06     101.843E+06    -11.3135E+06    -221.150E-03     461.340E-03    -240.190E-03    -110.787E-03    -221.253E-03     461.169E-03    -239.699E-03    -110.651E-03
              93     6.30736E-03     171.768E-03     18.7174E+06    -2.63714E+06     97.8990E+06    -11.5855E+06    -225.650E-03     466.580E-03    -240.930E-03    -103.830E-03    -225.723E-03     466.401E-03    -240.464E-03    -103.801E-03
              94     5.60172E-03     171.704E-03     22.2784E+06    -2.61776E+06     93.1086E+06    -11.9496E+06    -229.569E-03     471.093E-03    -241.524E-03    -95.6276E-03    -229.611E-03     470.907E-03    -241.087E-03    -95.6878E-03
              95     4.89813E-03     171.648E-03     26.1309E+06    -2.93735E+06     86.9036E+06    -12.3677E+06    -232.856E-03     474.847E-03    -241.991E-03    -86.3974E-03    -232.862E-03     474.654E-03    -241.590E-03    -86.5709E-03
              96     4.19579E-03     171.599E-03     30.1367E+06    -3.49425E+06     79.6407E+06    -12.2977E+06    -235.683E-03     478.033E-03    -242.350E-03    -76.2333E-03    -235.654E-03     477.836E-03    -241.990E-03    -76.4860E-03
              97     3.49491E-03     171.557E-03     34.3612E+06    -4.15869E+06     71.8864E+06    -11.7979E+06    -238.079E-03     480.683E-03    -242.604E-03    -65.0552E-03    -238.017E-03     480.486E-03    -242.289E-03    -65.3478E-03
              98     2.79494E-03     171.523E-03     38.8581E+06    -4.78098E+06     64.7957E+06    -11.2503E+06    -239.932E-03     482.699E-03    -242.768E-03    -53.2899E-03    -239.836E-03     482.502E-03    -242.493E-03    -53.6008E-03
              99     2.09551E-03     171.496E-03     42.8742E+06    -5.51468E+06     58.8246E+06    -9.83097E+06    -241.139E-03     484.028E-03    -242.889E-03    -40.9868E-03    -241.015E-03     483.830E-03    -242.649E-03    -41.2897E-03
             100     1.39644E-03     171.476E-03     46.1463E+06    -7.27744E+06     53.7489E+06    -7.79547E+06    -241.927E-03     484.985E-03    -243.058E-03    -28.1046E-03    -241.779E-03     484.781E-03    -242.845E-03    -28.3572E-03
             101     697.627E-06     171.464E-03     48.5501E+06    -9.87933E+06     49.2753E+06    -5.35336E+06    -242.907E-03     486.094E-03    -243.187E-03    -15.6502E-03    -242.740E-03     485.881E-03    -242.997E-03    -15.8711E-03
             102     406.546E-09     169.915E-03     14.3526E+06    -26.9188E+06     15.1919E+06    -4.57020E+06    -234.350E-03     468.052E-03    -233.702E-03    -6.93364E-03    -234.276E-03     467.859E-03    -233.608E-03    -7.00374E-03
             103     337.650E-09     168.430E-03    -50.9325E+06    -60.8397E+06    -50.4569E+06    -6.21387E+06    -220.042E-03     439.320E-03    -219.278E-03    -1.74715E-03    -220.140E-03     439.159E-03    -219.368E-03    -1.64742E-03
             104     60.1291E-09     166.974E-03    -123.110E+06    -99.7323E+06    -123.543E+06    -6.82032E+06    -212.951E-03     425.445E-03    -212.494E-03     1.55636E-03    -213.243E-03     425.303E-03    -212.789E-03     1.70839E-03
             105     205.506E-09     165.528E-03    -195.095E+06    -137.736E+06    -194.557E+06    -6.05625E+06    -210.584E-03     421.227E-03    -210.643E-03     3.60252E-03    -211.077E-03     421.102E-03    -211.133E-03     3.83199E-03
             106    -562.144E-09     164.084E-03    -213.823E+06    -165.877E+06    -214.567E+06    -3.42741E+06    -210.730E-03     422.074E-03    -211.343E-03     4.25038E-03    -211.247E-03     421.865E-03    -211.866E-03     4.49742E-03
             107     6.55521E-09     162.637E-03    -174.230E+06    -179.213E+06    -174.592E+06    -858.900E+03    -212.286E-03     424.816E-03    -212.530E-03     4.04520E-03    -212.643E-03     424.425E-03    -212.891E-03     4.27193E-03
             108     178.254E-09     161.185E-03    -137.664E+06    -184.233E+06    -136.988E+06    -829.101E+03    -213.946E-03     427.365E-03    -213.419E-03     3.97077E-03    -214.168E-03     426.842E-03    -213.637E-03     4.15284E-03
             109     398.690E-09     159.730E-03    -128.020E+06    -193.469E+06    -127.575E+06    -2.28193E+06    -214.897E-03     429.079E-03    -214.183E-03     3.92407E-03    -215.071E-03     428.483E-03    -214.355E-03     4.05458E-03
             110     54.5902E-09     158.274E-03    -129.798E+06    -207.519E+06    -131.128E+06    -2.29744E+06    -215.492E-03     430.491E-03    -214.999E-03     3.95050E-03    -215.650E-03     429.832E-03    -215.166E-03     4.05473E-03
             111     185.329E-09     156.815E-03    -133.608E+06    -220.495E+06    -132.793E+06    -1.93516E+06    -216.098E-03     431.948E-03    -215.850E-03     3.79406E-03    -216.253E-03     431.232E-03    -216.001E-03     3.87724E-03
             112    -67.8707E-09     155.355E-03    -138.671E+06    -232.599E+06    -137.788E+06    -2.27155E+06    -216.847E-03     433.711E-03    -216.864E-03     3.89061E-03    -217.003E-03     432.949E-03    -217.014E-03     3.97532E-03
             113    -74.4578E-09     153.891E-03    -144.399E+06    -243.771E+06    -145.065E+06    -1.33743E+06    -217.941E-03     435.786E-03    -217.845E-03     3.62443E-03    -218.099E-03     434.987E-03    -218.008E-03     3.72176E-03
             114     340.187E-09     152.425E-03    -146.026E+06    -251.914E+06    -146.078E+06    -1.22833E+06    -219.144E-03     437.985E-03    -218.841E-03     3.64205E-03    -219.297E-03     437.149E-03    -218.994E-03     3.73306E-03
             115    -176.742E-09     150.955E-03    -146.570E+06    -258.346E+06    -146.971E+06    -1.01594E+06    -220.138E-03     440.279E-03    -220.140E-03     3.56842E-03    -220.283E-03     439.412E-03    -220.288E-03     3.66510E-03
             116    -612.621E-12     149.482E-03    -147.306E+06    -264.473E+06    -147.702E+06    -766.419E+03    -221.089E-03     442.401E-03    -221.313E-03     3.29497E-03    -221.227E-03     441.507E-03    -221.454E-03     3.40377E-03
             117    -155.393E-09     148.007E-03    -147.593E+06    -269.367E+06    -146.969E+06    -927.264E+03    -222.125E-03     444.523E-03    -222.398E-03     3.23536E-03    -222.259E-03     443.603E-03    -222.528E-03     3.34531E-03
             118    -82.9361E-09     146.527E-03    -146.956E+06    -272.890E+06    -146.825E+06    -496.387E+03    -223.182E-03     446.465E-03    -223.284E-03     3.02276E-03    -223.308E-03     445.527E-03    -223.409E-03     3.13549E-03
             119     169.486E-09     145.045E-03    -145.042E+06    -275.789E+06    -145.055E+06    -236.597E+03    -223.967E-03     447.807E-03    -223.840E-03     2.84549E-03    -224.082E-03     446.849E-03    -223.955E-03     2.96908E-03
             120    -78.6381E-09     143.562E-03    -143.859E+06    -277.813E+06    -143.915E+06    -393.538E+03    -224.451E-03     448.924E-03    -224.473E-03     2.84271E-03    -224.558E-03     447.952E-03    -224.581E-03     2.95991E-03
             121    -50.2789E-09     142.077E-03    -143.341E+06    -278.870E+06    -143.490E+06    -47.8429E+03    -225.011E-03     450.010E-03    -224.999E-03     2.71928E-03    -225.115E-03     449.032E-03    -225.104E-03     2.82371E-03
             122     190.888E-09     140.591E-03    -141.313E+06    -279.840E+06    -141.712E+06    -150.186E+03    -225.443E-03     450.581E-03    -225.138E-03     2.59568E-03    -225.538E-03     449.592E-03    -225.236E-03     2.69794E-03
             123     97.5407E-09     139.104E-03    -141.182E+06    -280.876E+06    -140.479E+06     26.8379E+03    -225.421E-03     450.746E-03    -225.326E-03     2.83921E-03    -225.515E-03     449.750E-03    -225.416E-03     2.93111E-03
             124    -248.762E-09     137.617E-03    -139.473E+06    -281.070E+06    -139.519E+06     4.25119E+03    -225.348E-03     450.739E-03    -225.391E-03     2.59815E-03    -225.436E-03     449.738E-03    -225.479E-03     2.68729E-03
             125     334.237E-09     136.130E-03    -137.939E+06    -280.941E+06    -138.120E+06    -176.921E+03    -225.397E-03     450.482E-03    -225.084E-03     2.46913E-03    -225.479E-03     449.477E-03    -225.168E-03     2.55948E-03
             126     24.4623E-09     134.644E-03    -137.222E+06    -281.352E+06    -136.673E+06    -4.70697E+03    -225.194E-03     450.272E-03    -225.078E-03     2.70810E-03    -225.274E-03     449.263E-03    -225.155E-03     2.78357E-03
             127    -216.775E-09     133.158E-03    -135.686E+06    -280.997E+06    -136.440E+06     203.095E+03    -224.851E-03     450.040E-03    -225.188E-03     2.58058E-03    -224.924E-03     449.029E-03    -225.266E-03     2.65752E-03
             128    -86.9897E-09     131.673E-03    -135.555E+06    -279.624E+06    -135.317E+06     288.667E+03    -224.701E-03     449.655E-03    -224.954E-03     2.58519E-03    -224.777E-03     448.650E-03    -225.029E-03     2.66089E-03
             129     23.9453E-09     130.187E-03    -134.617E+06    -278.476E+06    -134.807E+06     148.096E+03    -224.741E-03     449.329E-03    -224.588E-03     2.73502E-03    -224.814E-03     448.328E-03    -224.663E-03     2.81596E-03
             130     251.311E-09     128.703E-03    -133.221E+06    -277.185E+06    -133.626E+06     189.681E+03    -224.620E-03     449.082E-03    -224.463E-03     2.91210E-03    -224.690E-03     448.083E-03    -224.536E-03     2.99569E-03
             131    -310.387E-09     127.219E-03    -132.147E+06    -276.803E+06    -131.728E+06    -127.516E+03    -224.248E-03     448.756E-03    -224.508E-03     2.85194E-03    -224.317E-03     447.755E-03    -224.573E-03     2.91517E-03
             132    -4.70995E-09     125.735E-03    -131.041E+06    -276.399E+06    -131.453E+06     340.133E+03    -224.125E-03     448.359E-03    -224.234E-03     2.70398E-03    -224.189E-03     447.358E-03    -224.300E-03     2.78095E-03
             133     154.939E-09     124.252E-03    -130.801E+06    -274.398E+06    -130.336E+06     411.680E+03    -224.157E-03     448.127E-03    -223.970E-03     2.85120E-03    -224.224E-03     447.134E-03    -224.034E-03     2.93216E-03
             134    -36.4022E-09     122.769E-03    -129.293E+06    -272.643E+06    -129.089E+06        -142.578    -224.006E-03     448.074E-03    -224.068E-03     2.87034E-03    -224.070E-03     447.086E-03    -224.131E-03     2.94158E-03
             135    -174.717E-09     121.287E-03    -129.003E+06    -271.548E+06    -129.039E+06     360.572E+03    -223.959E-03     448.015E-03    -224.056E-03     2.62351E-03    -224.023E-03     447.031E-03    -224.120E-03     2.70268E-03
             136     242.440E-09     119.804E-03    -127.895E+06    -269.934E+06    -128.083E+06     306.850E+03    -224.161E-03     448.066E-03    -223.905E-03     2.64186E-03    -224.223E-03     447.087E-03    -223.968E-03     2.70336E-03
             137     52.5812E-09     118.321E-03    -126.933E+06    -268.036E+06    -127.069E+06     224.345E+03    -224.082E-03     448.227E-03    -224.146E-03     2.90935E-03    -224.143E-03     447.256E-03    -224.208E-03     2.96987E-03
             138    -446.602E-09     116.837E-03    -125.834E+06    -266.294E+06    -125.960E+06     410.935E+03    -223.952E-03     448.360E-03    -224.408E-03     2.87482E-03    -224.013E-03     447.394E-03    -224.469E-03     2.94559E-03
             139     179.210E-09     115.354E-03    -125.056E+06    -264.985E+06    -125.230E+06     70.8473E+03    -224.406E-03     448.647E-03    -224.240E-03     2.86778E-03    -224.466E-03     447.685E-03    -224.301E-03     2.93598E-03
             140     320.150E-09     113.870E-03    -125.004E+06    -263.735E+06    -124.713E+06     218.703E+03    -224.508E-03     448.907E-03    -224.399E-03     3.05883E-03    -224.570E-03     447.951E-03    -224.459E-03     3.12987E-03
             141    -665.999E-09     112.386E-03    -122.898E+06    -262.236E+06    -123.240E+06     319.657E+03    -224.238E-03     448.952E-03    -224.714E-03     2.83961E-03    -224.293E-03     447.998E-03    -224.772E-03     2.89132E-03
             142     318.377E-09     110.902E-03    -123.402E+06    -261.027E+06    -123.337E+06     104.671E+03    -224.713E-03     449.134E-03    -224.421E-03     2.64476E-03    -224.773E-03     448.187E-03    -224.480E-03     2.69382E-03
             143     445.808E-09     109.417E-03    -122.737E+06    -260.694E+06    -122.307E+06     49.6789E+03    -224.887E-03     449.452E-03    -224.565E-03     3.00945E-03    -224.945E-03     448.504E-03    -224.620E-03     3.06779E-03
             144    -748.437E-09     107.932E-03    -121.274E+06    -259.053E+06    -121.418E+06     502.638E+03    -224.628E-03     449.627E-03    -224.999E-03     2.80105E-03    -224.682E-03     448.684E-03    -225.055E-03     2.86841E-03
             145     510.650E-09     106.446E-03    -120.726E+06    -256.120E+06    -121.341E+06     407.944E+03    -224.880E-03     449.703E-03    -224.823E-03     2.77271E-03    -224.936E-03     448.774E-03    -224.884E-03     2.85122E-03
             146    -202.341E-09     104.961E-03    -120.927E+06    -254.055E+06    -120.587E+06     363.200E+03    -224.860E-03     449.692E-03    -224.832E-03     2.86369E-03    -224.921E-03     448.772E-03    -224.891E-03     2.93243E-03
             147    -67.1083E-09     103.476E-03    -120.625E+06    -252.283E+06    -120.769E+06     252.465E+03    -224.808E-03     449.725E-03    -224.917E-03     2.61531E-03    -224.870E-03     448.814E-03    -224.980E-03     2.66451E-03
             148     172.999E-09     101.990E-03    -120.876E+06    -251.169E+06    -120.582E+06     333.214E+03    -224.968E-03     449.776E-03    -224.808E-03     2.64729E-03    -225.033E-03     448.870E-03    -224.871E-03     2.69406E-03
             149    -50.4675E-09     100.505E-03    -120.457E+06    -249.342E+06    -120.557E+06     304.470E+03    -224.714E-03     449.712E-03    -224.998E-03     2.93905E-03    -224.780E-03     448.815E-03    -225.065E-03     2.99500E-03
             150    -487.712E-09     99.0192E-03    -119.720E+06    -248.161E+06    -120.120E+06    -46.3327E+03    -224.705E-03     449.759E-03    -225.054E-03     2.79120E-03    -224.769E-03     448.866E-03    -225.121E-03     2.85773E-03
             151     514.657E-09     97.5340E-03    -119.804E+06    -247.945E+06    -119.761E+06     102.622E+03    -224.918E-03     449.727E-03    -224.808E-03     2.65109E-03    -224.984E-03     448.835E-03    -224.874E-03     2.71864E-03
             152    -387.816E-09     96.0486E-03    -119.172E+06    -246.763E+06    -119.168E+06     156.053E+03    -224.823E-03     449.660E-03    -224.838E-03     2.79010E-03    -224.888E-03     448.772E-03    -224.903E-03     2.85116E-03
             153     234.396E-09     94.5631E-03    -118.385E+06    -246.081E+06    -118.414E+06     206.421E+03    -224.797E-03     449.755E-03    -224.958E-03     2.76471E-03    -224.860E-03     448.868E-03    -225.021E-03     2.83144E-03
             154    -317.093E-09     93.0775E-03    -117.853E+06    -245.438E+06    -117.981E+06     110.781E+03    -224.807E-03     449.718E-03    -224.911E-03     2.72112E-03    -224.870E-03     448.833E-03    -224.974E-03     2.79597E-03
             155     245.426E-09     91.5921E-03    -117.672E+06    -244.353E+06    -117.840E+06     27.7218E+03    -224.833E-03     449.767E-03    -224.935E-03     2.83781E-03    -224.896E-03     448.887E-03    -224.999E-03     2.91111E-03
             156    -327.131E-09     90.1067E-03    -118.451E+06    -244.010E+06    -117.909E+06     143.909E+03    -224.977E-03     449.937E-03    -224.959E-03     2.67382E-03    -225.045E-03     449.060E-03    -225.023E-03     2.73103E-03
             157     434.957E-09     88.6206E-03    -118.622E+06    -243.110E+06    -118.860E+06     297.732E+03    -225.149E-03     449.942E-03    -224.793E-03     2.72290E-03    -225.217E-03     449.071E-03    -224.863E-03     2.77506E-03
             158    -39.0830E-09     87.1345E-03    -119.020E+06    -241.622E+06    -118.940E+06     240.557E+03    -224.976E-03     449.812E-03    -224.836E-03     2.94317E-03    -225.049E-03     448.949E-03    -224.907E-03     3.00355E-03
             159    -46.4442E-09     84.1640E-03    -119.149E+06    -241.396E+06    -119.257E+06     69.6939E+03    -224.662E-03     449.639E-03    -224.977E-03     2.80030E-03    -224.734E-03     448.778E-03    -225.051E-03     2.86517E-03
             160    -207.543E-09     82.6788E-03    -118.459E+06    -241.296E+06    -118.728E+06    -70.7527E+03    -224.798E-03     449.742E-03    -224.943E-03     2.67882E-03    -224.868E-03     448.879E-03    -225.015E-03     2.73092E-03
             161     245.429E-09     81.1932E-03    -119.632E+06    -241.756E+06    -119.616E+06     57.4948E+03    -224.843E-03     449.699E-03    -224.856E-03     2.69211E-03    -224.917E-03     448.837E-03    -224.930E-03     2.74169E-03
             162    -306.723E-09     79.7077E-03    -119.758E+06    -241.402E+06    -119.451E+06     35.1604E+03    -224.750E-03     449.600E-03    -224.850E-03     2.68059E-03    -224.825E-03     448.740E-03    -224.923E-03     2.75948E-03
             163     222.011E-09     78.2226E-03    -119.306E+06    -241.405E+06    -119.424E+06    -49.0432E+03    -224.767E-03     449.683E-03    -224.916E-03     2.86159E-03    -224.840E-03     448.822E-03    -224.990E-03     2.94168E-03
             164    -358.195E-09     76.7364E-03    -119.425E+06    -241.762E+06    -119.276E+06     77.5624E+03    -224.671E-03     449.671E-03    -225.000E-03     2.88634E-03    -224.745E-03     448.809E-03    -225.073E-03     2.95871E-03
             165     17.4538E-09     75.2517E-03    -118.666E+06    -241.452E+06    -119.207E+06    -137.748E+03    -224.729E-03     449.561E-03    -224.832E-03     2.65736E-03    -224.799E-03     448.699E-03    -224.906E-03     2.72698E-03
             166     164.695E-09     73.7666E-03    -119.121E+06    -241.389E+06    -119.201E+06     187.273E+03    -224.870E-03     449.681E-03    -224.811E-03     2.72306E-03    -224.943E-03     448.820E-03    -224.884E-03     2.78708E-03
             167    -267.394E-09     72.2807E-03    -118.813E+06    -240.329E+06    -118.886E+06     15.8285E+03    -224.814E-03     449.708E-03    -224.894E-03     2.66630E-03    -224.887E-03     448.851E-03    -224.967E-03     2.71740E-03
             168     249.813E-09     70.7953E-03    -119.326E+06    -240.133E+06    -119.187E+06     134.702E+03    -224.847E-03     449.622E-03    -224.775E-03     2.83316E-03    -224.923E-03     448.767E-03    -224.849E-03     2.88637E-03
             169    -131.588E-09     69.3098E-03    -118.715E+06    -239.542E+06    -118.879E+06     206.566E+03    -224.701E-03     449.663E-03    -224.962E-03     2.90494E-03    -224.775E-03     448.810E-03    -225.037E-03     2.95621E-03
             170    -369.647E-09     67.8251E-03    -119.133E+06    -239.038E+06    -118.991E+06    -66.2972E+03    -224.671E-03     449.708E-03    -225.037E-03     2.44766E-03    -224.748E-03     448.859E-03    -225.113E-03     2.48982E-03
             171     342.790E-09     66.3391E-03    -119.662E+06    -239.120E+06    -119.772E+06    -7.98880E+03    -224.956E-03     449.822E-03    -224.866E-03     2.68039E-03    -225.034E-03     448.974E-03    -224.945E-03     2.74356E-03
             172    -193.155E-09     64.8530E-03    -119.658E+06    -238.998E+06    -119.723E+06     81.6081E+03    -224.872E-03     449.840E-03    -224.968E-03     2.86088E-03    -224.950E-03     448.992E-03    -225.046E-03     2.93414E-03
             173    -100.756E-09     63.3678E-03    -119.430E+06    -239.307E+06    -119.287E+06    -45.6419E+03    -224.750E-03     449.693E-03    -224.943E-03     2.66256E-03    -224.827E-03     448.843E-03    -225.019E-03     2.71178E-03
             174     114.710E-09     61.8823E-03    -118.247E+06    -239.315E+06    -118.209E+06     152.164E+03    -225.126E-03     449.821E-03    -224.695E-03     2.73586E-03    -225.199E-03     448.968E-03    -224.768E-03     2.79046E-03
             175     486.203E-09     60.3962E-03    -118.576E+06    -239.710E+06    -118.269E+06    -162.426E+03    -225.101E-03     449.774E-03    -224.673E-03     2.88351E-03    -225.174E-03     448.919E-03    -224.745E-03     2.96745E-03
             176    -475.366E-09     58.9108E-03    -118.262E+06    -239.635E+06    -118.283E+06    -96.2073E+03    -224.825E-03     449.557E-03    -224.732E-03     2.85477E-03    -224.897E-03     448.702E-03    -224.804E-03     2.92751E-03
             177     593.019E-09     57.4261E-03    -117.960E+06    -239.517E+06    -117.830E+06     91.8252E+03    -225.040E-03     449.740E-03    -224.699E-03     2.70453E-03    -225.112E-03     448.884E-03    -224.770E-03     2.74758E-03
             178    -224.097E-09     55.9403E-03    -118.793E+06    -239.404E+06    -118.726E+06     202.591E+03    -224.956E-03     449.818E-03    -224.862E-03     2.63667E-03    -225.031E-03     448.966E-03    -224.936E-03     2.68802E-03
             179    -12.8618E-09     54.4546E-03    -118.530E+06    -238.408E+06    -118.787E+06    -44.9382E+03    -224.891E-03     449.866E-03    -224.975E-03     2.69511E-03    -224.965E-03     449.018E-03    -225.051E-03     2.73645E-03
             180     121.964E-09     52.9686E-03    -118.906E+06    -238.653E+06    -119.019E+06    -315.644E+03    -225.243E-03     450.093E-03    -224.850E-03     2.69773E-03    -225.319E-03     449.245E-03    -224.926E-03     2.74293E-03
             181     328.681E-09     51.4825E-03    -119.584E+06    -239.393E+06    -119.069E+06     75.4073E+03    -225.138E-03     450.215E-03    -225.078E-03     2.79492E-03    -225.216E-03     449.365E-03    -225.153E-03     2.86948E-03
             182    -693.749E-09     49.9964E-03    -119.447E+06    -239.319E+06    -119.044E+06     16.5481E+03    -225.201E-03     450.481E-03    -225.281E-03     2.67781E-03    -225.278E-03     449.631E-03    -225.356E-03     2.73265E-03
             183     942.933E-09     48.5088E-03    -119.146E+06    -239.845E+06    -118.752E+06     47.5104E+03    -225.593E-03     450.688E-03    -225.096E-03     2.78542E-03    -225.668E-03     449.834E-03    -225.169E-03     2.85537E-03
             184    -480.123E-09     47.0222E-03    -117.378E+06    -239.461E+06    -117.751E+06    -12.3856E+03    -225.260E-03     450.663E-03    -225.403E-03     3.04310E-03    -225.329E-03     449.806E-03    -225.474E-03     3.11002E-03
             185    -196.991E-09     45.5355E-03    -117.057E+06    -238.596E+06    -117.374E+06     125.626E+03    -225.284E-03     450.990E-03    -225.706E-03     2.74585E-03    -225.353E-03     450.137E-03    -225.777E-03     2.77921E-03
             186     259.303E-09     44.0475E-03    -118.389E+06    -238.721E+06    -117.966E+06     95.7069E+03    -225.937E-03     451.444E-03    -225.508E-03     2.74810E-03    -226.011E-03     450.594E-03    -225.580E-03     2.80153E-03
             187     293.064E-09     42.5589E-03    -118.329E+06    -238.704E+06    -118.261E+06     118.426E+03    -226.038E-03     451.705E-03    -225.667E-03     3.11788E-03    -226.112E-03     450.854E-03    -225.740E-03     3.19450E-03
             188    -317.823E-09     41.0704E-03    -117.921E+06    -238.170E+06    -117.911E+06     52.6044E+03    -225.813E-03     451.935E-03    -226.122E-03     3.07892E-03    -225.886E-03     451.086E-03    -226.196E-03     3.13228E-03
             189    -107.933E-09     39.5815E-03    -117.973E+06    -237.861E+06    -118.433E+06    -146.366E+03    -226.115E-03     452.371E-03    -226.256E-03     2.92454E-03    -226.188E-03     451.525E-03    -226.332E-03     2.94952E-03
             190     322.145E-09     38.0917E-03    -118.698E+06    -237.871E+06    -118.537E+06    -150.310E+03    -226.640E-03     453.162E-03    -226.522E-03     3.13860E-03    -226.717E-03     452.317E-03    -226.597E-03     3.17583E-03
             191    -370.958E-09     36.6000E-03    -119.042E+06    -238.477E+06    -118.786E+06     25.5430E+03    -226.970E-03     453.773E-03    -226.804E-03     2.99188E-03    -227.047E-03     452.926E-03    -226.879E-03     3.02990E-03
             192     654.608E-09     35.1082E-03    -119.580E+06    -238.973E+06    -119.155E+06     167.137E+03    -227.236E-03     454.221E-03    -226.984E-03     3.24612E-03    -227.315E-03     453.372E-03    -227.060E-03     3.28923E-03
             193    -579.406E-09     33.6157E-03    -118.455E+06    -238.402E+06    -118.903E+06    -10.1153E+03    -227.451E-03     454.953E-03    -227.502E-03     3.37313E-03    -227.525E-03     454.105E-03    -227.579E-03     3.41119E-03
             194     420.411E-09     32.1214E-03    -118.004E+06    -238.301E+06    -118.341E+06    -176.410E+03    -227.780E-03     455.750E-03    -227.969E-03     3.37281E-03    -227.853E-03     454.901E-03    -228.044E-03     3.40818E-03
             195    -542.209E-09     30.6265E-03    -117.537E+06    -237.964E+06    -118.385E+06    -210.257E+03    -228.191E-03     456.503E-03    -228.312E-03     3.44868E-03    -228.262E-03     455.656E-03    -228.389E-03     3.47222E-03
             196     474.660E-09     29.1302E-03    -119.142E+06    -238.231E+06    -118.909E+06     315.532E+03    -228.737E-03     457.439E-03    -228.703E-03     3.56661E-03    -228.814E-03     456.594E-03    -228.779E-03     3.58250E-03
             197    -364.901E-09     27.6322E-03    -118.881E+06    -237.797E+06    -118.878E+06     303.768E+03    -229.153E-03     458.388E-03    -229.235E-03     3.63054E-03    -229.230E-03     457.544E-03    -229.312E-03     3.64313E-03
             198     130.747E-09     26.1334E-03    -118.455E+06    -237.036E+06    -118.448E+06    -255.116E+03    -229.519E-03     459.128E-03    -229.609E-03     3.46157E-03    -229.596E-03     458.287E-03    -229.686E-03     3.43565E-03
             199    -32.0286E-09     24.6330E-03    -119.071E+06    -237.698E+06    -118.552E+06    -190.325E+03    -229.785E-03     459.537E-03    -229.752E-03     3.56705E-03    -229.863E-03     458.693E-03    -229.828E-03     3.55411E-03
             200    -23.2418E-09     23.1325E-03    -116.938E+06    -236.951E+06    -117.098E+06     467.415E+03    -229.593E-03     459.255E-03    -229.662E-03     3.40547E-03    -229.664E-03     458.410E-03    -229.735E-03     3.41365E-03
             201    -29.2365E-09     21.6335E-03    -116.149E+06    -236.496E+06    -116.146E+06    -44.4450E+03    -228.947E-03     458.079E-03    -229.132E-03     3.23893E-03    -229.016E-03     457.233E-03    -229.201E-03     3.23171E-03
             202    -189.880E-09     20.1363E-03    -115.512E+06    -236.813E+06    -115.910E+06    -62.6994E+03    -227.826E-03     455.739E-03    -227.913E-03     2.79951E-03    -227.892E-03     454.890E-03    -227.982E-03     2.78980E-03
             203     276.847E-09     18.6445E-03    -115.025E+06    -236.027E+06    -114.914E+06     250.582E+03    -225.952E-03     451.929E-03    -225.977E-03     2.42722E-03    -226.018E-03     451.082E-03    -226.042E-03     2.41539E-03
             204    -400.247E-09     17.1591E-03    -114.070E+06    -234.585E+06    -114.442E+06    -137.272E+03    -223.190E-03     446.614E-03    -223.425E-03     1.88034E-03    -223.254E-03     445.772E-03    -223.491E-03     1.83711E-03
             205     182.495E-09     15.6829E-03    -114.057E+06    -233.987E+06    -113.671E+06    -53.6957E+03    -219.772E-03     439.690E-03    -219.919E-03     1.19072E-03    -219.838E-03     438.850E-03    -219.983E-03     1.12143E-03
             206    -169.071E-09     14.2181E-03    -113.226E+06    -233.333E+06    -113.741E+06     251.937E+03    -215.530E-03     431.170E-03    -215.640E-03     638.369E-06    -215.594E-03     430.332E-03    -215.706E-03     550.290E-06
             207    -1.63899E-09     12.7670E-03    -113.003E+06    -231.833E+06    -112.652E+06     676.957E+03    -210.731E-03     421.497E-03    -210.766E-03     8.87058E-06    -210.797E-03     420.664E-03    -210.829E-03    -114.437E-06
             208     133.896E-09     11.3305E-03    -112.465E+06    -230.328E+06    -111.660E+06     222.560E+03    -205.877E-03     411.671E-03    -205.794E-03    -163.802E-06    -205.945E-03     410.844E-03    -205.855E-03    -331.864E-06
             209    -129.134E-09     9.90782E-03    -112.902E+06    -230.351E+06    -112.359E+06    -177.999E+03    -201.774E-03     403.503E-03    -201.729E-03     106.956E-06    -201.843E-03     402.678E-03    -201.793E-03    -90.4526E-06
             210     200.951E-09     8.49469E-03    -113.782E+06    -231.967E+06    -112.939E+06    -417.501E+03    -199.304E-03     398.648E-03    -199.344E-03     783.405E-06    -199.373E-03     397.817E-03    -199.407E-03     594.318E-06
             211    -322.267E-09     7.08551E-03    -108.686E+06    -234.771E+06    -109.575E+06    -663.656E+03    -198.658E-03     397.491E-03    -198.833E-03     1.37566E-03    -198.702E-03     396.634E-03    -198.883E-03     1.21260E-03
             212     176.833E-09     5.67554E-03     -99.964E+06    -237.882E+06    -99.1847E+06    -127.377E+03    -199.413E-03     399.057E-03    -199.643E-03     1.59725E-03    -199.425E-03     398.156E-03    -199.649E-03     1.46863E-03
             213    -363.390E-09     4.26188E-03    -86.2963E+06    -237.491E+06    -86.3408E+06     357.841E+03    -200.714E-03     401.772E-03    -201.058E-03     1.48293E-03    -200.676E-03     400.835E-03    -201.020E-03     1.39026E-03
             214     43.2197E-09     2.84417E-03    -72.9778E+06    -232.973E+06    -73.5487E+06     1.10049E+06    -201.999E-03     404.438E-03    -202.439E-03     1.09690E-03    -201.919E-03     403.486E-03    -202.363E-03     1.04364E-03
             215    -375.104E-09     1.42303E-03    -65.8221E+06    -228.452E+06    -65.0051E+06     487.247E+03    -202.901E-03     406.301E-03    -203.400E-03     589.640E-06    -202.804E-03     405.349E-03    -203.298E-03     560.666E-06
             216     734.160E-06    -457.967E-18    -62.7603E+06    -226.664E+06    -62.4491E+06     96.7558E+03    -203.451E-03     407.101E-03    -203.650E-03     517.601E-06    -203.345E-03     406.149E-03    -203.543E-03     489.370E-06
             217     1.46841E-03    -457.967E-18    -62.6999E+06    -224.645E+06    -60.5324E+06     776.424E+03    -203.888E-03     407.514E-03    -203.627E-03     931.794E-06    -203.787E-03     406.570E-03    -203.513E-03     885.636E-06
             218     2.20212E-03    -457.967E-18    -62.1665E+06    -216.841E+06    -59.1010E+06     339.595E+03    -204.383E-03     408.175E-03    -203.792E-03     1.40351E-03    -204.294E-03     407.266E-03    -203.683E-03     1.32205E-03
             219     2.93551E-03    -457.967E-18    -61.5152E+06    -203.471E+06    -58.1310E+06     302.935E+03    -205.086E-03     409.100E-03    -204.015E-03     1.90794E-03    -205.014E-03     408.257E-03    -203.921E-03     1.79684E-03
             220     3.66822E-03    -457.967E-18    -60.6715E+06    -187.323E+06    -56.7751E+06    -252.933E+03    -206.021E-03     410.328E-03    -204.307E-03     2.41945E-03    -205.971E-03     409.562E-03    -204.231E-03     2.26874E-03
             221     4.40019E-03    -457.967E-18    -59.2083E+06    -167.848E+06    -55.2600E+06    -1.13431E+06    -207.206E-03     411.877E-03    -204.671E-03     2.95615E-03    -207.179E-03     411.205E-03    -204.618E-03     2.75815E-03
             222     5.13114E-03    -457.967E-18    -56.9164E+06    -145.037E+06    -53.6453E+06    -2.20094E+06    -208.668E-03     413.778E-03    -205.111E-03     3.51947E-03    -208.665E-03     413.215E-03    -205.086E-03     3.26810E-03
             223     5.86093E-03    -457.967E-18    -53.4492E+06    -118.425E+06    -51.9292E+06    -3.90874E+06    -210.440E-03     416.071E-03    -205.631E-03     4.13126E-03    -210.461E-03     415.633E-03    -205.642E-03     3.81245E-03
             224     6.58925E-03    -457.967E-18    -48.6042E+06    -86.9221E+06    -49.8947E+06    -5.57273E+06    -212.563E-03     418.802E-03    -206.239E-03     4.78374E-03    -212.610E-03     418.512E-03    -206.292E-03     4.39032E-03
             225     7.31591E-03    -457.967E-18    -42.0262E+06    -47.9992E+06    -47.0600E+06    -8.06348E+06    -215.098E-03     422.039E-03    -206.941E-03     5.50665E-03    -215.173E-03     421.931E-03    -207.046E-03     5.01816E-03
             226     8.04049E-03    -457.967E-18    -34.1840E+06    -10.7545E+06    -37.9483E+06    -8.46966E+06    -218.164E-03     425.957E-03    -207.793E-03     6.25897E-03    -218.268E-03     426.012E-03    -207.918E-03     5.68981E-03
             227     8.76274E-03    -457.967E-18    -28.4227E+06     12.2092E+06    -18.8335E+06    -2.54817E+06    -221.909E-03     430.767E-03    -208.858E-03     7.16003E-03    -222.046E-03     430.901E-03    -208.928E-03     6.58102E-03
             228     9.48157E-03    -457.967E-18    -26.1575E+06     26.4187E+06    -237.395E+03     766.510E+03    -226.456E-03     436.555E-03    -210.099E-03     8.34302E-03    -226.631E-03     436.732E-03    -210.101E-03     7.69265E-03
             229     10.1973E-03    -457.967E-18    -23.8336E+06     39.3206E+06     21.0384E+06    -888.535E+03    -232.067E-03     443.616E-03    -211.548E-03     9.24062E-03    -232.283E-03     443.826E-03    -211.466E-03     8.39603E-03
             230     10.9090E-03    -457.967E-18    -20.0135E+06     49.5034E+06     49.3085E+06     1.12018E+06    -239.276E-03     452.550E-03    -213.274E-03     10.0601E-03    -239.531E-03     452.768E-03    -213.070E-03     9.03299E-03
             231     11.6141E-03    -457.967E-18    -16.9224E+06     56.5220E+06     71.6393E+06     3.70202E+06    -248.662E-03     463.944E-03    -215.282E-03     12.1187E-03    -248.949E-03     464.167E-03    -214.982E-03     10.9157E-03
             232     12.3114E-03    -457.967E-18    -14.9154E+06     60.8889E+06     83.6438E+06     2.44730E+06    -261.094E-03     478.737E-03    -217.642E-03     14.2678E-03    -261.402E-03     478.969E-03    -217.291E-03     12.7495E-03
             233     13.0013E-03    -457.967E-18    -10.3056E+06     66.8689E+06     90.3836E+06     1.21093E+06    -281.763E-03     502.350E-03    -220.587E-03     22.4125E-03    -282.101E-03     502.636E-03    -220.217E-03     19.9931E-03
             234     13.6667E-03    -457.967E-18    -450.228E+03     75.2103E+06     98.0627E+06     8.78219E+03    -315.278E-03     539.820E-03    -224.542E-03     51.5470E-03    -315.750E-03     540.282E-03    -224.160E-03     46.8857E-03
             235     14.3446E-03     1.70577E-03    -1.85533E+06     75.7909E+06     96.0904E+06    -724.859E+03    -311.998E-03     537.926E-03    -225.928E-03     74.0675E-03    -312.586E-03     538.500E-03    -225.555E-03     68.3971E-03
             236     14.3679E-03     3.29167E-03    -6.11035E+06     75.6495E+06     91.4630E+06     688.539E+03    -279.370E-03     504.035E-03    -224.665E-03     66.6786E-03    -279.919E-03     504.564E-03    -224.309E-03     61.7600E-03
             237     14.3770E-03     4.83970E-03    -724.570E+03     79.5767E+06     93.9616E+06     422.285E+03    -264.442E-03     488.658E-03    -224.216E-03     54.3941E-03    -264.927E-03     489.149E-03    -223.861E-03     49.6343E-03
             238     14.3804E-03     6.37503E-03    -1.26777E+06     78.3572E+06     93.0131E+06    -1.44558E+06    -255.491E-03     479.657E-03    -224.166E-03     47.8491E-03    -255.954E-03     480.124E-03    -223.813E-03     43.1419E-03
             239     14.3793E-03     7.90147E-03    -3.80658E+06     75.6089E+06     91.7296E+06     -46.207E+03    -248.477E-03     472.796E-03    -224.320E-03     44.7908E-03    -248.924E-03     473.233E-03    -223.965E-03     40.4177E-03
             240     14.3793E-03     9.41518E-03    -2.93607E+06     74.3967E+06     90.7005E+06     1.22553E+06    -240.857E-03     465.352E-03    -224.494E-03     44.7112E-03    -241.284E-03     465.769E-03    -224.145E-03     40.6865E-03
             241     14.3811E-03     10.9168E-03    -1.77022E+06     73.2004E+06     90.3071E+06    -1.28098E+06    -235.037E-03     459.642E-03    -224.605E-03     43.8229E-03    -235.448E-03     460.045E-03    -224.257E-03     39.9096E-03
             242     14.3793E-03     12.4153E-03    -2.98979E+06     71.7262E+06     90.8773E+06     220.578E+03    -231.210E-03     455.932E-03    -224.722E-03     42.0026E-03    -231.614E-03     456.316E-03    -224.367E-03     38.2832E-03
             243     14.3803E-03     13.9065E-03    -2.55482E+06     71.6950E+06     90.9153E+06     1.20526E+06    -226.821E-03     451.644E-03    -224.822E-03     41.5031E-03    -227.214E-03     452.018E-03    -224.468E-03     37.9836E-03
             244     14.3807E-03     15.3903E-03    -2.74840E+06     71.5050E+06     90.4607E+06    -1.52342E+06    -223.602E-03     448.487E-03    -224.885E-03     40.3529E-03    -223.991E-03     448.857E-03    -224.532E-03     36.8416E-03
             245     14.3799E-03     16.8745E-03    -2.47537E+06     71.4880E+06     91.4912E+06     250.336E+03    -221.712E-03     446.667E-03    -224.954E-03     39.4235E-03    -222.092E-03     447.026E-03    -224.597E-03     36.0904E-03
             246     14.3803E-03     18.3536E-03    -1.96961E+06     71.5176E+06     91.3258E+06     692.518E+03    -219.877E-03     444.875E-03    -224.999E-03     39.2567E-03    -220.250E-03     445.230E-03    -224.643E-03     36.0181E-03
             247     14.3804E-03     19.8304E-03    -2.49509E+06     72.0215E+06     90.8436E+06    -219.509E+03    -218.897E-03     443.910E-03    -225.013E-03     38.5167E-03    -219.271E-03     444.268E-03    -224.660E-03     35.2660E-03
             248     14.3802E-03     21.3094E-03    -1.64628E+06     72.5571E+06     91.1193E+06     296.992E+03    -218.116E-03     443.126E-03    -225.011E-03     38.6936E-03    -218.481E-03     443.480E-03    -224.658E-03     35.5675E-03
             249     14.3818E-03     22.7831E-03    -2.00409E+06     72.1705E+06     91.6845E+06    -1.45596E+06    -218.441E-03     443.438E-03    -224.997E-03     38.1808E-03    -218.808E-03     443.789E-03    -224.640E-03     35.0039E-03
             250     14.3793E-03     24.2633E-03    -3.43732E+06     71.8313E+06     92.6423E+06     764.133E+03    -219.577E-03     444.594E-03    -225.018E-03     37.1990E-03    -219.949E-03     444.941E-03    -224.654E-03     34.0690E-03
             251     14.3802E-03     25.7421E-03    -2.28238E+06     71.7044E+06     92.1720E+06     990.451E+03    -219.209E-03     444.223E-03    -225.014E-03     38.1332E-03    -219.575E-03     444.568E-03    -224.654E-03     35.0430E-03
             252     14.3814E-03     27.2174E-03    -1.51458E+06     72.8345E+06     93.1222E+06    -1.07376E+06    -219.756E-03     444.723E-03    -224.967E-03     37.8354E-03    -220.124E-03     445.074E-03    -224.604E-03     34.6258E-03
             253     14.3800E-03     28.7016E-03    -2.88460E+06     72.8284E+06     92.1705E+06     886.061E+03    -220.716E-03     445.663E-03    -224.948E-03     37.0636E-03    -221.083E-03     446.012E-03    -224.588E-03     33.9693E-03
             254     14.3811E-03     30.1795E-03    -2.15420E+06     73.5015E+06     92.0390E+06    -444.940E+03    -220.647E-03     445.589E-03    -224.942E-03     37.6261E-03    -221.012E-03     445.941E-03    -224.585E-03     34.5150E-03
             255     14.3806E-03     31.6606E-03    -2.29858E+06     74.2472E+06     93.7830E+06    -171.101E+03    -221.485E-03     446.416E-03    -224.931E-03     37.2193E-03    -221.855E-03     446.770E-03    -224.567E-03     34.0761E-03
             256     14.3803E-03     33.1446E-03    -2.37004E+06     74.0186E+06     92.6808E+06     978.473E+03    -221.708E-03     446.626E-03    -224.918E-03     37.2531E-03    -222.075E-03     446.979E-03    -224.558E-03     34.1696E-03
             257     14.3816E-03     34.6233E-03    -1.97710E+06     74.0623E+06     92.4204E+06    -1.29850E+06    -221.956E-03     446.848E-03    -224.893E-03     37.4297E-03    -222.324E-03     447.204E-03    -224.535E-03     34.2338E-03
             258     14.3803E-03     36.1092E-03    -2.29488E+06     74.1969E+06     93.8183E+06     129.244E+03    -222.845E-03     447.728E-03    -224.883E-03     37.0061E-03    -223.214E-03     448.081E-03    -224.518E-03     33.8615E-03
             259     14.3812E-03     37.5920E-03    -2.36512E+06     74.6211E+06     93.7196E+06     1.38665E+06    -222.886E-03     447.780E-03    -224.894E-03     36.9201E-03    -223.254E-03     448.132E-03    -224.530E-03     33.8381E-03
             260     14.3800E-03     39.0758E-03    -3.38414E+06     73.4021E+06     91.4478E+06    -439.709E+03    -223.010E-03     447.899E-03    -224.889E-03     37.1377E-03    -223.380E-03     448.252E-03    -224.533E-03     33.9916E-03
             261     14.3812E-03     40.5596E-03     -2.5788E+06     74.5601E+06     92.5438E+06    -87.3051E+03    -223.220E-03     448.096E-03    -224.876E-03     37.4606E-03    -223.589E-03     448.452E-03    -224.517E-03     34.3576E-03
             262     14.3806E-03     42.0449E-03    -2.11199E+06     75.2368E+06     93.1769E+06     221.382E+03    -223.294E-03     448.162E-03    -224.868E-03     37.1583E-03    -223.661E-03     448.518E-03    -224.508E-03     34.0644E-03
             263     14.3810E-03     43.5278E-03    -2.50909E+06     74.7326E+06     92.9514E+06    -460.703E+03    -223.555E-03     448.425E-03    -224.870E-03     37.0198E-03    -223.924E-03     448.781E-03    -224.510E-03     33.8717E-03
             264     14.3803E-03     45.0140E-03    -2.00272E+06     73.8996E+06     92.6009E+06     63.9971E+03    -223.599E-03     448.458E-03    -224.858E-03     37.3930E-03    -223.964E-03     448.809E-03    -224.500E-03     34.2838E-03
             265     14.3818E-03     46.4977E-03    -1.76197E+06     74.3104E+06     92.9601E+06    -317.206E+03    -223.538E-03     448.379E-03    -224.841E-03     37.3604E-03    -223.903E-03     448.732E-03    -224.481E-03     34.2178E-03
             266     14.3807E-03     47.9827E-03    -2.28178E+06     75.4998E+06     94.3249E+06    -447.509E+03    -223.952E-03     448.789E-03    -224.837E-03     37.1663E-03    -224.324E-03     449.148E-03    -224.472E-03     33.9997E-03
             267     14.3813E-03     49.4688E-03    -1.99681E+06     75.4690E+06     93.7196E+06     138.867E+03    -224.007E-03     448.840E-03    -224.832E-03     37.2217E-03    -224.376E-03     449.198E-03    -224.470E-03     34.0885E-03
             268     14.3812E-03     50.9529E-03    -2.58346E+06     75.4415E+06     94.1350E+06    -258.242E+03    -224.260E-03     449.098E-03    -224.838E-03     36.9565E-03    -224.634E-03     449.457E-03    -224.473E-03     33.7652E-03
             269     14.3803E-03     52.4401E-03    -3.36634E+06     75.0441E+06     93.5457E+06     162.326E+03    -224.675E-03     449.516E-03    -224.841E-03     37.2083E-03    -225.050E-03     449.875E-03    -224.477E-03     34.0544E-03
             270     14.3814E-03     53.9261E-03    -896.370E+03     76.9242E+06     93.5741E+06     132.151E+03    -223.956E-03     448.786E-03    -224.829E-03     37.3533E-03    -224.323E-03     449.151E-03    -224.472E-03     34.2041E-03
             271     14.3814E-03     55.4096E-03    -2.38051E+06     76.3013E+06     93.4827E+06    -831.323E+03    -224.360E-03     449.190E-03    -224.830E-03     36.9918E-03    -224.733E-03     449.554E-03    -224.470E-03     33.8026E-03
             272     14.3797E-03     56.8986E-03    -4.31162E+06     74.4828E+06     92.0534E+06     1.39791E+06    -224.875E-03     449.736E-03    -224.860E-03     36.6699E-03    -225.249E-03     450.092E-03    -224.502E-03     33.5884E-03
             273     14.3805E-03     58.3838E-03    -2.96828E+06     75.1818E+06     91.4880E+06     1.18959E+06    -223.691E-03     448.549E-03    -224.858E-03     38.0584E-03    -224.060E-03     448.909E-03    -224.506E-03     35.0077E-03
             274     14.3822E-03     59.8660E-03    -879.426E+03     77.4684E+06     94.5310E+06    -1.26278E+06    -224.000E-03     448.819E-03    -224.819E-03     37.7434E-03    -224.371E-03     449.188E-03    -224.458E-03     34.5416E-03
             275     14.3803E-03     61.3556E-03    -2.27102E+06     76.6714E+06     94.8389E+06     424.630E+03    -224.484E-03     449.306E-03    -224.822E-03     36.7918E-03    -224.858E-03     449.669E-03    -224.456E-03     33.6086E-03
             276     14.3818E-03     62.8386E-03    -3.32105E+06     76.0212E+06     93.4174E+06     686.798E+03    -224.046E-03     448.878E-03    -224.832E-03     38.2111E-03    -224.422E-03     449.241E-03    -224.470E-03     35.1347E-03
             277     14.3806E-03     64.3272E-03    -2.46559E+06     76.7125E+06     93.8187E+06    -506.690E+03    -223.975E-03     448.818E-03    -224.844E-03     37.7953E-03    -224.349E-03     449.184E-03    -224.482E-03     34.6621E-03
             278     14.3809E-03     65.8092E-03    -1.26854E+06     77.6960E+06     95.3928E+06    -872.266E+03    -223.719E-03     448.570E-03    -224.850E-03     37.8431E-03    -224.092E-03     448.937E-03    -224.484E-03     34.6939E-03
             279     14.3816E-03     67.2932E-03    -2.65947E+06     76.8503E+06     94.7495E+06     79.3965E+03    -224.439E-03     449.260E-03    -224.821E-03     36.9362E-03    -224.814E-03     449.624E-03    -224.455E-03     33.8041E-03
             280     14.3804E-03     68.7828E-03    -2.50858E+06     76.7504E+06     93.9615E+06     1.62832E+06    -224.468E-03     449.286E-03    -224.818E-03     36.4086E-03    -224.838E-03     449.648E-03    -224.456E-03     33.3247E-03
             281     14.3820E-03     70.2648E-03    -2.16849E+06     77.1799E+06     94.1826E+06    -659.848E+03    -224.253E-03     449.062E-03    -224.810E-03     37.3992E-03    -224.626E-03     449.429E-03    -224.448E-03     34.2387E-03
             282     14.3809E-03     71.7533E-03    -3.41531E+06     76.6445E+06     93.9189E+06    -778.665E+03    -224.834E-03     449.642E-03    -224.808E-03     36.5610E-03    -225.212E-03     450.008E-03    -224.444E-03     33.3637E-03
             283     14.3809E-03     73.2404E-03    -2.74764E+06     77.1776E+06     94.1516E+06     798.834E+03    -224.002E-03     448.837E-03    -224.836E-03     37.1081E-03    -224.376E-03     449.203E-03    -224.473E-03     34.0181E-03
             284     14.3816E-03     74.7220E-03    -1.74232E+06     78.5361E+06     94.9127E+06    -560.621E+03    -223.862E-03     448.678E-03    -224.816E-03     37.6584E-03    -224.237E-03     449.050E-03    -224.453E-03     34.5146E-03
             285     14.3815E-03     76.2100E-03    -751.581E+03     79.8207E+06     96.5490E+06    -1.33643E+06    -224.485E-03     449.292E-03    -224.807E-03     36.3503E-03    -224.858E-03     449.666E-03    -224.439E-03     33.1501E-03
             286     14.3808E-03     77.6953E-03    -2.54843E+06     78.2075E+06     95.5161E+06     17.4797E+03    -224.532E-03     449.366E-03    -224.835E-03     36.8685E-03    -224.908E-03     449.734E-03    -224.467E-03     33.7673E-03
             287     14.3807E-03     79.1823E-03    -4.28509E+06     76.2868E+06     93.0911E+06     846.078E+03    -224.454E-03     449.304E-03    -224.850E-03     37.0724E-03    -224.831E-03     449.667E-03    -224.489E-03     34.0162E-03
             288     14.3805E-03     80.6676E-03    -3.21104E+06     77.2822E+06     94.3371E+06     961.115E+03    -224.182E-03     449.055E-03    -224.874E-03     37.1757E-03    -224.559E-03     449.422E-03    -224.509E-03     34.0881E-03
             289     14.3803E-03     82.1534E-03    -2.23433E+06     78.2114E+06     94.8254E+06     538.940E+03    -224.070E-03     448.936E-03    -224.867E-03     37.8266E-03    -224.449E-03     449.310E-03    -224.503E-03     34.6521E-03
             290     14.3815E-03     83.6375E-03    -2.05714E+06     78.0645E+06     95.0725E+06    -772.242E+03    -224.150E-03     448.996E-03    -224.846E-03     37.4103E-03    -224.529E-03     449.369E-03    -224.481E-03     34.1791E-03
             291     14.3804E-03     85.1252E-03    -2.97822E+06     78.3353E+06     95.6557E+06     603.543E+03    -224.066E-03     448.908E-03    -224.842E-03     37.6580E-03    -224.446E-03     449.277E-03    -224.473E-03     34.5812E-03
             292     718.554E-06     87.1393E-03    -118.187E+06    -238.536E+06    -116.248E+06     231.133E+03    -224.934E-03     449.809E-03    -224.874E-03     4.67350E-03    -225.011E-03     448.956E-03    -224.938E-03     4.78063E-03
             293     1.43733E-03     87.1493E-03    -115.577E+06    -229.766E+06    -108.371E+06     318.723E+03    -224.889E-03     449.812E-03    -224.923E-03     8.34178E-03    -224.976E-03     448.988E-03    -224.964E-03     8.52850E-03
             294     2.15606E-03     87.1655E-03    -111.345E+06    -216.648E+06    -96.3130E+06     502.385E+03    -224.873E-03     449.820E-03    -224.946E-03     12.2772E-03    -224.977E-03     449.038E-03    -224.952E-03     12.5242E-03
             295     2.87486E-03     87.1879E-03    -105.912E+06    -200.041E+06    -81.5795E+06     642.465E+03    -224.832E-03     449.801E-03    -224.969E-03     16.2423E-03    -224.954E-03     449.074E-03    -224.934E-03     16.5251E-03
             296     3.59365E-03     87.2161E-03    -99.8336E+06    -182.334E+06    -65.5262E+06     734.534E+03    -224.801E-03     449.791E-03    -224.989E-03     20.1484E-03    -224.943E-03     449.121E-03    -224.908E-03     20.4249E-03
             297     4.31250E-03     87.2502E-03    -93.0997E+06    -162.643E+06    -49.2763E+06     742.396E+03    -224.804E-03     449.809E-03    -225.005E-03     23.9428E-03    -224.967E-03     449.207E-03    -224.881E-03     24.1648E-03
             298     5.03137E-03     87.2897E-03    -85.8863E+06    -140.227E+06    -33.5105E+06     707.576E+03    -224.801E-03     449.816E-03    -225.015E-03     27.5913E-03    -224.987E-03     449.297E-03    -224.855E-03     27.7083E-03
             299     5.75025E-03     87.3344E-03    -78.7916E+06    -117.570E+06    -18.5945E+06     705.832E+03    -224.788E-03     449.807E-03    -225.019E-03     31.1119E-03    -224.999E-03     449.375E-03    -224.827E-03     31.0695E-03
             300     6.46922E-03     87.3841E-03    -71.7778E+06    -93.8084E+06    -4.65554E+06     527.232E+03    -224.774E-03     449.788E-03    -225.015E-03     34.4727E-03    -225.012E-03     449.453E-03    -224.798E-03     34.2039E-03
             301     7.18827E-03     87.4382E-03    -65.0130E+06    -67.5594E+06     8.38614E+06     133.778E+03    -224.748E-03     449.750E-03    -225.001E-03     37.6411E-03    -225.021E-03     449.527E-03    -224.767E-03     37.0798E-03
             302     7.90734E-03     87.4965E-03    -58.3311E+06    -38.2279E+06     20.7477E+06    -730.342E+03    -224.678E-03     449.655E-03    -224.977E-03     40.6463E-03    -224.992E-03     449.566E-03    -224.733E-03     39.7261E-03
             303     8.62655E-03     87.5587E-03    -50.8232E+06    -2.89791E+06     33.2578E+06    -799.674E+03    -224.563E-03     449.502E-03    -224.939E-03     43.4706E-03    -224.928E-03     449.580E-03    -224.695E-03     42.1411E-03
             304     9.34586E-03     87.6241E-03    -42.9336E+06     23.0253E+06     43.4800E+06     442.033E+03    -224.514E-03     449.413E-03    -224.899E-03     46.0720E-03    -224.915E-03     449.617E-03    -224.653E-03     44.2968E-03
             305     10.0651E-03     87.6927E-03    -35.9778E+06     41.0718E+06     53.2002E+06     755.337E+03    -224.470E-03     449.339E-03    -224.869E-03     48.3535E-03    -224.902E-03     449.635E-03    -224.611E-03     46.0766E-03
             306     10.7846E-03     87.7632E-03    -29.5930E+06     55.8744E+06     66.0312E+06     626.243E+03    -224.406E-03     449.267E-03    -224.861E-03     50.0200E-03    -224.875E-03     449.638E-03    -224.569E-03     47.2159E-03
             307     11.5042E-03     87.8349E-03    -23.3947E+06     61.4056E+06     79.4863E+06     1.33671E+06    -224.374E-03     449.246E-03    -224.872E-03     50.7353E-03    -224.866E-03     449.643E-03    -224.530E-03     47.4366E-03
             308     12.2241E-03     87.9060E-03    -16.8682E+06     67.0987E+06     90.7140E+06     2.01796E+06    -224.413E-03     449.291E-03    -224.878E-03     50.2636E-03    -224.916E-03     449.709E-03    -224.497E-03     46.5719E-03
             309     12.9423E-03     87.9752E-03    -10.7666E+06     73.0757E+06     96.0315E+06     926.781E+03    -224.476E-03     449.339E-03    -224.864E-03     49.7689E-03    -224.989E-03     449.795E-03    -224.474E-03     45.5852E-03
             310     13.6626E-03     88.0433E-03    -4.74523E+06     78.5330E+06     96.9202E+06    -513.961E+03    -224.499E-03     449.337E-03    -224.838E-03     43.1755E-03    -224.951E-03     449.769E-03    -224.460E-03     39.3168E-03
             311     718.737E-06     88.6249E-03    -117.596E+06    -239.371E+06    -115.818E+06     355.590E+03    -225.024E-03     449.900E-03    -224.876E-03     4.58729E-03    -225.097E-03     449.042E-03    -224.938E-03     4.69097E-03
             312     1.43736E-03     88.6350E-03    -114.941E+06    -230.358E+06    -107.805E+06     514.775E+03    -224.902E-03     449.864E-03    -224.962E-03     8.44212E-03    -224.986E-03     449.035E-03    -225.000E-03     8.63414E-03
             313     2.15599E-03     88.6513E-03    -110.836E+06    -217.501E+06    -95.9690E+06     696.869E+03    -224.875E-03     449.848E-03    -224.973E-03     12.4108E-03    -224.975E-03     449.061E-03    -224.977E-03     12.6640E-03
             314     2.87469E-03     88.6735E-03    -105.364E+06    -200.739E+06    -81.1393E+06     911.580E+03    -224.821E-03     449.809E-03    -224.988E-03     16.3557E-03    -224.940E-03     449.077E-03    -224.950E-03     16.6430E-03
             315     3.59359E-03     88.7017E-03    -98.9704E+06    -183.045E+06    -64.7912E+06     1.17461E+06    -224.793E-03     449.796E-03    -225.003E-03     20.2141E-03    -224.931E-03     449.120E-03    -224.918E-03     20.5007E-03
             316     4.31247E-03     88.7358E-03    -92.0893E+06    -163.148E+06    -48.4241E+06     1.41365E+06    -224.774E-03     449.787E-03    -225.013E-03     23.9699E-03    -224.933E-03     449.180E-03    -224.885E-03     24.2080E-03
             317     5.03136E-03     88.7754E-03    -85.1360E+06    -140.562E+06    -32.7634E+06     1.59769E+06    -224.755E-03     449.771E-03    -225.016E-03     27.6534E-03    -224.938E-03     449.247E-03    -224.852E-03     27.7870E-03
             318     5.75036E-03     88.8201E-03    -78.1592E+06    -117.794E+06    -17.8807E+06     1.70844E+06    -224.741E-03     449.754E-03    -225.013E-03     31.1995E-03    -224.950E-03     449.319E-03    -224.818E-03     31.1729E-03
             319     6.46939E-03     88.8697E-03    -71.1915E+06    -93.6185E+06    -3.89537E+06     1.73544E+06    -224.721E-03     449.724E-03    -225.004E-03     34.5705E-03    -224.958E-03     449.387E-03    -224.784E-03     34.3217E-03
             320     7.18842E-03     88.9239E-03    -64.4187E+06    -66.9923E+06     9.23826E+06     1.65739E+06    -224.692E-03     449.677E-03    -224.985E-03     37.7616E-03    -224.963E-03     449.455E-03    -224.749E-03     37.2249E-03
             321     7.90755E-03     88.9821E-03    -58.2638E+06    -35.9938E+06     21.8620E+06     1.23834E+06    -224.629E-03     449.587E-03    -224.958E-03     40.7548E-03    -224.948E-03     449.508E-03    -224.712E-03     39.8635E-03
             322     8.62677E-03     89.0440E-03    -52.6226E+06    -1.11638E+06     33.6617E+06    -401.889E+03    -224.541E-03     449.459E-03    -224.918E-03     43.5980E-03    -224.918E-03     449.548E-03    -224.672E-03     42.2727E-03
             323     9.34605E-03     89.1096E-03    -45.9617E+06     21.8571E+06     42.3526E+06    -1.86666E+06    -224.482E-03     449.359E-03    -224.877E-03     46.1731E-03    -224.895E-03     449.563E-03    -224.630E-03     44.3566E-03
             324     10.0656E-03     89.1779E-03    -38.1819E+06     39.2626E+06     51.7777E+06    -880.371E+03    -224.451E-03     449.298E-03    -224.846E-03     48.2716E-03    -224.890E-03     449.590E-03    -224.589E-03     45.9598E-03
             325     10.7850E-03     89.2485E-03    -31.3324E+06     54.4880E+06     64.6102E+06     833.942E+03    -224.462E-03     449.302E-03    -224.840E-03     49.6937E-03    -224.935E-03     449.671E-03    -224.551E-03     46.8777E-03
             326     11.5043E-03     89.3202E-03    -24.8245E+06     61.1850E+06     78.3436E+06     842.369E+03    -224.494E-03     449.353E-03    -224.859E-03     50.1799E-03    -224.992E-03     449.753E-03    -224.520E-03     46.8519E-03
             327     12.2232E-03     89.3913E-03    -17.3879E+06     68.1477E+06     90.0422E+06    -340.975E+03    -224.494E-03     449.366E-03    -224.872E-03     49.6662E-03    -225.000E-03     449.791E-03    -224.496E-03     45.9188E-03
             328     12.9436E-03     89.4610E-03    -9.20389E+06     75.5768E+06     97.3609E+06    -117.263E+03    -224.562E-03     449.431E-03    -224.869E-03     48.8328E-03    -225.073E-03     449.895E-03    -224.478E-03     44.5895E-03
             329     13.6622E-03     89.5284E-03    -5.53135E+06     78.8355E+06     96.5870E+06     711.394E+03    -224.843E-03     449.696E-03    -224.854E-03     42.6002E-03    -225.296E-03     450.130E-03    -224.477E-03     38.7676E-03
             330     718.520E-06     90.1107E-03    -117.406E+06    -240.431E+06    -115.330E+06     308.649E+03    -224.946E-03     449.905E-03    -224.960E-03     4.56883E-03    -225.017E-03     449.041E-03    -225.018E-03     4.66967E-03
             331     1.43728E-03     90.1207E-03    -114.494E+06    -231.377E+06    -107.444E+06     567.587E+03    -224.871E-03     449.829E-03    -224.958E-03     8.47471E-03    -224.952E-03     448.994E-03    -224.993E-03     8.66291E-03
             332     2.15609E-03     90.1369E-03    -110.221E+06    -218.289E+06    -95.3535E+06     799.967E+03    -224.835E-03     449.793E-03    -224.958E-03     12.4819E-03    -224.931E-03     449.000E-03    -224.959E-03     12.7392E-03
             333     2.87493E-03     90.1591E-03    -104.874E+06    -201.822E+06    -80.7828E+06     1.07494E+06    -224.843E-03     449.816E-03    -224.972E-03     16.4348E-03    -224.959E-03     449.077E-03    -224.932E-03     16.7264E-03
             334     3.59362E-03     90.1874E-03    -98.4729E+06    -184.143E+06    -64.5250E+06     1.40106E+06    -224.810E-03     449.804E-03    -224.994E-03     20.2903E-03    -224.944E-03     449.122E-03    -224.907E-03     20.5813E-03
             335     4.31245E-03     90.2214E-03    -91.4317E+06    -164.103E+06    -47.8776E+06     1.71854E+06    -224.751E-03     449.757E-03    -225.006E-03     24.0580E-03    -224.906E-03     449.143E-03    -224.875E-03     24.3008E-03
             336     5.03147E-03     90.2608E-03    -84.0531E+06    -141.513E+06    -31.8716E+06     1.98998E+06    -224.717E-03     449.723E-03    -225.006E-03     27.7072E-03    -224.894E-03     449.192E-03    -224.838E-03     27.8468E-03
             337     5.75045E-03     90.3057E-03    -76.4738E+06    -118.520E+06    -16.6588E+06     2.26344E+06    -224.697E-03     449.696E-03    -224.999E-03     31.2037E-03    -224.898E-03     449.253E-03    -224.800E-03     31.1835E-03
             338     6.46949E-03     90.3552E-03    -69.0198E+06    -94.2282E+06    -2.39984E+06     2.53102E+06    -224.673E-03     449.659E-03    -224.986E-03     34.5604E-03    -224.900E-03     449.313E-03    -224.761E-03     34.3208E-03
             339     7.18866E-03     90.4094E-03    -61.7672E+06    -67.2196E+06     11.1154E+06     2.67235E+06    -224.642E-03     449.607E-03    -224.965E-03     37.7212E-03    -224.903E-03     449.378E-03    -224.722E-03     37.1943E-03
             340     7.90787E-03     90.4675E-03    -54.3243E+06    -35.6957E+06     24.4849E+06     2.76331E+06    -224.617E-03     449.553E-03    -224.937E-03     40.6547E-03    -224.920E-03     449.466E-03    -224.684E-03     39.7799E-03
             341     8.62709E-03     90.5295E-03    -47.2156E+06     2.54847E+06     37.8980E+06     2.39453E+06    -224.567E-03     449.468E-03    -224.900E-03     43.4377E-03    -224.929E-03     449.561E-03    -224.646E-03     42.1422E-03
             342     9.34638E-03     90.5949E-03    -41.5988E+06     26.8326E+06     47.4959E+06    -168.884E+03    -224.585E-03     449.455E-03    -224.870E-03     45.9842E-03    -224.991E-03     449.671E-03    -224.611E-03     44.1686E-03
             343     10.0655E-03     90.6632E-03    -36.3342E+06     35.7937E+06     54.8095E+06    -1.53686E+06    -224.690E-03     449.547E-03    -224.858E-03     48.0278E-03    -225.119E-03     449.816E-03    -224.583E-03     45.6798E-03
             344     10.7847E-03     90.7340E-03    -29.7010E+06     50.8621E+06     66.1739E+06     199.091E+03    -224.698E-03     449.560E-03    -224.862E-03     49.3537E-03    -225.161E-03     449.906E-03    -224.561E-03     46.5005E-03
             345     11.5039E-03     90.8057E-03    -22.4337E+06     64.0155E+06     80.0084E+06     338.669E+03    -224.661E-03     449.543E-03    -224.882E-03     49.9437E-03    -225.153E-03     449.951E-03    -224.543E-03     46.5917E-03
             346     12.2234E-03     90.8772E-03    -16.6120E+06     69.3456E+06     90.3509E+06    -129.796E+03    -224.701E-03     449.604E-03    -224.903E-03     49.4777E-03    -225.204E-03     450.033E-03    -224.528E-03     45.7299E-03
             347     12.9415E-03     90.9464E-03    -11.8858E+06     73.6302E+06     94.2859E+06    -152.151E+03    -224.677E-03     449.578E-03    -224.900E-03     48.9008E-03    -225.194E-03     450.040E-03    -224.518E-03     44.6676E-03
             348     13.6606E-03     91.0159E-03    -5.31571E+06     78.3190E+06     94.7422E+06    -26.0289E+03    -224.095E-03     448.961E-03    -224.866E-03     43.3877E-03    -224.545E-03     449.396E-03    -224.498E-03     39.5545E-03
             349     718.789E-06     91.5966E-03    -116.815E+06    -241.349E+06    -115.061E+06     184.909E+03    -224.867E-03     449.784E-03    -224.918E-03     4.68088E-03    -224.934E-03     448.914E-03    -224.973E-03     4.78982E-03
             350     1.43739E-03     91.6063E-03    -114.096E+06    -232.568E+06    -107.063E+06     540.128E+03    -224.882E-03     449.793E-03    -224.911E-03     8.49287E-03    -224.960E-03     448.951E-03    -224.944E-03     8.68084E-03
             351     2.15617E-03     91.6224E-03    -109.772E+06    -219.292E+06    -94.9631E+06     832.932E+03    -224.850E-03     449.782E-03    -224.933E-03     12.4555E-03    -224.943E-03     448.983E-03    -224.930E-03     12.7131E-03
             352     2.87487E-03     91.6449E-03    -104.243E+06    -202.902E+06    -80.1283E+06     1.08586E+06    -224.812E-03     449.765E-03    -224.953E-03     16.4008E-03    -224.924E-03     449.019E-03    -224.908E-03     16.6923E-03
             353     3.59374E-03     91.6730E-03    -97.7786E+06    -185.222E+06    -63.7983E+06     1.36173E+06    -224.775E-03     449.747E-03    -224.972E-03     20.2862E-03    -224.905E-03     449.058E-03    -224.881E-03     20.5716E-03
             354     4.31269E-03     91.7069E-03    -90.6370E+06    -165.116E+06    -47.2926E+06     1.55953E+06    -224.750E-03     449.734E-03    -224.984E-03     24.0822E-03    -224.900E-03     449.113E-03    -224.849E-03     24.3175E-03
             355     5.03154E-03     91.7464E-03    -83.1203E+06    -142.607E+06    -31.2929E+06     1.75171E+06    -224.720E-03     449.706E-03    -224.986E-03     27.7258E-03    -224.892E-03     449.168E-03    -224.815E-03     27.8561E-03
             356     5.75058E-03     91.7910E-03    -75.4903E+06    -119.662E+06    -15.9708E+06     2.05931E+06    -224.688E-03     449.670E-03    -224.982E-03     31.1956E-03    -224.883E-03     449.219E-03    -224.779E-03     31.1653E-03
             357     6.46970E-03     91.8407E-03    -67.8440E+06    -95.0388E+06    -1.54041E+06     2.28338E+06    -224.668E-03     449.638E-03    -224.970E-03     34.4944E-03    -224.890E-03     449.286E-03    -224.742E-03     34.2431E-03
             358     7.18880E-03     91.8947E-03    -60.1672E+06    -67.8839E+06     12.1415E+06     2.38160E+06    -224.668E-03     449.620E-03    -224.952E-03     37.5990E-03    -224.921E-03     449.383E-03    -224.706E-03     37.0584E-03
             359     7.90793E-03     91.9530E-03    -52.6721E+06    -36.1036E+06     25.5241E+06     2.31605E+06    -224.665E-03     449.593E-03    -224.928E-03     40.4761E-03    -224.961E-03     449.500E-03    -224.672E-03     39.5839E-03
             360     8.62712E-03     92.0150E-03    -44.8719E+06     3.67473E+06     39.3680E+06     1.83003E+06    -224.631E-03     449.527E-03    -224.896E-03     43.1784E-03    -224.985E-03     449.620E-03    -224.639E-03     41.8643E-03
             361     9.34636E-03     92.0805E-03    -37.0421E+06     30.6626E+06     51.0827E+06     1.89695E+06    -224.690E-03     449.566E-03    -224.876E-03     45.7652E-03    -225.083E-03     449.788E-03    -224.611E-03     43.9827E-03
             362     10.0655E-03     92.1493E-03    -31.3011E+06     35.6621E+06     59.3300E+06     1.90077E+06    -224.829E-03     449.710E-03    -224.881E-03     48.0210E-03    -225.239E-03     449.964E-03    -224.591E-03     45.7333E-03
             363     10.7843E-03     92.2199E-03    -26.7104E+06     49.0136E+06     69.3836E+06     1.12075E+06    -224.816E-03     449.706E-03    -224.890E-03     49.6029E-03    -225.266E-03     450.034E-03    -224.576E-03     46.7755E-03
             364     11.5035E-03     92.2915E-03    -21.8478E+06     64.5140E+06     81.0791E+06     1.43767E+06    -224.703E-03     449.606E-03    -224.903E-03     50.3901E-03    -225.194E-03     450.014E-03    -224.560E-03     47.0785E-03
             365     12.2223E-03     92.3631E-03    -16.5176E+06     69.2618E+06     90.1151E+06     1.70615E+06    -224.574E-03     449.489E-03    -224.915E-03     50.3154E-03    -225.076E-03     449.916E-03    -224.540E-03     46.6571E-03
             366     12.9421E-03     92.4333E-03    -10.7437E+06     74.5806E+06     94.8442E+06     718.919E+03    -224.228E-03     449.122E-03    -224.893E-03     50.0723E-03    -224.739E-03     449.584E-03    -224.512E-03     45.9524E-03
             367     13.6619E-03     92.4999E-03    -4.60332E+06     79.1434E+06     95.9584E+06    -406.922E+03    -223.996E-03     448.843E-03    -224.847E-03     43.6971E-03    -224.446E-03     449.279E-03    -224.475E-03     39.8688E-03
             368     718.718E-06     93.0818E-03    -116.851E+06    -242.192E+06    -114.947E+06     209.264E+03    -224.831E-03     449.722E-03    -224.891E-03     4.53874E-03    -224.898E-03     448.847E-03    -224.945E-03     4.65000E-03
             369     1.43754E-03     93.0919E-03    -114.167E+06    -233.516E+06    -107.026E+06     423.453E+03    -224.864E-03     449.748E-03    -224.884E-03     8.39455E-03    -224.941E-03     448.901E-03    -224.915E-03     8.57995E-03
             370     2.15611E-03     93.1081E-03    -109.932E+06    -220.349E+06    -95.1405E+06     704.992E+03    -224.836E-03     449.745E-03    -224.909E-03     12.4682E-03    -224.929E-03     448.941E-03    -224.906E-03     12.7184E-03
             371     2.87498E-03     93.1303E-03    -104.410E+06    -203.743E+06    -80.1849E+06     875.460E+03    -224.777E-03     449.707E-03    -224.930E-03     16.4359E-03    -224.888E-03     448.957E-03    -224.884E-03     16.7198E-03
             372     3.59388E-03     93.1584E-03    -97.8026E+06    -186.207E+06    -63.8661E+06     991.543E+03    -224.760E-03     449.708E-03    -224.948E-03     20.2631E-03    -224.888E-03     449.014E-03    -224.856E-03     20.5387E-03
             373     4.31270E-03     93.1925E-03    -90.5794E+06    -166.113E+06    -47.4050E+06     1.29594E+06    -224.745E-03     449.707E-03    -224.962E-03     24.0095E-03    -224.894E-03     449.082E-03    -224.827E-03     24.2340E-03
             374     5.03173E-03     93.2318E-03    -83.1949E+06    -143.365E+06    -31.3813E+06     1.51507E+06    -224.725E-03     449.693E-03    -224.968E-03     27.6509E-03    -224.896E-03     449.151E-03    -224.796E-03     27.7716E-03
             375     5.75070E-03     93.2765E-03    -75.6006E+06    -120.566E+06    -16.1184E+06     1.57342E+06    -224.718E-03     449.687E-03    -224.969E-03     31.1016E-03    -224.913E-03     449.231E-03    -224.765E-03     31.0572E-03
             376     6.46969E-03     93.3260E-03    -68.0387E+06    -96.0062E+06    -1.80332E+06     1.80630E+06    -224.710E-03     449.672E-03    -224.962E-03     34.3951E-03    -224.931E-03     449.316E-03    -224.733E-03     34.1291E-03
             377     7.18880E-03     93.3802E-03    -60.6400E+06    -68.3447E+06     11.9619E+06     1.92411E+06    -224.718E-03     449.667E-03    -224.949E-03     37.5415E-03    -224.973E-03     449.430E-03    -224.703E-03     36.9919E-03
             378     7.90788E-03     93.4385E-03    -53.3792E+06    -36.3322E+06     25.4482E+06     1.94773E+06    -224.726E-03     449.658E-03    -224.932E-03     40.4557E-03    -225.025E-03     449.565E-03    -224.674E-03     39.5555E-03
             379     8.62698E-03     93.5006E-03    -47.1790E+06     3.78248E+06     38.9684E+06     2.24246E+06    -224.701E-03     449.607E-03    -224.906E-03     43.1940E-03    -225.065E-03     449.704E-03    -224.648E-03     41.8891E-03
             380     9.34608E-03     93.5662E-03    -42.3957E+06     27.9520E+06     47.9627E+06     3.29300E+06    -224.687E-03     449.571E-03    -224.883E-03     45.7957E-03    -225.099E-03     449.792E-03    -224.623E-03     44.0464E-03
             381     10.0653E-03     93.6350E-03    -36.9874E+06     36.7378E+06     54.4580E+06     3.88611E+06    -224.659E-03     449.529E-03    -224.869E-03     48.0874E-03    -225.092E-03     449.802E-03    -224.597E-03     45.8438E-03
             382     10.7847E-03     93.7058E-03    -30.7669E+06     51.7081E+06     66.2341E+06     2.81023E+06    -224.601E-03     449.472E-03    -224.870E-03     49.8424E-03    -225.070E-03     449.823E-03    -224.570E-03     47.0611E-03
             383     11.5039E-03     93.7775E-03    -23.9952E+06     63.4690E+06     80.2999E+06     1.66307E+06    -224.505E-03     449.390E-03    -224.885E-03     50.8775E-03    -225.005E-03     449.797E-03    -224.541E-03     47.5821E-03
             384     12.2235E-03     93.8488E-03    -16.4378E+06     70.9004E+06     91.5458E+06     730.118E+03    -224.318E-03     449.206E-03    -224.888E-03     50.6797E-03    -224.827E-03     449.642E-03    -224.509E-03     46.9698E-03
             385     12.9431E-03     93.9175E-03    -9.92676E+06     76.8298E+06     97.4594E+06     425.404E+03    -224.438E-03     449.310E-03    -224.871E-03     49.4477E-03    -224.957E-03     449.783E-03    -224.481E-03     45.2039E-03
             386     13.6629E-03     93.9848E-03    -6.06651E+06     79.4160E+06     96.5627E+06     524.121E+03    -224.797E-03     449.648E-03    -224.851E-03     42.6413E-03    -225.255E-03     450.087E-03    -224.475E-03     38.7785E-03
             387     718.663E-06     94.5674E-03    -117.474E+06    -243.141E+06    -115.558E+06     299.107E+03    -224.818E-03     449.736E-03    -224.917E-03     4.60901E-03    -224.885E-03     448.858E-03    -224.972E-03     4.71515E-03
             388     1.43733E-03     94.5773E-03    -114.742E+06    -234.363E+06    -107.524E+06     451.250E+03    -224.816E-03     449.696E-03    -224.880E-03     8.45122E-03    -224.894E-03     448.846E-03    -224.911E-03     8.63622E-03
             389     2.15633E-03     94.5935E-03    -110.421E+06    -221.053E+06    -95.5592E+06     554.926E+03    -224.787E-03     449.676E-03    -224.889E-03     12.4163E-03    -224.880E-03     448.870E-03    -224.886E-03     12.6630E-03
             390     2.87509E-03     94.6157E-03    -104.836E+06    -204.484E+06    -80.8186E+06     720.738E+03    -224.780E-03     449.688E-03    -224.908E-03     16.3622E-03    -224.892E-03     448.936E-03    -224.863E-03     16.6404E-03
             391     3.59386E-03     94.6440E-03    -98.4436E+06    -186.962E+06    -64.4969E+06     939.155E+03    -224.768E-03     449.700E-03    -224.932E-03     20.2211E-03    -224.899E-03     449.004E-03    -224.841E-03     20.4940E-03
             392     4.31282E-03     94.6778E-03    -91.4636E+06    -166.802E+06    -48.0009E+06     1.00503E+06    -224.754E-03     449.704E-03    -224.950E-03     23.9582E-03    -224.905E-03     449.077E-03    -224.816E-03     24.1758E-03
             393     5.03169E-03     94.7173E-03    -84.0280E+06    -144.080E+06    -32.0465E+06     1.11546E+06    -224.747E-03     449.707E-03    -224.960E-03     27.5763E-03    -224.921E-03     449.164E-03    -224.790E-03     27.6895E-03
             394     5.75068E-03     94.7620E-03    -76.5825E+06    -121.482E+06    -16.8187E+06     1.45161E+06    -224.744E-03     449.710E-03    -224.966E-03     31.0218E-03    -224.941E-03     449.253E-03    -224.763E-03     30.9753E-03
             395     6.46972E-03     94.8115E-03    -69.2674E+06    -96.9427E+06    -2.50248E+06     1.75053E+06    -224.745E-03     449.708E-03    -224.964E-03     34.3476E-03    -224.969E-03     449.350E-03    -224.735E-03     34.0794E-03
             396     7.18874E-03     94.8657E-03    -62.1787E+06    -69.4476E+06     11.0307E+06     2.30782E+06    -224.734E-03     449.688E-03    -224.954E-03     37.5289E-03    -224.994E-03     449.449E-03    -224.708E-03     36.9866E-03
             397     7.90784E-03     94.9242E-03    -55.7475E+06    -37.3770E+06     24.1043E+06     2.95787E+06    -224.721E-03     449.657E-03    -224.936E-03     40.5031E-03    -225.029E-03     449.564E-03    -224.680E-03     39.6253E-03
             398     8.62695E-03     94.9863E-03    -49.4779E+06     100.692E+03     36.7311E+06     4.62740E+06    -224.688E-03     449.596E-03    -224.908E-03     43.3104E-03    -225.055E-03     449.681E-03    -224.653E-03     42.0445E-03
             399     9.34612E-03     95.0520E-03    -42.6558E+06     26.1906E+06     46.5152E+06     5.82711E+06    -224.648E-03     449.529E-03    -224.881E-03     45.9359E-03    -225.056E-03     449.744E-03    -224.624E-03     44.2159E-03
             400     10.0653E-03     95.1203E-03    -35.9367E+06     39.0480E+06     55.1772E+06     4.38586E+06    -224.599E-03     449.465E-03    -224.866E-03     48.1496E-03    -225.032E-03     449.749E-03    -224.594E-03     45.9008E-03
             401     10.7847E-03     95.1911E-03    -29.2233E+06     54.3654E+06     67.1787E+06     2.62559E+06    -224.512E-03     449.374E-03    -224.862E-03     49.6170E-03    -224.980E-03     449.736E-03    -224.563E-03     46.8111E-03
             402     11.5044E-03     95.2628E-03    -22.7067E+06     66.1535E+06     81.2327E+06     1.17977E+06    -224.478E-03     449.353E-03    -224.875E-03     50.0869E-03    -224.977E-03     449.771E-03    -224.532E-03     46.7428E-03
             403     12.2237E-03     95.3338E-03    -16.8331E+06     71.8263E+06     92.6618E+06     619.958E+03    -224.543E-03     449.435E-03    -224.892E-03     49.3436E-03    -225.055E-03     449.874E-03    -224.509E-03     45.5846E-03
             404     12.9428E-03     95.4036E-03    -11.3590E+06     75.8197E+06     96.9707E+06     1.08480E+06    -224.725E-03     449.614E-03    -224.889E-03     49.0761E-03    -225.246E-03     450.082E-03    -224.497E-03     44.8663E-03
             405     13.6597E-03     95.4736E-03    -5.03726E+06     79.6276E+06     96.6454E+06     660.225E+03    -224.410E-03     449.273E-03    -224.862E-03     43.4859E-03    -224.863E-03     449.710E-03    -224.487E-03     39.6849E-03
             406     718.789E-06     96.0528E-03    -118.287E+06    -243.885E+06    -116.407E+06     211.124E+03    -224.831E-03     449.673E-03    -224.842E-03     4.63478E-03    -224.900E-03     448.794E-03    -224.898E-03     4.73837E-03
             407     1.43759E-03     96.0628E-03    -115.527E+06    -235.043E+06    -108.466E+06     380.520E+03    -224.839E-03     449.698E-03    -224.859E-03     8.43465E-03    -224.919E-03     448.848E-03    -224.893E-03     8.62012E-03
             408     2.15617E-03     96.0789E-03    -111.298E+06    -221.651E+06    -96.4759E+06     501.940E+03    -224.816E-03     449.701E-03    -224.885E-03     12.3523E-03    -224.911E-03     448.894E-03    -224.884E-03     12.5975E-03
             409     2.87502E-03     96.1012E-03    -105.784E+06    -205.258E+06    -81.5856E+06     650.117E+03    -224.777E-03     449.687E-03    -224.909E-03     16.2859E-03    -224.891E-03     448.933E-03    -224.866E-03     16.5621E-03
             410     3.59396E-03     96.1294E-03    -99.1762E+06    -187.576E+06    -65.1120E+06     826.479E+03    -224.766E-03     449.699E-03    -224.934E-03     20.1299E-03    -224.898E-03     449.002E-03    -224.843E-03     20.4015E-03
             411     4.31276E-03     96.1633E-03    -92.1962E+06    -167.255E+06    -48.6678E+06     936.913E+03    -224.761E-03     449.713E-03    -224.952E-03     23.8796E-03    -224.914E-03     449.086E-03    -224.819E-03     24.0967E-03
             412     5.03170E-03     96.2028E-03    -85.0703E+06    -145.047E+06    -32.8242E+06     1.25500E+06    -224.746E-03     449.709E-03    -224.963E-03     27.5414E-03    -224.922E-03     449.164E-03    -224.794E-03     27.6556E-03
             413     5.75065E-03     96.2474E-03    -77.8316E+06    -122.618E+06    -17.7878E+06     1.66909E+06    -224.747E-03     449.715E-03    -224.968E-03     31.0399E-03    -224.947E-03     449.255E-03    -224.766E-03     30.9970E-03
             414     6.46962E-03     96.2971E-03    -70.5806E+06    -98.2304E+06    -3.73100E+06     2.16667E+06    -224.759E-03     449.725E-03    -224.966E-03     34.3826E-03    -224.987E-03     449.364E-03    -224.740E-03     34.1225E-03
             415     7.18868E-03     96.3512E-03    -63.4637E+06    -71.5211E+06     9.46080E+06     2.85857E+06    -224.747E-03     449.703E-03    -224.956E-03     37.5469E-03    -225.008E-03     449.457E-03    -224.713E-03     37.0107E-03
             416     7.90780E-03     96.4097E-03    -56.4137E+06    -40.5545E+06     22.2677E+06     4.32330E+06    -224.695E-03     449.631E-03    -224.936E-03     40.5165E-03    -224.998E-03     449.526E-03    -224.684E-03     39.6568E-03
             417     8.62697E-03     96.4719E-03    -49.3733E+06    -3.22268E+06     35.2571E+06     5.19805E+06    -224.630E-03     449.535E-03    -224.905E-03     43.3220E-03    -224.990E-03     449.606E-03    -224.653E-03     42.0590E-03
             418     9.34624E-03     96.5374E-03    -41.9214E+06     25.9981E+06     46.2425E+06     4.81956E+06    -224.630E-03     449.505E-03    -224.875E-03     45.8811E-03    -225.034E-03     449.719E-03    -224.621E-03     44.1342E-03
             419     10.0655E-03     96.6061E-03    -34.5185E+06     41.9201E+06     55.7784E+06     4.18148E+06    -224.688E-03     449.550E-03    -224.862E-03     47.9983E-03    -225.119E-03     449.846E-03    -224.594E-03     45.7292E-03
             420     10.7846E-03     96.6767E-03    -28.2514E+06     56.8707E+06     68.4640E+06     2.92355E+06    -224.720E-03     449.593E-03    -224.873E-03     49.4477E-03    -225.188E-03     449.964E-03    -224.572E-03     46.6261E-03
             421     11.5035E-03     96.7483E-03    -22.5150E+06     67.1400E+06     82.2633E+06     2.37321E+06    -224.737E-03     449.640E-03    -224.903E-03     50.0369E-03    -225.238E-03     450.061E-03    -224.556E-03     46.7087E-03
             422     12.2223E-03     96.8201E-03    -16.7425E+06     71.7922E+06     92.2198E+06     2.33403E+06    -224.641E-03     449.564E-03    -224.923E-03     49.6707E-03    -225.150E-03     450.001E-03    -224.541E-03     45.9893E-03
             423     12.9413E-03     96.8894E-03    -10.8174E+06     76.3867E+06     97.2752E+06     1.29206E+06    -224.153E-03     449.058E-03    -224.905E-03     49.5298E-03    -224.669E-03     449.525E-03    -224.514E-03     45.4112E-03
             424     13.6637E-03     96.9579E-03    -4.61961E+06     81.2900E+06     98.9195E+06     294.550E+03    -224.006E-03     448.866E-03    -224.861E-03     43.3249E-03    -224.462E-03     449.307E-03    -224.477E-03     39.5203E-03
             425     718.723E-06     97.5380E-03    -118.805E+06    -244.493E+06    -116.943E+06     140.976E+03    -224.889E-03     449.730E-03    -224.841E-03     4.49480E-03    -224.959E-03     448.849E-03    -224.899E-03     4.60038E-03
             426     1.43740E-03     97.5483E-03    -116.148E+06    -235.594E+06    -109.169E+06     260.996E+03    -224.836E-03     449.716E-03    -224.880E-03     8.33419E-03    -224.917E-03     448.865E-03    -224.916E-03     8.51373E-03
             427     2.15625E-03     97.5644E-03    -112.009E+06    -222.334E+06    -97.2488E+06     548.336E+03    -224.808E-03     449.705E-03    -224.897E-03     12.3447E-03    -224.905E-03     448.897E-03    -224.898E-03     12.5895E-03
             428     2.87500E-03     97.5865E-03    -106.626E+06    -205.921E+06    -82.3861E+06     777.233E+03    -224.796E-03     449.715E-03    -224.919E-03     16.3135E-03    -224.912E-03     448.960E-03    -224.878E-03     16.5934E-03
             429     3.59377E-03     97.6148E-03    -100.476E+06    -188.248E+06    -66.3574E+06     882.195E+03    -224.770E-03     449.712E-03    -224.942E-03     20.1533E-03    -224.906E-03     449.015E-03    -224.855E-03     20.4244E-03
             430     4.31269E-03     97.6488E-03    -93.6446E+06    -168.099E+06    -49.9873E+06     1.20586E+06    -224.737E-03     449.695E-03    -224.958E-03     23.9041E-03    -224.894E-03     449.068E-03    -224.828E-03     24.1248E-03
             431     5.03164E-03     97.6882E-03    -86.3616E+06    -146.212E+06    -33.9928E+06     1.59874E+06    -224.733E-03     449.700E-03    -224.966E-03     27.5627E-03    -224.913E-03     449.152E-03    -224.799E-03     27.6820E-03
             432     5.75064E-03     97.7330E-03    -79.0172E+06    -123.761E+06    -19.0809E+06     1.95105E+06    -224.758E-03     449.728E-03    -224.970E-03     31.0430E-03    -224.960E-03     449.266E-03    -224.771E-03     31.0039E-03
             433     6.46968E-03     97.7826E-03    -71.6966E+06    -99.9180E+06    -5.20425E+06     2.41324E+06    -224.767E-03     449.735E-03    -224.968E-03     34.3518E-03    -224.996E-03     449.370E-03    -224.746E-03     34.0944E-03
             434     7.18869E-03     97.8368E-03    -64.4064E+06    -73.6490E+06     7.94741E+06     3.04840E+06    -224.746E-03     449.705E-03    -224.959E-03     37.5112E-03    -225.007E-03     449.452E-03    -224.719E-03     36.9747E-03
             435     7.90774E-03     97.8951E-03    -56.8357E+06    -43.5692E+06     20.8028E+06     3.47272E+06    -224.702E-03     449.641E-03    -224.939E-03     40.4823E-03    -225.001E-03     449.524E-03    -224.690E-03     39.6035E-03
             436     8.62697E-03     97.9573E-03    -48.9178E+06    -5.49140E+06     34.4802E+06     4.39946E+06    -224.639E-03     449.548E-03    -224.909E-03     43.2472E-03    -224.992E-03     449.608E-03    -224.658E-03     41.9720E-03
             437     9.34616E-03     98.0231E-03    -42.4749E+06     25.0883E+06     45.5709E+06     5.44999E+06    -224.643E-03     449.523E-03    -224.880E-03     45.8115E-03    -225.048E-03     449.734E-03    -224.627E-03     44.0783E-03
             438     10.0652E-03     98.0917E-03    -37.3206E+06     44.6851E+06     54.6546E+06     4.51445E+06    -224.688E-03     449.550E-03    -224.863E-03     48.0460E-03    -225.135E-03     449.865E-03    -224.600E-03     45.7893E-03
             439     10.7844E-03     98.1626E-03    -31.0660E+06     59.2702E+06     66.6919E+06     2.95138E+06    -224.683E-03     449.553E-03    -224.870E-03     49.7960E-03    -225.166E-03     449.943E-03    -224.577E-03     46.9959E-03
             440     11.5036E-03     98.2346E-03    -24.0308E+06     66.1346E+06     80.4680E+06     2.61625E+06    -224.595E-03     449.491E-03    -224.896E-03     50.8440E-03    -225.100E-03     449.912E-03    -224.555E-03     47.5477E-03
             441     12.2231E-03     98.3059E-03    -17.2028E+06     72.6243E+06     92.4839E+06     2.31892E+06    -224.453E-03     449.363E-03    -224.911E-03     50.5817E-03    -224.969E-03     449.809E-03    -224.529E-03     46.8862E-03
             442     12.9431E-03     98.3746E-03    -10.1426E+06     79.1586E+06     99.9114E+06     840.938E+03    -224.439E-03     449.343E-03    -224.904E-03     49.4529E-03    -224.965E-03     449.824E-03    -224.504E-03     45.2298E-03
             443     13.6605E-03     98.4413E-03    -5.08061E+06     82.9768E+06     100.212E+06     728.095E+03    -224.248E-03     449.118E-03    -224.871E-03     43.1730E-03    -224.712E-03     449.568E-03    -224.482E-03     39.3431E-03
             444     718.632E-06     99.0239E-03    -119.028E+06    -245.119E+06    -117.355E+06     171.426E+03    -224.788E-03     449.759E-03    -224.971E-03     4.63796E-03    -224.858E-03     448.876E-03    -225.030E-03     4.74174E-03
             445     1.43737E-03     99.0336E-03    -116.668E+06    -236.346E+06    -109.570E+06     481.145E+03    -224.848E-03     449.742E-03    -224.894E-03     8.44305E-03    -224.930E-03     448.888E-03    -224.930E-03     8.62358E-03
             446     2.15616E-03     99.0497E-03    -112.456E+06    -223.232E+06    -97.7477E+06     637.860E+03    -224.812E-03     449.720E-03    -224.908E-03     12.3661E-03    -224.909E-03     448.909E-03    -224.910E-03     12.6123E-03
             447     2.87500E-03     99.0721E-03    -107.010E+06    -207.007E+06    -83.0932E+06     1.00298E+06    -224.786E-03     449.712E-03    -224.926E-03     16.3113E-03    -224.901E-03     448.954E-03    -224.886E-03     16.5941E-03
             448     3.59384E-03     99.1003E-03    -100.976E+06    -189.189E+06    -66.9097E+06     1.46504E+06    -224.759E-03     449.705E-03    -224.946E-03     20.1809E-03    -224.895E-03     449.005E-03    -224.860E-03     20.4595E-03
             449     4.31273E-03     99.1342E-03    -94.2081E+06    -169.068E+06    -50.5967E+06     1.67368E+06    -224.752E-03     449.713E-03    -224.961E-03     23.9268E-03    -224.910E-03     449.083E-03    -224.832E-03     24.1540E-03
             450     5.03166E-03     99.1737E-03    -87.0175E+06    -147.338E+06    -35.0164E+06     1.86966E+06    -224.770E-03     449.741E-03    -224.971E-03     27.5525E-03    -224.950E-03     449.190E-03    -224.806E-03     27.6761E-03
             451     5.75058E-03     99.2185E-03    -79.7831E+06    -125.216E+06    -20.1342E+06     2.28406E+06    -224.777E-03     449.755E-03    -224.978E-03     31.0121E-03    -224.980E-03     449.288E-03    -224.781E-03     30.9769E-03
             452     6.46950E-03     99.2682E-03    -72.6601E+06    -101.204E+06    -6.13452E+06     2.66565E+06    -224.759E-03     449.735E-03    -224.976E-03     34.3299E-03    -224.989E-03     449.366E-03    -224.755E-03     34.0752E-03
             453     7.18857E-03     99.3223E-03    -65.4565E+06    -75.1223E+06     6.99495E+06     2.83458E+06    -224.736E-03     449.701E-03    -224.965E-03     37.4988E-03    -224.998E-03     449.444E-03    -224.727E-03     36.9597E-03
             454     7.90773E-03     99.3807E-03    -58.3890E+06    -44.6531E+06     19.8240E+06     3.07884E+06    -224.713E-03     449.659E-03    -224.946E-03     40.4838E-03    -225.017E-03     449.540E-03    -224.697E-03     39.6017E-03
             455     8.62676E-03     99.4429E-03    -51.7629E+06    -8.77478E+06     32.2822E+06     3.59713E+06    -224.658E-03     449.573E-03    -224.915E-03     43.2939E-03    -225.017E-03     449.624E-03    -224.666E-03     42.0130E-03
             456     9.34601E-03     99.5086E-03    -44.0700E+06     22.3501E+06     43.5927E+06     4.69843E+06    -224.590E-03     449.473E-03    -224.883E-03     45.9382E-03    -224.995E-03     449.675E-03    -224.633E-03     44.2072E-03
             457     10.0654E-03     99.5775E-03    -35.8456E+06     46.8726E+06     55.8774E+06     5.19456E+06    -224.535E-03     449.397E-03    -224.862E-03     48.2677E-03    -224.979E-03     449.719E-03    -224.598E-03     46.0374E-03
             458     10.7846E-03     99.6482E-03    -29.6089E+06     61.4159E+06     68.0484E+06     4.18634E+06    -224.469E-03     449.326E-03    -224.857E-03     49.9650E-03    -224.949E-03     449.722E-03    -224.563E-03     47.1966E-03
             459     11.5043E-03     99.7199E-03    -24.3276E+06     67.1434E+06     80.8131E+06     2.82711E+06    -224.413E-03     449.284E-03    -224.870E-03     50.6920E-03    -224.922E-03     449.710E-03    -224.529E-03     47.3938E-03
             460     12.2237E-03     99.7912E-03    -17.8558E+06     74.2459E+06     93.9925E+06     1.60062E+06    -224.457E-03     449.345E-03    -224.888E-03     50.1993E-03    -224.981E-03     449.797E-03    -224.500E-03     46.4680E-03
             461     12.9423E-03     99.8607E-03    -11.9968E+06     79.4110E+06      99.681E+06     1.59303E+06    -224.570E-03     449.452E-03    -224.882E-03     49.8712E-03    -225.105E-03     449.937E-03    -224.481E-03     45.6824E-03
             462     13.6618E-03     99.9299E-03    -5.96999E+06     83.9061E+06     100.034E+06     999.397E+03    -224.250E-03     449.101E-03    -224.850E-03     43.8811E-03    -224.720E-03     449.557E-03    -224.463E-03     40.0913E-03
             463     718.834E-06     100.509E-03    -119.627E+06    -246.204E+06    -117.648E+06     410.155E+03    -224.781E-03     449.713E-03    -224.932E-03     4.68203E-03    -224.851E-03     448.826E-03    -224.990E-03     4.78354E-03
             464     1.43755E-03     100.519E-03    -116.934E+06    -237.414E+06    -109.754E+06     627.437E+03    -224.861E-03     449.741E-03    -224.879E-03     8.41895E-03    -224.943E-03     448.882E-03    -224.914E-03     8.60512E-03
             465     2.15615E-03     100.535E-03    -112.804E+06    -224.485E+06    -97.9731E+06     962.371E+03    -224.846E-03     449.753E-03    -224.907E-03     12.4061E-03    -224.943E-03     448.937E-03    -224.908E-03     12.6543E-03
             466     2.87492E-03     100.557E-03    -107.613E+06    -208.370E+06    -83.3806E+06     1.36057E+06    -224.791E-03     449.723E-03    -224.931E-03     16.3268E-03    -224.908E-03     448.959E-03    -224.890E-03     16.6116E-03
             467     3.59382E-03     100.586E-03    -101.109E+06    -190.383E+06    -67.2796E+06     1.65245E+06    -224.777E-03     449.728E-03    -224.951E-03     20.1303E-03    -224.911E-03     449.023E-03    -224.865E-03     20.4139E-03
             468     4.31268E-03     100.620E-03    -94.1145E+06    -170.265E+06    -51.0218E+06     2.00759E+06    -224.793E-03     449.762E-03    -224.969E-03     23.8698E-03    -224.948E-03     449.127E-03    -224.841E-03     24.1023E-03
             469     5.03154E-03     100.659E-03    -87.1386E+06    -148.687E+06    -35.3008E+06     2.48524E+06    -224.779E-03     449.762E-03    -224.983E-03     27.5309E-03    -224.957E-03     449.205E-03    -224.817E-03     27.6637E-03
             470     5.75046E-03     100.704E-03    -80.0038E+06    -126.393E+06    -20.3459E+06     2.74132E+06    -224.746E-03     449.733E-03    -224.987E-03     31.0615E-03    -224.948E-03     449.261E-03    -224.790E-03     31.0350E-03
             471     6.46955E-03     100.754E-03    -72.6703E+06    -102.641E+06    -6.39827E+06     3.01024E+06    -224.738E-03     449.719E-03    -224.981E-03     34.4282E-03    -224.966E-03     449.343E-03    -224.759E-03     34.1833E-03
             472     7.18859E-03     100.808E-03    -65.8492E+06    -76.2421E+06     6.73622E+06     3.47831E+06    -224.742E-03     449.711E-03    -224.969E-03     37.5983E-03    -225.004E-03     449.449E-03    -224.729E-03     37.0750E-03
             473     7.90760E-03     100.866E-03    -59.3877E+06    -46.3738E+06     19.2436E+06     4.07650E+06    -224.704E-03     449.653E-03    -224.948E-03     40.5727E-03    -225.010E-03     449.527E-03    -224.699E-03     39.7132E-03
             474     8.62688E-03     100.929E-03    -52.8895E+06    -9.98658E+06     31.9932E+06     4.48237E+06    -224.615E-03     449.532E-03    -224.917E-03     43.4108E-03    -224.977E-03     449.578E-03    -224.666E-03     42.1494E-03
             475     9.34604E-03     100.994E-03    -46.7630E+06     21.8355E+06     42.6000E+06     3.60252E+06    -224.523E-03     449.401E-03    -224.878E-03     46.0580E-03    -224.940E-03     449.606E-03    -224.629E-03     44.3128E-03
             476     10.0654E-03     101.063E-03    -40.2438E+06     45.9654E+06     51.9951E+06     3.05852E+06    -224.434E-03     449.275E-03    -224.841E-03     48.2573E-03    -224.894E-03     449.604E-03    -224.589E-03     45.9932E-03
             477     10.7850E-03     101.134E-03    -32.3708E+06     62.1797E+06     66.3053E+06     3.55164E+06    -224.420E-03     449.259E-03    -224.839E-03     49.7396E-03    -224.913E-03     449.666E-03    -224.551E-03     46.9510E-03
             478     11.5042E-03     101.205E-03    -24.2123E+06     69.3469E+06     82.9318E+06     2.87829E+06    -224.452E-03     449.319E-03    -224.867E-03     50.4359E-03    -224.966E-03     449.753E-03    -224.518E-03     47.1321E-03
             479     12.2233E-03     101.277E-03    -17.7302E+06     75.4996E+06     94.6877E+06     2.06949E+06    -224.360E-03     449.238E-03    -224.878E-03     50.1947E-03    -224.886E-03     449.694E-03    -224.488E-03     46.5001E-03
             480     12.9432E-03     101.346E-03    -11.5635E+06     80.9413E+06     100.298E+06     1.48122E+06    -224.217E-03     449.076E-03    -224.859E-03     49.6258E-03    -224.751E-03     449.566E-03    -224.458E-03     45.4549E-03
             481     13.6633E-03     101.413E-03    -5.21002E+06     85.5867E+06     100.855E+06     464.622E+03    -224.286E-03     449.108E-03    -224.822E-03     43.0707E-03    -224.755E-03     449.569E-03    -224.434E-03     39.2494E-03
             482     718.587E-06     101.995E-03    -119.703E+06    -247.800E+06    -117.737E+06     485.295E+03    -224.901E-03     449.746E-03    -224.845E-03     4.55957E-03    -224.970E-03     448.851E-03    -224.901E-03     4.66010E-03
             483     1.43735E-03     102.005E-03    -116.963E+06    -238.958E+06    -109.818E+06     880.058E+03    -224.830E-03     449.716E-03    -224.886E-03     8.43087E-03    -224.909E-03     448.850E-03    -224.919E-03     8.62364E-03
             484     2.15626E-03     102.021E-03    -112.857E+06    -225.893E+06    -97.8908E+06     1.27599E+06    -224.839E-03     449.743E-03    -224.904E-03     12.3861E-03    -224.934E-03     448.919E-03    -224.903E-03     12.6414E-03
             485     2.87502E-03     102.043E-03    -107.328E+06    -209.749E+06    -83.3006E+06     1.59863E+06    -224.841E-03     449.774E-03    -224.933E-03     16.3008E-03    -224.954E-03     449.003E-03    -224.890E-03     16.5888E-03
             486     3.59374E-03     102.071E-03    -101.142E+06    -191.665E+06    -67.4798E+06     1.90007E+06    -224.806E-03     449.766E-03    -224.960E-03     20.1683E-03    -224.938E-03     449.055E-03    -224.873E-03     20.4549E-03
             487     4.31258E-03     102.105E-03     -94.359E+06    -171.724E+06    -51.1534E+06     2.19665E+06    -224.768E-03     449.745E-03    -224.978E-03     23.9854E-03    -224.921E-03     449.103E-03    -224.848E-03     24.2235E-03
             488     5.03150E-03     102.145E-03    -86.9137E+06    -150.217E+06    -35.1191E+06     2.52745E+06    -224.739E-03     449.725E-03    -224.986E-03     27.6608E-03    -224.914E-03     449.160E-03    -224.817E-03     27.7981E-03
             489     5.75056E-03     102.189E-03    -79.3195E+06    -127.795E+06    -20.0798E+06     3.00908E+06    -224.733E-03     449.718E-03    -224.985E-03     31.1583E-03    -224.929E-03     449.238E-03    -224.785E-03     31.1399E-03
             490     6.46955E-03     102.239E-03    -72.1437E+06    -104.239E+06    -6.04440E+06     3.55546E+06    -224.741E-03     449.720E-03    -224.980E-03     34.4722E-03    -224.964E-03     449.335E-03    -224.754E-03     34.2389E-03
             491     7.18862E-03     102.293E-03    -64.9844E+06    -78.1583E+06     7.23659E+06     4.20831E+06    -224.724E-03     449.691E-03    -224.967E-03     37.6353E-03    -224.979E-03     449.417E-03    -224.723E-03     37.1271E-03
             492     7.90778E-03     102.352E-03    -57.7805E+06    -48.0122E+06     20.2397E+06     4.68213E+06    -224.670E-03     449.615E-03    -224.945E-03     40.6243E-03    -224.967E-03     449.477E-03    -224.690E-03     39.7761E-03
             493     8.62687E-03     102.414E-03    -50.3679E+06    -11.0111E+06     33.4678E+06     4.82079E+06    -224.579E-03     449.489E-03    -224.910E-03     43.4624E-03    -224.930E-03     449.525E-03    -224.654E-03     42.2087E-03
             494     9.34628E-03     102.480E-03    -42.6605E+06     24.1796E+06     45.8404E+06     4.38738E+06    -224.520E-03     449.391E-03    -224.871E-03     46.0802E-03    -224.924E-03     449.597E-03    -224.615E-03     44.3473E-03
             495     10.0656E-03     102.548E-03    -35.8450E+06     46.3460E+06     56.9212E+06     3.17832E+06    -224.526E-03     449.374E-03    -224.848E-03     48.2873E-03    -224.971E-03     449.691E-03    -224.579E-03     46.0218E-03
             496     10.7847E-03     102.619E-03    -29.9731E+06     61.0295E+06     68.9159E+06     2.57796E+06    -224.482E-03     449.326E-03    -224.844E-03     49.8612E-03    -224.966E-03     449.721E-03    -224.545E-03     47.0564E-03
             497     11.5042E-03     102.691E-03    -24.1970E+06     71.1799E+06     82.1406E+06     2.57862E+06    -224.362E-03     449.215E-03    -224.854E-03     50.6170E-03    -224.878E-03     449.660E-03    -224.511E-03     47.3138E-03
             498     12.2238E-03     102.762E-03    -17.4311E+06     76.6509E+06     94.0063E+06     1.94480E+06    -224.249E-03     449.109E-03    -224.860E-03     50.2033E-03    -224.774E-03     449.572E-03    -224.476E-03     46.4962E-03
             499     12.9431E-03     102.831E-03    -10.5582E+06     82.1722E+06     100.712E+06     1.30793E+06    -224.236E-03     449.080E-03    -224.843E-03     49.6812E-03    -224.768E-03     449.574E-03    -224.444E-03     45.5043E-03
             500     13.6614E-03     102.900E-03    -5.24362E+06     86.7883E+06     101.205E+06     956.819E+03    -224.216E-03     449.023E-03    -224.806E-03     43.6838E-03    -224.688E-03     449.490E-03    -224.418E-03     39.8859E-03
             501     718.792E-06     103.480E-03    -119.853E+06    -249.436E+06    -118.073E+06     439.485E+03    -224.832E-03     449.727E-03    -224.895E-03     4.56605E-03    -224.899E-03     448.825E-03    -224.950E-03     4.66726E-03
             502     1.43752E-03     103.490E-03    -117.100E+06    -240.658E+06    -110.158E+06     818.321E+03    -224.846E-03     449.727E-03    -224.881E-03     8.47404E-03    -224.923E-03     448.853E-03    -224.913E-03     8.66769E-03
             503     2.15616E-03     103.506E-03    -112.690E+06    -227.337E+06    -98.1967E+06     1.17213E+06    -224.823E-03     449.724E-03    -224.901E-03     12.4413E-03    -224.915E-03     448.894E-03    -224.899E-03     12.7014E-03
             504     2.87491E-03     103.529E-03    -107.240E+06    -211.288E+06    -83.4821E+06     1.47638E+06    -224.806E-03     449.731E-03    -224.924E-03     16.4079E-03    -224.916E-03     448.952E-03    -224.880E-03     16.6994E-03
             505     3.59377E-03     103.557E-03    -100.828E+06    -193.038E+06    -67.1671E+06     1.85423E+06    -224.785E-03     449.733E-03    -224.948E-03     20.3170E-03    -224.914E-03     449.014E-03    -224.858E-03     20.6051E-03
             506     4.31270E-03     103.591E-03    -93.7075E+06    -172.846E+06    -50.6450E+06     2.11236E+06    -224.755E-03     449.720E-03    -224.965E-03     24.0976E-03    -224.905E-03     449.070E-03    -224.831E-03     24.3368E-03
             507     5.03171E-03     103.630E-03    -86.3061E+06    -151.759E+06    -34.8181E+06     2.39741E+06    -224.745E-03     449.718E-03    -224.973E-03     27.6909E-03    -224.915E-03     449.143E-03    -224.802E-03     27.8269E-03
             508     5.75061E-03     103.675E-03    -78.8544E+06    -129.827E+06    -19.7433E+06     2.89878E+06    -224.744E-03     449.721E-03    -224.976E-03     31.1830E-03    -224.936E-03     449.229E-03    -224.772E-03     31.1635E-03
             509     6.46963E-03     103.725E-03    -71.2466E+06    -106.050E+06    -5.39728E+06     3.44528E+06    -224.728E-03     449.699E-03    -224.972E-03     34.5471E-03    -224.945E-03     449.303E-03    -224.742E-03     34.3143E-03
             510     7.18868E-03     103.779E-03    -63.5384E+06    -79.7285E+06     8.18816E+06     3.72440E+06    -224.688E-03     449.645E-03    -224.957E-03     37.7239E-03    -224.936E-03     449.360E-03    -224.708E-03     37.2104E-03
             511     7.90783E-03     103.837E-03    -55.7203E+06    -49.6785E+06     21.3418E+06     4.06528E+06    -224.644E-03     449.577E-03    -224.933E-03     40.6950E-03    -224.930E-03     449.426E-03    -224.673E-03     39.8388E-03
             512     8.62717E-03     103.899E-03    -48.3493E+06    -11.9742E+06     34.8403E+06     4.45176E+06    -224.597E-03     449.495E-03    -224.898E-03     43.4852E-03    -224.938E-03     449.521E-03    -224.637E-03     42.2231E-03
             513     9.34634E-03     103.965E-03    -42.1781E+06     24.5100E+06     46.8925E+06     4.50382E+06    -224.533E-03     449.394E-03    -224.860E-03     46.0563E-03    -224.937E-03     449.599E-03    -224.600E-03     44.3262E-03
             514     10.0657E-03     104.034E-03    -36.4311E+06     46.8920E+06     56.8695E+06     4.77824E+06    -224.478E-03     449.311E-03    -224.833E-03     48.3198E-03    -224.926E-03     449.631E-03    -224.564E-03     46.0878E-03
             515     10.7851E-03     104.104E-03    -30.6373E+06     61.9758E+06     68.8670E+06     4.37814E+06    -224.390E-03     449.215E-03    -224.825E-03     50.0305E-03    -224.878E-03     449.615E-03    -224.526E-03     47.2647E-03
             516     11.5045E-03     104.176E-03    -24.4628E+06     72.4704E+06     82.4496E+06     3.06196E+06    -224.285E-03     449.116E-03    -224.830E-03     50.8256E-03    -224.805E-03     449.567E-03    -224.488E-03     47.5368E-03
             517     12.2238E-03     104.247E-03    -17.9253E+06     77.8474E+06     93.8378E+06     2.11350E+06    -224.257E-03     449.091E-03    -224.834E-03     50.5142E-03    -224.787E-03     449.562E-03    -224.452E-03     46.8176E-03
             518     12.9432E-03     104.317E-03    -11.6957E+06     83.4075E+06     100.502E+06     1.60189E+06    -224.247E-03     449.066E-03    -224.820E-03     49.9476E-03    -224.786E-03     449.568E-03    -224.421E-03     45.7910E-03
             519     13.6643E-03     104.384E-03    -5.74083E+06     88.1625E+06     101.463E+06     651.198E+03    -224.186E-03     448.971E-03    -224.784E-03     43.6615E-03    -224.663E-03     449.445E-03    -224.397E-03     39.8570E-03
             520     718.707E-06     104.965E-03    -119.812E+06    -250.909E+06    -117.796E+06     424.836E+03    -224.863E-03     449.711E-03    -224.848E-03     4.63410E-03    -224.927E-03     448.801E-03    -224.899E-03     4.74474E-03
             521     1.43740E-03     104.976E-03    -116.989E+06    -242.002E+06    -110.187E+06     640.804E+03    -224.837E-03     449.709E-03    -224.872E-03     8.44032E-03    -224.911E-03     448.828E-03    -224.902E-03     8.63361E-03
             522     2.15625E-03     104.992E-03    -112.883E+06    -228.772E+06    -98.4845E+06     1.01484E+06    -224.779E-03     449.664E-03    -224.885E-03     12.4710E-03    -224.869E-03     448.827E-03    -224.882E-03     12.7290E-03
             523     2.87516E-03     105.014E-03    -107.589E+06    -212.618E+06    -83.6605E+06     1.32805E+06    -224.744E-03     449.644E-03    -224.900E-03     16.4385E-03    -224.853E-03     448.859E-03    -224.854E-03     16.7301E-03
             524     3.59402E-03     105.042E-03    -101.029E+06    -194.177E+06    -67.3537E+06     1.42041E+06    -224.753E-03     449.671E-03    -224.918E-03     20.3158E-03    -224.881E-03     448.947E-03    -224.827E-03     20.6000E-03
             525     4.31285E-03     105.076E-03    -93.8078E+06    -174.220E+06    -50.9193E+06     1.74409E+06    -224.758E-03     449.695E-03    -224.937E-03     24.0951E-03    -224.906E-03     449.039E-03    -224.803E-03     24.3291E-03
             526     5.03166E-03     105.116E-03    -86.6078E+06    -153.239E+06    -34.9355E+06     2.21705E+06    -224.741E-03     449.692E-03    -224.950E-03     27.7755E-03    -224.910E-03     449.110E-03    -224.777E-03     27.9107E-03
             527     5.75070E-03     105.160E-03    -79.1315E+06    -131.195E+06    -19.7742E+06     2.48237E+06    -224.719E-03     449.674E-03    -224.955E-03     31.3105E-03    -224.911E-03     449.176E-03    -224.748E-03     31.2881E-03
             528     6.46977E-03     105.210E-03    -71.3600E+06    -107.506E+06    -5.64361E+06     2.64836E+06    -224.685E-03     449.632E-03    -224.947E-03     34.6613E-03    -224.900E-03     449.229E-03    -224.716E-03     34.4203E-03
             529     7.18893E-03     105.264E-03    -63.8277E+06    -81.3258E+06     7.73935E+06     3.07870E+06    -224.660E-03     449.591E-03    -224.931E-03     37.8342E-03    -224.906E-03     449.299E-03    -224.682E-03     37.3134E-03
             530     7.90811E-03     105.323E-03    -56.9601E+06    -51.3240E+06     20.6295E+06     3.60987E+06    -224.650E-03     449.558E-03    -224.907E-03     40.8069E-03    -224.938E-03     449.402E-03    -224.647E-03     39.9467E-03
             531     8.62721E-03     105.385E-03    -50.4372E+06    -14.5613E+06     33.6054E+06     4.68534E+06    -224.591E-03     449.467E-03    -224.875E-03     43.6001E-03    -224.937E-03     449.485E-03    -224.613E-03     42.3454E-03
             532     9.34651E-03     105.450E-03    -43.9332E+06     22.9505E+06     45.5809E+06     6.14380E+06    -224.485E-03     449.320E-03    -224.835E-03     46.2276E-03    -224.894E-03     449.522E-03    -224.576E-03     44.5248E-03
             533     10.0658E-03     105.519E-03    -37.6166E+06     47.3326E+06     55.2679E+06     5.78390E+06    -224.388E-03     449.187E-03    -224.799E-03     48.4863E-03    -224.841E-03     449.514E-03    -224.536E-03     46.2729E-03
             534     10.7854E-03     105.589E-03    -30.7356E+06     63.3684E+06     67.2811E+06     4.61463E+06    -224.299E-03     449.082E-03    -224.784E-03     50.0507E-03    -224.787E-03     449.491E-03    -224.495E-03     47.2951E-03
             535     11.5050E-03     105.661E-03    -23.9365E+06     74.2674E+06     82.3721E+06     3.93900E+06    -224.258E-03     449.051E-03    -224.793E-03     50.8362E-03    -224.777E-03     449.510E-03    -224.454E-03     47.5629E-03
             536     12.2245E-03     105.733E-03    -18.0895E+06     79.2621E+06     94.8455E+06     2.92171E+06    -224.297E-03     449.103E-03    -224.806E-03     50.5189E-03    -224.831E-03     449.579E-03    -224.421E-03     46.8349E-03
             537     12.9442E-03     105.802E-03    -11.7886E+06     85.2087E+06     101.475E+06     1.42764E+06    -224.306E-03     449.102E-03    -224.796E-03     49.8606E-03    -224.850E-03     449.613E-03    -224.395E-03     45.6787E-03
             538     13.6616E-03     105.871E-03    -4.83350E+06     89.8523E+06     102.548E+06     202.291E+03    -223.939E-03     448.696E-03    -224.757E-03     43.9220E-03    -224.417E-03     449.178E-03    -224.367E-03     40.0969E-03
             539     718.727E-06     106.451E-03    -120.065E+06    -252.461E+06    -118.466E+06     595.818E+03    -224.849E-03     449.686E-03    -224.837E-03     4.60582E-03    -224.911E-03     448.769E-03    -224.889E-03     4.72283E-03
             540     1.43751E-03     106.461E-03    -117.728E+06    -243.059E+06    -110.571E+06     775.842E+03    -224.793E-03     449.647E-03    -224.853E-03     8.46417E-03    -224.869E-03     448.762E-03    -224.883E-03     8.65481E-03
             541     2.15629E-03     106.477E-03    -113.517E+06    -230.023E+06    -98.7580E+06     875.424E+03    -224.751E-03     449.613E-03    -224.862E-03     12.4486E-03    -224.842E-03     448.771E-03    -224.858E-03     12.6996E-03
             542     2.87508E-03     106.499E-03    -107.816E+06    -213.733E+06    -84.0065E+06     1.18250E+06    -224.720E-03     449.595E-03    -224.875E-03     16.4116E-03    -224.828E-03     448.805E-03    -224.829E-03     16.7011E-03
             543     3.59397E-03     106.528E-03    -101.570E+06    -195.086E+06    -67.8738E+06     1.50070E+06    -224.697E-03     449.587E-03    -224.890E-03     20.3406E-03    -224.826E-03     448.860E-03    -224.799E-03     20.6294E-03
             544     4.31293E-03     106.562E-03    -94.9295E+06    -175.522E+06    -51.5579E+06     1.66212E+06    -224.681E-03     449.584E-03    -224.903E-03     24.1614E-03    -224.831E-03     448.924E-03    -224.769E-03     24.3974E-03
             545     5.03202E-03     106.601E-03    -87.4437E+06    -154.437E+06    -35.6019E+06     1.85736E+06    -224.675E-03     449.585E-03    -224.911E-03     27.8869E-03    -224.845E-03     449.000E-03    -224.738E-03     28.0199E-03
             546     5.75101E-03     106.646E-03    -79.8018E+06    -132.039E+06    -20.5151E+06     2.06014E+06    -224.677E-03     449.588E-03    -224.911E-03     31.4285E-03    -224.869E-03     449.088E-03    -224.707E-03     31.4043E-03
             547     6.47005E-03     106.695E-03    -72.4711E+06    -108.584E+06    -6.48042E+06     2.35859E+06    -224.671E-03     449.577E-03    -224.906E-03     34.7498E-03    -224.889E-03     449.171E-03    -224.676E-03     34.5069E-03
             548     7.18918E-03     106.749E-03    -65.2419E+06    -83.0527E+06     6.74795E+06     2.83997E+06    -224.655E-03     449.548E-03    -224.893E-03     37.9090E-03    -224.904E-03     449.251E-03    -224.644E-03     37.3882E-03
             549     7.90833E-03     106.808E-03    -58.1403E+06    -53.8306E+06     19.5724E+06     3.83368E+06    -224.603E-03     449.474E-03    -224.871E-03     40.9075E-03    -224.892E-03     449.309E-03    -224.611E-03     40.0561E-03
             550     8.62760E-03     106.870E-03    -51.2681E+06    -18.8324E+06     32.2557E+06     5.41305E+06    -224.507E-03     449.344E-03    -224.837E-03     43.7749E-03    -224.849E-03     449.344E-03    -224.574E-03     42.5388E-03
             551     9.34697E-03     106.935E-03    -44.2742E+06     20.8619E+06     44.7812E+06     6.21615E+06    -224.409E-03     449.200E-03    -224.791E-03     46.4133E-03    -224.815E-03     449.393E-03    -224.533E-03     44.7162E-03
             552     10.0665E-03     107.004E-03    -37.0913E+06     49.2942E+06     55.7503E+06     5.77900E+06    -224.377E-03     449.131E-03    -224.754E-03     48.6339E-03    -224.831E-03     449.467E-03    -224.493E-03     46.4171E-03
             553     10.7858E-03     107.075E-03    -30.8890E+06     64.5765E+06     67.1865E+06     4.71981E+06    -224.370E-03     449.112E-03    -224.743E-03     50.1564E-03    -224.861E-03     449.528E-03    -224.456E-03     47.3973E-03
             554     11.5052E-03     107.146E-03    -24.5474E+06     75.4549E+06     82.0748E+06     3.71296E+06    -224.337E-03     449.096E-03    -224.759E-03     50.8217E-03    -224.861E-03     449.563E-03    -224.423E-03     47.5381E-03
             555     12.2247E-03     107.218E-03    -17.3660E+06     80.9886E+06     95.6236E+06     3.14530E+06    -224.227E-03     449.004E-03    -224.777E-03     50.5638E-03    -224.761E-03     449.487E-03    -224.391E-03     46.8839E-03
             556     12.9435E-03     107.288E-03    -11.1493E+06     86.7974E+06     102.956E+06     1.98491E+06    -223.947E-03     448.707E-03    -224.760E-03     50.2956E-03    -224.494E-03     449.224E-03    -224.355E-03     46.1329E-03
             557     13.6653E-03     107.355E-03    -5.15079E+06     91.9491E+06     104.597E+06     528.825E+03    -223.903E-03     448.618E-03    -224.716E-03     44.1278E-03    -224.389E-03     449.109E-03    -224.318E-03     40.3161E-03
             558     718.760E-06     107.936E-03    -120.473E+06    -254.375E+06    -118.935E+06     571.168E+03    -224.691E-03     449.590E-03    -224.899E-03     4.62400E-03    -224.752E-03     448.665E-03    -224.950E-03     4.73367E-03
             559     1.43753E-03     107.946E-03    -118.039E+06    -244.139E+06    -111.286E+06     779.052E+03    -224.740E-03     449.541E-03    -224.802E-03     8.49767E-03    -224.815E-03     448.653E-03    -224.833E-03     8.68613E-03
             560     2.15634E-03     107.962E-03    -113.999E+06    -231.157E+06    -99.2635E+06     1.02792E+06    -224.716E-03     449.529E-03    -224.812E-03     12.5668E-03    -224.807E-03     448.682E-03    -224.808E-03     12.8201E-03
             561     2.87526E-03     107.984E-03    -108.722E+06    -214.931E+06    -84.6833E+06     1.31282E+06    -224.690E-03     449.519E-03    -224.830E-03     16.5727E-03    -224.800E-03     448.726E-03    -224.784E-03     16.8650E-03
             562     3.59420E-03     108.013E-03    -102.507E+06    -196.226E+06    -68.6147E+06     1.62996E+06    -224.648E-03     449.493E-03    -224.845E-03     20.4602E-03    -224.779E-03     448.762E-03    -224.755E-03     20.7521E-03
             563     4.31321E-03     108.047E-03    -95.4828E+06    -176.217E+06    -52.0287E+06     1.82516E+06    -224.620E-03     449.477E-03    -224.857E-03     24.2149E-03    -224.771E-03     448.814E-03    -224.723E-03     24.4561E-03
             564     5.03216E-03     108.086E-03    -88.2677E+06    -155.263E+06    -36.1912E+06     1.91584E+06    -224.616E-03     449.478E-03    -224.862E-03     27.8857E-03    -224.788E-03     448.891E-03    -224.690E-03     28.0224E-03
             565     5.75128E-03     108.131E-03    -81.0715E+06    -133.057E+06    -21.2830E+06     2.15847E+06    -224.611E-03     449.473E-03    -224.862E-03     31.4204E-03    -224.807E-03     448.970E-03    -224.658E-03     31.4023E-03
             566     6.47041E-03     108.181E-03    -73.8254E+06    -109.823E+06    -7.19835E+06     2.45714E+06    -224.614E-03     449.470E-03    -224.856E-03     34.8058E-03    -224.836E-03     449.061E-03    -224.626E-03     34.5708E-03
             567     7.18949E-03     108.235E-03    -66.6658E+06    -84.6518E+06     5.91707E+06     2.86135E+06    -224.589E-03     449.431E-03    -224.842E-03     38.0678E-03    -224.842E-03     449.129E-03    -224.593E-03     37.5556E-03
             568     7.90871E-03     108.293E-03    -59.3904E+06    -56.5204E+06     18.4155E+06     3.39961E+06    -224.521E-03     449.339E-03    -224.818E-03     41.0961E-03    -224.811E-03     449.163E-03    -224.557E-03     40.2457E-03
             569     8.62812E-03     108.355E-03    -51.6466E+06    -23.1153E+06     31.0991E+06     4.48524E+06    -224.455E-03     449.238E-03    -224.782E-03     43.8977E-03    -224.791E-03     449.218E-03    -224.519E-03     42.6527E-03
             570     9.34751E-03     108.421E-03    -44.1428E+06     18.9182E+06     44.5702E+06     5.73943E+06    -224.395E-03     449.134E-03    -224.738E-03     46.4834E-03    -224.797E-03     449.317E-03    -224.479E-03     44.7842E-03
             571     10.0668E-03     108.489E-03    -37.6094E+06     50.1882E+06     55.7564E+06     5.83087E+06    -224.388E-03     449.090E-03    -224.702E-03     48.6785E-03    -224.846E-03     449.431E-03    -224.442E-03     46.4665E-03
             572     10.7865E-03     108.560E-03    -30.9539E+06     66.0880E+06     67.4159E+06     5.18024E+06    -224.423E-03     449.119E-03    -224.696E-03     50.2518E-03    -224.917E-03     449.543E-03    -224.410E-03     47.4926E-03
             573     11.5056E-03     108.631E-03    -24.4651E+06     77.1607E+06     82.2092E+06     4.10226E+06    -224.366E-03     449.083E-03    -224.717E-03     51.1040E-03    -224.893E-03     449.559E-03    -224.383E-03     47.8186E-03
             574     12.2249E-03     108.703E-03    -18.2005E+06     82.3558E+06     95.7778E+06     2.59338E+06    -224.189E-03     448.928E-03    -224.739E-03     50.6951E-03    -224.732E-03     449.421E-03    -224.353E-03     46.9739E-03
             575     12.9458E-03     108.771E-03    -10.9206E+06     89.9050E+06     105.302E+06     1.70722E+06    -224.191E-03     448.929E-03    -224.738E-03     49.4236E-03    -224.745E-03     449.458E-03    -224.326E-03     45.1857E-03
             576     13.6640E-03     108.840E-03    -5.78762E+06     94.1632E+06     105.809E+06     1.27287E+06    -224.205E-03     448.914E-03    -224.708E-03     42.8292E-03    -224.697E-03     449.412E-03    -224.308E-03     38.9879E-03
             577     718.793E-06     109.421E-03    -121.647E+06    -255.992E+06    -119.814E+06     278.726E+03    -224.786E-03     449.428E-03    -224.642E-03     4.75377E-03    -224.850E-03     448.498E-03    -224.693E-03     4.85597E-03
             578     1.43769E-03     109.431E-03    -118.837E+06    -245.755E+06    -112.171E+06     812.139E+03    -224.666E-03     449.388E-03    -224.722E-03     8.52171E-03    -224.741E-03     448.494E-03    -224.754E-03     8.71301E-03
             579     2.15663E-03     109.447E-03    -114.792E+06    -232.550E+06    -100.093E+06     1.28789E+06    -224.649E-03     449.384E-03    -224.735E-03     12.5908E-03    -224.740E-03     448.533E-03    -224.732E-03     12.8540E-03
             580     2.87549E-03     109.470E-03    -109.599E+06    -216.132E+06    -85.2519E+06     1.55663E+06    -224.640E-03     449.398E-03    -224.758E-03     16.5862E-03    -224.752E-03     448.601E-03    -224.712E-03     16.8827E-03
             581     3.59441E-03     109.498E-03    -103.093E+06    -197.321E+06    -68.9547E+06     1.76484E+06    -224.603E-03     449.383E-03    -224.780E-03     20.4891E-03    -224.735E-03     448.648E-03    -224.689E-03     20.7828E-03
             582     4.31336E-03     109.532E-03    -95.9862E+06    -177.214E+06    -52.4006E+06     2.01264E+06    -224.576E-03     449.370E-03    -224.794E-03     24.3353E-03    -224.728E-03     448.704E-03    -224.660E-03     24.5848E-03
             583     5.03249E-03     109.571E-03    -88.8980E+06    -156.213E+06    -36.3700E+06     2.31037E+06    -224.568E-03     449.371E-03    -224.803E-03     28.0375E-03    -224.741E-03     448.780E-03    -224.629E-03     28.1882E-03
             584     5.75155E-03     109.616E-03    -81.6550E+06    -134.182E+06    -21.3242E+06     2.61707E+06    -224.545E-03     449.349E-03    -224.803E-03     31.5681E-03    -224.742E-03     448.841E-03    -224.597E-03     31.5628E-03
             585     6.47072E-03     109.665E-03    -74.4234E+06    -110.972E+06    -7.38812E+06     2.89817E+06    -224.504E-03     449.298E-03    -224.794E-03     34.9500E-03    -224.727E-03     448.884E-03    -224.562E-03     34.7287E-03
             586     7.19006E-03     109.720E-03    -67.2245E+06    -85.9590E+06     5.71040E+06     3.12247E+06    -224.479E-03     449.253E-03    -224.775E-03     38.1755E-03    -224.731E-03     448.946E-03    -224.524E-03     37.6724E-03
             587     7.90944E-03     109.778E-03    -60.1944E+06    -58.0054E+06     18.2426E+06     3.37837E+06    -224.486E-03     449.237E-03    -224.750E-03     41.1761E-03    -224.777E-03     449.055E-03    -224.488E-03     40.3273E-03
             588     8.62864E-03     109.840E-03    -53.4234E+06    -25.1229E+06     30.4650E+06     3.36428E+06    -224.480E-03     449.201E-03    -224.721E-03     43.9810E-03    -224.822E-03     449.175E-03    -224.454E-03     42.7199E-03
             589     9.34803E-03     109.905E-03    -45.9017E+06     15.4029E+06     43.5634E+06     4.05201E+06    -224.440E-03     449.124E-03    -224.685E-03     46.5569E-03    -224.844E-03     449.294E-03    -224.423E-03     44.8333E-03
             590     10.0676E-03     109.974E-03    -37.9537E+06     48.8783E+06     55.1394E+06     5.41640E+06    -224.418E-03     449.070E-03    -224.652E-03     48.7027E-03    -224.875E-03     449.406E-03    -224.392E-03     46.4822E-03
             591     10.7867E-03     110.045E-03    -31.2863E+06     67.6089E+06     66.7759E+06     5.20846E+06    -224.391E-03     449.036E-03    -224.645E-03     50.2876E-03    -224.888E-03     449.469E-03    -224.364E-03     47.5276E-03
             592     11.5064E-03     110.117E-03    -24.7968E+06     78.8539E+06     82.2517E+06     4.25081E+06    -224.371E-03     449.043E-03    -224.672E-03     50.9462E-03    -224.903E-03     449.528E-03    -224.339E-03     47.6412E-03
             593     12.2262E-03     110.188E-03    -17.7982E+06     85.2517E+06     97.3532E+06     3.14399E+06    -224.449E-03     449.158E-03    -224.709E-03     50.3664E-03    -224.997E-03     449.664E-03    -224.321E-03     46.6146E-03
             594     12.9438E-03     110.258E-03    -12.2822E+06     90.9850E+06     105.029E+06     1.79907E+06    -224.523E-03     449.246E-03    -224.723E-03     50.0432E-03    -225.088E-03     449.785E-03    -224.312E-03     45.8036E-03
             595     13.6631E-03     110.327E-03    -6.28958E+06     95.2509E+06     105.641E+06     1.30950E+06    -223.965E-03     448.660E-03    -224.695E-03     43.9787E-03    -224.465E-03     449.169E-03    -224.296E-03     40.1248E-03
             596     718.943E-06     110.906E-03    -122.326E+06    -257.222E+06    -120.363E+06     307.086E+03    -224.661E-03     449.167E-03    -224.506E-03     4.61988E-03    -224.725E-03     448.233E-03    -224.558E-03     4.71726E-03
             597     1.43780E-03     110.916E-03    -119.549E+06    -247.643E+06    -112.396E+06     759.648E+03    -224.618E-03     449.229E-03    -224.611E-03     8.60588E-03    -224.694E-03     448.327E-03    -224.641E-03     8.79825E-03
             598     2.15668E-03     110.932E-03    -115.280E+06    -234.195E+06    -100.446E+06     1.25890E+06    -224.601E-03     449.247E-03    -224.647E-03     12.6526E-03    -224.692E-03     448.389E-03    -224.642E-03     12.9200E-03
             599     2.87568E-03     110.954E-03    -109.686E+06    -217.407E+06    -85.3851E+06     1.63116E+06    -224.549E-03     449.224E-03    -224.675E-03     16.6583E-03    -224.659E-03     448.421E-03    -224.628E-03     16.9622E-03
             600     3.59471E-03     110.983E-03    -103.282E+06    -198.582E+06    -68.9913E+06     1.89818E+06    -224.520E-03     449.216E-03    -224.696E-03     20.5877E-03    -224.650E-03     448.475E-03    -224.603E-03     20.8903E-03
             601     4.31386E-03     111.016E-03    -96.3144E+06    -178.563E+06    -52.3824E+06     2.26142E+06    -224.506E-03     449.218E-03    -224.712E-03     24.4405E-03    -224.657E-03     448.545E-03    -224.575E-03     24.6995E-03
             602     5.03291E-03     111.056E-03    -88.9021E+06    -157.451E+06    -36.1375E+06     2.59888E+06    -224.492E-03     449.215E-03    -224.722E-03     28.1509E-03    -224.664E-03     448.617E-03    -224.546E-03     28.3098E-03
             603     5.75210E-03     111.101E-03    -81.3101E+06    -135.406E+06    -20.8815E+06     2.85267E+06    -224.471E-03     449.195E-03    -224.724E-03     31.6868E-03    -224.665E-03     448.680E-03    -224.514E-03     31.6855E-03
             604     6.47135E-03     111.150E-03    -73.8447E+06    -112.250E+06    -6.77412E+06     3.21791E+06    -224.455E-03     449.172E-03    -224.716E-03     35.0424E-03    -224.674E-03     448.749E-03    -224.480E-03     34.8231E-03
             605     7.19063E-03     111.204E-03    -66.6542E+06    -87.2118E+06     6.46354E+06     3.70702E+06    -224.471E-03     449.174E-03    -224.703E-03     38.2013E-03    -224.721E-03     448.859E-03    -224.448E-03     37.7064E-03
             606     7.90986E-03     111.263E-03    -59.7477E+06    -59.1912E+06     19.0463E+06     4.03743E+06    -224.498E-03     449.184E-03    -224.686E-03     41.1464E-03    -224.786E-03     448.994E-03    -224.418E-03     40.3099E-03
             607     8.62931E-03     111.325E-03    -53.1435E+06    -25.7322E+06     31.4888E+06     4.41689E+06    -224.521E-03     449.185E-03    -224.664E-03     43.9274E-03    -224.861E-03     449.154E-03    -224.392E-03     42.6837E-03
             608     9.34856E-03     111.391E-03    -47.2366E+06     14.0989E+06     43.8342E+06     4.09499E+06    -224.485E-03     449.121E-03    -224.636E-03     46.5267E-03    -224.895E-03     449.286E-03    -224.369E-03     44.8036E-03
             609     10.0677E-03     111.459E-03    -40.9262E+06     46.7770E+06     53.7777E+06     3.62688E+06    -224.441E-03     449.047E-03    -224.606E-03     48.7290E-03    -224.908E-03     449.379E-03    -224.346E-03     46.4832E-03
             610     10.7875E-03     111.530E-03    -33.2561E+06     67.6466E+06     65.8183E+06     4.17585E+06    -224.447E-03     449.050E-03    -224.603E-03     50.1952E-03    -224.953E-03     449.487E-03    -224.324E-03     47.4211E-03
             611     11.5067E-03     111.602E-03    -25.6288E+06     80.5715E+06     82.1112E+06     3.65822E+06    -224.448E-03     449.085E-03    -224.637E-03     50.8976E-03    -224.986E-03     449.579E-03    -224.306E-03     47.6010E-03
             612     12.2253E-03     111.674E-03    -18.7826E+06     86.7027E+06     96.3721E+06      2.7578E+06    -224.304E-03     448.975E-03    -224.671E-03     50.7465E-03    -224.855E-03     449.488E-03    -224.288E-03     47.0509E-03
             613     12.9460E-03     111.743E-03    -11.8008E+06     93.0967E+06     105.459E+06     2.62596E+06    -223.917E-03     448.585E-03    -224.668E-03     50.6298E-03    -224.481E-03     449.132E-03    -224.259E-03     46.4730E-03
             614     13.6662E-03     111.811E-03    -5.58113E+06     97.4930E+06     106.804E+06     1.50226E+06    -223.751E-03     448.375E-03    -224.624E-03     44.1773E-03    -224.252E-03     448.893E-03    -224.223E-03     40.3340E-03
             615     719.059E-06     112.390E-03    -122.360E+06    -258.795E+06    -120.670E+06     474.816E+03    -224.372E-03     448.977E-03    -224.605E-03     4.67483E-03    -224.434E-03     448.036E-03    -224.656E-03     4.77756E-03
             616     1.43809E-03     112.401E-03    -119.931E+06    -249.298E+06    -112.767E+06     845.450E+03    -224.504E-03     449.015E-03    -224.512E-03     8.57208E-03    -224.578E-03     448.106E-03    -224.540E-03     8.77025E-03
             617     2.15702E-03     112.417E-03    -115.625E+06    -235.747E+06    -100.545E+06     1.22086E+06    -224.486E-03     449.030E-03    -224.543E-03     12.6923E-03    -224.577E-03     448.164E-03    -224.536E-03     12.9626E-03
             618     2.87602E-03     112.439E-03    -109.982E+06    -219.012E+06    -85.5023E+06     1.57278E+06    -224.460E-03     449.031E-03    -224.572E-03     16.7229E-03    -224.569E-03     448.221E-03    -224.522E-03     17.0292E-03
             619     3.59515E-03     112.467E-03    -103.405E+06    -199.997E+06    -68.8847E+06     1.95411E+06    -224.446E-03     449.043E-03    -224.597E-03     20.6287E-03    -224.575E-03     448.295E-03    -224.502E-03     20.9342E-03
             620     4.31416E-03     112.501E-03    -96.2668E+06    -179.897E+06    -52.0541E+06     2.27271E+06    -224.433E-03     449.051E-03    -224.619E-03     24.4615E-03    -224.582E-03     448.371E-03    -224.478E-03     24.7192E-03
             621     5.03342E-03     112.540E-03    -88.7176E+06    -158.691E+06    -35.8028E+06     2.52736E+06    -224.407E-03     449.038E-03    -224.631E-03     28.1695E-03    -224.576E-03     448.433E-03    -224.451E-03     28.3263E-03
             622     5.75264E-03     112.585E-03    -81.1182E+06    -136.888E+06    -20.5458E+06     2.84084E+06    -224.407E-03     449.042E-03    -224.635E-03     31.6804E-03    -224.598E-03     448.518E-03    -224.422E-03     31.6803E-03
             623     6.47192E-03     112.635E-03    -73.5034E+06    -113.858E+06    -6.27114E+06     3.28839E+06    -224.456E-03     449.090E-03    -224.634E-03     35.0467E-03    -224.671E-03     448.658E-03    -224.394E-03     34.8326E-03
             624     7.19115E-03     112.689E-03    -65.9880E+06    -88.9063E+06     7.00914E+06     3.76685E+06    -224.509E-03     449.140E-03    -224.631E-03     38.2355E-03    -224.753E-03     448.814E-03    -224.371E-03     37.7466E-03
             625     7.91049E-03     112.747E-03    -58.5569E+06    -60.8090E+06     19.8035E+06     4.36374E+06    -224.547E-03     449.171E-03    -224.624E-03     41.2056E-03    -224.828E-03     448.971E-03    -224.352E-03     40.3813E-03
             626     8.62963E-03     112.810E-03    -51.2198E+06    -27.7312E+06     32.4451E+06     4.98017E+06    -224.546E-03     449.156E-03    -224.611E-03     44.0038E-03    -224.875E-03     449.111E-03    -224.334E-03     42.7793E-03
             627     9.34895E-03     112.875E-03    -43.7240E+06     15.2322E+06     46.3571E+06     5.01980E+06    -224.478E-03     449.066E-03    -224.588E-03     46.6227E-03    -224.875E-03     449.227E-03    -224.314E-03     44.9253E-03
             628     10.0685E-03     112.944E-03    -36.9108E+06     46.4147E+06     57.6430E+06     4.65831E+06    -224.474E-03     449.043E-03    -224.569E-03     48.9146E-03    -224.925E-03     449.361E-03    -224.294E-03     46.7027E-03
             629     10.7875E-03     113.015E-03    -31.3813E+06     66.4238E+06     67.7056E+06     4.34633E+06    -224.465E-03     449.029E-03    -224.564E-03     50.5767E-03    -224.962E-03     449.454E-03    -224.276E-03     47.8278E-03
             630     11.5068E-03     113.087E-03    -25.7286E+06     83.1250E+06     81.4488E+06     3.61984E+06    -224.272E-03     448.851E-03    -224.579E-03     51.4539E-03    -224.813E-03     449.359E-03    -224.255E-03     48.1831E-03
             631     12.2271E-03     113.158E-03    -18.9826E+06     88.4125E+06     95.6319E+06     2.53370E+06    -224.027E-03     448.630E-03    -224.603E-03     51.0928E-03    -224.583E-03     449.155E-03    -224.226E-03     47.3893E-03
             632     12.9460E-03     113.227E-03    -12.1803E+06     93.8425E+06     104.876E+06     1.85173E+06    -223.846E-03     448.443E-03    -224.597E-03     50.1093E-03    -224.413E-03     448.996E-03    -224.191E-03     45.8924E-03
             633     13.6658E-03     113.295E-03    -5.60153E+06     99.0204E+06     107.044E+06     1.35981E+06    -223.684E-03     448.240E-03    -224.556E-03     43.7352E-03    -224.188E-03     448.765E-03    -224.156E-03     39.8587E-03
             634     718.946E-06     113.875E-03    -123.759E+06    -260.389E+06    -121.700E+06     411.019E+03    -224.454E-03     448.877E-03    -224.424E-03     4.78869E-03    -224.518E-03     447.931E-03    -224.475E-03     4.89979E-03
             635     1.43796E-03     113.885E-03    -120.691E+06    -250.972E+06    -113.421E+06     841.146E+03    -224.370E-03     448.818E-03    -224.447E-03     8.54307E-03    -224.445E-03     447.902E-03    -224.475E-03     8.74021E-03
             636     2.15723E-03     113.901E-03    -116.331E+06    -237.225E+06    -100.997E+06     1.23316E+06    -224.347E-03     448.801E-03    -224.454E-03     12.5995E-03    -224.439E-03     447.931E-03    -224.447E-03     12.8695E-03
             637     2.87637E-03     113.923E-03    -110.611E+06    -220.367E+06    -85.6370E+06     1.50350E+06    -224.348E-03     448.822E-03    -224.475E-03     16.6366E-03    -224.458E-03     448.006E-03    -224.423E-03     16.9419E-03
             638     3.59543E-03     113.951E-03    -103.895E+06    -201.340E+06    -68.9721E+06     1.76518E+06    -224.334E-03     448.832E-03    -224.498E-03     20.6336E-03    -224.464E-03     448.078E-03    -224.400E-03     20.9376E-03
             639     4.31472E-03     113.985E-03    -96.5607E+06    -181.189E+06    -52.0960E+06     2.01140E+06    -224.337E-03     448.856E-03    -224.519E-03     24.5254E-03    -224.486E-03     448.170E-03    -224.376E-03     24.7820E-03
             640     5.03387E-03     114.025E-03    -88.8733E+06    -160.019E+06    -35.7611E+06     2.27714E+06    -224.358E-03     448.894E-03    -224.535E-03     28.2051E-03    -224.527E-03     448.282E-03    -224.353E-03     28.3604E-03
             641     5.75319E-03     114.069E-03    -81.2266E+06    -138.327E+06    -20.4538E+06     2.62978E+06    -224.397E-03     448.945E-03    -224.548E-03     31.7016E-03    -224.587E-03     448.415E-03    -224.332E-03     31.7058E-03
             642     6.47243E-03     114.119E-03    -73.4970E+06    -115.497E+06    -6.21547E+06     2.99979E+06    -224.452E-03     449.008E-03    -224.556E-03     35.0628E-03    -224.665E-03     448.568E-03    -224.313E-03     34.8581E-03
             643     7.19174E-03     114.173E-03    -65.7252E+06    -90.3490E+06     7.17956E+06     3.31015E+06    -224.503E-03     449.063E-03    -224.560E-03     38.2727E-03    -224.744E-03     448.729E-03    -224.298E-03     37.7899E-03
             644     7.91091E-03     114.232E-03    -58.1858E+06    -62.7888E+06     19.9369E+06     3.68450E+06    -224.532E-03     449.091E-03    -224.559E-03     41.3218E-03    -224.808E-03     448.880E-03    -224.284E-03     40.4991E-03
             645     8.63029E-03     114.294E-03    -50.6599E+06    -29.3133E+06     32.8499E+06     4.03419E+06    -224.504E-03     449.053E-03    -224.548E-03     44.1727E-03    -224.828E-03     448.998E-03    -224.268E-03     42.9457E-03
             646     9.34968E-03     114.360E-03    -43.8395E+06     13.2715E+06     46.5243E+06     5.00295E+06    -224.437E-03     448.963E-03    -224.527E-03     46.8143E-03    -224.831E-03     449.115E-03    -224.250E-03     45.1319E-03
             647     10.0689E-03     114.429E-03    -37.9346E+06     44.7678E+06     56.5963E+06     6.56319E+06    -224.374E-03     448.876E-03    -224.502E-03     49.1204E-03    -224.827E-03     449.189E-03    -224.229E-03     46.9518E-03
             648     10.7887E-03     114.500E-03    -32.0221E+06     68.2992E+06     67.1565E+06     6.23881E+06    -224.232E-03     448.718E-03    -224.487E-03     50.8412E-03    -224.734E-03     449.155E-03    -224.203E-03     48.1286E-03
             649     11.5083E-03     114.572E-03    -25.7728E+06     85.7484E+06     81.8516E+06     4.31099E+06    -224.090E-03     448.585E-03    -224.496E-03     51.6005E-03    -224.636E-03     449.107E-03    -224.174E-03     48.3294E-03
             650     12.2275E-03     114.643E-03    -19.3777E+06     90.3896E+06     95.6930E+06     2.94696E+06    -224.041E-03     448.560E-03    -224.520E-03     51.1824E-03    -224.602E-03     449.096E-03    -224.144E-03     47.4654E-03
             651     12.9476E-03     114.712E-03    -12.9945E+06     95.0537E+06     104.739E+06     1.78518E+06    -224.020E-03     448.543E-03    -224.524E-03     50.5822E-03    -224.596E-03     449.107E-03    -224.119E-03     46.3276E-03
             652     13.6668E-03     114.779E-03    -5.50414E+06     100.482E+06     107.636E+06     546.069E+03    -223.703E-03     448.196E-03    -224.493E-03     44.1652E-03    -224.214E-03     448.733E-03    -224.093E-03     40.2130E-03
             653     719.109E-06     115.359E-03    -124.103E+06    -261.675E+06    -122.101E+06     310.300E+03    -224.370E-03     448.660E-03    -224.290E-03     4.74462E-03    -224.434E-03     447.708E-03    -224.341E-03     4.85412E-03
             654     1.43829E-03     115.369E-03    -121.226E+06    -252.669E+06    -113.670E+06     711.980E+03    -224.317E-03     448.668E-03    -224.351E-03     8.63652E-03    -224.392E-03     447.745E-03    -224.377E-03     8.83017E-03
             655     2.15728E-03     115.385E-03    -116.670E+06    -238.800E+06    -101.274E+06     1.11195E+06    -224.258E-03     448.626E-03    -224.368E-03     12.6885E-03    -224.349E-03     447.749E-03    -224.359E-03     12.9555E-03
             656     2.87649E-03     115.407E-03    -111.022E+06    -221.482E+06    -85.9958E+06     1.42345E+06    -224.209E-03     448.590E-03    -224.381E-03     16.7299E-03    -224.319E-03     447.769E-03    -224.329E-03     17.0391E-03
             657     3.59588E-03     115.435E-03    -104.468E+06    -202.467E+06    -69.2345E+06     1.58941E+06    -224.226E-03     448.625E-03    -224.399E-03     20.6806E-03    -224.357E-03     447.867E-03    -224.300E-03     20.9896E-03
             658     4.31510E-03     115.469E-03    -97.1316E+06    -182.339E+06    -52.2696E+06     1.82009E+06    -224.269E-03     448.691E-03    -224.422E-03     24.4977E-03    -224.419E-03     448.000E-03    -224.278E-03     24.7595E-03
             659     5.03446E-03     115.509E-03    -89.4453E+06    -161.096E+06    -35.9146E+06     2.01018E+06    -224.322E-03     448.767E-03    -224.445E-03     28.1666E-03    -224.492E-03     448.151E-03    -224.261E-03     28.3263E-03
             660     5.75363E-03     115.554E-03    -81.6156E+06    -139.677E+06    -20.5959E+06     2.28765E+06    -224.385E-03     448.851E-03    -224.466E-03     31.7079E-03    -224.574E-03     448.314E-03    -224.248E-03     31.7170E-03
             661     6.47292E-03     115.603E-03    -73.9524E+06    -116.693E+06    -6.39235E+06     2.59701E+06    -224.424E-03     448.906E-03    -224.481E-03     35.1025E-03    -224.637E-03     448.460E-03    -224.237E-03     34.9032E-03
             662     7.19217E-03     115.658E-03    -66.5032E+06    -91.6593E+06     6.84510E+06     2.85490E+06    -224.437E-03     448.925E-03    -224.488E-03     38.3612E-03    -224.679E-03     448.586E-03    -224.224E-03     37.8848E-03
             663     7.91158E-03     115.716E-03    -59.2948E+06    -64.2312E+06     19.4911E+06     3.24949E+06    -224.433E-03     448.919E-03    -224.486E-03     41.4414E-03    -224.712E-03     448.702E-03    -224.209E-03     40.6247E-03
             664     8.63091E-03     115.779E-03    -52.7620E+06    -31.4077E+06     31.8483E+06     4.12249E+06    -224.411E-03     448.884E-03    -224.473E-03     44.2964E-03    -224.741E-03     448.823E-03    -224.192E-03     43.0836E-03
             665     9.35027E-03     115.845E-03    -46.3164E+06     8.45344E+06     44.6144E+06     6.02591E+06    -224.340E-03     448.790E-03    -224.450E-03     46.9796E-03    -224.737E-03     448.923E-03    -224.172E-03     45.3273E-03
             666     10.0699E-03     115.914E-03    -39.3330E+06     42.8617E+06     55.1568E+06     6.92477E+06    -224.225E-03     448.643E-03    -224.418E-03     49.2519E-03    -224.680E-03     448.950E-03    -224.147E-03     47.0938E-03
             667     10.7893E-03     115.984E-03    -32.1131E+06     70.4658E+06     66.2330E+06     6.18265E+06    -224.096E-03     448.490E-03    -224.394E-03     50.8031E-03    -224.601E-03     448.938E-03    -224.118E-03     48.0858E-03
             668     11.5091E-03     116.056E-03    -25.2522E+06     88.2295E+06     81.4941E+06     5.31564E+06    -224.067E-03     448.471E-03    -224.405E-03     51.5229E-03    -224.613E-03     449.005E-03    -224.089E-03     48.2701E-03
             669     12.2290E-03     116.128E-03    -19.1142E+06     92.8703E+06     96.2855E+06     3.52047E+06    -224.083E-03     448.523E-03    -224.439E-03     51.0149E-03    -224.647E-03     449.069E-03    -224.065E-03     47.3157E-03
             670     12.9483E-03     116.196E-03    -12.3293E+06     98.0634E+06     106.610E+06     1.73397E+06    -223.895E-03     448.346E-03    -224.451E-03     50.1889E-03    -224.474E-03     448.921E-03    -224.043E-03     45.9335E-03
             671     13.6683E-03     116.264E-03    -5.41997E+06     102.619E+06     109.291E+06     65.1659E+03    -223.757E-03     448.182E-03    -224.425E-03     43.8464E-03    -224.272E-03     448.725E-03    -224.020E-03     39.8946E-03
             672     719.272E-06     116.842E-03    -124.950E+06    -262.976E+06    -123.060E+06     462.955E+03    -224.078E-03     448.381E-03    -224.303E-03     4.76362E-03    -224.142E-03     447.426E-03    -224.356E-03     4.87945E-03
             673     1.43833E-03     116.852E-03    -122.175E+06    -254.036E+06    -114.668E+06     691.685E+03    -224.198E-03     448.413E-03    -224.215E-03     8.67777E-03    -224.275E-03     447.487E-03    -224.243E-03     8.87758E-03
             674     2.15765E-03     116.868E-03    -117.665E+06    -240.348E+06    -102.084E+06     997.340E+03    -224.175E-03     448.419E-03    -224.244E-03     12.7459E-03    -224.267E-03     447.536E-03    -224.236E-03     13.0129E-03
             675     2.87700E-03     116.890E-03    -111.807E+06    -222.742E+06    -86.6637E+06     1.31617E+06    -224.168E-03     448.440E-03    -224.273E-03     16.7682E-03    -224.279E-03     447.615E-03    -224.221E-03     17.0795E-03
             676     3.59619E-03     116.919E-03    -105.177E+06    -203.479E+06    -69.6870E+06     1.60214E+06    -224.197E-03     448.503E-03    -224.306E-03     20.6657E-03    -224.329E-03     447.742E-03    -224.207E-03     20.9807E-03
             677     4.31549E-03     116.953E-03    -97.9732E+06    -183.243E+06    -52.6012E+06     1.75346E+06    -224.229E-03     448.569E-03    -224.340E-03     24.4600E-03    -224.381E-03     447.875E-03    -224.195E-03     24.7289E-03
             678     5.03471E-03     116.993E-03    -90.3323E+06    -161.988E+06    -36.2741E+06     1.91248E+06    -224.262E-03     448.630E-03    -224.368E-03     28.1612E-03    -224.434E-03     448.011E-03    -224.184E-03     28.3331E-03
             679     5.75410E-03     117.038E-03    -82.5809E+06    -140.640E+06    -20.9985E+06     2.06622E+06    -224.309E-03     448.700E-03    -224.391E-03     31.7409E-03    -224.501E-03     448.160E-03    -224.172E-03     31.7596E-03
             680     6.47339E-03     117.088E-03    -74.8649E+06    -117.682E+06    -6.81043E+06     2.27344E+06    -224.341E-03     448.747E-03    -224.406E-03     35.1676E-03    -224.556E-03     448.298E-03    -224.161E-03     34.9735E-03
             681     7.19279E-03     117.142E-03    -67.3735E+06    -92.9500E+06     6.40861E+06     2.65650E+06    -224.337E-03     448.748E-03    -224.411E-03     38.4287E-03    -224.581E-03     448.404E-03    -224.146E-03     37.9600E-03
             682     7.91217E-03     117.201E-03    -60.1323E+06    -66.2521E+06     18.8847E+06     3.40592E+06    -224.321E-03     448.727E-03    -224.406E-03     41.5150E-03    -224.600E-03     448.502E-03    -224.129E-03     40.7139E-03
             683     8.63166E-03     117.263E-03    -52.8844E+06    -35.1570E+06     31.1060E+06     4.77065E+06    -224.289E-03     448.680E-03    -224.391E-03     44.3955E-03    -224.612E-03     448.600E-03    -224.108E-03     43.2052E-03
             684     9.35123E-03     117.329E-03    -45.6794E+06     3.70848E+06     44.0034E+06     6.23057E+06    -224.201E-03     448.566E-03    -224.364E-03     47.0771E-03    -224.587E-03     448.675E-03    -224.083E-03     45.4366E-03
             685     10.0707E-03     117.398E-03    -38.9150E+06     42.3160E+06     55.4865E+06     6.87423E+06    -224.117E-03     448.445E-03    -224.328E-03     49.3297E-03    -224.569E-03     448.748E-03    -224.056E-03     47.1789E-03
             686     10.7906E-03     117.469E-03    -32.4833E+06     72.8574E+06     66.4552E+06     5.77758E+06    -224.107E-03     448.409E-03    -224.302E-03     50.9384E-03    -224.616E-03     448.869E-03    -224.029E-03     48.2306E-03
             687     11.5101E-03     117.540E-03    -25.5812E+06     89.7007E+06     80.6654E+06     4.11728E+06    -224.073E-03     448.389E-03    -224.316E-03     51.6998E-03    -224.623E-03     448.932E-03    -224.005E-03     48.4340E-03
             688     12.2294E-03     117.612E-03    -17.5254E+06     95.7829E+06     97.2469E+06     3.39278E+06    -223.998E-03     448.354E-03    -224.357E-03     51.3505E-03    -224.561E-03     448.913E-03    -223.984E-03     47.6366E-03
             689     12.9490E-03     117.681E-03    -10.1773E+06     101.503E+06     109.406E+06     2.10178E+06    -223.957E-03     448.336E-03    -224.379E-03     50.5154E-03    -224.537E-03     448.923E-03    -223.965E-03     46.2318E-03
             690     13.6688E-03     117.747E-03    -5.18967E+06     104.238E+06     111.112E+06     588.592E+03    -224.035E-03     448.401E-03    -224.366E-03     44.0388E-03    -224.554E-03     448.949E-03    -223.954E-03     40.1222E-03
             691     719.193E-06     118.325E-03    -125.928E+06    -264.608E+06    -124.039E+06     408.557E+03    -224.056E-03     448.178E-03    -224.122E-03     4.78294E-03    -224.122E-03     447.217E-03    -224.176E-03     4.89588E-03
             692     1.43871E-03     118.335E-03    -123.190E+06    -255.362E+06    -115.714E+06     725.758E+03    -224.054E-03     448.159E-03    -224.104E-03     8.62591E-03    -224.132E-03     447.228E-03    -224.134E-03     8.83138E-03
             693     2.15795E-03     118.351E-03    -118.756E+06    -241.496E+06    -102.986E+06     957.228E+03    -224.115E-03     448.249E-03    -224.135E-03     12.6376E-03    -224.209E-03     447.363E-03    -224.127E-03     12.9110E-03
             694     2.87711E-03     118.374E-03    -112.899E+06    -224.071E+06    -87.2993E+06     1.26611E+06    -224.155E-03     448.339E-03    -224.183E-03     16.6907E-03    -224.269E-03     447.509E-03    -224.131E-03     17.0081E-03
             695     3.59644E-03     118.402E-03    -106.087E+06    -204.572E+06    -70.1931E+06     1.57929E+06    -224.153E-03     448.383E-03    -224.230E-03     20.6501E-03    -224.287E-03     447.618E-03    -224.131E-03     20.9730E-03
             696     4.31574E-03     118.437E-03    -98.6708E+06    -184.038E+06    -52.9145E+06     1.76791E+06    -224.160E-03     448.429E-03    -224.268E-03     24.5020E-03    -224.314E-03     447.732E-03    -224.123E-03     24.7803E-03
             697     5.03516E-03     118.476E-03    -91.0165E+06    -162.870E+06    -36.4979E+06     1.91594E+06    -224.195E-03     448.492E-03    -224.298E-03     28.2203E-03    -224.369E-03     447.871E-03    -224.112E-03     28.4038E-03
             698     5.75447E-03     118.521E-03    -83.2787E+06    -141.199E+06    -21.1389E+06     1.99826E+06    -224.216E-03     448.535E-03    -224.319E-03     31.7751E-03    -224.410E-03     447.994E-03    -224.100E-03     31.8037E-03
             699     6.47392E-03     118.571E-03    -75.5973E+06    -118.564E+06    -6.96076E+06     2.09825E+06    -224.225E-03     448.557E-03    -224.331E-03     35.1811E-03    -224.442E-03     448.104E-03    -224.085E-03     34.9938E-03
             700     7.19334E-03     118.626E-03    -68.0330E+06    -94.6680E+06     6.17126E+06     2.54593E+06    -224.239E-03     448.573E-03    -224.334E-03     38.4255E-03    -224.483E-03     448.221E-03    -224.067E-03     37.9643E-03
             701     7.91286E-03     118.684E-03    -60.5281E+06    -68.4517E+06     18.6748E+06     3.19697E+06    -224.223E-03     448.552E-03    -224.328E-03     41.4846E-03    -224.500E-03     448.316E-03    -224.048E-03     40.6879E-03
             702     8.63242E-03     118.747E-03    -52.9584E+06    -38.4339E+06     30.8993E+06     3.81574E+06    -224.176E-03     448.488E-03    -224.312E-03     44.3226E-03    -224.495E-03     448.393E-03    -224.025E-03     43.1224E-03
             703     9.35202E-03     118.813E-03    -45.3468E+06    -1.22406E+06     43.6221E+06     5.47488E+06    -224.119E-03     448.404E-03    -224.285E-03     46.9145E-03    -224.496E-03     448.489E-03    -223.999E-03     45.2606E-03
             704     10.0719E-03     118.882E-03    -38.1531E+06     41.0072E+06     56.0279E+06     6.91759E+06    -224.094E-03     448.344E-03    -224.250E-03     49.0916E-03    -224.541E-03     448.639E-03    -223.974E-03     46.9380E-03
             705     10.7914E-03     118.953E-03    -31.5542E+06     76.3566E+06     67.6416E+06     6.13527E+06    -224.079E-03     448.303E-03    -224.224E-03     50.6415E-03    -224.591E-03     448.778E-03    -223.951E-03     47.9294E-03
             706     11.5110E-03     119.025E-03    -25.0915E+06     93.1841E+06     82.0632E+06     3.81104E+06    -224.059E-03     448.303E-03    -224.244E-03     51.3831E-03    -224.614E-03     448.861E-03    -223.932E-03     48.0901E-03
             707     12.2310E-03     119.096E-03    -18.6959E+06     97.7479E+06     98.0859E+06     1.75204E+06    -224.034E-03     448.327E-03    -224.293E-03     50.7622E-03    -224.608E-03     448.897E-03    -223.917E-03     46.9833E-03
             708     12.9511E-03     119.165E-03    -11.1594E+06     102.842E+06     110.212E+06     1.66710E+06    -224.150E-03     448.479E-03    -224.328E-03     49.6755E-03    -224.740E-03     449.074E-03    -223.910E-03     45.3208E-03
             709     13.6700E-03     119.233E-03    -6.40604E+06     105.954E+06     111.881E+06     2.28608E+06    -224.215E-03     448.544E-03    -224.330E-03     43.4112E-03    -224.743E-03     449.101E-03    -223.914E-03     39.4794E-03
             710     719.375E-06     119.808E-03    -127.093E+06    -266.346E+06    -125.061E+06     496.119E+03    -224.091E-03     448.065E-03    -223.973E-03     4.59523E-03    -224.159E-03     447.099E-03    -224.028E-03     4.70739E-03
             711     1.43859E-03     119.818E-03    -124.258E+06    -256.556E+06    -116.478E+06     701.618E+03    -224.027E-03     448.082E-03    -224.055E-03     8.54300E-03    -224.107E-03     447.148E-03    -224.085E-03     8.75066E-03
             712     2.15798E-03     119.835E-03    -119.558E+06    -242.660E+06    -103.541E+06     922.699E+03    -224.045E-03     448.134E-03    -224.088E-03     12.5791E-03    -224.141E-03     447.244E-03    -224.081E-03     12.8624E-03
             713     2.87738E-03     119.857E-03    -113.671E+06    -225.277E+06    -87.6746E+06     1.24809E+06    -224.062E-03     448.191E-03    -224.130E-03     16.6522E-03    -224.177E-03     447.357E-03    -224.077E-03     16.9775E-03
             714     3.59668E-03     119.886E-03    -106.684E+06    -205.497E+06    -70.3711E+06     1.47067E+06    -224.070E-03     448.240E-03    -224.170E-03     20.6260E-03    -224.205E-03     447.471E-03    -224.069E-03     20.9540E-03
             715     4.31610E-03     119.920E-03    -99.1145E+06    -185.019E+06    -53.0055E+06     1.68515E+06    -224.088E-03     448.294E-03    -224.206E-03     24.4772E-03    -224.242E-03     447.593E-03    -224.059E-03     24.7631E-03
             716     5.03545E-03     119.960E-03    -91.3424E+06    -163.675E+06    -36.3426E+06     1.86264E+06    -224.115E-03     448.350E-03    -224.234E-03     28.1988E-03    -224.289E-03     447.724E-03    -224.046E-03     28.3893E-03
             717     5.75490E-03     120.005E-03    -83.4536E+06    -141.866E+06    -20.8155E+06     2.01336E+06    -224.137E-03     448.392E-03    -224.255E-03     31.7341E-03    -224.331E-03     447.847E-03    -224.033E-03     31.7682E-03
             718     6.47436E-03     120.055E-03    -75.7821E+06    -119.552E+06    -6.61393E+06     2.26451E+06    -224.149E-03     448.416E-03    -224.267E-03     35.1087E-03    -224.366E-03     447.958E-03    -224.017E-03     34.9265E-03
             719     7.19392E-03     120.109E-03    -68.3793E+06    -96.1359E+06     6.36396E+06     2.56397E+06    -224.162E-03     448.431E-03    -224.269E-03     38.3068E-03    -224.405E-03     448.072E-03    -223.999E-03     37.8455E-03
             720     7.91342E-03     120.168E-03    -61.1019E+06    -70.1604E+06     18.6041E+06     2.94821E+06    -224.167E-03     448.430E-03    -224.263E-03     41.3086E-03    -224.444E-03     448.187E-03    -223.980E-03     40.5030E-03
             721     8.63301E-03     120.231E-03    -54.1659E+06    -40.2740E+06     30.5188E+06     3.43673E+06    -224.176E-03     448.426E-03    -224.250E-03     44.0823E-03    -224.497E-03     448.324E-03    -223.961E-03     42.8687E-03
             722     9.35268E-03     120.296E-03    -47.1441E+06    -5.57701E+06     42.3422E+06     4.09676E+06    -224.199E-03     448.431E-03    -224.232E-03     46.5500E-03    -224.576E-03     448.499E-03    -223.944E-03     44.8643E-03
             723     10.0721E-03     120.365E-03    -39.2948E+06     38.4000E+06     55.1298E+06     5.18149E+06    -224.165E-03     448.370E-03    -224.206E-03     48.6356E-03    -224.612E-03     448.655E-03    -223.929E-03     46.4412E-03
             724     10.7918E-03     120.437E-03    -31.4193E+06     78.2183E+06     67.5794E+06     5.40158E+06    -224.108E-03     448.292E-03    -224.184E-03     50.0796E-03    -224.622E-03     448.776E-03    -223.914E-03     47.3322E-03
             725     11.5116E-03     120.508E-03    -24.5821E+06     95.8535E+06     81.9829E+06     4.92402E+06    -224.119E-03     448.327E-03    -224.209E-03     50.6631E-03    -224.674E-03     448.898E-03    -223.902E-03     47.3614E-03
             726     12.2307E-03     120.581E-03    -19.1876E+06     100.110E+06     98.6736E+06     4.15661E+06    -224.194E-03     448.467E-03    -224.273E-03     50.1763E-03    -224.773E-03     449.047E-03    -223.897E-03     46.4270E-03
             727     12.9492E-03     120.650E-03    -14.4746E+06     103.248E+06     109.046E+06     2.32212E+06    -224.141E-03     448.454E-03    -224.313E-03     49.6101E-03    -224.743E-03     449.055E-03    -223.897E-03     45.3074E-03
             728     13.6691E-03     120.718E-03    -7.61752E+06     107.811E+06     111.582E+06     1.25467E+06    -223.697E-03     447.998E-03    -224.301E-03     43.6624E-03    -224.235E-03     448.568E-03    -223.888E-03     39.6974E-03
             729     719.320E-06     121.291E-03    -127.773E+06    -267.783E+06    -125.735E+06     422.066E+03    -223.998E-03     448.042E-03    -224.043E-03     4.57710E-03    -224.066E-03     447.070E-03    -224.099E-03     4.69902E-03
             730     1.43869E-03     121.301E-03    -124.621E+06    -257.651E+06    -116.820E+06     676.170E+03    -224.023E-03     448.069E-03    -224.046E-03     8.56580E-03    -224.103E-03     447.131E-03    -224.076E-03     8.77718E-03
             731     2.15799E-03     121.317E-03    -120.051E+06    -243.842E+06    -103.657E+06     973.187E+03    -224.000E-03     448.077E-03    -224.077E-03     12.6004E-03    -224.097E-03     447.182E-03    -224.067E-03     12.8864E-03
             732     2.87737E-03     121.340E-03    -114.013E+06    -226.397E+06    -87.7206E+06     1.17199E+06    -223.987E-03     448.094E-03    -224.107E-03     16.5821E-03    -224.102E-03     447.255E-03    -224.052E-03     16.9089E-03
             733     3.59685E-03     121.369E-03    -106.987E+06    -206.489E+06    -70.4557E+06     1.37884E+06    -224.003E-03     448.141E-03    -224.138E-03     20.5103E-03    -224.138E-03     447.367E-03    -224.035E-03     20.8429E-03
             734     4.31623E-03     121.403E-03    -99.4818E+06    -185.998E+06    -52.9412E+06     1.58388E+06    -224.030E-03     448.200E-03    -224.170E-03     24.3342E-03    -224.185E-03     447.495E-03    -224.020E-03     24.6230E-03
             735     5.03573E-03     121.443E-03    -91.6972E+06    -164.580E+06    -36.2584E+06     1.82955E+06    -224.034E-03     448.229E-03    -224.195E-03     28.0302E-03    -224.209E-03     447.599E-03    -224.004E-03     28.2213E-03
             736     5.75523E-03     121.488E-03    -83.9267E+06    -142.937E+06    -20.8045E+06     2.16928E+06    -224.065E-03     448.276E-03    -224.212E-03     31.5593E-03    -224.260E-03     447.727E-03    -223.987E-03     31.5964E-03
             737     6.47471E-03     121.538E-03    -76.2226E+06    -120.628E+06    -6.62436E+06     2.46454E+06    -224.116E-03     448.339E-03    -224.223E-03     34.9046E-03    -224.334E-03     447.877E-03    -223.970E-03     34.7228E-03
             738     7.19419E-03     121.593E-03    -68.5949E+06    -97.2846E+06     6.42228E+06     2.74996E+06    -224.156E-03     448.385E-03    -224.229E-03     38.0566E-03    -224.400E-03     448.021E-03    -223.956E-03     37.5915E-03
             739     7.91380E-03     121.652E-03    -61.3464E+06    -71.5598E+06     18.5297E+06     3.11659E+06    -224.199E-03     448.428E-03    -224.228E-03     40.9667E-03    -224.476E-03     448.178E-03    -223.943E-03     40.1538E-03
             740     8.63334E-03     121.714E-03    -54.3356E+06    -42.5274E+06     30.2060E+06     3.92058E+06    -224.252E-03     448.476E-03    -224.224E-03     43.7140E-03    -224.570E-03     448.363E-03    -223.932E-03     42.5017E-03
             741     9.35270E-03     121.780E-03    -47.8729E+06    -7.23693E+06     42.2026E+06     4.55968E+06    -224.275E-03     448.490E-03    -224.215E-03     46.3012E-03    -224.653E-03     448.550E-03    -223.924E-03     44.6255E-03
             742     10.0722E-03     121.849E-03    -41.8148E+06     37.9984E+06     54.7142E+06     3.85826E+06    -224.208E-03     448.403E-03    -224.195E-03     48.5236E-03    -224.667E-03     448.690E-03    -223.916E-03     46.3125E-03
             743     10.7917E-03     121.921E-03    -34.9561E+06     77.5107E+06     66.1198E+06     3.58418E+06    -224.143E-03     448.318E-03    -224.175E-03     50.1159E-03    -224.671E-03     448.805E-03    -223.906E-03     47.3578E-03
             744     11.5110E-03     121.993E-03    -27.8374E+06     94.6988E+06     79.4181E+06     4.36498E+06    -224.070E-03     448.265E-03    -224.194E-03     50.9062E-03    -224.636E-03     448.837E-03    -223.894E-03     47.6216E-03
             745     12.2309E-03     122.065E-03    -19.9938E+06     100.558E+06     96.4846E+06     4.61891E+06    -223.850E-03     448.093E-03    -224.243E-03     50.8466E-03    -224.430E-03     448.679E-03    -223.877E-03     47.1515E-03
             746     12.9513E-03     122.135E-03    -12.3688E+06     106.886E+06     110.074E+06     3.86693E+06    -223.602E-03     447.867E-03    -224.265E-03     50.6242E-03    -224.201E-03     448.482E-03    -223.852E-03     46.4034E-03
             747     13.6708E-03     122.201E-03    -5.67850E+06     111.368E+06     114.076E+06     1.12097E+06    -223.447E-03     447.687E-03    -224.240E-03     44.4092E-03    -223.986E-03     448.271E-03    -223.823E-03     40.4358E-03
             748     719.317E-06     122.774E-03    -128.289E+06    -269.140E+06    -126.160E+06     290.210E+03    -224.019E-03     448.076E-03    -224.058E-03     4.68128E-03    -224.087E-03     447.100E-03    -224.112E-03     4.79877E-03
             749     1.43864E-03     122.784E-03    -125.330E+06    -259.147E+06    -117.488E+06     800.590E+03    -224.016E-03     448.074E-03    -224.058E-03     8.50294E-03    -224.097E-03     447.130E-03    -224.088E-03     8.71560E-03
             750     2.15803E-03     122.800E-03    -120.674E+06    -244.966E+06    -104.136E+06     1.08309E+06    -224.001E-03     448.084E-03    -224.084E-03     12.5294E-03    -224.098E-03     447.185E-03    -224.074E-03     12.8192E-03
             751     2.87741E-03     122.823E-03    -114.688E+06    -227.253E+06    -88.0173E+06     1.15757E+06    -223.997E-03     448.112E-03    -224.114E-03     16.4939E-03    -224.114E-03     447.270E-03    -224.059E-03     16.8236E-03
             752     3.59679E-03     122.852E-03    -107.676E+06    -207.523E+06    -70.6064E+06     1.33977E+06    -223.993E-03     448.138E-03    -224.146E-03     20.3721E-03    -224.130E-03     447.361E-03    -224.042E-03     20.7063E-03
             753     4.31627E-03     122.886E-03    -100.037E+06    -187.080E+06    -53.0548E+06     1.65740E+06    -223.994E-03     448.167E-03    -224.174E-03     24.1330E-03    -224.150E-03     447.458E-03    -224.023E-03     24.4222E-03
             754     5.03572E-03     122.926E-03    -92.2326E+06    -165.623E+06    -36.3805E+06     1.94811E+06    -224.006E-03     448.201E-03    -224.194E-03     27.7605E-03    -224.182E-03     447.567E-03    -224.002E-03     27.9514E-03
             755     5.75524E-03     122.971E-03    -84.2902E+06    -144.026E+06    -20.9242E+06     2.13269E+06    -224.034E-03     448.243E-03    -224.209E-03     31.2637E-03    -224.230E-03     447.689E-03    -223.982E-03     31.3009E-03
             756     6.47479E-03     123.021E-03    -76.2738E+06    -121.722E+06    -6.69155E+06     2.35236E+06    -224.094E-03     448.313E-03    -224.218E-03     34.5905E-03    -224.310E-03     447.845E-03    -223.965E-03     34.4105E-03
             757     7.19430E-03     123.076E-03    -68.4797E+06    -98.4947E+06     6.46112E+06     2.67054E+06    -224.177E-03     448.403E-03    -224.226E-03     37.7652E-03    -224.418E-03     448.032E-03    -223.951E-03     37.3044E-03
             758     7.91369E-03     123.135E-03    -60.8302E+06    -73.1688E+06     18.8619E+06     3.09578E+06    -224.244E-03     448.475E-03    -224.230E-03     40.7573E-03    -224.515E-03     448.215E-03    -223.942E-03     39.9535E-03
             759     8.63308E-03     123.198E-03    -53.3729E+06    -44.7934E+06     30.7205E+06     3.66606E+06    -224.258E-03     448.487E-03    -224.229E-03     43.6155E-03    -224.568E-03     448.360E-03    -223.933E-03     42.4141E-03
             760     9.35271E-03     123.264E-03    -45.7420E+06    -9.38341E+06     43.2399E+06     4.59241E+06    -224.211E-03     448.429E-03    -224.219E-03     46.2968E-03    -224.576E-03     448.473E-03    -223.922E-03     44.6430E-03
             761     10.0723E-03     123.333E-03    -38.3758E+06     39.7008E+06     57.7358E+06     4.95540E+06    -224.118E-03     448.313E-03    -224.194E-03     48.6266E-03    -224.566E-03     448.597E-03    -223.908E-03     46.4590E-03
             762     10.7918E-03     123.405E-03    -32.4288E+06     76.5578E+06     69.3338E+06     4.59058E+06    -223.987E-03     448.158E-03    -224.171E-03     50.3935E-03    -224.504E-03     448.631E-03    -223.889E-03     47.6814E-03
             763     11.5119E-03     123.477E-03    -26.4104E+06     93.1626E+06     81.3592E+06     4.45625E+06    -223.829E-03     448.003E-03    -224.174E-03     51.2611E-03    -224.387E-03     448.562E-03    -223.864E-03     48.0107E-03
             764     12.2315E-03     123.549E-03    -19.9511E+06     102.887E+06     96.4821E+06     3.34474E+06    -223.624E-03     447.822E-03    -224.197E-03     50.7247E-03    -224.208E-03     448.420E-03    -223.835E-03     46.9949E-03
             765     12.9514E-03     123.617E-03    -12.7462E+06     108.435E+06     109.722E+06     2.12033E+06    -223.368E-03     447.578E-03    -224.210E-03     49.6547E-03    -223.971E-03     448.203E-03    -223.801E-03     45.3370E-03
             766     13.6722E-03     123.685E-03    -5.23270E+06     114.192E+06     115.665E+06     1.52841E+06    -223.252E-03     447.437E-03    -224.186E-03     43.3959E-03    -223.793E-03     448.030E-03    -223.765E-03     39.4260E-03
             767     719.297E-06     124.257E-03    -129.581E+06    -270.731E+06    -127.155E+06     531.605E+03    -224.125E-03     448.154E-03    -224.029E-03     4.67135E-03    -224.196E-03     447.172E-03    -224.084E-03     4.79461E-03
             768     1.43858E-03     124.267E-03    -126.286E+06    -260.679E+06    -118.218E+06     797.730E+03    -224.077E-03     448.180E-03    -224.103E-03     8.45037E-03    -224.159E-03     447.231E-03    -224.133E-03     8.66421E-03
             769     2.15790E-03     124.283E-03    -121.424E+06    -246.058E+06    -104.742E+06     1.04335E+06    -224.051E-03     448.184E-03    -224.133E-03     12.4070E-03    -224.149E-03     447.282E-03    -224.124E-03     12.7001E-03
             770     2.87726E-03     124.306E-03    -115.146E+06    -227.883E+06    -88.1480E+06     1.16383E+06    -224.043E-03     448.209E-03    -224.165E-03     16.3432E-03    -224.161E-03     447.365E-03    -224.109E-03     16.6766E-03
             771     3.59662E-03     124.335E-03    -107.960E+06    -208.748E+06    -70.3123E+06     1.40153E+06    -224.029E-03     448.228E-03    -224.199E-03     20.1815E-03    -224.166E-03     447.444E-03    -224.091E-03     20.5166E-03
             772     4.31602E-03     124.369E-03    -100.277E+06    -188.153E+06    -52.7986E+06     1.65504E+06    -224.008E-03     448.231E-03    -224.223E-03     23.9255E-03    -224.164E-03     447.516E-03    -224.069E-03     24.2185E-03
             773     5.03552E-03     124.409E-03    -92.1377E+06    -166.255E+06    -36.1432E+06     1.64573E+06    -224.030E-03     448.269E-03    -224.239E-03     27.5460E-03    -224.205E-03     447.632E-03    -224.045E-03     27.7405E-03
             774     5.75497E-03     124.454E-03    -83.8332E+06    -144.926E+06    -20.6209E+06     1.73569E+06    -224.065E-03     448.317E-03    -224.252E-03     31.0079E-03    -224.257E-03     447.757E-03    -224.023E-03     31.0482E-03
             775     6.47447E-03     124.505E-03    -75.7078E+06    -122.803E+06    -6.31087E+06     1.97462E+06    -224.084E-03     448.343E-03    -224.259E-03     34.3348E-03    -224.296E-03     447.869E-03    -224.003E-03     34.1620E-03
             776     7.19397E-03     124.560E-03    -67.8871E+06    -99.6875E+06     6.92774E+06     2.27642E+06    -224.111E-03     448.371E-03    -224.260E-03     37.5728E-03    -224.347E-03     447.992E-03    -223.982E-03     37.1256E-03
             777     7.91356E-03     124.619E-03    -60.2419E+06    -74.5469E+06     19.3469E+06     2.52575E+06    -224.141E-03     448.395E-03    -224.254E-03     40.7000E-03    -224.407E-03     448.127E-03    -223.962E-03     39.9154E-03
             778     8.63316E-03     124.681E-03    -52.6558E+06    -46.1590E+06     31.4229E+06     2.72096E+06    -224.146E-03     448.389E-03    -224.243E-03     43.6403E-03    -224.451E-03     448.252E-03    -223.943E-03     42.4484E-03
             779     9.35269E-03     124.748E-03    -45.1030E+06    -11.2588E+06     43.6769E+06     2.81388E+06    -224.078E-03     448.299E-03    -224.221E-03     46.3747E-03    -224.437E-03     448.331E-03    -223.921E-03     44.7157E-03
             780     10.0723E-03     124.817E-03    -37.5145E+06     35.9200E+06     57.6582E+06     4.49638E+06    -223.897E-03     448.080E-03    -224.183E-03     48.7277E-03    -224.333E-03     448.344E-03    -223.893E-03     46.5775E-03
             781     10.7924E-03     124.888E-03    -30.3994E+06     74.8942E+06     70.2380E+06     6.77809E+06    -223.717E-03     447.861E-03    -224.144E-03     50.3829E-03    -224.223E-03     448.322E-03    -223.857E-03     47.7091E-03
             782     11.5120E-03     124.960E-03    -24.7548E+06     94.9825E+06     82.0084E+06     6.38979E+06    -223.600E-03     447.727E-03    -224.127E-03     51.2372E-03    -224.153E-03     448.292E-03    -223.819E-03     48.0108E-03
             783     12.2322E-03     125.032E-03    -19.1115E+06     106.075E+06     97.3271E+06     5.08465E+06    -223.561E-03     447.704E-03    -224.144E-03     51.0026E-03    -224.148E-03     448.318E-03    -223.783E-03     47.2838E-03
             784     12.9517E-03     125.101E-03    -12.7294E+06     111.878E+06     111.228E+06     2.03560E+06    -223.522E-03     447.688E-03    -224.166E-03     50.3920E-03    -224.136E-03     448.331E-03    -223.753E-03     46.0486E-03
             785     13.6709E-03     125.168E-03    -6.55385E+06     116.180E+06     115.851E+06     337.569E+03    -223.179E-03     447.322E-03    -224.143E-03     43.9896E-03    -223.732E-03     447.928E-03    -223.722E-03     40.0029E-03
             786     719.257E-06     125.740E-03    -129.900E+06    -272.176E+06    -127.956E+06     351.786E+03    -224.147E-03     448.359E-03    -224.212E-03     4.54275E-03    -224.216E-03     447.372E-03    -224.269E-03     4.66823E-03
             787     1.43849E-03     125.750E-03    -126.748E+06    -261.811E+06    -118.722E+06     493.010E+03    -224.174E-03     448.378E-03    -224.204E-03     8.33452E-03    -224.256E-03     447.425E-03    -224.234E-03     8.55223E-03
             788     2.15768E-03     125.767E-03    -121.772E+06    -247.034E+06    -105.098E+06     730.183E+03    -224.158E-03     448.393E-03    -224.235E-03     12.2757E-03    -224.257E-03     447.487E-03    -224.226E-03     12.5684E-03
             789     2.87695E-03     125.789E-03    -115.613E+06    -228.870E+06    -88.4567E+06     1.04246E+06    -224.106E-03     448.371E-03    -224.265E-03     16.1889E-03    -224.225E-03     447.523E-03    -224.208E-03     16.5282E-03
             790     3.59630E-03     125.818E-03    -108.506E+06    -209.796E+06    -70.5986E+06     1.21366E+06    -224.073E-03     448.362E-03    -224.290E-03     20.0030E-03    -224.210E-03     447.575E-03    -224.181E-03     20.3467E-03
             791     4.31568E-03     125.852E-03    -100.477E+06    -188.712E+06    -52.8565E+06     1.21358E+06    -224.066E-03     448.374E-03    -224.308E-03     23.7399E-03    -224.222E-03     447.657E-03    -224.153E-03     24.0411E-03
             792     5.03509E-03     125.892E-03    -92.3035E+06    -166.838E+06    -36.1192E+06     1.34867E+06    -224.065E-03     448.385E-03    -224.320E-03     27.3649E-03    -224.240E-03     447.744E-03    -224.124E-03     27.5728E-03
             793     5.75454E-03     125.938E-03    -84.2291E+06    -145.587E+06    -20.5740E+06     1.44475E+06    -224.066E-03     448.392E-03    -224.326E-03     30.8488E-03    -224.259E-03     447.829E-03    -224.096E-03     30.9037E-03
             794     6.47399E-03     125.988E-03    -76.2991E+06    -123.615E+06    -6.34815E+06     1.54667E+06    -224.045E-03     448.369E-03    -224.323E-03     34.2374E-03    -224.259E-03     447.891E-03    -224.065E-03     34.0783E-03
             795     7.19361E-03     126.043E-03    -68.5268E+06    -100.741E+06     6.73969E+06     1.77848E+06    -224.006E-03     448.317E-03    -224.311E-03     37.4899E-03    -224.243E-03     447.933E-03    -224.032E-03     37.0567E-03
             796     7.91327E-03     126.102E-03    -61.0482E+06    -75.4906E+06     19.0931E+06     2.12488E+06    -223.968E-03     448.256E-03    -224.288E-03     40.5851E-03    -224.236E-03     447.984E-03    -223.995E-03     39.8190E-03
             797     8.63296E-03     126.165E-03    -54.0838E+06    -47.3352E+06     30.8698E+06     2.49613E+06    -223.930E-03     448.189E-03    -224.258E-03     43.5423E-03    -224.239E-03     448.048E-03    -223.957E-03     42.3735E-03
             798     9.35274E-03     126.231E-03    -47.9634E+06    -12.6214E+06     42.6539E+06     3.19161E+06    -223.833E-03     448.051E-03    -224.218E-03     46.3190E-03    -224.202E-03     448.081E-03    -223.917E-03     44.6863E-03
             799     10.0727E-03     126.300E-03    -42.4966E+06     29.2260E+06     54.4794E+06     4.92903E+06    -223.670E-03     447.835E-03    -224.165E-03     48.6909E-03    -224.117E-03     448.076E-03    -223.873E-03     46.5552E-03
             800     10.7926E-03     126.371E-03    -36.3876E+06     71.8194E+06     65.6988E+06     6.41872E+06    -223.531E-03     447.635E-03    -224.104E-03     50.3177E-03    -224.056E-03     448.094E-03    -223.826E-03     47.6435E-03
             801     11.5129E-03     126.444E-03    -28.5220E+06     98.6709E+06     79.2227E+06     5.65203E+06    -223.437E-03     447.512E-03    -224.075E-03     51.0486E-03    -224.012E-03     448.106E-03    -223.781E-03     47.7946E-03
             802     12.2329E-03     126.515E-03    -19.7804E+06     108.400E+06     96.7039E+06     3.45151E+06    -223.301E-03     447.392E-03    -224.091E-03     50.6685E-03    -223.894E-03     448.019E-03    -223.736E-03     46.9176E-03
             803     12.9536E-03     126.585E-03    -12.2159E+06     115.023E+06     112.356E+06     2.40948E+06    -223.231E-03     447.338E-03    -224.107E-03     50.0206E-03    -223.847E-03     447.993E-03    -223.695E-03     45.7061E-03
             804     13.6741E-03     126.652E-03    -6.39416E+06     118.910E+06     117.313E+06     1.64090E+06    -223.308E-03     447.394E-03    -224.086E-03     43.8024E-03    -223.866E-03     448.011E-03    -223.663E-03     39.8230E-03
             805     719.024E-06     127.223E-03    -130.992E+06    -273.089E+06    -128.751E+06     108.552E+03    -224.288E-03     448.729E-03    -224.441E-03     4.55132E-03    -224.360E-03     447.740E-03    -224.499E-03     4.67506E-03
             806     1.43817E-03     127.234E-03    -127.845E+06    -262.735E+06    -119.805E+06     454.662E+03    -224.299E-03     448.676E-03    -224.377E-03     8.21171E-03    -224.384E-03     447.722E-03    -224.410E-03     8.43625E-03
             807     2.15735E-03     127.250E-03    -123.074E+06    -247.869E+06    -106.099E+06     610.459E+03    -224.242E-03     448.628E-03    -224.386E-03     12.1289E-03    -224.344E-03     447.721E-03    -224.379E-03     12.4282E-03
             808     2.87654E-03     127.273E-03    -116.849E+06    -230.056E+06    -89.5509E+06     814.429E+03    -224.182E-03     448.580E-03    -224.398E-03     16.0330E-03    -224.303E-03     447.729E-03    -224.343E-03     16.3829E-03
             809     3.59584E-03     127.301E-03    -109.508E+06    -210.236E+06    -71.6211E+06      946.64E+03    -224.143E-03     448.553E-03    -224.410E-03     19.8610E-03    -224.283E-03     447.766E-03    -224.305E-03     20.2186E-03
             810     4.31517E-03     127.336E-03    -101.626E+06    -189.096E+06    -53.6228E+06     943.472E+03    -224.120E-03     448.541E-03    -224.421E-03     23.5805E-03    -224.280E-03     447.824E-03    -224.267E-03     23.8970E-03
             811     5.03452E-03     127.376E-03    -93.4129E+06    -167.581E+06    -36.5175E+06     1.01828E+06    -224.070E-03     448.493E-03    -224.423E-03     27.2167E-03    -224.248E-03     447.851E-03    -224.228E-03     27.4406E-03
             812     5.75400E-03     127.421E-03    -85.1666E+06    -146.015E+06    -20.8010E+06     1.13204E+06    -224.006E-03     448.420E-03    -224.415E-03     30.7311E-03    -224.202E-03     447.856E-03    -224.183E-03     30.8039E-03
             813     6.47361E-03     127.471E-03    -77.1514E+06    -124.169E+06    -6.53073E+06     1.22620E+06    -223.963E-03     448.358E-03    -224.395E-03     34.1263E-03    -224.179E-03     447.878E-03    -224.136E-03     33.9846E-03
             814     7.19319E-03     127.526E-03    -69.2781E+06    -101.632E+06     6.53026E+06     1.41298E+06    -223.920E-03     448.288E-03    -224.368E-03     37.3849E-03    -224.159E-03     447.900E-03    -224.087E-03     36.9664E-03
             815     7.91291E-03     127.585E-03    -61.7203E+06    -77.0293E+06     18.7182E+06     1.96005E+06    -223.844E-03     448.175E-03    -224.331E-03     40.4698E-03    -224.111E-03     447.896E-03    -224.036E-03     39.7181E-03
             816     8.63279E-03     127.648E-03    -54.4359E+06    -49.1844E+06     30.5620E+06     2.85697E+06    -223.738E-03     448.023E-03    -224.285E-03     43.3546E-03    -224.045E-03     447.874E-03    -223.982E-03     42.2076E-03
             817     9.35279E-03     127.714E-03    -47.2299E+06    -16.3105E+06     42.3480E+06     4.36916E+06    -223.640E-03     447.870E-03    -224.230E-03     45.9712E-03    -223.999E-03     447.880E-03    -223.926E-03     44.3656E-03
             818     10.0728E-03     127.783E-03    -39.6551E+06     25.6969E+06     55.3508E+06     5.57462E+06    -223.536E-03     447.702E-03    -224.166E-03     48.2406E-03    -223.964E-03     447.920E-03    -223.869E-03     46.1189E-03
             819     10.7930E-03     127.854E-03    -31.9961E+06     70.5987E+06     68.3712E+06     5.80963E+06    -223.420E-03     447.521E-03    -224.100E-03     49.9201E-03    -223.924E-03     447.963E-03    -223.814E-03     47.2415E-03
             820     11.5128E-03     127.926E-03    -25.3223E+06     101.003E+06     81.2643E+06     5.12954E+06    -223.349E-03     447.409E-03    -224.060E-03     50.7079E-03    -223.913E-03     448.006E-03    -223.763E-03     47.4555E-03
             821     12.2329E-03     127.998E-03    -19.4771E+06     112.515E+06     97.1354E+06     2.95107E+06    -223.280E-03     447.348E-03    -224.068E-03     50.2137E-03    -223.878E-03     447.994E-03    -223.717E-03     46.4405E-03
             822     12.9527E-03     128.067E-03    -13.8083E+06     115.831E+06     111.358E+06     2.15562E+06    -223.130E-03     447.214E-03    -224.084E-03     49.2578E-03    -223.752E-03     447.875E-03    -223.675E-03     44.9134E-03
             823     13.6727E-03     128.135E-03    -6.31257E+06     120.582E+06     117.915E+06     2.04507E+06    -222.888E-03     446.944E-03    -224.056E-03     43.1054E-03    -223.448E-03     447.568E-03    -223.632E-03     39.1022E-03
             824     718.955E-06     128.707E-03    -132.345E+06    -273.799E+06    -130.215E+06     232.991E+03    -224.563E-03     449.067E-03    -224.504E-03     4.60766E-03    -224.638E-03     448.079E-03    -224.566E-03     4.74041E-03
             825     1.43785E-03     128.718E-03    -129.287E+06    -263.677E+06    -120.887E+06     428.008E+03    -224.460E-03     449.007E-03    -224.547E-03     8.26321E-03    -224.549E-03     448.051E-03    -224.581E-03     8.49161E-03
             826     2.15691E-03     128.734E-03    -124.302E+06    -248.634E+06    -106.944E+06     659.444E+03    -224.364E-03     448.913E-03    -224.548E-03     12.1076E-03    -224.470E-03     448.005E-03    -224.542E-03     12.4200E-03
             827     2.87612E-03     128.756E-03    -117.798E+06    -230.640E+06    -89.9340E+06     672.000E+03    -224.287E-03     448.838E-03    -224.551E-03     15.9492E-03    -224.411E-03     447.986E-03    -224.495E-03     16.3123E-03
             828     3.59530E-03     128.785E-03    -110.228E+06    -210.657E+06    -71.7624E+06     699.232E+03    -224.229E-03     448.782E-03    -224.553E-03     19.7756E-03    -224.372E-03     447.994E-03    -224.447E-03     20.1477E-03
             829     4.31455E-03     128.820E-03    -102.302E+06    -189.397E+06    -53.7236E+06     734.843E+03    -224.151E-03     448.701E-03    -224.550E-03     23.4838E-03    -224.313E-03     447.983E-03    -224.396E-03     23.8176E-03
             830     5.03397E-03     128.860E-03    -94.0585E+06    -167.847E+06    -36.6277E+06     653.840E+03    -224.056E-03     448.592E-03    -224.536E-03     27.0869E-03    -224.236E-03     447.949E-03    -224.340E-03     27.3249E-03
             831     5.75347E-03     128.905E-03    -85.6938E+06    -146.601E+06    -20.8957E+06     729.121E+03    -223.971E-03     448.483E-03    -224.511E-03     30.5740E-03    -224.169E-03     447.916E-03    -224.279E-03     30.6611E-03
             832     6.47304E-03     128.955E-03    -77.5035E+06    -124.758E+06    -6.50456E+06     934.086E+03    -223.902E-03     448.380E-03    -224.477E-03     33.9294E-03    -224.119E-03     447.897E-03    -224.216E-03     33.8039E-03
             833     7.19279E-03     129.009E-03    -69.6085E+06    -102.493E+06     6.55050E+06     1.13328E+06    -223.840E-03     448.275E-03    -224.435E-03     37.1407E-03    -224.079E-03     447.884E-03    -224.153E-03     36.7358E-03
             834     7.91257E-03     129.068E-03    -61.8204E+06    -78.4452E+06     18.6150E+06     1.37682E+06    -223.756E-03     448.142E-03    -224.386E-03     40.1753E-03    -224.022E-03     447.856E-03    -224.089E-03     39.4260E-03
             835     8.63243E-03     129.131E-03    -54.0682E+06    -51.7193E+06     30.2162E+06     2.08432E+06    -223.651E-03     447.980E-03    -224.328E-03     43.0233E-03    -223.952E-03     447.817E-03    -224.024E-03     41.8736E-03
             836     9.35238E-03     129.197E-03    -46.0457E+06    -19.2345E+06     42.3220E+06     2.65840E+06    -223.565E-03     447.829E-03    -224.264E-03     45.6831E-03    -223.912E-03     447.822E-03    -223.958E-03     44.0684E-03
             837     10.0724E-03     129.266E-03    -38.3420E+06     22.3576E+06     55.5459E+06     3.71909E+06    -223.437E-03     447.631E-03    -224.194E-03     47.9372E-03    -223.852E-03     447.829E-03    -223.893E-03     45.8106E-03
             838     10.7925E-03     129.337E-03    -31.5702E+06     68.1303E+06     68.0346E+06     5.59376E+06    -223.242E-03     447.357E-03    -224.115E-03     49.6498E-03    -223.738E-03     447.786E-03    -223.828E-03     46.9919E-03
             839     11.5130E-03     129.409E-03    -25.3034E+06     102.587E+06     81.2049E+06     6.15557E+06    -223.086E-03     447.142E-03    -224.056E-03     50.6259E-03    -223.650E-03     447.745E-03    -223.762E-03     47.4215E-03
             840     12.2332E-03     129.481E-03    -19.6052E+06     115.938E+06     96.6992E+06     5.37011E+06    -223.005E-03     447.049E-03    -224.044E-03     50.5536E-03    -223.606E-03     447.712E-03    -223.700E-03     46.8599E-03
             841     12.9534E-03     129.550E-03    -13.4065E+06     118.857E+06     111.518E+06     3.47016E+06    -222.935E-03     446.984E-03    -224.049E-03     50.3205E-03    -223.562E-03     447.661E-03    -223.644E-03     46.0269E-03
             842     13.6736E-03     129.617E-03    -6.84505E+06     122.938E+06     118.691E+06     1.25384E+06    -222.691E-03     446.708E-03    -224.016E-03     44.1451E-03    -223.261E-03     447.345E-03    -223.591E-03     40.1480E-03
             843     718.844E-06     130.192E-03    -133.487E+06    -274.665E+06    -131.238E+06     224.635E+03    -224.682E-03     449.310E-03    -224.628E-03     4.51310E-03    -224.760E-03     448.320E-03    -224.692E-03     4.64390E-03
             844     1.43780E-03     130.202E-03    -130.225E+06    -264.343E+06    -121.584E+06     313.859E+03    -224.602E-03     449.275E-03    -224.674E-03     8.23912E-03    -224.693E-03     448.318E-03    -224.709E-03     8.47513E-03
             845     2.15669E-03     130.218E-03    -125.041E+06    -249.331E+06    -107.421E+06     430.621E+03    -224.539E-03     449.226E-03    -224.687E-03     12.0757E-03    -224.647E-03     448.316E-03    -224.681E-03     12.4013E-03
             846     2.87564E-03     130.241E-03    -118.567E+06    -230.930E+06    -90.1345E+06     564.341E+03    -224.437E-03     449.134E-03    -224.697E-03     15.9047E-03    -224.565E-03     448.282E-03    -224.641E-03     16.2820E-03
             847     3.59477E-03     130.269E-03    -111.194E+06    -210.837E+06    -71.7883E+06     489.327E+03    -224.316E-03     449.012E-03    -224.696E-03     19.6937E-03    -224.464E-03     448.225E-03    -224.588E-03     20.0808E-03
             848     4.31403E-03     130.304E-03    -103.015E+06    -189.592E+06    -53.8231E+06     430.194E+03    -224.195E-03     448.877E-03    -224.681E-03     23.3395E-03    -224.361E-03     448.159E-03    -224.526E-03     23.6879E-03
             849     5.03338E-03     130.343E-03    -94.6491E+06    -168.085E+06    -36.7571E+06     544.396E+03    -224.081E-03     448.736E-03    -224.654E-03     26.8795E-03    -224.264E-03     448.092E-03    -224.457E-03     27.1356E-03
             850     5.75286E-03     130.388E-03    -86.4662E+06    -146.815E+06    -21.0241E+06     551.013E+03    -223.982E-03     448.600E-03    -224.618E-03     30.3336E-03    -224.182E-03     448.033E-03    -224.385E-03     30.4380E-03
             851     6.47247E-03     130.438E-03    -78.3249E+06    -125.320E+06    -6.80512E+06     537.602E+03    -223.886E-03     448.458E-03    -224.572E-03     33.6640E-03    -224.105E-03     447.974E-03    -224.311E-03     33.5524E-03
             852     7.19212E-03     130.492E-03    -70.2489E+06    -103.003E+06     6.22477E+06     638.356E+03    -223.783E-03     448.302E-03    -224.518E-03     36.8564E-03    -224.023E-03     447.908E-03    -224.236E-03     36.4634E-03
             853     7.91193E-03     130.551E-03    -62.6053E+06    -79.1740E+06     18.2469E+06     780.426E+03    -223.681E-03     448.138E-03    -224.456E-03     39.8882E-03    -223.949E-03     447.849E-03    -224.159E-03     39.1493E-03
             854     8.63188E-03     130.613E-03    -55.3143E+06    -53.1016E+06     29.5875E+06     939.664E+03    -223.574E-03     447.962E-03    -224.388E-03     42.7683E-03    -223.877E-03     447.794E-03    -224.083E-03     41.6245E-03
             855     9.35195E-03     130.679E-03    -48.6082E+06    -21.1125E+06     41.0892E+06     1.65301E+06    -223.426E-03     447.738E-03    -224.312E-03     45.5289E-03    -223.781E-03     447.726E-03    -224.005E-03     43.9301E-03
             856     10.0721E-03     130.748E-03    -42.3263E+06     17.6028E+06     52.9971E+06     3.31679E+06    -223.255E-03     447.482E-03    -224.227E-03     47.8875E-03    -223.679E-03     447.664E-03    -223.926E-03     45.7900E-03
             857     10.7924E-03     130.819E-03    -35.5562E+06     64.0846E+06     64.9648E+06     4.99786E+06    -223.025E-03     447.154E-03    -224.129E-03     49.6263E-03    -223.529E-03     447.571E-03    -223.845E-03     46.9927E-03
             858     11.5127E-03     130.891E-03    -28.1452E+06     102.797E+06     78.2918E+06     5.53921E+06    -222.766E-03     446.811E-03    -224.046E-03     50.5850E-03    -223.339E-03     447.422E-03    -223.762E-03     47.3969E-03
             859     12.2335E-03     130.963E-03    -20.5146E+06     117.869E+06     94.8753E+06     5.04493E+06    -222.593E-03     446.606E-03    -224.013E-03     50.2395E-03    -223.196E-03     447.279E-03    -223.680E-03     46.5776E-03
             860     12.9546E-03     131.032E-03    -12.7348E+06     122.527E+06     112.286E+06     3.92790E+06    -222.454E-03     446.457E-03    -224.004E-03     49.5276E-03    -223.081E-03     447.149E-03    -223.601E-03     45.2327E-03
             861     13.6754E-03     131.099E-03    -6.40191E+06     126.573E+06     120.352E+06     1.62027E+06    -222.459E-03     446.419E-03    -223.961E-03     43.5776E-03    -223.033E-03     447.071E-03    -223.533E-03     39.5875E-03
             862     718.771E-06     131.677E-03    -134.477E+06    -275.516E+06    -131.988E+06     343.067E+03    -224.739E-03     449.630E-03    -224.891E-03     4.38212E-03    -224.821E-03     448.639E-03    -224.956E-03     4.51693E-03
             863     1.43751E-03     131.687E-03    -131.145E+06    -264.904E+06    -122.388E+06     370.824E+03    -224.734E-03     449.563E-03    -224.829E-03     8.05811E-03    -224.828E-03     448.606E-03    -224.866E-03     8.30423E-03
             864     2.15638E-03     131.703E-03    -125.932E+06    -249.801E+06    -107.976E+06     383.211E+03    -224.653E-03     449.486E-03    -224.833E-03     11.9090E-03    -224.764E-03     448.576E-03    -224.828E-03     12.2447E-03
             865     2.87530E-03     131.725E-03    -119.238E+06    -231.233E+06    -90.5707E+06     427.995E+03    -224.568E-03     449.405E-03    -224.838E-03     15.7707E-03    -224.697E-03     448.554E-03    -224.782E-03     16.1628E-03
             866     3.59429E-03     131.754E-03    -111.628E+06    -210.819E+06    -71.9999E+06     421.596E+03    -224.434E-03     449.269E-03    -224.835E-03     19.5084E-03    -224.584E-03     448.483E-03    -224.727E-03     19.9142E-03
             867     4.31343E-03     131.788E-03    -103.541E+06    -189.702E+06    -53.7889E+06     378.025E+03    -224.275E-03     449.091E-03    -224.816E-03     23.1253E-03    -224.443E-03     448.374E-03    -224.659E-03     23.4924E-03
             868     5.03273E-03     131.827E-03    -95.1568E+06    -168.377E+06    -36.7197E+06     353.643E+03    -224.143E-03     448.924E-03    -224.781E-03     26.6581E-03    -224.327E-03     448.279E-03    -224.583E-03     26.9325E-03
             869     5.75217E-03     131.872E-03    -86.8635E+06    -146.680E+06    -21.0542E+06     302.643E+03    -224.015E-03     448.750E-03    -224.735E-03     30.0964E-03    -224.218E-03     448.184E-03    -224.502E-03     30.2185E-03
             870     6.47171E-03     131.921E-03    -78.5866E+06    -125.325E+06    -6.79555E+06     195.650E+03    -223.874E-03     448.553E-03    -224.678E-03     33.4192E-03    -224.094E-03     448.068E-03    -224.417E-03     33.3266E-03
             871     7.19146E-03     131.976E-03    -70.6547E+06    -103.387E+06     6.06305E+06     252.895E+03    -223.722E-03     448.333E-03    -224.611E-03     36.6341E-03    -223.963E-03     447.938E-03    -224.328E-03     36.2643E-03
             872     7.91134E-03     132.034E-03    -63.0022E+06    -79.8366E+06     18.0854E+06     488.309E+03    -223.584E-03     448.118E-03    -224.534E-03     39.7285E-03    -223.852E-03     447.826E-03    -224.236E-03     39.0191E-03
             873     8.63130E-03     132.096E-03    -55.6835E+06    -53.9656E+06     29.5088E+06     917.961E+03    -223.445E-03     447.896E-03    -224.451E-03     42.6525E-03    -223.747E-03     447.723E-03    -224.144E-03     41.5410E-03
             874     9.35140E-03     132.162E-03    -48.6419E+06    -24.1045E+06     40.5239E+06     2.04129E+06    -223.247E-03     447.605E-03    -224.358E-03     45.4157E-03    -223.595E-03     447.577E-03    -224.050E-03     43.8506E-03
             875     10.0718E-03     132.231E-03    -41.3819E+06     13.3117E+06     52.5231E+06     3.64159E+06    -223.026E-03     447.282E-03    -224.256E-03     47.8555E-03    -223.436E-03     447.440E-03    -223.953E-03     45.7923E-03
             876     10.7922E-03     132.302E-03    -34.6877E+06     61.4596E+06     65.3534E+06     4.65528E+06    -222.804E-03     446.946E-03    -224.142E-03     49.6246E-03    -223.299E-03     447.347E-03    -223.854E-03     47.0099E-03
             877     11.5130E-03     132.373E-03    -28.2986E+06     102.825E+06     78.1176E+06     4.70984E+06    -222.594E-03     446.634E-03    -224.041E-03     50.5829E-03    -223.167E-03     447.246E-03    -223.758E-03     47.3905E-03
             878     12.2335E-03     132.445E-03    -21.1424E+06     119.644E+06     93.5456E+06     4.21276E+06    -222.426E-03     446.416E-03    -223.991E-03     50.3131E-03    -223.035E-03     447.104E-03    -223.666E-03     46.6075E-03
             879     12.9537E-03     132.514E-03    -13.7123E+06     124.272E+06     111.133E+06     3.08538E+06    -222.273E-03     446.248E-03    -223.974E-03     49.6336E-03    -222.909E-03     446.954E-03    -223.579E-03     45.2946E-03
             880     13.6745E-03     132.580E-03    -5.86810E+06     129.646E+06     122.089E+06     1.20123E+06    -222.088E-03     446.017E-03    -223.929E-03     43.6097E-03    -222.668E-03     446.682E-03    -223.498E-03     39.5974E-03
             881     718.556E-06     133.162E-03    -134.721E+06    -276.461E+06    -132.932E+06     244.175E+03    -224.896E-03     449.994E-03    -225.098E-03     4.38066E-03    -224.976E-03     449.000E-03    -225.166E-03     4.51985E-03
             882     1.43721E-03     133.172E-03    -131.659E+06    -265.320E+06    -123.093E+06     351.717E+03    -224.892E-03     449.896E-03    -225.004E-03     8.01722E-03    -224.987E-03     448.939E-03    -225.044E-03     8.27270E-03
             883     2.15596E-03     133.188E-03    -126.487E+06    -250.018E+06    -108.421E+06     370.389E+03    -224.786E-03     449.785E-03    -225.000E-03     11.7885E-03    -224.898E-03     448.876E-03    -224.996E-03     12.1386E-03
             884     2.87485E-03     133.211E-03    -119.797E+06    -231.363E+06    -90.8710E+06     306.332E+03    -224.665E-03     449.658E-03    -224.993E-03     15.5714E-03    -224.797E-03     448.807E-03    -224.938E-03     15.9816E-03
             885     3.59375E-03     133.239E-03    -112.047E+06    -210.865E+06    -72.1882E+06     262.232E+03    -224.516E-03     449.494E-03    -224.978E-03     19.2806E-03    -224.667E-03     448.708E-03    -224.871E-03     19.7046E-03
             886     4.31284E-03     133.272E-03    -103.787E+06    -189.696E+06    -53.7566E+06     206.084E+03    -224.357E-03     449.307E-03    -224.950E-03     22.9491E-03    -224.526E-03     448.590E-03    -224.793E-03     23.3374E-03
             887     5.03209E-03     133.312E-03    -95.4276E+06    -168.193E+06    -36.6006E+06     61.2474E+03    -224.207E-03     449.115E-03    -224.907E-03     26.4901E-03    -224.393E-03     448.471E-03    -224.708E-03     26.7865E-03
             888     5.75146E-03     133.356E-03    -86.8559E+06    -146.588E+06    -20.8781E+06    -21.1474E+03    -224.037E-03     448.888E-03    -224.852E-03     29.9128E-03    -224.239E-03     448.322E-03    -224.617E-03     30.0590E-03
             889     6.47105E-03     133.405E-03    -78.6025E+06    -125.317E+06    -6.63416E+06     23.8253E+03    -223.849E-03     448.632E-03    -224.783E-03     33.2361E-03    -224.069E-03     448.147E-03    -224.520E-03     33.1726E-03
             890     7.19078E-03     133.459E-03    -70.6551E+06    -103.523E+06     6.31344E+06    -18.9552E+03    -223.657E-03     448.358E-03    -224.701E-03     36.4351E-03    -223.897E-03     447.961E-03    -224.417E-03     36.0951E-03
             891     7.91072E-03     133.517E-03    -62.8967E+06    -80.4908E+06     18.2865E+06     116.352E+03    -223.451E-03     448.059E-03    -224.608E-03     39.5524E-03    -223.716E-03     447.762E-03    -224.309E-03     38.8752E-03
             892     8.63087E-03     133.579E-03    -55.3026E+06    -55.6899E+06     29.5404E+06     673.111E+03    -223.252E-03     447.758E-03    -224.505E-03     42.5327E-03    -223.549E-03     447.575E-03    -224.197E-03     41.4542E-03
             893     9.35121E-03     133.644E-03    -47.7499E+06    -26.3440E+06     40.8410E+06     1.23000E+06    -223.071E-03     447.466E-03    -224.396E-03     45.3300E-03    -223.411E-03     447.425E-03    -224.084E-03     43.7827E-03
             894     10.0716E-03     133.713E-03    -40.4232E+06     8.90212E+06     52.4840E+06     2.56775E+06    -222.867E-03     447.147E-03    -224.280E-03     47.7565E-03    -223.265E-03     447.281E-03    -223.972E-03     45.6982E-03
             895     10.7924E-03     133.783E-03    -33.3131E+06     57.4575E+06     65.4190E+06     5.05108E+06    -222.642E-03     446.795E-03    -224.153E-03     49.4517E-03    -223.124E-03     447.173E-03    -223.861E-03     46.8585E-03
             896     11.5129E-03     133.855E-03    -26.9662E+06     103.644E+06     79.0615E+06     5.76663E+06    -222.419E-03     446.457E-03    -224.038E-03     50.3511E-03    -222.987E-03     447.068E-03    -223.754E-03     47.1857E-03
             897     12.2338E-03     133.926E-03    -20.7190E+06     122.388E+06     93.6234E+06     3.76770E+06    -222.214E-03     446.185E-03    -223.971E-03     50.1678E-03    -222.825E-03     446.885E-03    -223.650E-03     46.4493E-03
             898     12.9554E-03     133.995E-03    -13.8386E+06     127.460E+06     111.579E+06     1.18081E+06    -222.103E-03     446.051E-03    -223.947E-03     49.5941E-03    -222.746E-03     446.773E-03    -223.554E-03     45.2206E-03
             899     13.6762E-03     134.062E-03    -6.60359E+06     132.177E+06     123.118E+06     784.262E+03    -222.040E-03     445.942E-03    -223.903E-03     43.5061E-03    -222.628E-03     446.619E-03    -223.469E-03     39.4773E-03
             900     718.505E-06     134.648E-03    -135.898E+06    -276.877E+06    -133.456E+06     42.7455E+03    -225.147E-03     450.255E-03    -225.108E-03     4.44871E-03    -225.231E-03     449.261E-03    -225.177E-03     4.58816E-03
             901     1.43708E-03     134.658E-03    -132.380E+06    -265.646E+06    -123.833E+06     107.060E+03    -225.064E-03     450.208E-03    -225.143E-03     8.00538E-03    -225.161E-03     449.251E-03    -225.185E-03     8.26798E-03
             902     2.15564E-03     134.674E-03    -127.144E+06    -250.223E+06    -109.067E+06     179.534E+03    -224.952E-03     450.102E-03    -225.150E-03     11.7399E-03    -225.067E-03     449.193E-03    -225.148E-03     12.1033E-03
             903     2.87428E-03     134.696E-03    -120.471E+06    -231.337E+06    -91.3146E+06     216.733E+03    -224.772E-03     449.914E-03    -225.142E-03     15.4907E-03    -224.907E-03     449.064E-03    -225.088E-03     15.9205E-03
             904     3.59326E-03     134.724E-03    -112.754E+06    -210.637E+06    -72.4157E+06     71.5152E+03    -224.591E-03     449.708E-03    -225.117E-03     19.1276E-03    -224.746E-03     448.924E-03    -225.010E-03     19.5762E-03
             905     4.31232E-03     134.757E-03    -104.352E+06    -189.423E+06    -53.8980E+06    -138.502E+03    -224.421E-03     449.499E-03    -225.078E-03     22.7380E-03    -224.592E-03     448.784E-03    -224.922E-03     23.1524E-03
             906     5.03148E-03     134.796E-03    -95.6591E+06    -167.934E+06    -36.5248E+06    -258.515E+03    -224.225E-03     449.249E-03    -225.025E-03     26.2936E-03    -224.412E-03     448.607E-03    -224.825E-03     26.6194E-03
             907     5.75087E-03     134.840E-03    -87.1179E+06    -146.527E+06    -20.6773E+06    -316.526E+03    -224.017E-03     448.972E-03    -224.956E-03     29.7390E-03    -224.220E-03     448.406E-03    -224.720E-03     29.9161E-03
             908     6.47044E-03     134.889E-03    -78.7662E+06    -125.219E+06    -6.37516E+06    -387.517E+03    -223.803E-03     448.675E-03    -224.872E-03     33.0857E-03    -224.023E-03     448.189E-03    -224.608E-03     33.0510E-03
             909     7.19023E-03     134.942E-03    -70.6254E+06    -103.420E+06     6.65371E+06    -420.885E+03    -223.592E-03     448.368E-03    -224.776E-03     36.3142E-03    -223.832E-03     447.971E-03    -224.491E-03     36.0046E-03
             910     7.91022E-03     135.000E-03    -62.8364E+06    -80.9401E+06     18.5558E+06    -340.593E+03    -223.360E-03     448.030E-03    -224.670E-03     39.3619E-03    -223.623E-03     447.729E-03    -224.369E-03     38.7111E-03
             911     8.63050E-03     135.061E-03    -55.4005E+06    -56.7752E+06     29.6073E+06    -145.938E+03    -223.111E-03     447.664E-03    -224.554E-03     42.2594E-03    -223.405E-03     447.475E-03    -224.243E-03     41.2021E-03
             912     9.35092E-03     135.126E-03    -48.2772E+06    -28.2384E+06     40.5244E+06     534.375E+03    -222.913E-03     447.342E-03    -224.429E-03     45.0285E-03    -223.251E-03     447.291E-03    -224.115E-03     43.5043E-03
             913     10.0715E-03     135.194E-03    -41.2744E+06     5.66792E+06     51.8016E+06     1.40488E+06    -222.747E-03     447.049E-03    -224.302E-03     47.4697E-03    -223.143E-03     447.168E-03    -223.991E-03     45.4203E-03
             914     10.7920E-03     135.265E-03    -33.6290E+06     51.5831E+06     64.4179E+06     2.95222E+06    -222.494E-03     446.661E-03    -224.167E-03     49.3048E-03    -222.967E-03     447.010E-03    -223.871E-03     46.7043E-03
             915     11.5130E-03     135.336E-03    -25.4294E+06     102.155E+06     78.5496E+06     5.03083E+06    -222.206E-03     446.238E-03    -224.033E-03     50.2613E-03    -222.762E-03     446.839E-03    -223.751E-03     47.1103E-03
             916     12.2340E-03     135.407E-03    -18.3312E+06     126.760E+06     94.3358E+06     4.52181E+06    -222.049E-03     446.000E-03    -223.951E-03     50.0431E-03    -222.653E-03     446.716E-03    -223.637E-03     46.3714E-03
             917     12.9543E-03     135.476E-03    -12.7181E+06     131.074E+06     112.847E+06     2.29889E+06    -221.906E-03     445.829E-03    -223.924E-03     49.5384E-03    -222.549E-03     446.565E-03    -223.531E-03     45.1940E-03
             918     13.6754E-03     135.543E-03    -7.03292E+06     134.401E+06     123.523E+06     1.38921E+06    -221.750E-03     445.617E-03    -223.867E-03     43.8133E-03    -222.344E-03     446.305E-03    -223.434E-03     39.8392E-03
             919     718.480E-06     136.134E-03    -136.847E+06    -276.745E+06    -134.417E+06    -89.8519E+03    -225.313E-03     450.483E-03    -225.170E-03     4.30208E-03    -225.401E-03     449.492E-03    -225.242E-03     4.45517E-03
             920     1.43684E-03     136.144E-03    -133.424E+06    -266.086E+06    -124.298E+06     89.7326E+03    -225.178E-03     450.438E-03    -225.261E-03     7.95954E-03    -225.278E-03     449.482E-03    -225.303E-03     8.23541E-03
             921     2.15536E-03     136.160E-03    -128.061E+06    -250.341E+06    -109.508E+06     158.574E+03    -225.046E-03     450.310E-03    -225.264E-03     11.6953E-03    -225.164E-03     449.402E-03    -225.263E-03     12.0759E-03
             922     2.87409E-03     136.182E-03    -121.172E+06    -230.955E+06    -91.6232E+06    -30.5407E+03    -224.883E-03     450.136E-03    -225.253E-03     15.4301E-03    -225.021E-03     449.289E-03    -225.200E-03     15.8794E-03
             923     3.59281E-03     136.209E-03    -113.193E+06    -210.228E+06    -72.5577E+06    -257.961E+03    -224.701E-03     449.929E-03    -225.229E-03     19.0679E-03    -224.857E-03     449.148E-03    -225.122E-03     19.5400E-03
             924     4.31171E-03     136.243E-03    -104.779E+06    -188.792E+06    -53.8649E+06    -478.379E+03    -224.465E-03     449.651E-03    -225.185E-03     22.6363E-03    -224.640E-03     448.939E-03    -225.029E-03     23.0758E-03
             925     5.03096E-03     136.281E-03    -96.1349E+06    -167.656E+06    -36.4583E+06    -644.684E+03    -224.203E-03     449.323E-03    -225.120E-03     26.1719E-03    -224.393E-03     448.682E-03    -224.920E-03     26.5262E-03
             926     5.75039E-03     136.325E-03    -87.4177E+06    -146.262E+06    -20.5784E+06    -777.264E+03    -223.964E-03     448.999E-03    -225.035E-03     29.6274E-03    -224.169E-03     448.434E-03    -224.799E-03     29.8353E-03
             927     6.47002E-03     136.373E-03    -78.9405E+06    -124.905E+06    -6.24285E+06    -889.153E+03    -223.744E-03     448.681E-03    -224.937E-03     32.9664E-03    -223.965E-03     448.196E-03    -224.672E-03     32.9623E-03
             928     7.18988E-03     136.426E-03    -70.8745E+06    -103.341E+06     6.65105E+06    -848.577E+03    -223.525E-03     448.353E-03    -224.828E-03     36.1831E-03    -223.765E-03     447.955E-03    -224.542E-03     35.9058E-03
             929     7.90991E-03     136.483E-03    -63.0891E+06    -81.2609E+06     18.4699E+06    -752.474E+03    -223.309E-03     448.022E-03    -224.712E-03     39.2170E-03    -223.572E-03     447.719E-03    -224.411E-03     38.5975E-03
             930     8.63006E-03     136.544E-03    -55.7204E+06    -57.3254E+06     29.4590E+06    -496.979E+03    -223.080E-03     447.669E-03    -224.589E-03     42.1145E-03    -223.374E-03     447.476E-03    -224.278E-03     41.0886E-03
             931     9.35054E-03     136.608E-03    -48.6043E+06    -30.2215E+06     40.0148E+06     163.392E+03    -222.833E-03     447.291E-03    -224.458E-03     44.8988E-03    -223.167E-03     447.230E-03    -224.144E-03     43.4125E-03
             932     10.0711E-03     136.676E-03    -41.8461E+06     3.35998E+06     51.1033E+06     1.26868E+06    -222.552E-03     446.872E-03    -224.319E-03     47.3735E-03    -222.944E-03     446.978E-03    -224.008E-03     45.3756E-03
             933     10.7921E-03     136.746E-03    -35.7297E+06     48.6425E+06     63.2841E+06     1.93668E+06    -222.224E-03     446.392E-03    -224.168E-03     49.3323E-03    -222.698E-03     446.729E-03    -223.870E-03     46.7663E-03
             934     11.5131E-03     136.817E-03    -29.3078E+06     99.4373E+06     75.9910E+06     2.16351E+06    -221.948E-03     445.960E-03    -224.013E-03     50.5272E-03    -222.514E-03     446.555E-03    -223.734E-03     47.3751E-03
             935     12.2342E-03     136.888E-03    -21.5695E+06     127.348E+06     91.0321E+06     3.17107E+06    -221.781E-03     445.688E-03    -223.907E-03     50.4961E-03    -222.397E-03     446.416E-03    -223.605E-03     46.8381E-03
             936     12.9560E-03     136.957E-03    -13.2959E+06     133.106E+06     110.632E+06     4.34355E+06    -221.664E-03     445.530E-03    -223.866E-03     50.0716E-03    -222.311E-03     446.281E-03    -223.486E-03     45.7661E-03
             937     13.6773E-03     137.023E-03    -6.33326E+06     137.384E+06     124.179E+06     1.97461E+06    -221.609E-03     445.421E-03    -223.812E-03     44.1470E-03    -222.206E-03     446.123E-03    -223.381E-03     40.1797E-03
             938     718.267E-06     137.621E-03    -138.209E+06    -276.819E+06    -135.675E+06    -10.6034E+03    -225.310E-03     450.683E-03    -225.373E-03     4.33543E-03    -225.402E-03     449.696E-03    -225.450E-03     4.49358E-03
             939     1.43675E-03     137.631E-03    -134.527E+06    -266.183E+06    -125.182E+06    -20.7282E+03    -225.217E-03     450.568E-03    -225.351E-03     7.92575E-03    -225.322E-03     449.613E-03    -225.396E-03     8.21682E-03
             940     2.15526E-03     137.646E-03    -128.904E+06    -250.053E+06    -110.148E+06    -113.916E+03    -225.096E-03     450.434E-03    -225.338E-03     11.6322E-03    -225.218E-03     449.530E-03    -225.339E-03     12.0319E-03
             941     2.87378E-03     137.668E-03    -121.963E+06    -230.320E+06    -92.1761E+06    -326.865E+03    -224.921E-03     450.241E-03    -225.320E-03     15.3673E-03    -225.063E-03     449.400E-03    -225.270E-03     15.8361E-03
             942     3.59255E-03     137.695E-03    -114.052E+06    -209.662E+06    -72.9301E+06    -554.671E+03    -224.692E-03     449.979E-03    -225.287E-03     19.1024E-03    -224.853E-03     449.202E-03    -225.182E-03     19.5971E-03
             943     4.31155E-03     137.728E-03    -105.560E+06    -188.015E+06    -54.0924E+06    -823.705E+03    -224.453E-03     449.686E-03    -225.233E-03     22.7337E-03    -224.632E-03     448.979E-03    -225.077E-03     23.2011E-03
             944     5.03068E-03     137.766E-03    -96.8106E+06    -166.850E+06    -36.6089E+06    -1.14607E+06    -224.206E-03     449.365E-03    -225.160E-03     26.2611E-03    -224.400E-03     448.730E-03    -224.961E-03     26.6429E-03
             945     5.75014E-03     137.809E-03    -88.0800E+06    -145.757E+06    -20.8243E+06    -1.33927E+06    -223.953E-03     449.022E-03    -225.069E-03     29.6618E-03    -224.161E-03     448.461E-03    -224.834E-03     29.9013E-03
             946     6.46981E-03     137.857E-03    -79.4445E+06    -124.549E+06    -6.51820E+06     -1.4438E+06    -223.719E-03     448.684E-03    -224.965E-03     32.9334E-03    -223.941E-03     448.201E-03    -224.702E-03     32.9647E-03
             947     7.18964E-03     137.909E-03    -71.0526E+06    -103.282E+06     6.47182E+06    -1.45074E+06    -223.480E-03     448.331E-03    -224.851E-03     36.1067E-03    -223.720E-03     447.933E-03    -224.566E-03     35.8629E-03
             948     7.90974E-03     137.966E-03    -63.1599E+06    -81.4857E+06     18.3283E+06    -1.23588E+06    -223.241E-03     447.969E-03    -224.728E-03     39.1539E-03    -223.503E-03     447.664E-03    -224.427E-03     38.5756E-03
             949     8.63009E-03     138.026E-03    -55.4418E+06    -57.9939E+06     29.3867E+06    -993.491E+03    -223.020E-03     447.618E-03    -224.598E-03     42.0994E-03    -223.310E-03     447.420E-03    -224.287E-03     41.1187E-03
             950     9.35047E-03     138.090E-03    -48.0904E+06    -31.6096E+06     40.0002E+06    -527.980E+03    -222.747E-03     447.209E-03    -224.461E-03     44.9507E-03    -223.075E-03     447.137E-03    -224.146E-03     43.5050E-03
             951     10.0713E-03     138.157E-03    -40.7454E+06     344.894E+03     50.9467E+06     508.837E+03    -222.397E-03     446.711E-03    -224.314E-03     47.4049E-03    -222.776E-03     446.799E-03    -224.001E-03     45.4437E-03
             952     10.7923E-03     138.227E-03    -33.4956E+06     45.0837E+06     63.4090E+06     2.78798E+06    -222.072E-03     446.224E-03    -224.152E-03     49.2476E-03    -222.528E-03     446.538E-03    -223.852E-03     46.7384E-03
             953     11.5136E-03     138.298E-03    -27.5774E+06     99.5049E+06     77.5993E+06     3.94603E+06    -221.804E-03     445.795E-03    -223.991E-03     50.2975E-03    -222.362E-03     446.383E-03    -223.707E-03     47.1990E-03
             954     12.2351E-03     138.368E-03    -22.5720E+06     129.012E+06     91.2390E+06     2.24643E+06    -221.639E-03     445.513E-03    -223.874E-03     49.9641E-03    -222.262E-03     446.249E-03    -223.572E-03     46.2884E-03
             955     12.9561E-03     138.437E-03    -14.8623E+06     133.759E+06     108.562E+06     619.399E+03    -221.563E-03     445.384E-03    -223.821E-03     49.2078E-03    -222.215E-03     446.143E-03    -223.450E-03     44.8080E-03
             956     13.6773E-03     138.504E-03    -5.87503E+06     139.048E+06     123.774E+06     1.02789E+06    -221.449E-03     445.216E-03    -223.767E-03     43.5064E-03    -222.044E-03     445.926E-03    -223.342E-03     39.4911E-03
             957     718.335E-06     139.108E-03    -139.595E+06    -276.543E+06    -136.834E+06    -52.1084E+03    -225.369E-03     450.718E-03    -225.349E-03     4.46179E-03    -225.467E-03     449.736E-03    -225.430E-03     4.62626E-03
             958     1.43665E-03     139.117E-03    -135.695E+06    -265.587E+06    -126.554E+06    -314.539E+03    -225.237E-03     450.604E-03    -225.367E-03     7.94187E-03    -225.347E-03     449.656E-03    -225.418E-03     8.24162E-03
             959     2.15511E-03     139.133E-03    -130.144E+06    -249.499E+06    -111.325E+06    -559.391E+03    -225.051E-03     450.398E-03    -225.347E-03     11.7049E-03    -225.178E-03     449.500E-03    -225.353E-03     12.1169E-03
             960     2.87376E-03     139.154E-03    -122.958E+06    -229.737E+06    -92.8854E+06    -674.257E+03    -224.842E-03     450.155E-03    -225.313E-03     15.5012E-03    -224.989E-03     449.319E-03    -225.266E-03     15.9894E-03
             961     3.59263E-03     139.181E-03    -114.911E+06    -208.608E+06    -73.3112E+06    -944.203E+03    -224.616E-03     449.882E-03    -225.266E-03     19.1940E-03    -224.782E-03     449.112E-03    -225.163E-03     19.7121E-03
             962     4.31168E-03     139.213E-03    -106.166E+06    -186.953E+06    -54.3375E+06    -1.31525E+06    -224.388E-03     449.592E-03    -225.204E-03     22.7929E-03    -224.571E-03     448.891E-03    -225.050E-03     23.2912E-03
             963     5.03094E-03     139.251E-03    -97.1627E+06    -165.771E+06    -36.7535E+06    -1.67978E+06    -224.193E-03     449.322E-03    -225.129E-03     26.3360E-03    -224.390E-03     448.692E-03    -224.932E-03     26.7521E-03
             964     5.75030E-03     139.293E-03    -88.3254E+06    -144.891E+06    -20.8842E+06    -1.98330E+06    -223.985E-03     449.029E-03    -225.044E-03     29.7394E-03    -224.195E-03     448.471E-03    -224.810E-03     30.0119E-03
             965     6.46988E-03     139.341E-03    -79.7084E+06    -123.946E+06    -6.60838E+06    -2.12936E+06    -223.716E-03     448.660E-03    -224.944E-03     32.9926E-03    -223.940E-03     448.180E-03    -224.682E-03     33.0606E-03
             966     7.18979E-03     139.392E-03    -71.4691E+06    -102.878E+06     6.28032E+06    -2.23206E+06    -223.434E-03     448.263E-03    -224.829E-03     36.1754E-03    -223.674E-03     447.867E-03    -224.545E-03     35.9726E-03
             967     7.90987E-03     139.448E-03    -63.2610E+06    -81.4710E+06     18.1069E+06    -2.31247E+06    -223.173E-03     447.876E-03    -224.703E-03     39.2568E-03    -223.433E-03     447.570E-03    -224.403E-03     38.7196E-03
             968     8.63017E-03     139.508E-03    -55.3192E+06    -58.3742E+06     29.0920E+06    -2.17988E+06    -222.910E-03     447.478E-03    -224.567E-03     42.2082E-03    -223.196E-03     447.276E-03    -224.257E-03     41.2714E-03
             969     9.35086E-03     139.572E-03    -47.6706E+06    -32.7740E+06     39.6940E+06    -1.76299E+06    -222.632E-03     447.056E-03    -224.424E-03     45.0002E-03    -222.954E-03     446.977E-03    -224.109E-03     43.5903E-03
             970     10.0717E-03     139.638E-03    -40.4497E+06    -1.79260E+06     50.3874E+06    -1.14216E+06    -222.374E-03     446.648E-03    -224.274E-03     47.4523E-03    -222.746E-03     446.724E-03    -223.960E-03     45.5111E-03
             971     10.7927E-03     139.707E-03    -33.0792E+06     38.6397E+06     61.9950E+06     725.550E+03    -222.114E-03     446.230E-03    -224.116E-03     49.3164E-03    -222.555E-03     446.511E-03    -223.814E-03     46.8200E-03
             972     11.5137E-03     139.778E-03    -25.0686E+06     96.0416E+06     77.3353E+06     4.03820E+06    -221.757E-03     445.711E-03    -223.954E-03     50.4277E-03    -222.296E-03     446.277E-03    -223.670E-03     47.3686E-03
             973     12.2347E-03     139.849E-03    -18.0017E+06     133.741E+06     93.4083E+06     4.70448E+06    -221.527E-03     445.357E-03    -223.830E-03     50.5549E-03    -222.136E-03     446.106E-03    -223.531E-03     46.9504E-03
             974     12.9560E-03     139.917E-03    -13.6345E+06     137.067E+06     109.465E+06     1.87504E+06    -221.425E-03     445.196E-03    -223.770E-03     50.3747E-03    -222.078E-03     445.970E-03    -223.402E-03     46.0419E-03
             975     13.6774E-03     139.984E-03    -7.49002E+06     139.706E+06     123.194E+06     149.711E+03    -221.371E-03     445.084E-03    -223.713E-03     44.7164E-03    -221.977E-03     445.801E-03    -223.288E-03     40.7310E-03
             976     718.388E-06     140.595E-03    -140.092E+06    -275.778E+06    -137.818E+06    -239.952E+03    -225.310E-03     450.515E-03    -225.205E-03     4.39327E-03    -225.411E-03     449.539E-03    -225.291E-03     4.56830E-03
             977     1.43677E-03     140.604E-03    -136.527E+06    -264.650E+06    -127.216E+06    -398.488E+03    -225.099E-03     450.357E-03    -225.259E-03     8.09554E-03    -225.213E-03     449.416E-03    -225.313E-03     8.40565E-03
             978     2.15535E-03     140.619E-03    -131.014E+06    -248.449E+06    -111.773E+06    -663.159E+03    -224.916E-03     450.145E-03    -225.229E-03     11.9102E-03    -225.048E-03     449.255E-03    -225.238E-03     12.3352E-03
             979     2.87418E-03     140.640E-03    -124.017E+06    -228.806E+06    -93.4257E+06    -1.03405E+06    -224.719E-03     449.911E-03    -225.192E-03     15.6964E-03    -224.871E-03     449.082E-03    -225.147E-03     16.2029E-03
             980     3.59301E-03     140.667E-03    -115.723E+06    -207.194E+06    -73.8794E+06    -1.44701E+06    -224.536E-03     449.684E-03    -225.147E-03     19.3835E-03    -224.707E-03     448.922E-03    -225.048E-03     19.9246E-03
             981     4.31207E-03     140.698E-03    -106.892E+06    -185.521E+06    -54.7905E+06    -1.89449E+06    -224.349E-03     449.444E-03    -225.095E-03     22.9653E-03    -224.536E-03     448.752E-03    -224.945E-03     23.4915E-03
             982     5.03133E-03     140.735E-03    -97.9837E+06    -164.458E+06    -37.1722E+06    -2.24759E+06    -224.150E-03     449.180E-03    -225.030E-03     26.4637E-03    -224.351E-03     448.557E-03    -224.836E-03     26.9186E-03
             983     5.75078E-03     140.778E-03    -89.0974E+06    -143.679E+06    -21.2248E+06    -2.64186E+06    -223.918E-03     448.868E-03    -224.951E-03     29.8717E-03    -224.132E-03     448.317E-03    -224.719E-03     30.1845E-03
             984     6.47041E-03     140.824E-03    -80.5978E+06    -123.022E+06    -7.05014E+06    -2.97531E+06    -223.651E-03     448.505E-03    -224.854E-03     33.2008E-03    -223.879E-03     448.031E-03    -224.594E-03     33.3084E-03
             985     7.19031E-03     140.876E-03    -72.2912E+06    -101.906E+06     5.76668E+06    -3.23887E+06    -223.379E-03     448.120E-03    -224.741E-03     36.4342E-03    -223.623E-03     447.729E-03    -224.460E-03     36.2756E-03
             986     7.91052E-03     140.931E-03    -64.2643E+06    -80.9737E+06     17.3676E+06    -3.37877E+06    -223.111E-03     447.727E-03    -224.617E-03     39.5147E-03    -223.374E-03     447.424E-03    -224.319E-03     39.0226E-03
             987     8.63098E-03     140.990E-03    -56.7209E+06    -58.4366E+06     28.1335E+06    -3.22591E+06    -222.843E-03     447.325E-03    -224.482E-03     42.4276E-03    -223.132E-03     447.124E-03    -224.174E-03     41.5368E-03
             988     9.35157E-03     141.053E-03    -49.6472E+06    -33.6031E+06     38.4191E+06    -2.86376E+06    -222.588E-03     446.929E-03    -224.341E-03     45.1561E-03    -222.914E-03     446.848E-03    -224.028E-03     43.7922E-03
             989     10.0724E-03     141.119E-03    -42.7489E+06    -3.00447E+06     49.0155E+06    -2.11181E+06    -222.351E-03     446.546E-03    -224.194E-03     47.6769E-03    -222.729E-03     446.618E-03    -223.883E-03     45.7850E-03
             990     10.7933E-03     141.188E-03    -36.0940E+06     34.3274E+06     59.7388E+06    -1.00969E+06    -222.076E-03     446.117E-03    -224.041E-03     49.6966E-03    -222.520E-03     446.381E-03    -223.740E-03     47.2264E-03
             991     11.5146E-03     141.258E-03    -29.3749E+06     89.7347E+06     73.2092E+06     673.747E+03    -221.685E-03     445.560E-03    -223.875E-03     50.8945E-03    -222.229E-03     446.105E-03    -223.596E-03     47.8282E-03
             992     12.2366E-03     141.328E-03    -21.1291E+06     132.493E+06     89.2540E+06     2.65088E+06    -221.427E-03     445.167E-03    -223.740E-03     50.8327E-03    -222.043E-03     445.919E-03    -223.455E-03     47.2328E-03
             993     12.9585E-03     141.397E-03    -12.5335E+06     141.635E+06     109.264E+06     3.46433E+06    -221.467E-03     445.156E-03    -223.689E-03     49.8784E-03    -222.120E-03     445.950E-03    -223.330E-03     45.5498E-03
             994     13.6803E-03     141.463E-03    -6.89435E+06     143.085E+06     124.475E+06     1.36239E+06    -221.701E-03     445.356E-03    -223.655E-03     43.9480E-03    -222.310E-03     446.088E-03    -223.230E-03     39.9362E-03
             995     718.440E-06     142.081E-03    -141.949E+06    -274.677E+06    -139.407E+06    -303.038E+03    -224.938E-03     449.926E-03    -224.989E-03     4.52988E-03    -225.047E-03     448.961E-03    -225.081E-03     4.70291E-03
             996     1.43725E-03     142.090E-03    -138.098E+06    -263.513E+06    -128.587E+06    -720.105E+03    -224.808E-03     449.774E-03    -224.966E-03     8.28232E-03    -224.929E-03     448.842E-03    -225.027E-03     8.59666E-03
             997     2.15602E-03     142.105E-03    -132.245E+06    -247.282E+06    -112.919E+06    -977.399E+03    -224.706E-03     449.655E-03    -224.949E-03     12.1595E-03    -224.844E-03     448.774E-03    -224.963E-03     12.5991E-03
             998     2.87473E-03     142.125E-03    -125.075E+06    -227.156E+06    -94.2519E+06    -1.33774E+06    -224.575E-03     449.512E-03    -224.937E-03     15.9909E-03    -224.733E-03     448.693E-03    -224.898E-03     16.5189E-03
             999     3.59387E-03     142.152E-03    -116.818E+06    -205.383E+06    -74.5696E+06    -1.88572E+06    -224.413E-03     449.330E-03    -224.917E-03     19.6992E-03    -224.590E-03     448.580E-03    -224.823E-03     20.2710E-03
            1000     4.31299E-03     142.183E-03    -107.908E+06    -183.808E+06    -55.3502E+06    -2.39924E+06    -224.258E-03     449.143E-03    -224.885E-03     23.3305E-03    -224.451E-03     448.461E-03    -224.739E-03     23.8893E-03
            1001     5.03220E-03     142.220E-03    -98.8781E+06    -162.721E+06    -37.5544E+06    -2.90499E+06    -224.042E-03     448.878E-03    -224.836E-03     26.8921E-03    -224.248E-03     448.265E-03    -224.645E-03     27.3801E-03
            1002     5.75172E-03     142.262E-03    -89.9229E+06    -141.958E+06    -21.5616E+06    -3.42664E+06    -223.780E-03     448.545E-03    -224.765E-03     30.3102E-03    -223.999E-03     448.003E-03    -224.536E-03     30.6631E-03
            1003     6.47158E-03     142.308E-03    -81.1678E+06    -121.583E+06    -7.36077E+06    -3.87596E+06    -223.564E-03     448.239E-03    -224.675E-03     33.6132E-03    -223.795E-03     447.772E-03    -224.418E-03     33.7645E-03
            1004     7.19157E-03     142.359E-03    -72.5620E+06    -100.836E+06     5.48286E+06    -4.12137E+06    -223.353E-03     447.926E-03    -224.574E-03     36.7639E-03    -223.598E-03     447.540E-03    -224.295E-03     36.6491E-03
            1005     7.91174E-03     142.413E-03    -64.5316E+06    -80.2172E+06     17.0667E+06    -4.13524E+06    -223.112E-03     447.575E-03    -224.463E-03     39.7680E-03    -223.375E-03     447.275E-03    -224.167E-03     39.3204E-03
            1006     8.63213E-03     142.472E-03    -56.9746E+06    -58.1868E+06     27.7401E+06    -4.00125E+06    -222.868E-03     447.209E-03    -224.342E-03     42.5980E-03    -223.156E-03     447.009E-03    -224.036E-03     41.7509E-03
            1007     9.35281E-03     142.535E-03    -49.5612E+06    -34.2270E+06     37.9749E+06    -3.56642E+06    -222.627E-03     446.841E-03    -224.213E-03     45.2920E-03    -222.949E-03     446.755E-03    -223.902E-03     43.9746E-03
            1008     10.0736E-03     142.600E-03    -42.2739E+06    -4.67968E+06     48.4681E+06    -2.80392E+06    -222.356E-03     446.433E-03    -224.077E-03     47.7670E-03    -222.725E-03     446.495E-03    -223.767E-03     45.9166E-03
            1009     10.7948E-03     142.669E-03    -35.1477E+06     31.7473E+06     59.4331E+06    -1.69225E+06    -222.099E-03     446.033E-03    -223.933E-03     49.6409E-03    -222.533E-03     446.281E-03    -223.631E-03     47.1966E-03
            1010     11.5161E-03     142.738E-03    -28.1609E+06     86.2114E+06     73.5653E+06    -201.311E+03    -221.913E-03     445.699E-03    -223.786E-03     50.5933E-03    -222.445E-03     446.223E-03    -223.502E-03     47.5232E-03
            1011     12.2369E-03     142.808E-03    -21.8385E+06     130.884E+06     88.3665E+06     717.535E+03    -221.836E-03     445.506E-03    -223.670E-03     50.3403E-03    -222.451E-03     446.251E-03    -223.386E-03     46.6938E-03
            1012     12.9576E-03     142.877E-03    -15.0004E+06     141.962E+06     105.627E+06     516.380E+03    -221.875E-03     445.507E-03    -223.632E-03     49.6371E-03    -222.536E-03     446.313E-03    -223.288E-03     45.2327E-03
            1013     13.6777E-03     142.944E-03    -6.37783E+06     144.399E+06     123.156E+06     855.392E+03    -221.611E-03     445.227E-03    -223.616E-03     44.0769E-03    -222.219E-03     445.967E-03    -223.200E-03     40.0390E-03
            1014     719.080E-06     143.566E-03    -142.622E+06    -273.002E+06    -140.160E+06    -507.432E+03    -224.474E-03     448.956E-03    -224.482E-03     4.66700E-03    -224.588E-03     448.001E-03    -224.580E-03     4.85256E-03
            1015     1.43785E-03     143.575E-03    -139.073E+06    -261.786E+06    -129.567E+06    -936.227E+03    -224.457E-03     448.964E-03    -224.506E-03     8.44836E-03    -224.585E-03     448.044E-03    -224.573E-03     8.77538E-03
            1016     2.15686E-03     143.590E-03    -133.423E+06    -245.781E+06    -113.911E+06    -1.47268E+06    -224.374E-03     448.905E-03    -224.531E-03     12.4270E-03    -224.518E-03     448.033E-03    -224.551E-03     12.8803E-03
            1017     2.87607E-03     143.610E-03    -125.854E+06    -225.116E+06    -94.9232E+06    -1.95397E+06    -224.300E-03     448.847E-03    -224.547E-03     16.3676E-03    -224.464E-03     448.040E-03    -224.513E-03     16.9131E-03
            1018     3.59502E-03     143.636E-03    -117.372E+06    -203.297E+06    -74.8473E+06    -2.46098E+06    -224.193E-03     448.749E-03    -224.556E-03     20.1818E-03    -224.375E-03     448.010E-03    -224.465E-03     20.7772E-03
            1019     4.31432E-03     143.668E-03    -108.479E+06    -181.660E+06    -55.4852E+06    -3.03096E+06    -224.026E-03     448.573E-03    -224.546E-03     23.9056E-03    -224.224E-03     447.902E-03    -224.403E-03     24.4928E-03
            1020     5.03386E-03     143.704E-03    -99.2346E+06    -160.503E+06    -37.5993E+06    -3.68917E+06    -223.852E-03     448.367E-03    -224.515E-03     27.4530E-03    -224.063E-03     447.765E-03    -224.326E-03     27.9675E-03
            1021     5.75357E-03     143.745E-03    -90.0896E+06    -139.781E+06    -21.5691E+06    -4.26195E+06    -223.696E-03     448.161E-03    -224.465E-03     30.8365E-03    -223.918E-03     447.629E-03    -224.239E-03     31.2219E-03
            1022     6.47332E-03     143.791E-03    -81.1888E+06    -119.656E+06    -7.28952E+06    -4.75793E+06    -223.542E-03     447.944E-03    -224.402E-03     34.0752E-03    -223.775E-03     447.485E-03    -224.147E-03     34.2637E-03
            1023     7.19329E-03     143.841E-03    -72.6708E+06    -99.3730E+06     5.47549E+06    -5.17882E+06    -223.376E-03     447.703E-03    -224.327E-03     37.1430E-03    -223.623E-03     447.323E-03    -224.050E-03     37.0615E-03
            1024     7.91347E-03     143.896E-03    -64.4245E+06    -79.2173E+06     17.0038E+06    -5.40218E+06    -223.200E-03     447.442E-03    -224.242E-03     40.0738E-03    -223.463E-03     447.145E-03    -223.949E-03     39.6576E-03
            1025     8.63381E-03     143.954E-03    -56.4059E+06    -57.6167E+06     27.7123E+06    -5.37981E+06    -222.995E-03     447.143E-03    -224.148E-03     42.8291E-03    -223.280E-03     446.942E-03    -223.844E-03     42.0119E-03
            1026     9.35433E-03     144.016E-03    -48.4951E+06    -34.5590E+06     37.9390E+06    -5.23586E+06    -222.779E-03     446.824E-03    -224.045E-03     45.4147E-03    -223.093E-03     446.732E-03    -223.735E-03     44.1203E-03
            1027     10.0751E-03     144.081E-03    -40.8543E+06    -6.31527E+06     48.2030E+06    -4.60415E+06    -222.568E-03     446.501E-03    -223.933E-03     47.7093E-03    -222.925E-03     446.551E-03    -223.623E-03     45.8711E-03
            1028     10.7959E-03     144.149E-03    -33.5133E+06     28.6752E+06     59.1155E+06    -3.18612E+06    -222.410E-03     446.227E-03    -223.817E-03     49.4852E-03    -222.828E-03     446.456E-03    -223.514E-03     47.0581E-03
            1029     11.5168E-03     144.219E-03    -26.6525E+06     81.7231E+06     72.8811E+06    -554.928E+03    -222.245E-03     445.941E-03    -223.696E-03     50.6049E-03    -222.759E-03     446.439E-03    -223.412E-03     47.5706E-03
            1030     12.2378E-03     144.289E-03    -20.2688E+06     129.744E+06     87.5569E+06     1.23989E+06    -222.069E-03     445.664E-03    -223.595E-03     50.8278E-03    -222.672E-03     446.402E-03    -223.316E-03     47.2260E-03
            1031     12.9589E-03     144.358E-03    -14.2424E+06     143.488E+06     103.850E+06     171.935E+03    -221.818E-03     445.375E-03    -223.557E-03     50.6910E-03    -222.476E-03     446.191E-03    -223.225E-03     46.3183E-03
            1032     13.6809E-03     144.425E-03    -7.72935E+06     144.828E+06     121.327E+06    -525.488E+03    -221.664E-03     445.210E-03    -223.547E-03     44.8630E-03    -222.279E-03     445.960E-03    -223.139E-03     40.7956E-03
            1033     719.300E-06     145.049E-03    -143.771E+06    -271.050E+06    -141.247E+06    -548.834E+03    -223.929E-03     447.807E-03    -223.878E-03     4.70851E-03    -224.050E-03     446.865E-03    -223.983E-03     4.90690E-03
            1034     1.43876E-03     145.059E-03    -139.995E+06    -259.597E+06    -130.242E+06    -1.10120E+06    -223.908E-03     447.846E-03    -223.938E-03     8.65710E-03    -224.042E-03     446.940E-03    -224.010E-03     8.99842E-03
            1035     2.15804E-03     145.073E-03    -134.024E+06    -243.023E+06    -114.046E+06    -1.84746E+06    -223.913E-03     447.896E-03    -223.983E-03     12.8050E-03    -224.064E-03     447.039E-03    -224.007E-03     13.2682E-03
            1036     2.87733E-03     145.094E-03    -126.503E+06    -222.613E+06    -95.1151E+06    -2.63999E+06    -223.852E-03     447.875E-03    -224.023E-03     16.8506E-03    -224.022E-03     447.081E-03    -223.992E-03     17.4070E-03
            1037     3.59697E-03     145.120E-03    -117.931E+06    -200.954E+06    -75.1105E+06    -3.25377E+06    -223.782E-03     447.832E-03    -224.049E-03     20.7777E-03    -223.970E-03     447.105E-03    -223.963E-03     21.3839E-03
            1038     4.31650E-03     145.151E-03    -108.812E+06    -179.091E+06    -55.6459E+06    -3.88268E+06    -223.725E-03     447.788E-03    -224.063E-03     24.5419E-03    -223.928E-03     447.130E-03    -223.924E-03     25.1440E-03
            1039     5.03615E-03     145.187E-03    -99.5768E+06    -157.836E+06    -37.7150E+06    -4.55078E+06    -223.674E-03     447.739E-03    -224.064E-03     28.0740E-03    -223.890E-03     447.149E-03    -223.879E-03     28.6103E-03
            1040     5.75583E-03     145.228E-03    -90.3506E+06    -137.192E+06    -21.5647E+06    -5.25914E+06    -223.633E-03     447.688E-03    -224.054E-03     31.4401E-03    -223.859E-03     447.168E-03    -223.832E-03     31.8463E-03
            1041     6.47568E-03     145.274E-03    -81.2779E+06    -117.212E+06    -7.22309E+06    -5.93247E+06    -223.555E-03     447.588E-03    -224.033E-03     34.6406E-03    -223.791E-03     447.140E-03    -223.781E-03     34.8520E-03
            1042     7.19567E-03     145.324E-03    -72.6637E+06    -97.2852E+06     5.45074E+06    -6.49057E+06    -223.457E-03     447.455E-03    -223.998E-03     37.6757E-03    -223.705E-03     447.084E-03    -223.724E-03     37.6213E-03
            1043     7.91572E-03     145.378E-03    -64.4971E+06    -77.7814E+06     16.7571E+06    -6.81367E+06    -223.344E-03     447.296E-03    -223.952E-03     40.5167E-03    -223.607E-03     447.006E-03    -223.662E-03     40.1296E-03
            1044     8.63593E-03     145.436E-03    -56.5445E+06    -56.6401E+06     27.3176E+06    -6.97973E+06    -223.203E-03     447.098E-03    -223.895E-03     43.2037E-03    -223.487E-03     446.901E-03    -223.594E-03     42.4163E-03
            1045     9.35631E-03     145.497E-03    -49.1383E+06    -33.9079E+06     37.3180E+06    -7.06358E+06    -223.060E-03     446.890E-03    -223.829E-03     45.7327E-03    -223.375E-03     446.802E-03    -223.522E-03     44.4667E-03
            1046     10.0767E-03     145.562E-03    -42.0316E+06    -7.26815E+06     47.0806E+06    -6.72700E+06    -222.917E-03     446.671E-03    -223.755E-03     48.0302E-03    -223.274E-03     446.717E-03    -223.448E-03     46.2232E-03
            1047     10.7973E-03     145.630E-03    -35.2492E+06     24.2703E+06     56.9029E+06    -4.74854E+06    -222.735E-03     446.407E-03    -223.673E-03     49.9608E-03    -223.149E-03     446.617E-03    -223.372E-03     47.5732E-03
            1048     11.5180E-03     145.699E-03    -28.3552E+06     76.5524E+06     70.1689E+06    -2.31346E+06    -222.430E-03     446.003E-03    -223.574E-03     51.2327E-03    -222.939E-03     446.480E-03    -223.293E-03     48.2222E-03
            1049     12.2390E-03     145.770E-03    -20.6126E+06     127.173E+06     84.2696E+06    -852.590E+03    -222.091E-03     445.567E-03    -223.476E-03     51.3061E-03    -222.686E-03     446.296E-03    -223.209E-03     47.7109E-03
            1050     12.9601E-03     145.838E-03    -12.7367E+06     144.913E+06     103.550E+06    -191.129E+03    -221.953E-03     445.406E-03    -223.453E-03     50.5579E-03    -222.605E-03     446.227E-03    -223.127E-03     46.1707E-03
            1051     13.6810E-03     145.904E-03    -6.53747E+06     146.086E+06     123.164E+06    -89.2853E+03    -222.368E-03     445.850E-03    -223.481E-03     44.7354E-03    -222.980E-03     446.600E-03    -223.068E-03     40.6886E-03
            1052     719.807E-06     146.531E-03    -145.487E+06    -268.471E+06    -142.677E+06    -811.363E+03    -223.176E-03     446.434E-03    -223.258E-03     4.90333E-03    -223.307E-03     445.509E-03    -223.371E-03     5.09359E-03
            1053     1.43965E-03     146.540E-03    -141.291E+06    -256.651E+06    -131.288E+06    -1.55579E+06    -223.183E-03     446.428E-03    -223.245E-03     9.02791E-03    -223.326E-03     445.539E-03    -223.324E-03     9.36527E-03
            1054     2.15956E-03     146.555E-03    -135.046E+06    -239.526E+06    -114.799E+06    -2.44787E+06    -223.232E-03     446.516E-03    -223.284E-03     13.3669E-03    -223.392E-03     445.679E-03    -223.315E-03     13.8318E-03
            1055     2.87942E-03     146.576E-03    -127.337E+06    -219.528E+06    -95.4398E+06    -3.31230E+06    -223.276E-03     446.618E-03    -223.341E-03     17.5058E-03    -223.454E-03     445.841E-03    -223.316E-03     18.0653E-03
            1056     3.59921E-03     146.602E-03    -118.663E+06    -197.992E+06    -75.3569E+06    -4.05960E+06    -223.302E-03     446.700E-03    -223.397E-03     21.4797E-03    -223.497E-03     445.989E-03    -223.315E-03     22.0886E-03
            1057     4.31914E-03     146.633E-03    -109.464E+06    -175.911E+06    -55.8960E+06    -4.84072E+06    -223.374E-03     446.822E-03    -223.448E-03     25.2571E-03    -223.583E-03     446.180E-03    -223.314E-03     25.8639E-03
            1058     5.03898E-03     146.669E-03    -99.9801E+06    -154.653E+06    -37.8366E+06    -5.69605E+06    -223.468E-03     446.963E-03    -223.495E-03     28.8528E-03    -223.688E-03     446.389E-03    -223.315E-03     29.3992E-03
            1059     5.75886E-03     146.710E-03    -90.5872E+06    -134.107E+06    -21.6211E+06    -6.50178E+06    -223.535E-03     447.071E-03    -223.536E-03     32.2377E-03    -223.765E-03     446.566E-03    -223.318E-03     32.6592E-03
            1060     6.47871E-03     146.756E-03    -81.5943E+06    -114.401E+06    -7.36116E+06    -7.19509E+06    -223.576E-03     447.142E-03    -223.566E-03     35.3863E-03    -223.816E-03     446.707E-03    -223.318E-03     35.6190E-03
            1061     7.19857E-03     146.806E-03    -72.9704E+06    -94.8803E+06     5.28413E+06    -7.70972E+06    -223.578E-03     447.161E-03    -223.583E-03     38.3635E-03    -223.829E-03     446.801E-03    -223.313E-03     38.3383E-03
            1062     7.91859E-03     146.860E-03    -64.7874E+06    -75.9459E+06     16.5305E+06    -8.02983E+06    -223.555E-03     447.143E-03    -223.589E-03     41.1231E-03    -223.820E-03     446.861E-03    -223.302E-03     40.7693E-03
            1063     8.63865E-03     146.917E-03    -57.0391E+06    -54.9479E+06     26.9159E+06    -8.37387E+06    -223.495E-03     447.076E-03    -223.581E-03     43.6857E-03    -223.781E-03     446.887E-03    -223.284E-03     42.9341E-03
            1064     9.35880E-03     146.979E-03    -49.5795E+06    -33.3463E+06     36.6435E+06    -8.22343E+06    -223.406E-03     446.968E-03    -223.563E-03     46.1441E-03    -223.720E-03     446.882E-03    -223.259E-03     44.9234E-03
            1065     10.0791E-03     147.043E-03    -42.8688E+06    -7.63646E+06     46.1035E+06    -7.43326E+06    -223.261E-03     446.793E-03    -223.531E-03     48.3922E-03    -223.618E-03     446.836E-03    -223.228E-03     46.6378E-03
            1066     10.7994E-03     147.111E-03    -36.0667E+06     21.0321E+06      55.279E+06    -6.58276E+06    -223.038E-03     446.523E-03    -223.485E-03     50.2356E-03    -223.447E-03     446.718E-03    -223.187E-03     47.8652E-03
            1067     11.5201E-03     147.180E-03    -28.6774E+06     72.0555E+06     68.1874E+06    -4.95913E+06    -222.742E-03     446.158E-03    -223.416E-03     51.3979E-03    -223.242E-03     446.614E-03    -223.138E-03     48.3690E-03
            1068     12.2409E-03     147.250E-03    -21.6881E+06     125.705E+06     82.4619E+06    -3.32486E+06    -222.532E-03     445.879E-03    -223.346E-03     51.1928E-03    -223.128E-03     446.605E-03    -223.085E-03     47.5447E-03
            1069     12.9618E-03     147.318E-03    -14.7199E+06     143.486E+06     100.606E+06    -1.56673E+06    -222.676E-03     446.035E-03    -223.359E-03     50.4851E-03    -223.333E-03     446.857E-03    -223.043E-03     46.0429E-03
            1070     13.6820E-03     147.386E-03    -7.63302E+06     144.615E+06     121.549E+06    -475.819E+03    -222.922E-03     446.352E-03    -223.431E-03     45.1084E-03    -223.535E-03     447.100E-03    -223.022E-03     41.0561E-03
            1071     720.474E-06     148.010E-03    -146.035E+06    -264.803E+06    -143.080E+06    -1.21517E+06    -222.248E-03     444.605E-03    -222.357E-03     5.28665E-03    -222.386E-03     443.700E-03    -222.477E-03     5.47041E-03
            1072     1.44092E-03     148.020E-03    -141.824E+06    -252.804E+06    -131.960E+06    -2.01517E+06    -222.389E-03     444.741E-03    -222.352E-03     9.56567E-03    -222.540E-03     443.873E-03    -222.440E-03     9.89307E-03
            1073     2.16139E-03     148.035E-03    -135.694E+06    -235.694E+06    -115.386E+06    -2.95460E+06    -222.440E-03     444.866E-03    -222.426E-03     13.9600E-03    -222.608E-03     444.050E-03    -222.464E-03     14.4184E-03
            1074     2.88184E-03     148.056E-03    -128.046E+06    -215.551E+06    -95.7277E+06    -4.00727E+06    -222.572E-03     445.081E-03    -222.510E-03     18.2012E-03    -222.758E-03     444.325E-03    -222.490E-03     18.7538E-03
            1075     3.60213E-03     148.082E-03    -119.163E+06    -194.198E+06    -75.2979E+06    -5.11843E+06    -222.772E-03     445.379E-03    -222.607E-03     22.3189E-03    -222.973E-03     444.687E-03    -222.530E-03     22.9207E-03
            1076     4.32231E-03     148.113E-03    -109.606E+06    -172.211E+06    -55.6974E+06    -6.02092E+06    -222.979E-03     445.689E-03    -222.710E-03     26.2102E-03    -223.194E-03     445.065E-03    -222.580E-03     26.8157E-03
            1077     5.04244E-03     148.150E-03    -100.041E+06    -150.817E+06    -37.6706E+06    -6.94801E+06    -223.198E-03     446.011E-03    -222.813E-03     29.8043E-03    -223.424E-03     445.455E-03    -222.637E-03     30.3552E-03
            1078     5.76242E-03     148.191E-03    -90.7264E+06    -130.731E+06    -21.5954E+06    -7.79152E+06    -223.410E-03     446.321E-03    -222.911E-03     33.1639E-03    -223.644E-03     445.831E-03    -222.698E-03     33.5978E-03
            1079     6.48234E-03     148.237E-03    -81.6615E+06    -111.241E+06    -7.32129E+06    -8.43697E+06    -223.596E-03     446.598E-03    -223.002E-03     36.2874E-03    -223.839E-03     446.178E-03    -222.759E-03     36.5356E-03
            1080     7.20224E-03     148.287E-03    -73.0024E+06    -92.2411E+06     5.29677E+06    -8.94915E+06    -223.755E-03     446.839E-03    -223.084E-03     39.1719E-03    -224.009E-03     446.490E-03    -222.818E-03     39.1674E-03
            1081     7.92205E-03     148.341E-03    -64.7548E+06    -73.6262E+06     16.4936E+06    -9.36503E+06    -223.861E-03     447.016E-03    -223.155E-03     41.7868E-03    -224.128E-03     446.743E-03    -222.872E-03     41.4606E-03
            1082     8.64183E-03     148.399E-03    -56.9177E+06    -53.2921E+06     26.7681E+06    -9.41278E+06    -223.892E-03     447.103E-03    -223.211E-03     44.1776E-03    -224.178E-03     446.920E-03    -222.917E-03     43.4608E-03
            1083     9.36168E-03     148.460E-03    -49.7042E+06    -32.6020E+06     36.2487E+06    -9.22146E+06    -223.836E-03     447.089E-03    -223.252E-03     46.4667E-03    -224.149E-03     447.004E-03    -222.952E-03     45.2819E-03
            1084     10.0816E-03     148.525E-03    -42.3659E+06    -8.15914E+06     45.5822E+06    -8.78417E+06    -223.709E-03     446.983E-03    -223.274E-03     48.5280E-03    -224.059E-03     447.021E-03    -222.972E-03     46.7986E-03
            1085     10.8018E-03     148.592E-03    -35.2692E+06     20.1503E+06     54.8357E+06    -8.03516E+06    -223.567E-03     446.844E-03    -223.277E-03     50.1508E-03    -223.967E-03     447.032E-03    -222.981E-03     47.7896E-03
            1086     11.5218E-03     148.661E-03    -28.5950E+06     69.9273E+06     67.3658E+06    -7.16326E+06    -223.369E-03     446.626E-03    -223.257E-03     51.1292E-03    -223.862E-03     447.071E-03    -222.980E-03     48.0805E-03
            1087     12.2422E-03     148.731E-03    -21.3698E+06     122.295E+06     81.5668E+06    -5.56388E+06    -223.281E-03     446.520E-03    -223.239E-03     50.9328E-03    -223.867E-03     447.228E-03    -222.978E-03     47.2479E-03
            1088     12.9618E-03     148.800E-03    -14.4309E+06     140.988E+06     98.6374E+06    -3.55988E+06    -223.319E-03     446.609E-03    -223.290E-03     50.4580E-03    -223.966E-03     447.419E-03    -222.980E-03     45.9986E-03
            1089     13.6819E-03     148.868E-03    -7.15000E+06     141.723E+06     119.189E+06    -1.72887E+06    -223.149E-03     446.534E-03    -223.386E-03     45.0865E-03    -223.752E-03     447.269E-03    -222.985E-03     41.0135E-03
            1090     721.413E-06     149.487E-03    -146.006E+06    -260.061E+06    -143.588E+06    -1.38200E+06    -221.207E-03     442.493E-03    -221.286E-03     5.46810E-03    -221.352E-03     441.613E-03    -221.415E-03     5.64493E-03
            1091     1.44256E-03     149.496E-03    -142.107E+06    -248.213E+06    -132.178E+06    -2.57148E+06    -221.416E-03     442.728E-03    -221.312E-03     9.96789E-03    -221.574E-03     441.884E-03    -221.407E-03     10.2829E-03
            1092     2.16355E-03     149.512E-03    -135.784E+06    -230.948E+06    -115.378E+06    -3.81715E+06    -221.591E-03     443.018E-03    -221.427E-03     14.5814E-03    -221.766E-03     442.225E-03    -221.472E-03     15.0250E-03
            1093     2.88453E-03     149.533E-03    -127.835E+06    -210.696E+06    -95.5020E+06    -5.08143E+06    -221.810E-03     443.368E-03    -221.557E-03     19.0095E-03    -222.002E-03     442.635E-03    -221.544E-03     19.5494E-03
            1094     3.60544E-03     149.560E-03    -118.850E+06    -189.608E+06    -74.8679E+06    -6.19812E+06    -222.139E-03     443.844E-03    -221.704E-03     23.2103E-03    -222.346E-03     443.173E-03    -221.631E-03     23.8051E-03
            1095     4.32604E-03     149.592E-03    -109.258E+06    -167.825E+06    -55.1557E+06    -7.33649E+06    -222.512E-03     444.375E-03    -221.864E-03     27.1715E-03    -222.731E-03     443.771E-03    -221.738E-03     27.7672E-03
            1096     5.04642E-03     149.629E-03    -99.5784E+06    -146.628E+06    -37.1662E+06    -8.33429E+06    -222.884E-03     444.912E-03    -222.028E-03     30.8587E-03    -223.113E-03     444.375E-03    -221.857E-03     31.4021E-03
            1097     5.76661E-03     149.671E-03    -90.0457E+06    -126.863E+06    -21.0268E+06    -9.15618E+06    -223.263E-03     445.456E-03    -222.193E-03     34.2215E-03    -223.499E-03     444.983E-03    -221.983E-03     34.6526E-03
            1098     6.48660E-03     149.718E-03    -80.8630E+06    -107.780E+06    -6.81558E+06    -9.87658E+06    -223.630E-03     445.984E-03    -222.354E-03     37.3061E-03    -223.873E-03     445.577E-03    -222.115E-03     37.5584E-03
            1099     7.20635E-03     149.768E-03    -72.0226E+06    -89.2854E+06     5.71227E+06    -10.4342E+06    -223.977E-03     446.487E-03    -222.510E-03     40.1204E-03    -224.229E-03     446.150E-03    -222.247E-03     40.1283E-03
            1100     7.92591E-03     149.823E-03    -63.5752E+06    -70.9724E+06     16.8930E+06    -10.8456E+06    -224.236E-03     446.893E-03    -222.657E-03     42.6113E-03    -224.499E-03     446.630E-03    -222.378E-03     42.3032E-03
            1101     8.64544E-03     149.881E-03    -55.5554E+06    -51.7291E+06     27.0398E+06    -10.9495E+06    -224.368E-03     447.156E-03    -222.788E-03     44.8729E-03    -224.648E-03     446.977E-03    -222.498E-03     44.1773E-03
            1102     9.36490E-03     149.942E-03    -47.7687E+06    -31.3810E+06     36.6980E+06    -10.8135E+06    -224.403E-03     447.304E-03    -222.901E-03     46.9873E-03    -224.707E-03     447.220E-03    -222.602E-03     45.8275E-03
            1103     10.0844E-03     150.007E-03    -40.4858E+06    -7.92518E+06     45.8401E+06    -10.5676E+06    -224.347E-03     447.336E-03    -222.988E-03     48.8724E-03    -224.686E-03     447.369E-03    -222.689E-03     47.1720E-03
            1104     10.8040E-03     150.074E-03    -33.5343E+06     18.8081E+06     54.8260E+06    -9.49093E+06    -224.229E-03     447.283E-03    -223.054E-03     50.4417E-03    -224.615E-03     447.458E-03    -222.758E-03     48.1262E-03
            1105     11.5236E-03     150.143E-03    -26.8107E+06     69.5331E+06     67.8721E+06    -8.34057E+06    -224.034E-03     447.122E-03    -223.089E-03     51.6708E-03    -224.515E-03     447.558E-03    -222.811E-03     48.6796E-03
            1106     12.2431E-03     150.214E-03    -20.8878E+06     120.364E+06     81.6962E+06    -7.57248E+06    -223.894E-03     447.011E-03    -223.118E-03     52.0248E-03    -224.474E-03     447.708E-03    -222.853E-03     48.3730E-03
            1107     12.9631E-03     150.283E-03    -14.1116E+06     136.132E+06     97.2443E+06    -5.63495E+06    -223.849E-03     447.050E-03    -223.201E-03     51.7132E-03    -224.489E-03     447.841E-03    -222.892E-03     47.2241E-03
            1108     13.6828E-03     150.351E-03    -6.59739E+06     136.793E+06     116.906E+06    -2.49816E+06    -223.701E-03     447.024E-03    -223.323E-03     45.8050E-03    -224.294E-03     447.740E-03    -222.927E-03     41.7063E-03
            1109     721.904E-06     150.960E-03    -145.387E+06    -254.125E+06    -142.806E+06    -1.77595E+06    -220.179E-03     440.341E-03    -220.162E-03     5.76236E-03    -220.330E-03     439.488E-03    -220.297E-03     5.92640E-03
            1110     1.44404E-03     150.970E-03    -141.415E+06    -242.304E+06    -131.375E+06    -3.33317E+06    -220.328E-03     440.562E-03    -220.233E-03     10.3512E-03    -220.492E-03     439.744E-03    -220.334E-03     10.6536E-03
            1111     2.16602E-03     150.986E-03    -135.033E+06    -225.133E+06    -114.678E+06    -4.84395E+06    -220.607E-03     440.965E-03    -220.357E-03     15.0995E-03    -220.787E-03     440.198E-03    -220.409E-03     15.5274E-03
            1112     2.88765E-03     151.008E-03    -127.019E+06    -205.153E+06    -94.7223E+06    -6.16798E+06    -221.000E-03     441.528E-03    -220.528E-03     19.7515E-03    -221.196E-03     440.819E-03    -220.520E-03     20.2735E-03
            1113     3.60894E-03     151.036E-03    -117.936E+06    -184.146E+06    -74.0905E+06    -7.53164E+06    -221.440E-03     442.167E-03    -220.727E-03     24.1263E-03    -221.651E-03     441.520E-03    -220.659E-03     24.6992E-03
            1114     4.33005E-03     151.069E-03    -108.316E+06    -162.612E+06    -54.3317E+06    -8.82346E+06    -221.931E-03     442.870E-03    -220.939E-03     28.2216E-03    -222.153E-03     442.288E-03    -220.818E-03     28.7968E-03
            1115     5.05081E-03     151.107E-03    -98.5921E+06    -141.963E+06    -36.2506E+06    -9.85236E+06    -222.498E-03     443.661E-03    -221.164E-03     32.0253E-03    -222.729E-03     443.143E-03    -220.996E-03     32.5520E-03
            1116     5.77122E-03     151.150E-03    -89.0151E+06    -122.596E+06    -20.2195E+06    -10.7628E+06    -223.089E-03     444.487E-03    -221.397E-03     35.4230E-03    -223.327E-03     444.031E-03    -221.191E-03     35.8427E-03
            1117     6.49125E-03     151.197E-03    -79.7041E+06    -103.961E+06    -6.04812E+06    -11.5327E+06    -223.668E-03     445.303E-03    -221.635E-03     38.4964E-03    -223.911E-03     444.912E-03    -221.399E-03     38.7502E-03
            1118     7.21097E-03     151.249E-03    -70.9102E+06    -85.9656E+06     6.40696E+06    -12.1011E+06    -224.167E-03     446.038E-03    -221.871E-03     41.2602E-03    -224.417E-03     445.713E-03    -221.611E-03     41.2774E-03
            1119     7.93041E-03     151.304E-03    -62.6402E+06    -68.0770E+06     17.4575E+06    -12.5073E+06    -224.553E-03     446.649E-03    -222.096E-03     43.6987E-03    -224.815E-03     446.396E-03    -221.819E-03     43.4098E-03
            1120     8.64956E-03     151.363E-03    -54.8199E+06    -49.5961E+06     27.4138E+06    -12.7924E+06    -224.834E-03     447.138E-03    -222.304E-03     45.9076E-03    -225.112E-03     446.965E-03    -222.015E-03     45.2434E-03
            1121     9.36870E-03     151.425E-03    -47.3463E+06    -30.1637E+06     36.7041E+06    -12.7330E+06    -225.010E-03     447.501E-03    -222.491E-03     47.9515E-03    -225.311E-03     447.420E-03    -222.195E-03     46.8355E-03
            1122     10.0877E-03     151.489E-03    -40.2067E+06    -7.25877E+06     45.8087E+06    -12.2056E+06    -225.027E-03     447.680E-03    -222.652E-03     49.7272E-03    -225.362E-03     447.713E-03    -222.354E-03     48.0821E-03
            1123     10.8068E-03     151.557E-03    -33.4078E+06     18.5313E+06     54.6454E+06    -11.6225E+06    -224.887E-03     447.670E-03    -222.783E-03     51.2594E-03    -225.269E-03     447.840E-03    -222.488E-03     48.9978E-03
            1124     11.5261E-03     151.626E-03    -26.7175E+06     67.3480E+06     67.0759E+06    -10.1372E+06    -224.615E-03     447.486E-03    -222.871E-03     52.4213E-03    -225.087E-03     447.908E-03    -222.594E-03     49.4867E-03
            1125     12.2459E-03     151.696E-03    -19.8446E+06     118.692E+06     81.5851E+06    -7.95707E+06    -224.362E-03     447.304E-03    -222.943E-03     52.7079E-03    -224.932E-03     447.989E-03    -222.678E-03     49.1118E-03
            1126     12.9651E-03     151.766E-03    -13.7184E+06     132.035E+06     96.5622E+06    -6.21427E+06    -224.378E-03     447.441E-03    -223.063E-03     52.4683E-03    -225.011E-03     448.214E-03    -222.752E-03     47.9646E-03
            1127     13.6843E-03     151.834E-03    -7.19064E+06     129.836E+06     114.499E+06    -3.77023E+06    -224.720E-03     447.948E-03    -223.228E-03     46.5718E-03    -225.305E-03     448.636E-03    -222.833E-03     42.4456E-03
            1128     723.029E-06     152.430E-03    -144.342E+06    -247.153E+06    -141.488E+06    -2.04311E+06    -219.145E-03     438.097E-03    -218.952E-03     5.99102E-03    -219.303E-03     437.275E-03    -219.092E-03     6.15013E-03
            1129     1.44567E-03     152.440E-03    -140.236E+06    -235.097E+06    -129.858E+06    -3.77401E+06    -219.273E-03     438.398E-03    -219.125E-03     10.8112E-03    -219.444E-03     437.612E-03    -219.230E-03     11.1055E-03
            1130     2.16823E-03     152.457E-03    -134.087E+06    -218.215E+06    -113.243E+06    -5.54930E+06    -219.608E-03     438.883E-03    -219.275E-03     15.7264E-03    -219.795E-03     438.148E-03    -219.331E-03     16.1401E-03
            1131     2.89063E-03     152.480E-03    -125.841E+06    -198.254E+06    -93.2678E+06    -7.43404E+06    -220.069E-03     439.541E-03    -219.473E-03     20.5531E-03    -220.271E-03     438.863E-03    -219.469E-03     21.0524E-03
            1132     3.61266E-03     152.509E-03    -116.486E+06    -177.614E+06    -72.6353E+06    -9.25232E+06    -220.636E-03     440.341E-03    -219.705E-03     25.1211E-03    -220.850E-03     439.722E-03    -219.642E-03     25.6640E-03
            1133     4.33431E-03     152.543E-03    -106.726E+06    -156.877E+06    -52.9380E+06    -10.5769E+06    -221.302E-03     441.267E-03    -219.965E-03     29.3647E-03    -221.526E-03     440.709E-03    -219.847E-03     29.9161E-03
            1134     5.05553E-03     152.583E-03    -96.7647E+06    -136.673E+06    -34.8057E+06    -11.6474E+06    -222.044E-03     442.291E-03    -220.247E-03     33.2505E-03    -222.275E-03     441.794E-03    -220.082E-03     33.7613E-03
            1135     5.77620E-03     152.627E-03    -87.0954E+06    -117.884E+06    -18.7749E+06    -12.5536E+06    -222.835E-03     443.381E-03    -220.546E-03     36.7499E-03    -223.070E-03     442.943E-03    -220.343E-03     37.1602E-03
            1136     6.49635E-03     152.676E-03    -77.9632E+06    -99.9682E+06    -4.78694E+06    -13.1240E+06    -223.581E-03     444.436E-03    -220.855E-03     39.9046E-03    -223.821E-03     444.058E-03    -220.621E-03     40.1615E-03
            1137     7.21598E-03     152.729E-03    -69.3130E+06    -82.4607E+06     7.57627E+06    -13.5205E+06    -224.229E-03     445.392E-03    -221.163E-03     42.7350E-03    -224.477E-03     445.079E-03    -220.905E-03     42.7708E-03
            1138     7.93531E-03     152.785E-03    -61.3100E+06    -65.1646E+06     18.4114E+06    -13.7257E+06    -224.784E-03     446.245E-03    -221.461E-03     45.1691E-03    -225.043E-03     446.001E-03    -221.185E-03     44.9162E-03
            1139     8.65446E-03     152.845E-03    -53.9710E+06    -47.1379E+06     28.0856E+06    -13.7194E+06    -225.237E-03     446.981E-03    -221.743E-03     47.2908E-03    -225.513E-03     446.815E-03    -221.456E-03     46.6845E-03
            1140     9.37317E-03     152.907E-03    -47.1671E+06    -28.2901E+06     36.9699E+06    -13.6442E+06    -225.531E-03     447.536E-03    -222.005E-03     49.2503E-03    -225.830E-03     447.460E-03    -221.711E-03     48.2049E-03
            1141     10.0919E-03     152.972E-03    -40.6180E+06    -5.81935E+06     45.7002E+06    -13.7373E+06    -225.628E-03     447.865E-03    -222.237E-03     50.9463E-03    -225.963E-03     447.903E-03    -221.941E-03     49.3648E-03
            1142     10.8105E-03     153.040E-03    -33.8390E+06     19.9437E+06     54.5486E+06    -13.9853E+06    -225.607E-03     448.043E-03    -222.436E-03     52.3915E-03    -225.989E-03     448.217E-03    -222.143E-03     50.1769E-03
            1143     11.5292E-03     153.109E-03    -26.6223E+06     64.2734E+06     65.9134E+06    -12.9737E+06    -225.452E-03     448.043E-03    -222.592E-03     53.3824E-03    -225.915E-03     448.449E-03    -222.317E-03     50.4711E-03
            1144     12.2478E-03     153.179E-03    -19.0942E+06     113.463E+06     79.7008E+06    -10.0284E+06    -225.260E-03     447.987E-03    -222.727E-03     53.2702E-03    -225.813E-03     448.643E-03    -222.465E-03     49.7105E-03
            1145     12.9672E-03     153.249E-03    -11.5080E+06     127.324E+06     94.5044E+06    -6.12448E+06    -225.256E-03     448.158E-03    -222.902E-03     52.5909E-03    -225.863E-03     448.902E-03    -222.598E-03     48.1693E-03
            1146     13.6860E-03     153.319E-03    -5.06214E+06     123.426E+06     112.894E+06    -3.67549E+06    -225.762E-03     448.890E-03    -223.129E-03     47.0908E-03    -226.320E-03     449.542E-03    -222.736E-03     43.0470E-03
            1147     723.583E-06     153.896E-03    -143.082E+06    -239.128E+06    -140.638E+06    -2.33342E+06    -217.977E-03     435.874E-03    -217.897E-03     6.08588E-03    -218.141E-03     435.089E-03    -218.046E-03     6.24636E-03
            1148     1.44731E-03     153.907E-03    -138.709E+06    -226.548E+06    -128.348E+06    -4.55730E+06    -218.186E-03     436.203E-03    -218.017E-03     11.2160E-03    -218.363E-03     435.456E-03    -218.129E-03     11.5034E-03
            1149     2.17072E-03     153.925E-03    -131.602E+06    -209.277E+06    -110.851E+06    -7.13228E+06    -218.603E-03     436.789E-03    -218.186E-03     16.4443E-03    -218.793E-03     436.091E-03    -218.246E-03     16.8388E-03
            1150     2.89371E-03     153.949E-03    -123.027E+06    -190.019E+06    -90.8541E+06    -9.36973E+06    -219.127E-03     437.537E-03    -218.410E-03     21.3995E-03    -219.331E-03     436.893E-03    -218.410E-03     21.8707E-03
            1151     3.61652E-03     153.979E-03    -113.797E+06    -170.286E+06    -70.2491E+06    -11.0008E+06    -219.800E-03     438.474E-03    -218.674E-03     26.1008E-03    -220.014E-03     437.884E-03    -218.614E-03     26.6239E-03
            1152     4.33866E-03     154.015E-03    -104.043E+06    -150.356E+06    -50.6459E+06    -12.4290E+06    -220.620E-03     439.595E-03    -218.975E-03     30.4819E-03    -220.842E-03     439.061E-03    -218.859E-03     31.0165E-03
            1153     5.06026E-03     154.056E-03    -94.2174E+06    -131.054E+06    -32.9060E+06    -13.4902E+06    -221.486E-03     440.790E-03    -219.304E-03     34.5503E-03    -221.713E-03     440.313E-03    -219.142E-03     35.0507E-03
            1154     5.78132E-03     154.103E-03    -84.7233E+06    -113.020E+06    -17.0283E+06    -14.2051E+06    -222.383E-03     442.036E-03    -219.653E-03     38.2731E-03    -222.614E-03     441.614E-03    -219.451E-03     38.6885E-03
            1155     6.50175E-03     154.153E-03    -75.6114E+06    -95.9855E+06    -3.14862E+06    -14.6671E+06    -223.271E-03     443.284E-03    -220.013E-03     41.5634E-03    -223.506E-03     442.919E-03    -219.780E-03     41.8348E-03
            1156     7.22178E-03     154.207E-03    -67.1331E+06    -79.2338E+06     8.97447E+06    -14.6870E+06    -224.108E-03     444.486E-03    -220.377E-03     44.4860E-03    -224.349E-03     444.181E-03    -220.120E-03     44.5575E-03
            1157     7.94118E-03     154.265E-03    -59.1914E+06    -62.5217E+06     19.7169E+06    -14.5119E+06    -224.891E-03     445.631E-03    -220.740E-03     46.9782E-03    -225.142E-03     445.392E-03    -220.465E-03     46.7846E-03
            1158     8.65996E-03     154.326E-03    -51.8067E+06    -44.7718E+06     29.3928E+06    -14.2939E+06    -225.529E-03     446.622E-03    -221.093E-03     49.0854E-03    -225.795E-03     446.460E-03    -220.806E-03     48.5560E-03
            1159     9.37857E-03     154.390E-03    -44.9139E+06    -26.0133E+06     38.3724E+06    -14.1374E+06    -225.945E-03     447.371E-03    -221.426E-03     50.9227E-03    -226.234E-03     447.298E-03    -221.132E-03     49.9697E-03
            1160     10.0969E-03     154.456E-03    -38.4515E+06    -3.52704E+06     47.1332E+06    -13.9869E+06    -226.202E-03     447.931E-03    -221.730E-03     52.5102E-03    -226.527E-03     447.971E-03    -221.433E-03     51.0426E-03
            1161     10.8152E-03     154.523E-03    -32.5972E+06     22.8978E+06     55.9399E+06    -14.4619E+06    -226.370E-03     448.373E-03    -222.003E-03     53.8685E-03    -226.747E-03     448.553E-03    -221.709E-03     51.7755E-03
            1162     11.5333E-03     154.593E-03    -26.6825E+06     63.7815E+06     66.0041E+06    -15.1058E+06    -226.459E-03     448.696E-03    -222.237E-03     54.8550E-03    -226.918E-03     449.096E-03    -221.961E-03     52.0316E-03
            1163     12.2517E-03     154.664E-03    -19.9378E+06     108.264E+06     78.0678E+06    -13.1847E+06    -226.614E-03     449.071E-03    -222.457E-03     54.7896E-03    -227.159E-03     449.703E-03    -222.195E-03     51.2633E-03
            1164     12.9688E-03     154.735E-03    -12.8175E+06     118.827E+06     90.2625E+06    -9.27885E+06    -226.888E-03     449.607E-03    -222.719E-03     53.7111E-03    -227.482E-03     450.316E-03    -222.422E-03     49.2868E-03
            1165     13.6867E-03     154.804E-03    -5.60394E+06     115.076E+06     108.537E+06    -4.01027E+06    -227.066E-03     450.094E-03    -223.028E-03     47.9442E-03    -227.609E-03     450.711E-03    -222.644E-03     43.9001E-03
            1166     724.511E-06     155.360E-03    -137.093E+06    -228.860E+06    -134.378E+06    -3.35775E+06    -216.937E-03     433.830E-03    -216.894E-03     6.34658E-03    -217.095E-03     433.079E-03    -217.035E-03     6.49593E-03
            1167     1.44881E-03     155.371E-03    -132.768E+06    -215.926E+06    -124.067E+06    -5.90794E+06    -217.182E-03     434.170E-03    -216.988E-03     11.5269E-03    -217.351E-03     433.461E-03    -217.103E-03     11.8036E-03
            1168     2.17296E-03     155.390E-03    -126.723E+06    -198.541E+06    -107.681E+06    -8.65562E+06    -217.594E-03     434.750E-03    -217.157E-03     16.8698E-03    -217.780E-03     434.094E-03    -217.223E-03     17.2547E-03
            1169     2.89682E-03     155.415E-03    -119.172E+06    -181.028E+06    -87.8257E+06    -10.8851E+06    -218.202E-03     435.595E-03    -217.393E-03     21.9988E-03    -218.403E-03     434.985E-03    -217.397E-03     22.4659E-03
            1170     3.62003E-03     155.447E-03    -110.088E+06    -162.135E+06    -67.3610E+06    -12.6505E+06    -218.934E-03     436.612E-03    -217.678E-03     26.9432E-03    -219.145E-03     436.051E-03    -217.620E-03     27.4684E-03
            1171     4.34291E-03     155.484E-03    -100.563E+06    -143.144E+06    -47.9841E+06    -14.1490E+06    -219.764E-03     437.760E-03    -217.997E-03     31.6232E-03    -219.981E-03     437.252E-03    -217.883E-03     32.1640E-03
            1172     5.06514E-03     155.527E-03    -91.0429E+06    -124.994E+06    -30.4779E+06    -15.2541E+06    -220.710E-03     439.053E-03    -218.343E-03     35.9896E-03    -220.931E-03     438.596E-03    -218.183E-03     36.5028E-03
            1173     5.78675E-03     155.576E-03    -81.5331E+06    -108.033E+06    -14.9277E+06    -15.8811E+06    -221.707E-03     440.421E-03    -218.714E-03     39.9639E-03    -221.930E-03     440.014E-03    -218.514E-03     40.4091E-03
            1174     6.50779E-03     155.628E-03    -72.5072E+06    -91.9741E+06    -1.26102E+06    -16.1693E+06    -222.743E-03     441.848E-03    -219.105E-03     43.4439E-03    -222.968E-03     441.493E-03    -218.873E-03     43.7615E-03
            1175     7.22794E-03     155.684E-03    -63.9478E+06    -76.3576E+06     10.6999E+06    -16.1322E+06    -223.775E-03     443.284E-03    -219.509E-03     46.5242E-03    -224.002E-03     442.983E-03    -219.252E-03     46.6591E-03
            1176     7.94755E-03     155.744E-03    -55.7765E+06    -60.2298E+06     21.4590E+06    -15.7581E+06    -224.731E-03     444.651E-03    -219.920E-03     49.2091E-03    -224.965E-03     444.412E-03    -219.645E-03     49.1096E-03
            1177     8.66661E-03     155.807E-03    -48.0897E+06    -43.0733E+06     31.3470E+06    -15.1861E+06    -225.577E-03     445.906E-03    -220.329E-03     51.4299E-03    -225.824E-03     445.739E-03    -220.041E-03     51.0222E-03
            1178     9.38506E-03     155.872E-03    -41.1391E+06    -24.5131E+06     40.6034E+06    -14.3748E+06    -226.287E-03     447.017E-03    -220.730E-03     53.2390E-03    -226.557E-03     446.936E-03    -220.431E-03     52.4419E-03
            1179     10.1032E-03     155.939E-03    -34.8977E+06    -1.93338E+06     49.7275E+06    -13.7432E+06    -226.859E-03     447.972E-03    -221.113E-03     54.6565E-03    -227.166E-03     448.003E-03    -220.811E-03     53.3797E-03
            1180     10.8210E-03     156.008E-03    -28.9797E+06     25.8187E+06     59.3748E+06    -13.2339E+06    -227.293E-03     448.767E-03    -221.475E-03     55.6832E-03    -227.652E-03     448.944E-03    -221.173E-03     53.8083E-03
            1181     11.5386E-03     156.078E-03    -23.9812E+06     68.6602E+06     70.3352E+06    -13.9548E+06    -227.626E-03     449.431E-03    -221.805E-03     56.4232E-03    -228.076E-03     449.835E-03    -221.518E-03     53.8176E-03
            1182     12.2555E-03     156.150E-03    -18.7909E+06     106.106E+06     80.7674E+06    -14.7547E+06    -228.031E-03     450.157E-03    -222.126E-03     56.4365E-03    -228.564E-03     450.766E-03    -221.849E-03     53.0600E-03
            1183     12.9727E-03     156.222E-03    -13.1334E+06     107.934E+06     89.9806E+06    -11.2926E+06    -228.693E-03     451.184E-03    -222.491E-03     55.7256E-03    -229.269E-03     451.836E-03    -222.178E-03     51.4018E-03
            1184     13.6880E-03     156.293E-03    -6.89853E+06     104.324E+06     104.215E+06    -4.90450E+06    -229.048E-03     451.935E-03    -222.887E-03     49.5657E-03    -229.576E-03     452.507E-03    -222.507E-03     45.5531E-03
            1185     725.128E-06     156.821E-03    -131.728E+06    -216.133E+06    -128.812E+06    -3.62651E+06    -216.128E-03     432.077E-03    -215.950E-03     6.33472E-03    -216.285E-03     431.374E-03    -216.089E-03     6.48586E-03
            1186     1.45009E-03     156.833E-03    -127.809E+06    -203.627E+06    -118.854E+06    -6.67083E+06    -216.298E-03     432.408E-03    -216.110E-03     11.6564E-03    -216.467E-03     431.745E-03    -216.224E-03     11.9441E-03
            1187     2.17488E-03     156.852E-03    -122.362E+06    -187.613E+06    -103.389E+06    -9.19417E+06    -216.658E-03     432.925E-03    -216.266E-03     17.1523E-03    -216.844E-03     432.310E-03    -216.334E-03     17.5619E-03
            1188     2.89934E-03     156.878E-03    -114.952E+06    -170.904E+06    -83.9174E+06    -11.5867E+06    -217.196E-03     433.676E-03    -216.480E-03     22.5367E-03    -217.395E-03     433.103E-03    -216.485E-03     23.0417E-03
            1189     3.62348E-03     156.912E-03    -106.477E+06    -152.999E+06    -64.2543E+06    -13.8155E+06    -217.895E-03     434.632E-03    -216.737E-03     27.7602E-03    -218.104E-03     434.106E-03    -216.682E-03     28.3297E-03
            1190     4.34703E-03     156.951E-03    -97.3300E+06    -135.129E+06    -45.4527E+06    -15.5800E+06    -218.720E-03     435.753E-03    -217.033E-03     32.7652E-03    -218.934E-03     435.274E-03    -216.923E-03     33.3602E-03
            1191     5.07013E-03     156.996E-03    -87.9891E+06    -118.288E+06    -28.2903E+06    -16.8389E+06    -219.685E-03     437.049E-03    -217.364E-03     37.4359E-03    -219.902E-03     436.615E-03    -217.206E-03     38.0169E-03
            1192     5.79248E-03     157.046E-03    -78.9094E+06    -102.741E+06    -13.2277E+06    -17.5365E+06    -220.752E-03     438.478E-03    -217.726E-03     41.7178E-03    -220.968E-03     438.087E-03    -217.529E-03     42.2449E-03
            1193     6.51404E-03     157.101E-03    -70.1500E+06    -87.8380E+06     112.779E+03    -17.7772E+06    -221.869E-03     439.985E-03    -218.116E-03     45.6402E-03    -222.085E-03     439.640E-03    -217.886E-03     46.0655E-03
            1194     7.23500E-03     157.160E-03    -61.6855E+06    -73.0902E+06     12.0589E+06    -17.8157E+06    -223.054E-03     441.585E-03    -218.531E-03     49.1740E-03    -223.271E-03     441.288E-03    -218.275E-03     49.4428E-03
            1195     7.95508E-03     157.222E-03    -53.6673E+06    -58.3239E+06     22.7259E+06    -17.4062E+06    -224.243E-03     443.210E-03    -218.966E-03     52.1609E-03    -224.464E-03     442.967E-03    -218.690E-03     52.2221E-03
            1196     8.67446E-03     157.286E-03    -46.2849E+06    -42.2368E+06     32.6000E+06    -16.3292E+06    -225.403E-03     444.822E-03    -219.418E-03     54.4887E-03    -225.636E-03     444.646E-03    -219.127E-03     54.2834E-03
            1197     9.39316E-03     157.353E-03    -39.3528E+06    -24.1179E+06     42.0286E+06    -15.1446E+06    -226.566E-03     446.449E-03    -219.883E-03     56.2724E-03    -226.820E-03     446.356E-03    -219.581E-03     55.7147E-03
            1198     10.1109E-03     157.422E-03    -32.6996E+06    -1.25104E+06     51.7218E+06    -13.9687E+06    -227.627E-03     447.982E-03    -220.355E-03     57.5025E-03    -227.916E-03     448.000E-03    -220.047E-03     56.4931E-03
            1199     10.8280E-03     157.493E-03    -26.6394E+06     26.7123E+06     61.8141E+06    -13.0597E+06    -228.511E-03     449.336E-03    -220.826E-03     58.2193E-03    -228.851E-03     449.498E-03    -220.517E-03     56.6355E-03
            1200     11.5445E-03     157.565E-03    -20.5067E+06     73.1192E+06     74.8346E+06    -12.6796E+06    -229.171E-03     450.449E-03    -221.278E-03     58.5620E-03    -229.604E-03     450.851E-03    -220.980E-03     56.2665E-03
            1201     12.2610E-03     157.638E-03    -15.5264E+06     106.432E+06     85.4616E+06    -12.3285E+06    -229.774E-03     451.502E-03    -221.728E-03     58.0931E-03    -230.285E-03     452.087E-03    -221.432E-03     55.0318E-03
            1202     12.9763E-03     157.712E-03    -11.3476E+06     98.2124E+06     90.3894E+06    -9.75901E+06    -230.525E-03     452.729E-03    -222.204E-03     57.0175E-03    -231.067E-03     453.317E-03    -221.878E-03     52.9559E-03
            1203     13.6920E-03     157.785E-03    -5.07003E+06     93.5367E+06      99.739E+06    -5.70235E+06    -231.504E-03     454.203E-03    -222.700E-03     50.4273E-03    -231.994E-03     454.719E-03    -222.329E-03     46.5452E-03
            1204     725.522E-06     158.279E-03    -128.939E+06    -202.509E+06    -126.805E+06    -3.71612E+06    -215.426E-03     430.574E-03    -215.148E-03     6.52624E-03    -215.592E-03     429.931E-03    -215.301E-03     6.70915E-03
            1205     1.45112E-03     158.292E-03    -125.514E+06    -191.000E+06    -115.165E+06    -6.61649E+06    -215.475E-03     430.826E-03    -215.351E-03     11.9026E-03    -215.656E-03     430.218E-03    -215.468E-03     12.2362E-03
            1206     2.17649E-03     158.312E-03    -119.518E+06    -176.580E+06    -99.1767E+06    -9.31372E+06    -215.744E-03     431.220E-03    -215.476E-03     17.5098E-03    -215.936E-03     430.649E-03    -215.543E-03     17.9842E-03
            1207     2.90173E-03     158.339E-03    -112.517E+06    -160.233E+06    -81.1393E+06    -11.6773E+06    -216.124E-03     431.758E-03    -215.634E-03     23.1023E-03    -216.329E-03     431.230E-03    -215.644E-03     23.6988E-03
            1208     3.62666E-03     158.373E-03    -104.730E+06    -143.006E+06    -62.3309E+06    -13.9335E+06    -216.699E-03     432.527E-03    -215.828E-03     28.5751E-03    -216.914E-03     432.043E-03    -215.781E-03     29.2592E-03
            1209     4.35122E-03     158.414E-03    -96.2587E+06    -126.210E+06    -44.2578E+06    -15.9440E+06    -217.464E-03     433.529E-03    -216.065E-03     33.8896E-03    -217.684E-03     433.088E-03    -215.964E-03     34.6216E-03
            1210     5.07511E-03     158.461E-03    -87.8325E+06    -111.171E+06    -27.8992E+06    -17.3731E+06    -218.344E-03     434.685E-03    -216.342E-03     39.0049E-03    -218.565E-03     434.281E-03    -216.193E-03     39.7469E-03
            1211     5.79847E-03     158.513E-03    -79.6412E+06    -97.1020E+06    -13.3569E+06    -18.1849E+06    -219.354E-03     436.008E-03    -216.653E-03     43.8432E-03    -219.575E-03     435.640E-03    -216.464E-03     44.5580E-03
            1212     6.52123E-03     158.570E-03    -71.7033E+06    -83.1163E+06    -428.075E+03    -18.6372E+06    -220.551E-03     437.553E-03    -217.002E-03     48.3210E-03    -220.771E-03     437.225E-03    -216.780E-03     48.9659E-03
            1213     7.24313E-03     158.631E-03    -64.1298E+06    -69.5110E+06     11.1606E+06    -18.6497E+06    -221.927E-03     439.322E-03    -217.395E-03     52.2964E-03    -222.149E-03     439.037E-03    -217.146E-03     52.8192E-03
            1214     7.96415E-03     158.696E-03    -57.0657E+06    -56.0691E+06     21.4823E+06    -18.3086E+06    -223.461E-03     441.297E-03    -217.836E-03     55.5848E-03    -223.688E-03     441.061E-03    -217.565E-03     55.9231E-03
            1215     8.68405E-03     158.764E-03    -50.0770E+06    -41.3845E+06     30.9974E+06    -17.6946E+06    -225.117E-03     443.443E-03    -218.325E-03     58.1350E-03    -225.355E-03     443.266E-03    -218.038E-03     58.2268E-03
            1216     9.40274E-03     158.834E-03    -42.9311E+06    -23.4090E+06     40.4589E+06    -16.8720E+06    -226.817E-03     445.677E-03    -218.859E-03     59.9597E-03    -227.073E-03     445.579E-03    -218.561E-03     59.7228E-03
            1217     10.1204E-03     158.905E-03    -35.8439E+06    -1.48066E+06     50.2185E+06    -15.8281E+06    -228.461E-03     447.892E-03    -219.431E-03     61.0249E-03    -228.747E-03     447.901E-03    -219.126E-03     60.3538E-03
            1218     10.8368E-03     158.978E-03    -28.7259E+06     27.7356E+06     61.3175E+06    -14.8216E+06    -229.951E-03     449.980E-03    -220.029E-03     61.4578E-03    -230.288E-03     450.135E-03    -219.721E-03     60.2162E-03
            1219     11.5523E-03     159.053E-03    -21.6832E+06     73.9973E+06     74.9245E+06    -14.1682E+06    -231.134E-03     451.762E-03    -220.628E-03     61.3258E-03    -231.559E-03     452.156E-03    -220.330E-03     59.3438E-03
            1220     12.2666E-03     159.128E-03    -14.4463E+06     102.382E+06     85.3760E+06    -11.5940E+06    -232.132E-03     453.369E-03    -221.237E-03     60.3458E-03    -232.620E-03     453.921E-03    -220.937E-03     57.5639E-03
            1221     12.9808E-03     159.204E-03    -7.80803E+06     92.4089E+06     90.5629E+06    -7.76659E+06    -233.217E-03     455.090E-03    -221.872E-03     58.7180E-03    -233.725E-03     455.635E-03    -221.542E-03     54.8673E-03
            1222     13.6933E-03     159.279E-03    -4.46469E+06     85.1123E+06     96.1479E+06    -4.81294E+06    -234.436E-03     456.952E-03    -222.516E-03     51.8586E-03    -234.900E-03     457.424E-03    -222.152E-03     48.1407E-03
            1223     726.205E-06     159.736E-03    -127.026E+06    -190.004E+06    -124.417E+06    -3.25238E+06    -214.736E-03     429.108E-03    -214.372E-03     6.57615E-03    -214.914E-03     428.521E-03    -214.534E-03     6.80846E-03
            1224     1.45215E-03     159.749E-03    -124.204E+06    -180.067E+06    -114.561E+06    -5.22388E+06    -214.620E-03     429.208E-03    -214.588E-03     12.1557E-03    -214.811E-03     428.651E-03    -214.720E-03     12.5830E-03
            1225     2.17817E-03     159.769E-03    -119.985E+06    -165.868E+06    -99.7006E+06    -7.53170E+06    -214.766E-03     429.424E-03    -214.657E-03     17.9547E-03    -214.975E-03     428.907E-03    -214.741E-03     18.5685E-03
            1226     2.90410E-03     159.797E-03    -114.275E+06    -150.114E+06    -82.3382E+06    -9.89254E+06    -215.008E-03     429.763E-03    -214.755E-03     23.7057E-03    -215.232E-03     429.287E-03    -214.783E-03     24.4843E-03
            1227     3.62991E-03     159.832E-03    -107.644E+06    -133.423E+06    -64.1603E+06    -11.8692E+06    -215.363E-03     430.240E-03    -214.877E-03     29.4853E-03    -215.599E-03     429.806E-03    -214.848E-03     30.3937E-03
            1228     4.35541E-03     159.874E-03    -100.967E+06    -117.214E+06    -46.7290E+06    -13.7630E+06    -215.889E-03     430.915E-03    -215.026E-03     35.2196E-03    -216.136E-03     430.523E-03    -214.943E-03     36.2186E-03
            1229     5.08065E-03     159.923E-03    -94.0590E+06    -103.402E+06    -30.8812E+06    -15.6421E+06    -216.618E-03     431.829E-03    -215.211E-03     40.8026E-03    -216.869E-03     431.468E-03    -215.079E-03     41.8445E-03
            1230     5.80547E-03     159.977E-03    -86.9047E+06    -90.7472E+06    -16.9065E+06    -17.0341E+06    -217.616E-03     433.056E-03    -215.440E-03     46.1224E-03    -217.866E-03     432.724E-03    -215.267E-03     47.1683E-03
            1231     6.52956E-03     160.036E-03    -79.6544E+06    -77.4307E+06    -4.30613E+06    -17.9917E+06    -218.951E-03     434.680E-03    -215.729E-03     51.0249E-03    -219.200E-03     434.384E-03    -215.522E-03     52.0274E-03
            1232     7.25267E-03     160.100E-03    -72.1836E+06    -64.7916E+06     7.03861E+06    -18.9534E+06    -220.596E-03     436.687E-03    -216.091E-03     55.3649E-03    -220.843E-03     436.428E-03    -215.858E-03     56.2566E-03
            1233     7.97462E-03     160.168E-03    -64.2092E+06    -52.3616E+06     17.4189E+06    -19.7034E+06    -222.543E-03     439.079E-03    -216.536E-03     58.9935E-03    -222.788E-03     438.860E-03    -216.280E-03     59.7090E-03
            1234     8.69516E-03     160.239E-03    -55.8261E+06    -38.0473E+06     27.3219E+06    -20.3774E+06    -224.775E-03     441.841E-03    -217.066E-03     61.7781E-03    -225.023E-03     441.676E-03    -216.794E-03     62.2414E-03
            1235     9.41413E-03     160.312E-03    -47.1084E+06    -21.6506E+06     36.8688E+06    -20.5750E+06    -227.137E-03     444.818E-03    -217.681E-03     63.6211E-03    -227.393E-03     444.723E-03    -217.397E-03     63.7433E-03
            1236     10.1314E-03     160.388E-03    -38.2982E+06    -1.21019E+06     47.1762E+06    -19.8041E+06    -229.477E-03     447.848E-03    -218.371E-03     64.4671E-03    -229.753E-03     447.848E-03    -218.078E-03     64.1492E-03
            1237     10.8470E-03     160.465E-03    -29.8246E+06     28.3630E+06     59.1002E+06    -18.7883E+06    -231.634E-03     450.750E-03    -219.116E-03     64.4559E-03    -231.956E-03     450.896E-03    -218.819E-03     63.5545E-03
            1238     11.5611E-03     160.543E-03    -21.8678E+06     72.5375E+06     73.0147E+06    -16.8146E+06    -233.445E-03     453.333E-03    -219.888E-03     63.7427E-03    -233.850E-03     453.706E-03    -219.596E-03     62.0893E-03
            1239     12.2743E-03     160.622E-03    -15.1923E+06     95.9022E+06     82.6484E+06    -13.3213E+06    -235.036E-03     455.722E-03    -220.686E-03     62.1450E-03    -235.499E-03     456.232E-03    -220.390E-03     59.6352E-03
            1240     12.9858E-03     160.700E-03    -9.27666E+06     83.3715E+06     86.5524E+06    -8.72641E+06    -236.548E-03     458.062E-03    -221.514E-03     60.1602E-03    -237.032E-03     458.558E-03    -221.189E-03     56.5186E-03
            1241     13.6964E-03     160.779E-03    -4.40283E+06     76.7093E+06     93.3527E+06    -3.00803E+06    -237.512E-03     459.854E-03    -222.341E-03     53.1875E-03    -237.954E-03     460.281E-03    -221.979E-03     49.6172E-03
            1242     726.462E-06     161.190E-03    -136.808E+06    -181.869E+06    -133.565E+06    -1.53498E+06    -213.780E-03     427.327E-03    -213.547E-03     6.70355E-03    -214.006E-03     426.809E-03    -213.753E-03     7.01489E-03
            1243     1.45333E-03     161.203E-03    -134.021E+06    -172.468E+06    -124.253E+06    -2.89758E+06    -213.609E-03     427.282E-03    -213.673E-03     12.4452E-03    -213.845E-03     426.790E-03    -213.849E-03     13.0200E-03
            1244     2.18015E-03     161.224E-03    -129.728E+06    -157.661E+06    -109.693E+06    -4.34551E+06    -213.624E-03     427.309E-03    -213.684E-03     18.4170E-03    -213.877E-03     426.859E-03    -213.816E-03     19.2463E-03
            1245     2.90687E-03     161.252E-03    -124.436E+06    -142.047E+06    -91.3686E+06    -5.96512E+06    -213.684E-03     427.404E-03    -213.720E-03     24.4128E-03    -213.954E-03     426.992E-03    -213.790E-03     25.4681E-03
            1246     3.63364E-03     161.287E-03    -118.321E+06    -125.293E+06    -72.1382E+06    -7.77084E+06    -213.816E-03     427.581E-03    -213.765E-03     30.5177E-03    -214.101E-03     427.210E-03    -213.772E-03     31.7598E-03
            1247     4.36051E-03     161.330E-03    -111.564E+06    -108.798E+06    -53.6747E+06    -9.81513E+06    -214.147E-03     427.973E-03    -213.826E-03     36.5414E-03    -214.441E-03     427.640E-03    -213.775E-03     37.9266E-03
            1248     5.08720E-03     161.380E-03    -104.218E+06    -94.3915E+06    -36.9392E+06    -12.3046E+06    -214.841E-03     428.769E-03    -213.928E-03     42.3202E-03    -215.135E-03     428.465E-03    -213.825E-03     43.7929E-03
            1249     5.81333E-03     161.435E-03    -96.3724E+06    -82.3560E+06    -22.5170E+06    -15.1747E+06    -215.942E-03     430.039E-03    -214.097E-03     47.8034E-03    -216.230E-03     429.757E-03    -213.950E-03     49.2958E-03
            1250     6.53869E-03     161.497E-03    -87.7845E+06    -69.4970E+06     -9.5024E+06    -17.9778E+06    -217.424E-03     431.772E-03    -214.349E-03     52.9130E-03    -217.702E-03     431.520E-03    -214.168E-03     54.3587E-03
            1251     7.26303E-03     161.564E-03    -78.6066E+06    -56.9051E+06     2.36882E+06    -20.6940E+06    -219.355E-03     434.055E-03    -214.700E-03     57.4650E-03    -219.622E-03     433.834E-03    -214.492E-03     58.7934E-03
            1252     7.98590E-03     161.635E-03    -69.1187E+06    -45.2766E+06     13.0730E+06    -23.3260E+06    -221.756E-03     436.922E-03    -215.166E-03     61.3107E-03    -222.011E-03     436.733E-03    -214.935E-03     62.4491E-03
            1253     8.70701E-03     161.711E-03    -59.4881E+06    -32.3561E+06     23.2610E+06    -25.1649E+06    -224.521E-03     440.276E-03    -215.754E-03     64.2419E-03    -224.769E-03     440.130E-03    -215.505E-03     65.1097E-03
            1254     9.42599E-03     161.790E-03    -50.4145E+06    -18.1322E+06     32.8193E+06    -25.9599E+06    -227.532E-03     443.995E-03    -216.462E-03     66.1484E-03    -227.784E-03     443.908E-03    -216.199E-03     66.6519E-03
            1255     10.1428E-03     161.871E-03     -41.544E+06    -119.776E+03     42.7758E+06    -25.8345E+06    -230.612E-03     447.893E-03    -217.281E-03     67.0019E-03    -230.881E-03     447.890E-03    -217.006E-03     67.0365E-03
            1256     10.8573E-03     161.953E-03    -32.5884E+06     28.2129E+06     54.6127E+06    -24.5748E+06    -233.521E-03     451.706E-03    -218.185E-03     66.7122E-03    -233.832E-03     451.844E-03    -217.906E-03     66.1458E-03
            1257     11.5700E-03     162.036E-03    -24.4339E+06     67.1558E+06     67.9956E+06    -21.0863E+06    -236.021E-03     455.167E-03    -219.145E-03     65.4096E-03    -236.405E-03     455.505E-03    -218.867E-03     64.0825E-03
            1258     12.2805E-03     162.119E-03    -17.5050E+06     85.4898E+06     77.3180E+06    -14.7231E+06    -238.096E-03     458.243E-03    -220.147E-03     63.4050E-03    -238.531E-03     458.695E-03    -219.859E-03     61.2149E-03
            1259     12.9897E-03     162.201E-03    -12.8426E+06     72.8922E+06     81.5881E+06    -8.75249E+06    -239.593E-03     460.762E-03    -221.169E-03     61.4672E-03    -240.057E-03     461.203E-03    -220.848E-03     58.1090E-03
            1260     13.6976E-03     162.282E-03    -7.24153E+06     67.5941E+06     91.2697E+06    -4.07347E+06    -240.305E-03     462.477E-03    -222.172E-03     54.5611E-03    -240.740E-03     462.862E-03    -221.803E-03     51.0657E-03
            1261     727.618E-06     162.642E-03    -172.085E+06    -175.434E+06    -169.452E+06    -1.92360E+06    -212.361E-03     424.844E-03    -212.483E-03     6.89239E-03    -212.720E-03     424.460E-03    -212.826E-03     7.26883E-03
            1262     1.45495E-03     162.654E-03    -166.711E+06    -165.145E+06    -156.618E+06    -4.19850E+06    -212.370E-03     424.809E-03    -212.439E-03     12.7792E-03    -212.732E-03     424.446E-03    -212.740E-03     13.4716E-03
            1263     2.18250E-03     162.675E-03    -158.654E+06    -150.962E+06    -138.145E+06    -6.17010E+06    -212.220E-03     424.657E-03    -212.436E-03     18.8871E-03    -212.584E-03     424.321E-03    -212.678E-03     19.8947E-03
            1264     2.91041E-03     162.703E-03    -147.847E+06    -134.717E+06    -114.837E+06    -8.05484E+06    -212.156E-03     424.585E-03    -212.429E-03     25.0409E-03    -212.516E-03     424.274E-03    -212.593E-03     26.3347E-03
            1265     3.63845E-03     162.739E-03    -135.193E+06    -117.748E+06    -89.9730E+06    -10.1694E+06    -212.307E-03     424.746E-03    -212.439E-03     31.1315E-03    -212.655E-03     424.456E-03    -212.522E-03     32.6725E-03
            1266     4.36643E-03     162.782E-03    -121.971E+06    -101.055E+06    -66.4266E+06    -12.1509E+06    -212.736E-03     425.221E-03    -212.485E-03     37.0151E-03    -213.067E-03     424.952E-03    -212.493E-03     38.7559E-03
            1267     5.09416E-03     162.832E-03    -109.275E+06    -86.0381E+06    -45.6795E+06    -13.9358E+06    -213.525E-03     426.112E-03    -212.586E-03     42.6206E-03    -213.834E-03     425.860E-03    -212.532E-03     44.5107E-03
            1268     5.82133E-03     162.890E-03    -97.8352E+06    -72.8710E+06    -28.1942E+06    -16.0086E+06    -214.737E-03     427.501E-03    -212.765E-03     47.9586E-03    -215.025E-03     427.265E-03    -212.658E-03     49.9212E-03
            1269     6.54761E-03     162.954E-03    -88.0270E+06    -58.9451E+06    -13.2374E+06    -19.0739E+06    -216.418E-03     429.457E-03    -213.039E-03     52.9421E-03    -216.693E-03     429.249E-03    -212.892E-03     54.8805E-03
            1270     7.27270E-03     163.024E-03    -79.2761E+06    -45.9008E+06    -549.257E+03    -22.7469E+06    -218.616E-03     432.046E-03    -213.430E-03     57.4038E-03    -218.882E-03     431.869E-03    -213.251E-03     59.2299E-03
            1271     7.99610E-03     163.100E-03    -70.6485E+06    -33.5297E+06     10.6340E+06    -26.9604E+06    -221.308E-03     435.260E-03    -213.952E-03     61.2395E-03    -221.566E-03     435.118E-03    -213.748E-03     62.8525E-03
            1272     8.71739E-03     163.181E-03    -61.4599E+06    -23.0969E+06     20.6948E+06    -31.1685E+06    -224.415E-03     439.030E-03    -214.614E-03     64.3303E-03    -224.665E-03     438.919E-03    -214.388E-03     65.6252E-03
            1273     9.43644E-03     163.266E-03    -51.0979E+06    -12.9676E+06     30.1644E+06    -33.4938E+06    -227.868E-03     443.281E-03    -215.413E-03     66.5464E-03    -228.108E-03     443.206E-03    -215.169E-03     67.4408E-03
            1274     10.1529E-03     163.353E-03    -40.4597E+06     1.78670E+06     40.2964E+06    -33.3129E+06    -231.515E-03     447.857E-03    -216.342E-03     67.7334E-03    -231.758E-03     447.846E-03    -216.085E-03     68.1363E-03
            1275     10.8666E-03     163.442E-03    -31.3695E+06     24.6086E+06     51.0609E+06    -30.1870E+06    -235.079E-03     452.460E-03    -217.381E-03     67.7869E-03    -235.353E-03     452.563E-03    -217.116E-03     67.5951E-03
            1276     11.5774E-03     163.531E-03    -24.9394E+06     54.9844E+06     62.9728E+06    -22.9128E+06    -238.211E-03     456.714E-03    -218.503E-03     66.7603E-03    -238.552E-03     456.980E-03    -218.232E-03     65.8486E-03
            1277     12.2865E-03     163.619E-03    -20.0216E+06     72.5889E+06     72.2760E+06    -15.4909E+06    -240.587E-03     460.258E-03    -219.671E-03     64.8762E-03    -240.988E-03     460.637E-03    -219.386E-03     63.0922E-03
            1278     12.9941E-03     163.705E-03    -13.2342E+06     65.6732E+06     79.1028E+06    -10.8718E+06    -242.036E-03     462.885E-03    -220.849E-03     62.7283E-03    -242.472E-03     463.278E-03    -220.529E-03     59.6435E-03
            1279     13.7015E-03     163.789E-03    -5.92498E+06     58.0741E+06     92.2846E+06    -6.85591E+06    -242.768E-03     464.777E-03    -222.008E-03     55.9650E-03    -243.179E-03     465.105E-03    -221.622E-03     52.5509E-03
            1280     728.353E-06     164.090E-03    -211.664E+06    -161.007E+06    -209.984E+06    -5.84238E+06    -210.887E-03     422.082E-03    -211.195E-03     6.95668E-03    -211.405E-03     421.886E-03    -211.704E-03     7.35622E-03
            1281     1.45689E-03     164.102E-03    -205.248E+06    -150.085E+06    -195.933E+06    -10.9442E+06    -210.983E-03     422.038E-03    -211.056E-03     12.5851E-03    -211.502E-03     421.864E-03    -211.520E-03     13.3093E-03
            1282     2.18563E-03     164.122E-03    -194.527E+06    -136.619E+06    -174.596E+06    -16.3552E+06    -210.908E-03     421.980E-03    -211.072E-03     18.4522E-03    -211.418E-03     421.820E-03    -211.465E-03     19.5061E-03
            1283     2.91449E-03     164.150E-03    -180.158E+06    -121.206E+06    -149.351E+06    -21.3177E+06    -210.999E-03     422.099E-03    -211.100E-03     24.2113E-03    -211.488E-03     421.951E-03    -211.410E-03     25.5691E-03
            1284     3.64335E-03     164.186E-03    -163.261E+06    -105.801E+06    -121.893E+06    -25.3709E+06    -211.353E-03     422.524E-03    -211.171E-03     29.7227E-03    -211.810E-03     422.380E-03    -211.391E-03     31.3595E-03
            1285     4.37194E-03     164.230E-03    -144.652E+06    -91.1909E+06    -93.9939E+06    -28.1842E+06    -211.982E-03     423.284E-03    -211.302E-03     35.0546E-03    -212.398E-03     423.135E-03    -211.430E-03     36.9386E-03
            1286     5.10006E-03     164.281E-03    -125.334E+06    -78.2056E+06    -67.7596E+06    -29.6740E+06    -212.936E-03     424.434E-03    -211.498E-03     40.1621E-03    -213.302E-03     424.274E-03    -211.541E-03     42.2523E-03
            1287     5.82764E-03     164.341E-03    -105.916E+06    -65.6682E+06    -43.8369E+06    -30.2058E+06    -214.319E-03     426.090E-03    -211.772E-03     44.9712E-03    -214.632E-03     425.921E-03    -211.742E-03     47.2072E-03
            1288     6.55420E-03     164.408E-03    -87.4720E+06    -51.3538E+06    -21.8032E+06    -30.0196E+06    -216.183E-03     428.327E-03    -212.144E-03     49.4703E-03    -216.449E-03     428.164E-03    -212.052E-03     51.7745E-03
            1289     7.27923E-03     164.482E-03    -71.2601E+06    -35.9266E+06    -2.24902E+06    -30.5906E+06    -218.494E-03     431.123E-03    -212.629E-03     53.6851E-03    -218.725E-03     430.980E-03    -212.485E-03     55.9484E-03
            1290     8.00253E-03     164.563E-03    -58.1130E+06    -22.6875E+06     13.5952E+06    -32.0383E+06    -221.202E-03     434.435E-03    -213.233E-03     57.5426E-03    -221.408E-03     434.315E-03    -213.048E-03     59.6455E-03
            1291     8.72388E-03     164.649E-03    -48.9032E+06    -12.3477E+06     25.7806E+06    -33.5346E+06    -224.328E-03     438.289E-03    -213.960E-03     60.9489E-03    -224.526E-03     438.194E-03    -213.742E-03     62.7801E-03
            1292     9.44277E-03     164.740E-03    -43.0210E+06    -3.88546E+06     34.6609E+06    -35.6222E+06    -227.849E-03     442.662E-03    -214.814E-03     63.7939E-03    -228.051E-03     442.599E-03    -214.572E-03     65.2241E-03
            1293     10.1590E-03     164.835E-03    -38.7747E+06     5.07755E+06     41.9158E+06    -36.5779E+06    -231.606E-03     447.399E-03    -215.793E-03     65.8851E-03    -231.829E-03     447.380E-03    -215.534E-03     66.7994E-03
            1294     10.8724E-03     164.932E-03    -33.3822E+06     19.4569E+06     49.6974E+06    -34.4462E+06    -235.396E-03     452.278E-03    -216.882E-03     67.0448E-03    -235.649E-03     452.338E-03    -216.614E-03     67.3396E-03
            1295     11.5834E-03     165.028E-03    -24.4924E+06     37.5463E+06     60.3566E+06    -27.6037E+06    -238.981E-03     457.052E-03    -218.071E-03     67.0383E-03    -239.267E-03     457.210E-03    -217.788E-03     66.6001E-03
            1296     12.2914E-03     165.122E-03    -14.7342E+06     60.4680E+06     72.4423E+06    -18.8096E+06    -241.882E-03     461.197E-03    -219.316E-03     65.5750E-03    -242.214E-03     461.483E-03    -219.020E-03     64.2559E-03
            1297     12.9977E-03     165.212E-03    -8.12711E+06     58.8125E+06     79.4788E+06    -13.1098E+06    -243.751E-03     464.332E-03    -220.581E-03     63.5035E-03    -244.131E-03     464.662E-03    -220.257E-03     60.7912E-03
            1298     13.7025E-03     165.299E-03    -3.87608E+06     44.1450E+06     92.8956E+06    -7.45203E+06    -244.696E-03     466.554E-03    -221.858E-03     57.1831E-03    -245.066E-03     466.798E-03    -221.452E-03     53.9890E-03
            1299     729.253E-06     165.534E-03    -193.483E+06    -133.966E+06    -190.965E+06    -9.37097E+06    -210.550E-03     421.169E-03    -210.619E-03     5.61785E-03    -211.045E-03     421.055E-03    -211.099E-03     5.98902E-03
            1300     1.45851E-03     165.546E-03    -188.241E+06    -122.444E+06    -180.122E+06    -17.1772E+06    -210.534E-03     421.133E-03    -210.598E-03     9.95618E-03    -211.033E-03     421.051E-03    -211.049E-03     10.6237E-03
            1301     2.18770E-03     165.566E-03    -179.818E+06    -108.863E+06    -162.611E+06    -25.8662E+06    -210.720E-03     421.371E-03    -210.651E-03     14.6702E-03    -211.217E-03     421.315E-03    -211.046E-03     15.6481E-03
            1302     2.91666E-03     165.594E-03    -169.108E+06    -96.3832E+06    -141.073E+06    -33.6590E+06    -211.103E-03     421.881E-03    -210.778E-03     19.2553E-03    -211.590E-03     421.835E-03    -211.099E-03     20.5285E-03
            1303     3.64532E-03     165.631E-03    -156.639E+06    -84.0823E+06    -118.329E+06    -40.1135E+06    -211.612E-03     422.573E-03    -210.960E-03     23.6474E-03    -212.082E-03     422.531E-03    -211.203E-03     25.2024E-03
            1304     4.37365E-03     165.676E-03    -142.733E+06    -73.4685E+06    -95.4609E+06    -45.2954E+06    -212.359E-03     423.553E-03    -211.194E-03     27.9196E-03    -212.801E-03     423.504E-03    -211.358E-03     29.7366E-03
            1305     5.10154E-03     165.729E-03    -127.286E+06    -64.0887E+06    -73.1611E+06    -49.2558E+06    -213.424E-03     424.914E-03    -211.490E-03     32.0263E-03    -213.827E-03     424.850E-03    -211.579E-03     34.0701E-03
            1306     5.82842E-03     165.791E-03    -110.800E+06    -55.7189E+06    -52.3292E+06    -51.6952E+06    -214.815E-03     426.673E-03    -211.858E-03     36.0590E-03    -215.170E-03     426.589E-03    -211.878E-03     38.2919E-03
            1307     6.55418E-03     165.861E-03    -93.5770E+06    -45.9914E+06    -32.6708E+06    -51.9559E+06    -216.525E-03     428.829E-03    -212.303E-03     40.0832E-03    -216.830E-03     428.733E-03    -212.264E-03     42.4645E-03
            1308     7.27875E-03     165.939E-03    -76.3508E+06    -31.1671E+06    -12.4877E+06    -50.0582E+06    -218.544E-03     431.378E-03    -212.835E-03     44.1051E-03    -218.806E-03     431.295E-03    -212.741E-03     46.5687E-03
            1309     8.00181E-03     166.024E-03    -60.4470E+06    -20.6892E+06     6.89022E+06    -46.2892E+06    -220.936E-03     434.401E-03    -213.466E-03     48.0727E-03    -221.157E-03     434.315E-03    -213.314E-03     50.5304E-03
            1310     8.72303E-03     166.116E-03    -46.4556E+06    -10.8266E+06     24.7490E+06    -41.2702E+06    -223.696E-03     437.890E-03    -214.194E-03     51.9718E-03    -223.885E-03     437.804E-03    -213.988E-03     54.3147E-03
            1311     9.44222E-03     166.213E-03    -35.3786E+06     528.827E+03     40.2584E+06    -36.7266E+06    -226.773E-03     441.791E-03    -215.018E-03     55.7840E-03    -226.948E-03     441.726E-03    -214.766E-03     57.8604E-03
            1312     10.1590E-03     166.315E-03    -27.6548E+06     8.62530E+06     51.7657E+06    -34.1450E+06    -230.152E-03     446.087E-03    -215.936E-03     59.3575E-03    -230.325E-03     446.043E-03    -215.649E-03     60.9899E-03
            1313     10.8735E-03     166.419E-03    -22.1543E+06     19.6894E+06     60.0155E+06    -33.1136E+06    -233.775E-03     450.714E-03    -216.939E-03     62.3587E-03    -233.966E-03     450.723E-03    -216.636E-03     63.3598E-03
            1314     11.5849E-03     166.523E-03    -18.0858E+06     26.7093E+06     66.9549E+06    -30.6184E+06    -237.541E-03     455.584E-03    -218.043E-03     64.3371E-03    -237.761E-03     455.642E-03    -217.721E-03     64.5352E-03
            1315     12.2939E-03     166.624E-03    -12.8170E+06     45.5916E+06     74.7572E+06    -24.0639E+06    -241.033E-03     460.250E-03    -219.217E-03     64.4728E-03    -241.308E-03     460.425E-03    -218.891E-03     63.7153E-03
            1316     13.0005E-03     166.721E-03    -6.89165E+06     42.8455E+06     80.0083E+06    -13.7172E+06    -243.857E-03     464.316E-03    -220.459E-03     63.2054E-03    -244.177E-03     464.532E-03    -220.111E-03     61.0794E-03
            1317     13.7060E-03     166.810E-03    -2.57973E+06     29.1542E+06     93.5861E+06    -3.89359E+06    -245.404E-03     467.163E-03    -221.759E-03     57.5818E-03    -245.726E-03     467.308E-03    -221.330E-03     54.8348E-03
            1318     728.030E-06     166.979E-03    -122.032E+06    -97.6571E+06    -120.365E+06    -11.1166E+06    -212.897E-03     425.539E-03    -212.642E-03     2.21774E-03    -213.192E-03     425.402E-03    -212.925E-03     2.47630E-03
            1319     1.45620E-03     166.991E-03    -118.638E+06    -86.5374E+06    -111.945E+06    -19.8728E+06    -212.927E-03     425.767E-03    -212.840E-03     3.63401E-03    -213.233E-03     425.667E-03    -213.102E-03     4.12578E-03
            1320     2.18432E-03     167.012E-03    -113.126E+06    -73.6932E+06    -97.7885E+06    -28.6548E+06    -213.154E-03     426.134E-03    -212.979E-03     5.34222E-03    -213.473E-03     426.071E-03    -213.197E-03     6.08222E-03
            1321     2.91197E-03     167.041E-03    -106.114E+06    -64.7743E+06    -79.6898E+06    -36.5615E+06    -213.500E-03     426.678E-03    -213.178E-03     7.15849E-03    -213.823E-03     426.623E-03    -213.329E-03     8.13886E-03
            1322     3.63924E-03     167.078E-03    -98.5028E+06    -56.0923E+06    -62.2882E+06    -43.0745E+06    -213.964E-03     427.376E-03    -213.412E-03     9.02343E-03    -214.287E-03     427.329E-03    -213.499E-03     10.2483E-03
            1323     4.36606E-03     167.125E-03    -90.9916E+06    -48.6651E+06    -46.8249E+06    -48.5320E+06    -214.576E-03     428.256E-03    -213.680E-03     11.0833E-03    -214.894E-03     428.213E-03    -213.712E-03     12.5629E-03
            1324     5.09196E-03     167.180E-03    -84.1560E+06    -42.5176E+06    -33.4513E+06    -53.0953E+06    -215.306E-03     429.291E-03    -213.985E-03     13.3333E-03    -215.619E-03     429.249E-03    -213.968E-03     15.0602E-03
            1325     5.81731E-03     167.243E-03    -78.2223E+06    -38.2196E+06    -21.8120E+06    -56.5438E+06    -216.126E-03     430.450E-03    -214.324E-03     16.0456E-03    -216.431E-03     430.403E-03    -214.264E-03     18.0114E-03
            1326     6.54187E-03     167.316E-03    -72.6511E+06    -33.3546E+06    -11.0557E+06    -59.0381E+06    -217.102E-03     431.797E-03    -214.695E-03     19.3115E-03    -217.398E-03     431.748E-03    -214.597E-03     21.4998E-03
            1327     7.26549E-03     167.397E-03    -66.6329E+06    -25.7449E+06     203.949E+03    -59.2318E+06    -218.275E-03     433.379E-03    -215.104E-03     23.0355E-03    -218.564E-03     433.339E-03    -214.969E-03     25.4228E-03
            1328     7.98809E-03     167.486E-03    -59.2103E+06    -20.7608E+06     12.7357E+06    -56.6080E+06    -219.685E-03     435.249E-03    -215.564E-03     27.3458E-03    -219.955E-03     435.199E-03    -215.384E-03     29.8918E-03
            1329     8.70938E-03     167.582E-03    -50.1724E+06    -14.6597E+06     26.5237E+06    -52.3673E+06    -221.369E-03     437.442E-03    -216.073E-03     32.4029E-03    -221.613E-03     437.380E-03    -215.847E-03     35.0287E-03
            1330     9.42935E-03     167.684E-03    -39.6667E+06    -5.80078E+06     40.9710E+06    -46.3812E+06    -223.444E-03     440.077E-03    -216.634E-03     38.0569E-03    -223.659E-03     440.014E-03    -216.363E-03     40.6420E-03
            1331     10.1480E-03     167.791E-03    -28.6495E+06     4.23673E+06     55.5902E+06    -39.4568E+06    -226.040E-03     443.303E-03    -217.263E-03     43.8964E-03    -226.228E-03     443.245E-03    -216.950E-03     46.2635E-03
            1332     10.8645E-03     167.902E-03    -20.3755E+06     16.5622E+06     68.8098E+06    -32.5384E+06    -229.187E-03     447.163E-03    -217.976E-03     49.5049E-03    -229.371E-03     447.135E-03    -217.626E-03     51.4194E-03
            1333     11.5793E-03     168.013E-03    -16.0618E+06     20.0423E+06     78.8641E+06    -25.5384E+06    -232.791E-03     451.587E-03    -218.796E-03     54.3389E-03    -232.987E-03     451.569E-03    -218.408E-03     55.5023E-03
            1334     12.2909E-03     168.123E-03    -14.6028E+06     34.6154E+06     83.6393E+06    -19.7576E+06    -236.600E-03     456.289E-03    -219.690E-03     57.6113E-03    -236.849E-03     456.368E-03    -219.301E-03     57.7194E-03
            1335     12.9997E-03     168.226E-03    -12.7170E+06     23.5310E+06     80.9472E+06    -13.7334E+06    -240.399E-03     461.086E-03    -220.686E-03     59.3508E-03    -240.678E-03     461.169E-03    -220.297E-03     58.0524E-03
            1336     13.7047E-03     168.323E-03    -7.43846E+06     13.2357E+06     90.0104E+06    -5.19500E+06    -242.782E-03     464.576E-03    -221.795E-03     56.0950E-03    -243.062E-03     464.617E-03    -221.353E-03     54.0316E-03
            1337     724.005E-06     168.436E-03    -50.3712E+06    -58.1404E+06    -48.0537E+06    -10.7697E+06    -220.026E-03     439.585E-03    -219.560E-03    -3.44460E-03    -220.129E-03     439.434E-03    -219.643E-03    -3.32203E-03
            1338     1.44733E-03     168.449E-03    -48.1969E+06    -49.2351E+06    -40.5907E+06    -19.3233E+06    -220.075E-03     440.023E-03    -219.948E-03    -6.93276E-03    -220.194E-03     439.904E-03    -220.009E-03    -6.74264E-03
            1339     2.17021E-03     168.470E-03    -44.6679E+06    -40.3270E+06    -28.7740E+06    -26.3795E+06    -220.062E-03     440.214E-03    -220.151E-03    -10.3106E-03    -220.196E-03     440.120E-03    -220.172E-03    -10.0295E-03
            1340     2.89327E-03     168.499E-03    -40.8581E+06    -34.8007E+06    -15.4171E+06    -32.0987E+06    -219.921E-03     440.251E-03    -220.331E-03    -13.3391E-03    -220.067E-03     440.165E-03    -220.298E-03    -12.9320E-03
            1341     3.61607E-03     168.537E-03    -36.9676E+06    -29.9185E+06    -2.53635E+06    -36.8255E+06    -219.813E-03     440.311E-03    -220.498E-03    -15.9944E-03    -219.971E-03     440.231E-03    -220.414E-03    -15.4274E-03
            1342     4.33841E-03     168.584E-03    -33.4705E+06    -25.3789E+06     9.20252E+06    -40.2665E+06    -219.616E-03     440.278E-03    -220.662E-03    -18.0066E-03    -219.787E-03     440.206E-03    -220.530E-03    -17.2425E-03
            1343     5.06080E-03     168.640E-03    -30.8493E+06    -21.8873E+06     19.4356E+06    -42.7462E+06    -219.265E-03     440.074E-03    -220.809E-03    -19.2881E-03    -219.449E-03     440.009E-03    -220.636E-03    -18.2995E-03
            1344     5.78293E-03     168.704E-03    -28.9736E+06    -19.7755E+06     28.5312E+06    -44.7384E+06    -218.816E-03     439.749E-03    -220.932E-03    -19.6515E-03    -219.016E-03     439.687E-03    -220.719E-03    -18.4241E-03
            1345     6.50513E-03     168.777E-03    -27.9723E+06    -17.2254E+06     36.7434E+06    -46.0361E+06    -218.278E-03     439.304E-03    -221.025E-03    -18.9189E-03    -218.496E-03     439.250E-03    -220.776E-03    -17.4175E-03
            1346     7.22730E-03     168.859E-03    -27.8963E+06    -15.3193E+06     43.2711E+06    -46.5766E+06    -217.690E-03     438.771E-03    -221.081E-03    -16.9682E-03    -217.924E-03     438.724E-03    -220.802E-03    -15.1908E-03
            1347     7.94951E-03     168.949E-03    -28.5713E+06    -14.3477E+06     47.9973E+06    -46.3206E+06    -217.123E-03     438.219E-03    -221.096E-03    -13.5829E-03    -217.371E-03     438.175E-03    -220.794E-03    -11.5426E-03
            1348     8.67214E-03     169.046E-03    -29.5747E+06    -12.4059E+06     52.6394E+06    -45.0218E+06    -216.724E-03     437.804E-03    -221.080E-03    -8.69283E-03    -216.984E-03     437.762E-03    -220.756E-03    -6.41085E-03
            1349     9.39489E-03     169.150E-03    -30.2720E+06    -8.70427E+06     58.1463E+06    -42.6462E+06    -216.717E-03     437.767E-03    -221.050E-03    -2.15009E-03    -216.985E-03     437.730E-03    -220.703E-03     319.144E-06
            1350     10.1169E-03     169.261E-03    -29.6710E+06    -1.64449E+06     65.7834E+06    -38.8102E+06    -217.299E-03     438.330E-03    -221.031E-03     6.10951E-03    -217.570E-03     438.303E-03    -220.657E-03     8.66096E-03
            1351     10.8382E-03     169.376E-03    -26.2670E+06     5.38072E+06     75.1834E+06    -31.9193E+06    -218.666E-03     439.717E-03    -221.051E-03     16.1447E-03    -218.925E-03     439.689E-03    -220.645E-03     18.6239E-03
            1352     11.5573E-03     169.494E-03    -19.8038E+06     7.94857E+06     84.1096E+06    -23.3541E+06    -221.071E-03     442.211E-03    -221.140E-03     27.5382E-03    -221.298E-03     442.156E-03    -220.702E-03     29.6867E-03
            1353     12.2748E-03     169.610E-03    -10.7369E+06     26.3563E+06     94.1590E+06    -17.0690E+06    -224.732E-03     446.054E-03    -221.323E-03     39.0701E-03    -224.947E-03     446.056E-03    -220.874E-03     40.5133E-03
            1354     12.9897E-03     169.723E-03    -2.94853E+06     8.03110E+06     90.5267E+06    -10.4036E+06    -229.571E-03     451.229E-03    -221.658E-03     48.9544E-03    -229.739E-03     451.155E-03    -221.213E-03     49.1525E-03
            1355     13.7028E-03     169.826E-03    -229.536E+03    -567.232E+03     87.7580E+06    -3.23410E+06    -233.406E-03     455.559E-03    -222.153E-03     51.5105E-03    -233.571E-03     455.468E-03    -221.714E-03     50.7223E-03
            1356     713.745E-06     169.922E-03     14.8355E+06    -24.1456E+06     17.6602E+06    -7.47166E+06    -234.008E-03     467.878E-03    -233.870E-03    -11.4332E-03    -233.938E-03     467.696E-03    -233.768E-03    -11.5112E-03
            1357     1.42739E-03     169.936E-03     15.2581E+06    -19.0487E+06     23.6068E+06    -12.8776E+06    -233.496E-03     467.538E-03    -234.041E-03    -20.8119E-03    -233.440E-03     467.373E-03    -233.918E-03    -20.9317E-03
            1358     2.14106E-03     169.957E-03     14.8543E+06    -15.3484E+06     31.0604E+06    -16.8790E+06    -233.013E-03     467.072E-03    -234.059E-03    -30.3654E-03    -232.975E-03     466.916E-03    -233.903E-03    -30.5175E-03
            1359     2.85453E-03     169.986E-03     14.1975E+06    -12.8755E+06     39.4636E+06    -19.7147E+06    -232.178E-03     466.249E-03    -234.071E-03    -39.4542E-03    -232.161E-03     466.097E-03    -233.875E-03    -39.5809E-03
            1360     3.56830E-03     170.023E-03     13.1714E+06    -11.1327E+06     48.3091E+06    -21.8785E+06    -230.961E-03     465.002E-03    -234.040E-03    -48.0100E-03    -230.968E-03     464.851E-03    -233.801E-03    -48.0722E-03
            1361     4.28255E-03     170.069E-03     11.6260E+06    -9.42148E+06     57.1080E+06    -23.2389E+06    -229.354E-03     463.299E-03    -233.945E-03    -55.8775E-03    -229.388E-03     463.154E-03    -233.663E-03    -55.8451E-03
            1362     4.99725E-03     170.122E-03     9.78909E+06    -7.99273E+06     65.4861E+06    -24.0328E+06    -227.392E-03     461.167E-03    -233.774E-03    -62.7833E-03    -227.456E-03     461.027E-03    -233.449E-03    -62.6199E-03
            1363     5.71289E-03     170.184E-03     7.58192E+06    -7.10339E+06     72.7800E+06    -24.4741E+06    -225.118E-03     458.639E-03    -233.521E-03    -68.6659E-03    -225.214E-03     458.508E-03    -233.158E-03    -68.3421E-03
            1364     6.42938E-03     170.255E-03     4.93048E+06    -6.43699E+06     78.5059E+06    -24.5104E+06    -222.394E-03     455.565E-03    -233.170E-03    -73.3638E-03    -222.523E-03     455.445E-03    -232.776E-03    -72.8592E-03
            1365     7.14742E-03     170.333E-03     1.99511E+06    -6.26674E+06     82.9350E+06    -24.1370E+06    -219.251E-03     451.958E-03    -232.707E-03    -76.6427E-03    -219.411E-03     451.849E-03    -232.286E-03    -75.9377E-03
            1366     7.86737E-03     170.419E-03    -1.05614E+06    -6.32308E+06     86.4228E+06    -23.7509E+06    -215.906E-03     448.033E-03    -232.127E-03    -78.4235E-03    -216.097E-03     447.937E-03    -231.684E-03    -77.5202E-03
            1367     8.58897E-03     170.513E-03    -3.60732E+06    -6.64555E+06     89.2784E+06    -23.3029E+06    -212.432E-03     443.868E-03    -231.436E-03    -78.4787E-03    -212.647E-03     443.780E-03    -230.975E-03    -77.3932E-03
            1368     9.31257E-03     170.614E-03    -5.48697E+06    -5.13043E+06     92.3506E+06    -22.5782E+06    -208.770E-03     439.400E-03    -230.630E-03    -76.3179E-03    -209.003E-03     439.323E-03    -230.153E-03    -75.0611E-03
            1369     10.0390E-03     170.721E-03    -7.15212E+06    -1.74980E+06     95.3051E+06    -21.2763E+06    -205.044E-03     434.746E-03    -229.701E-03    -71.2109E-03    -205.291E-03     434.684E-03    -229.212E-03    -69.7996E-03
            1370     10.7680E-03     170.835E-03    -8.97284E+06    -1.04242E+06     95.0431E+06    -19.1873E+06    -201.752E-03     430.399E-03    -228.647E-03    -62.5380E-03    -201.997E-03     430.336E-03    -228.157E-03    -61.0070E-03
            1371     11.5003E-03     170.953E-03    -10.1735E+06    -741.934E+03     93.1668E+06    -16.4788E+06    -199.588E-03     427.093E-03    -227.506E-03    -49.9531E-03    -199.816E-03     427.020E-03    -227.024E-03    -48.3779E-03
            1372     12.2330E-03     171.075E-03    -8.62770E+06     15.5041E+06     97.6743E+06    -11.8233E+06    -198.900E-03     425.244E-03    -226.343E-03    -32.8937E-03    -199.124E-03     425.222E-03    -225.865E-03    -31.4499E-03
            1373     12.9641E-03     171.196E-03    -5.03893E+06    -3.86917E+06     87.0253E+06    -4.88297E+06    -199.470E-03     424.627E-03    -225.157E-03    -9.93224E-03    -199.613E-03     424.506E-03    -224.709E-03    -9.11488E-03
            1374     13.6893E-03     171.311E-03    -469.993E+03    -5.68627E+06     71.7863E+06    -1.72221E+06    -199.753E-03     423.661E-03    -223.907E-03     15.9000E-03    -199.848E-03     423.543E-03    -223.539E-03     15.9965E-03
            1375     13.6623E-03     85.0712E-03    -4.48011E+06     77.2716E+06     97.0225E+06     626.872E+03    -224.105E-03     448.973E-03    -224.868E-03     43.3963E-03    -224.552E-03     449.397E-03    -224.488E-03     39.6084E-03
            1376     12.9414E-03     85.0045E-03    -9.31969E+06     73.2703E+06     96.3328E+06     628.697E+03    -224.253E-03     449.163E-03    -224.909E-03     49.2233E-03    -224.759E-03     449.616E-03    -224.521E-03     45.0316E-03
            1377     12.2229E-03     84.9347E-03    -16.6923E+06     66.8372E+06     89.4113E+06     41.0328E+03    -224.434E-03     449.360E-03    -224.926E-03     49.8934E-03    -224.934E-03     449.779E-03    -224.552E-03     46.1548E-03
            1378     11.5035E-03     84.8639E-03    -23.5702E+06     60.9489E+06     78.8803E+06    -163.472E+03    -224.555E-03     449.475E-03    -224.921E-03     50.4086E-03    -225.047E-03     449.872E-03    -224.581E-03     47.0602E-03
            1379     10.7842E-03     84.7921E-03    -29.3911E+06     55.2508E+06     66.9136E+06     651.377E+03    -224.614E-03     449.520E-03    -224.906E-03     49.7517E-03    -225.083E-03     449.887E-03    -224.609E-03     46.9212E-03
            1380     10.0649E-03     84.7217E-03    -35.3613E+06     40.7290E+06     54.6748E+06     1.12285E+06    -224.660E-03     449.564E-03    -224.904E-03     48.1672E-03    -225.091E-03     449.856E-03    -224.639E-03     45.8749E-03
            1381     9.34565E-03     84.6530E-03    -41.8978E+06     25.4012E+06     45.2147E+06     911.447E+03    -224.694E-03     449.612E-03    -224.918E-03     45.8977E-03    -225.095E-03     449.824E-03    -224.668E-03     44.1157E-03
            1382     8.62658E-03     84.5873E-03    -48.8359E+06      -1.606E+03     35.0646E+06     569.572E+03    -224.725E-03     449.668E-03    -224.943E-03     43.2162E-03    -225.087E-03     449.754E-03    -224.696E-03     41.8968E-03
            1383     7.90747E-03     84.5253E-03    -55.6885E+06    -38.0574E+06     21.9496E+06     447.893E+03    -224.772E-03     449.741E-03    -224.970E-03     40.3886E-03    -225.075E-03     449.648E-03    -224.724E-03     39.4777E-03
            1384     7.18842E-03     84.4668E-03    -62.8691E+06    -68.4958E+06     8.97586E+06     236.825E+03    -224.808E-03     449.793E-03    -224.985E-03     37.3987E-03    -225.070E-03     449.562E-03    -224.749E-03     36.8318E-03
            1385     6.46942E-03     84.4127E-03    -70.3806E+06    -94.4266E+06    -4.32975E+06     26.2938E+03    -224.822E-03     449.811E-03    -224.989E-03     34.2054E-03    -225.053E-03     449.470E-03    -224.772E-03     33.9182E-03
            1386     5.75047E-03     84.3630E-03    -77.8795E+06    -118.209E+06    -18.4183E+06     85.8008E+03    -224.797E-03     449.784E-03    -224.987E-03     30.8813E-03    -225.003E-03     449.347E-03    -224.794E-03     30.8163E-03
            1387     5.03158E-03     84.3184E-03    -85.2891E+06    -140.465E+06    -33.4528E+06     143.783E+03    -224.790E-03     449.768E-03    -224.977E-03     27.4190E-03    -224.974E-03     449.246E-03    -224.817E-03     27.5203E-03
            1388     4.31267E-03     84.2789E-03    -92.5209E+06    -162.302E+06    -49.2372E+06     81.9262E+03    -224.803E-03     449.765E-03    -224.961E-03     23.8023E-03    -224.964E-03     449.164E-03    -224.838E-03     24.0106E-03
            1389     3.59384E-03     84.2448E-03    -99.4329E+06    -182.074E+06    -65.5370E+06     93.0018E+03    -224.801E-03     449.738E-03    -224.937E-03     20.0860E-03    -224.942E-03     449.069E-03    -224.856E-03     20.3463E-03
            1390     2.87508E-03     84.2166E-03    -105.778E+06    -199.631E+06    -81.7952E+06     116.471E+03    -224.797E-03     449.704E-03    -224.907E-03     16.2923E-03    -224.919E-03     448.979E-03    -224.873E-03     16.5611E-03
            1391     2.15623E-03     84.1944E-03    -111.158E+06    -216.019E+06    -96.5752E+06     38.4155E+03    -224.814E-03     449.694E-03    -224.880E-03     12.4135E-03    -224.916E-03     448.915E-03    -224.889E-03     12.6521E-03
            1392     1.43751E-03     84.1782E-03    -115.276E+06    -229.155E+06    -108.285E+06    -4.14291E+03    -224.839E-03     449.693E-03    -224.854E-03     8.47060E-03    -224.926E-03     448.871E-03    -224.896E-03     8.64554E-03
            1393     718.656E-06     84.1685E-03    -118.064E+06    -238.096E+06    -116.225E+06     31.0266E+03    -224.755E-03     449.664E-03    -224.909E-03     4.63806E-03    -224.831E-03     448.813E-03    -224.974E-03     4.73730E-03
            1394     13.6611E-03     83.5875E-03    -5.33654E+06     76.2195E+06     95.4032E+06    -537.737E+03    -224.155E-03     449.025E-03    -224.869E-03     43.4620E-03    -224.605E-03     449.449E-03    -224.495E-03     39.5980E-03
            1395     12.9428E-03     83.5181E-03    -10.8342E+06     72.5257E+06     95.4864E+06     580.502E+03    -224.244E-03     449.159E-03    -224.915E-03     49.5490E-03    -224.754E-03     449.611E-03    -224.527E-03     45.3804E-03
            1396     12.2228E-03     83.4498E-03    -16.0689E+06     67.9700E+06     90.3628E+06     1.42838E+06    -224.427E-03     449.363E-03    -224.936E-03     50.1551E-03    -224.926E-03     449.784E-03    -224.560E-03     46.4675E-03
            1397     11.5033E-03     83.3780E-03    -22.7922E+06     61.3674E+06     78.2178E+06     862.889E+03    -224.588E-03     449.512E-03    -224.924E-03     50.4906E-03    -225.076E-03     449.910E-03    -224.589E-03     47.1778E-03
            1398     10.7840E-03     83.3066E-03    -29.7099E+06     54.4674E+06     65.3604E+06     204.606E+03    -224.695E-03     449.601E-03    -224.905E-03     49.6340E-03    -225.162E-03     449.966E-03    -224.614E-03     46.8000E-03
            1399     10.0649E-03     83.2358E-03    -35.9845E+06     40.3952E+06     54.1395E+06     236.346E+03    -224.778E-03     449.678E-03    -224.901E-03     47.9881E-03    -225.211E-03     449.970E-03    -224.636E-03     45.6759E-03
            1400     9.34587E-03     83.1672E-03    -41.9583E+06     25.7869E+06     45.4750E+06     411.420E+03    -224.763E-03     449.672E-03    -224.909E-03     45.7301E-03    -225.166E-03     449.885E-03    -224.658E-03     43.9299E-03
            1401     8.62668E-03     83.1016E-03    -48.3994E+06     249.346E+03     35.5459E+06     467.072E+03    -224.756E-03     449.685E-03    -224.929E-03     43.1006E-03    -225.117E-03     449.771E-03    -224.681E-03     41.7709E-03
            1402     7.90764E-03     83.0395E-03    -55.5975E+06    -37.9020E+06     22.1271E+06     515.439E+03    -224.813E-03     449.762E-03    -224.949E-03     40.2994E-03    -225.116E-03     449.669E-03    -224.703E-03     39.3827E-03
            1403     7.18863E-03     82.9812E-03    -62.7915E+06    -67.9151E+06     9.13246E+06     429.855E+03    -224.816E-03     449.775E-03    -224.959E-03     37.3614E-03    -225.078E-03     449.547E-03    -224.724E-03     36.7932E-03
            1404     6.46967E-03     82.9269E-03    -69.9742E+06    -94.3101E+06    -4.08965E+06     272.769E+03    -224.790E-03     449.754E-03    -224.963E-03     34.1826E-03    -225.020E-03     449.412E-03    -224.745E-03     33.8959E-03
            1405     5.75069E-03     82.8775E-03    -77.3964E+06    -118.256E+06    -18.0455E+06     205.155E+03    -224.774E-03     449.736E-03    -224.961E-03     30.8854E-03    -224.978E-03     449.298E-03    -224.768E-03     30.8196E-03
            1406     5.03168E-03     82.8328E-03    -84.8833E+06    -140.236E+06    -33.0674E+06     163.438E+03    -224.781E-03     449.732E-03    -224.951E-03     27.4545E-03    -224.963E-03     449.211E-03    -224.790E-03     27.5571E-03
            1407     4.31286E-03     82.7933E-03    -92.1847E+06    -162.128E+06    -49.0009E+06     68.3836E+03    -224.767E-03     449.701E-03    -224.934E-03     23.8335E-03    -224.927E-03     449.100E-03    -224.810E-03     24.0436E-03
            1408     3.59396E-03     82.7594E-03    -99.2744E+06    -182.307E+06    -65.5110E+06        -240.676    -224.730E-03     449.644E-03    -224.915E-03     20.1244E-03    -224.869E-03     448.974E-03    -224.834E-03     20.3853E-03
            1409     2.87498E-03     82.7312E-03    -105.748E+06    -199.716E+06    -81.7804E+06     34.9214E+03    -224.736E-03     449.633E-03    -224.897E-03     16.3091E-03    -224.857E-03     448.907E-03    -224.863E-03     16.5783E-03
            1410     2.15621E-03     82.7090E-03    -111.073E+06    -215.920E+06    -96.3274E+06     63.4878E+03    -224.780E-03     449.663E-03    -224.883E-03     12.3724E-03    -224.883E-03     448.884E-03    -224.890E-03     12.6130E-03
            1411     1.43737E-03     82.6928E-03    -115.373E+06    -229.175E+06    -108.303E+06     36.1477E+03    -224.815E-03     449.686E-03    -224.872E-03     8.39284E-03    -224.902E-03     448.865E-03    -224.914E-03     8.56998E-03
            1412     718.780E-06     82.6829E-03    -117.886E+06    -238.036E+06    -116.169E+06    -21.7930E+03    -224.814E-03     449.719E-03    -224.905E-03     4.54058E-03    -224.889E-03     448.868E-03    -224.970E-03     4.63537E-03
            1413     13.6618E-03     82.1009E-03    -5.36432E+06     76.3283E+06     95.2428E+06     499.110E+03    -224.246E-03     449.135E-03    -224.889E-03     43.7303E-03    -224.696E-03     449.560E-03    -224.516E-03     39.8942E-03
            1414     12.9413E-03     82.0338E-03    -11.7800E+06     71.6803E+06     94.1788E+06    -185.752E+03    -224.438E-03     449.363E-03    -224.925E-03     49.6435E-03    -224.950E-03     449.815E-03    -224.541E-03     45.4629E-03
            1415     12.2223E-03     81.9635E-03    -17.5440E+06     66.7257E+06     89.2071E+06    -351.065E+03    -224.573E-03     449.511E-03    -224.939E-03     50.0038E-03    -225.075E-03     449.930E-03    -224.564E-03     46.2872E-03
            1416     11.5033E-03     81.8924E-03    -22.6680E+06     61.6355E+06     79.2466E+06     485.347E+03    -224.738E-03     449.662E-03    -224.923E-03     50.0999E-03    -225.227E-03     450.059E-03    -224.583E-03     46.7662E-03
            1417     10.7842E-03     81.8206E-03    -28.4527E+06     55.1780E+06     66.4485E+06     755.395E+03    -224.790E-03     449.683E-03    -224.893E-03     49.2609E-03    -225.253E-03     450.048E-03    -224.599E-03     46.4274E-03
            1418     10.0652E-03     81.7498E-03    -34.9890E+06     40.8657E+06     54.3673E+06     276.193E+03    -224.788E-03     449.667E-03    -224.880E-03     47.7311E-03    -225.217E-03     449.960E-03    -224.616E-03     45.4126E-03
            1419     9.34600E-03     81.6814E-03    -41.9229E+06     25.5463E+06     45.1006E+06    -27.0634E+03    -224.746E-03     449.631E-03    -224.885E-03     45.5966E-03    -225.147E-03     449.844E-03    -224.636E-03     43.7813E-03
            1420     8.62692E-03     81.6159E-03    -48.9436E+06    -198.454E+03     35.0051E+06     355.454E+03    -224.745E-03     449.649E-03    -224.905E-03     43.0398E-03    -225.106E-03     449.735E-03    -224.658E-03     41.7069E-03
            1421     7.90784E-03     81.5538E-03    -55.8352E+06    -37.5502E+06     22.0970E+06     465.131E+03    -224.779E-03     449.705E-03    -224.926E-03     40.2818E-03    -225.084E-03     449.614E-03    -224.680E-03     39.3616E-03
            1422     7.18883E-03     81.4955E-03    -62.8988E+06    -67.7304E+06     9.27525E+06     340.777E+03    -224.759E-03     449.698E-03    -224.939E-03     37.4130E-03    -225.022E-03     449.471E-03    -224.703E-03     36.8424E-03
            1423     6.46975E-03     81.4414E-03    -70.2336E+06    -94.1936E+06    -4.08042E+06     344.351E+03    -224.744E-03     449.691E-03    -224.946E-03     34.2946E-03    -224.976E-03     449.350E-03    -224.728E-03     34.0129E-03
            1424     5.75073E-03     81.3920E-03    -77.6472E+06    -118.046E+06    -18.2435E+06     276.551E+03    -224.759E-03     449.704E-03    -224.945E-03     31.0059E-03    -224.964E-03     449.268E-03    -224.753E-03     30.9469E-03
            1425     5.03186E-03     81.3472E-03    -84.9908E+06    -139.982E+06    -33.2798E+06     196.571E+03    -224.747E-03     449.683E-03    -224.936E-03     27.5660E-03    -224.929E-03     449.163E-03    -224.776E-03     27.6736E-03
            1426     4.31285E-03     81.3079E-03    -92.3763E+06    -162.131E+06    -49.1228E+06     145.395E+03    -224.732E-03     449.656E-03    -224.924E-03     23.9168E-03    -224.893E-03     449.055E-03    -224.801E-03     24.1320E-03
            1427     3.59393E-03     81.2740E-03    -99.5029E+06    -182.385E+06    -65.5876E+06     170.865E+03    -224.738E-03     449.644E-03    -224.906E-03     20.1380E-03    -224.879E-03     448.974E-03    -224.825E-03     20.4065E-03
            1428     2.87513E-03     81.2459E-03    -105.944E+06    -199.608E+06    -81.9361E+06     109.376E+03    -224.745E-03     449.628E-03    -224.882E-03     16.2923E-03    -224.868E-03     448.903E-03    -224.849E-03     16.5663E-03
            1429     2.15626E-03     81.2234E-03    -111.561E+06    -216.002E+06    -96.8005E+06     70.8809E+03    -224.767E-03     449.630E-03    -224.863E-03     12.3349E-03    -224.872E-03     448.853E-03    -224.872E-03     12.5778E-03
            1430     1.43755E-03     81.2075E-03    -115.685E+06    -229.025E+06    -108.681E+06     41.4305E+03    -224.795E-03     449.646E-03    -224.851E-03     8.36135E-03    -224.884E-03     448.826E-03    -224.894E-03     8.54293E-03
            1431     718.615E-06     81.1973E-03    -118.458E+06    -237.997E+06    -116.653E+06     18.8126E+03    -224.825E-03     449.676E-03    -224.851E-03     4.55616E-03    -224.903E-03     448.827E-03    -224.918E-03     4.65331E-03
            1432     13.6602E-03     80.6156E-03    -5.49978E+06     76.1597E+06     95.1939E+06     413.946E+03    -224.407E-03     449.298E-03    -224.891E-03     42.9764E-03    -224.855E-03     449.721E-03    -224.517E-03     39.1424E-03
            1433     12.9422E-03     80.5473E-03    -10.3265E+06     72.7088E+06     95.3772E+06     175.980E+03    -224.698E-03     449.614E-03    -224.916E-03     48.8516E-03    -225.207E-03     450.068E-03    -224.530E-03     44.6196E-03
            1434     12.2231E-03     80.4781E-03    -16.5116E+06     66.8512E+06     89.7263E+06    -157.867E+03    -224.727E-03     449.641E-03    -224.914E-03     49.4455E-03    -225.225E-03     450.058E-03    -224.539E-03     45.7018E-03
            1435     11.5037E-03     80.4062E-03    -23.2376E+06     60.5447E+06     78.3402E+06    -714.953E+03    -224.710E-03     449.599E-03    -224.889E-03     49.8484E-03    -225.199E-03     449.993E-03    -224.552E-03     46.4775E-03
            1436     10.7847E-03     80.3347E-03    -29.1302E+06     54.6328E+06     66.0113E+06    -253.072E+03    -224.714E-03     449.575E-03    -224.862E-03     49.1958E-03    -225.179E-03     449.940E-03    -224.569E-03     46.3376E-03
            1437     10.0655E-03     80.2642E-03    -34.9991E+06     40.8819E+06     54.3530E+06     488.176E+03    -224.700E-03     449.552E-03    -224.852E-03     47.7384E-03    -225.129E-03     449.844E-03    -224.589E-03     45.4271E-03
            1438     9.34632E-03     80.1957E-03    -41.7106E+06     25.5655E+06     45.2138E+06     897.282E+03    -224.678E-03     449.541E-03    -224.862E-03     45.6128E-03    -225.079E-03     449.753E-03    -224.613E-03     43.8212E-03
            1439     8.62713E-03     80.1302E-03    -48.9765E+06    -66.8375E+03     35.1314E+06     570.541E+03    -224.670E-03     449.556E-03    -224.886E-03     43.1125E-03    -225.031E-03     449.642E-03    -224.639E-03     41.7901E-03
            1440     7.90801E-03     80.0682E-03    -56.1673E+06    -37.3824E+06     21.9706E+06     270.792E+03    -224.698E-03     449.611E-03    -224.912E-03     40.4068E-03    -225.005E-03     449.521E-03    -224.667E-03     39.4921E-03
            1441     7.18884E-03     80.0101E-03    -63.3924E+06    -67.7099E+06     8.87254E+06     367.151E+03    -224.714E-03     449.644E-03    -224.929E-03     37.4732E-03    -224.979E-03     449.418E-03    -224.695E-03     36.9110E-03
            1442     6.46975E-03     79.9560E-03    -70.7309E+06    -94.0879E+06    -4.63541E+06     375.590E+03    -224.723E-03     449.662E-03    -224.938E-03     34.3269E-03    -224.956E-03     449.323E-03    -224.723E-03     34.0546E-03
            1443     5.75077E-03     79.9064E-03    -78.0900E+06    -117.896E+06    -18.8082E+06     276.364E+03    -224.724E-03     449.664E-03    -224.940E-03     31.0267E-03    -224.931E-03     449.230E-03    -224.750E-03     30.9749E-03
            1444     5.03171E-03     79.8619E-03    -85.5584E+06    -139.878E+06    -33.8359E+06     182.163E+03    -224.716E-03     449.651E-03    -224.935E-03     27.5687E-03    -224.901E-03     449.133E-03    -224.777E-03     27.6770E-03
            1445     4.31281E-03     79.8224E-03    -92.8600E+06    -162.134E+06    -49.5627E+06     188.837E+03    -224.724E-03     449.650E-03    -224.926E-03     23.9287E-03    -224.886E-03     449.051E-03    -224.804E-03     24.1431E-03
            1446     3.59397E-03     79.7886E-03    -99.7955E+06    -182.308E+06    -65.8065E+06     214.333E+03    -224.752E-03     449.661E-03    -224.909E-03     20.1956E-03    -224.894E-03     448.992E-03    -224.829E-03     20.4655E-03
            1447     2.87511E-03     79.7604E-03    -106.189E+06    -199.413E+06    -82.0543E+06     237.781E+03    -224.772E-03     449.653E-03    -224.881E-03     16.3833E-03    -224.895E-03     448.930E-03    -224.848E-03     16.6612E-03
            1448     2.15633E-03     79.7382E-03    -111.565E+06    -215.789E+06    -96.8563E+06     142.188E+03    -224.780E-03     449.635E-03    -224.855E-03     12.4342E-03    -224.884E-03     448.859E-03    -224.865E-03     12.6782E-03
            1449     1.43744E-03     79.7220E-03    -115.899E+06    -229.009E+06    -108.885E+06     89.3421E+03    -224.806E-03     449.639E-03    -224.832E-03     8.42777E-03    -224.896E-03     448.819E-03    -224.876E-03     8.60842E-03
            1450     718.873E-06     79.7120E-03    -118.785E+06    -237.917E+06    -116.774E+06     92.0017E+03    -224.789E-03     449.624E-03    -224.835E-03     4.55600E-03    -224.868E-03     448.776E-03    -224.902E-03     4.66653E-03
            1451     13.6625E-03     79.1295E-03    -5.47351E+06     76.4328E+06     95.3705E+06     433.469E+03    -224.544E-03     449.411E-03    -224.867E-03     43.1233E-03    -224.992E-03     449.834E-03    -224.493E-03     39.3146E-03
            1452     12.9423E-03     79.0612E-03    -10.0089E+06     73.1407E+06     96.1941E+06    -462.609E+03    -224.699E-03     449.589E-03    -224.890E-03     49.1976E-03    -225.210E-03     450.045E-03    -224.500E-03     44.9438E-03
            1453     12.2234E-03     78.9919E-03    -16.0319E+06     66.9096E+06     90.3836E+06    -245.995E+03    -224.703E-03     449.590E-03    -224.887E-03     49.7344E-03    -225.202E-03     450.007E-03    -224.509E-03     45.9652E-03
            1454     11.5044E-03     78.9208E-03    -22.4359E+06     60.9358E+06     78.6055E+06     249.061E+03    -224.598E-03     449.460E-03    -224.863E-03     50.2062E-03    -225.084E-03     449.855E-03    -224.526E-03     46.8564E-03
            1455     10.7848E-03     78.8490E-03    -29.8193E+06     53.9206E+06     65.1548E+06    -134.356E+03    -224.593E-03     449.433E-03    -224.840E-03     49.5355E-03    -225.059E-03     449.796E-03    -224.549E-03     46.6930E-03
            1456     10.0656E-03     78.7786E-03    -36.6794E+06     39.2184E+06     53.4429E+06     139.391E+03    -224.653E-03     449.491E-03    -224.839E-03     47.9770E-03    -225.086E-03     449.779E-03    -224.575E-03     45.6776E-03
            1457     9.34641E-03     78.7101E-03    -42.8845E+06     25.4287E+06     44.7298E+06     626.175E+03    -224.628E-03     449.478E-03    -224.851E-03     45.7941E-03    -225.032E-03     449.692E-03    -224.602E-03     44.0178E-03
            1458     8.62716E-03     78.6447E-03    -49.2639E+06     729.976E+03     34.7975E+06     596.241E+03    -224.604E-03     449.481E-03    -224.877E-03     43.1979E-03    -224.968E-03     449.571E-03    -224.632E-03     41.8859E-03
            1459     7.90789E-03     78.5828E-03    -56.2731E+06    -37.3208E+06     21.4529E+06     487.501E+03    -224.658E-03     449.565E-03    -224.907E-03     40.4462E-03    -224.964E-03     449.477E-03    -224.664E-03     39.5441E-03
            1460     7.18883E-03     78.5245E-03    -63.5118E+06    -67.6399E+06     8.51880E+06     402.521E+03    -224.711E-03     449.638E-03    -224.927E-03     37.5014E-03    -224.976E-03     449.413E-03    -224.694E-03     36.9449E-03
            1461     6.46983E-03     78.4705E-03    -70.7743E+06    -93.9638E+06    -4.76631E+06     365.886E+03    -224.722E-03     449.659E-03    -224.937E-03     34.3556E-03    -224.955E-03     449.322E-03    -224.722E-03     34.0840E-03
            1462     5.75074E-03     78.4211E-03    -78.1886E+06    -117.656E+06    -18.8052E+06     316.529E+03    -224.717E-03     449.657E-03    -224.940E-03     31.0339E-03    -224.924E-03     449.223E-03    -224.750E-03     30.9851E-03
            1463     5.03180E-03     78.3764E-03    -85.6049E+06    -139.813E+06    -33.7985E+06     219.956E+03    -224.722E-03     449.657E-03    -224.935E-03     27.5171E-03    -224.907E-03     449.140E-03    -224.777E-03     27.6246E-03
            1464     4.31283E-03     78.3370E-03    -92.8667E+06    -162.015E+06    -49.6309E+06     134.030E+03    -224.720E-03     449.645E-03    -224.926E-03     23.8670E-03    -224.882E-03     449.047E-03    -224.804E-03     24.0757E-03
            1465     3.59385E-03     78.3032E-03    -99.7804E+06    -182.241E+06    -65.9652E+06     92.5905E+03    -224.738E-03     449.648E-03    -224.909E-03     20.1426E-03    -224.880E-03     448.979E-03    -224.830E-03     20.4064E-03
            1466     2.87502E-03     78.2749E-03    -106.107E+06    -199.424E+06    -82.0756E+06     94.4239E+03    -224.770E-03     449.655E-03    -224.885E-03     16.2841E-03    -224.894E-03     448.932E-03    -224.852E-03     16.5563E-03
            1467     2.15621E-03     78.2528E-03    -111.544E+06    -215.636E+06    -96.5883E+06     130.614E+03    -224.790E-03     449.649E-03    -224.859E-03     12.3656E-03    -224.895E-03     448.873E-03    -224.868E-03     12.6064E-03
            1468     1.43756E-03     78.2366E-03    -115.827E+06    -228.718E+06    -108.595E+06     160.722E+03    -224.790E-03     449.630E-03    -224.840E-03     8.43179E-03    -224.880E-03     448.812E-03    -224.883E-03     8.60961E-03
            1469     718.664E-06     78.2266E-03    -118.499E+06    -237.703E+06    -116.688E+06     52.9876E+03    -224.775E-03     449.649E-03    -224.874E-03     4.64952E-03    -224.853E-03     448.801E-03    -224.941E-03     4.75814E-03
            1470     13.6610E-03     77.6440E-03    -4.46449E+06     77.1530E+06     96.5270E+06     117.093E+03    -224.557E-03     449.404E-03    -224.847E-03     43.0119E-03    -225.002E-03     449.827E-03    -224.470E-03     39.2028E-03
            1471     12.9427E-03     77.5751E-03    -9.78997E+06     72.4112E+06     95.5465E+06     45.0092E+03    -224.500E-03     449.369E-03    -224.868E-03     49.1595E-03    -225.006E-03     449.820E-03    -224.481E-03     44.9358E-03
            1472     12.2234E-03     77.5060E-03    -16.8815E+06     65.4664E+06     88.9912E+06    -157.664E+03    -224.475E-03     449.352E-03    -224.876E-03     49.8627E-03    -224.974E-03     449.765E-03    -224.502E-03     46.1096E-03
            1473     11.5039E-03     77.4353E-03    -23.3691E+06     60.0552E+06     78.6761E+06     299.792E+03    -224.587E-03     449.453E-03    -224.865E-03     50.4249E-03    -225.076E-03     449.844E-03    -224.525E-03     47.0963E-03
            1474     10.7848E-03     77.3636E-03    -29.4226E+06     54.3218E+06     66.1085E+06     874.402E+03    -224.631E-03     449.474E-03    -224.843E-03     49.6415E-03    -225.096E-03     449.836E-03    -224.549E-03     46.8275E-03
            1475     10.0655E-03     77.2929E-03    -35.9698E+06     39.6232E+06     53.3914E+06     382.286E+03    -224.644E-03     449.480E-03    -224.835E-03     48.0096E-03    -225.074E-03     449.768E-03    -224.574E-03     45.7162E-03
            1476     9.34635E-03     77.2246E-03    -42.6336E+06     24.8779E+06     44.2902E+06     -60.422E+03    -224.621E-03     449.469E-03    -224.848E-03     45.7812E-03    -225.023E-03     449.680E-03    -224.601E-03     43.9887E-03
            1477     8.62712E-03     77.1592E-03    -49.4461E+06      317.98E+03     34.4892E+06     329.516E+03    -224.610E-03     449.485E-03    -224.875E-03     43.1665E-03    -224.974E-03     449.575E-03    -224.632E-03     41.8486E-03
            1478     7.90802E-03     77.0974E-03    -56.3326E+06    -36.9301E+06     21.5334E+06     522.142E+03    -224.662E-03     449.568E-03    -224.906E-03     40.4108E-03    -224.969E-03     449.481E-03    -224.663E-03     39.5102E-03
            1479     7.18882E-03     77.0390E-03    -63.3795E+06    -67.5807E+06     8.69396E+06     400.922E+03    -224.690E-03     449.617E-03    -224.927E-03     37.4757E-03    -224.955E-03     449.391E-03    -224.693E-03     36.9185E-03
            1480     6.46970E-03     76.9851E-03    -70.6684E+06    -93.8900E+06    -4.52244E+06     362.671E+03    -224.719E-03     449.657E-03    -224.938E-03     34.3100E-03    -224.952E-03     449.319E-03    -224.722E-03     34.0342E-03
            1481     5.75074E-03     76.9356E-03    -78.0649E+06    -117.366E+06    -18.5834E+06     350.699E+03    -224.729E-03     449.669E-03    -224.940E-03     31.0015E-03    -224.937E-03     449.237E-03    -224.749E-03     30.9510E-03
            1482     5.03176E-03     76.8909E-03    -85.4111E+06    -139.553E+06    -33.6609E+06     183.422E+03    -224.723E-03     449.657E-03    -224.934E-03     27.5220E-03    -224.908E-03     449.140E-03    -224.776E-03     27.6278E-03
            1483     4.31285E-03     76.8517E-03    -92.7506E+06    -161.896E+06    -49.5375E+06     76.7008E+03    -224.748E-03     449.669E-03    -224.921E-03     23.8814E-03    -224.910E-03     449.071E-03    -224.800E-03     24.0893E-03
            1484     3.59403E-03     76.8177E-03    -99.8484E+06    -182.211E+06    -65.9326E+06     87.5806E+03    -224.762E-03     449.661E-03    -224.899E-03     20.1098E-03    -224.904E-03     448.993E-03    -224.820E-03     20.3720E-03
            1485     2.87517E-03     76.7895E-03    -106.191E+06    -199.359E+06    -82.1065E+06     77.8060E+03    -224.747E-03     449.618E-03    -224.871E-03     16.2417E-03    -224.871E-03     448.895E-03    -224.839E-03     16.5124E-03
            1486     2.15636E-03     76.7673E-03    -111.738E+06    -215.717E+06    -96.9808E+06     82.6345E+03    -224.758E-03     449.608E-03    -224.850E-03     12.3500E-03    -224.864E-03     448.832E-03    -224.860E-03     12.5899E-03
            1487     1.43745E-03     76.7512E-03    -115.824E+06    -228.556E+06    -108.896E+06     1.45608E+03    -224.782E-03     449.618E-03    -224.835E-03     8.37847E-03    -224.872E-03     448.801E-03    -224.880E-03     8.55580E-03
            1488     718.707E-06     76.7414E-03    -118.371E+06    -237.644E+06    -116.560E+06        -150.340    -224.731E-03     449.646E-03    -224.915E-03     4.61677E-03    -224.809E-03     448.799E-03    -224.982E-03     4.72424E-03
            1489     13.6630E-03     76.1576E-03    -4.56336E+06     76.8739E+06     95.8367E+06    -635.650E+03    -224.320E-03     449.141E-03    -224.822E-03     42.7719E-03    -224.765E-03     449.566E-03    -224.447E-03     38.9091E-03
            1490     12.9431E-03     76.0898E-03    -11.0284E+06     70.6334E+06     93.9563E+06     609.147E+03    -224.217E-03     449.073E-03    -224.856E-03     49.3414E-03    -224.723E-03     449.518E-03    -224.472E-03     45.1608E-03
            1491     12.2232E-03     76.0212E-03    -16.6242E+06     65.5965E+06     88.5292E+06     1.02417E+06    -224.428E-03     449.302E-03    -224.874E-03     49.9651E-03    -224.923E-03     449.714E-03    -224.502E-03     46.2729E-03
            1492     11.5040E-03     75.9492E-03    -23.0842E+06     60.0666E+06     77.2398E+06     501.102E+03    -224.617E-03     449.476E-03    -224.859E-03     50.2085E-03    -225.103E-03     449.869E-03    -224.526E-03     46.8853E-03
            1493     10.7848E-03     75.8780E-03    -29.3463E+06     53.8100E+06     65.0238E+06     264.495E+03    -224.654E-03     449.491E-03    -224.837E-03     49.4701E-03    -225.117E-03     449.853E-03    -224.548E-03     46.6378E-03
            1494     10.0656E-03     75.8073E-03    -35.2588E+06     40.3587E+06     53.8996E+06     633.139E+03    -224.639E-03     449.473E-03    -224.834E-03     47.9409E-03    -225.068E-03     449.764E-03    -224.572E-03     45.6373E-03
            1495     9.34641E-03     75.7391E-03    -42.0697E+06     25.1889E+06     44.7604E+06     603.763E+03    -224.600E-03     449.449E-03    -224.848E-03     45.7278E-03    -225.001E-03     449.660E-03    -224.600E-03     43.9359E-03
            1496     8.62718E-03     75.6738E-03    -49.2915E+06     114.152E+03     34.8508E+06     302.408E+03    -224.619E-03     449.495E-03    -224.876E-03     43.1823E-03    -224.982E-03     449.583E-03    -224.631E-03     41.8624E-03
            1497     7.90795E-03     75.6118E-03    -56.4071E+06    -37.0266E+06     21.6422E+06     344.245E+03    -224.687E-03     449.591E-03    -224.904E-03     40.4179E-03    -224.994E-03     449.504E-03    -224.661E-03     39.5113E-03
            1498     7.18889E-03     75.5537E-03    -63.5212E+06    -67.3594E+06     8.67724E+06     375.088E+03    -224.710E-03     449.631E-03    -224.922E-03     37.4459E-03    -224.976E-03     449.408E-03    -224.689E-03     36.8856E-03
            1499     6.46983E-03     75.4996E-03    -70.7622E+06    -93.6842E+06    -4.58769E+06     241.937E+03    -224.720E-03     449.651E-03    -224.931E-03     34.2558E-03    -224.954E-03     449.314E-03    -224.716E-03     33.9791E-03
            1500     5.75080E-03     75.4501E-03    -78.0015E+06    -117.205E+06    -18.5591E+06     125.872E+03    -224.712E-03     449.645E-03    -224.933E-03     30.9186E-03    -224.919E-03     449.213E-03    -224.743E-03     30.8625E-03
            1501     5.03178E-03     75.4056E-03    -85.2982E+06    -139.383E+06    -33.5200E+06     82.3217E+03    -224.703E-03     449.632E-03    -224.929E-03     27.4624E-03    -224.888E-03     449.116E-03    -224.771E-03     27.5662E-03
            1502     4.31282E-03     75.3661E-03    -92.5489E+06    -161.922E+06    -49.2774E+06     133.183E+03    -224.730E-03     449.650E-03    -224.919E-03     23.8933E-03    -224.892E-03     449.051E-03    -224.797E-03     24.1051E-03
            1503     3.59398E-03     75.3323E-03    -99.4943E+06    -182.087E+06    -65.5856E+06     130.788E+03    -224.742E-03     449.643E-03    -224.901E-03     20.1847E-03    -224.883E-03     448.975E-03    -224.820E-03     20.4498E-03
            1504     2.87513E-03     75.3042E-03    -105.950E+06    -199.395E+06    -81.8837E+06     104.859E+03    -224.745E-03     449.621E-03    -224.876E-03     16.3713E-03    -224.868E-03     448.897E-03    -224.843E-03     16.6433E-03
            1505     2.15624E-03     75.2820E-03    -111.387E+06    -215.637E+06    -96.7056E+06     98.9776E+03    -224.775E-03     449.628E-03    -224.853E-03     12.4253E-03    -224.879E-03     448.852E-03    -224.863E-03     12.6665E-03
            1506     1.43754E-03     75.2659E-03    -115.622E+06    -228.496E+06    -108.799E+06     38.3018E+03    -224.818E-03     449.643E-03    -224.825E-03     8.41530E-03    -224.907E-03     448.826E-03    -224.870E-03     8.59575E-03
            1507     718.847E-06     75.2558E-03    -118.063E+06    -237.672E+06    -116.618E+06    -69.0376E+03    -224.785E-03     449.606E-03    -224.820E-03     4.54020E-03    -224.862E-03     448.757E-03    -224.888E-03     4.64799E-03
            1508     13.6620E-03     74.6733E-03    -5.20991E+06     76.0534E+06     94.8742E+06    -118.605E+03    -224.147E-03     448.985E-03    -224.839E-03     43.9859E-03    -224.594E-03     449.409E-03    -224.467E-03     40.1808E-03
            1509     12.9423E-03     74.6052E-03    -11.2728E+06     70.6424E+06     93.8354E+06     125.868E+03    -224.555E-03     449.428E-03    -224.873E-03     50.0398E-03    -225.064E-03     449.876E-03    -224.490E-03     45.8632E-03
            1510     12.2234E-03     74.5348E-03    -16.6409E+06     65.8463E+06     89.0163E+06     84.4473E+03    -224.666E-03     449.545E-03    -224.879E-03     50.0999E-03    -225.165E-03     449.960E-03    -224.505E-03     46.3606E-03
            1511     11.5043E-03     74.4640E-03    -22.4186E+06     60.3352E+06     78.2326E+06     536.291E+03    -224.631E-03     449.489E-03    -224.858E-03     50.2604E-03    -225.116E-03     449.881E-03    -224.521E-03     46.9159E-03
            1512     10.7849E-03     74.3922E-03    -29.0409E+06     53.7050E+06     65.0833E+06     756.232E+03    -224.600E-03     449.434E-03    -224.834E-03     49.5034E-03    -225.063E-03     449.795E-03    -224.544E-03     46.6687E-03
            1513     10.0657E-03     74.3219E-03    -35.9143E+06     39.9497E+06     53.5693E+06     638.737E+03    -224.596E-03     449.429E-03    -224.833E-03     47.9758E-03    -225.027E-03     449.719E-03    -224.571E-03     45.6715E-03
            1514     9.34636E-03     74.2536E-03    -42.2608E+06     25.7555E+06     45.0870E+06     648.874E+03    -224.598E-03     449.448E-03    -224.851E-03     45.8030E-03    -225.001E-03     449.662E-03    -224.601E-03     44.0190E-03
            1515     8.62711E-03     74.1882E-03    -48.9211E+06     551.246E+03     35.0965E+06     577.291E+03    -224.649E-03     449.526E-03    -224.877E-03     43.1880E-03    -225.011E-03     449.614E-03    -224.631E-03     41.8745E-03
            1516     7.90802E-03     74.1263E-03    -56.0731E+06    -37.0667E+06     21.9034E+06     373.105E+03    -224.720E-03     449.622E-03    -224.902E-03     40.3773E-03    -225.026E-03     449.534E-03    -224.658E-03     39.4676E-03
            1517     7.18891E-03     74.0681E-03    -63.1419E+06    -66.9808E+06     9.10404E+06     207.384E+03    -224.730E-03     449.647E-03    -224.917E-03     37.4314E-03    -224.995E-03     449.424E-03    -224.683E-03     36.8655E-03
            1518     6.46988E-03     74.0141E-03    -70.2603E+06    -93.4091E+06    -4.13147E+06     61.9107E+03    -224.706E-03     449.632E-03    -224.926E-03     34.3066E-03    -224.939E-03     449.296E-03    -224.709E-03     34.0268E-03
            1519     5.75084E-03     73.9647E-03    -77.6510E+06    -117.130E+06    -18.2487E+06    -3.25412E+03    -224.698E-03     449.627E-03    -224.929E-03     30.9929E-03    -224.905E-03     449.195E-03    -224.738E-03     30.9349E-03
            1520     5.03188E-03     73.9202E-03    -85.1130E+06    -139.530E+06    -33.3659E+06     49.0797E+03    -224.707E-03     449.631E-03    -224.925E-03     27.5197E-03    -224.890E-03     449.114E-03    -224.766E-03     27.6253E-03
            1521     4.31291E-03     73.8808E-03    -92.4260E+06    -162.068E+06    -49.2495E+06     87.6185E+03    -224.696E-03     449.613E-03    -224.917E-03     23.8880E-03    -224.856E-03     449.013E-03    -224.794E-03     24.1009E-03
            1522     3.59389E-03     73.8469E-03     -99.328E+06    -182.050E+06    -65.5865E+06     94.8994E+03    -224.699E-03     449.604E-03    -224.905E-03     20.1024E-03    -224.839E-03     448.935E-03    -224.825E-03     20.3672E-03
            1523     2.87499E-03     73.8188E-03    -105.682E+06    -199.426E+06    -81.7722E+06     116.305E+03    -224.743E-03     449.631E-03    -224.888E-03     16.2894E-03    -224.865E-03     448.906E-03    -224.854E-03     16.5625E-03
            1524     2.15629E-03     73.7965E-03    -111.183E+06    -215.602E+06    -96.4280E+06     147.419E+03    -224.787E-03     449.654E-03    -224.868E-03     12.4053E-03    -224.891E-03     448.878E-03    -224.876E-03     12.6493E-03
            1525     1.43748E-03     73.7805E-03    -115.423E+06    -228.275E+06    -108.296E+06     204.763E+03    -224.806E-03     449.655E-03    -224.849E-03     8.47006E-03    -224.895E-03     448.838E-03    -224.892E-03     8.65633E-03
            1526     718.685E-06     73.7705E-03    -118.173E+06    -237.529E+06    -116.325E+06     206.966E+03    -224.841E-03     449.667E-03    -224.826E-03     4.62314E-03    -224.918E-03     448.819E-03    -224.892E-03     4.73086E-03
            1527     13.6603E-03     73.1867E-03    -5.50029E+06     75.6592E+06     94.7669E+06    -177.096E+03    -224.394E-03     449.247E-03    -224.852E-03     42.8686E-03    -224.840E-03     449.666E-03    -224.480E-03     39.0422E-03
            1528     12.9425E-03     73.1182E-03    -10.6554E+06     71.6938E+06     94.5897E+06    -518.371E+03    -224.688E-03     449.564E-03    -224.875E-03     48.9327E-03    -225.196E-03     450.014E-03    -224.491E-03     44.6820E-03
            1529     12.2234E-03     73.0493E-03    -16.7055E+06     65.6446E+06     88.7216E+06     149.835E+03    -224.574E-03     449.450E-03    -224.876E-03     49.8440E-03    -225.072E-03     449.864E-03    -224.503E-03     46.0949E-03
            1530     11.5040E-03     72.9781E-03    -23.3603E+06     58.9321E+06     77.5214E+06     345.011E+03    -224.589E-03     449.449E-03    -224.860E-03     50.3331E-03    -225.075E-03     449.837E-03    -224.524E-03     46.9987E-03
            1531     10.7850E-03     72.9068E-03    -29.1928E+06     53.6108E+06     65.8018E+06     764.460E+03    -224.597E-03     449.439E-03    -224.842E-03     49.6008E-03    -225.061E-03     449.799E-03    -224.548E-03     46.7668E-03
            1532     10.0655E-03     72.8364E-03    -35.1752E+06     40.6544E+06     54.4225E+06     765.811E+03    -224.617E-03     449.456E-03    -224.839E-03     48.0070E-03    -225.047E-03     449.748E-03    -224.575E-03     45.7080E-03
            1533     9.34632E-03     72.7681E-03    -41.8686E+06     25.9988E+06     45.4200E+06     397.241E+03    -224.648E-03     449.501E-03    -224.853E-03     45.7755E-03    -225.050E-03     449.715E-03    -224.603E-03     43.9862E-03
            1534     8.62717E-03     72.7026E-03    -48.6996E+06     764.737E+03     35.6696E+06     260.017E+03    -224.673E-03     449.551E-03    -224.877E-03     43.1534E-03    -225.036E-03     449.639E-03    -224.629E-03     41.8337E-03
            1535     7.90804E-03     72.6408E-03    -55.3937E+06    -36.7170E+06     22.6548E+06     155.544E+03    -224.710E-03     449.612E-03    -224.903E-03     40.3857E-03    -225.014E-03     449.524E-03    -224.656E-03     39.4733E-03
            1536     7.18899E-03     72.5826E-03    -62.4588E+06    -66.9821E+06     9.53609E+06     144.065E+03    -224.703E-03     449.621E-03    -224.918E-03     37.4756E-03    -224.965E-03     449.396E-03    -224.683E-03     36.9094E-03
            1537     6.46985E-03     72.5288E-03    -69.8605E+06    -93.3804E+06    -3.98783E+06     239.354E+03    -224.693E-03     449.621E-03    -224.929E-03     34.3441E-03    -224.923E-03     449.284E-03    -224.712E-03     34.0678E-03
            1538     5.75078E-03     72.4793E-03    -77.4004E+06    -117.185E+06    -18.2378E+06     254.466E+03    -224.697E-03     449.630E-03    -224.933E-03     31.0424E-03    -224.902E-03     449.197E-03    -224.742E-03     30.9909E-03
            1539     5.03177E-03     72.4347E-03    -84.9184E+06    -139.545E+06    -33.4099E+06     207.155E+03    -224.715E-03     449.643E-03    -224.928E-03     27.5626E-03    -224.898E-03     449.126E-03    -224.770E-03     27.6711E-03
            1540     4.31285E-03     72.3954E-03    -92.2375E+06    -162.043E+06    -49.2822E+06     187.818E+03    -224.721E-03     449.640E-03    -224.919E-03     23.9033E-03    -224.881E-03     449.040E-03    -224.797E-03     24.1174E-03
            1541     3.59402E-03     72.3616E-03    -99.3081E+06    -182.103E+06    -65.6781E+06     195.532E+03    -224.723E-03     449.626E-03    -224.903E-03     20.1375E-03    -224.862E-03     448.957E-03    -224.823E-03     20.4061E-03
            1542     2.87515E-03     72.3334E-03    -105.771E+06    -199.328E+06    -81.8014E+06     186.465E+03    -224.745E-03     449.627E-03    -224.882E-03     16.2881E-03    -224.867E-03     448.903E-03    -224.849E-03     16.5638E-03
            1543     2.15621E-03     72.3112E-03    -111.285E+06    -215.490E+06    -96.5131E+06     141.903E+03    -224.771E-03     449.633E-03    -224.862E-03     12.3291E-03    -224.875E-03     448.857E-03    -224.871E-03     12.5711E-03
            1544     1.43742E-03     72.2951E-03    -115.495E+06    -228.302E+06    -108.443E+06     124.081E+03    -224.789E-03     449.639E-03    -224.850E-03     8.34227E-03    -224.878E-03     448.822E-03    -224.893E-03     8.52504E-03
            1545     718.694E-06     72.2850E-03    -118.000E+06    -237.047E+06    -116.168E+06     82.7662E+03    -224.806E-03     449.677E-03    -224.870E-03     4.51692E-03    -224.884E-03     448.831E-03    -224.936E-03     4.61703E-03
            1546     13.6638E-03     71.7008E-03    -4.89560E+06     76.1002E+06     95.4337E+06     197.301E+03    -224.500E-03     449.322E-03    -224.822E-03     42.7840E-03    -224.944E-03     449.742E-03    -224.448E-03     38.9463E-03
            1547     12.9432E-03     71.6331E-03    -10.5383E+06     71.3952E+06     94.4613E+06     538.548E+03    -224.261E-03     449.112E-03    -224.851E-03     49.1331E-03    -224.765E-03     449.558E-03    -224.467E-03     44.9688E-03
            1548     12.2234E-03     71.5639E-03    -17.2673E+06     64.9469E+06     87.9091E+06     247.515E+03    -224.406E-03     449.271E-03    -224.866E-03     49.7387E-03    -224.901E-03     449.681E-03    -224.495E-03     46.0433E-03
            1549     11.5041E-03     71.4925E-03    -22.9138E+06     59.3077E+06     76.9009E+06     250.052E+03    -224.489E-03     449.345E-03    -224.855E-03     50.1230E-03    -224.971E-03     449.732E-03    -224.524E-03     46.8123E-03
            1550     10.7846E-03     71.4212E-03    -28.9471E+06     53.0822E+06     65.1651E+06    -237.520E+03    -224.596E-03     449.437E-03    -224.842E-03     49.4510E-03    -225.055E-03     449.794E-03    -224.551E-03     46.6215E-03
            1551     10.0656E-03     71.3508E-03    -34.9468E+06     40.3309E+06     54.9228E+06     111.952E+03    -224.682E-03     449.525E-03    -224.843E-03     47.9043E-03    -225.111E-03     449.813E-03    -224.576E-03     45.5987E-03
            1552     9.34641E-03     71.2824E-03    -41.0519E+06     26.7113E+06     46.0936E+06     393.684E+03    -224.653E-03     449.505E-03    -224.852E-03     45.7350E-03    -225.053E-03     449.720E-03    -224.601E-03     43.9464E-03
            1553     8.62719E-03     71.2171E-03    -47.8289E+06     892.356E+03     35.7807E+06     94.8799E+03    -224.634E-03     449.510E-03    -224.876E-03     43.1820E-03    -224.992E-03     449.598E-03    -224.629E-03     41.8609E-03
            1554     7.90803E-03     71.1553E-03    -55.2307E+06    -37.0677E+06     22.3242E+06     213.346E+03    -224.664E-03     449.569E-03    -224.905E-03     40.4213E-03    -224.966E-03     449.479E-03    -224.660E-03     39.5114E-03
            1555     7.18882E-03     71.0973E-03    -62.6077E+06    -67.0900E+06     9.19609E+06     423.172E+03    -224.686E-03     449.610E-03    -224.924E-03     37.5086E-03    -224.948E-03     449.386E-03    -224.690E-03     36.9481E-03
            1556     6.46978E-03     71.0433E-03    -69.9615E+06    -93.4774E+06    -4.25781E+06     473.028E+03    -224.712E-03     449.647E-03    -224.936E-03     34.3556E-03    -224.942E-03     449.310E-03    -224.720E-03     34.0831E-03
            1557     5.75077E-03     70.9939E-03    -77.2941E+06    -117.051E+06    -18.3535E+06     482.339E+03    -224.710E-03     449.649E-03    -224.939E-03     31.0321E-03    -224.915E-03     449.217E-03    -224.749E-03     30.9825E-03
            1558     5.03179E-03     70.9493E-03    -84.6942E+06    -139.378E+06    -33.3433E+06     463.754E+03    -224.705E-03     449.641E-03    -224.936E-03     27.5632E-03    -224.887E-03     449.124E-03    -224.778E-03     27.6758E-03
            1559     4.31284E-03     70.9100E-03    -92.1035E+06    -161.952E+06    -49.1013E+06     442.324E+03    -224.725E-03     449.654E-03    -224.930E-03     23.9200E-03    -224.884E-03     449.054E-03    -224.807E-03     24.1360E-03
            1560     3.59388E-03     70.8762E-03    -99.1641E+06    -181.831E+06    -65.3423E+06     337.753E+03    -224.755E-03     449.667E-03    -224.913E-03     20.2118E-03    -224.895E-03     448.999E-03    -224.832E-03     20.4793E-03
            1561     2.87505E-03     70.8480E-03    -105.550E+06    -199.022E+06    -81.4130E+06     211.788E+03    -224.779E-03     449.665E-03    -224.886E-03     16.3681E-03    -224.901E-03     448.942E-03    -224.851E-03     16.6423E-03
            1562     2.15637E-03     70.8258E-03    -111.004E+06    -215.321E+06    -96.1051E+06     122.582E+03    -224.795E-03     449.653E-03    -224.858E-03     12.3931E-03    -224.899E-03     448.877E-03    -224.865E-03     12.6364E-03
            1563     1.43760E-03     70.8097E-03    -115.209E+06    -228.194E+06    -108.152E+06     68.2010E+03    -224.803E-03     449.635E-03    -224.832E-03     8.40318E-03    -224.891E-03     448.818E-03    -224.875E-03     8.58564E-03
            1564     718.799E-06     70.7997E-03    -118.145E+06    -236.892E+06    -116.269E+06     89.8325E+03    -224.826E-03     449.623E-03    -224.798E-03     4.61773E-03    -224.904E-03     448.779E-03    -224.864E-03     4.71666E-03
            1565     13.6614E-03     70.2164E-03    -5.67269E+06     74.9132E+06     94.2475E+06    -115.055E+03    -224.460E-03     449.284E-03    -224.824E-03     43.6252E-03    -224.906E-03     449.703E-03    -224.453E-03     39.8021E-03
            1566     12.9425E-03     70.1478E-03    -10.6910E+06     70.9299E+06     94.3287E+06     600.677E+03    -224.552E-03     449.403E-03    -224.850E-03     49.5002E-03    -225.057E-03     449.848E-03    -224.466E-03     45.3376E-03
            1567     12.2237E-03     70.0782E-03    -15.7510E+06     66.2338E+06     89.6646E+06     170.753E+03    -224.420E-03     449.282E-03    -224.862E-03     49.7170E-03    -224.913E-03     449.693E-03    -224.486E-03     46.0107E-03
            1568     11.5042E-03     70.0075E-03    -22.2600E+06     59.5728E+06     77.7327E+06    -277.015E+03    -224.480E-03     449.328E-03    -224.849E-03     50.1294E-03    -224.960E-03     449.716E-03    -224.514E-03     46.8052E-03
            1569     10.7850E-03     69.9356E-03    -28.6273E+06     52.8716E+06     64.3559E+06     60.0986E+03    -224.576E-03     449.405E-03    -224.828E-03     49.3726E-03    -225.032E-03     449.760E-03    -224.542E-03     46.5552E-03
            1570     10.0656E-03     69.8651E-03    -35.1045E+06     39.9014E+06     53.4378E+06    -133.838E+03    -224.609E-03     449.439E-03    -224.830E-03     47.8346E-03    -225.035E-03     449.727E-03    -224.569E-03     45.5307E-03
            1571     9.34640E-03     69.7969E-03    -41.7256E+06     26.1479E+06     45.2434E+06    -69.0984E+03    -224.577E-03     449.425E-03    -224.848E-03     45.7392E-03    -224.978E-03     449.640E-03    -224.599E-03     43.9448E-03
            1572     8.62713E-03     69.7316E-03    -48.7852E+06     634.183E+03     34.9808E+06     608.574E+03    -224.571E-03     449.449E-03    -224.878E-03     43.1992E-03    -224.933E-03     449.539E-03    -224.633E-03     41.8844E-03
            1573     7.90790E-03     69.6699E-03    -55.8159E+06    -37.0225E+06     21.8525E+06     597.979E+03    -224.644E-03     449.556E-03    -224.912E-03     40.4208E-03    -224.949E-03     449.468E-03    -224.668E-03     39.5160E-03
            1574     7.18882E-03     69.6118E-03    -62.8445E+06    -67.1273E+06     9.11129E+06     425.349E+03    -224.699E-03     449.632E-03    -224.933E-03     37.4969E-03    -224.962E-03     449.408E-03    -224.699E-03     36.9368E-03
            1575     6.46972E-03     69.5578E-03    -70.0133E+06    -93.4809E+06    -4.17246E+06     473.691E+03    -224.721E-03     449.666E-03    -224.945E-03     34.3414E-03    -224.952E-03     449.328E-03    -224.729E-03     34.0660E-03
            1576     5.75071E-03     69.5084E-03    -77.3267E+06    -116.902E+06    -18.2191E+06     498.600E+03    -224.711E-03     449.660E-03    -224.948E-03     31.0329E-03    -224.916E-03     449.228E-03    -224.758E-03     30.9793E-03
            1577     5.03170E-03     69.4639E-03    -84.8019E+06    -139.318E+06    -33.2565E+06     616.773E+03    -224.693E-03     449.641E-03    -224.948E-03     27.5878E-03    -224.875E-03     449.124E-03    -224.790E-03     27.7023E-03
            1578     4.31272E-03     69.4245E-03    -92.1659E+06    -161.547E+06    -48.9702E+06     562.977E+03    -224.727E-03     449.671E-03    -224.944E-03     23.9637E-03    -224.887E-03     449.073E-03    -224.821E-03     24.1829E-03
            1579     3.59389E-03     69.3907E-03    -99.0585E+06    -181.323E+06    -65.1433E+06     298.227E+03    -224.779E-03     449.706E-03    -224.926E-03     20.1905E-03    -224.920E-03     449.040E-03    -224.846E-03     20.4571E-03
            1580     2.87507E-03     69.3625E-03    -105.427E+06    -198.855E+06    -81.3605E+06     150.078E+03    -224.778E-03     449.679E-03    -224.900E-03     16.3332E-03    -224.900E-03     448.956E-03    -224.866E-03     16.6057E-03
            1581     2.15617E-03     69.3404E-03    -110.901E+06    -215.121E+06    -96.0628E+06     114.115E+03    -224.782E-03     449.662E-03    -224.880E-03     12.4425E-03    -224.885E-03     448.886E-03    -224.887E-03     12.6861E-03
            1582     1.43742E-03     69.3242E-03    -115.396E+06    -228.109E+06    -108.084E+06     158.502E+03    -224.826E-03     449.688E-03    -224.862E-03     8.49507E-03    -224.916E-03     448.872E-03    -224.905E-03     8.68128E-03
            1583     718.699E-06     69.3144E-03    -118.075E+06    -236.584E+06    -116.120E+06     219.781E+03    -224.779E-03     449.686E-03    -224.907E-03     4.70005E-03    -224.858E-03     448.843E-03    -224.974E-03     4.80135E-03
            1584     13.6617E-03     68.7287E-03    -5.29029E+06     75.3463E+06     94.5536E+06    -193.505E+03    -224.504E-03     449.335E-03    -224.831E-03     42.5502E-03    -224.950E-03     449.755E-03    -224.460E-03     38.6789E-03
            1585     12.9434E-03     68.6615E-03    -10.8626E+06     70.9166E+06     94.2275E+06    -1.60408E+06    -224.496E-03     449.352E-03    -224.856E-03     49.1467E-03    -225.006E-03     449.802E-03    -224.472E-03     44.8603E-03
            1586     12.2236E-03     68.5935E-03    -16.2589E+06     65.7549E+06     89.2249E+06    -445.656E+03    -224.528E-03     449.393E-03    -224.865E-03     50.1185E-03    -225.024E-03     449.806E-03    -224.491E-03     46.3847E-03
            1587     11.5043E-03     68.5215E-03    -22.4468E+06     58.8119E+06     77.4566E+06     583.194E+03    -224.613E-03     449.459E-03    -224.846E-03     50.3934E-03    -225.093E-03     449.844E-03    -224.512E-03     47.0710E-03
            1588     10.7851E-03     68.4504E-03    -29.3718E+06     52.2582E+06     64.3517E+06     1.02812E+06    -224.566E-03     449.390E-03    -224.824E-03     49.5544E-03    -225.026E-03     449.745E-03    -224.536E-03     46.7360E-03
            1589     10.0657E-03     68.3797E-03    -36.4897E+06     41.4169E+06     53.1726E+06     832.237E+03    -224.512E-03     449.337E-03    -224.826E-03     47.9791E-03    -224.947E-03     449.636E-03    -224.567E-03     45.6887E-03
            1590     9.34638E-03     68.3116E-03    -43.5332E+06     26.0770E+06     44.0870E+06    -68.0433E+03    -224.516E-03     449.365E-03    -224.848E-03     45.8018E-03    -224.925E-03     449.583E-03    -224.603E-03     44.0082E-03
            1591     8.62707E-03     68.2462E-03    -49.7261E+06    -330.663E+03     34.5146E+06    -388.178E+03    -224.563E-03     449.448E-03    -224.884E-03     43.2074E-03    -224.928E-03     449.534E-03    -224.639E-03     41.8786E-03
            1592     7.90787E-03     68.1844E-03    -55.9972E+06    -36.8982E+06     21.8194E+06     75.3377E+03    -224.647E-03     449.565E-03    -224.918E-03     40.4147E-03    -224.953E-03     449.477E-03    -224.674E-03     39.5025E-03
            1593     7.18872E-03     68.1262E-03    -63.0110E+06    -67.3791E+06     8.91209E+06     383.078E+03    -224.693E-03     449.633E-03    -224.940E-03     37.4879E-03    -224.957E-03     449.408E-03    -224.706E-03     36.9268E-03
            1594     6.46970E-03     68.0724E-03    -70.3983E+06    -93.4711E+06    -4.32254E+06     513.410E+03    -224.695E-03     449.649E-03    -224.954E-03     34.3580E-03    -224.927E-03     449.312E-03    -224.738E-03     34.0826E-03
            1595     5.75064E-03     68.0230E-03    -77.9664E+06    -116.984E+06    -18.3957E+06     597.797E+03    -224.700E-03     449.661E-03    -224.961E-03     31.0519E-03    -224.908E-03     449.231E-03    -224.771E-03     31.0018E-03
            1596     5.03164E-03     67.9785E-03    -85.4850E+06    -139.172E+06    -33.4747E+06     590.632E+03    -224.711E-03     449.672E-03    -224.961E-03     27.5677E-03    -224.897E-03     449.158E-03    -224.803E-03     27.6841E-03
            1597     4.31269E-03     67.9391E-03    -92.6971E+06    -160.770E+06    -49.4101E+06     390.394E+03    -224.725E-03     449.681E-03    -224.955E-03     23.9933E-03    -224.889E-03     449.088E-03    -224.835E-03     24.2173E-03
            1598     3.59382E-03     67.9050E-03    -99.6387E+06    -180.947E+06    -65.8640E+06     151.865E+03    -224.753E-03     449.696E-03    -224.943E-03     20.2652E-03    -224.896E-03     449.033E-03    -224.865E-03     20.5366E-03
            1599     2.87500E-03     67.8772E-03    -106.012E+06    -198.962E+06    -81.9624E+06     131.428E+03    -224.780E-03     449.706E-03    -224.925E-03     16.4066E-03    -224.904E-03     448.984E-03    -224.893E-03     16.6822E-03
            1600     2.15622E-03     67.8549E-03    -111.511E+06    -215.003E+06    -96.6806E+06     209.353E+03    -224.816E-03     449.723E-03    -224.907E-03     12.4399E-03    -224.922E-03     448.950E-03    -224.917E-03     12.6852E-03
            1601     1.43739E-03     67.8388E-03    -115.670E+06    -227.871E+06    -108.621E+06     78.7460E+03    -224.859E-03     449.744E-03    -224.885E-03     8.42014E-03    -224.949E-03     448.930E-03    -224.930E-03     8.60198E-03
            1602     718.738E-06     67.8286E-03    -118.219E+06    -236.240E+06    -116.315E+06    -75.8943E+03    -224.775E-03     449.730E-03    -224.955E-03     4.44434E-03    -224.854E-03     448.889E-03    -225.023E-03     4.53704E-03
            1603     13.6634E-03     67.2442E-03    -4.06761E+06     76.6237E+06     96.2571E+06     341.324E+03    -224.329E-03     449.169E-03    -224.840E-03     43.2940E-03    -224.773E-03     449.592E-03    -224.464E-03     39.4683E-03
            1604     12.9420E-03     67.1770E-03    -9.83501E+06     71.5697E+06     94.6765E+06    -184.678E+03    -224.389E-03     449.258E-03    -224.869E-03     49.6278E-03    -224.893E-03     449.707E-03    -224.486E-03     45.4228E-03
            1605     12.2231E-03     67.1068E-03    -17.8897E+06     63.2389E+06     86.9906E+06    -546.052E+03    -224.615E-03     449.491E-03    -224.875E-03     50.0951E-03    -225.112E-03     449.896E-03    -224.506E-03     46.3625E-03
            1606     11.5042E-03     67.0363E-03    -24.1867E+06     56.9819E+06     76.3576E+06     447.802E+03    -224.637E-03     449.496E-03    -224.859E-03     50.4689E-03    -225.123E-03     449.877E-03    -224.524E-03     47.1349E-03
            1607     10.7849E-03     66.9646E-03    -29.7123E+06     52.4213E+06     64.8920E+06     902.000E+03    -224.582E-03     449.422E-03    -224.840E-03     49.7343E-03    -225.045E-03     449.777E-03    -224.548E-03     46.9083E-03
            1608     10.0656E-03     66.8946E-03    -35.3025E+06     42.7028E+06     54.7098E+06     581.573E+03    -224.569E-03     449.409E-03    -224.841E-03     48.1416E-03    -225.002E-03     449.711E-03    -224.578E-03     45.8448E-03
            1609     9.34625E-03     66.8260E-03    -41.1327E+06     27.7747E+06     45.6994E+06     23.6316E+03    -224.563E-03     449.422E-03    -224.859E-03     45.8784E-03    -224.964E-03     449.643E-03    -224.611E-03     44.0858E-03
            1610     8.62704E-03     66.7608E-03    -48.4178E+06    -1.05535E+06     34.4077E+06    -233.496E+03    -224.591E-03     449.481E-03    -224.890E-03     43.2388E-03    -224.948E-03     449.562E-03    -224.646E-03     41.9139E-03
            1611     7.90785E-03     66.6989E-03    -56.4097E+06    -38.0531E+06     21.0161E+06     214.472E+03    -224.644E-03     449.567E-03    -224.923E-03     40.4733E-03    -224.949E-03     449.476E-03    -224.681E-03     39.5663E-03
            1612     7.18874E-03     66.6408E-03    -63.8971E+06    -67.4628E+06     8.24552E+06     530.906E+03    -224.653E-03     449.601E-03    -224.948E-03     37.5314E-03    -224.920E-03     449.377E-03    -224.716E-03     36.9757E-03
            1613     6.46957E-03     66.5869E-03    -71.1938E+06    -93.5918E+06    -4.80646E+06     534.880E+03    -224.662E-03     449.630E-03    -224.968E-03     34.4164E-03    -224.898E-03     449.295E-03    -224.753E-03     34.1490E-03
            1614     5.75052E-03     66.5375E-03    -78.5787E+06    -116.834E+06    -18.7325E+06     542.067E+03    -224.700E-03     449.679E-03    -224.979E-03     31.1292E-03    -224.911E-03     449.251E-03    -224.789E-03     31.0878E-03
            1615     5.03156E-03     66.4929E-03    -85.8204E+06    -138.680E+06    -33.6999E+06     319.114E+03    -224.742E-03     449.721E-03    -224.979E-03     27.6459E-03    -224.930E-03     449.209E-03    -224.822E-03     27.7631E-03
            1616     4.31267E-03     66.4536E-03    -92.9420E+06    -160.404E+06    -49.5890E+06     161.834E+03    -224.737E-03     449.710E-03    -224.973E-03     24.0235E-03    -224.902E-03     449.120E-03    -224.853E-03     24.2451E-03
            1617     3.59366E-03     66.4197E-03    -99.9544E+06    -180.788E+06    -66.1115E+06     159.149E+03    -224.737E-03     449.701E-03    -224.964E-03     20.2431E-03    -224.881E-03     449.040E-03    -224.888E-03     20.5176E-03
            1618     2.87477E-03     66.3915E-03    -106.406E+06    -198.981E+06    -82.2687E+06     110.003E+03    -224.804E-03     449.755E-03    -224.951E-03     16.3394E-03    -224.929E-03     449.034E-03    -224.919E-03     16.6159E-03
            1619     2.15605E-03     66.3693E-03    -111.862E+06    -214.948E+06    -97.0746E+06     81.4750E+03    -224.860E-03     449.788E-03    -224.928E-03     12.4282E-03    -224.967E-03     449.016E-03    -224.939E-03     12.6724E-03
            1620     1.43749E-03     66.3531E-03    -115.963E+06    -227.699E+06    -108.961E+06     15.6033E+03    -224.860E-03     449.769E-03    -224.909E-03     8.49032E-03    -224.952E-03     448.957E-03    -224.955E-03     8.67357E-03
            1621     718.689E-06     66.3433E-03    -118.647E+06    -236.315E+06    -116.828E+06    -22.6753E+03    -224.904E-03     449.789E-03    -224.885E-03     4.59049E-03    -224.985E-03     448.949E-03    -224.955E-03     4.69497E-03
            1622     13.6597E-03     65.7584E-03    -4.87381E+06     75.6098E+06     95.2551E+06    -451.673E+03    -224.329E-03     449.197E-03    -224.868E-03     43.4618E-03    -224.776E-03     449.618E-03    -224.494E-03     39.5962E-03
            1623     12.9429E-03     65.6903E-03    -10.4791E+06     70.9171E+06     94.3917E+06     1.26124E+06    -224.766E-03     449.656E-03    -224.890E-03     49.2487E-03    -225.272E-03     450.103E-03    -224.506E-03     45.0334E-03
            1624     12.2235E-03     65.6218E-03    -16.3555E+06     64.1446E+06     88.4106E+06     1.62699E+06    -224.557E-03     449.449E-03    -224.891E-03     49.9749E-03    -225.050E-03     449.854E-03    -224.518E-03     46.2707E-03
            1625     11.5038E-03     65.5502E-03    -23.5842E+06     57.0533E+06     76.5659E+06     13.4822E+03    -224.569E-03     449.445E-03    -224.876E-03     50.3928E-03    -225.052E-03     449.825E-03    -224.541E-03     47.0539E-03
            1626     10.7846E-03     65.4794E-03    -29.6117E+06     52.4567E+06     64.0671E+06    -651.271E+03    -224.633E-03     449.487E-03    -224.854E-03     49.6400E-03    -225.095E-03     449.844E-03    -224.567E-03     46.7895E-03
            1627     10.0653E-03     65.4087E-03    -35.3363E+06     42.6267E+06     53.6724E+06    -489.697E+03    -224.630E-03     449.481E-03    -224.851E-03     48.0672E-03    -225.062E-03     449.783E-03    -224.593E-03     45.7461E-03
            1628     9.34624E-03     65.3406E-03    -42.2923E+06     27.2117E+06     44.9256E+06     390.721E+03    -224.574E-03     449.445E-03    -224.871E-03     45.9028E-03    -224.979E-03     449.667E-03    -224.625E-03     44.1110E-03
            1629     8.62691E-03     65.2753E-03    -49.7486E+06    -1.33136E+06     34.0172E+06     1.21521E+06    -224.579E-03     449.484E-03    -224.905E-03     43.3424E-03    -224.942E-03     449.567E-03    -224.661E-03     42.0425E-03
            1630     7.90774E-03     65.2135E-03    -56.8640E+06    -37.9166E+06     21.0532E+06     897.442E+03    -224.627E-03     449.568E-03    -224.941E-03     40.5948E-03    -224.935E-03     449.478E-03    -224.698E-03     39.7033E-03
            1631     7.18853E-03     65.1554E-03    -63.9767E+06    -67.2416E+06     8.36046E+06     430.588E+03    -224.658E-03     449.626E-03    -224.968E-03     37.6474E-03    -224.925E-03     449.404E-03    -224.736E-03     37.0968E-03
            1632     6.46945E-03     65.1015E-03    -71.1336E+06    -93.3769E+06    -4.78885E+06     268.970E+03    -224.697E-03     449.685E-03    -224.988E-03     34.4647E-03    -224.933E-03     449.351E-03    -224.773E-03     34.2005E-03
            1633     5.75038E-03     65.0520E-03    -78.2658E+06    -116.552E+06    -18.6815E+06     77.4619E+03    -224.724E-03     449.722E-03    -224.998E-03     31.1214E-03    -224.934E-03     449.294E-03    -224.809E-03     31.0780E-03
            1634     5.03139E-03     65.0074E-03    -85.4558E+06    -138.390E+06    -33.5595E+06    -38.8255E+03    -224.754E-03     449.752E-03    -224.998E-03     27.6165E-03    -224.941E-03     449.242E-03    -224.842E-03     27.7292E-03
            1635     4.31246E-03     64.9680E-03    -92.7138E+06    -160.665E+06    -49.3185E+06    -2.70627E+03    -224.793E-03     449.784E-03    -224.991E-03     23.9421E-03    -224.956E-03     449.191E-03    -224.870E-03     24.1574E-03
            1636     3.59372E-03     64.9342E-03    -99.5948E+06    -180.883E+06    -65.6032E+06     151.575E+03    -224.801E-03     449.776E-03    -224.975E-03     20.1707E-03    -224.944E-03     449.113E-03    -224.896E-03     20.4437E-03
            1637     2.87494E-03     64.9058E-03    -105.947E+06    -198.741E+06    -81.8099E+06     149.653E+03    -224.807E-03     449.762E-03    -224.955E-03     16.3051E-03    -224.931E-03     449.041E-03    -224.922E-03     16.5842E-03
            1638     2.15615E-03     64.8837E-03    -111.513E+06    -214.837E+06    -96.6987E+06     37.8177E+03    -224.839E-03     449.775E-03    -224.936E-03     12.3506E-03    -224.945E-03     449.003E-03    -224.947E-03     12.5948E-03
            1639     1.43722E-03     64.8675E-03    -115.858E+06    -227.746E+06    -108.627E+06     49.3278E+03    -224.867E-03     449.790E-03    -224.924E-03     8.35123E-03    -224.958E-03     448.977E-03    -224.969E-03     8.53242E-03
            1640     718.579E-06     64.8576E-03    -118.679E+06    -236.351E+06    -116.656E+06     77.4879E+03    -224.875E-03     449.819E-03    -224.944E-03     4.59334E-03    -224.956E-03     448.979E-03    -225.013E-03     4.69997E-03
            1641     13.6626E-03     64.2705E-03    -5.59595E+06     74.8035E+06     94.1507E+06     114.321E+03    -224.151E-03     449.019E-03    -224.867E-03     43.3003E-03    -224.597E-03     449.437E-03    -224.497E-03     39.4612E-03
            1642     12.9419E-03     64.2048E-03    -11.7970E+06     69.6469E+06     93.4624E+06     483.428E+03    -224.510E-03     449.414E-03    -224.904E-03     49.2677E-03    -225.019E-03     449.858E-03    -224.521E-03     45.0495E-03
            1643     12.2228E-03     64.1358E-03    -16.3912E+06     64.9390E+06     89.3169E+06     534.202E+03    -224.685E-03     449.598E-03    -224.914E-03     50.1210E-03    -225.181E-03     450.008E-03    -224.537E-03     46.3885E-03
            1644     11.5038E-03     64.0651E-03    -21.3105E+06     59.3902E+06     78.2434E+06     581.114E+03    -224.660E-03     449.551E-03    -224.891E-03     50.3026E-03    -225.138E-03     449.937E-03    -224.555E-03     46.9630E-03
            1645     10.7845E-03     63.9933E-03    -28.4347E+06     52.5683E+06     64.4176E+06     178.732E+03    -224.606E-03     449.472E-03    -224.866E-03     49.5365E-03    -225.063E-03     449.828E-03    -224.579E-03     46.6950E-03
            1646     10.0654E-03     63.9233E-03    -36.1354E+06     41.2008E+06     53.0853E+06     657.989E+03    -224.560E-03     449.428E-03    -224.868E-03     48.0925E-03    -224.993E-03     449.725E-03    -224.610E-03     45.7949E-03
            1647     9.34590E-03     63.8551E-03    -43.4018E+06     26.1767E+06     44.2564E+06     1.12983E+06    -224.548E-03     449.441E-03    -224.893E-03     46.0067E-03    -224.956E-03     449.659E-03    -224.647E-03     44.2386E-03
            1648     8.62670E-03     63.7898E-03    -49.8467E+06    -1.02625E+06     34.5493E+06     708.621E+03    -224.587E-03     449.519E-03    -224.932E-03     43.4256E-03    -224.951E-03     449.602E-03    -224.686E-03     42.1238E-03
            1649     7.90744E-03     63.7280E-03    -56.2533E+06    -37.1334E+06     21.9005E+06     468.006E+03    -224.663E-03     449.631E-03    -224.969E-03     40.6076E-03    -224.969E-03     449.543E-03    -224.724E-03     39.7117E-03
            1650     7.18832E-03     63.6699E-03    -63.1429E+06    -66.6635E+06     9.00396E+06     285.427E+03    -224.734E-03     449.726E-03    -224.992E-03     37.6047E-03    -224.999E-03     449.504E-03    -224.759E-03     37.0531E-03
            1651     6.46929E-03     63.6158E-03    -70.3443E+06    -92.9669E+06    -4.27342E+06    -28.7198E+03    -224.783E-03     449.787E-03    -225.005E-03     34.3925E-03    -225.015E-03     449.453E-03    -224.789E-03     34.1204E-03
            1652     5.75036E-03     63.5664E-03    -77.6689E+06    -116.420E+06    -18.2672E+06    -158.864E+03    -224.781E-03     449.788E-03    -225.008E-03     31.0190E-03    -224.988E-03     449.360E-03    -224.818E-03     30.9658E-03
            1653     5.03141E-03     63.5217E-03    -85.1740E+06    -138.533E+06    -33.3657E+06    -152.680E+03    -224.767E-03     449.771E-03    -225.004E-03     27.5203E-03    -224.952E-03     449.259E-03    -224.847E-03     27.6288E-03
            1654     4.31254E-03     63.4823E-03    -92.4581E+06    -160.906E+06    -49.1838E+06    -112.550E+03    -224.798E-03     449.795E-03    -224.996E-03     23.8971E-03    -224.961E-03     449.201E-03    -224.875E-03     24.1114E-03
            1655     3.59368E-03     63.4484E-03    -99.3653E+06    -181.212E+06    -65.4897E+06    -12.8990E+03    -224.829E-03     449.806E-03    -224.977E-03     20.1588E-03    -224.970E-03     449.142E-03    -224.898E-03     20.4279E-03
            1656     2.87485E-03     63.4204E-03    -105.690E+06    -198.664E+06    -81.5898E+06     153.117E+03    -224.836E-03     449.787E-03    -224.951E-03     16.3297E-03    -224.959E-03     449.066E-03    -224.918E-03     16.6110E-03
            1657     2.15605E-03     63.3980E-03    -111.123E+06    -214.667E+06    -96.2309E+06     169.111E+03    -224.865E-03     449.788E-03    -224.923E-03     12.3252E-03    -224.970E-03     449.016E-03    -224.932E-03     12.5724E-03
            1658     1.43756E-03     63.3820E-03    -115.399E+06    -227.656E+06    -108.214E+06     97.1422E+03    -224.885E-03     449.776E-03    -224.890E-03     8.30676E-03    -224.975E-03     448.962E-03    -224.934E-03     8.48567E-03
            1659     718.823E-06     63.3719E-03    -118.312E+06    -236.372E+06    -116.327E+06     19.3559E+03    -224.818E-03     449.725E-03    -224.908E-03     4.50566E-03    -224.898E-03     448.884E-03    -224.975E-03     4.60068E-03
            1660     13.6610E-03     62.7882E-03    -5.84555E+06     74.5777E+06     94.3770E+06     577.641E+03    -224.105E-03     448.964E-03    -224.858E-03     43.6419E-03    -224.551E-03     449.380E-03    -224.486E-03     39.8603E-03
            1661     12.9418E-03     62.7184E-03    -10.7301E+06     70.5481E+06     94.2818E+06    -227.914E+03    -224.302E-03     449.204E-03    -224.901E-03     48.8734E-03    -224.807E-03     449.647E-03    -224.517E-03     44.6647E-03
            1662     12.2228E-03     62.6498E-03    -16.7434E+06     64.3905E+06     88.1428E+06     -893.97E+03    -224.488E-03     449.403E-03    -224.916E-03     49.5083E-03    -224.982E-03     449.811E-03    -224.544E-03     45.7399E-03
            1663     11.5036E-03     62.5789E-03    -22.9500E+06     58.1124E+06     76.6835E+06    -40.5887E+03    -224.543E-03     449.447E-03    -224.903E-03     50.3468E-03    -225.025E-03     449.831E-03    -224.571E-03     47.0058E-03
            1664     10.7845E-03     62.5080E-03    -28.5536E+06     52.3973E+06     64.8787E+06     1.13748E+06    -224.546E-03     449.438E-03    -224.892E-03     49.7929E-03    -225.003E-03     449.792E-03    -224.602E-03     46.9876E-03
            1665     10.0648E-03     62.4378E-03    -34.2825E+06     40.2025E+06     54.7211E+06     1.39644E+06    -224.595E-03     449.497E-03    -224.902E-03     48.2245E-03    -225.020E-03     449.784E-03    -224.637E-03     45.9553E-03
            1666     9.34571E-03     62.3695E-03    -40.2961E+06     26.7024E+06     46.4503E+06     1.26561E+06    -224.626E-03     449.550E-03    -224.924E-03     45.9416E-03    -225.022E-03     449.763E-03    -224.672E-03     44.1802E-03
            1667     8.62640E-03     62.3043E-03    -47.4183E+06     330.151E+03     36.0013E+06     868.668E+03    -224.664E-03     449.619E-03    -224.955E-03     43.2841E-03    -225.020E-03     449.703E-03    -224.707E-03     41.9795E-03
            1668     7.90732E-03     62.2424E-03    -54.9993E+06    -36.9267E+06     22.6745E+06     407.443E+03    -224.768E-03     449.753E-03    -224.985E-03     40.4493E-03    -225.070E-03     449.663E-03    -224.739E-03     39.5467E-03
            1669     7.18829E-03     62.1842E-03    -62.2951E+06    -66.2131E+06     9.73005E+06     275.749E+03    -224.815E-03     449.816E-03    -225.001E-03     37.4301E-03    -225.078E-03     449.594E-03    -224.766E-03     36.8701E-03
            1670     6.46932E-03     62.1301E-03    -69.5937E+06    -92.6853E+06    -3.69049E+06     163.900E+03    -224.807E-03     449.814E-03    -225.008E-03     34.2566E-03    -225.037E-03     449.480E-03    -224.791E-03     33.9778E-03
            1671     5.75036E-03     62.0806E-03    -77.1554E+06    -116.408E+06    -17.9243E+06     69.6232E+03    -224.794E-03     449.802E-03    -225.008E-03     30.9673E-03    -224.999E-03     449.372E-03    -224.817E-03     30.9105E-03
            1672     5.03146E-03     62.0362E-03    -84.5598E+06    -138.485E+06    -33.0293E+06    -18.5491E+03    -224.798E-03     449.800E-03    -225.001E-03     27.5243E-03    -224.981E-03     449.287E-03    -224.843E-03     27.6302E-03
            1673     4.31250E-03     61.9967E-03    -91.8719E+06    -160.997E+06    -48.9083E+06    -54.0013E+03    -224.812E-03     449.801E-03    -224.990E-03     23.8612E-03    -224.972E-03     449.205E-03    -224.867E-03     24.0721E-03
            1674     3.59365E-03     61.9628E-03    -99.0043E+06    -181.568E+06    -65.3148E+06     2.44916E+03    -224.838E-03     449.805E-03    -224.967E-03     20.0267E-03    -224.978E-03     449.138E-03    -224.887E-03     20.2892E-03
            1675     2.87492E-03     61.9347E-03    -105.425E+06    -198.853E+06    -81.4244E+06     76.6811E+03    -224.847E-03     449.781E-03    -224.935E-03     16.1884E-03    -224.969E-03     449.059E-03    -224.901E-03     16.4608E-03
            1676     2.15626E-03     61.9123E-03    -110.774E+06    -214.529E+06    -96.0704E+06     113.612E+03    -224.820E-03     449.727E-03    -224.907E-03     12.3178E-03    -224.923E-03     448.955E-03    -224.916E-03     12.5602E-03
            1677     1.43735E-03     61.8963E-03    -114.952E+06    -227.523E+06    -107.994E+06     20.8881E+03    -224.823E-03     449.722E-03    -224.898E-03     8.45191E-03    -224.912E-03     448.907E-03    -224.942E-03     8.63151E-03
            1678     718.658E-06     61.8865E-03    -117.495E+06    -236.322E+06    -115.647E+06     49.4197E+03    -224.986E-03     449.783E-03    -224.797E-03     4.64199E-03    -225.063E-03     448.940E-03    -224.862E-03     4.74068E-03
            1679     13.6621E-03     61.3009E-03    -4.30852E+06     75.3588E+06     95.4312E+06    -109.185E+03    -224.292E-03     449.131E-03    -224.839E-03     42.7772E-03    -224.735E-03     449.549E-03    -224.465E-03     38.9002E-03
            1680     12.9433E-03     61.2336E-03    -9.93631E+06     70.4045E+06     93.9703E+06    -178.049E+03    -224.019E-03     448.898E-03    -224.880E-03     49.1031E-03    -224.520E-03     449.342E-03    -224.497E-03     44.8883E-03
            1681     12.2231E-03     61.1647E-03    -16.5258E+06     63.7035E+06     87.0474E+06     525.156E+03    -224.078E-03     448.990E-03    -224.912E-03     50.0379E-03    -224.566E-03     449.394E-03    -224.545E-03     46.3562E-03
            1682     11.5032E-03     61.0936E-03    -23.2049E+06     57.2325E+06     75.6208E+06     191.143E+03    -224.362E-03     449.282E-03    -224.921E-03     50.4385E-03    -224.839E-03     449.661E-03    -224.592E-03     47.1509E-03
            1683     10.7836E-03     61.0224E-03    -29.2914E+06     51.1736E+06     64.0916E+06    -328.698E+03    -224.614E-03     449.531E-03    -224.917E-03     49.6196E-03    -225.071E-03     449.880E-03    -224.628E-03     46.8029E-03
            1684     10.0648E-03     60.9519E-03    -34.8362E+06     39.3575E+06     54.1548E+06     259.738E+03    -224.740E-03     449.660E-03    -224.921E-03     47.9632E-03    -225.165E-03     449.944E-03    -224.656E-03     45.6659E-03
            1685     9.34551E-03     60.8838E-03    -41.1662E+06     26.4709E+06     46.2228E+06     938.979E+03    -224.731E-03     449.666E-03    -224.935E-03     45.6765E-03    -225.131E-03     449.880E-03    -224.682E-03     43.8940E-03
            1686     8.62645E-03     60.8185E-03    -47.7435E+06     1.30091E+06     36.4377E+06     1.10085E+06    -224.755E-03     449.713E-03    -224.958E-03     43.0472E-03    -225.114E-03     449.802E-03    -224.709E-03     41.7335E-03
            1687     7.90736E-03     60.7565E-03    -54.6275E+06    -36.0123E+06     23.0893E+06     833.697E+03    -224.809E-03     449.790E-03    -224.981E-03     40.2691E-03    -225.111E-03     449.703E-03    -224.734E-03     39.3608E-03
            1688     7.18840E-03     60.6983E-03    -61.8737E+06    -66.0467E+06     9.96241E+06     503.422E+03    -224.804E-03     449.798E-03    -224.994E-03     37.3482E-03    -225.066E-03     449.577E-03    -224.759E-03     36.7796E-03
            1689     6.46941E-03     60.6445E-03    -69.2904E+06    -92.4095E+06    -3.53244E+06     442.396E+03    -224.791E-03     449.793E-03    -225.001E-03     34.2319E-03    -225.021E-03     449.459E-03    -224.785E-03     33.9489E-03
            1690     5.75036E-03     60.5951E-03    -76.6938E+06    -116.079E+06    -17.7021E+06     304.109E+03    -224.804E-03     449.805E-03    -225.001E-03     30.9181E-03    -225.008E-03     449.376E-03    -224.810E-03     30.8597E-03
            1691     5.03140E-03     60.5504E-03    -84.1155E+06    -138.342E+06    -32.6815E+06     178.896E+03    -224.828E-03     449.820E-03    -224.992E-03     27.4293E-03    -225.009E-03     449.306E-03    -224.833E-03     27.5318E-03
            1692     4.31267E-03     60.5110E-03    -91.5176E+06    -161.137E+06    -48.5062E+06     159.943E+03    -224.837E-03     449.811E-03    -224.974E-03     23.7979E-03    -224.995E-03     449.213E-03    -224.850E-03     24.0057E-03
            1693     3.59388E-03     60.4771E-03    -98.5451E+06    -181.644E+06    -64.7839E+06     154.022E+03    -224.826E-03     449.774E-03    -224.948E-03     20.0549E-03    -224.964E-03     449.105E-03    -224.865E-03     20.3164E-03
            1694     2.87508E-03     60.4490E-03    -104.893E+06    -198.824E+06    -80.8701E+06     90.9072E+03    -224.799E-03     449.717E-03    -224.919E-03     16.2400E-03    -224.919E-03     448.994E-03    -224.882E-03     16.5059E-03
            1695     2.15614E-03     60.4270E-03    -110.355E+06    -214.530E+06    -95.7016E+06    -6.39658E+03    -224.795E-03     449.692E-03    -224.897E-03     12.3145E-03    -224.898E-03     448.919E-03    -224.904E-03     12.5524E-03
            1696     1.43737E-03     60.4109E-03    -114.507E+06    -227.323E+06    -107.535E+06    -21.1096E+03    -224.826E-03     449.712E-03    -224.887E-03     8.28230E-03    -224.913E-03     448.897E-03    -224.929E-03     8.45908E-03
            1697     718.571E-06     60.4007E-03    -117.404E+06    -236.402E+06    -115.365E+06    -86.8151E+03    -224.971E-03     449.750E-03    -224.779E-03     4.56514E-03    -225.048E-03     448.906E-03    -224.843E-03     4.67298E-03
            1698     13.6630E-03     59.8170E-03    -4.04974E+06     74.8229E+06     94.3686E+06     246.914E+03    -223.967E-03     448.814E-03    -224.847E-03     44.0393E-03    -224.406E-03     449.230E-03    -224.478E-03     40.2389E-03
            1699     12.9417E-03     59.7493E-03    -10.6382E+06     69.2712E+06     92.5971E+06     971.488E+03    -224.079E-03     448.977E-03    -224.898E-03     50.1813E-03    -224.578E-03     449.416E-03    -224.520E-03     46.0703E-03
            1700     12.2223E-03     59.6796E-03    -16.8400E+06     64.0001E+06     87.4283E+06     69.3125E+03    -224.355E-03     449.285E-03    -224.930E-03     50.2081E-03    -224.846E-03     449.690E-03    -224.561E-03     46.5259E-03
            1701     11.5030E-03     59.6083E-03    -22.0829E+06     58.4370E+06     77.2014E+06    -62.0013E+03    -224.559E-03     449.485E-03    -224.926E-03     50.0496E-03    -225.036E-03     449.867E-03    -224.593E-03     46.7321E-03
            1702     10.7841E-03     59.5364E-03    -28.4236E+06     50.9113E+06     63.6694E+06     19.6200E+03    -224.657E-03     449.563E-03    -224.906E-03     49.1235E-03    -225.109E-03     449.910E-03    -224.621E-03     46.2887E-03
            1703     10.0647E-03     59.4661E-03    -35.4881E+06     38.0499E+06     52.6215E+06     184.478E+03    -224.722E-03     449.628E-03    -224.906E-03     47.5968E-03    -225.146E-03     449.909E-03    -224.646E-03     45.2836E-03
            1704     9.34571E-03     59.3979E-03    -41.9388E+06     26.0388E+06     45.2958E+06     338.175E+03    -224.745E-03     449.665E-03    -224.920E-03     45.4634E-03    -225.147E-03     449.880E-03    -224.671E-03     43.6617E-03
            1705     8.62660E-03     59.3326E-03    -48.6050E+06     1.27283E+06     35.5216E+06     454.358E+03    -224.748E-03     449.690E-03    -224.942E-03     42.9575E-03    -225.111E-03     449.781E-03    -224.695E-03     41.6268E-03
            1706     7.90759E-03     59.2707E-03    -55.4034E+06    -35.5919E+06     22.5780E+06     568.673E+03    -224.750E-03     449.717E-03    -224.967E-03     40.2611E-03    -225.056E-03     449.634E-03    -224.722E-03     39.3409E-03
            1707     7.18843E-03     59.2127E-03    -62.3499E+06    -65.6596E+06     9.76349E+06     562.765E+03    -224.755E-03     449.740E-03    -224.985E-03     37.3705E-03    -225.020E-03     449.522E-03    -224.750E-03     36.7981E-03
            1708     6.46935E-03     59.1588E-03    -69.5448E+06    -92.1025E+06    -3.46752E+06     383.287E+03    -224.810E-03     449.804E-03    -224.994E-03     34.2206E-03    -225.042E-03     449.472E-03    -224.777E-03     33.9348E-03
            1709     5.75049E-03     59.1094E-03    -76.8333E+06    -115.740E+06    -17.4458E+06     269.319E+03    -224.836E-03     449.826E-03    -224.990E-03     30.8885E-03    -225.042E-03     449.399E-03    -224.798E-03     30.8262E-03
            1710     5.03167E-03     59.0647E-03    -84.2062E+06    -138.317E+06    -32.5140E+06     217.001E+03    -224.811E-03     449.788E-03    -224.977E-03     27.4331E-03    -224.993E-03     449.274E-03    -224.817E-03     27.5334E-03
            1711     4.31268E-03     59.0254E-03    -91.4215E+06    -161.120E+06    -48.2157E+06     184.953E+03    -224.790E-03     449.752E-03    -224.963E-03     23.8512E-03    -224.948E-03     449.154E-03    -224.837E-03     24.0580E-03
            1712     3.59380E-03     58.9915E-03    -98.3117E+06    -181.486E+06    -64.4368E+06     153.592E+03    -224.784E-03     449.727E-03    -224.943E-03     20.1138E-03    -224.921E-03     449.058E-03    -224.859E-03     20.3735E-03
            1713     2.87491E-03     58.9636E-03    -104.736E+06    -198.687E+06    -80.6545E+06     86.2064E+03    -224.796E-03     449.713E-03    -224.917E-03     16.2290E-03    -224.916E-03     448.989E-03    -224.880E-03     16.4935E-03
            1714     2.15623E-03     58.9414E-03    -110.301E+06    -214.469E+06    -95.4408E+06     29.7293E+03    -224.839E-03     449.726E-03    -224.887E-03     12.3296E-03    -224.942E-03     448.952E-03    -224.893E-03     12.5660E-03
            1715     1.43761E-03     58.9253E-03    -114.599E+06    -227.358E+06    -107.407E+06     44.1494E+03    -224.869E-03     449.714E-03    -224.845E-03     8.37135E-03    -224.956E-03     448.899E-03    -224.887E-03     8.55244E-03
            1716     718.978E-06     58.9156E-03    -117.306E+06    -236.424E+06    -115.375E+06    -10.0829E+03    -224.848E-03     449.625E-03    -224.777E-03     4.60231E-03    -224.924E-03     448.780E-03    -224.841E-03     4.71199E-03
            1717     13.6592E-03     58.3314E-03    -5.69013E+06     73.7109E+06     92.7449E+06     162.399E+03    -224.221E-03     449.105E-03    -224.884E-03     43.5720E-03    -224.662E-03     449.519E-03    -224.519E-03     39.7823E-03
            1718     12.9418E-03     58.2633E-03    -10.3319E+06     70.4321E+06     93.8719E+06    -260.304E+03    -224.744E-03     449.663E-03    -224.918E-03     48.9655E-03    -225.247E-03     450.106E-03    -224.536E-03     44.7475E-03
            1719     12.2228E-03     58.1939E-03    -15.5754E+06     65.4028E+06     88.6217E+06    -88.7953E+03    -224.677E-03     449.595E-03    -224.917E-03     49.3910E-03    -225.168E-03     450.005E-03    -224.546E-03     45.6360E-03
            1720     11.5039E-03     58.1222E-03    -22.6316E+06     57.8152E+06     75.9850E+06    -143.014E+03    -224.608E-03     449.502E-03    -224.894E-03     49.8337E-03    -225.086E-03     449.884E-03    -224.565E-03     46.4769E-03
            1721     10.7844E-03     58.0511E-03    -29.1081E+06     50.2658E+06     62.7536E+06     553.520E+03    -224.608E-03     449.481E-03    -224.874E-03     49.1609E-03    -225.061E-03     449.828E-03    -224.591E-03     46.3249E-03
            1722     10.0652E-03     57.9804E-03    -35.0875E+06     38.5195E+06     52.7125E+06     596.620E+03    -224.635E-03     449.513E-03    -224.878E-03     47.6235E-03    -225.058E-03     449.795E-03    -224.619E-03     45.3185E-03
            1723     9.34593E-03     57.9121E-03    -41.7936E+06     25.9895E+06     45.0428E+06     266.245E+03    -224.632E-03     449.530E-03    -224.898E-03     45.4813E-03    -225.033E-03     449.744E-03    -224.649E-03     43.6803E-03
            1724     8.62676E-03     57.8468E-03    -48.6844E+06     1.25224E+06     35.3144E+06     163.396E+03    -224.638E-03     449.565E-03    -224.927E-03     42.9966E-03    -225.001E-03     449.657E-03    -224.682E-03     41.6635E-03
            1725     7.90751E-03     57.7852E-03    -55.5815E+06    -35.6190E+06     22.6552E+06     42.0112E+03    -224.701E-03     449.660E-03    -224.959E-03     40.2992E-03    -225.008E-03     449.578E-03    -224.714E-03     39.3727E-03
            1726     7.18846E-03     57.7271E-03    -62.5335E+06    -65.5984E+06     9.95740E+06     40.3673E+03    -224.771E-03     449.750E-03    -224.979E-03     37.4010E-03    -225.037E-03     449.532E-03    -224.743E-03     36.8234E-03
            1727     6.46954E-03     57.6730E-03    -69.5545E+06    -91.8666E+06    -3.21563E+06     69.7571E+03    -224.807E-03     449.793E-03    -224.986E-03     34.2639E-03    -225.039E-03     449.462E-03    -224.768E-03     33.9731E-03
            1728     5.75056E-03     57.6236E-03     -76.774E+06    -115.770E+06    -17.2840E+06     49.9054E+03    -224.803E-03     449.787E-03    -224.983E-03     30.9703E-03    -225.009E-03     449.359E-03    -224.791E-03     30.9014E-03
            1729     5.03155E-03     57.5792E-03    -84.1211E+06    -138.317E+06    -32.4199E+06     118.195E+03    -224.781E-03     449.755E-03    -224.974E-03     27.5102E-03    -224.963E-03     449.242E-03    -224.813E-03     27.6068E-03
            1730     4.31271E-03     57.5399E-03    -91.4214E+06    -161.077E+06    -48.3179E+06     162.502E+03    -224.760E-03     449.724E-03    -224.963E-03     23.8891E-03    -224.919E-03     449.126E-03    -224.839E-03     24.0941E-03
            1731     3.59382E-03     57.5061E-03    -98.3878E+06    -181.403E+06    -64.5748E+06     110.470E+03    -224.775E-03     449.723E-03    -224.948E-03     20.1352E-03    -224.913E-03     449.055E-03    -224.865E-03     20.3925E-03
            1732     2.87507E-03     57.4780E-03    -104.818E+06    -198.670E+06    -80.6546E+06     113.624E+03    -224.814E-03     449.736E-03    -224.922E-03     16.2696E-03    -224.934E-03     449.013E-03    -224.885E-03     16.5370E-03
            1733     2.15624E-03     57.4559E-03    -110.319E+06    -214.359E+06    -95.5386E+06     166.261E+03    -224.817E-03     449.712E-03    -224.895E-03     12.3917E-03    -224.919E-03     448.939E-03    -224.902E-03     12.6312E-03
            1734     1.43734E-03     57.4398E-03    -114.538E+06    -227.413E+06    -107.691E+06     30.9936E+03    -224.826E-03     449.703E-03    -224.878E-03     8.47437E-03    -224.912E-03     448.888E-03    -224.920E-03     8.65537E-03
            1735     718.565E-06     57.4300E-03    -117.153E+06    -236.480E+06    -115.346E+06    -5.26549E+03    -224.946E-03     449.732E-03    -224.786E-03     4.59967E-03    -225.021E-03     448.887E-03    -224.850E-03     4.69553E-03
            1736     13.6627E-03     56.8449E-03    -5.03215E+06     75.0226E+06     94.2552E+06     148.125E+03    -224.743E-03     449.613E-03    -224.870E-03     42.5109E-03    -225.185E-03     450.030E-03    -224.500E-03     38.6710E-03
            1737     12.9426E-03     56.7768E-03    -9.55267E+06     70.5033E+06     93.9421E+06    -1.14541E+06    -224.594E-03     449.481E-03    -224.887E-03     48.7633E-03    -225.094E-03     449.924E-03    -224.505E-03     44.5035E-03
            1738     12.2236E-03     56.7080E-03    -16.2377E+06     63.2307E+06     87.0072E+06     162.843E+03    -224.566E-03     449.454E-03    -224.889E-03     49.7711E-03    -225.054E-03     449.857E-03    -224.522E-03     46.0334E-03
            1739     11.5038E-03     56.6371E-03    -22.3675E+06     57.5759E+06     75.9697E+06     1.25148E+06    -224.564E-03     449.438E-03    -224.874E-03     50.2003E-03    -225.040E-03     449.818E-03    -224.545E-03     46.8868E-03
            1740     10.7847E-03     56.5653E-03    -28.8708E+06     50.5909E+06     63.3054E+06     495.757E+03    -224.589E-03     449.446E-03    -224.857E-03     49.4248E-03    -225.043E-03     449.793E-03    -224.572E-03     46.6038E-03
            1741     10.0654E-03     56.4949E-03    -35.0807E+06     38.5622E+06     53.0516E+06     258.547E+03    -224.580E-03     449.443E-03    -224.863E-03     47.8800E-03    -225.004E-03     449.725E-03    -224.603E-03     45.5763E-03
            1742     9.34611E-03     56.4266E-03    -41.2892E+06     26.5270E+06     45.8072E+06     355.792E+03    -224.536E-03     449.424E-03    -224.888E-03     45.7200E-03    -224.936E-03     449.640E-03    -224.638E-03     43.9271E-03
            1743     8.62675E-03     56.3614E-03    -47.9962E+06     1.76691E+06     36.1528E+06    -81.7798E+03    -224.589E-03     449.513E-03    -224.924E-03     43.1222E-03    -224.951E-03     449.606E-03    -224.676E-03     41.7893E-03
            1744     7.90762E-03     56.2996E-03    -54.8791E+06    -35.5933E+06     23.0773E+06    -298.591E+03    -224.710E-03     449.667E-03    -224.956E-03     40.3576E-03    -225.014E-03     449.583E-03    -224.710E-03     39.4312E-03
            1745     7.18855E-03     56.2414E-03    -61.9248E+06    -65.8080E+06     10.0409E+06    -259.981E+03    -224.755E-03     449.730E-03    -224.975E-03     37.4695E-03    -225.018E-03     449.510E-03    -224.740E-03     36.8898E-03
            1746     6.46949E-03     56.1874E-03    -69.1847E+06    -92.1872E+06    -3.40003E+06    -143.493E+03    -224.748E-03     449.734E-03    -224.986E-03     34.3824E-03    -224.978E-03     449.401E-03    -224.769E-03     34.0860E-03
            1747     5.75046E-03     56.1380E-03    -76.5634E+06    -116.018E+06    -17.5255E+06     81.5104E+03    -224.748E-03     449.739E-03    -224.991E-03     31.0845E-03    -224.952E-03     449.310E-03    -224.799E-03     31.0150E-03
            1748     5.03159E-03     56.0935E-03    -84.0453E+06    -138.513E+06    -32.5580E+06     243.727E+03    -224.763E-03     449.753E-03    -224.989E-03     27.6035E-03    -224.945E-03     449.238E-03    -224.829E-03     27.7014E-03
            1749     4.31262E-03     56.0544E-03    -91.4758E+06    -160.994E+06    -48.4240E+06     294.043E+03    -224.779E-03     449.760E-03    -224.981E-03     23.9836E-03    -224.938E-03     449.163E-03    -224.857E-03     24.1889E-03
            1750     3.59376E-03     56.0205E-03    -98.5957E+06    -181.309E+06    -64.7854E+06     266.401E+03    -224.777E-03     449.744E-03    -224.967E-03     20.2499E-03    -224.916E-03     449.077E-03    -224.885E-03     20.5123E-03
            1751     2.87486E-03     55.9924E-03    -105.049E+06    -198.614E+06    -80.9951E+06     184.958E+03    -224.799E-03     449.749E-03    -224.949E-03     16.4066E-03    -224.920E-03     449.026E-03    -224.914E-03     16.6772E-03
            1752     2.15613E-03     55.9704E-03    -110.517E+06    -214.257E+06    -95.8641E+06     100.308E+03    -224.845E-03     449.774E-03    -224.929E-03     12.4227E-03    -224.948E-03     449.002E-03    -224.937E-03     12.6572E-03
            1753     1.43745E-03     55.9545E-03    -114.770E+06    -227.298E+06    -107.753E+06     177.966E+03    -224.863E-03     449.776E-03    -224.913E-03     8.41008E-03    -224.951E-03     448.962E-03    -224.955E-03     8.58774E-03
            1754     718.723E-06     55.9442E-03    -117.680E+06    -236.295E+06    -115.721E+06     230.708E+03    -224.911E-03     449.796E-03    -224.885E-03     4.53057E-03    -224.989E-03     448.953E-03    -224.950E-03     4.62935E-03
            1755     13.6615E-03     55.3593E-03    -4.88597E+06     74.9940E+06     94.0733E+06    -383.620E+03    -224.357E-03     449.205E-03    -224.848E-03     43.3647E-03    -224.799E-03     449.623E-03    -224.479E-03     39.5357E-03
            1756     12.9426E-03     55.2918E-03    -10.6125E+06     69.1999E+06     92.5277E+06     636.212E+03    -224.426E-03     449.303E-03    -224.877E-03     49.6182E-03    -224.926E-03     449.743E-03    -224.500E-03     45.4563E-03
            1757     12.2227E-03     55.2224E-03    -17.1331E+06     62.2639E+06     86.8267E+06     455.628E+03    -224.550E-03     449.441E-03    -224.891E-03     49.9419E-03    -225.041E-03     449.841E-03    -224.522E-03     46.2243E-03
            1758     11.5040E-03     55.1512E-03    -22.8361E+06     57.1835E+06     77.6632E+06     182.477E+03    -224.613E-03     449.495E-03    -224.883E-03     50.2688E-03    -225.093E-03     449.872E-03    -224.544E-03     46.9390E-03
            1759     10.7846E-03     55.0799E-03    -28.1452E+06     51.2964E+06     65.6617E+06     727.370E+03    -224.576E-03     449.441E-03    -224.865E-03     49.5459E-03    -225.030E-03     449.787E-03    -224.570E-03     46.7269E-03
            1760     10.0653E-03     55.0094E-03    -34.3805E+06     39.0043E+06     54.3747E+06     282.914E+03    -224.540E-03     449.408E-03    -224.868E-03     48.0027E-03    -224.963E-03     449.690E-03    -224.603E-03     45.6998E-03
            1761     9.34596E-03     54.9412E-03    -40.8351E+06     27.0786E+06     46.4322E+06    -350.252E+03    -224.533E-03     449.426E-03    -224.893E-03     45.8486E-03    -224.933E-03     449.643E-03    -224.641E-03     44.0449E-03
            1762     8.62673E-03     54.8758E-03    -47.4084E+06     2.12974E+06     36.3545E+06    -359.016E+03    -224.590E-03     449.516E-03    -224.927E-03     43.2752E-03    -224.949E-03     449.610E-03    -224.679E-03     41.9376E-03
            1763     7.90760E-03     54.8139E-03    -54.5225E+06    -35.9967E+06     22.7110E+06    -172.609E+03    -224.679E-03     449.640E-03    -224.961E-03     40.5420E-03    -224.981E-03     449.554E-03    -224.716E-03     39.6172E-03
            1764     7.18850E-03     54.7558E-03    -61.8821E+06    -66.2438E+06     9.52724E+06     83.3536E+03    -224.694E-03     449.679E-03    -224.985E-03     37.6518E-03    -224.955E-03     449.457E-03    -224.751E-03     37.0759E-03
            1765     6.46939E-03     54.7019E-03    -69.4432E+06    -92.5756E+06    -3.91489E+06     299.726E+03    -224.698E-03     449.702E-03    -225.004E-03     34.5497E-03    -224.928E-03     449.368E-03    -224.789E-03     34.2615E-03
            1766     5.75037E-03     54.6524E-03    -77.1252E+06    -116.324E+06    -18.1087E+06     413.772E+03    -224.716E-03     449.733E-03    -225.018E-03     31.2467E-03    -224.921E-03     449.304E-03    -224.828E-03     31.1843E-03
            1767     5.03128E-03     54.6080E-03    -84.7234E+06    -138.628E+06    -33.2174E+06     490.536E+03    -224.747E-03     449.770E-03    -225.023E-03     27.7554E-03    -224.930E-03     449.256E-03    -224.865E-03     27.8599E-03
            1768     4.31244E-03     54.5686E-03    -92.0499E+06    -160.818E+06    -48.9635E+06     450.623E+03    -224.785E-03     449.807E-03    -225.022E-03     24.1181E-03    -224.946E-03     449.213E-03    -224.900E-03     24.3283E-03
            1769     3.59360E-03     54.5350E-03    -99.0846E+06    -181.118E+06    -65.2881E+06     403.679E+03    -224.819E-03     449.831E-03    -225.012E-03     20.3525E-03    -224.960E-03     449.166E-03    -224.932E-03     20.6156E-03
            1770     2.87479E-03     54.5069E-03    -105.569E+06    -198.280E+06    -81.5393E+06     275.541E+03    -224.839E-03     449.834E-03    -224.994E-03     16.4454E-03    -224.963E-03     449.115E-03    -224.961E-03     16.7161E-03
            1771     2.15600E-03     54.4846E-03    -111.099E+06    -214.231E+06    -96.1684E+06     163.799E+03    -224.879E-03     449.858E-03    -224.978E-03     12.4696E-03    -224.985E-03     449.088E-03    -224.988E-03     12.7070E-03
            1772     1.43734E-03     54.4687E-03    -115.456E+06    -227.269E+06    -108.041E+06     243.240E+03    -224.929E-03     449.889E-03    -224.960E-03     8.52654E-03    -225.020E-03     449.077E-03    -225.004E-03     8.70805E-03
            1773     718.698E-06     54.4588E-03    -117.903E+06    -235.554E+06    -115.973E+06     136.730E+03    -224.917E-03     449.879E-03    -224.962E-03     4.62649E-03    -224.997E-03     449.040E-03    -225.029E-03     4.72214E-03
            1774     13.6615E-03     53.8741E-03    -5.46799E+06     73.8653E+06     92.8774E+06     125.233E+03    -224.241E-03     449.090E-03    -224.849E-03     43.1599E-03    -224.681E-03     449.504E-03    -224.484E-03     39.3468E-03
            1775     12.9420E-03     53.8055E-03    -11.8427E+06     68.7073E+06     92.4718E+06     200.774E+03    -224.537E-03     449.421E-03    -224.884E-03     49.0388E-03    -225.042E-03     449.859E-03    -224.504E-03     44.8411E-03
            1776     12.2236E-03     53.7368E-03    -16.3193E+06     63.5239E+06     88.3340E+06     208.555E+03    -224.545E-03     449.441E-03    -224.896E-03     49.7279E-03    -225.037E-03     449.844E-03    -224.523E-03     45.9836E-03
            1777     11.5038E-03     53.6656E-03    -22.6040E+06     57.0042E+06     77.2985E+06    -174.924E+03    -224.533E-03     449.417E-03    -224.884E-03     50.2307E-03    -225.012E-03     449.794E-03    -224.547E-03     46.8866E-03
            1778     10.7846E-03     53.5943E-03    -29.2524E+06     50.2684E+06     65.4344E+06    -115.901E+03    -224.528E-03     449.402E-03    -224.874E-03     49.5691E-03    -224.987E-03     449.746E-03    -224.577E-03     46.7249E-03
            1779     10.0652E-03     53.5241E-03    -35.2319E+06     40.7039E+06     55.0759E+06    -73.9769E+03    -224.529E-03     449.409E-03    -224.880E-03     48.0712E-03    -224.960E-03     449.700E-03    -224.612E-03     45.7577E-03
            1780     9.34597E-03     53.4556E-03     -41.558E+06     27.8920E+06     45.8362E+06    -790.611E+03    -224.513E-03     449.413E-03    -224.900E-03     45.9685E-03    -224.917E-03     449.636E-03    -224.651E-03     44.1562E-03
            1781     8.62667E-03     53.3903E-03    -48.4056E+06     409.629E+03     35.0252E+06    -557.245E+03    -224.533E-03     449.472E-03    -224.939E-03     43.4678E-03    -224.893E-03     449.560E-03    -224.695E-03     42.1264E-03
            1782     7.90739E-03     53.3283E-03    -55.5637E+06    -36.7456E+06     21.8254E+06     355.636E+03    -224.587E-03     449.570E-03    -224.983E-03     40.7311E-03    -224.892E-03     449.483E-03    -224.740E-03     39.8095E-03
            1783     7.18818E-03     53.2703E-03    -63.0564E+06    -66.6307E+06     8.71607E+06     713.243E+03    -224.640E-03     449.657E-03    -225.017E-03     37.8424E-03    -224.905E-03     449.437E-03    -224.785E-03     37.2746E-03
            1784     6.46910E-03     53.2163E-03    -70.5777E+06    -92.5159E+06    -4.66976E+06     738.510E+03    -224.684E-03     449.728E-03    -225.044E-03     34.7240E-03    -224.919E-03     449.397E-03    -224.830E-03     34.4442E-03
            1785     5.75000E-03     53.1670E-03    -78.0225E+06    -116.360E+06    -18.7244E+06     632.276E+03    -224.719E-03     449.783E-03    -225.063E-03     31.3979E-03    -224.928E-03     449.356E-03    -224.875E-03     31.3399E-03
            1786     5.03112E-03     53.1222E-03    -85.3745E+06    -138.302E+06    -33.7121E+06     510.494E+03    -224.752E-03     449.827E-03    -225.074E-03     27.8686E-03    -224.938E-03     449.317E-03    -224.919E-03     27.9724E-03
            1787     4.31213E-03     53.0831E-03    -92.6305E+06    -160.644E+06    -49.5084E+06     424.133E+03    -224.794E-03     449.875E-03    -225.081E-03     24.2086E-03    -224.957E-03     449.283E-03    -224.962E-03     24.4203E-03
            1788     3.59328E-03     53.0491E-03    -99.5090E+06    -180.939E+06    -65.6979E+06     349.520E+03    -224.857E-03     449.935E-03    -225.079E-03     20.4693E-03    -224.999E-03     449.273E-03    -225.001E-03     20.7339E-03
            1789     2.87463E-03     53.0210E-03    -105.781E+06    -197.828E+06    -81.6833E+06     267.300E+03    -224.902E-03     449.969E-03    -225.066E-03     16.6029E-03    -225.027E-03     449.252E-03    -225.034E-03     16.8740E-03
            1790     2.15591E-03     52.9990E-03    -111.166E+06    -214.143E+06    -96.2706E+06     213.917E+03    -224.938E-03     449.994E-03    -225.056E-03     12.6178E-03    -225.044E-03     449.224E-03    -225.066E-03     12.8602E-03
            1791     1.43715E-03     52.9827E-03    -115.303E+06    -226.957E+06    -108.301E+06     48.2737E+03    -224.985E-03     450.033E-03    -225.048E-03     8.54755E-03    -225.075E-03     449.223E-03    -225.094E-03     8.72601E-03
            1792     718.520E-06     52.9729E-03    -117.991E+06    -235.365E+06    -116.308E+06    -207.245E+03    -225.127E-03     450.075E-03    -224.947E-03     4.59702E-03    -225.207E-03     449.238E-03    -225.016E-03     4.68863E-03
            1793     13.6620E-03     52.3879E-03    -4.82948E+06     74.8504E+06     95.2691E+06     916.778E+03    -224.568E-03     449.424E-03    -224.855E-03     43.1154E-03    -225.011E-03     449.838E-03    -224.480E-03     39.2958E-03
            1794     12.9431E-03     52.3203E-03    -10.0016E+06     69.9388E+06     94.3003E+06     460.468E+03    -224.418E-03     449.298E-03    -224.880E-03     49.1756E-03    -224.919E-03     449.738E-03    -224.495E-03     44.9782E-03
            1795     12.2228E-03     52.2511E-03    -16.7853E+06     62.3528E+06     87.3492E+06    -580.276E+03    -224.401E-03     449.293E-03    -224.892E-03     49.8657E-03    -224.892E-03     449.692E-03    -224.521E-03     46.1132E-03
            1796     11.5039E-03     52.1802E-03    -22.7458E+06     56.7459E+06     76.3470E+06    -55.2967E+03    -224.436E-03     449.322E-03    -224.886E-03     50.3059E-03    -224.914E-03     449.700E-03    -224.554E-03     46.9581E-03
            1797     10.7844E-03     52.1089E-03    -28.9930E+06     50.3007E+06     63.5861E+06     53.9990E+03    -224.465E-03     449.342E-03    -224.877E-03     49.6750E-03    -224.920E-03     449.689E-03    -224.590E-03     46.8345E-03
            1798     10.0651E-03     52.0384E-03    -35.7094E+06     41.7905E+06     53.4046E+06    -396.915E+03    -224.469E-03     449.358E-03    -224.889E-03     48.2373E-03    -224.902E-03     449.658E-03    -224.631E-03     45.9163E-03
            1799     9.34570E-03     51.9704E-03    -42.6059E+06     27.9554E+06     44.5783E+06    -371.657E+03    -224.439E-03     449.360E-03    -224.921E-03     46.1964E-03    -224.847E-03     449.587E-03    -224.677E-03     44.3912E-03
            1800     8.62634E-03     51.9048E-03    -49.9540E+06    -1.69981E+06     33.4205E+06     126.190E+03    -224.466E-03     449.436E-03    -224.970E-03     43.6989E-03    -224.829E-03     449.519E-03    -224.728E-03     42.3674E-03
            1801     7.90707E-03     51.8431E-03    -57.3079E+06    -37.6101E+06     20.7760E+06     577.051E+03    -224.545E-03     449.568E-03    -225.023E-03     40.9370E-03    -224.856E-03     449.482E-03    -224.782E-03     40.0165E-03
            1802     7.18785E-03     51.7847E-03    -64.2940E+06    -66.4836E+06     8.24877E+06     646.735E+03    -224.620E-03     449.685E-03    -225.066E-03     38.0021E-03    -224.891E-03     449.468E-03    -224.835E-03     37.4311E-03
            1803     6.46869E-03     51.7308E-03    -71.1831E+06    -92.1750E+06    -4.85153E+06     488.766E+03    -224.689E-03     449.788E-03    -225.099E-03     34.8446E-03    -224.928E-03     449.461E-03    -224.886E-03     34.5572E-03
            1804     5.74974E-03     51.6811E-03    -78.3574E+06    -116.036E+06    -18.8684E+06     356.942E+03    -224.735E-03     449.859E-03    -225.124E-03     31.5213E-03    -224.946E-03     449.434E-03    -224.936E-03     31.4576E-03
            1805     5.03069E-03     51.6366E-03    -85.6637E+06    -138.143E+06    -33.8026E+06     233.025E+03    -224.772E-03     449.914E-03    -225.142E-03     28.0173E-03    -224.960E-03     449.405E-03    -224.987E-03     28.1156E-03
            1806     4.31186E-03     51.5971E-03    -92.7716E+06    -160.459E+06    -49.4383E+06     203.414E+03    -224.836E-03     449.992E-03    -225.156E-03     24.3550E-03    -225.001E-03     449.401E-03    -225.036E-03     24.5610E-03
            1807     3.59308E-03     51.5632E-03    -99.6958E+06    -180.702E+06    -65.7969E+06     132.083E+03    -224.888E-03     450.048E-03    -225.160E-03     20.5523E-03    -225.032E-03     449.387E-03    -225.083E-03     20.8126E-03
            1808     2.87417E-03     51.5350E-03    -105.930E+06    -197.673E+06    -81.9449E+06     27.5593E+03    -224.950E-03     450.108E-03    -225.158E-03     16.6373E-03    -225.075E-03     449.393E-03    -225.127E-03     16.9019E-03
            1809     2.15556E-03     51.5128E-03    -111.283E+06    -213.985E+06    -96.5996E+06    -17.6069E+03    -225.043E-03     450.194E-03    -225.152E-03     12.6568E-03    -225.149E-03     449.426E-03    -225.163E-03     12.8922E-03
            1810     1.43712E-03     51.4967E-03    -115.428E+06    -226.766E+06    -108.443E+06    -7.18785E+03    -225.107E-03     450.242E-03    -225.135E-03     8.58544E-03    -225.198E-03     449.433E-03    -225.181E-03     8.76241E-03
            1811     718.573E-06     51.4866E-03    -118.320E+06    -235.660E+06    -116.243E+06     48.6124E+03    -225.132E-03     450.233E-03    -225.101E-03     4.66007E-03    -225.213E-03     449.395E-03    -225.169E-03     4.76703E-03
            1812     13.6617E-03     50.9022E-03    -5.42552E+06     73.7551E+06     94.5821E+06    -551.158E+03    -224.348E-03     449.204E-03    -224.856E-03     43.1164E-03    -224.793E-03     449.617E-03    -224.482E-03     39.2418E-03
            1813     12.9420E-03     50.8347E-03    -10.0432E+06     69.6635E+06     94.5772E+06     445.442E+03    -224.396E-03     449.286E-03    -224.890E-03     49.3842E-03    -224.899E-03     449.726E-03    -224.503E-03     45.1700E-03
            1814     12.2235E-03     50.7658E-03    -15.6002E+06     63.3669E+06     88.7227E+06     1.05354E+06    -224.345E-03     449.252E-03    -224.907E-03     50.0099E-03    -224.834E-03     449.654E-03    -224.533E-03     46.2802E-03
            1815     11.5035E-03     50.6949E-03    -22.7676E+06     56.4300E+06     76.2641E+06     216.241E+03    -224.358E-03     449.261E-03    -224.903E-03     50.4685E-03    -224.837E-03     449.638E-03    -224.571E-03     47.1261E-03
            1816     10.7843E-03     50.6235E-03    -29.0307E+06     50.1919E+06     63.1620E+06     361.877E+03    -224.373E-03     449.273E-03    -224.899E-03     49.8749E-03    -224.828E-03     449.619E-03    -224.614E-03     47.0445E-03
            1817     10.0647E-03     50.5532E-03    -35.5276E+06     41.9274E+06     52.8015E+06     881.351E+03    -224.366E-03     449.285E-03    -224.919E-03     48.4412E-03    -224.798E-03     449.586E-03    -224.664E-03     46.1412E-03
            1818     9.34530E-03     50.4848E-03    -42.9284E+06     27.7618E+06     44.2225E+06     971.368E+03    -224.376E-03     449.339E-03    -224.963E-03     46.3700E-03    -224.786E-03     449.567E-03    -224.720E-03     44.5797E-03
            1819     8.62589E-03     50.4196E-03    -50.0982E+06    -1.81414E+06     33.6704E+06     633.789E+03    -224.449E-03     449.472E-03    -225.022E-03     43.8660E-03    -224.814E-03     449.554E-03    -224.779E-03     42.5367E-03
            1820     7.90657E-03     50.3574E-03    -56.8275E+06    -37.5008E+06     21.1930E+06     170.639E+03    -224.563E-03     449.643E-03    -225.080E-03     41.1066E-03    -224.873E-03     449.556E-03    -224.837E-03     40.1755E-03
            1821     7.18741E-03     50.2992E-03    -63.5994E+06    -66.3026E+06      8.7635E+06    -78.1487E+03    -224.638E-03     449.764E-03    -225.127E-03     38.1689E-03    -224.907E-03     449.547E-03    -224.895E-03     37.5799E-03
            1822     6.46833E-03     50.2449E-03    -70.7178E+06    -92.1767E+06    -4.25634E+06    -24.5646E+03    -224.692E-03     449.859E-03    -225.167E-03     35.0353E-03    -224.929E-03     449.530E-03    -224.952E-03     34.7331E-03
            1823     5.74924E-03     50.1954E-03    -77.9777E+06    -115.832E+06    -18.3497E+06     65.1603E+03    -224.755E-03     449.954E-03    -225.199E-03     31.6790E-03    -224.966E-03     449.530E-03    -225.010E-03     31.6042E-03
            1824     5.03034E-03     50.1506E-03    -85.2755E+06    -138.041E+06    -33.4859E+06     28.1720E+03    -224.824E-03     450.046E-03    -225.222E-03     28.1427E-03    -225.011E-03     449.537E-03    -225.066E-03     28.2340E-03
            1825     4.31143E-03     50.1111E-03    -92.5089E+06    -160.463E+06    -49.2594E+06    -55.7970E+03    -224.898E-03     450.138E-03    -225.240E-03     24.4504E-03    -225.062E-03     449.546E-03    -225.119E-03     24.6448E-03
            1826     3.59265E-03     50.0771E-03     -99.381E+06    -180.546E+06    -65.5426E+06    -75.1592E+03    -224.981E-03     450.227E-03    -225.246E-03     20.6216E-03    -225.123E-03     449.566E-03    -225.168E-03     20.8705E-03
            1827     2.87414E-03     50.0488E-03    -105.743E+06    -197.836E+06    -81.7686E+06    -69.8363E+03    -225.056E-03     450.296E-03    -225.240E-03     16.6586E-03    -225.180E-03     449.580E-03    -225.209E-03     16.9175E-03
            1828     2.15547E-03     50.0264E-03    -111.257E+06    -214.016E+06    -96.4762E+06    -56.7807E+03    -225.111E-03     450.344E-03    -225.233E-03     12.6244E-03    -225.217E-03     449.575E-03    -225.244E-03     12.8557E-03
            1829     1.43686E-03     50.0101E-03    -115.608E+06    -226.871E+06    -108.428E+06    -31.0777E+03    -225.155E-03     450.385E-03    -225.230E-03     8.59775E-03    -225.247E-03     449.575E-03    -225.275E-03     8.77147E-03
            1830     718.469E-06     50.0003E-03    -118.445E+06    -235.833E+06    -116.305E+06     8.34378E+03    -225.188E-03     450.443E-03    -225.255E-03     4.62996E-03    -225.269E-03     449.605E-03    -225.323E-03     4.72572E-03
            1831     13.6614E-03     49.4165E-03    -4.56886E+06     73.9891E+06     94.5096E+06    -15.6651E+03    -224.121E-03     448.978E-03    -224.857E-03     43.0364E-03    -224.561E-03     449.391E-03    -224.485E-03     39.1786E-03
            1832     12.9426E-03     49.3491E-03    -11.0513E+06     68.3669E+06     93.1504E+06    -616.857E+03    -224.219E-03     449.119E-03    -224.900E-03     49.1741E-03    -224.724E-03     449.557E-03    -224.518E-03     44.9208E-03
            1833     12.2223E-03     49.2805E-03    -16.8800E+06     62.1915E+06     87.4704E+06     94.2533E+03    -224.223E-03     449.152E-03    -224.928E-03     50.1257E-03    -224.716E-03     449.551E-03    -224.556E-03     46.3800E-03
            1834     11.5034E-03     49.2095E-03    -22.0727E+06     57.5596E+06     76.8522E+06     1.18296E+06    -224.259E-03     449.195E-03    -224.936E-03     50.7045E-03    -224.737E-03     449.576E-03    -224.603E-03     47.3827E-03
            1835     10.7837E-03     49.1383E-03    -28.7774E+06     50.2204E+06     64.1876E+06     766.723E+03    -224.302E-03     449.247E-03    -224.945E-03     50.1122E-03    -224.757E-03     449.592E-03    -224.655E-03     47.2908E-03
            1836     10.0643E-03     49.0679E-03    -34.9178E+06     40.2175E+06     54.3487E+06     1.01358E+06    -224.342E-03     449.317E-03    -224.976E-03     48.6269E-03    -224.771E-03     449.608E-03    -224.712E-03     46.3277E-03
            1837     9.34473E-03     48.9996E-03    -40.7799E+06     28.3585E+06     46.3068E+06     1.59024E+06    -224.367E-03     449.390E-03    -225.023E-03     46.4940E-03    -224.770E-03     449.615E-03    -224.773E-03     44.7035E-03
            1838     8.62536E-03     48.9339E-03    -47.5600E+06      91.145E+03     35.7375E+06     931.211E+03    -224.456E-03     449.541E-03    -225.085E-03     44.0068E-03    -224.814E-03     449.627E-03    -224.838E-03     42.6700E-03
            1839     7.90613E-03     48.8718E-03    -54.8198E+06    -36.8872E+06     22.5187E+06     197.410E+03    -224.574E-03     449.721E-03    -225.147E-03     41.2774E-03    -224.877E-03     449.633E-03    -224.902E-03     40.3362E-03
            1840     7.18692E-03     48.8134E-03    -62.2410E+06    -66.2100E+06     9.54104E+06     30.1289E+03    -224.655E-03     449.854E-03    -225.199E-03     38.3452E-03    -224.919E-03     449.634E-03    -224.965E-03     37.7466E-03
            1841     6.46777E-03     48.7592E-03    -69.7269E+06    -92.5001E+06    -3.73186E+06    -26.2218E+03    -224.733E-03     449.978E-03    -225.245E-03     35.1877E-03    -224.965E-03     449.645E-03    -225.028E-03     34.8740E-03
            1842     5.74878E-03     48.7093E-03    -77.0135E+06    -115.916E+06    -17.6566E+06     15.5219E+03    -224.815E-03     450.097E-03    -225.282E-03     31.7923E-03    -225.022E-03     449.670E-03    -225.090E-03     31.7051E-03
            1843     5.02986E-03     48.6645E-03    -84.3497E+06    -137.881E+06    -32.7692E+06     5.56473E+03    -224.902E-03     450.209E-03    -225.307E-03     28.2379E-03    -225.085E-03     449.699E-03    -225.149E-03     28.3169E-03
            1844     4.31112E-03     48.6248E-03    -91.7745E+06    -160.447E+06    -48.8028E+06    -64.3785E+03    -224.986E-03     450.311E-03    -225.325E-03     24.5231E-03    -225.147E-03     449.718E-03    -225.203E-03     24.7059E-03
            1845     3.59244E-03     48.5907E-03    -98.8273E+06    -180.663E+06    -65.1458E+06    -67.5729E+03    -225.072E-03     450.403E-03    -225.330E-03     20.6984E-03    -225.213E-03     449.740E-03    -225.251E-03     20.9386E-03
            1846     2.87374E-03     48.5622E-03    -105.261E+06    -197.999E+06    -81.2350E+06     12.1198E+03    -225.158E-03     450.481E-03    -225.322E-03     16.7543E-03    -225.281E-03     449.763E-03    -225.289E-03     17.0077E-03
            1847     2.15534E-03     48.5399E-03    -110.798E+06    -214.158E+06    -96.0441E+06     106.051E+03    -225.204E-03     450.514E-03    -225.309E-03     12.6953E-03    -225.309E-03     449.743E-03    -225.318E-03     12.9215E-03
            1848     1.43687E-03     48.5236E-03    -114.931E+06    -226.811E+06    -108.014E+06     49.5975E+03    -225.214E-03     450.522E-03    -225.308E-03     8.58989E-03    -225.304E-03     449.712E-03    -225.352E-03     8.75991E-03
            1849     718.241E-06     48.5136E-03    -117.867E+06    -236.005E+06    -115.897E+06    -3.70899E+03    -225.407E-03     450.612E-03    -225.205E-03     4.65577E-03    -225.486E-03     449.771E-03    -225.271E-03     4.75830E-03
            1850     13.6621E-03     47.9312E-03    -4.73437E+06     73.7887E+06     94.7157E+06     330.329E+03    -223.954E-03     448.819E-03    -224.865E-03     43.1842E-03    -224.395E-03     449.231E-03    -224.492E-03     39.3413E-03
            1851     12.9417E-03     47.8642E-03    -10.1204E+06     69.0239E+06     93.2833E+06     790.307E+03    -223.983E-03     448.900E-03    -224.917E-03     49.4002E-03    -224.483E-03     449.339E-03    -224.536E-03     45.1922E-03
            1852     12.2228E-03     47.7953E-03    -17.1036E+06     61.7750E+06     86.2701E+06    -333.137E+03    -224.051E-03     449.006E-03    -224.955E-03     50.2598E-03    -224.542E-03     449.406E-03    -224.589E-03     46.5177E-03
            1853     11.5025E-03     47.7245E-03    -23.3953E+06     56.1136E+06     75.5549E+06    -505.481E+03    -224.163E-03     449.139E-03    -224.976E-03     50.8413E-03    -224.643E-03     449.516E-03    -224.646E-03     47.4995E-03
            1854     10.7832E-03     47.6530E-03    -28.1096E+06     50.8089E+06     64.5947E+06     140.966E+03    -224.285E-03     449.279E-03    -224.995E-03     50.2114E-03    -224.739E-03     449.627E-03    -224.705E-03     47.3732E-03
            1855     10.0636E-03     47.5825E-03    -33.7048E+06     38.6773E+06     54.6087E+06     205.416E+03    -224.361E-03     449.393E-03    -225.031E-03     48.7151E-03    -224.783E-03     449.674E-03    -224.765E-03     46.3902E-03
            1856     9.34427E-03     47.5140E-03    -39.9612E+06     27.1893E+06     46.9592E+06     896.739E+03    -224.371E-03     449.455E-03    -225.084E-03     46.6093E-03    -224.770E-03     449.673E-03    -224.831E-03     44.7919E-03
            1857     8.62483E-03     47.4484E-03    -46.6919E+06     1.89955E+06     36.8348E+06     1.45480E+06    -224.425E-03     449.576E-03    -225.151E-03     44.1532E-03    -224.784E-03     449.669E-03    -224.902E-03     42.8071E-03
            1858     7.90549E-03     47.3860E-03    -54.0944E+06    -35.9273E+06     23.2962E+06     1.04453E+06    -224.559E-03     449.780E-03    -225.221E-03     41.4453E-03    -224.862E-03     449.696E-03    -224.974E-03     40.5005E-03
            1859     7.18629E-03     47.3276E-03    -61.5185E+06    -65.7766E+06     10.1672E+06     620.252E+03    -224.691E-03     449.971E-03    -225.280E-03     38.5108E-03    -224.954E-03     449.752E-03    -225.044E-03     37.9061E-03
            1860     6.46728E-03     47.2730E-03    -68.8743E+06    -92.2545E+06    -3.33881E+06     343.613E+03    -224.810E-03     450.137E-03    -225.327E-03     35.3319E-03    -225.040E-03     449.805E-03    -225.111E-03     35.0106E-03
            1861     5.74833E-03     47.2232E-03    -76.4649E+06    -115.953E+06    -17.4229E+06     123.817E+03    -224.902E-03     450.266E-03    -225.365E-03     31.9388E-03    -225.106E-03     449.838E-03    -225.173E-03     31.8400E-03
            1862     5.02949E-03     47.1780E-03    -83.9678E+06    -137.955E+06    -32.4144E+06     149.754E+03    -224.981E-03     450.373E-03    -225.392E-03     28.3565E-03    -225.163E-03     449.862E-03    -225.232E-03     28.4217E-03
            1863     4.31071E-03     47.1383E-03    -91.2620E+06    -160.417E+06    -48.3584E+06     205.742E+03    -225.066E-03     450.477E-03    -225.411E-03     24.6473E-03    -225.225E-03     449.882E-03    -225.288E-03     24.8207E-03
            1864     3.59209E-03     47.1040E-03    -98.3185E+06    -180.788E+06    -64.7929E+06     201.624E+03    -225.152E-03     450.571E-03    -225.418E-03     20.8417E-03    -225.291E-03     449.906E-03    -225.338E-03     21.0756E-03
            1865     2.87363E-03     47.0754E-03    -104.758E+06    -198.026E+06    -80.9271E+06     179.050E+03    -225.227E-03     450.642E-03    -225.415E-03     16.8610E-03    -225.347E-03     449.922E-03    -225.380E-03     17.1085E-03
            1866     2.15507E-03     47.0529E-03    -110.238E+06    -214.114E+06    -95.5621E+06     142.766E+03    -225.306E-03     450.711E-03    -225.405E-03     12.7672E-03    -225.408E-03     449.939E-03    -225.412E-03     12.9859E-03
            1867     1.43669E-03     47.0369E-03    -114.368E+06    -226.782E+06    -107.501E+06     155.985E+03    -225.377E-03     450.758E-03    -225.380E-03     8.66202E-03    -225.464E-03     449.946E-03    -225.423E-03     8.82832E-03
            1868     718.509E-06     47.0266E-03    -116.713E+06    -235.744E+06    -115.202E+06     82.7536E+03    -225.332E-03     450.715E-03    -225.383E-03     4.82720E-03    -225.407E-03     449.873E-03    -225.448E-03     4.92903E-03
            1869     13.6608E-03     46.4467E-03    -4.73671E+06     72.8033E+06     93.4179E+06    -36.8252E+03    -223.676E-03     448.554E-03    -224.877E-03     43.3074E-03    -224.113E-03     448.961E-03    -224.509E-03     39.4906E-03
            1870     12.9419E-03     46.3789E-03    -10.0654E+06     69.2158E+06     93.2289E+06     390.639E+03    -223.873E-03     448.819E-03    -224.946E-03     49.4984E-03    -224.373E-03     449.258E-03    -224.566E-03     45.3119E-03
            1871     12.2215E-03     46.3106E-03    -15.2399E+06     63.8258E+06     87.9858E+06     590.833E+03    -224.024E-03     449.018E-03    -224.994E-03     50.3018E-03    -224.512E-03     449.423E-03    -224.624E-03     46.5723E-03
            1872     11.5024E-03     46.2392E-03    -21.8883E+06     56.5583E+06     76.1172E+06    -281.860E+03    -224.163E-03     449.178E-03    -225.015E-03     50.7754E-03    -224.638E-03     449.555E-03    -224.684E-03     47.4217E-03
            1873     10.7826E-03     46.1677E-03    -28.8700E+06     49.6939E+06     63.1308E+06    -837.199E+03    -224.231E-03     449.264E-03    -225.033E-03     50.1411E-03    -224.686E-03     449.610E-03    -224.747E-03     47.2669E-03
            1874     10.0632E-03     46.0970E-03    -35.2081E+06     37.7738E+06     52.8500E+06    -55.4319E+03    -224.269E-03     449.345E-03    -225.077E-03     48.7251E-03    -224.696E-03     449.628E-03    -224.816E-03     46.3714E-03
            1875     9.34364E-03     46.0285E-03    -41.8070E+06     25.5551E+06     45.4022E+06     473.138E+03    -224.295E-03     449.438E-03    -225.142E-03     46.7672E-03    -224.700E-03     449.654E-03    -224.892E-03     44.9236E-03
            1876     8.62423E-03     45.9627E-03    -48.4528E+06     1.81648E+06     36.0645E+06     818.867E+03    -224.390E-03     449.610E-03    -225.220E-03     44.3690E-03    -224.757E-03     449.707E-03    -224.972E-03     42.9971E-03
            1877     7.90489E-03     45.9003E-03    -54.9723E+06    -34.9577E+06     23.0972E+06     964.564E+03    -224.566E-03     449.864E-03    -225.298E-03     41.6522E-03    -224.875E-03     449.787E-03    -225.052E-03     40.6931E-03
            1878     7.18573E-03     45.8414E-03    -61.8713E+06    -65.2369E+06     10.0466E+06     760.444E+03    -224.739E-03     450.101E-03    -225.362E-03     38.7033E-03    -225.004E-03     449.886E-03    -225.127E-03     38.0863E-03
            1879     6.46668E-03     45.7868E-03    -69.1843E+06    -91.7308E+06    -3.35905E+06     548.890E+03    -224.875E-03     450.288E-03    -225.414E-03     35.5001E-03    -225.108E-03     449.960E-03    -225.197E-03     35.1627E-03
            1880     5.74778E-03     45.7366E-03    -76.6187E+06    -115.721E+06    -17.5224E+06     388.688E+03    -224.974E-03     450.428E-03    -225.453E-03     32.1090E-03    -225.180E-03     450.002E-03    -225.262E-03     31.9950E-03
            1881     5.02904E-03     45.6914E-03    -84.0594E+06    -138.022E+06    -32.5528E+06     286.784E+03    -225.058E-03     450.541E-03    -225.483E-03     28.5431E-03    -225.241E-03     450.030E-03    -225.324E-03     28.5935E-03
            1882     4.31037E-03     45.6515E-03    -91.1633E+06    -160.346E+06    -48.1559E+06     270.642E+03    -225.136E-03     450.642E-03    -225.507E-03     24.8168E-03    -225.295E-03     450.048E-03    -225.383E-03     24.9771E-03
            1883     3.59175E-03     45.6170E-03    -98.0344E+06    -180.712E+06    -64.3721E+06     279.298E+03    -225.216E-03     450.738E-03    -225.521E-03     21.0070E-03    -225.354E-03     450.073E-03    -225.439E-03     21.2319E-03
            1884     2.87321E-03     45.5883E-03    -104.456E+06    -197.958E+06    -80.5666E+06     240.708E+03    -225.306E-03     450.832E-03    -225.526E-03     17.0333E-03    -225.426E-03     450.112E-03    -225.490E-03     17.2721E-03
            1885     2.15487E-03     45.5659E-03    -109.858E+06    -213.886E+06    -95.1462E+06     139.082E+03    -225.400E-03     450.924E-03    -225.524E-03     12.9239E-03    -225.501E-03     450.153E-03    -225.531E-03     13.1361E-03
            1886     1.43658E-03     45.5494E-03    -114.182E+06    -226.772E+06    -107.062E+06     66.1328E+03    -225.473E-03     450.988E-03    -225.515E-03     8.81811E-03    -225.560E-03     450.175E-03    -225.555E-03     8.97753E-03
            1887     718.251E-06     45.5395E-03    -116.554E+06    -235.380E+06    -114.811E+06     94.4745E+03    -225.393E-03     450.999E-03    -225.606E-03     4.75780E-03    -225.468E-03     450.158E-03    -225.670E-03     4.83794E-03
            1888     13.6615E-03     44.9615E-03    -4.95891E+06     73.0148E+06     93.2385E+06    -48.2247E+03    -223.675E-03     448.571E-03    -224.895E-03     43.2608E-03    -224.112E-03     448.979E-03    -224.528E-03     39.4615E-03
            1889     12.9408E-03     44.8948E-03    -10.7038E+06     69.0651E+06     92.7237E+06    -361.225E+03    -223.837E-03     448.802E-03    -224.965E-03     49.3109E-03    -224.338E-03     449.241E-03    -224.586E-03     45.1123E-03
            1890     12.2218E-03     44.8250E-03    -16.3901E+06     63.2972E+06     87.4236E+06    -425.341E+03    -223.979E-03     448.996E-03    -225.017E-03     50.1166E-03    -224.472E-03     449.401E-03    -224.648E-03     46.3566E-03
            1891     11.5018E-03     44.7542E-03    -21.9726E+06     57.1246E+06     76.4071E+06     212.393E+03    -224.062E-03     449.106E-03    -225.045E-03     50.7441E-03    -224.540E-03     449.488E-03    -224.714E-03     47.3744E-03
            1892     10.7824E-03     44.6823E-03    -28.2200E+06     49.5832E+06     63.0650E+06     662.105E+03    -224.073E-03     449.145E-03    -225.072E-03     50.2860E-03    -224.526E-03     449.491E-03    -224.788E-03     47.4172E-03
            1893     10.0627E-03     44.6119E-03    -35.1563E+06     37.0787E+06     52.4065E+06     512.444E+03    -224.122E-03     449.252E-03    -225.130E-03     49.0051E-03    -224.548E-03     449.533E-03    -224.871E-03     46.6530E-03
            1894     9.34304E-03     44.5430E-03    -41.7666E+06     25.5149E+06     45.1416E+06     310.695E+03    -224.232E-03     449.441E-03    -225.209E-03     47.0395E-03    -224.637E-03     449.657E-03    -224.959E-03     45.1851E-03
            1895     8.62351E-03     44.4771E-03    -48.4793E+06     1.41998E+06     35.4879E+06     206.723E+03    -224.402E-03     449.696E-03    -225.294E-03     44.5876E-03    -224.769E-03     449.793E-03    -225.048E-03     43.1911E-03
            1896     7.90422E-03     44.4142E-03    -55.4242E+06    -35.0604E+06      22.646E+06     305.859E+03    -224.615E-03     449.992E-03    -225.377E-03     41.8612E-03    -224.926E-03     449.916E-03    -225.133E-03     40.8726E-03
            1897     7.18506E-03     44.3552E-03    -62.4092E+06    -64.9384E+06     9.88410E+06     370.257E+03    -224.771E-03     450.217E-03    -225.446E-03     38.8907E-03    -225.040E-03     450.006E-03    -225.212E-03     38.2442E-03
            1898     6.46612E-03     44.3002E-03    -69.4331E+06    -91.5904E+06    -3.33030E+06     388.636E+03    -224.894E-03     450.400E-03    -225.506E-03     35.7127E-03    -225.129E-03     450.073E-03    -225.289E-03     35.3496E-03
            1899     5.74729E-03     44.2499E-03    -76.6521E+06    -115.439E+06    -17.4242E+06     380.351E+03    -225.001E-03     450.556E-03    -225.555E-03     32.3597E-03    -225.208E-03     450.131E-03    -225.363E-03     32.2262E-03
            1900     5.02847E-03     44.2045E-03    -83.9718E+06    -137.775E+06    -32.4504E+06     225.495E+03    -225.106E-03     450.700E-03    -225.594E-03     28.8330E-03    -225.289E-03     450.190E-03    -225.435E-03     28.8678E-03
            1901     4.30985E-03     44.1644E-03    -91.2828E+06    -160.327E+06    -48.0613E+06     133.426E+03    -225.226E-03     450.852E-03    -225.626E-03     25.1144E-03    -225.386E-03     450.258E-03    -225.502E-03     25.2591E-03
            1902     3.59133E-03     44.1299E-03    -98.2754E+06    -180.695E+06    -64.3102E+06     219.074E+03    -225.323E-03     450.969E-03    -225.645E-03     21.2316E-03    -225.462E-03     450.304E-03    -225.563E-03     21.4422E-03
            1903     2.87289E-03     44.1010E-03    -104.558E+06    -197.840E+06    -80.5324E+06     203.889E+03    -225.401E-03     451.057E-03    -225.656E-03     17.1920E-03    -225.522E-03     450.338E-03    -225.620E-03     17.4195E-03
            1904     2.15453E-03     44.0783E-03    -110.003E+06    -213.700E+06    -95.3406E+06     104.385E+03    -225.491E-03     451.158E-03    -225.666E-03     13.0612E-03    -225.594E-03     450.387E-03    -225.674E-03     13.2638E-03
            1905     1.43623E-03     44.0620E-03    -114.105E+06    -226.559E+06    -107.130E+06     30.6122E+03    -225.571E-03     451.254E-03    -225.684E-03     8.87524E-03    -225.658E-03     450.443E-03    -225.725E-03     9.02762E-03
            1906     718.028E-06     44.0517E-03    -117.072E+06    -235.415E+06    -115.004E+06     26.0396E+03    -225.771E-03     451.373E-03    -225.602E-03     4.74753E-03    -225.848E-03     450.532E-03    -225.665E-03     4.83372E-03
            1907     13.6605E-03     43.4778E-03    -5.29830E+06     73.2798E+06     93.4667E+06    -242.451E+03    -223.668E-03     448.575E-03    -224.907E-03     43.0985E-03    -224.107E-03     448.984E-03    -224.538E-03     39.2895E-03
            1908     12.9416E-03     43.4090E-03    -10.6931E+06     69.2880E+06     92.9222E+06    -11.3765E+03    -223.768E-03     448.747E-03    -224.979E-03     49.4323E-03    -224.270E-03     449.187E-03    -224.599E-03     45.2449E-03
            1909     12.2213E-03     43.3408E-03    -16.7258E+06     62.7317E+06     86.5967E+06    -29.1531E+03    -223.775E-03     448.811E-03    -225.036E-03     50.4280E-03    -224.267E-03     449.216E-03    -224.670E-03     46.6853E-03
            1910     11.5017E-03     43.2688E-03    -23.2021E+06     55.5359E+06     74.8648E+06     10.6679E+03    -223.824E-03     448.904E-03    -225.079E-03     51.1459E-03    -224.305E-03     449.282E-03    -224.752E-03     47.7845E-03
            1911     10.7817E-03     43.1977E-03    -29.0120E+06     48.9571E+06     62.7187E+06     553.379E+03    -223.935E-03     449.062E-03    -225.126E-03     50.6479E-03    -224.392E-03     449.407E-03    -224.842E-03     47.7770E-03
            1912     10.0619E-03     43.1266E-03    -34.7729E+06     37.7073E+06     52.8200E+06     822.726E+03    -224.106E-03     449.301E-03    -225.195E-03     49.2650E-03    -224.533E-03     449.585E-03    -224.935E-03     46.9109E-03
            1913     9.34229E-03     43.0575E-03    -41.2942E+06     26.0848E+06     45.3916E+06     493.136E+03    -224.246E-03     449.524E-03    -225.278E-03     47.1998E-03    -224.652E-03     449.744E-03    -225.029E-03     45.3257E-03
            1914     8.62288E-03     42.9911E-03    -48.2993E+06     1.65423E+06     35.7018E+06     229.394E+03    -224.409E-03     449.778E-03    -225.369E-03     44.7571E-03    -224.777E-03     449.877E-03    -225.123E-03     43.3339E-03
            1915     7.90361E-03     42.9281E-03    -55.2330E+06    -35.0917E+06     22.8736E+06    -76.1424E+03    -224.601E-03     450.062E-03    -225.461E-03     42.1002E-03    -224.913E-03     449.986E-03    -225.215E-03     41.0786E-03
            1916     7.18454E-03     42.8687E-03    -62.1535E+06    -65.2539E+06     10.0390E+06    -72.1920E+03    -224.743E-03     450.284E-03    -225.541E-03     39.2236E-03    -225.011E-03     450.071E-03    -225.306E-03     38.5461E-03
            1917     6.46546E-03     42.8136E-03    -69.3536E+06    -91.7213E+06    -3.36911E+06     110.328E+03    -224.874E-03     450.488E-03    -225.614E-03     36.1028E-03    -225.109E-03     450.161E-03    -225.397E-03     35.7181E-03
            1918     5.74650E-03     42.7630E-03    -76.6445E+06    -115.360E+06    -17.4260E+06     155.382E+03    -225.017E-03     450.694E-03    -225.678E-03     32.7332E-03    -225.225E-03     450.271E-03    -225.486E-03     32.5784E-03
            1919     5.02780E-03     42.7175E-03    -84.0098E+06    -137.643E+06    -32.4728E+06     220.978E+03    -225.162E-03     450.892E-03    -225.731E-03     29.1667E-03    -225.346E-03     450.384E-03    -225.572E-03     29.1830E-03
            1920     4.30915E-03     42.6770E-03    -91.4363E+06    -160.472E+06    -48.4277E+06     258.691E+03    -225.330E-03     451.102E-03    -225.772E-03     25.4135E-03    -225.490E-03     450.508E-03    -225.649E-03     25.5457E-03
            1921     3.59075E-03     42.6423E-03    -98.2939E+06    -180.647E+06    -64.5917E+06     217.444E+03    -225.481E-03     451.276E-03    -225.795E-03     21.4627E-03    -225.620E-03     450.612E-03    -225.713E-03     21.6555E-03
            1922     2.87247E-03     42.6133E-03    -104.669E+06    -197.608E+06    -80.7361E+06     140.557E+03    -225.556E-03     451.360E-03    -225.805E-03     17.3713E-03    -225.677E-03     450.643E-03    -225.770E-03     17.5838E-03
            1923     2.15420E-03     42.5905E-03    -110.196E+06    -213.544E+06    -95.5071E+06     104.861E+03    -225.631E-03     451.449E-03    -225.818E-03     13.1792E-03    -225.734E-03     450.680E-03    -225.826E-03     13.3766E-03
            1924     1.43608E-03     42.5738E-03    -114.454E+06    -226.430E+06    -107.434E+06     121.188E+03    -225.735E-03     451.567E-03    -225.833E-03     8.93032E-03    -225.823E-03     450.757E-03    -225.876E-03     9.08154E-03
            1925     718.070E-06     42.5636E-03    -117.328E+06    -235.331E+06    -115.437E+06     131.519E+03    -225.911E-03     451.664E-03    -225.753E-03     4.95522E-03    -225.989E-03     450.825E-03    -225.819E-03     5.05359E-03
            1926     13.6613E-03     41.9918E-03    -4.69914E+06     73.4688E+06     93.6843E+06    -47.0942E+03    -223.391E-03     448.304E-03    -224.913E-03     43.2072E-03    -223.827E-03     448.713E-03    -224.544E-03     39.4201E-03
            1927     12.9406E-03     41.9253E-03    -10.7548E+06     68.4855E+06     92.3679E+06    -22.8598E+03    -223.491E-03     448.491E-03    -225.000E-03     49.6474E-03    -223.992E-03     448.928E-03    -224.621E-03     45.4713E-03
            1928     12.2210E-03     41.8555E-03    -16.8530E+06     62.3096E+06     86.4715E+06     465.206E+03    -223.560E-03     448.636E-03    -225.075E-03     50.7030E-03    -224.053E-03     449.039E-03    -224.709E-03     46.9749E-03
            1929     11.5007E-03     41.7847E-03    -22.8038E+06     55.9001E+06     75.6706E+06     588.809E+03    -223.733E-03     448.866E-03    -225.133E-03     51.3087E-03    -224.214E-03     449.246E-03    -224.803E-03     47.9469E-03
            1930     10.7809E-03     41.7124E-03    -29.3056E+06     48.8180E+06     63.4162E+06    -78.1323E+03    -223.942E-03     449.130E-03    -225.188E-03     50.7162E-03    -224.402E-03     449.476E-03    -224.899E-03     47.8177E-03
            1931     10.0614E-03     41.6413E-03    -35.3271E+06     37.3793E+06     53.3872E+06    -276.364E+03    -224.093E-03     449.354E-03    -225.261E-03     49.3549E-03    -224.525E-03     449.638E-03    -224.997E-03     46.9541E-03
            1932     9.34179E-03     41.5718E-03    -41.2288E+06     26.2902E+06     45.8403E+06     169.073E+03    -224.180E-03     449.530E-03    -225.350E-03     47.4763E-03    -224.588E-03     449.752E-03    -225.099E-03     45.5722E-03
            1933     8.62229E-03     41.5052E-03    -47.6768E+06     2.25052E+06     36.1928E+06    -8.49525E+03    -224.325E-03     449.777E-03    -225.452E-03     45.1902E-03    -224.693E-03     449.879E-03    -225.206E-03     43.7407E-03
            1934     7.90292E-03     41.4418E-03    -54.6421E+06    -35.2096E+06     22.9539E+06    -65.3885E+03    -224.512E-03     450.072E-03    -225.560E-03     42.5938E-03    -224.822E-03     449.996E-03    -225.315E-03     41.5504E-03
            1935     7.18357E-03     41.3823E-03    -61.9745E+06    -65.8198E+06     9.72991E+06     107.701E+03    -224.698E-03     450.356E-03    -225.658E-03     39.7156E-03    -224.965E-03     450.142E-03    -225.424E-03     39.0218E-03
            1936     6.46454E-03     41.3268E-03    -69.3586E+06    -91.8614E+06    -3.62714E+06     183.518E+03    -224.890E-03     450.637E-03    -225.747E-03     36.5341E-03    -225.125E-03     450.310E-03    -225.531E-03     36.1288E-03
            1937     5.74570E-03     41.2759E-03    -76.8958E+06    -115.452E+06    -17.8247E+06     284.523E+03    -225.069E-03     450.893E-03    -225.824E-03     33.1181E-03    -225.278E-03     450.471E-03    -225.634E-03     32.9449E-03
            1938     5.02695E-03     41.2299E-03    -84.3794E+06    -137.796E+06    -32.9974E+06     356.154E+03    -225.266E-03     451.154E-03    -225.887E-03     29.5077E-03    -225.452E-03     450.646E-03    -225.730E-03     29.5078E-03
            1939     4.30849E-03     41.1893E-03    -91.4667E+06    -160.211E+06    -48.7413E+06     316.017E+03    -225.444E-03     451.382E-03    -225.938E-03     25.7120E-03    -225.605E-03     450.791E-03    -225.817E-03     25.8299E-03
            1940     3.59013E-03     41.1541E-03    -98.5566E+06    -180.478E+06    -64.9629E+06     127.635E+03    -225.591E-03     451.565E-03    -225.973E-03     21.7563E-03    -225.732E-03     450.903E-03    -225.894E-03     21.9354E-03
            1941     2.87193E-03     41.1252E-03    -105.021E+06    -197.525E+06    -80.9879E+06     110.824E+03    -225.752E-03     451.743E-03    -225.990E-03     17.6538E-03    -225.875E-03     451.027E-03    -225.957E-03     17.8533E-03
            1942     2.15388E-03     41.1021E-03    -110.369E+06    -213.455E+06    -95.5502E+06     141.827E+03    -225.879E-03     451.870E-03    -225.991E-03     13.3916E-03    -225.983E-03     451.102E-03    -225.999E-03     13.5808E-03
            1943     1.43584E-03     41.0854E-03    -114.597E+06    -226.474E+06    -107.471E+06     100.881E+03    -225.937E-03     451.918E-03    -225.981E-03     9.03381E-03    -226.026E-03     451.108E-03    -226.023E-03     9.17973E-03
            1944     717.836E-06     41.0749E-03    -117.142E+06    -235.018E+06    -115.272E+06     85.2315E+03    -225.885E-03     451.933E-03    -226.048E-03     4.96692E-03    -225.962E-03     451.095E-03    -226.114E-03     5.05299E-03
            1945     13.6604E-03     40.5088E-03    -4.88692E+06     73.1039E+06     93.2715E+06     443.910E+03    -223.217E-03     448.143E-03    -224.926E-03     43.3825E-03    -223.654E-03     448.551E-03    -224.559E-03     39.6115E-03
            1946     12.9407E-03     40.4405E-03    -10.4100E+06     68.7386E+06     92.8002E+06     749.409E+03    -223.295E-03     448.322E-03    -225.027E-03     49.6163E-03    -223.795E-03     448.759E-03    -224.647E-03     45.4577E-03
            1947     12.2202E-03     40.3718E-03    -16.8331E+06     62.3990E+06     87.3816E+06     180.709E+03    -223.492E-03     448.606E-03    -225.114E-03     50.5697E-03    -223.987E-03     449.010E-03    -224.743E-03     46.8177E-03
            1948     11.5004E-03     40.2996E-03    -22.7546E+06     55.8127E+06     76.9506E+06    -75.0240E+03    -223.693E-03     448.873E-03    -225.179E-03     51.2108E-03    -224.178E-03     449.251E-03    -224.843E-03     47.8082E-03
            1949     10.7807E-03     40.2274E-03    -28.2831E+06     49.5445E+06     64.7696E+06     45.1950E+03    -223.796E-03     449.037E-03    -225.241E-03     50.8435E-03    -224.256E-03     449.384E-03    -224.948E-03     47.9210E-03
            1950     10.0607E-03     40.1559E-03    -34.6161E+06     37.5934E+06     53.6251E+06    -277.018E+03    -223.889E-03     449.215E-03    -225.326E-03     49.7766E-03    -224.320E-03     449.501E-03    -225.062E-03     47.3610E-03
            1951     9.34098E-03     40.0864E-03    -41.4947E+06     25.8150E+06     45.2020E+06    -593.067E+03    -224.019E-03     449.453E-03    -225.433E-03     48.0430E-03    -224.428E-03     449.675E-03    -225.184E-03     46.1161E-03
            1952     8.62127E-03     40.0193E-03    -48.3230E+06     1.85247E+06     35.2502E+06    -226.046E+03    -224.199E-03     449.754E-03    -225.556E-03     45.7330E-03    -224.570E-03     449.858E-03    -225.312E-03     44.2603E-03
            1953     7.90178E-03     39.9557E-03    -55.4181E+06    -35.6012E+06     22.1822E+06     144.052E+03    -224.449E-03     450.133E-03    -225.684E-03     43.0767E-03    -224.763E-03     450.059E-03    -225.441E-03     42.0080E-03
            1954     7.18260E-03     39.8956E-03    -62.6189E+06    -65.9850E+06     9.28675E+06     260.289E+03    -224.690E-03     450.490E-03    -225.800E-03     40.1869E-03    -224.961E-03     450.277E-03    -225.567E-03     39.4691E-03
            1955     6.46355E-03     39.8397E-03    -69.9307E+06    -91.9889E+06    -4.08356E+06     311.966E+03    -224.925E-03     450.830E-03    -225.904E-03     37.0088E-03    -225.163E-03     450.505E-03    -225.690E-03     36.5820E-03
            1956     5.74467E-03     39.7885E-03    -77.2554E+06    -115.663E+06    -18.2019E+06     350.502E+03    -225.165E-03     451.159E-03    -225.994E-03     33.5829E-03    -225.375E-03     450.737E-03    -225.806E-03     33.3896E-03
            1957     5.02609E-03     39.7420E-03    -84.5246E+06    -137.726E+06    -33.1951E+06     395.962E+03    -225.377E-03     451.446E-03    -226.069E-03     29.9502E-03    -225.563E-03     450.939E-03    -225.913E-03     29.9336E-03
            1958     4.30766E-03     39.7010E-03    -91.8090E+06    -159.837E+06    -48.8427E+06     347.950E+03    -225.555E-03     451.689E-03    -226.134E-03     26.1111E-03    -225.718E-03     451.100E-03    -226.013E-03     26.2109E-03
            1959     3.58934E-03     39.6658E-03    -98.8599E+06    -180.159E+06    -65.1420E+06     237.941E+03    -225.741E-03     451.924E-03    -226.183E-03     22.1052E-03    -225.883E-03     451.264E-03    -226.104E-03     22.2743E-03
            1960     2.87119E-03     39.6362E-03    -105.275E+06    -197.483E+06    -81.2676E+06     71.8236E+03    -225.943E-03     452.154E-03    -226.210E-03     17.9219E-03    -226.067E-03     451.439E-03    -226.178E-03     18.1140E-03
            1961     2.15335E-03     39.6130E-03    -110.702E+06    -213.526E+06    -95.9130E+06     18.3741E+03    -226.094E-03     452.312E-03    -226.217E-03     13.6217E-03    -226.200E-03     451.544E-03    -226.227E-03     13.7952E-03
            1962     1.43565E-03     39.5962E-03    -114.854E+06    -226.367E+06    -107.789E+06    -9.22603E+03    -226.171E-03     452.379E-03    -226.208E-03     9.30451E-03    -226.261E-03     451.570E-03    -226.252E-03     9.44006E-03
            1963     717.933E-06     39.5859E-03    -117.259E+06    -234.849E+06    -115.607E+06    -109.218E+03    -226.157E-03     452.386E-03    -226.228E-03     5.03517E-03    -226.235E-03     451.549E-03    -226.296E-03     5.10494E-03
            1964     13.6607E-03     39.0242E-03    -5.59723E+06     72.6135E+06     92.9301E+06     104.376E+03    -223.151E-03     448.095E-03    -224.944E-03     43.3044E-03    -223.590E-03     448.502E-03    -224.577E-03     39.5256E-03
            1965     12.9401E-03     38.9570E-03    -10.0945E+06     69.1438E+06     93.8077E+06     463.994E+03    -223.341E-03     448.391E-03    -225.050E-03     49.6854E-03    -223.841E-03     448.829E-03    -224.667E-03     45.5203E-03
            1966     12.2203E-03     38.8869E-03    -15.3687E+06     63.1142E+06     88.5982E+06     291.821E+03    -223.384E-03     448.524E-03    -225.140E-03     50.6776E-03    -223.876E-03     448.929E-03    -224.766E-03     46.9063E-03
            1967     11.5002E-03     38.8151E-03    -21.7621E+06     55.8204E+06     76.7238E+06     133.746E+03    -223.404E-03     448.619E-03    -225.215E-03     51.6348E-03    -223.885E-03     448.998E-03    -224.880E-03     48.2313E-03
            1968     10.7799E-03     38.7427E-03    -28.7318E+06     48.4990E+06     63.6886E+06     424.083E+03    -223.511E-03     448.809E-03    -225.298E-03     51.4167E-03    -223.972E-03     449.155E-03    -225.009E-03     48.4952E-03
            1969     10.0598E-03     38.6710E-03    -35.5400E+06     38.9793E+06     53.0183E+06     572.284E+03    -223.681E-03     449.087E-03    -225.406E-03     50.2671E-03    -224.119E-03     449.384E-03    -225.146E-03     47.8482E-03
            1970     9.33989E-03     38.6008E-03    -42.2988E+06     26.5119E+06     44.5284E+06    -172.950E+03    -223.854E-03     449.390E-03    -225.536E-03     48.4790E-03    -224.269E-03     449.620E-03    -225.290E-03     46.5291E-03
            1971     8.62021E-03     38.5335E-03    -49.2835E+06     541.759E+03     34.5450E+06    -411.735E+03    -224.089E-03     449.771E-03    -225.682E-03     46.2033E-03    -224.463E-03     449.873E-03    -225.439E-03     44.6970E-03
            1972     7.90073E-03     38.4693E-03    -56.1385E+06    -36.1288E+06     21.7461E+06    -70.7832E+03    -224.394E-03     450.224E-03    -225.830E-03     43.6230E-03    -224.711E-03     450.151E-03    -225.588E-03     42.5233E-03
            1973     7.18140E-03     38.4088E-03    -63.0851E+06    -66.2188E+06     9.01045E+06     166.141E+03    -224.690E-03     450.655E-03    -225.966E-03     40.7641E-03    -224.963E-03     450.444E-03    -225.733E-03     40.0185E-03
            1974     6.46231E-03     38.3524E-03    -70.3297E+06    -91.8383E+06    -4.25354E+06     208.354E+03    -224.980E-03     451.066E-03    -226.087E-03     37.5719E-03    -225.221E-03     450.744E-03    -225.873E-03     37.1215E-03
            1975     5.74356E-03     38.3005E-03    -77.6527E+06    -115.849E+06    -18.3908E+06     175.727E+03    -225.254E-03     451.446E-03    -226.193E-03     34.1104E-03    -225.466E-03     451.025E-03    -226.004E-03     33.8900E-03
            1976     5.02500E-03     38.2537E-03    -85.0501E+06    -137.857E+06    -33.4231E+06     314.891E+03    -225.486E-03     451.769E-03    -226.283E-03     30.4378E-03    -225.675E-03     451.263E-03    -226.127E-03     30.3948E-03
            1977     4.30659E-03     38.2123E-03    -92.3137E+06    -159.666E+06    -49.1902E+06     380.572E+03    -225.731E-03     452.090E-03    -226.359E-03     26.5217E-03    -225.897E-03     451.504E-03    -226.240E-03     26.6020E-03
            1978     3.58849E-03     38.1765E-03    -99.1256E+06    -179.608E+06    -65.4807E+06     196.064E+03    -225.960E-03     452.374E-03    -226.414E-03     22.4197E-03    -226.104E-03     451.718E-03    -226.337E-03     22.5691E-03
            1979     2.87065E-03     38.1467E-03    -105.417E+06    -197.373E+06    -81.6754E+06     30.3441E+03    -226.104E-03     452.559E-03    -226.455E-03     18.2047E-03    -226.228E-03     451.845E-03    -226.424E-03     18.3816E-03
            1980     2.15276E-03     38.1233E-03    -110.812E+06     -213.59E+06    -96.3087E+06    -43.5832E+03    -226.239E-03     452.735E-03    -226.496E-03     13.8807E-03    -226.344E-03     451.968E-03    -226.508E-03     14.0437E-03
            1981     1.43494E-03     38.1064E-03    -115.096E+06    -226.329E+06    -108.162E+06    -51.7908E+03    -226.398E-03     452.934E-03    -226.537E-03     9.51741E-03    -226.489E-03     452.127E-03    -226.582E-03     9.64233E-03
            1982     717.342E-06     38.0959E-03    -117.833E+06    -234.902E+06    -115.883E+06    -87.9996E+03    -226.558E-03     453.097E-03    -226.539E-03     5.23627E-03    -226.639E-03     452.261E-03    -226.607E-03     5.30642E-03
            1983     13.6598E-03     37.5409E-03    -5.16853E+06     72.8864E+06     93.9465E+06     80.9399E+03    -223.002E-03     447.950E-03    -224.948E-03     42.9456E-03    -223.441E-03     448.357E-03    -224.577E-03     39.1460E-03
            1984     12.9403E-03     37.4720E-03    -10.8197E+06     68.0885E+06     92.9009E+06    -984.798E+03    -223.027E-03     448.088E-03    -225.061E-03     49.5888E-03    -223.530E-03     448.525E-03    -224.679E-03     45.3620E-03
            1985     12.2199E-03     37.4031E-03    -16.5085E+06     62.1312E+06     87.3959E+06    -230.928E+03    -222.977E-03     448.149E-03    -225.172E-03     51.1318E-03    -223.474E-03     448.554E-03    -224.801E-03     47.3472E-03
            1986     11.4992E-03     37.3311E-03    -22.5745E+06     55.4165E+06     76.4825E+06     718.402E+03    -223.113E-03     448.388E-03    -225.275E-03     52.1469E-03    -223.599E-03     448.769E-03    -224.940E-03     48.7418E-03
            1987     10.7790E-03     37.2582E-03    -28.8149E+06     48.5938E+06     64.2666E+06     866.409E+03    -223.316E-03     448.698E-03    -225.382E-03     51.8424E-03    -223.780E-03     449.046E-03    -225.089E-03     48.9093E-03
            1988     10.0589E-03     37.1860E-03    -34.7267E+06     39.5588E+06     54.1006E+06     447.103E+03    -223.513E-03     449.023E-03    -225.510E-03     50.7487E-03    -223.952E-03     449.322E-03    -225.246E-03     48.3000E-03
            1989     9.33891E-03     37.1156E-03    -40.9771E+06     27.5848E+06     45.6697E+06     332.702E+03    -223.689E-03     449.349E-03    -225.660E-03     49.0644E-03    -224.103E-03     449.583E-03    -225.413E-03     47.0938E-03
            1990     8.61896E-03     37.0475E-03    -48.0630E+06     383.185E+03     35.0375E+06     175.749E+03    -223.971E-03     449.801E-03    -225.830E-03     46.8787E-03    -224.342E-03     449.900E-03    -225.585E-03     45.3577E-03
            1991     7.89930E-03     36.9829E-03    -55.5739E+06    -36.7945E+06     21.7727E+06     153.051E+03    -224.355E-03     450.355E-03    -226.000E-03     44.2948E-03    -224.670E-03     450.279E-03    -225.757E-03     43.1726E-03
            1992     7.17998E-03     36.9217E-03    -63.0278E+06    -66.1999E+06     8.88387E+06     206.374E+03    -224.719E-03     450.873E-03    -226.154E-03     41.3766E-03    -224.994E-03     450.664E-03    -225.922E-03     40.6022E-03
            1993     6.46103E-03     36.8646E-03    -70.3085E+06    -92.0086E+06    -4.25218E+06     191.231E+03    -225.052E-03     451.345E-03    -226.293E-03     38.1608E-03    -225.293E-03     451.022E-03    -226.079E-03     37.6790E-03
            1994     5.74226E-03     36.8122E-03    -77.7493E+06    -115.832E+06    -18.3280E+06     230.597E+03    -225.350E-03     451.766E-03    -226.416E-03     34.6492E-03    -225.564E-03     451.346E-03    -226.227E-03     34.3981E-03
            1995     5.02373E-03     36.7649E-03    -85.2273E+06    -138.148E+06    -33.4650E+06     225.016E+03    -225.643E-03     452.165E-03    -226.522E-03     30.8999E-03    -225.833E-03     451.659E-03    -226.366E-03     30.8262E-03
            1996     4.30558E-03     36.7229E-03    -92.5314E+06    -159.391E+06    -49.3572E+06     200.746E+03    -225.919E-03     452.528E-03    -226.609E-03     26.9857E-03    -226.087E-03     451.945E-03    -226.491E-03     27.0398E-03
            1997     3.58765E-03     36.6866E-03    -99.3432E+06    -179.239E+06    -65.7660E+06     89.2834E+03    -226.135E-03     452.815E-03    -226.679E-03     22.8772E-03    -226.281E-03     452.162E-03    -226.604E-03     23.0005E-03
            1998     2.86972E-03     36.6567E-03    -105.501E+06    -197.304E+06    -81.9004E+06     17.1096E+03    -226.316E-03     453.056E-03    -226.740E-03     18.5953E-03    -226.441E-03     452.344E-03    -226.711E-03     18.7502E-03
            1999     2.15203E-03     36.6329E-03    -111.024E+06    -213.604E+06    -96.4449E+06    -23.0795E+03    -226.517E-03     453.314E-03    -226.796E-03     14.1247E-03    -226.624E-03     452.547E-03    -226.808E-03     14.2796E-03
            2000     1.43461E-03     36.6156E-03    -115.209E+06    -226.485E+06    -108.208E+06    -77.4706E+03    -226.702E-03     453.543E-03    -226.841E-03     9.53564E-03    -226.793E-03     452.735E-03    -226.887E-03     9.65414E-03
            2001     717.288E-06     36.6047E-03    -117.960E+06    -235.094E+06    -116.045E+06    -44.7196E+03    -226.873E-03     453.705E-03    -226.831E-03     5.11998E-03    -226.954E-03     452.868E-03    -226.900E-03     5.18580E-03
            2002     13.6614E-03     36.0560E-03    -4.17447E+06     73.0922E+06     94.6371E+06     168.683E+03    -222.649E-03     447.596E-03    -224.948E-03     43.2341E-03    -223.086E-03     448.004E-03    -224.575E-03     39.4140E-03
            2003     12.9401E-03     35.9898E-03    -9.80885E+06     68.4607E+06     93.3398E+06     358.584E+03    -222.480E-03     447.564E-03    -225.085E-03     50.0881E-03    -222.980E-03     448.003E-03    -224.703E-03     45.8910E-03
            2004     12.2189E-03     35.9195E-03    -17.0008E+06     61.4610E+06     87.1782E+06     211.445E+03    -222.636E-03     447.861E-03    -225.225E-03     51.5172E-03    -223.135E-03     448.265E-03    -224.853E-03     47.7439E-03
            2005     11.4986E-03     35.8472E-03    -23.2479E+06     54.6553E+06     77.2393E+06    -178.163E+03    -222.886E-03     448.241E-03    -225.355E-03     52.5382E-03    -223.378E-03     448.620E-03    -225.014E-03     49.1037E-03
            2006     10.7782E-03     35.7739E-03    -28.7407E+06     48.6783E+06     65.1753E+06    -105.148E+03    -223.082E-03     448.563E-03    -225.481E-03     52.4359E-03    -223.550E-03     448.913E-03    -225.184E-03     49.4692E-03
            2007     10.0577E-03     35.7013E-03    -34.8548E+06     39.5576E+06     53.8750E+06     246.367E+03    -223.272E-03     448.902E-03    -225.630E-03     51.4512E-03    -223.714E-03     449.204E-03    -225.367E-03     48.9812E-03
            2008     9.33740E-03     35.6302E-03    -41.7475E+06     27.3065E+06     45.0986E+06     568.491E+03    -223.536E-03     449.342E-03    -225.806E-03     49.7994E-03    -223.955E-03     449.579E-03    -225.560E-03     47.8090E-03
            2009     8.61743E-03     35.5617E-03    -48.7855E+06     493.132E+03     34.7300E+06     848.488E+03    -223.913E-03     449.912E-03    -225.999E-03     47.5846E-03    -224.289E-03     450.016E-03    -225.755E-03     46.0452E-03
            2010     7.89780E-03     35.4960E-03    -55.9280E+06    -36.3709E+06     21.6393E+06     660.254E+03    -224.356E-03     450.545E-03    -226.189E-03     44.9592E-03    -224.675E-03     450.474E-03    -225.947E-03     43.8093E-03
            2011     7.17855E-03     35.4342E-03    -63.1270E+06    -65.9761E+06     8.80960E+06     338.250E+03    -224.756E-03     451.118E-03    -226.362E-03     42.0388E-03    -225.033E-03     450.911E-03    -226.131E-03     41.2263E-03
            2012     6.45950E-03     35.3764E-03    -70.4261E+06    -92.0634E+06    -4.41017E+06     214.554E+03    -225.117E-03     451.638E-03    -226.521E-03     38.8139E-03    -225.360E-03     451.317E-03    -226.307E-03     38.2911E-03
            2013     5.74083E-03     35.3234E-03    -77.7161E+06    -115.915E+06    -18.3184E+06     158.818E+03    -225.477E-03     452.140E-03    -226.663E-03     35.2808E-03    -225.692E-03     451.721E-03    -226.474E-03     34.9919E-03
            2014     5.02252E-03     35.2754E-03    -85.0429E+06    -138.034E+06    -33.2476E+06     165.458E+03    -225.812E-03     452.598E-03    -226.786E-03     31.5136E-03    -226.003E-03     452.093E-03    -226.629E-03     31.4052E-03
            2015     4.30437E-03     35.2329E-03    -92.3433E+06    -159.178E+06    -49.2322E+06     22.8381E+03    -226.087E-03     452.978E-03    -226.891E-03     27.5279E-03    -226.255E-03     452.395E-03    -226.772E-03     27.5449E-03
            2016     3.58637E-03     35.1962E-03    -99.3564E+06    -179.320E+06    -65.5271E+06     7.17592E+03    -226.355E-03     453.336E-03    -226.981E-03     23.2877E-03    -226.502E-03     452.683E-03    -226.904E-03     23.3816E-03
            2017     2.86879E-03     35.1657E-03    -105.758E+06    -197.250E+06    -81.6202E+06     125.936E+03    -226.641E-03     453.690E-03    -227.049E-03     18.8559E-03    -226.768E-03     452.978E-03    -227.018E-03     18.9892E-03
            2018     2.15145E-03     35.1415E-03    -111.125E+06    -213.427E+06    -96.4108E+06     81.2638E+03    -226.875E-03     453.967E-03    -227.091E-03     14.3366E-03    -226.983E-03     453.201E-03    -227.103E-03     14.4782E-03
            2019     1.43424E-03     35.1238E-03    -115.344E+06    -226.585E+06    -108.332E+06    -62.7888E+03    -227.032E-03     454.142E-03    -227.111E-03     9.73964E-03    -227.123E-03     453.334E-03    -227.156E-03     9.85169E-03
            2020     717.109E-06     35.1130E-03    -118.380E+06    -235.448E+06    -116.310E+06     34.3447E+03    -227.165E-03     454.214E-03    -227.049E-03     5.33355E-03    -227.247E-03     453.377E-03    -227.118E-03     5.39893E-03
            2021     13.6597E-03     34.5750E-03    -5.44716E+06     71.7938E+06     92.6837E+06    -687.358E+03    -222.121E-03     447.095E-03    -224.974E-03     43.8396E-03    -222.561E-03     447.501E-03    -224.607E-03     40.0261E-03
            2022     12.9389E-03     34.5062E-03    -10.4892E+06     67.6904E+06     93.2141E+06     619.475E+03    -222.349E-03     447.488E-03    -225.139E-03     50.6300E-03    -222.853E-03     447.925E-03    -224.756E-03     46.4561E-03
            2023     12.2187E-03     34.4367E-03    -15.3058E+06     62.8894E+06     88.8810E+06     1.12808E+06    -222.435E-03     447.731E-03    -225.296E-03     51.9968E-03    -222.932E-03     448.139E-03    -224.920E-03     48.2254E-03
            2024     11.4975E-03     34.3635E-03    -22.0267E+06     55.8201E+06     77.3002E+06     439.070E+03    -222.564E-03     448.004E-03    -225.441E-03     53.2014E-03    -223.053E-03     448.390E-03    -225.103E-03     49.7717E-03
            2025     10.7767E-03     34.2899E-03    -29.1693E+06     48.1598E+06     64.1724E+06     21.1008E+03    -222.804E-03     448.399E-03    -225.595E-03     53.1079E-03    -223.275E-03     448.751E-03    -225.301E-03     50.1211E-03
            2026     10.0562E-03     34.2167E-03    -35.9593E+06     38.4976E+06     53.1294E+06     436.644E+03    -223.108E-03     448.880E-03    -225.772E-03     52.1108E-03    -223.555E-03     449.182E-03    -225.510E-03     49.6132E-03
            2027     9.33583E-03     34.1450E-03    -42.3886E+06     26.6192E+06     44.6748E+06     957.149E+03    -223.458E-03     449.428E-03    -225.970E-03     50.4238E-03    -223.882E-03     449.666E-03    -225.724E-03     48.3986E-03
            2028     8.61585E-03     34.0754E-03    -49.2131E+06      853.25E+03     34.6264E+06     880.859E+03    -223.875E-03     450.058E-03    -226.183E-03     48.2507E-03    -224.257E-03     450.168E-03    -225.940E-03     46.6633E-03
            2029     7.89620E-03     34.0091E-03    -56.0739E+06    -35.5165E+06     21.8760E+06     466.647E+03    -224.330E-03     450.725E-03    -226.395E-03     45.7107E-03    -224.655E-03     450.661E-03    -226.153E-03     44.5097E-03
            2030     7.17683E-03     33.9463E-03    -62.9593E+06    -65.6267E+06     9.12847E+06     198.656E+03    -224.769E-03     451.361E-03    -226.592E-03     42.8064E-03    -225.049E-03     451.158E-03    -226.360E-03     41.9420E-03
            2031     6.45792E-03     33.8879E-03    -70.1870E+06    -91.8265E+06    -4.21634E+06     96.0470E+03    -225.194E-03     451.968E-03    -226.773E-03     39.5648E-03    -225.439E-03     451.650E-03    -226.559E-03     38.9924E-03
            2032     5.73927E-03     33.8339E-03    -77.5887E+06    -115.967E+06    -18.3110E+06     52.7269E+03    -225.598E-03     452.535E-03    -226.937E-03     36.0197E-03    -225.813E-03     452.116E-03    -226.748E-03     35.6872E-03
            2033     5.02093E-03     33.7852E-03    -84.8579E+06    -138.003E+06    -33.2100E+06    -64.6685E+03    -225.986E-03     453.066E-03    -227.080E-03     32.1889E-03    -226.177E-03     452.562E-03    -226.923E-03     32.0360E-03
            2034     4.30297E-03     33.7421E-03    -92.0032E+06    -159.289E+06    -48.9266E+06    -14.5699E+03    -226.356E-03     453.556E-03    -227.200E-03     28.0496E-03    -226.523E-03     452.973E-03    -227.080E-03     28.0244E-03
            2035     3.58539E-03     33.7049E-03    -99.1027E+06    -179.528E+06    -65.2821E+06     100.321E+03    -226.687E-03     453.980E-03    -227.293E-03     23.6993E-03    -226.833E-03     453.326E-03    -227.216E-03     23.7629E-03
            2036     2.86798E-03     33.6737E-03    -105.479E+06    -197.305E+06    -81.4512E+06     125.665E+03    -226.968E-03     454.326E-03    -227.358E-03     19.2191E-03    -227.093E-03     453.613E-03    -227.326E-03     19.3286E-03
            2037     2.15082E-03     33.6492E-03    -110.762E+06    -213.210E+06    -96.1889E+06     102.033E+03    -227.176E-03     454.577E-03    -227.401E-03     14.6389E-03    -227.283E-03     453.812E-03    -227.412E-03     14.7564E-03
            2038     1.43376E-03     33.6312E-03    -114.996E+06    -226.503E+06    -108.026E+06     131.416E+03    -227.313E-03     454.747E-03    -227.434E-03     9.98272E-03    -227.403E-03     453.938E-03    -227.479E-03     10.0797E-03
            2039     716.878E-06     33.6203E-03    -117.636E+06    -235.379E+06    -115.948E+06     96.2799E+03    -227.410E-03     454.886E-03    -227.476E-03     5.50109E-03    -227.489E-03     454.048E-03    -227.544E-03     5.55998E-03
            2040     13.6592E-03     33.0911E-03    -5.10206E+06     72.2349E+06     93.2732E+06     105.166E+03    -221.816E-03     446.824E-03    -225.007E-03     43.3426E-03    -222.256E-03     447.231E-03    -224.638E-03     39.5324E-03
            2041     12.9387E-03     33.0238E-03    -11.4253E+06     66.7132E+06     92.0024E+06    -988.150E+03    -221.914E-03     447.103E-03    -225.189E-03     50.4461E-03    -222.421E-03     447.540E-03    -224.809E-03     46.2084E-03
            2042     12.2170E-03     32.9535E-03    -17.2971E+06     61.3791E+06     86.9963E+06    -313.276E+03    -222.071E-03     447.443E-03    -225.371E-03     52.4386E-03    -222.577E-03     447.852E-03    -225.000E-03     48.6279E-03
            2043     11.4963E-03     32.8805E-03    -22.4701E+06     56.2803E+06     77.4683E+06     885.524E+03    -222.335E-03     447.880E-03    -225.545E-03     53.6291E-03    -222.832E-03     448.272E-03    -225.207E-03     50.1577E-03
            2044     10.7753E-03     32.8061E-03    -28.4260E+06     49.4059E+06     64.7163E+06     737.369E+03    -222.601E-03     448.322E-03    -225.721E-03     53.5431E-03    -223.075E-03     448.682E-03    -225.428E-03     50.5192E-03
            2045     10.0546E-03     32.7321E-03    -34.5867E+06     37.4175E+06     53.4541E+06     470.969E+03    -222.973E-03     448.894E-03    -225.921E-03     52.6390E-03    -223.416E-03     449.193E-03    -225.658E-03     50.0898E-03
            2046     9.33431E-03     32.6594E-03    -41.1578E+06     25.7434E+06     45.3976E+06     998.888E+03    -223.349E-03     449.493E-03    -226.145E-03     51.1253E-03    -223.770E-03     449.728E-03    -225.896E-03     49.0491E-03
            2047     8.61418E-03     32.5892E-03    -48.0967E+06     2.15038E+06     35.6560E+06     997.723E+03    -223.773E-03     450.155E-03    -226.382E-03     49.0608E-03    -224.156E-03     450.272E-03    -226.137E-03     47.4178E-03
            2048     7.89441E-03     32.5218E-03    -55.1489E+06    -34.8122E+06     22.6420E+06     400.238E+03    -224.275E-03     450.896E-03    -226.621E-03     46.5699E-03    -224.600E-03     450.836E-03    -226.378E-03     45.3096E-03
            2049     7.17508E-03     32.4582E-03    -62.3888E+06    -65.4054E+06     9.53803E+06     157.738E+03    -224.790E-03     451.635E-03    -226.845E-03     43.6815E-03    -225.071E-03     451.434E-03    -226.612E-03     42.7648E-03
            2050     6.45607E-03     32.3987E-03    -69.7730E+06    -91.9242E+06    -3.98471E+06     148.880E+03    -225.291E-03     452.341E-03    -227.050E-03     40.3844E-03    -225.536E-03     452.023E-03    -226.835E-03     39.7587E-03
            2051     5.73752E-03     32.3440E-03    -77.2211E+06    -115.722E+06    -18.1968E+06     68.3179E+03    -225.753E-03     452.987E-03    -227.234E-03     36.7619E-03    -225.969E-03     452.571E-03    -227.046E-03     36.3760E-03
            2052     5.01937E-03     32.2944E-03    -84.7739E+06    -138.074E+06    -33.3746E+06    -18.5912E+03    -226.197E-03     453.593E-03    -227.396E-03     32.8537E-03    -226.388E-03     453.090E-03    -227.240E-03     32.6537E-03
            2053     4.30159E-03     32.2504E-03    -92.1771E+06    -159.739E+06    -49.2936E+06     70.0247E+03    -226.624E-03     454.155E-03    -227.531E-03     28.7040E-03    -226.791E-03     453.571E-03    -227.412E-03     28.6394E-03
            2054     3.58415E-03     32.2124E-03    -98.9558E+06    -179.516E+06    -65.6295E+06     167.792E+03    -226.994E-03     454.629E-03    -227.635E-03     24.3669E-03    -227.139E-03     453.976E-03    -227.559E-03     24.3955E-03
            2055     2.86701E-03     32.1809E-03    -105.177E+06    -197.202E+06    -81.6073E+06     75.9095E+03    -227.280E-03     454.992E-03    -227.712E-03     19.8215E-03    -227.405E-03     454.279E-03    -227.681E-03     19.9000E-03
            2056     2.15002E-03     32.1558E-03    -110.742E+06    -213.408E+06    -96.1750E+06     116.065E+03    -227.502E-03     455.273E-03    -227.771E-03     15.0901E-03    -227.608E-03     454.507E-03    -227.782E-03     15.1824E-03
            2057     1.43327E-03     32.1378E-03    -114.741E+06    -226.283E+06    -107.836E+06     193.715E+03    -227.675E-03     455.494E-03    -227.819E-03     10.2780E-03    -227.765E-03     454.686E-03    -227.863E-03     10.3608E-03
            2058     716.475E-06     32.1265E-03    -117.094E+06    -234.959E+06    -115.506E+06    -9.72832E+03    -227.765E-03     455.670E-03    -227.905E-03     5.62039E-03    -227.843E-03     454.833E-03    -227.972E-03     5.67510E-03
            2059     13.6603E-03     31.6097E-03    -4.55343E+06     72.2264E+06     93.9835E+06     520.258E+03    -221.401E-03     446.432E-03    -225.030E-03     43.6650E-03    -221.840E-03     446.839E-03    -224.659E-03     39.8540E-03
            2060     12.9376E-03     31.5425E-03    -9.88223E+06     67.5324E+06     92.7462E+06     896.640E+03    -221.469E-03     446.705E-03    -225.236E-03     50.8468E-03    -221.973E-03     447.144E-03    -224.856E-03     46.6371E-03
            2061     12.2165E-03     31.4710E-03    -16.6977E+06     60.9553E+06     86.5721E+06    -294.332E+03    -221.715E-03     447.157E-03    -225.442E-03     52.5516E-03    -222.219E-03     447.568E-03    -225.074E-03     48.7025E-03
            2062     11.4950E-03     31.3973E-03    -23.1844E+06     55.0031E+06     76.4106E+06    -829.878E+03    -221.994E-03     447.637E-03    -225.643E-03     53.9416E-03    -222.496E-03     448.030E-03    -225.307E-03     50.3940E-03
            2063     10.7740E-03     31.3224E-03    -28.7972E+06     48.9540E+06     64.8631E+06     128.280E+03    -222.351E-03     448.201E-03    -225.850E-03     54.2016E-03    -222.831E-03     448.565E-03    -225.555E-03     51.1209E-03
            2064     10.0533E-03     31.2475E-03    -35.0240E+06     36.8922E+06     53.4191E+06     809.450E+03    -222.733E-03     448.811E-03    -226.078E-03     53.4870E-03    -223.182E-03     449.112E-03    -225.814E-03     50.8976E-03
            2065     9.33254E-03     31.1741E-03    -41.5454E+06     25.5605E+06     45.1980E+06     664.629E+03    -223.145E-03     449.477E-03    -226.332E-03     52.0806E-03    -223.572E-03     449.716E-03    -226.083E-03     49.9518E-03
            2066     8.61230E-03     31.1026E-03    -48.0137E+06     2.59262E+06     35.9070E+06     560.157E+03    -223.651E-03     450.252E-03    -226.601E-03     50.0800E-03    -224.039E-03     450.375E-03    -226.356E-03     48.3762E-03
            2067     7.89247E-03     31.0345E-03    -55.1000E+06    -34.1934E+06     22.6585E+06     693.550E+03    -224.257E-03     451.126E-03    -226.868E-03     47.5750E-03    -224.587E-03     451.073E-03    -226.626E-03     46.2588E-03
            2068     7.17303E-03     30.9696E-03    -62.5374E+06    -65.3170E+06     9.30973E+06     563.052E+03    -224.846E-03     451.963E-03    -227.118E-03     44.6283E-03    -225.130E-03     451.767E-03    -226.886E-03     43.6575E-03
            2069     6.45418E-03     30.9091E-03    -69.8378E+06    -91.7922E+06    -4.10665E+06     320.690E+03    -225.404E-03     452.752E-03    -227.347E-03     41.2748E-03    -225.653E-03     452.438E-03    -227.133E-03     40.5905E-03
            2070     5.73572E-03     30.8533E-03    -77.2559E+06    -115.683E+06    -18.4057E+06     284.218E+03    -225.937E-03     453.490E-03    -227.553E-03     37.6157E-03    -226.155E-03     453.076E-03    -227.365E-03     37.1725E-03
            2071     5.01769E-03     30.8027E-03    -84.7206E+06    -137.960E+06    -33.6097E+06     332.594E+03    -226.417E-03     454.151E-03    -227.734E-03     33.6621E-03    -226.610E-03     453.650E-03    -227.579E-03     33.4112E-03
            2072     4.30001E-03     30.7579E-03    -92.0292E+06    -159.742E+06    -49.5234E+06     207.584E+03    -226.851E-03     454.742E-03    -227.891E-03     29.4384E-03    -227.018E-03     454.160E-03    -227.774E-03     29.3270E-03
            2073     3.58267E-03     30.7191E-03    -99.0747E+06    -179.506E+06    -65.8071E+06     129.180E+03    -227.262E-03     455.284E-03    -228.021E-03     24.9860E-03    -227.409E-03     454.632E-03    -227.947E-03     24.9700E-03
            2074     2.86571E-03     30.6869E-03    -105.522E+06    -197.140E+06    -81.9032E+06     159.817E+03    -227.617E-03     455.738E-03    -228.121E-03     20.3013E-03    -227.744E-03     455.028E-03    -228.091E-03     20.3395E-03
            2075     2.14905E-03     30.6615E-03    -110.796E+06    -213.464E+06    -96.2690E+06     158.374E+03    -227.902E-03     456.097E-03    -228.195E-03     15.4587E-03    -228.008E-03     455.332E-03    -228.207E-03     15.5218E-03
            2076     1.43251E-03     30.6430E-03    -115.019E+06    -226.179E+06    -108.002E+06     133.129E+03    -228.132E-03     456.371E-03    -228.239E-03     10.5154E-03    -228.223E-03     455.564E-03    -228.284E-03     10.5754E-03
            2077     716.374E-06     30.6314E-03    -117.262E+06    -234.678E+06    -115.825E+06    -59.7325E+03    -228.211E-03     456.493E-03    -228.281E-03     5.73307E-03    -228.289E-03     455.657E-03    -228.350E-03     5.76950E-03
            2078     13.6579E-03     30.1295E-03    -5.14954E+06     71.2958E+06     92.6409E+06    -60.0478E+03    -220.989E-03     446.045E-03    -225.056E-03     43.9157E-03    -221.428E-03     446.450E-03    -224.689E-03     40.1203E-03
            2079     12.9374E-03     30.0598E-03    -10.2345E+06     67.7250E+06     93.0729E+06     399.219E+03    -221.272E-03     446.559E-03    -225.287E-03     51.0242E-03    -221.781E-03     447.002E-03    -224.905E-03     46.7757E-03
            2080     12.2157E-03     29.9895E-03    -15.3478E+06     62.6772E+06     88.1252E+06     650.108E+03    -221.284E-03     446.801E-03    -225.517E-03     53.1336E-03    -221.791E-03     447.220E-03    -225.145E-03     49.2640E-03
            2081     11.4941E-03     29.9148E-03    -22.4098E+06     55.0600E+06     76.3288E+06     533.535E+03    -221.552E-03     447.299E-03    -225.747E-03     54.8201E-03    -222.053E-03     447.695E-03    -225.413E-03     51.2843E-03
            2082     10.7725E-03     29.8389E-03    -29.7761E+06     47.7194E+06     63.7502E+06      48.255E+03    -221.983E-03     447.972E-03    -225.989E-03     55.1366E-03    -222.469E-03     448.337E-03    -225.697E-03     52.0228E-03
            2083     10.0513E-03     29.7632E-03    -35.7693E+06      36.423E+06     53.2258E+06    -23.4571E+03    -222.481E-03     448.736E-03    -226.255E-03     54.5097E-03    -222.938E-03     449.042E-03    -225.990E-03     51.8640E-03
            2084     9.33060E-03     29.6886E-03    -41.6866E+06     25.3421E+06     44.9756E+06     282.834E+03    -222.986E-03     449.526E-03    -226.539E-03     53.0822E-03    -223.418E-03     449.769E-03    -226.291E-03     50.8898E-03
            2085     8.61013E-03     29.6162E-03    -48.6206E+06     2.33269E+06     35.1945E+06     483.676E+03    -223.573E-03     450.410E-03    -226.837E-03     51.0644E-03    -223.968E-03     450.539E-03    -226.594E-03     49.2937E-03
            2086     7.89025E-03     29.5465E-03    -55.7381E+06    -34.1457E+06     22.2399E+06     574.826E+03    -224.264E-03     451.397E-03    -227.133E-03     48.5505E-03    -224.601E-03     451.350E-03    -226.891E-03     47.1631E-03
            2087     7.17101E-03     29.4806E-03    -62.7474E+06    -64.9873E+06     9.10661E+06     613.193E+03    -224.912E-03     452.321E-03    -227.408E-03     45.5869E-03    -225.202E-03     452.130E-03    -227.177E-03     44.5424E-03
            2088     6.45207E-03     29.4187E-03    -70.0203E+06    -91.6085E+06    -4.42225E+06     571.153E+03    -225.519E-03     453.182E-03    -227.662E-03     42.2345E-03    -225.772E-03     452.873E-03    -227.450E-03     41.4866E-03
            2089     5.73372E-03     29.3618E-03    -77.4435E+06    -115.617E+06    -18.6175E+06     526.511E+03    -226.105E-03     453.999E-03    -227.894E-03     38.5265E-03    -226.327E-03     453.589E-03    -227.707E-03     38.0223E-03
            2090     5.01580E-03     29.3102E-03    -84.8714E+06    -137.875E+06    -33.7520E+06     472.611E+03    -226.643E-03     454.741E-03    -228.098E-03     34.4897E-03    -226.838E-03     454.244E-03    -227.944E-03     34.1783E-03
            2091     4.29834E-03     29.2644E-03    -92.1804E+06    -159.516E+06    -49.5903E+06     467.759E+03    -227.144E-03     455.421E-03    -228.277E-03     30.1601E-03    -227.314E-03     454.841E-03    -228.160E-03     29.9974E-03
            2092     3.58127E-03     29.2248E-03    -99.1366E+06    -179.329E+06    -65.9270E+06     355.661E+03    -227.585E-03     456.009E-03    -228.424E-03     25.5565E-03    -227.733E-03     455.359E-03    -228.350E-03     25.4948E-03
            2093     2.86454E-03     29.1917E-03    -105.513E+06    -197.029E+06    -82.0290E+06     238.090E+03    -227.972E-03     456.514E-03    -228.542E-03     20.7340E-03    -228.099E-03     455.805E-03    -228.513E-03     20.7332E-03
            2094     2.14811E-03     29.1658E-03    -110.999E+06    -213.256E+06    -96.5222E+06     211.860E+03    -228.325E-03     456.952E-03    -228.627E-03     15.7968E-03    -228.433E-03     456.189E-03    -228.640E-03     15.8309E-03
            2095     1.43205E-03     29.1467E-03    -115.030E+06    -225.789E+06    -108.127E+06     121.344E+03    -228.555E-03     457.233E-03    -228.678E-03     10.7461E-03    -228.647E-03     456.428E-03    -228.724E-03     10.7808E-03
            2096     715.899E-06     29.1352E-03    -117.871E+06    -234.582E+06    -115.979E+06     187.907E+03    -228.680E-03     457.379E-03    -228.699E-03     5.87223E-03    -228.761E-03     456.546E-03    -228.768E-03     5.89201E-03
            2097     13.6593E-03     28.6468E-03    -5.03328E+06     71.8575E+06     92.9966E+06     51.4876E+03    -220.525E-03     445.597E-03    -225.072E-03     43.5762E-03    -220.965E-03     446.005E-03    -224.704E-03     39.7600E-03
            2098     12.9368E-03     28.5796E-03    -10.7884E+06     67.4596E+06     92.1058E+06    -600.269E+03    -220.445E-03     445.780E-03    -225.336E-03     51.4570E-03    -220.958E-03     446.227E-03    -224.957E-03     47.1877E-03
            2099     12.2143E-03     28.5079E-03    -17.2630E+06     61.1554E+06     86.8297E+06     204.602E+03    -220.798E-03     446.409E-03    -225.611E-03     54.0726E-03    -221.314E-03     446.829E-03    -225.240E-03     50.1949E-03
            2100     11.4924E-03     28.4328E-03    -22.7035E+06     55.0605E+06     77.1682E+06     1.04173E+06    -221.256E-03     447.135E-03    -225.879E-03     55.7415E-03    -221.765E-03     447.535E-03    -225.540E-03     52.1837E-03
            2101     10.7707E-03     28.3559E-03    -28.4264E+06     49.1120E+06     64.7727E+06     797.732E+03    -221.725E-03     447.872E-03    -226.147E-03     56.0028E-03    -222.213E-03     448.246E-03    -225.853E-03     52.8534E-03
            2102     10.0494E-03     28.2789E-03    -35.2892E+06     36.8517E+06     52.8538E+06     45.9676E+03    -222.280E-03     448.718E-03    -226.439E-03     55.3309E-03    -222.741E-03     449.032E-03    -226.177E-03     52.6204E-03
            2103     9.32845E-03     28.2031E-03    -42.2565E+06     24.5128E+06     44.2302E+06    -72.5296E+03    -222.876E-03     449.629E-03    -226.753E-03     53.9411E-03    -223.314E-03     449.876E-03    -226.506E-03     51.6688E-03
            2104     8.60810E-03     28.1293E-03    -48.7697E+06     1.87089E+06     34.8366E+06     282.682E+03    -223.527E-03     450.605E-03    -227.078E-03     51.9729E-03    -223.927E-03     450.738E-03    -226.836E-03     50.1201E-03
            2105     7.88821E-03     28.0583E-03    -55.5850E+06    -34.6623E+06     21.8657E+06     572.465E+03    -224.245E-03     451.646E-03    -227.401E-03     49.5098E-03    -224.585E-03     451.602E-03    -227.161E-03     48.0509E-03
            2106     7.16873E-03     27.9909E-03    -62.9175E+06    -65.1410E+06     8.67402E+06     792.550E+03    -224.962E-03     452.666E-03    -227.705E-03     46.5253E-03    -225.255E-03     452.480E-03    -227.476E-03     45.4131E-03
            2107     6.44999E-03     27.9279E-03    -70.4031E+06    -91.3725E+06    -4.77829E+06     899.861E+03    -225.639E-03     453.625E-03    -227.986E-03     43.1271E-03    -225.897E-03     453.322E-03    -227.775E-03     42.3158E-03
            2108     5.73166E-03     27.8695E-03    -77.9722E+06    -115.318E+06    -18.9811E+06     795.768E+03    -226.270E-03     454.513E-03    -228.243E-03     39.3552E-03    -226.497E-03     454.109E-03    -228.057E-03     38.7910E-03
            2109     5.01390E-03     27.8168E-03    -85.5513E+06    -137.798E+06    -34.1270E+06     670.634E+03    -226.878E-03     455.350E-03    -228.472E-03     35.2517E-03    -227.078E-03     454.856E-03    -228.319E-03     34.8847E-03
            2110     4.29658E-03     27.7699E-03    -92.8631E+06    -159.212E+06    -50.1333E+06     566.976E+03    -227.450E-03     456.119E-03    -228.668E-03     30.8670E-03    -227.625E-03     455.544E-03    -228.554E-03     30.6548E-03
            2111     3.57979E-03     27.7293E-03    -99.7048E+06    -178.917E+06    -66.4769E+06     419.706E+03    -227.945E-03     456.775E-03    -228.830E-03     26.1611E-03    -228.096E-03     456.130E-03    -228.758E-03     26.0530E-03
            2112     2.86330E-03     27.6956E-03    -105.851E+06    -196.828E+06    -82.3579E+06     338.861E+03    -228.363E-03     457.321E-03    -228.958E-03     21.2448E-03    -228.492E-03     456.615E-03    -228.931E-03     21.2111E-03
            2113     2.14719E-03     27.6686E-03    -111.151E+06    -212.775E+06    -96.8704E+06     184.992E+03    -228.705E-03     457.761E-03    -229.056E-03     16.1839E-03    -228.814E-03     457.001E-03    -229.071E-03     16.1915E-03
            2114     1.43126E-03     27.6494E-03    -115.313E+06    -225.576E+06    -108.527E+06     67.0333E+03    -228.959E-03     458.088E-03    -229.128E-03     10.9933E-03    -229.053E-03     457.285E-03    -229.177E-03     11.0067E-03
            2115     715.600E-06     27.6375E-03    -117.976E+06    -234.430E+06    -116.157E+06     197.266E+03    -229.111E-03     458.308E-03    -229.197E-03     6.00849E-03    -229.193E-03     457.475E-03    -229.266E-03     6.02168E-03
            2116     13.6588E-03     27.1694E-03    -4.65943E+06     71.8148E+06     93.2623E+06     449.519E+03    -219.777E-03     444.888E-03    -225.111E-03     44.7468E-03    -220.218E-03     445.297E-03    -224.742E-03     40.9517E-03
            2117     12.9353E-03     27.0999E-03    -10.6604E+06     67.4248E+06     92.1854E+06     1.36767E+06    -220.048E-03     445.458E-03    -225.410E-03     52.4728E-03    -220.561E-03     445.905E-03    -225.031E-03     48.2815E-03
            2118     12.2130E-03     27.0270E-03    -16.6734E+06     60.7865E+06     86.6626E+06     157.760E+03    -220.514E-03     446.224E-03    -225.710E-03     54.4615E-03    -221.031E-03     446.646E-03    -225.341E-03     50.5432E-03
            2119     11.4908E-03     26.9509E-03    -22.8973E+06     54.4559E+06     76.5056E+06    -336.652E+03    -220.982E-03     446.983E-03    -226.001E-03     56.1364E-03    -221.496E-03     447.388E-03    -225.665E-03     52.4911E-03
            2120     10.7691E-03     26.8727E-03    -28.7755E+06     48.8785E+06     64.8759E+06     301.289E+03    -221.498E-03     447.798E-03    -226.299E-03     56.5947E-03    -221.995E-03     448.177E-03    -226.004E-03     53.3674E-03
            2121     10.0475E-03     26.7948E-03    -34.6174E+06     37.6781E+06     53.5129E+06     816.031E+03    -222.089E-03     448.707E-03    -226.618E-03     56.0851E-03    -222.555E-03     449.029E-03    -226.355E-03     53.3164E-03
            2122     9.32661E-03     26.7174E-03    -41.3201E+06     24.6709E+06     44.2348E+06     603.421E+03    -222.730E-03     449.689E-03    -226.958E-03     54.8109E-03    -223.170E-03     449.941E-03    -226.713E-03     52.4841E-03
            2123     8.60601E-03     26.6423E-03    -48.8630E+06     721.827E+03     33.9377E+06     692.901E+03    -223.466E-03     450.777E-03    -227.311E-03     52.9152E-03    -223.868E-03     450.910E-03    -227.072E-03     51.0070E-03
            2124     7.88600E-03     26.5698E-03    -56.5826E+06    -35.0092E+06     20.9365E+06     1.11678E+06    -224.274E-03     451.935E-03    -227.660E-03     50.3968E-03    -224.621E-03     451.896E-03    -227.423E-03     48.8839E-03
            2125     7.16670E-03     26.5009E-03    -64.0646E+06    -65.0102E+06     8.02459E+06     1.10704E+06    -225.043E-03     453.031E-03    -227.988E-03     47.3069E-03    -225.345E-03     452.851E-03    -227.760E-03     46.1413E-03
            2126     6.44787E-03     26.4362E-03    -71.3176E+06    -91.1357E+06    -5.30344E+06     927.728E+03    -225.781E-03     454.071E-03    -228.290E-03     43.8010E-03    -226.045E-03     453.774E-03    -228.081E-03     42.9301E-03
            2127     5.72971E-03     26.3767E-03    -78.5326E+06    -114.911E+06    -19.3753E+06     797.037E+03    -226.471E-03     455.036E-03    -228.566E-03     39.9267E-03    -226.703E-03     454.638E-03    -228.382E-03     39.3044E-03
            2128     5.01203E-03     26.3225E-03    -85.6995E+06    -137.317E+06    -34.3116E+06     597.458E+03    -227.128E-03     455.939E-03    -228.811E-03     35.7265E-03    -227.331E-03     455.450E-03    -228.659E-03     35.3072E-03
            2129     4.29497E-03     26.2743E-03    -92.7722E+06    -158.813E+06    -50.0088E+06     402.499E+03    -227.729E-03     456.752E-03    -229.023E-03     31.2148E-03    -227.906E-03     456.181E-03    -228.908E-03     30.9508E-03
            2130     3.57828E-03     26.2327E-03    -99.5620E+06    -178.699E+06    -66.2357E+06     317.173E+03    -228.265E-03     457.462E-03    -229.197E-03     26.4346E-03    -228.417E-03     456.818E-03    -229.125E-03     26.2835E-03
            2131     2.86217E-03     26.1980E-03    -105.760E+06    -196.482E+06    -82.1997E+06     177.779E+03    -228.728E-03     458.060E-03    -229.331E-03     21.4631E-03    -228.859E-03     457.356E-03    -229.304E-03     21.3908E-03
            2132     2.14629E-03     26.1706E-03    -111.107E+06    -212.472E+06    -96.6851E+06     147.449E+03    -229.070E-03     458.503E-03    -229.433E-03     16.2864E-03    -229.180E-03     457.745E-03    -229.447E-03     16.2613E-03
            2133     1.43067E-03     26.1507E-03    -115.253E+06    -225.559E+06    -108.418E+06     132.921E+03    -229.337E-03     458.844E-03    -229.507E-03     11.0335E-03    -229.430E-03     458.042E-03    -229.555E-03     11.0310E-03
            2134     715.315E-06     26.1382E-03    -117.708E+06    -234.113E+06    -115.935E+06    -125.785E+03    -229.493E-03     459.066E-03    -229.573E-03     5.94391E-03    -229.574E-03     458.234E-03    -229.643E-03     5.93275E-03
            2135     13.6561E-03     25.6895E-03    -5.21588E+06     71.0481E+06     93.1778E+06     388.172E+03    -219.627E-03     444.794E-03    -225.167E-03     44.5010E-03    -220.071E-03     445.202E-03    -224.797E-03     40.6885E-03
            2136     12.9347E-03     25.6197E-03    -10.4431E+06     67.5659E+06     93.3168E+06    -76.0850E+03    -220.038E-03     445.514E-03    -225.476E-03     52.0417E-03    -220.558E-03     445.966E-03    -225.092E-03     47.7235E-03
            2137     12.2122E-03     25.5466E-03    -15.7666E+06     61.5654E+06     87.7987E+06     315.931E+03    -220.201E-03     445.987E-03    -225.786E-03     54.6001E-03    -220.721E-03     446.415E-03    -225.414E-03     50.6089E-03
            2138     11.4899E-03     25.4691E-03    -22.2422E+06     54.8555E+06     76.3514E+06     440.492E+03    -220.605E-03     446.704E-03    -226.099E-03     56.5804E-03    -221.122E-03     447.116E-03    -225.765E-03     52.8860E-03
            2139     10.7676E-03     25.3903E-03    -29.1887E+06     48.2721E+06     63.5370E+06     163.041E+03    -221.172E-03     447.597E-03    -226.425E-03     57.2749E-03    -221.673E-03     447.982E-03    -226.135E-03     53.9998E-03
            2140     10.0460E-03     25.3104E-03    -35.8981E+06     36.7142E+06     52.2231E+06     419.282E+03    -221.891E-03     448.667E-03    -226.776E-03     56.8846E-03    -222.365E-03     448.992E-03    -226.516E-03     54.0686E-03
            2141     9.32471E-03     25.2320E-03    -42.5728E+06     23.7789E+06     43.4424E+06     1.57035E+06    -222.665E-03     449.808E-03    -227.143E-03     55.5215E-03    -223.113E-03     450.064E-03    -226.899E-03     53.1618E-03
            2142     8.60402E-03     25.1550E-03    -49.8420E+06     729.473E+03     33.6428E+06     2.12118E+06    -223.513E-03     451.027E-03    -227.515E-03     53.4394E-03    -223.923E-03     451.166E-03    -227.275E-03     51.5051E-03
            2143     7.88417E-03     25.0808E-03    -57.0841E+06    -34.1608E+06     21.0239E+06     1.46440E+06    -224.401E-03     452.276E-03    -227.875E-03     50.7421E-03    -224.755E-03     452.245E-03    -227.638E-03     49.1801E-03
            2144     7.16486E-03     25.0103E-03    -64.0095E+06    -64.3308E+06     8.26995E+06     911.151E+03    -225.214E-03     453.424E-03    -228.210E-03     47.5268E-03    -225.520E-03     453.250E-03    -227.982E-03     46.3047E-03
            2145     6.44626E-03     24.9441E-03    -71.0951E+06    -90.5503E+06    -5.06662E+06     613.964E+03    -225.978E-03     454.495E-03    -228.517E-03     43.8836E-03    -226.245E-03     454.202E-03    -228.308E-03     42.9614E-03
            2146     5.72821E-03     24.8829E-03    -78.2513E+06    -114.524E+06    -19.1212E+06     310.329E+03    -226.720E-03     455.513E-03    -228.793E-03     39.8795E-03    -226.953E-03     455.117E-03    -228.609E-03     39.2083E-03
            2147     5.01081E-03     24.8274E-03    -85.3613E+06    -136.892E+06    -34.0051E+06     157.661E+03    -227.396E-03     456.429E-03    -229.033E-03     35.5567E-03    -227.599E-03     455.942E-03    -228.881E-03     35.0940E-03
            2148     4.29387E-03     24.7779E-03    -92.4352E+06    -158.609E+06    -49.7628E+06     78.3998E+03    -227.982E-03     457.220E-03    -229.237E-03     30.9269E-03    -228.159E-03     456.649E-03    -229.122E-03     30.6228E-03
            2149     3.57749E-03     24.7353E-03    -99.2136E+06    -178.589E+06    -65.9144E+06     20.5193E+03    -228.493E-03     457.898E-03    -229.406E-03     26.1098E-03    -228.644E-03     457.255E-03    -229.332E-03     25.9277E-03
            2150     2.86139E-03     24.6995E-03    -105.386E+06    -196.304E+06    -81.7859E+06     87.7158E+03    -228.931E-03     458.469E-03    -229.538E-03     21.1328E-03    -229.061E-03     457.765E-03    -229.509E-03     21.0353E-03
            2151     2.14580E-03     24.6715E-03    -110.759E+06    -212.544E+06    -96.3389E+06     93.6356E+03    -229.295E-03     458.930E-03    -229.634E-03     16.0415E-03    -229.404E-03     458.170E-03    -229.647E-03     15.9968E-03
            2152     1.43045E-03     24.6509E-03    -114.521E+06    -225.219E+06    -107.744E+06     92.8097E+03    -229.542E-03     459.244E-03    -229.701E-03     10.9018E-03    -229.633E-03     458.441E-03    -229.748E-03     10.8907E-03
            2153     715.125E-06     24.6384E-03    -117.448E+06    -234.047E+06    -115.455E+06    -2.33184E+03    -229.706E-03     459.447E-03    -229.741E-03     5.93262E-03    -229.787E-03     458.615E-03    -229.808E-03     5.92445E-03
            2154     13.6585E-03     24.2097E-03    -5.18918E+06     71.1910E+06     93.6344E+06    -115.222E+03    -219.429E-03     444.603E-03    -225.174E-03     43.9909E-03    -219.877E-03     445.014E-03    -224.802E-03     40.1098E-03
            2155     12.9346E-03     24.1406E-03    -10.0062E+06     67.0874E+06     93.1663E+06    -410.312E+03    -219.404E-03     444.907E-03    -225.503E-03     52.3812E-03    -219.926E-03     445.362E-03    -225.120E-03     48.0104E-03
            2156     12.2117E-03     24.0664E-03    -16.3599E+06     60.5965E+06     87.3121E+06     482.727E+03    -219.776E-03     445.624E-03    -225.849E-03     55.4604E-03    -220.301E-03     446.054E-03    -225.476E-03     51.4634E-03
            2157     11.4888E-03     23.9884E-03    -22.6671E+06     54.4779E+06     76.2828E+06     1.00831E+06    -220.376E-03     446.565E-03    -226.189E-03     57.4508E-03    -220.898E-03     446.979E-03    -225.854E-03     53.7561E-03
            2158     10.7664E-03     23.9078E-03    -29.1814E+06     48.1694E+06     62.8023E+06     1.65237E+06    -221.113E-03     447.641E-03    -226.528E-03     57.8649E-03    -221.616E-03     448.029E-03    -226.242E-03     54.5927E-03
            2159     10.0444E-03     23.8266E-03    -36.5204E+06     35.8274E+06     50.7241E+06     2.15034E+06    -221.957E-03     448.843E-03    -226.886E-03     57.1063E-03    -222.433E-03     449.169E-03    -226.631E-03     54.2880E-03
            2160     9.32333E-03     23.7460E-03    -43.7772E+06     23.1647E+06     42.7316E+06     1.91458E+06    -222.854E-03     450.110E-03    -227.256E-03     55.4277E-03    -223.308E-03     450.367E-03    -227.012E-03     53.0395E-03
            2161     8.60303E-03     23.6673E-03    -50.2071E+06     1.79771E+06     34.1020E+06     1.45971E+06    -223.750E-03     451.370E-03    -227.620E-03     53.1214E-03    -224.166E-03     451.515E-03    -227.379E-03     51.1459E-03
            2162     7.88320E-03     23.5913E-03    -56.5201E+06    -32.7336E+06     21.7919E+06     1.00593E+06    -224.641E-03     452.607E-03    -227.966E-03     50.2134E-03    -224.996E-03     452.582E-03    -227.728E-03     48.6172E-03
            2163     7.16419E-03     23.5191E-03    -63.3090E+06    -63.4559E+06     8.96297E+06     395.224E+03    -225.475E-03     453.757E-03    -228.282E-03     46.7976E-03    -225.780E-03     453.586E-03    -228.054E-03     45.5415E-03
            2164     6.44573E-03     23.4514E-03    -70.3163E+06    -89.8976E+06    -4.23510E+06     24.3929E+03    -226.249E-03     454.814E-03    -228.565E-03     43.0140E-03    -226.514E-03     454.522E-03    -228.354E-03     42.0641E-03
            2165     5.72792E-03     23.3887E-03    -77.3668E+06    -114.229E+06    -18.3610E+06    -91.3217E+03    -226.963E-03     455.774E-03    -228.811E-03     38.8967E-03    -227.193E-03     455.377E-03    -228.625E-03     38.2062E-03
            2166     5.01068E-03     23.3317E-03    -84.5114E+06    -136.973E+06    -33.4312E+06    -133.297E+03    -227.579E-03     456.597E-03    -229.018E-03     34.5139E-03    -227.779E-03     456.108E-03    -228.864E-03     34.0300E-03
            2167     4.29399E-03     23.2811E-03    -91.5779E+06    -158.503E+06    -49.2082E+06    -113.872E+03    -228.097E-03     457.288E-03    -229.191E-03     29.9411E-03    -228.270E-03     456.715E-03    -229.074E-03     29.6192E-03
            2168     3.57764E-03     23.2373E-03    -98.4175E+06    -178.550E+06    -65.4236E+06    -63.1374E+03    -228.535E-03     457.865E-03    -229.330E-03     25.2186E-03    -228.683E-03     457.220E-03    -229.255E-03     25.0222E-03
            2169     2.86173E-03     23.2009E-03    -104.659E+06    -196.505E+06    -81.3887E+06     29.4032E+03    -228.891E-03     458.330E-03    -229.439E-03     20.3632E-03    -229.017E-03     457.623E-03    -229.409E-03     20.2569E-03
            2170     2.14593E-03     23.1720E-03    -109.765E+06    -212.406E+06    -95.7075E+06    -37.9071E+03    -229.199E-03     458.723E-03    -229.524E-03     15.4292E-03    -229.304E-03     457.962E-03    -229.536E-03     15.3780E-03
            2171     1.43043E-03     23.1511E-03    -114.006E+06    -225.299E+06    -107.243E+06    -42.9609E+03    -229.442E-03     459.025E-03    -229.583E-03     10.4367E-03    -229.531E-03     458.220E-03    -229.627E-03     10.4119E-03
            2172     715.206E-06     23.1382E-03    -116.470E+06    -233.924E+06    -114.666E+06     269.856E+03    -229.565E-03     459.199E-03    -229.634E-03     5.66435E-03    -229.642E-03     458.365E-03    -229.699E-03     5.66044E-03
            2173     13.6570E-03     22.7327E-03    -4.49151E+06     70.9119E+06     92.6305E+06    -432.549E+03    -218.629E-03     443.807E-03    -225.178E-03     45.1708E-03    -219.074E-03     444.218E-03    -224.811E-03     41.3162E-03
            2174     12.9338E-03     22.6620E-03    -10.0985E+06     65.9930E+06     91.9669E+06     812.277E+03    -219.078E-03     444.620E-03    -225.543E-03     53.4547E-03    -219.599E-03     445.073E-03    -225.164E-03     49.1415E-03
            2175     12.2104E-03     22.5872E-03    -16.4707E+06     60.2430E+06     86.5070E+06     991.718E+03    -219.739E-03     445.643E-03    -225.904E-03     55.9951E-03    -220.266E-03     446.075E-03    -225.535E-03     51.9996E-03
            2176     11.4877E-03     22.5071E-03    -22.5950E+06     54.3204E+06     76.5029E+06     769.117E+03    -220.605E-03     446.851E-03    -226.246E-03     57.5597E-03    -221.130E-03     447.267E-03    -225.910E-03     53.8396E-03
            2177     10.7656E-03     22.4252E-03    -28.1513E+06     45.2002E+06     64.2656E+06     1.60795E+06    -221.549E-03     448.125E-03    -226.576E-03     57.5741E-03    -222.047E-03     448.497E-03    -226.279E-03     54.2644E-03
            2178     10.0444E-03     22.3421E-03    -33.5815E+06     34.9860E+06     53.8113E+06     3.28573E+06    -222.466E-03     449.369E-03    -226.903E-03     56.4652E-03    -222.931E-03     449.683E-03    -226.636E-03     53.6278E-03
            2179     9.32366E-03     22.2597E-03    -39.9134E+06     26.1574E+06     45.9061E+06     2.99589E+06    -223.313E-03     450.541E-03    -227.228E-03     54.4978E-03    -223.756E-03     450.802E-03    -226.979E-03     52.1013E-03
            2180     8.60342E-03     22.1792E-03    -47.2412E+06     3.72855E+06     36.1599E+06     1.39531E+06    -224.169E-03     451.716E-03    -227.547E-03     51.9228E-03    -224.575E-03     451.862E-03    -227.303E-03     49.9285E-03
            2181     7.88412E-03     22.1015E-03    -54.4533E+06    -31.3191E+06     23.5580E+06     399.025E+03    -225.030E-03     452.875E-03    -227.845E-03     48.8028E-03    -225.378E-03     452.850E-03    -227.603E-03     47.1906E-03
            2182     7.16529E-03     22.0278E-03    -61.3736E+06    -62.5166E+06     10.4507E+06    -79.9555E+03    -225.833E-03     453.938E-03    -228.105E-03     45.1979E-03    -226.130E-03     453.765E-03    -227.873E-03     43.9318E-03
            2183     6.44720E-03     21.9584E-03     -68.465E+06    -89.8836E+06    -3.11960E+06    -201.383E+03    -226.532E-03     454.857E-03    -228.325E-03     41.2668E-03    -226.787E-03     454.559E-03    -228.111E-03     40.3052E-03
            2184     5.72964E-03     21.8944E-03    -75.7786E+06    -114.218E+06    -17.3347E+06    -75.6445E+03    -227.086E-03     455.595E-03    -228.508E-03     37.1294E-03    -227.309E-03     455.193E-03    -228.319E-03     36.4286E-03
            2185     5.01251E-03     21.8362E-03    -83.1200E+06    -136.934E+06    -32.4965E+06     15.8793E+03    -227.544E-03     456.202E-03    -228.659E-03     32.8287E-03    -227.738E-03     455.709E-03    -228.502E-03     32.3358E-03
            2186     4.29570E-03     21.7847E-03    -90.3539E+06    -158.612E+06    -48.3593E+06     66.1494E+03    -227.943E-03     456.722E-03    -228.779E-03     28.4029E-03    -228.110E-03     456.146E-03    -228.660E-03     28.0736E-03
            2187     3.57928E-03     21.7400E-03    -97.2410E+06    -178.594E+06    -64.6360E+06     113.188E+03    -228.276E-03     457.146E-03    -228.870E-03     23.8458E-03    -228.420E-03     456.498E-03    -228.793E-03     23.6386E-03
            2188     2.86302E-03     21.7029E-03    -103.442E+06    -196.483E+06    -80.4000E+06     34.5168E+03    -228.547E-03     457.482E-03    -228.934E-03     19.1877E-03    -228.669E-03     456.772E-03    -228.902E-03     19.0668E-03
            2189     2.14713E-03     21.6735E-03    -108.830E+06    -212.363E+06    -94.6643E+06     94.8067E+03    -228.752E-03     457.730E-03    -228.978E-03     14.4653E-03    -228.854E-03     456.967E-03    -228.986E-03     14.4019E-03
            2190     1.43135E-03     21.6521E-03    -113.004E+06    -225.212E+06    -106.394E+06     82.4737E+03    -228.896E-03     457.903E-03    -229.007E-03     9.74342E-03    -228.981E-03     457.096E-03    -229.049E-03     9.70875E-03
            2191     715.651E-06     21.6389E-03    -115.409E+06    -233.596E+06    -113.778E+06    -44.7509E+03    -228.952E-03     458.028E-03    -229.076E-03     5.32626E-03    -229.026E-03     457.193E-03    -229.139E-03     5.31128E-03
            2192     13.6566E-03     21.2545E-03    -4.74380E+06     70.3344E+06     91.2957E+06     112.036E+03    -218.486E-03     443.680E-03    -225.194E-03     45.2221E-03    -218.930E-03     444.092E-03    -224.833E-03     41.3664E-03
            2193     12.9331E-03     21.1839E-03    -10.9322E+06     65.0935E+06     90.3690E+06     75.2127E+03    -219.333E-03     444.889E-03    -225.556E-03     53.1268E-03    -219.857E-03     445.343E-03    -225.183E-03     48.7570E-03
            2194     12.2104E-03     21.1069E-03    -16.3446E+06     60.5183E+06     86.1319E+06     1.76161E+03    -220.298E-03     446.194E-03    -225.896E-03     55.5478E-03    -220.828E-03     446.631E-03    -225.529E-03     51.4727E-03
            2195     11.4882E-03     21.0257E-03    -21.5158E+06     54.6551E+06     76.6410E+06    -197.365E+03    -221.277E-03     447.476E-03    -226.199E-03     56.7799E-03    -221.799E-03     447.893E-03    -225.864E-03     52.9836E-03
            2196     10.7667E-03     20.9415E-03    -27.0260E+06     42.1239E+06     64.5793E+06     219.986E+03    -222.283E-03     448.764E-03    -226.481E-03     56.5635E-03    -222.770E-03     449.118E-03    -226.180E-03     53.1990E-03
            2197     10.0458E-03     20.8568E-03    -32.3082E+06     32.2961E+06     55.3573E+06     1.40932E+06    -223.234E-03     449.984E-03    -226.749E-03     55.2273E-03    -223.690E-03     450.279E-03    -226.472E-03     52.3367E-03
            2198     9.32565E-03     20.7728E-03    -37.6524E+06     27.9067E+06     48.6070E+06     2.48518E+06    -224.058E-03     451.054E-03    -226.996E-03     52.9387E-03    -224.494E-03     451.315E-03    -226.739E-03     50.5179E-03
            2199     8.60624E-03     20.6907E-03    -43.7461E+06     6.93811E+06     39.0593E+06     2.18172E+06    -224.833E-03     452.060E-03    -227.227E-03     49.9603E-03    -225.227E-03     452.210E-03    -226.978E-03     47.9655E-03
            2200     7.88718E-03     20.6116E-03    -50.9742E+06    -29.4024E+06     25.6722E+06     1.20722E+06    -225.577E-03     453.008E-03    -227.431E-03     46.5441E-03    -225.910E-03     452.981E-03    -227.186E-03     44.9380E-03
            2201     7.16891E-03     20.5362E-03    -58.7636E+06    -62.0584E+06     11.8010E+06     841.634E+03    -226.210E-03     453.803E-03    -227.593E-03     42.7778E-03    -226.493E-03     453.623E-03    -227.359E-03     41.5197E-03
            2202     6.45109E-03     20.4658E-03    -66.6714E+06     -89.529E+06    -2.10118E+06     794.255E+03    -226.686E-03     454.402E-03    -227.716E-03     38.8017E-03    -226.933E-03     454.101E-03    -227.500E-03     37.8424E-03
            2203     5.73358E-03     20.4008E-03    -74.4667E+06    -113.993E+06    -16.4903E+06     600.838E+03    -227.031E-03     454.837E-03    -227.806E-03     34.6916E-03    -227.247E-03     454.432E-03    -227.615E-03     33.9841E-03
            2204     5.01631E-03     20.3419E-03    -82.0455E+06    -136.633E+06    -31.5965E+06     496.576E+03    -227.289E-03     455.157E-03    -227.868E-03     30.4356E-03    -227.478E-03     454.661E-03    -227.708E-03     29.9339E-03
            2205     4.29933E-03     20.2896E-03    -89.4275E+06    -158.417E+06    -47.5868E+06     486.321E+03    -227.494E-03     455.397E-03    -227.903E-03     26.1067E-03    -227.658E-03     454.819E-03    -227.782E-03     25.7702E-03
            2206     3.58250E-03     20.2445E-03    -96.3870E+06    -178.272E+06    -63.8565E+06     402.499E+03    -227.654E-03     455.568E-03    -227.914E-03     21.7341E-03    -227.794E-03     454.919E-03    -227.835E-03     21.5174E-03
            2207     2.86595E-03     20.2068E-03    -102.732E+06    -196.224E+06    -79.6722E+06     328.589E+03    -227.760E-03     455.665E-03    -227.905E-03     17.3730E-03    -227.879E-03     454.954E-03    -227.870E-03     17.2426E-03
            2208     2.14939E-03     20.1771E-03    -108.057E+06    -212.219E+06    -93.9330E+06     257.651E+03    -227.803E-03     455.690E-03    -227.886E-03     13.0527E-03    -227.903E-03     454.924E-03    -227.891E-03     12.9783E-03
            2209     1.43289E-03     20.1556E-03    -112.044E+06    -224.754E+06    -105.392E+06     169.909E+03    -227.818E-03     455.689E-03    -227.871E-03     8.79384E-03    -227.901E-03     454.882E-03    -227.910E-03     8.75720E-03
            2210     716.369E-06     20.1423E-03    -114.613E+06    -233.419E+06    -113.108E+06     36.1545E+03    -227.827E-03     455.717E-03    -227.890E-03     4.74346E-03    -227.898E-03     454.880E-03    -227.951E-03     4.72896E-03
            2211     13.6573E-03     19.7782E-03    -5.21780E+06     70.1799E+06     91.0047E+06     523.625E+03    -219.222E-03     444.398E-03    -225.175E-03     45.2160E-03    -219.671E-03     444.813E-03    -224.815E-03     41.3080E-03
            2212     12.9341E-03     19.7045E-03    -10.2634E+06     66.3196E+06     90.3796E+06     318.951E+03    -220.071E-03     445.564E-03    -225.493E-03     52.9929E-03    -220.595E-03     446.025E-03    -225.122E-03     48.5947E-03
            2213     12.2117E-03     19.6260E-03    -15.7072E+06     61.0589E+06     85.7424E+06    -941.594E+03    -221.176E-03     446.955E-03    -225.779E-03     55.0698E-03    -221.704E-03     447.396E-03    -225.416E-03     50.9338E-03
            2214     11.4903E-03     19.5428E-03    -22.0229E+06     53.7651E+06     76.1426E+06    -889.951E+03    -222.332E-03     448.347E-03    -226.015E-03     56.0103E-03    -222.854E-03     448.761E-03    -225.680E-03     52.1692E-03
            2215     10.7696E-03     19.4573E-03    -28.2062E+06     41.1034E+06     63.6785E+06    -540.249E+03    -223.407E-03     449.615E-03    -226.207E-03     55.2549E-03    -223.896E-03     449.965E-03    -225.907E-03     51.8503E-03
            2216     10.0495E-03     19.3708E-03    -34.0921E+06     30.6483E+06     53.1455E+06    -620.765E+03    -224.332E-03     450.698E-03    -226.365E-03     53.3322E-03    -224.788E-03     450.987E-03    -226.095E-03     50.3903E-03
            2217     9.33024E-03     19.2852E-03    -39.5927E+06     26.3426E+06     46.5094E+06    -252.444E+03    -225.084E-03     451.577E-03    -226.493E-03     50.5522E-03    -225.521E-03     451.832E-03    -226.242E-03     48.0701E-03
            2218     8.61140E-03     19.2018E-03    -45.3835E+06     6.71039E+06     37.8640E+06     1.07588E+06    -225.724E-03     452.318E-03    -226.593E-03     47.1941E-03    -226.120E-03     452.467E-03    -226.348E-03     45.1654E-03
            2219     7.89331E-03     19.1216E-03    -52.3045E+06    -28.2333E+06     25.1127E+06     2.22388E+06    -226.231E-03     452.889E-03    -226.657E-03     43.4614E-03    -226.569E-03     452.867E-03    -226.415E-03     41.8462E-03
            2220     7.17540E-03     19.0455E-03    -59.7321E+06    -60.8160E+06     11.5273E+06     2.07686E+06    -226.535E-03     453.215E-03    -226.680E-03     39.5164E-03    -226.822E-03     453.041E-03    -226.447E-03     38.2503E-03
            2221     6.45769E-03     18.9744E-03    -67.0754E+06    -88.4017E+06    -2.08665E+06     1.51919E+06    -226.721E-03     453.388E-03    -226.667E-03     35.4278E-03    -226.970E-03     453.091E-03    -226.452E-03     34.4516E-03
            2222     5.74021E-03     18.9089E-03    -74.4224E+06    -112.979E+06    -16.4256E+06     1.17308E+06    -226.818E-03     453.437E-03    -226.619E-03     31.2500E-03    -227.034E-03     453.035E-03    -226.430E-03     30.5177E-03
            2223     5.02290E-03     18.8497E-03    -81.7706E+06    -136.032E+06    -31.4721E+06     954.028E+03    -226.812E-03     453.355E-03    -226.544E-03     27.0614E-03    -227.000E-03     452.861E-03    -226.385E-03     26.5320E-03
            2224     4.30555E-03     18.7973E-03    -88.9290E+06    -157.859E+06    -47.1275E+06     881.017E+03    -226.723E-03     453.170E-03    -226.447E-03     22.9162E-03    -226.885E-03     452.593E-03    -226.325E-03     22.5515E-03
            2225     3.58821E-03     18.7519E-03    -95.7297E+06    -177.593E+06    -63.2783E+06     766.435E+03    -226.569E-03     452.906E-03    -226.337E-03     18.8579E-03    -226.708E-03     452.258E-03    -226.257E-03     18.6157E-03
            2226     2.87071E-03     18.7144E-03    -101.974E+06    -195.549E+06    -79.1813E+06     585.800E+03    -226.387E-03     452.614E-03    -226.227E-03     14.9400E-03    -226.504E-03     451.904E-03    -226.191E-03     14.7848E-03
            2227     2.15315E-03     18.6848E-03    -107.263E+06    -211.652E+06    -93.3890E+06     430.282E+03    -226.226E-03     452.355E-03    -226.130E-03     11.1302E-03    -226.323E-03     451.591E-03    -226.134E-03     11.0333E-03
            2228     1.43548E-03     18.6634E-03    -111.431E+06    -224.335E+06    -104.683E+06     376.503E+03    -226.109E-03     452.158E-03    -226.049E-03     7.43988E-03    -226.191E-03     451.351E-03    -226.085E-03     7.38691E-03
            2229     717.844E-06     18.6500E-03    -114.143E+06    -232.871E+06    -112.215E+06     309.752E+03    -226.006E-03     452.001E-03    -225.994E-03     4.03238E-03    -226.077E-03     451.165E-03    -226.052E-03     4.01067E-03
            2230     13.6573E-03     18.2986E-03    -4.76652E+06     70.5190E+06     91.9406E+06    -124.296E+03    -220.508E-03     445.635E-03    -225.127E-03     45.6911E-03    -220.961E-03     446.055E-03    -224.762E-03     41.7136E-03
            2231     12.9359E-03     18.2243E-03    -10.1405E+06     66.8394E+06     91.2813E+06    -725.218E+03    -221.562E-03     446.926E-03    -225.363E-03     52.9693E-03    -222.094E-03     447.394E-03    -224.989E-03     48.4507E-03
            2232     12.2144E-03     18.1441E-03    -15.8559E+06     61.1340E+06     85.4601E+06    -5.57714E+03    -222.604E-03     448.152E-03    -225.549E-03     54.4530E-03    -223.135E-03     448.597E-03    -225.187E-03     50.2604E-03
            2233     11.4938E-03     18.0586E-03    -22.3371E+06     54.1897E+06     75.0830E+06     1.68586E+03    -223.859E-03     449.529E-03    -225.670E-03     54.6800E-03    -224.381E-03     449.946E-03    -225.341E-03     50.7976E-03
            2234     10.7744E-03     17.9714E-03    -28.9237E+06     41.6605E+06     63.1149E+06    -840.177E+03    -225.036E-03     450.766E-03    -225.731E-03     53.2679E-03    -225.526E-03     451.119E-03    -225.433E-03     49.8012E-03
            2235     10.0558E-03     17.8836E-03    -35.1546E+06     30.5984E+06     52.3643E+06    -1.29737E+06    -225.896E-03     451.628E-03    -225.732E-03     50.7500E-03    -226.353E-03     451.917E-03    -225.464E-03     47.7425E-03
            2236     9.33762E-03     17.7970E-03    -42.0046E+06     24.2338E+06     43.8082E+06    -837.398E+03    -226.425E-03     452.108E-03    -225.683E-03     47.4128E-03    -226.864E-03     452.357E-03    -225.438E-03     44.8657E-03
            2237     8.61997E-03     17.7128E-03    -49.4903E+06     4.11064E+06     34.4502E+06     292.962E+03    -226.772E-03     452.373E-03    -225.602E-03     43.6354E-03    -227.177E-03     452.517E-03    -225.364E-03     41.5385E-03
            2238     7.90244E-03     17.6321E-03    -56.0151E+06    -28.2591E+06     22.9377E+06     902.923E+03    -226.947E-03     452.427E-03    -225.480E-03     39.6054E-03    -227.297E-03     452.412E-03    -225.243E-03     37.9024E-03
            2239     7.18510E-03     17.5561E-03    -61.9574E+06    -59.4294E+06     10.2670E+06     1.00263E+06    -226.938E-03     452.249E-03    -225.311E-03     35.4010E-03    -227.235E-03     452.085E-03    -225.083E-03     34.0406E-03
            2240     6.46777E-03     17.4849E-03    -68.3783E+06    -87.3698E+06    -3.12863E+06     966.014E+03    -226.757E-03     451.858E-03    -225.101E-03     31.1117E-03    -227.011E-03     451.568E-03    -224.891E-03     30.0443E-03
            2241     5.75033E-03     17.4197E-03    -75.2914E+06    -112.042E+06    -17.2390E+06     949.986E+03    -226.435E-03     451.293E-03    -224.859E-03     26.8880E-03    -226.654E-03     450.898E-03    -224.673E-03     26.0644E-03
            2242     5.03260E-03     17.3609E-03    -82.2639E+06    -135.252E+06    -32.1202E+06     939.057E+03    -226.011E-03     450.607E-03    -224.595E-03     22.8410E-03    -226.201E-03     450.118E-03    -224.441E-03     22.2204E-03
            2243     4.31470E-03     17.3090E-03    -89.1309E+06    -157.168E+06    -47.5835E+06     847.215E+03    -225.493E-03     449.817E-03    -224.323E-03     19.0017E-03    -225.657E-03     449.244E-03    -224.204E-03     18.5418E-03
            2244     3.59636E-03     17.2644E-03    -95.6841E+06    -176.829E+06    -63.4257E+06     777.061E+03    -224.926E-03     448.984E-03    -224.058E-03     15.3987E-03    -225.065E-03     448.340E-03    -223.980E-03     15.0671E-03
            2245     2.87766E-03     17.2275E-03    -101.628E+06    -194.740E+06    -78.9513E+06     722.812E+03    -224.398E-03     448.215E-03    -223.817E-03     12.0064E-03    -224.515E-03     447.509E-03    -223.782E-03     11.7734E-03
            2246     2.15856E-03     17.1985E-03    -106.893E+06    -210.902E+06    -93.0620E+06     654.413E+03    -223.961E-03     447.573E-03    -223.612E-03     8.82740E-03    -224.058E-03     446.811E-03    -223.616E-03     8.67009E-03
            2247     1.43928E-03     17.1774E-03    -110.931E+06    -223.624E+06    -104.294E+06     477.334E+03    -223.622E-03     447.073E-03    -223.451E-03     5.86455E-03    -223.703E-03     446.268E-03    -223.488E-03     5.76587E-03
            2248     719.646E-06     17.1646E-03    -113.296E+06    -231.733E+06    -111.704E+06     117.643E+03    -223.334E-03     446.738E-03    -223.404E-03     3.15590E-03    -223.403E-03     445.905E-03    -223.462E-03     3.09777E-03
            2249     13.6590E-03     16.8169E-03    -4.70919E+06     71.2014E+06     92.5640E+06    -156.668E+03    -222.214E-03     447.249E-03    -225.035E-03     45.7203E-03    -222.676E-03     447.678E-03    -224.668E-03     41.6164E-03
            2250     12.9382E-03     16.7416E-03    -10.4922E+06     66.7841E+06     92.0900E+06    -268.016E+03    -223.500E-03     448.667E-03    -225.166E-03     52.9300E-03    -224.043E-03     449.142E-03    -224.787E-03     48.2933E-03
            2251     12.2187E-03     16.6597E-03    -16.9913E+06     59.7955E+06     86.2492E+06     14.0316E+03    -224.995E-03     450.208E-03    -225.213E-03     53.9457E-03    -225.536E-03     450.651E-03    -224.844E-03     49.6403E-03
            2252     11.5001E-03     16.5728E-03    -23.0890E+06     53.7063E+06     74.2673E+06     730.917E+03    -226.215E-03     451.364E-03    -225.149E-03     53.0742E-03    -226.741E-03     451.784E-03    -224.823E-03     49.0815E-03
            2253     10.7821E-03     16.4836E-03    -29.8819E+06     44.3569E+06     59.8095E+06     812.998E+03    -227.127E-03     452.129E-03    -225.003E-03     50.6934E-03    -227.620E-03     452.500E-03    -224.725E-03     47.1478E-03
            2254     10.0649E-03     16.3950E-03    -37.1043E+06     32.0249E+06     48.8694E+06    -477.481E+03    -227.786E-03     452.588E-03    -224.802E-03     47.5171E-03    -228.248E-03     452.890E-03    -224.550E-03     44.4169E-03
            2255     9.34829E-03     16.3080E-03    -43.7280E+06     22.4347E+06     41.5757E+06    -760.554E+03    -228.098E-03     452.640E-03    -224.542E-03     43.6682E-03    -228.537E-03     452.884E-03    -224.304E-03     41.0098E-03
            2256     8.63171E-03     16.2239E-03    -49.5877E+06     3.93274E+06     33.3584E+06    -694.922E+03    -228.095E-03     452.321E-03    -224.226E-03     39.3571E-03    -228.497E-03     452.465E-03    -223.993E-03     37.1131E-03
            2257     7.91516E-03     16.1438E-03    -55.5483E+06    -28.2357E+06     21.8918E+06    -974.074E+03    -227.879E-03     451.737E-03    -223.858E-03     34.8267E-03    -228.225E-03     451.722E-03    -223.627E-03     32.9468E-03
            2258     7.19848E-03     16.0682E-03    -62.1170E+06    -59.8074E+06     9.06446E+06    -553.546E+03    -227.436E-03     450.870E-03    -223.434E-03     30.2739E-03    -227.731E-03     450.706E-03    -223.212E-03     28.7231E-03
            2259     6.48155E-03     15.9983E-03    -68.9016E+06    -87.0708E+06    -4.10425E+06     42.3599E+03    -226.738E-03     449.704E-03    -222.966E-03     25.8536E-03    -226.993E-03     449.418E-03    -222.760E-03     24.5915E-03
            2260     5.76400E-03     15.9343E-03    -75.6533E+06    -111.660E+06    -17.9223E+06     313.422E+03    -225.839E-03     448.312E-03    -222.473E-03     21.6741E-03    -226.061E-03     447.920E-03    -222.291E-03     20.6571E-03
            2261     5.04592E-03     15.8769E-03    -82.4656E+06    -134.764E+06    -32.6594E+06     479.160E+03    -224.810E-03     446.783E-03    -221.973E-03     17.8359E-03    -225.002E-03     446.299E-03    -221.822E-03     17.0238E-03
            2262     4.32697E-03     15.8266E-03    -89.1534E+06    -156.406E+06    -48.0912E+06     487.493E+03    -223.729E-03     445.217E-03    -221.488E-03     14.3796E-03    -223.893E-03     444.649E-03    -221.373E-03     13.7355E-03
            2263     3.60728E-03     15.7837E-03    -95.6208E+06    -176.251E+06    -63.6861E+06     485.037E+03    -222.686E-03     443.723E-03    -221.037E-03     11.3133E-03    -222.827E-03     443.083E-03    -220.961E-03     10.8157E-03
            2264     2.88685E-03     15.7482E-03    -101.601E+06    -194.195E+06    -78.9113E+06     615.939E+03    -221.743E-03     442.378E-03    -220.635E-03     8.59500E-03    -221.861E-03     441.674E-03    -220.601E-03     8.22470E-03
            2265     2.16583E-03     15.7204E-03    -106.551E+06    -209.997E+06    -92.7153E+06     634.848E+03    -220.941E-03     441.243E-03    -220.302E-03     6.18491E-03    -221.039E-03     440.485E-03    -220.306E-03     5.92152E-03
            2266     1.44413E-03     15.7004E-03    -110.319E+06    -222.538E+06    -103.944E+06     371.052E+03    -220.339E-03     440.391E-03    -220.052E-03     4.03153E-03    -220.419E-03     439.590E-03    -220.089E-03     3.85864E-03
            2267     722.208E-06     15.6881E-03    -112.985E+06    -230.879E+06    -111.234E+06     46.0389E+03    -219.933E-03     439.867E-03    -219.934E-03     2.09748E-03    -220.003E-03     439.038E-03    -219.992E-03     1.99628E-03
            2268     13.6609E-03     15.3343E-03    -5.41406E+06     70.4631E+06     91.3184E+06    -125.821E+03    -224.482E-03     449.386E-03    -224.904E-03     46.6323E-03    -224.952E-03     449.821E-03    -224.541E-03     42.4313E-03
            2269     12.9415E-03     15.2561E-03    -10.3927E+06     67.0028E+06     91.4858E+06     1.04589E+06    -226.308E-03     451.196E-03    -224.887E-03     53.0889E-03    -226.856E-03     451.679E-03    -224.512E-03     48.3607E-03
            2270     12.2239E-03     15.1714E-03    -15.8152E+06     61.1736E+06     87.0686E+06     59.9696E+03    -227.989E-03     452.738E-03    -224.749E-03     53.0286E-03    -228.536E-03     453.193E-03    -224.379E-03     48.5469E-03
            2271     11.5079E-03     15.0833E-03    -21.2546E+06     50.9162E+06     77.2896E+06    -230.863E+03    -229.241E-03     453.721E-03    -224.480E-03     51.4742E-03    -229.764E-03     454.125E-03    -224.136E-03     47.2947E-03
            2272     10.7925E-03     14.9941E-03    -26.1321E+06     42.8536E+06     64.7384E+06     1.73891E+06    -229.975E-03     454.064E-03    -224.089E-03     48.1873E-03    -230.457E-03     454.418E-03    -223.790E-03     44.4831E-03
            2273     10.0771E-03     14.9050E-03    -32.4530E+06     35.8491E+06     52.2344E+06     2.59577E+06    -230.243E-03     453.849E-03    -223.606E-03     43.9378E-03    -230.694E-03     454.161E-03    -223.350E-03     40.7013E-03
            2274     9.36201E-03     14.8183E-03    -39.6934E+06     25.5118E+06     42.8144E+06     143.473E+03    -230.175E-03     453.232E-03    -223.057E-03     39.2242E-03    -230.601E-03     453.484E-03    -222.823E-03     36.3712E-03
            2275     8.64704E-03     14.7352E-03    -46.5522E+06     4.59474E+06     33.9504E+06    -1.57694E+06    -229.792E-03     452.236E-03    -222.444E-03     34.2515E-03    -230.182E-03     452.380E-03    -222.214E-03     31.7504E-03
            2276     7.93184E-03     14.6564E-03    -53.5995E+06    -28.5571E+06     21.9363E+06    -1.03495E+06    -229.065E-03     450.828E-03    -221.763E-03     29.2181E-03    -229.402E-03     450.810E-03    -221.534E-03     27.0674E-03
            2277     7.21604E-03     14.5829E-03    -60.7561E+06    -60.0683E+06     8.98219E+06    -615.627E+03    -227.964E-03     448.986E-03    -221.022E-03     24.3520E-03    -228.254E-03     448.821E-03    -220.802E-03     22.5128E-03
            2278     6.49931E-03     14.5152E-03    -67.6554E+06    -87.2793E+06    -4.09668E+06    -450.019E+03    -226.563E-03     446.806E-03    -220.244E-03     19.8269E-03    -226.813E-03     446.519E-03    -220.039E-03     18.2563E-03
            2279     5.78169E-03     14.4540E-03    -74.4571E+06    -111.627E+06    -17.8366E+06    -89.3305E+03    -224.934E-03     444.388E-03    -219.454E-03     15.7936E-03    -225.152E-03     443.996E-03    -219.273E-03     14.4671E-03
            2280     5.06269E-03     14.3995E-03    -81.4277E+06    -134.443E+06    -32.4082E+06     172.293E+03    -223.183E-03     441.865E-03    -218.681E-03     12.2994E-03    -223.372E-03     441.381E-03    -218.530E-03     11.1911E-03
            2281     4.34249E-03     14.3521E-03    -88.3108E+06    -155.890E+06    -47.6728E+06     391.620E+03    -221.455E-03     439.407E-03    -217.952E-03     9.33575E-03    -221.618E-03     438.841E-03    -217.836E-03     8.42365E-03
            2282     3.62102E-03     14.3118E-03    -94.7375E+06    -175.706E+06    -63.2689E+06     484.163E+03    -219.838E-03     437.124E-03    -217.286E-03     6.89217E-03    -219.976E-03     436.485E-03    -217.210E-03     6.15771E-03
            2283     2.89841E-03     14.2787E-03    -100.776E+06    -193.637E+06    -78.5831E+06     423.952E+03    -218.391E-03     435.097E-03    -216.706E-03     4.92703E-03    -218.507E-03     434.395E-03    -216.672E-03     4.35442E-03
            2284     2.17470E-03     14.2529E-03    -105.938E+06    -209.279E+06    -92.2676E+06     414.475E+03    -217.201E-03     433.434E-03    -216.233E-03     3.35767E-03    -217.298E-03     432.678E-03    -216.238E-03     2.93746E-03
            2285     1.45034E-03     14.2344E-03    -109.859E+06    -221.592E+06    -103.269E+06     467.852E+03    -216.321E-03     432.202E-03    -215.881E-03     2.09222E-03    -216.401E-03     431.404E-03    -215.917E-03     1.81713E-03
            2286     725.267E-06     14.2230E-03    -112.386E+06    -230.103E+06    -110.894E+06     374.091E+03    -215.745E-03     431.433E-03    -215.688E-03     1.08203E-03    -215.814E-03     430.606E-03    -215.746E-03     935.779E-06
            2287     13.6617E-03     13.8464E-03    -5.20637E+06     70.7092E+06     91.4822E+06     38.7907E+03    -227.984E-03     452.728E-03    -224.743E-03     47.1175E-03    -228.462E-03     453.173E-03    -224.381E-03     42.7644E-03
            2288     12.9464E-03     13.7654E-03    -10.4567E+06     66.5856E+06     90.5821E+06    -1.21437E+06    -229.943E-03     454.458E-03    -224.515E-03     52.6137E-03    -230.504E-03     454.955E-03    -224.143E-03     47.5877E-03
            2289     12.2318E-03     13.6800E-03    -15.3791E+06     61.5283E+06     85.1046E+06    -631.444E+03    -231.422E-03     455.558E-03    -224.136E-03     51.7797E-03    -231.975E-03     456.028E-03    -223.777E-03     47.0363E-03
            2290     11.5174E-03     13.5903E-03    -21.1827E+06     51.8014E+06     74.5547E+06    -731.971E+03    -232.622E-03     456.229E-03    -223.607E-03     49.2364E-03    -233.150E-03     456.649E-03    -223.278E-03     44.8074E-03
            2291     10.8044E-03     13.5007E-03    -26.8397E+06     38.8977E+06     64.2889E+06    -1.23689E+06    -233.356E-03     456.301E-03    -222.945E-03     45.0572E-03    -233.842E-03     456.644E-03    -222.641E-03     41.0475E-03
            2292     10.0920E-03     13.4128E-03    -30.2582E+06     33.7517E+06     56.6777E+06     624.109E+03    -233.407E-03     455.559E-03    -222.152E-03     39.9279E-03    -233.855E-03     455.856E-03    -221.874E-03     36.3652E-03
            2293     9.37935E-03     13.3276E-03    -35.0172E+06     29.5931E+06     47.3387E+06     2.37339E+06    -232.814E-03     454.055E-03    -221.241E-03     34.2610E-03    -233.234E-03     454.319E-03    -220.996E-03     31.1046E-03
            2294     8.66619E-03     13.2464E-03    -43.0210E+06     7.17568E+06     35.5420E+06     1.74653E+06    -231.775E-03     452.030E-03    -220.256E-03     28.5590E-03    -232.158E-03     452.184E-03    -220.026E-03     25.7388E-03
            2295     7.95230E-03     13.1706E-03    -51.2851E+06    -27.3496E+06     22.8025E+06     498.971E+03    -230.308E-03     449.518E-03    -219.210E-03     23.1231E-03    -230.641E-03     449.506E-03    -218.982E-03     20.5974E-03
            2296     7.23731E-03     13.1006E-03    -58.5796E+06    -59.1153E+06     9.72346E+06     40.1250E+03    -228.386E-03     446.497E-03    -218.111E-03     18.1395E-03    -228.671E-03     446.336E-03    -217.891E-03     15.8955E-03
            2297     6.52097E-03     13.0370E-03    -65.7026E+06    -87.0611E+06    -3.64409E+06     130.772E+03    -226.107E-03     443.099E-03    -216.992E-03     13.7607E-03    -226.352E-03     442.812E-03    -216.789E-03     11.7856E-03
            2298     5.80270E-03     12.9801E-03    -73.0995E+06    -111.415E+06    -17.4918E+06     267.241E+03    -223.637E-03     439.524E-03    -215.888E-03     10.0514E-03    -223.850E-03     439.134E-03    -215.708E-03     8.32738E-03
            2299     5.08273E-03     12.9301E-03    -80.4241E+06    -134.099E+06    -32.0959E+06     472.973E+03    -221.127E-03     435.957E-03    -214.830E-03     7.01968E-03    -221.314E-03     435.475E-03    -214.679E-03     5.53563E-03
            2300     4.36081E-03     12.8869E-03    -87.4063E+06    -155.338E+06    -47.3032E+06     633.422E+03    -218.693E-03     432.539E-03    -213.846E-03     4.66155E-03    -218.854E-03     431.975E-03    -213.731E-03     3.40963E-03
            2301     3.63715E-03     12.8505E-03    -94.0847E+06    -175.098E+06    -62.9640E+06     732.317E+03    -216.446E-03     429.409E-03    -212.963E-03     2.90944E-03    -216.583E-03     428.772E-03    -212.888E-03     1.87731E-03
            2302     2.91181E-03     12.8209E-03    -100.099E+06    -192.832E+06    -78.2471E+06     825.711E+03    -214.494E-03     426.699E-03    -212.205E-03     1.68429E-03    -214.609E-03     425.999E-03    -212.171E-03     867.723E-06
            2303     2.18519E-03     12.7979E-03    -105.293E+06    -208.486E+06    -92.0609E+06     734.422E+03    -212.910E-03     424.500E-03    -211.590E-03     882.247E-06    -213.006E-03     423.747E-03    -211.595E-03     274.484E-06
            2304     1.45735E-03     12.7814E-03    -109.311E+06    -220.739E+06    -102.988E+06     543.629E+03    -211.737E-03     422.871E-03    -211.134E-03     404.982E-06    -211.817E-03     422.075E-03    -211.170E-03    -1.10450E-06
            2305     728.923E-06     12.7713E-03    -111.961E+06    -228.830E+06    -110.071E+06     562.228E+03    -210.994E-03     421.851E-03    -210.857E-03     124.124E-06    -211.064E-03     421.028E-03    -210.913E-03    -90.4027E-06
            2306     13.6663E-03     12.3524E-03    -4.45899E+06     71.7107E+06     92.1872E+06    -181.452E+03    -232.086E-03     456.616E-03    -224.530E-03     47.5884E-03    -232.577E-03     457.079E-03    -224.167E-03     42.9822E-03
            2307     12.9525E-03     12.2708E-03    -9.31285E+06     67.4928E+06     91.4576E+06    -606.138E+03    -233.952E-03     458.018E-03    -224.065E-03     52.8120E-03    -234.527E-03     458.534E-03    -223.692E-03     47.5288E-03
            2308     12.2402E-03     12.1833E-03    -16.1161E+06     60.4311E+06     84.8212E+06    -973.573E+03    -235.758E-03     459.172E-03    -223.414E-03     50.8867E-03    -236.325E-03     459.651E-03    -223.054E-03     45.8736E-03
            2309     11.5298E-03     12.0936E-03    -22.3387E+06     51.6422E+06     73.0990E+06    -385.558E+03    -236.900E-03     459.460E-03    -222.559E-03     46.6123E-03    -237.441E-03     459.893E-03    -222.236E-03     41.8563E-03
            2310     10.8196E-03     12.0043E-03    -29.0529E+06     41.4255E+06     59.4528E+06    -732.584E+03    -237.190E-03     458.719E-03    -221.530E-03     40.9443E-03    -237.691E-03     459.093E-03    -221.250E-03     36.5614E-03
            2311     10.1095E-03     11.9175E-03    -36.3707E+06     31.4849E+06     48.8225E+06    -2.85830E+06    -236.789E-03     457.153E-03    -220.364E-03     34.9351E-03    -237.261E-03     457.468E-03    -220.113E-03     30.8928E-03
            2312     9.39959E-03     11.8353E-03    -41.3623E+06     23.7749E+06     42.2085E+06    -1.15773E+06    -235.638E-03     454.720E-03    -219.082E-03     28.7582E-03    -236.082E-03     454.980E-03    -218.846E-03     25.0848E-03
            2313     8.68857E-03     11.7581E-03    -45.1045E+06     8.76447E+06     35.1088E+06     2.05150E+06    -233.728E-03     451.438E-03    -217.711E-03     22.7015E-03    -234.130E-03     451.610E-03    -217.482E-03     19.3940E-03
            2314     7.97610E-03     11.6869E-03    -50.7561E+06    -23.3020E+06     23.3751E+06     1.95060E+06    -231.246E-03     447.532E-03    -216.286E-03     17.2440E-03    -231.589E-03     447.544E-03    -216.061E-03     14.2375E-03
            2315     7.26174E-03     11.6224E-03    -58.0128E+06    -57.8773E+06     9.62967E+06     1.21910E+06    -228.334E-03     443.173E-03    -214.839E-03     12.5869E-03    -228.623E-03     443.023E-03    -214.623E-03     9.86476E-03
            2316     6.54499E-03     11.5647E-03    -65.4777E+06    -85.9730E+06    -3.69690E+06     1.21507E+06    -225.138E-03     438.544E-03    -213.405E-03     8.73323E-03    -225.388E-03     438.267E-03    -213.204E-03     6.29932E-03
            2317     5.82599E-03     11.5139E-03    -72.8084E+06    -110.621E+06    -17.5927E+06     1.22353E+06    -221.838E-03     433.858E-03    -212.020E-03     5.66976E-03    -222.055E-03     433.475E-03    -211.842E-03     3.51789E-03
            2318     5.10440E-03     11.4699E-03    -80.0498E+06    -133.324E+06    -32.2338E+06     1.25331E+06    -218.588E-03     429.305E-03    -210.717E-03     3.36394E-03    -218.776E-03     428.829E-03    -210.569E-03     1.49021E-03
            2319     4.38048E-03     11.4323E-03    -87.1906E+06    -154.390E+06    -47.4520E+06     1.21462E+06    -215.514E-03     425.040E-03    -209.525E-03     1.72390E-03    -215.678E-03     424.482E-03    -209.412E-03     124.752E-06
            2320     3.65421E-03     11.4011E-03    -94.0002E+06    -174.312E+06    -62.9286E+06     1.17773E+06    -212.744E-03     421.214E-03    -208.471E-03     627.494E-06    -212.883E-03     420.583E-03    -208.396E-03    -699.281E-06
            2321     2.92598E-03     11.3759E-03    -100.018E+06    -191.955E+06    -77.9114E+06     1.17056E+06    -210.377E-03     417.948E-03    -207.572E-03    -24.6642E-06    -210.494E-03     417.254E-03    -207.538E-03    -1.07995E-03
            2322     2.19601E-03     11.3565E-03    -105.004E+06    -207.086E+06    -91.4678E+06     1.04876E+06    -208.467E-03     415.312E-03    -206.845E-03    -332.790E-06    -208.565E-03     414.565E-03    -206.849E-03    -1.12259E-03
            2323     1.46484E-03     11.3426E-03    -108.931E+06    -219.337E+06    -102.562E+06     690.898E+03    -207.056E-03     413.358E-03    -206.301E-03    -389.071E-06    -207.137E-03     412.569E-03    -206.338E-03    -921.251E-06
            2324     732.620E-06     11.3341E-03    -111.537E+06    -227.441E+06    -109.509E+06     341.650E+03    -206.179E-03     412.114E-03    -205.935E-03    -266.271E-06    -206.249E-03     411.297E-03    -205.991E-03    -553.360E-06
            2325     13.6682E-03     10.8540E-03    -4.95296E+06     71.5563E+06     90.9273E+06    -682.646E+03    -236.501E-03     460.796E-03    -224.295E-03     49.1426E-03    -237.008E-03     461.275E-03    -223.937E-03     44.3452E-03
            2326     12.9583E-03     10.7700E-03    -10.4999E+06     67.5352E+06     91.1139E+06    -24.2876E+03    -239.241E-03     462.796E-03    -223.556E-03     52.8880E-03    -239.838E-03     463.332E-03    -223.183E-03     47.3296E-03
            2327     12.2505E-03     10.6806E-03    -15.4257E+06     62.2719E+06     86.9487E+06    -663.323E+03    -241.108E-03     463.676E-03    -222.568E-03     48.7872E-03    -241.694E-03     464.176E-03    -222.201E-03     43.3717E-03
            2328     11.5435E-03     10.5906E-03    -20.4715E+06     49.5228E+06     76.4593E+06    -1.22704E+06    -241.828E-03     463.173E-03    -221.345E-03     43.0957E-03    -242.376E-03     463.602E-03    -221.004E-03     37.8675E-03
            2329     10.8375E-03     10.5037E-03    -25.1757E+06      40.722E+06     63.7385E+06     457.854E+03    -241.545E-03     461.462E-03    -219.917E-03     36.4715E-03    -242.045E-03     461.833E-03    -219.621E-03     31.6055E-03
            2330     10.1308E-03     10.4203E-03    -31.7056E+06     35.1840E+06     51.2099E+06     1.50806E+06    -240.233E-03     458.565E-03    -218.332E-03     29.5620E-03    -240.701E-03     458.898E-03    -218.081E-03     25.0440E-03
            2331     9.42279E-03     10.3421E-03    -40.5554E+06     22.4601E+06     40.2136E+06    -919.969E+03    -237.978E-03     454.633E-03    -216.655E-03     23.0656E-03    -238.422E-03     454.897E-03    -216.427E-03     18.8340E-03
            2332     8.71343E-03     10.2707E-03    -47.8968E+06     5.70242E+06     31.9489E+06    -1.74408E+06    -234.920E-03     449.849E-03    -214.929E-03     17.4303E-03    -235.336E-03     450.023E-03    -214.708E-03     13.5160E-03
            2333     8.00159E-03     10.2066E-03    -53.2122E+06    -22.8349E+06     21.8693E+06     552.040E+03    -231.313E-03     444.507E-03    -213.193E-03     12.7044E-03    -231.675E-03     444.536E-03    -212.974E-03     9.15917E-03
            2334     7.28690E-03     10.1495E-03    -58.9432E+06    -56.3715E+06     9.19338E+06     1.73987E+06    -227.392E-03     438.876E-03    -211.484E-03     8.91917E-03    -227.694E-03     438.742E-03    -211.271E-03     5.72826E-03
            2335     6.56941E-03     10.0995E-03    -65.7476E+06    -84.9043E+06    -4.00125E+06     1.88001E+06    -223.333E-03     433.170E-03    -209.836E-03     6.07067E-03    -223.592E-03     432.905E-03    -209.638E-03     3.22077E-03
            2336     5.84871E-03     10.0564E-03    -72.9054E+06    -109.529E+06    -17.5610E+06     2.08952E+06    -219.324E-03     427.611E-03    -208.287E-03     4.04733E-03    -219.550E-03     427.239E-03    -208.110E-03     1.54081E-03
            2337     5.12511E-03     10.0196E-03    -80.1131E+06    -131.937E+06    -31.6786E+06     2.10068E+06    -215.529E-03     422.393E-03    -206.864E-03     2.67270E-03    -215.726E-03     421.929E-03    -206.715E-03     504.950E-06
            2338     4.39861E-03     9.98880E-03    -87.3291E+06    -152.862E+06    -46.4927E+06     1.84018E+06    -212.081E-03     417.669E-03    -205.588E-03     1.76783E-03    -212.253E-03     417.123E-03    -205.472E-03    -70.0427E-06
            2339     3.66968E-03     9.96352E-03    -94.1008E+06    -172.888E+06    -61.3519E+06     1.42436E+06    -209.063E-03     413.539E-03    -204.476E-03     1.18763E-03    -209.211E-03     412.917E-03    -204.396E-03    -327.132E-06
            2340     2.93851E-03     9.94333E-03    -100.243E+06    -190.620E+06    -76.1180E+06     938.560E+03    -206.515E-03     410.052E-03    -203.537E-03     807.944E-06    -206.641E-03     409.365E-03    -203.496E-03    -393.341E-06
            2341     2.20559E-03     9.92795E-03    -105.477E+06    -205.732E+06    -90.0252E+06     402.010E+03    -204.484E-03     407.266E-03    -202.782E-03     549.915E-06    -204.589E-03     406.526E-03    -202.781E-03    -348.654E-06
            2342     1.47117E-03     9.91706E-03    -109.297E+06    -218.192E+06    -101.517E+06     47.4690E+03    -203.003E-03     405.227E-03    -202.225E-03     360.066E-06    -203.089E-03     404.444E-03    -202.257E-03    -244.116E-06
            2343     735.930E-06     9.91057E-03    -111.868E+06    -226.918E+06    -109.430E+06    -112.258E+03    -202.088E-03     403.950E-03    -201.862E-03     190.961E-06    -202.161E-03     403.137E-03    -201.918E-03    -137.298E-06
            2344     13.6714E-03     9.34805E-03    -5.39563E+06     73.1787E+06     91.5520E+06     57.0994E+03    -242.611E-03     466.628E-03    -224.017E-03     48.9521E-03    -243.137E-03     467.129E-03    -223.658E-03     43.8768E-03
            2345     12.9663E-03     9.25960E-03    -10.3426E+06     68.4169E+06     91.4161E+06    -2.32814E+06    -245.389E-03     468.310E-03    -222.921E-03     50.9499E-03    -246.008E-03     468.870E-03    -222.548E-03     44.8631E-03
            2346     12.2633E-03     9.17044E-03    -15.0252E+06     62.2087E+06     86.5773E+06    -2.92128E+06    -246.735E-03     468.280E-03    -221.545E-03     45.7433E-03    -247.338E-03     468.800E-03    -221.181E-03     39.7556E-03
            2347     11.5606E-03     9.08278E-03    -20.0683E+06     49.2548E+06     75.0445E+06    -2.30954E+06    -246.823E-03     466.741E-03    -219.919E-03     39.0914E-03    -247.381E-03     467.186E-03    -219.586E-03     33.3097E-03
            2348     10.8573E-03     8.99843E-03    -25.4484E+06     35.5072E+06     63.2039E+06    -1.61442E+06    -245.636E-03     463.739E-03    -218.103E-03     31.7059E-03    -246.141E-03     464.098E-03    -217.802E-03     26.2410E-03
            2349     10.1536E-03     8.92034E-03    -29.1641E+06     31.8890E+06     55.4294E+06     1.19449E+06    -243.012E-03     459.170E-03    -216.159E-03     24.7028E-03    -243.480E-03     459.489E-03    -215.886E-03     19.6060E-03
            2350     9.44777E-03     8.84966E-03    -33.2937E+06     28.0741E+06     46.3890E+06     3.10146E+06    -239.196E-03     453.347E-03    -214.151E-03     18.7221E-03    -239.631E-03     453.630E-03    -213.911E-03     14.0132E-03
            2351     8.73851E-03     8.78663E-03    -41.1204E+06     7.53252E+06     34.8469E+06     1.55714E+06    -234.728E-03     446.898E-03    -212.170E-03     14.0344E-03    -235.126E-03     447.076E-03    -211.947E-03     9.69751E-03
            2352     8.02609E-03     8.73132E-03    -50.0793E+06    -25.1225E+06     22.6234E+06     778.925E+03    -229.974E-03     440.239E-03    -210.265E-03     10.6095E-03    -230.327E-03     440.260E-03    -210.043E-03     6.67098E-03
            2353     7.31022E-03     8.68351E-03    -57.8583E+06    -56.2285E+06     10.1512E+06     2.07119E+06    -225.135E-03     433.593E-03    -208.458E-03     8.29783E-03    -225.443E-03     433.467E-03    -208.241E-03     4.79970E-03
            2354     6.59054E-03     8.64266E-03    -65.3273E+06    -83.8871E+06    -2.45812E+06     2.83255E+06    -220.440E-03     427.221E-03    -206.781E-03     6.85397E-03    -220.710E-03     426.968E-03    -206.577E-03     3.79157E-03
            2355     5.86747E-03     8.60810E-03    -72.8885E+06    -107.968E+06    -15.2215E+06     2.71742E+06    -216.070E-03     421.328E-03    -205.258E-03     5.98104E-03    -216.310E-03     420.969E-03    -205.072E-03     3.33537E-03
            2356     5.14111E-03     8.57920E-03    -80.2827E+06    -130.120E+06    -28.4554E+06     2.23909E+06    -212.144E-03     416.045E-03    -203.901E-03     5.42092E-03    -212.356E-03     415.593E-03    -203.738E-03     3.17334E-03
            2357     4.41199E-03     8.55538E-03    -87.3419E+06    -150.606E+06    -42.4478E+06     1.48730E+06    -208.723E-03     411.439E-03    -202.716E-03     4.98264E-03    -208.910E-03     410.904E-03    -202.583E-03     3.11119E-03
            2358     3.68035E-03     8.53603E-03    -94.0295E+06    -170.896E+06    -57.2475E+06     528.381E+03    -205.835E-03     407.541E-03    -201.706E-03     4.52727E-03    -205.996E-03     406.927E-03    -201.608E-03     3.00647E-03
            2359     2.94674E-03     8.52089E-03    -100.112E+06    -189.081E+06    -72.5535E+06    -373.636E+03    -203.480E-03     404.348E-03    -200.868E-03     3.95912E-03    -203.615E-03     403.667E-03    -200.812E-03     2.76678E-03
            2360     2.21144E-03     8.50943E-03    -105.381E+06    -204.937E+06    -87.7239E+06    -1.04140E+06    -201.658E-03     401.863E-03    -200.205E-03     3.21741E-03    -201.769E-03     401.126E-03    -200.194E-03     2.33393E-03
            2361     1.47500E-03     8.50150E-03    -109.645E+06    -218.953E+06    -100.952E+06    -1.29102E+06    -200.370E-03     400.093E-03    -199.723E-03     2.28893E-03    -200.458E-03     399.307E-03    -199.751E-03     1.69669E-03
            2362     737.598E-06     8.49665E-03    -112.638E+06    -228.534E+06    -109.867E+06    -831.195E+03    -199.581E-03     399.017E-03    -199.436E-03     1.28286E-03    -199.655E-03     398.198E-03    -199.490E-03     963.680E-06
            2363     13.6777E-03     7.83081E-03    -4.83337E+06     75.3219E+06     93.0822E+06    -887.750E+03    -249.669E-03     473.318E-03    -223.650E-03     48.9842E-03    -250.219E-03     473.849E-03    -223.286E-03     43.4782E-03
            2364     12.9775E-03     7.74228E-03    -8.49034E+06     70.8189E+06     92.3192E+06    -2.00121E+06    -251.626E-03     473.790E-03    -222.165E-03     50.1921E-03    -252.266E-03     474.384E-03    -221.793E-03     43.6326E-03
            2365     12.2775E-03     7.65370E-03    -14.6807E+06     62.2831E+06     85.2754E+06    -2.86318E+06    -252.475E-03     472.867E-03    -220.392E-03     43.2992E-03    -253.093E-03     473.407E-03    -220.035E-03     36.8323E-03
            2366     11.5785E-03     7.56853E-03    -20.5263E+06     47.8024E+06     74.0842E+06    -2.91167E+06    -251.567E-03     469.942E-03    -218.375E-03     35.1618E-03    -252.138E-03     470.396E-03    -218.044E-03     28.8345E-03
            2367     10.8792E-03     7.49038E-03    -26.0122E+06     33.5469E+06     62.0890E+06    -2.31002E+06    -248.540E-03     464.745E-03    -216.205E-03     27.3194E-03    -249.055E-03     465.108E-03    -215.906E-03     21.3080E-03
            2368     10.1767E-03     7.42050E-03    -32.3143E+06     27.2559E+06     51.6356E+06    -2.20897E+06    -243.900E-03     457.889E-03    -213.990E-03     21.0323E-03    -244.380E-03     458.204E-03    -213.724E-03     15.4320E-03
            2369     9.47054E-03     7.35980E-03    -37.2584E+06     24.2298E+06     44.4177E+06     37.8898E+03    -238.405E-03     450.235E-03    -211.830E-03     16.5496E-03    -238.860E-03     450.516E-03    -211.589E-03     11.4603E-03
            2370     8.76065E-03     7.30754E-03    -41.6486E+06     9.00759E+06     37.4505E+06     3.81936E+06    -232.589E-03     442.390E-03    -209.801E-03     13.6766E-03    -233.004E-03     442.582E-03    -209.566E-03     9.16470E-03
            2371     8.04623E-03     7.26315E-03    -48.7574E+06    -23.3057E+06     26.3222E+06     4.89167E+06    -226.885E-03     434.823E-03    -207.938E-03     12.1122E-03    -227.248E-03     434.854E-03    -207.702E-03     8.15390E-03
            2372     7.32736E-03     7.22580E-03    -57.5640E+06    -55.3084E+06     13.9535E+06     3.98336E+06    -221.569E-03     427.822E-03    -206.253E-03     11.3854E-03    -221.890E-03     427.702E-03    -206.020E-03     7.94809E-03
            2373     6.60475E-03     7.19451E-03    -65.3693E+06    -81.7205E+06     2.60396E+06     3.09069E+06    -216.782E-03     421.539E-03    -204.757E-03     11.0341E-03    -217.070E-03     421.297E-03    -204.530E-03     8.09102E-03
            2374     5.87858E-03     7.16851E-03    -72.2980E+06    -105.354E+06    -9.11226E+06     1.93410E+06    -212.601E-03     416.047E-03    -203.446E-03     10.7661E-03    -212.856E-03     415.698E-03    -203.234E-03     8.27913E-03
            2375     5.14954E-03     7.14704E-03    -78.8825E+06    -127.304E+06    -21.9358E+06     395.372E+03    -209.040E-03     411.356E-03    -202.316E-03     10.3815E-03    -209.263E-03     410.911E-03    -202.127E-03     8.30587E-03
            2376     4.41796E-03     7.12949E-03    -85.0725E+06    -148.471E+06    -36.3515E+06    -1.07507E+06    -206.080E-03     407.435E-03    -201.355E-03     9.75107E-03    -206.270E-03     406.901E-03    -201.198E-03     8.04638E-03
            2377     3.68441E-03     7.11545E-03    -90.9165E+06    -169.405E+06    -52.5006E+06    -2.09808E+06    -203.690E-03     404.244E-03    -200.554E-03     8.80183E-03    -203.846E-03     403.628E-03    -200.439E-03     7.43347E-03
            2378     2.94921E-03     7.10441E-03    -96.4426E+06    -188.921E+06    -69.3823E+06    -2.69777E+06    -201.832E-03     401.737E-03    -199.905E-03     7.52038E-03    -201.955E-03     401.047E-03    -199.838E-03     6.45706E-03
            2379     2.21290E-03     7.09620E-03    -101.476E+06    -206.221E+06    -85.1568E+06    -2.57243E+06    -200.457E-03     399.859E-03    -199.402E-03     5.93782E-03    -200.550E-03     399.107E-03    -199.382E-03     5.15826E-03
            2380     1.47567E-03     7.09040E-03    -105.724E+06    -221.742E+06    -97.9329E+06    -1.81747E+06    -199.515E-03     398.559E-03    -199.044E-03     4.12996E-03    -199.584E-03     397.749E-03    -199.059E-03     3.61658E-03
            2381     738.104E-06     7.08700E-03    -108.140E+06    -231.919E+06    -106.456E+06    -1.01441E+06    -198.902E-03     397.769E-03    -198.866E-03     2.27914E-03    -198.953E-03     396.922E-03    -198.906E-03     2.00490E-03
            2382     13.6827E-03     6.30499E-03    -4.43560E+06     76.5349E+06     92.9690E+06    -1.57745E+06    -256.977E-03     480.277E-03    -223.301E-03     51.5159E-03    -257.554E-03     480.841E-03    -222.940E-03     45.6466E-03
            2383     12.9864E-03     6.21584E-03    -10.6496E+06     70.7683E+06     91.0199E+06    -1.22270E+06    -259.065E-03     480.466E-03    -221.401E-03     50.2169E-03    -259.743E-03     481.094E-03    -221.033E-03     43.2107E-03
            2384     12.2926E-03     6.12881E-03    -16.4052E+06     62.9321E+06     84.9100E+06    -806.119E+03    -258.474E-03     477.677E-03    -219.203E-03     40.1228E-03    -259.118E-03     478.241E-03    -218.846E-03     33.1551E-03
            2385     11.5978E-03     6.04960E-03    -23.2134E+06     49.6640E+06     72.8197E+06    -2.06497E+06    -254.744E-03     471.572E-03    -216.828E-03     30.8682E-03    -255.337E-03     472.049E-03    -216.502E-03     24.0906E-03
            2386     10.8993E-03     5.98141E-03    -29.5338E+06     33.8081E+06     59.7375E+06    -3.33525E+06    -248.934E-03     463.376E-03    -214.443E-03     24.0668E-03    -249.465E-03     463.751E-03    -214.150E-03     17.7600E-03
            2387     10.1967E-03     5.92412E-03    -34.6307E+06     25.0743E+06     50.7512E+06    -2.30804E+06    -242.096E-03     454.269E-03    -212.172E-03     19.8869E-03    -242.583E-03     454.576E-03    -211.905E-03     14.2212E-03
            2388     9.48891E-03     5.87595E-03    -41.9608E+06     18.7596E+06     43.1804E+06    -574.019E+03    -235.068E-03     445.158E-03    -210.091E-03     17.7876E-03    -235.535E-03     445.419E-03    -209.841E-03     12.8324E-03
            2389     8.77548E-03     5.83627E-03    -49.8704E+06     4.32572E+06     36.6740E+06     1.30582E+06    -228.495E-03     436.741E-03    -208.246E-03     17.0282E-03    -228.941E-03     436.921E-03    -207.997E-03     12.7887E-03
            2390     8.05725E-03     5.80353E-03    -55.1403E+06    -21.3585E+06     29.4741E+06     2.79663E+06    -222.691E-03     429.329E-03    -206.638E-03     16.7998E-03    -223.091E-03     429.372E-03    -206.380E-03     13.2238E-03
            2391     7.33506E-03     5.77630E-03    -59.2077E+06    -51.3992E+06     19.8105E+06     1.93846E+06    -217.694E-03     422.936E-03    -205.241E-03     16.6371E-03    -218.035E-03     422.827E-03    -204.982E-03     13.6293E-03
            2392     6.60925E-03     5.75380E-03    -63.9869E+06    -78.1863E+06     8.67939E+06    -263.974E+03    -213.469E-03     417.507E-03    -204.038E-03     16.2996E-03    -213.760E-03     417.268E-03    -203.788E-03     13.7721E-03
            2393     5.88065E-03     5.73517E-03    -68.7690E+06    -101.967E+06    -4.14085E+06     -2.5112E+06    -209.966E-03     412.975E-03    -203.009E-03     15.6427E-03    -210.211E-03     412.626E-03    -202.782E-03     13.5292E-03
            2394     5.14966E-03     5.71981E-03    -73.2470E+06    -125.114E+06    -19.0508E+06    -4.27499E+06    -207.116E-03     409.254E-03    -202.137E-03     14.6091E-03    -207.315E-03     408.804E-03    -201.945E-03     12.8554E-03
            2395     4.41686E-03     5.70729E-03     -77.839E+06    -148.355E+06    -35.5322E+06    -5.02981E+06    -204.846E-03     406.255E-03    -201.410E-03     13.1933E-03    -204.998E-03     405.708E-03    -201.259E-03     11.7599E-03
            2396     3.68259E-03     5.69717E-03     -82.741E+06    -170.860E+06    -52.3031E+06    -4.77013E+06    -203.074E-03     403.888E-03    -200.814E-03     11.4375E-03    -203.184E-03     403.249E-03    -200.708E-03     10.2943E-03
            2397     2.94728E-03     5.68924E-03    -87.7703E+06    -191.653E+06    -68.0887E+06    -3.74994E+06    -201.727E-03     402.067E-03    -200.340E-03     9.41408E-03    -201.802E-03     401.348E-03    -200.276E-03     8.53644E-03
            2398     2.21110E-03     5.68320E-03    -92.3645E+06    -209.958E+06    -81.5318E+06    -2.39966E+06    -200.742E-03     400.722E-03    -199.981E-03     7.20965E-03    -200.788E-03     399.932E-03    -199.950E-03     6.57569E-03
            2399     1.47443E-03     5.67904E-03    -95.9550E+06    -224.927E+06    -91.0926E+06    -1.21957E+06    -200.068E-03     399.799E-03    -199.731E-03     4.91140E-03    -200.092E-03     398.948E-03    -199.721E-03     4.49904E-03
            2400     737.187E-06     5.67651E-03     -98.706E+06    -234.789E+06    -96.9294E+06    -443.461E+03    -199.609E-03     399.247E-03    -199.639E-03     2.67315E-03    -199.622E-03     398.358E-03    -199.640E-03     2.45500E-03
            2401     13.6847E-03     4.76724E-03    -4.96173E+06     76.7548E+06     93.1521E+06     288.888E+03    -266.586E-03     489.692E-03    -223.105E-03     55.4043E-03    -267.199E-03     490.289E-03    -222.744E-03     49.2388E-03
            2402     12.9967E-03     4.67560E-03    -12.2472E+06     70.1086E+06     90.7269E+06    -462.321E+03    -267.570E-03     488.285E-03    -220.715E-03     48.9880E-03    -268.283E-03     488.942E-03    -220.346E-03     41.4233E-03
            2403     12.3081E-03     4.59580E-03    -18.1986E+06     62.1542E+06     85.1448E+06    -359.211E+03    -262.801E-03     480.921E-03    -218.120E-03     36.4546E-03    -263.456E-03     481.487E-03    -217.758E-03     29.1381E-03
            2404     11.6148E-03     4.53001E-03    -24.4732E+06     53.1169E+06     74.4853E+06     628.149E+03    -254.755E-03     470.310E-03    -215.555E-03     28.2998E-03    -255.344E-03     470.787E-03    -215.224E-03     21.6440E-03
            2405     10.9154E-03     4.47708E-03    -32.4106E+06     39.1453E+06     58.8588E+06    -904.905E+03    -245.957E-03     459.139E-03    -213.181E-03     24.0572E-03    -246.484E-03     459.521E-03    -212.897E-03     18.2562E-03
            2406     10.2091E-03     4.43460E-03    -40.2384E+06     23.5328E+06     46.4999E+06    -2.99159E+06    -237.699E-03     448.792E-03    -211.093E-03     22.4882E-03    -238.180E-03     449.080E-03    -210.836E-03     17.5474E-03
            2407     9.49661E-03     4.40115E-03    -45.1518E+06     15.0188E+06     41.7400E+06    -1.99629E+06    -230.434E-03     439.735E-03    -209.301E-03     21.9054E-03    -230.885E-03     439.959E-03    -209.049E-03     17.7912E-03
            2408     8.77912E-03     4.37363E-03    -48.9130E+06     4.23023E+06     37.7186E+06    -1.90434E+06    -224.271E-03     432.042E-03    -207.771E-03     21.4519E-03    -224.690E-03     432.193E-03    -207.517E-03     18.0446E-03
            2409     8.05768E-03     4.35100E-03    -53.3106E+06    -20.0053E+06     28.8825E+06    -4.15268E+06    -219.198E-03     425.664E-03    -206.466E-03     20.8602E-03    -219.568E-03     425.690E-03    -206.215E-03     18.0129E-03
            2410     7.33280E-03     4.33243E-03    -56.9067E+06    -48.6639E+06     16.2208E+06    -5.84826E+06    -215.063E-03     420.410E-03    -205.346E-03     19.9856E-03    -215.371E-03     420.296E-03    -205.112E-03     17.6085E-03
            2411     6.60536E-03     4.31695E-03    -59.2883E+06    -75.0499E+06     2.33112E+06    -7.61400E+06    -211.695E-03     416.083E-03    -204.388E-03     18.7613E-03    -211.940E-03     415.845E-03    -204.182E-03     16.7682E-03
            2412     5.87571E-03     4.30409E-03    -61.7395E+06    -101.254E+06    -12.9502E+06    -8.90018E+06    -208.974E-03     412.548E-03    -203.574E-03     17.2154E-03    -209.157E-03     412.191E-03    -203.403E-03     15.5428E-03
            2413     5.14439E-03     4.29341E-03    -65.0317E+06    -127.208E+06    -28.6075E+06    -8.47053E+06    -206.793E-03     409.684E-03    -202.890E-03     15.3962E-03    -206.922E-03     409.213E-03    -202.755E-03     14.0122E-03
            2414     4.41168E-03     4.28457E-03    -69.1523E+06    -152.477E+06    -43.4493E+06    -6.78759E+06    -205.062E-03     407.387E-03    -202.325E-03     13.3763E-03    -205.145E-03     406.809E-03    -202.221E-03     12.2553E-03
            2415     3.67793E-03     4.27742E-03    -73.5561E+06    -175.918E+06    -56.4784E+06    -4.52800E+06    -203.701E-03     405.567E-03    -201.866E-03     11.2317E-03    -203.746E-03     404.890E-03    -201.787E-03     10.3500E-03
            2416     2.94329E-03     4.27172E-03    -77.6911E+06    -196.539E+06    -67.1704E+06    -2.29586E+06    -202.648E-03     404.153E-03    -201.505E-03     9.02223E-03    -202.663E-03     403.389E-03    -201.443E-03     8.35689E-03
            2417     2.20805E-03     4.26745E-03    -81.1499E+06    -213.632E+06    -75.4511E+06    -562.274E+03    -201.863E-03     403.095E-03    -201.232E-03     6.78554E-03    -201.855E-03     402.259E-03    -201.182E-03     6.31299E-03
            2418     1.47223E-03     4.26443E-03    -83.8001E+06    -226.679E+06    -81.4363E+06     416.937E+03    -201.321E-03     402.361E-03    -201.040E-03     4.55719E-03    -201.296E-03     401.470E-03    -200.997E-03     4.25497E-03
            2419     736.319E-06     4.26264E-03    -85.6126E+06    -234.840E+06    -85.1166E+06     543.999E+03    -200.911E-03     401.922E-03    -201.011E-03     2.46673E-03    -200.876E-03     400.996E-03    -200.971E-03     2.30941E-03
            2420     13.6851E-03     3.20744E-03    -6.19722E+06     74.7541E+06     93.4389E+06     639.015E+03    -279.526E-03     502.771E-03    -223.246E-03     62.5320E-03    -280.177E-03     503.395E-03    -222.878E-03     56.1493E-03
            2421     13.0049E-03     3.12204E-03    -8.55644E+06     71.0193E+06     93.9365E+06     1.14991E+06    -274.893E-03     495.237E-03    -220.345E-03     48.4954E-03    -275.581E-03     495.878E-03    -219.965E-03     41.0418E-03
            2422     12.3187E-03     3.06066E-03    -15.0898E+06     63.2014E+06     86.7152E+06     2.04028E+06    -263.722E-03     481.223E-03    -217.501E-03     34.6044E-03    -264.303E-03     481.727E-03    -217.138E-03     28.1656E-03
            2423     11.6235E-03     3.01496E-03    -22.7814E+06     53.8591E+06     74.6993E+06     2.74293E+06    -251.823E-03     466.794E-03    -214.971E-03     28.7690E-03    -252.332E-03     467.199E-03    -214.642E-03     23.5411E-03
            2424     10.9195E-03     2.98112E-03    -29.3750E+06     44.9016E+06     59.4373E+06     2.68325E+06    -241.801E-03     454.598E-03    -212.797E-03     25.9628E-03    -242.253E-03     454.934E-03    -212.522E-03     21.7831E-03
            2425     10.2086E-03     2.95463E-03    -36.2360E+06     30.0419E+06      43.121E+06    -615.402E+03    -233.690E-03     444.647E-03    -210.957E-03     24.1505E-03    -234.093E-03     444.905E-03    -210.732E-03     20.7502E-03
            2426     9.49298E-03     2.93303E-03    -42.5147E+06     15.6220E+06     29.0973E+06    -5.48442E+06    -227.189E-03     436.593E-03    -209.404E-03     22.5928E-03    -227.555E-03     436.780E-03    -209.220E-03     19.7697E-03
            2427     8.77361E-03     2.91582E-03    -46.3572E+06     5.59951E+06     17.1321E+06    -7.46500E+06    -221.947E-03     430.029E-03    -208.082E-03     21.1270E-03    -222.280E-03     430.168E-03    -207.937E-03     18.7896E-03
            2428     8.05070E-03     2.90170E-03    -48.8495E+06    -16.2512E+06     5.07507E+06    -9.10443E+06    -217.742E-03     424.708E-03    -206.967E-03     19.5560E-03    -218.021E-03     424.743E-03    -206.847E-03     17.6030E-03
            2429     7.32536E-03     2.88985E-03    -51.1677E+06    -46.7709E+06    -8.40970E+06    -12.2564E+06    -214.365E-03     420.383E-03    -206.018E-03     17.8673E-03    -214.580E-03     420.275E-03    -205.918E-03     16.1919E-03
            2430     6.59781E-03     2.88000E-03    -53.3906E+06    -76.8086E+06    -21.3229E+06    -13.1522E+06    -211.608E-03     416.816E-03    -205.207E-03     16.0845E-03    -211.763E-03     416.570E-03    -205.125E-03     14.6559E-03
            2431     5.86856E-03     2.87172E-03    -56.3323E+06    -106.542E+06    -33.1696E+06    -11.1832E+06    -209.355E-03     413.875E-03    -204.521E-03     14.2306E-03    -209.456E-03     413.495E-03    -204.450E-03     13.0422E-03
            2432     5.13783E-03     2.86478E-03    -60.0353E+06    -134.269E+06    -43.4464E+06    -8.13934E+06    -207.510E-03     411.454E-03    -203.944E-03     12.3557E-03    -207.568E-03     410.948E-03    -203.879E-03     11.3886E-03
            2433     4.40593E-03     2.85904E-03    -63.7329E+06    -159.637E+06    -51.9049E+06    -4.96467E+06    -206.004E-03     409.470E-03    -203.466E-03     10.4962E-03    -206.027E-03     408.850E-03    -203.401E-03     9.72765E-03
            2434     3.67300E-03     2.85433E-03    -66.9284E+06    -181.877E+06    -58.7241E+06    -2.29694E+06    -204.791E-03     407.866E-03    -203.075E-03     8.67145E-03    -204.785E-03     407.147E-03    -203.008E-03     8.07680E-03
            2435     2.93933E-03     2.85063E-03    -69.3219E+06    -200.757E+06    -64.0045E+06    -367.736E+03    -203.839E-03     406.604E-03    -202.765E-03     6.88548E-03    -203.807E-03     405.798E-03    -202.693E-03     6.44183E-03
            2436     2.20498E-03     2.84779E-03    -71.0422E+06    -215.763E+06    -67.9102E+06     898.296E+03    -203.124E-03     405.653E-03    -202.529E-03     5.13755E-03    -203.071E-03     404.778E-03    -202.452E-03     4.82686E-03
            2437     1.47030E-03     2.84584E-03    -72.2016E+06    -226.369E+06    -70.5496E+06     1.51691E+06    -202.627E-03     404.988E-03    -202.361E-03     3.43464E-03    -202.559E-03     404.064E-03    -202.281E-03     3.24110E-03
            2438     735.108E-06     2.84466E-03    -72.8088E+06    -231.729E+06    -72.5523E+06     1.36832E+06    -202.215E-03     404.581E-03    -202.366E-03     1.84645E-03    -202.138E-03     403.634E-03    -202.287E-03     1.75023E-03
            2439     13.6769E-03     1.62379E-03    -3.63931E+06     74.0793E+06     95.6512E+06    -98.6220E+03    -301.024E-03     525.013E-03    -223.989E-03     59.4882E-03    -301.594E-03     525.561E-03    -223.613E-03     53.9339E-03
            2440     13.0026E-03     1.55854E-03    -7.95964E+06     69.2450E+06     93.2687E+06     1.57235E+06    -279.845E-03     500.283E-03    -220.438E-03     35.5394E-03    -280.339E-03     500.730E-03    -220.061E-03     30.7998E-03
            2441     12.3164E-03     1.52880E-03    -13.5446E+06     62.6879E+06     85.8794E+06     3.40249E+06    -262.199E-03     479.707E-03    -217.508E-03     24.2715E-03    -262.611E-03     480.048E-03    -217.150E-03     20.7498E-03
            2442     11.6177E-03     1.50712E-03    -19.2734E+06     55.2687E+06     72.0032E+06     3.50094E+06    -249.255E-03     464.347E-03    -215.092E-03     20.8839E-03    -249.621E-03     464.634E-03    -214.784E-03     18.2340E-03
            2443     10.9119E-03     1.49032E-03    -23.7172E+06     47.8145E+06     53.4601E+06     2.04010E+06    -239.620E-03     452.683E-03    -213.063E-03     18.3078E-03    -239.944E-03     452.940E-03    -212.831E-03     16.2381E-03
            2444     10.2012E-03     1.47725E-03    -27.0205E+06     37.5055E+06     32.1480E+06     433.860E+03    -232.230E-03     443.568E-03    -211.338E-03     16.3333E-03    -232.508E-03     443.791E-03    -211.193E-03     14.6660E-03
            2445     9.48553E-03     1.46713E-03    -31.6809E+06     22.8534E+06     9.95416E+06    -2.33599E+06    -226.360E-03     436.226E-03    -209.867E-03     14.6427E-03    -226.597E-03     436.404E-03    -209.804E-03     13.2654E-03
            2446     8.76576E-03     1.45867E-03    -37.6359E+06     8.50854E+06    -11.1862E+06    -6.41822E+06    -221.661E-03     430.266E-03    -208.605E-03     13.0933E-03    -221.868E-03     430.403E-03    -208.619E-03     11.9109E-03
            2447     8.04341E-03     1.45159E-03    -41.8432E+06    -12.3931E+06    -27.2930E+06    -9.87912E+06    -217.877E-03     425.421E-03    -207.544E-03     11.6686E-03    -218.046E-03     425.476E-03    -207.601E-03     10.6316E-03
            2448     7.31849E-03     1.44576E-03    -45.1302E+06    -46.6588E+06    -36.7513E+06    -11.1659E+06    -214.788E-03     421.462E-03    -206.673E-03     10.3469E-03    -214.906E-03     421.360E-03    -206.724E-03     9.44321E-03
            2449     6.59160E-03     1.44086E-03    -49.6329E+06    -83.2913E+06    -42.9612E+06    -9.88739E+06    -212.235E-03     418.181E-03    -205.945E-03     9.08786E-03    -212.310E-03     417.908E-03    -205.967E-03     8.32453E-03
            2450     5.86297E-03     1.43675E-03    -54.2658E+06    -114.609E+06    -47.8101E+06    -7.16971E+06    -210.105E-03     415.428E-03    -205.322E-03     7.89206E-03    -210.148E-03     415.010E-03    -205.316E-03     7.26932E-03
            2451     5.13294E-03     1.43330E-03    -57.9283E+06    -141.910E+06    -51.7273E+06    -4.44118E+06    -208.333E-03     413.125E-03    -204.792E-03     6.76327E-03    -208.347E-03     412.580E-03    -204.761E-03     6.26622E-03
            2452     4.40170E-03     1.43043E-03    -60.5789E+06    -165.645E+06    -54.9645E+06    -2.24631E+06    -206.871E-03     411.217E-03    -204.346E-03     5.69441E-03    -206.858E-03     410.560E-03    -204.292E-03     5.30473E-03
            2453     3.66951E-03     1.42810E-03    -62.3445E+06    -185.955E+06    -57.6498E+06    -693.002E+03    -205.685E-03     409.663E-03    -203.978E-03     4.67402E-03    -205.646E-03     408.909E-03    -203.906E-03     4.37498E-03
            2454     2.93649E-03     1.42624E-03    -63.5508E+06    -202.915E+06    -59.8656E+06     265.965E+03    -204.751E-03     408.434E-03    -203.683E-03     3.69247E-03    -204.689E-03     407.600E-03    -203.596E-03     3.46978E-03
            2455     2.20292E-03     1.42485E-03    -64.2879E+06    -216.627E+06    -61.5629E+06     844.712E+03    -204.048E-03     407.506E-03    -203.458E-03     2.74342E-03    -203.967E-03     406.606E-03    -203.359E-03     2.58789E-03
            2456     1.46879E-03     1.42385E-03    -64.8013E+06    -225.213E+06    -63.0091E+06     1.12931E+06    -203.556E-03     406.851E-03    -203.295E-03     1.82520E-03    -203.462E-03     405.910E-03    -203.189E-03     1.72967E-03
            2457     734.592E-06     1.42326E-03    -65.4364E+06    -228.103E+06    -64.3748E+06     831.487E+03    -203.130E-03     406.444E-03    -203.313E-03     982.078E-06    -203.033E-03     405.492E-03    -203.210E-03     933.762E-06


