********************************************************************************
Field Output Report, written Tue May 28 19:19:35 2024

Source 1
---------

   ODB: G:/Abaqus_calc_2019/1740/Vel_20/odb/zeides_2a_32_red_2000_cal_0_vel_20_fric_050.odb
   Step: Step-1
   Frame: Increment   7314446: Step Time =   0.7209

Loc 1 : Nodal values from source 1

Output sorted by column "Nodal Label".

Field Output reported at nodes for region: DIE_2A_32_D0_36-1.Region_1
   Computation algorithm: EXTRAPOLATE_COMPUTE_AVERAGE
   Averaged at nodes
   Averaging regions: ODB_REGIONS

      Node Label     COORD.COOR1     COORD.COOR2
                          @Loc 1          @Loc 1
-------------------------------------------------
               1     18.3692E-03     178.823E-03


Field Output reported at nodes for region: DIE_2A_32_D0_36-1.Region_2
   Computation algorithm: EXTRAPOLATE_COMPUTE_AVERAGE
   Averaged at nodes
   Averaging regions: ODB_REGIONS

      Node Label     COORD.COOR1     COORD.COOR2
                          @Loc 1          @Loc 1
-------------------------------------------------
               1     18.3692E-03     178.823E-03


Field Output reported at nodes for part: WIRE-1
   Computation algorithm: EXTRAPOLATE_COMPUTE_AVERAGE
   Averaged at nodes
   Averaging regions: ODB_REGIONS

      Node Label     COORD.COOR1     COORD.COOR2           S.S11           S.S22           S.S33           S.S12         PE.PE11         PE.PE22         PE.PE33         PE.PE12         LE.LE11         LE.LE22         LE.LE33         LE.LE12
                          @Loc 1          @Loc 1          @Loc 1          @Loc 1          @Loc 1          @Loc 1          @Loc 1          @Loc 1          @Loc 1          @Loc 1          @Loc 1          @Loc 1          @Loc 1          @Loc 1
-------------------------------------------------------------------------------------------------------------------------------------------------------------------------------------------------------------------------------------------------
               1     537.747E-09     84.4044E-03    -134.418E+06    -313.229E+06    -133.731E+06     415.731E+03    -227.153E-03     454.704E-03    -227.551E-03     13.8967E-03    -227.202E-03     453.553E-03    -227.571E-03     12.2712E-03
               2     14.3483E-03     88.0698E-03    -1.43869E+06     72.7942E+06     86.5700E+06    -90.5163E+03    -225.228E-03     452.407E-03    -227.179E-03     67.6486E-03    -227.401E-03     454.583E-03    -226.850E-03     50.8433E-03
               3     14.4070E-03     175.289E-03    -95.1612E+06     46.7258E+06     34.6492E+06    -1.42659E+06     39.5743E-03     189.317E-03    -228.891E-03    -51.6456E-03     39.2377E-03     189.905E-03    -228.647E-03    -51.6220E-03
               4    -16.7304E-06     168.948E-03     3.03516E+06    -15.6891E+06    -11.4607E+06    -6.73814E+06    -220.377E-03     451.887E-03    -231.510E-03    -47.9375E-03    -220.638E-03     451.467E-03    -231.549E-03    -48.5753E-03
               5     45.5286E-09     5.93969E-15    -82.9867E+06    -274.001E+06    -83.3455E+06    -1.89127E+06    -206.607E-03     412.963E-03    -206.356E-03     1.66979E-03    -206.504E-03     411.835E-03    -206.255E-03     1.51059E-03
               6     14.0773E-03     5.93969E-15     8.41343E+06     95.3892E+06     98.1171E+06     11.4186E+06    -496.945E-03     729.656E-03    -232.712E-03     246.217E-03    -501.798E-03     734.466E-03    -232.372E-03     214.669E-03
               7     717.001E-06     84.4233E-03    -134.607E+06    -302.430E+06    -132.359E+06     332.668E+03    -227.292E-03     454.714E-03    -227.422E-03     23.2774E-03    -227.415E-03     453.670E-03    -227.450E-03     20.6144E-03
               8     1.43421E-03     84.4668E-03    -132.110E+06    -282.265E+06    -123.941E+06     176.948E+03    -227.658E-03     454.972E-03    -227.314E-03     42.8356E-03    -227.978E-03     454.180E-03    -227.333E-03     37.9549E-03
               9     2.15061E-03     84.5372E-03    -126.155E+06    -265.780E+06    -107.961E+06    -194.969E+03    -228.108E-03     455.483E-03    -227.375E-03     63.0445E-03    -228.733E-03     455.030E-03    -227.346E-03     55.7157E-03
              10     2.86760E-03     84.6362E-03    -119.266E+06    -253.043E+06    -89.7073E+06    -304.990E+03    -228.513E-03     455.956E-03    -227.442E-03     82.9897E-03    -229.561E-03     455.942E-03    -227.351E-03     73.1078E-03
              11     3.58488E-03     84.7612E-03    -111.346E+06    -223.116E+06    -70.7128E+06     164.205E+03    -228.878E-03     456.333E-03    -227.454E-03     102.359E-03    -230.496E-03     456.968E-03    -227.323E-03     89.8773E-03
              12     4.30261E-03     84.9112E-03    -102.660E+06    -183.332E+06    -51.4884E+06    -108.541E+03    -229.464E-03     456.904E-03    -227.441E-03     121.376E-03    -231.805E-03     458.379E-03    -227.283E-03     106.162E-03
              13     5.01930E-03     85.0870E-03    -93.7978E+06    -157.021E+06    -32.7773E+06    -292.245E+03    -230.107E-03     457.560E-03    -227.453E-03     139.838E-03    -233.298E-03     459.956E-03    -227.253E-03     121.788E-03
              14     5.73642E-03     85.2858E-03    -85.0059E+06    -123.645E+06    -14.3687E+06    -59.8584E+03    -230.450E-03     457.897E-03    -227.447E-03     157.366E-03    -234.637E-03     461.384E-03    -227.216E-03     136.495E-03
              15     6.45449E-03     85.5063E-03    -76.1881E+06    -81.5329E+06     3.42229E+06    -390.921E+03    -230.774E-03     458.182E-03    -227.408E-03     173.783E-03    -236.087E-03     462.925E-03    -227.162E-03     150.103E-03
              16     7.17109E-03     85.7472E-03    -66.5340E+06    -39.8835E+06     21.3820E+06     446.999E+03    -231.130E-03     458.498E-03    -227.368E-03     188.417E-03    -237.623E-03     464.552E-03    -227.107E-03     162.111E-03
              17     7.88971E-03     86.0067E-03    -56.4809E+06     3.90599E+06     39.2543E+06     1.86990E+06    -231.378E-03     458.711E-03    -227.333E-03     200.435E-03    -239.024E-03     466.057E-03    -227.061E-03     171.833E-03
              18     8.60647E-03     86.2783E-03    -47.4557E+06     30.0463E+06     50.9042E+06     2.07490E+06    -231.567E-03     458.880E-03    -227.312E-03     208.563E-03    -240.177E-03     467.280E-03    -227.033E-03     178.107E-03
              19     9.32322E-03     86.5592E-03    -40.4905E+06     37.1049E+06     57.8317E+06     1.13843E+06    -231.420E-03     458.737E-03    -227.317E-03     212.069E-03    -240.671E-03     467.808E-03    -227.023E-03     180.405E-03
              20     10.0416E-03     86.8383E-03    -34.9044E+06     46.0158E+06     67.2591E+06     326.310E+03    -230.683E-03     458.018E-03    -227.335E-03     210.205E-03    -240.175E-03     467.355E-03    -227.015E-03     178.089E-03
              21     10.7576E-03     87.1111E-03    -29.5222E+06     55.2482E+06     77.8597E+06     1.38210E+06    -229.608E-03     456.955E-03    -227.347E-03     202.733E-03    -238.870E-03     466.083E-03    -226.995E-03     170.957E-03
              22     11.4764E-03     87.3662E-03    -23.4338E+06     58.9817E+06     84.2913E+06     1.56779E+06    -228.516E-03     455.851E-03    -227.335E-03     191.127E-03    -237.204E-03     464.420E-03    -226.965E-03     160.129E-03
              23     12.1936E-03     87.6035E-03    -16.7449E+06     62.4824E+06     86.4409E+06     436.070E+03    -227.411E-03     454.708E-03    -227.298E-03     172.092E-03    -234.960E-03     462.169E-03    -226.932E-03     142.879E-03
              24     12.9125E-03     87.8078E-03    -10.2608E+06     69.8382E+06     87.7046E+06    -259.745E+03    -226.412E-03     453.662E-03    -227.250E-03     155.980E-03    -233.118E-03     460.325E-03    -226.898E-03     127.910E-03
              25     13.6290E-03     87.9963E-03    -4.22669E+06     73.6338E+06     87.4556E+06    -422.812E+03    -225.606E-03     452.808E-03    -227.202E-03     110.001E-03    -230.024E-03     457.219E-03    -226.865E-03     87.4499E-03
              26     14.3461E-03     89.5656E-03    -3.21004E+06     73.3479E+06     86.9113E+06    -164.151E+03    -225.776E-03     452.949E-03    -227.173E-03     66.4850E-03    -227.922E-03     455.092E-03    -226.840E-03     49.7912E-03
              27     14.3469E-03     91.0598E-03    -1.17252E+06     73.0231E+06     87.5626E+06     71.0178E+03    -225.220E-03     452.432E-03    -227.211E-03     68.6930E-03    -227.388E-03     454.601E-03    -226.878E-03     52.0059E-03
              28     14.3463E-03     92.5511E-03    -1.32956E+06     72.1094E+06     85.5227E+06     589.244E+03    -225.325E-03     452.512E-03    -227.187E-03     68.9699E-03    -227.497E-03     454.688E-03    -226.862E-03     52.2203E-03
              29     14.3474E-03     94.0415E-03    -2.21079E+06     73.2212E+06     85.9564E+06    -239.322E+03    -225.340E-03     452.504E-03    -227.164E-03     66.7580E-03    -227.477E-03     454.644E-03    -226.837E-03     50.0853E-03
              30     14.3471E-03     95.5355E-03    -2.05082E+06     73.5334E+06     85.4344E+06    -1.00215E+06    -225.077E-03     452.248E-03    -227.171E-03     67.0145E-03    -227.247E-03     454.424E-03    -226.847E-03     50.2044E-03
              31     14.3463E-03     97.0283E-03    -4.24091E+06     72.9844E+06     86.4329E+06     715.214E+03    -225.498E-03     452.667E-03    -227.169E-03     68.4382E-03    -227.710E-03     454.872E-03    -226.837E-03     51.5630E-03
              32     14.3482E-03     98.5193E-03    -554.582E+03     76.4727E+06     89.5892E+06    -584.320E+03    -225.984E-03     453.140E-03    -227.155E-03     67.3779E-03    -228.141E-03     455.306E-03    -226.817E-03     50.6224E-03
              33     14.3456E-03     100.017E-03    -3.18372E+06     71.9572E+06     85.1253E+06    -506.306E+03    -225.865E-03     453.038E-03    -227.172E-03     67.4850E-03    -228.024E-03     455.194E-03    -226.846E-03     50.7257E-03
              34     14.3475E-03     101.507E-03    -1.60270E+06     73.4714E+06     86.8896E+06     760.536E+03    -225.341E-03     452.527E-03    -227.186E-03     68.8676E-03    -227.510E-03     454.699E-03    -226.856E-03     52.1938E-03
              35     14.3467E-03     103.002E-03    -2.55983E+06     74.2074E+06     85.7431E+06     263.881E+03    -225.807E-03     452.982E-03    -227.175E-03     67.8577E-03    -227.974E-03     455.155E-03    -226.851E-03     51.1012E-03
              36     14.3459E-03     104.493E-03    -2.63455E+06     72.8228E+06     86.9920E+06    -476.621E+03    -225.336E-03     452.528E-03    -227.192E-03     68.2195E-03    -227.497E-03     454.686E-03    -226.859E-03     51.5353E-03
              37     14.3485E-03     105.986E-03    -540.674E+03     71.0450E+06     86.0242E+06    -581.618E+03    -224.874E-03     452.033E-03    -227.159E-03     68.6222E-03    -227.031E-03     454.191E-03    -226.831E-03     51.9290E-03
              38     14.3464E-03     107.477E-03    -4.71953E+06     69.2922E+06     84.6135E+06     913.969E+03    -225.933E-03     453.082E-03    -227.149E-03     67.1627E-03    -228.096E-03     455.228E-03    -226.819E-03     50.4084E-03
              39     14.3471E-03     108.972E-03    -1.51564E+06     74.0668E+06     89.3290E+06    -145.870E+03    -225.921E-03     453.098E-03    -227.177E-03     67.4727E-03    -228.088E-03     455.264E-03    -226.836E-03     50.7032E-03
              40     14.3469E-03     110.464E-03    -2.20123E+06     72.8608E+06     86.8160E+06    -211.387E+03    -225.385E-03     452.542E-03    -227.157E-03     68.0737E-03    -227.546E-03     454.702E-03    -226.826E-03     51.3643E-03
              41     14.3480E-03     111.957E-03    -1.66794E+06     72.3248E+06     87.5568E+06     44.7178E+03    -225.500E-03     452.666E-03    -227.166E-03     67.7169E-03    -227.643E-03     454.806E-03    -226.831E-03     51.0833E-03
              42     14.3456E-03     113.452E-03    -2.51983E+06     70.2739E+06     87.8144E+06    -39.0205E+03    -224.872E-03     452.077E-03    -227.205E-03     68.1625E-03    -227.053E-03     454.244E-03    -226.864E-03     51.4041E-03
              43     14.3483E-03     114.939E-03    -2.02506E+06     71.8407E+06     89.0788E+06     377.728E+03    -224.460E-03     451.651E-03    -227.190E-03     68.3770E-03    -226.646E-03     453.826E-03    -226.846E-03     51.6404E-03
              44     14.3469E-03     116.433E-03    -2.58850E+06     74.7348E+06     87.8311E+06     696.682E+03    -225.525E-03     452.662E-03    -227.137E-03     67.4948E-03    -227.686E-03     454.824E-03    -226.802E-03     50.7800E-03
              45     14.3479E-03     117.925E-03    -3.40805E+06     75.3612E+06     89.0642E+06    -54.2918E+03    -225.399E-03     452.548E-03    -227.148E-03     67.1339E-03    -227.547E-03     454.692E-03    -226.807E-03     50.5221E-03
              46     14.3471E-03     119.419E-03    -156.334E+03     74.9888E+06     90.2315E+06    -912.175E+03    -225.132E-03     452.284E-03    -227.152E-03     68.8669E-03    -227.301E-03     454.456E-03    -226.809E-03     52.1821E-03
              47     14.3480E-03     120.911E-03    -3.44001E+06     72.1084E+06     85.6963E+06     549.342E+03    -225.530E-03     452.652E-03    -227.121E-03     67.7910E-03    -227.691E-03     454.807E-03    -226.792E-03     51.0855E-03
              48     14.3473E-03     122.402E-03    -1.94478E+06     74.2592E+06     88.8118E+06     505.609E+03    -225.339E-03     452.493E-03    -227.154E-03     67.0152E-03    -227.491E-03     454.645E-03    -226.815E-03     50.3528E-03
              49     14.3468E-03     123.898E-03    -1.71340E+06     76.7838E+06     90.7845E+06     1.40611E+06    -224.604E-03     451.789E-03    -227.185E-03     68.4994E-03    -226.798E-03     453.987E-03    -226.840E-03     51.7911E-03
              50     14.3482E-03     125.384E-03    -2.66574E+06     80.3924E+06     91.5665E+06    -292.214E+03    -224.558E-03     451.729E-03    -227.170E-03     68.3888E-03    -226.755E-03     453.935E-03    -226.825E-03     51.6915E-03
              51     14.3468E-03     126.880E-03    -1.45854E+06     78.2064E+06     89.1463E+06    -1.28151E+06    -225.120E-03     452.273E-03    -227.153E-03     66.9666E-03    -227.279E-03     454.446E-03    -226.818E-03     50.2460E-03
              52     14.3478E-03     128.368E-03    -3.52593E+06     76.9472E+06     88.8934E+06     864.636E+03    -224.621E-03     451.797E-03    -227.176E-03     66.4566E-03    -226.790E-03     453.969E-03    -226.838E-03     49.7593E-03
              53     14.3468E-03     129.862E-03    -2.55195E+06     80.9917E+06     93.4669E+06    -558.548E+03    -224.542E-03     451.732E-03    -227.190E-03     67.3594E-03    -226.737E-03     453.935E-03    -226.837E-03     50.6324E-03
              54     14.3479E-03     131.353E-03    -1.55696E+06     81.4341E+06     92.7898E+06     739.405E+03    -224.275E-03     451.461E-03    -227.186E-03     67.2415E-03    -226.430E-03     453.630E-03    -226.838E-03     50.7248E-03
              55     14.3471E-03     132.844E-03    -3.23476E+06     82.6136E+06     90.4415E+06     741.939E+03    -223.496E-03     450.699E-03    -227.203E-03     67.6587E-03    -225.659E-03     452.881E-03    -226.866E-03     51.2095E-03
              56     14.3473E-03     134.334E-03    -795.533E+03     82.0779E+06     92.0090E+06      72.782E+03    -223.039E-03     450.235E-03    -227.196E-03     68.8101E-03    -225.226E-03     452.443E-03    -226.854E-03     52.2583E-03
              57     14.3491E-03     135.820E-03    -2.05764E+06     81.1943E+06     93.7335E+06     -647.31E+03    -223.027E-03     450.232E-03    -227.204E-03     66.4221E-03    -225.182E-03     452.396E-03    -226.850E-03     49.9449E-03
              58     14.3453E-03     137.313E-03    -2.09552E+06     79.9138E+06     92.2106E+06     60.0375E+03    -222.684E-03     449.944E-03    -227.260E-03     66.2068E-03    -224.836E-03     452.105E-03    -226.912E-03     49.7639E-03
              59     14.3480E-03     138.797E-03    -3.81829E+06     81.6191E+06     93.4662E+06     1.73054E+06    -220.843E-03     448.121E-03    -227.277E-03     67.5510E-03    -223.012E-03     450.295E-03    -226.923E-03     51.2978E-03
              60     14.3485E-03     140.284E-03    -1.71294E+06     84.0915E+06     95.6633E+06    -749.887E+03    -218.798E-03     446.011E-03    -227.212E-03     67.3517E-03    -220.975E-03     448.202E-03    -226.854E-03     51.0975E-03
              61     14.3517E-03     141.762E-03    -4.57851E+06     80.3498E+06     91.6533E+06    -1.18351E+06    -217.654E-03     444.740E-03    -227.086E-03     67.0485E-03    -219.841E-03     446.930E-03    -226.738E-03     50.7939E-03
              62     14.3530E-03     143.243E-03    -1.45419E+06     81.2383E+06     93.8468E+06     459.279E+03    -216.457E-03     443.342E-03    -226.885E-03     68.0916E-03    -218.619E-03     445.514E-03    -226.531E-03     52.0601E-03
              63     14.3606E-03     144.722E-03    -2.86368E+06     79.3296E+06     91.7145E+06    -495.264E+03    -214.845E-03     441.364E-03    -226.518E-03     72.5024E-03    -217.054E-03     443.578E-03    -226.171E-03     56.5138E-03
              64     14.3668E-03     146.198E-03    -2.32276E+06     76.3752E+06     90.0182E+06     213.547E+03    -214.543E-03     440.561E-03    -226.018E-03     74.5004E-03    -216.779E-03     442.799E-03    -225.675E-03     58.4440E-03
              65     14.3751E-03     147.671E-03    -3.39380E+06     78.9753E+06     87.5862E+06     1.76159E+06    -215.589E-03     440.984E-03    -225.394E-03     75.2872E-03    -217.864E-03     443.273E-03    -225.066E-03     59.0185E-03
              66     14.3848E-03     149.147E-03    -2.04313E+06     79.4512E+06     83.6733E+06    -642.038E+03    -218.760E-03     443.380E-03    -224.619E-03     77.2844E-03    -221.048E-03     445.700E-03    -224.313E-03     60.7007E-03
              67     14.3947E-03     150.633E-03    -790.154E+03     73.3415E+06     78.5092E+06    -570.087E+03    -225.634E-03     449.401E-03    -223.767E-03     80.9392E-03    -227.953E-03     451.751E-03    -223.480E-03     63.8027E-03
              68     14.4023E-03     152.132E-03    -1.64088E+06     67.7110E+06     71.5354E+06    -363.684E+03    -233.868E-03     456.821E-03    -222.954E-03     84.8987E-03    -236.230E-03     459.211E-03    -222.692E-03     67.1571E-03
              69     14.4100E-03     153.641E-03    -1.40560E+06     63.8141E+06     68.1405E+06     60.9268E+03    -243.343E-03     465.551E-03    -222.207E-03     90.5224E-03    -245.787E-03     468.020E-03    -221.957E-03     72.0206E-03
              70     14.4151E-03     155.164E-03    -2.86204E+06     59.0314E+06     69.9543E+06    -588.015E+03    -256.079E-03     477.576E-03    -221.497E-03     95.8903E-03    -258.548E-03     480.043E-03    -221.228E-03     76.8142E-03
              71     14.4208E-03     156.713E-03    -838.556E+03     48.0716E+06     82.1802E+06    -2.74444E+06    -269.326E-03     490.283E-03    -220.956E-03     98.4579E-03    -271.793E-03     492.681E-03    -220.614E-03     78.5974E-03
              72     14.4209E-03     158.273E-03    -3.70493E+06     28.2959E+06     89.1857E+06    -3.63287E+06    -282.137E-03     502.702E-03    -220.565E-03     101.787E-03    -284.674E-03     505.070E-03    -220.155E-03     80.8530E-03
              73     14.4236E-03     159.854E-03     1.78958E+06     18.0043E+06     91.0783E+06    -1.38892E+06    -294.629E-03     514.840E-03    -220.211E-03     104.886E-03    -297.179E-03     517.199E-03    -219.785E-03     82.9983E-03
              74     14.4224E-03     161.457E-03    -5.13024E+06     7.26942E+06     86.6574E+06    -3.40349E+06    -304.251E-03     524.201E-03    -219.950E-03     105.856E-03    -306.914E-03     526.620E-03    -219.520E-03     82.5816E-03
              75     14.4240E-03     163.055E-03     2.32371E+06    -3.27917E+06     78.9734E+06    -3.35843E+06    -312.113E-03     531.810E-03    -219.697E-03     105.097E-03    -314.761E-03     534.225E-03    -219.301E-03     80.8333E-03
              76     14.4239E-03     164.680E-03    -8.86490E+06    -16.7896E+06     70.2903E+06    -4.25405E+06    -319.584E-03     539.081E-03    -219.498E-03     106.937E-03    -322.222E-03     541.430E-03    -219.109E-03     82.4708E-03
              77     14.4238E-03     166.322E-03    -1.28576E+06    -34.4039E+06     83.2483E+06    -2.68511E+06    -323.113E-03     542.566E-03    -219.453E-03     110.678E-03    -325.696E-03     544.780E-03    -218.985E-03     86.3679E-03
              78     14.4269E-03     167.939E-03    -5.76747E+06    -72.9393E+06      92.268E+06    -11.1121E+06    -322.307E-03     541.781E-03    -219.474E-03     109.133E-03    -324.736E-03     543.662E-03    -218.898E-03     85.5674E-03
              79     14.4268E-03     169.576E-03     14.2533E+06    -99.0515E+06     100.235E+06    -2.23571E+06    -310.536E-03     530.193E-03    -219.657E-03     101.475E-03    -312.594E-03     531.661E-03    -219.033E-03     79.9114E-03
              80     14.4317E-03     171.156E-03    -9.54133E+06    -108.375E+06     106.043E+06    -2.76687E+06    -288.923E-03     509.099E-03    -220.176E-03     99.9455E-03    -290.951E-03     510.402E-03    -219.475E-03     80.9495E-03
              81     14.4259E-03     172.728E-03     18.9690E+06    -116.752E+06     80.4508E+06     4.74521E+06    -249.003E-03     469.902E-03    -220.899E-03     104.543E-03    -250.846E-03     471.177E-03    -220.355E-03     88.7430E-03
              82     14.4388E-03     174.214E-03     15.3226E+06    -30.7804E+06     49.8984E+06     18.0407E+06    -90.1004E-03     315.178E-03    -225.078E-03     26.9979E-03    -90.9450E-03     316.095E-03    -224.806E-03     20.1224E-03
              83     13.3317E-03     175.201E-03    -83.3364E+06    -131.658E+03     61.0154E+06    -18.9706E+06     5.34137E-03     229.115E-03    -234.456E-03    -58.4102E-03     5.00622E-03     229.374E-03    -234.030E-03    -59.1875E-03
              84     12.4941E-03     174.747E-03    -54.2090E+06    -26.9953E+06     72.4139E+06    -50.6136E+06    -6.39214E-03     250.073E-03    -243.681E-03    -79.5981E-03    -6.64169E-03     250.079E-03    -243.201E-03    -81.3624E-03
              85     11.6553E-03     174.290E-03    -28.2598E+06    -45.7829E+06     76.5615E+06    -23.9462E+06     20.9561E-03     230.757E-03    -251.713E-03    -100.457E-03     20.8621E-03     230.551E-03    -251.223E-03    -101.914E-03
              86     10.8451E-03     173.812E-03    -14.0201E+06    -14.0027E+06     107.163E+06    -9.17277E+06     24.4162E-03     235.564E-03    -259.980E-03    -123.541E-03     24.3731E-03     235.342E-03    -259.404E-03    -124.929E-03
              87     10.0533E-03     173.324E-03    -18.8527E+06     1.80802E+06     100.112E+06    -17.1671E+06     17.4135E-03     249.548E-03    -266.961E-03    -167.548E-03     17.5258E-03     249.240E-03    -266.436E-03    -169.362E-03
              88     9.29634E-03     172.830E-03    -20.2733E+06    -12.1187E+06     102.233E+06    -19.3463E+06     6.48249E-03     265.461E-03    -271.943E-03    -223.033E-03     6.86990E-03     264.769E-03    -271.385E-03    -225.365E-03
              89     8.57576E-03     172.336E-03    -15.3479E+06    -8.26961E+06     105.679E+06    -26.2157E+06    -5.94480E-03     280.427E-03    -274.482E-03    -277.476E-03    -5.23692E-03     279.346E-03    -273.919E-03    -280.440E-03
              90     7.88250E-03     171.860E-03    -19.0823E+06    -23.8671E+06     87.4765E+06    -18.4693E+06    -21.6510E-03     296.304E-03    -274.653E-03    -326.592E-03    -20.6164E-03     294.763E-03    -274.154E-03    -329.997E-03
              91     7.21372E-03     171.404E-03    -23.1567E+06    -12.1023E+06     77.7291E+06    -20.6180E+06    -41.0786E-03     313.841E-03    -272.762E-03    -368.057E-03    -39.8331E-03     312.005E-03    -272.322E-03    -371.996E-03
              92     6.55927E-03     170.984E-03    -27.2971E+06    -13.3094E+06     68.1058E+06    -23.2602E+06    -64.2231E-03     333.368E-03    -269.145E-03    -398.544E-03    -62.8546E-03     331.270E-03    -268.745E-03    -402.955E-03
              93     5.91776E-03     170.595E-03    -28.8832E+06    -14.1402E+06     59.4377E+06    -27.9975E+06    -89.6917E-03     353.921E-03    -264.230E-03    -413.210E-03    -88.3355E-03     351.689E-03    -263.870E-03    -418.021E-03
              94     5.27967E-03     170.251E-03    -29.7128E+06    -19.3191E+06     48.6624E+06    -29.1148E+06    -116.553E-03     375.101E-03    -258.548E-03    -410.931E-03    -115.324E-03     372.864E-03    -258.233E-03    -415.959E-03
              95     4.64152E-03     169.947E-03    -27.7127E+06    -19.0221E+06     39.4774E+06    -30.6298E+06    -142.740E-03     395.287E-03    -252.547E-03    -391.444E-03    -141.746E-03     393.223E-03    -252.282E-03    -396.468E-03
              96     3.99923E-03     169.683E-03    -24.2492E+06    -22.2000E+06     29.1816E+06    -28.8598E+06    -166.062E-03     412.674E-03    -246.612E-03    -356.377E-03    -165.363E-03     410.860E-03    -246.399E-03    -361.131E-03
              97     3.35025E-03     169.462E-03    -16.3975E+06    -19.7586E+06     20.2965E+06    -28.8519E+06    -185.781E-03     426.863E-03    -241.082E-03    -309.673E-03    -185.357E-03     425.346E-03    -240.928E-03    -314.064E-03
              98     2.69316E-03     169.280E-03    -6.47405E+06    -23.0288E+06     20.9091E+06    -24.9004E+06    -201.246E-03     437.504E-03    -236.258E-03    -254.627E-03    -201.078E-03     436.246E-03    -236.111E-03    -258.411E-03
              99     2.02849E-03     169.140E-03    -274.036E+03    -19.6703E+06     24.7051E+06    -16.3454E+06    -212.373E-03     444.688E-03    -232.316E-03    -193.791E-03    -212.464E-03     443.693E-03    -232.163E-03    -196.727E-03
             100     1.35802E-03     169.039E-03     746.317E+03    -9.90318E+06     16.1751E+06    -10.7415E+06    -219.952E-03     449.320E-03    -229.368E-03    -129.464E-03    -220.237E-03     448.587E-03    -229.274E-03    -131.577E-03
             101     682.503E-06     168.981E-03     1.58632E+06    -12.1564E+06    -1.09910E+06    -7.81867E+06    -221.684E-03     451.523E-03    -229.840E-03    -72.4322E-03    -221.991E-03     451.001E-03    -229.830E-03    -73.6077E-03
             102     10.1053E-06     167.463E-03    -56.4956E+06    -37.7110E+06    -53.7478E+06    -7.88944E+06    -187.029E-03     376.000E-03    -188.971E-03    -27.6454E-03    -187.397E-03     375.733E-03    -189.103E-03    -28.2203E-03
             103    -3.95705E-06     166.181E-03    -153.529E+06    -88.7323E+06    -149.216E+06    -12.3636E+06    -132.078E-03     261.549E-03    -129.471E-03     629.442E-06    -132.570E-03     261.476E-03    -129.865E-03     194.646E-06
             104     2.35599E-06     164.999E-03    -238.189E+06    -147.614E+06    -240.284E+06    -14.1189E+06    -106.093E-03     210.846E-03    -104.753E-03     14.2914E-03    -106.732E-03     210.797E-03    -105.395E-03     13.9942E-03
             105     1.42651E-06     163.844E-03    -295.900E+06     -201.22E+06    -296.489E+06    -10.9584E+06    -102.884E-03     201.339E-03    -98.4549E-03     22.1532E-03    -103.644E-03     201.193E-03    -99.2165E-03     21.9604E-03
             106     1.76105E-06     162.684E-03    -266.869E+06    -229.474E+06    -262.175E+06    -2.08284E+06    -110.231E-03     217.767E-03    -107.536E-03     25.7806E-03    -110.861E-03     217.381E-03    -108.127E-03     25.7231E-03
             107    -784.714E-09     161.492E-03    -186.690E+06    -230.652E+06    -183.924E+06     1.66083E+06    -126.630E-03     252.348E-03    -125.719E-03     26.3812E-03    -126.981E-03     251.717E-03    -126.033E-03     26.3568E-03
             108     1.09601E-06     160.247E-03    -138.578E+06    -222.880E+06    -142.017E+06     1.97323E+06    -148.345E-03     296.569E-03    -148.225E-03     25.6693E-03    -148.534E-03     295.844E-03    -148.411E-03     25.5639E-03
             109    -1.38359E-06     158.943E-03    -126.763E+06    -216.542E+06    -125.793E+06     1.02950E+06    -170.831E-03     342.015E-03    -171.184E-03     23.9002E-03    -170.997E-03     341.288E-03    -171.315E-03     23.5477E-03
             110     1.03353E-06     157.578E-03    -111.460E+06    -218.358E+06    -114.563E+06    -444.303E+03    -191.425E-03     382.170E-03    -190.745E-03     21.0106E-03    -191.525E-03     381.406E-03    -190.840E-03     20.4159E-03
             111     176.757E-09     156.166E-03    -94.5217E+06    -220.986E+06    -98.2658E+06    -712.493E+03    -207.372E-03     413.939E-03    -206.567E-03     19.5749E-03    -207.406E-03     413.123E-03    -206.601E-03     18.7123E-03
             112    -343.639E-09     154.707E-03    -114.386E+06    -234.615E+06    -111.622E+06    -4.02112E+06    -218.313E-03     437.195E-03    -218.882E-03     18.3564E-03    -218.407E-03     436.366E-03    -218.934E-03     17.2047E-03
             113    -394.499E-09     153.230E-03    -121.868E+06    -253.514E+06    -125.168E+06    -2.65386E+06    -226.583E-03     453.435E-03    -226.852E-03     16.4701E-03    -226.667E-03     452.546E-03    -226.934E-03     15.1092E-03
             114     621.536E-09     151.725E-03    -128.734E+06    -265.314E+06    -130.422E+06    -1.10180E+06    -232.060E-03     462.973E-03    -230.913E-03     14.6380E-03    -232.153E-03     462.046E-03    -230.994E-03     13.1158E-03
             115     704.513E-09     150.219E-03    -144.376E+06    -271.753E+06    -143.948E+06    -789.634E+03    -234.594E-03     467.226E-03    -232.632E-03     13.4021E-03    -234.736E-03     466.309E-03    -232.748E-03     11.8064E-03
             116     717.833E-09     148.705E-03    -144.115E+06    -274.666E+06    -145.376E+06    -1.16253E+06    -234.982E-03     468.929E-03    -233.948E-03     13.5767E-03    -235.119E-03     468.002E-03    -234.067E-03     11.8300E-03
             117    -726.989E-09     147.187E-03    -144.286E+06    -280.606E+06    -143.158E+06    -890.205E+03    -234.445E-03     469.052E-03    -234.607E-03     13.6827E-03    -234.576E-03     468.090E-03    -234.706E-03     12.0562E-03
             118     462.563E-09     145.676E-03    -144.375E+06    -288.778E+06    -145.115E+06    -1.11887E+06    -234.074E-03     468.140E-03    -234.066E-03     13.1649E-03    -234.189E-03     467.139E-03    -234.163E-03     11.5441E-03
             119    -240.827E-09     144.162E-03    -143.270E+06    -301.317E+06    -142.171E+06    -1.99295E+06    -233.283E-03     465.625E-03    -232.341E-03     12.7092E-03    -233.381E-03     464.557E-03    -232.408E-03     10.9636E-03
             120     1.33789E-06     142.657E-03    -143.327E+06    -316.568E+06    -143.769E+06    -3.28588E+06    -231.765E-03     462.703E-03    -230.938E-03     13.4959E-03    -231.838E-03     461.562E-03    -230.990E-03     11.8169E-03
             121    -1.30594E-06     141.155E-03    -146.257E+06    -330.375E+06    -146.986E+06    -1.26828E+06    -230.500E-03     461.314E-03    -230.814E-03     13.7977E-03    -230.564E-03     460.113E-03    -230.858E-03     12.1344E-03
             122     767.145E-09     139.651E-03    -139.263E+06    -332.455E+06    -139.141E+06     654.729E+03    -229.900E-03     459.824E-03    -229.924E-03     13.5005E-03    -229.937E-03     458.591E-03    -229.936E-03     11.8844E-03
             123    -310.161E-09     138.155E-03    -143.663E+06    -327.253E+06    -144.076E+06     1.11342E+06    -229.393E-03     458.154E-03    -228.762E-03     13.8016E-03    -229.452E-03     456.961E-03    -228.799E-03     12.1919E-03
             124     698.921E-09     136.658E-03    -144.262E+06    -322.130E+06    -144.233E+06     985.796E+03    -228.885E-03     457.494E-03    -228.609E-03     13.6213E-03    -228.955E-03     456.327E-03    -228.654E-03     12.0183E-03
             125    -743.259E-09     135.162E-03    -136.556E+06    -322.970E+06    -135.095E+06    -1.61881E+06    -228.527E-03     456.990E-03    -228.463E-03     13.8095E-03    -228.570E-03     455.795E-03    -228.473E-03     12.1736E-03
             126     839.313E-09     133.665E-03    -140.170E+06    -336.428E+06    -141.201E+06    -2.36428E+06    -228.733E-03     456.516E-03    -227.783E-03     14.0686E-03    -228.766E-03     455.268E-03    -227.798E-03     12.4304E-03
             127     358.854E-09     132.172E-03    -139.951E+06    -338.969E+06    -140.670E+06     1.43346E+06    -228.919E-03     456.358E-03    -227.439E-03     14.0613E-03    -228.948E-03     455.096E-03    -227.448E-03     12.4865E-03
             128     498.505E-09     130.676E-03    -136.854E+06    -331.697E+06    -136.434E+06     644.223E+03    -228.268E-03     455.849E-03    -227.581E-03     13.8994E-03    -228.299E-03     454.613E-03    -227.584E-03     12.2414E-03
             129    -419.857E-09     129.183E-03    -137.096E+06    -332.046E+06    -137.419E+06    -499.116E+03    -227.337E-03     455.179E-03    -227.842E-03     13.8410E-03    -227.366E-03     453.942E-03    -227.849E-03     12.2636E-03
             130    -440.700E-09     127.692E-03    -136.489E+06    -332.173E+06    -135.814E+06     447.239E+03    -227.391E-03     455.253E-03    -227.862E-03     14.0567E-03    -227.419E-03     454.011E-03    -227.861E-03     12.4919E-03
             131     574.536E-09     126.195E-03    -139.147E+06    -333.978E+06    -136.655E+06    -453.360E+03    -228.037E-03     455.381E-03    -227.344E-03     14.3019E-03    -228.077E-03     454.139E-03    -227.341E-03     12.6327E-03
             132     250.963E-09     124.706E-03    -134.839E+06    -332.741E+06    -137.516E+06     229.805E+03    -228.090E-03     455.001E-03    -226.912E-03     13.6500E-03    -228.107E-03     453.758E-03    -226.921E-03     12.0407E-03
             133     537.034E-09     123.211E-03    -130.373E+06    -327.605E+06    -131.230E+06     773.749E+03    -227.745E-03     454.756E-03    -227.010E-03     13.7813E-03    -227.757E-03     453.522E-03    -227.002E-03     12.1779E-03
             134    -331.766E-09     121.720E-03    -133.424E+06    -328.063E+06    -131.792E+06    -645.282E+03    -227.645E-03     455.061E-03    -227.417E-03     13.8856E-03    -227.669E-03     453.831E-03    -227.407E-03     12.2868E-03
             135     413.243E-09     120.227E-03    -137.260E+06    -333.270E+06    -138.713E+06    -607.181E+03    -227.913E-03     455.382E-03    -227.469E-03     13.2193E-03    -227.938E-03     454.140E-03    -227.480E-03     11.6483E-03
             136     80.5246E-09     118.733E-03    -135.167E+06    -331.704E+06    -135.662E+06     1.00514E+06    -227.807E-03     455.103E-03    -227.296E-03     13.4736E-03    -227.829E-03     453.861E-03    -227.297E-03     11.8972E-03
             137     104.032E-09     117.240E-03    -135.096E+06    -329.022E+06    -134.668E+06    -676.689E+03    -227.289E-03     454.640E-03    -227.351E-03     14.1481E-03    -227.318E-03     453.413E-03    -227.352E-03     12.5081E-03
             138    -430.249E-09     115.748E-03    -137.654E+06    -330.936E+06    -136.842E+06     220.852E+03    -227.328E-03     454.616E-03    -227.288E-03     13.8194E-03    -227.362E-03     453.384E-03    -227.293E-03     12.2508E-03
             139     766.033E-09     114.258E-03    -136.150E+06    -330.148E+06    -137.216E+06     213.566E+03    -228.421E-03     455.256E-03    -226.836E-03     13.3611E-03    -228.447E-03     454.026E-03    -226.846E-03     11.8016E-03
             140     1.11099E-06     112.762E-03    -134.928E+06    -329.336E+06    -135.888E+06     -69.359E+03    -228.428E-03     455.498E-03    -227.070E-03     14.2470E-03    -228.453E-03     454.269E-03    -227.076E-03     12.6280E-03
             141    -1.10965E-06     111.269E-03    -136.273E+06    -329.499E+06    -134.934E+06     144.336E+03    -226.929E-03     454.941E-03    -228.013E-03     14.7418E-03    -226.963E-03     453.714E-03    -228.012E-03     13.1149E-03
             142    -499.207E-09     109.777E-03    -135.333E+06    -329.113E+06    -134.970E+06     279.319E+03    -226.865E-03     454.641E-03    -227.776E-03     13.7378E-03    -226.894E-03     453.414E-03    -227.778E-03     12.0926E-03
             143     753.942E-09     108.286E-03    -133.323E+06    -327.596E+06    -133.397E+06     228.939E+03    -228.075E-03     454.641E-03    -226.566E-03     12.9800E-03    -228.096E-03     453.413E-03    -226.565E-03     11.4466E-03
             144     1.10885E-06     106.793E-03    -133.409E+06    -327.929E+06    -134.411E+06    -390.512E+03    -228.364E-03     454.817E-03    -226.453E-03     13.7816E-03    -228.385E-03     453.591E-03    -226.456E-03     12.1903E-03
             145    -294.619E-09     105.300E-03    -135.707E+06    -329.640E+06    -135.171E+06    -36.9861E+03    -227.755E-03     454.976E-03    -227.221E-03     13.9917E-03    -227.784E-03     453.746E-03    -227.223E-03     12.4095E-03
             146     193.390E-09     103.808E-03    -132.094E+06    -327.066E+06    -132.265E+06     608.501E+03    -227.536E-03     454.732E-03    -227.196E-03     13.7828E-03    -227.556E-03     453.506E-03    -227.191E-03     12.1913E-03
             147     341.403E-09     102.315E-03    -132.624E+06    -327.033E+06    -133.271E+06    -706.724E+03    -227.470E-03     454.801E-03    -227.331E-03     14.9681E-03    -227.493E-03     453.580E-03    -227.331E-03     13.2621E-03
             148    -748.082E-09     100.821E-03    -133.215E+06    -326.050E+06    -132.958E+06     585.726E+03    -227.208E-03     454.756E-03    -227.548E-03     14.5964E-03    -227.235E-03     453.539E-03    -227.547E-03     12.9685E-03
             149     607.754E-09     99.3301E-03    -135.721E+06    -320.523E+06    -134.671E+06     1.42600E+06    -227.259E-03     454.384E-03    -227.125E-03     13.8929E-03    -227.302E-03     453.198E-03    -227.137E-03     12.3378E-03
             150    -320.589E-09     97.8412E-03    -136.289E+06    -315.641E+06    -136.874E+06     383.725E+03    -227.694E-03     454.876E-03    -227.182E-03     13.6015E-03    -227.744E-03     453.719E-03    -227.211E-03     11.9772E-03
             151     712.966E-09     96.3443E-03    -135.530E+06    -314.831E+06    -134.416E+06    -234.651E+03    -227.901E-03     454.914E-03    -227.013E-03     13.2640E-03    -227.951E-03     453.756E-03    -227.032E-03     11.6504E-03
             152     131.286E-09     94.8549E-03    -134.353E+06    -319.993E+06    -135.676E+06    -1.49323E+06    -227.408E-03     454.606E-03    -227.198E-03     13.8884E-03    -227.444E-03     453.423E-03    -227.217E-03     12.2811E-03
             153    -740.662E-09     93.3613E-03    -132.432E+06    -324.238E+06    -132.247E+06     218.588E+03    -227.188E-03     455.260E-03    -228.072E-03     13.8609E-03    -227.213E-03     454.049E-03    -228.071E-03     12.2288E-03
             154     31.4352E-09     91.8669E-03    -133.333E+06    -324.048E+06    -132.603E+06    -229.149E+03    -228.033E-03     455.417E-03    -227.384E-03     13.4091E-03    -228.061E-03     454.207E-03    -227.384E-03     11.8631E-03
             155     1.56500E-06     90.3739E-03    -133.296E+06    -322.097E+06    -135.344E+06     882.401E+03    -228.750E-03     455.209E-03    -226.460E-03     14.4338E-03    -228.778E-03     454.014E-03    -226.476E-03     12.8638E-03
             156     39.5867E-09     88.8803E-03    -134.444E+06    -317.645E+06    -133.988E+06     910.859E+03    -228.750E-03     455.294E-03    -226.544E-03     14.4497E-03    -228.793E-03     454.122E-03    -226.558E-03     12.8246E-03
             157     1.46221E-06     87.3879E-03    -133.153E+06    -317.942E+06    -133.841E+06    -1.19006E+06    -227.824E-03     454.755E-03    -226.932E-03     14.0066E-03    -227.859E-03     453.579E-03    -226.947E-03     12.3761E-03
             158    -1.74697E-06     85.8970E-03    -134.851E+06    -317.904E+06    -134.646E+06     841.401E+03    -226.631E-03     454.268E-03    -227.637E-03     13.8027E-03    -226.674E-03     453.096E-03    -227.654E-03     12.2042E-03
             159     52.4471E-09     82.9105E-03    -135.202E+06    -315.062E+06    -134.572E+06    -666.984E+03    -228.123E-03     455.241E-03    -227.117E-03     14.2935E-03    -228.172E-03     454.082E-03    -227.137E-03     12.7000E-03
             160     745.030E-09     81.4187E-03    -134.577E+06    -316.740E+06    -135.284E+06     315.963E+03    -227.913E-03     455.279E-03    -227.366E-03     14.0631E-03    -227.956E-03     454.112E-03    -227.388E-03     12.4536E-03
             161    -820.480E-09     79.9246E-03    -133.845E+06    -315.197E+06    -133.805E+06     318.406E+03    -227.322E-03     454.637E-03    -227.314E-03     13.3881E-03    -227.365E-03     453.474E-03    -227.332E-03     11.7741E-03
             162     860.604E-09     78.4346E-03    -135.194E+06    -314.563E+06    -135.377E+06    -312.460E+03    -227.483E-03     454.264E-03    -226.781E-03     13.3359E-03    -227.530E-03     453.108E-03    -226.806E-03     11.7477E-03
             163     56.9183E-09     76.9419E-03    -133.932E+06    -313.938E+06    -134.831E+06    -74.5476E+03    -227.619E-03     454.697E-03    -227.078E-03     14.1335E-03    -227.663E-03     453.543E-03    -227.103E-03     12.5313E-03
             164    -264.460E-09     75.4477E-03    -135.242E+06    -314.571E+06    -134.969E+06    -34.4962E+03    -227.098E-03     454.677E-03    -227.578E-03     13.9401E-03    -227.147E-03     453.520E-03    -227.601E-03     12.3793E-03
             165    -270.993E-09     73.9580E-03    -136.938E+06    -315.775E+06    -135.311E+06     484.086E+03    -227.349E-03     454.462E-03    -227.113E-03     13.3273E-03    -227.404E-03     453.303E-03    -227.133E-03     11.7262E-03
             166     1.11296E-06     72.4649E-03    -133.932E+06    -312.859E+06    -135.132E+06     43.2595E+03    -228.011E-03     454.639E-03    -226.629E-03     13.4632E-03    -228.055E-03     453.490E-03    -226.656E-03     11.8617E-03
             167    -33.1388E-09     70.9726E-03    -134.644E+06    -313.819E+06    -136.073E+06    -762.843E+03    -227.833E-03     454.962E-03    -227.129E-03     14.1814E-03    -227.878E-03     453.811E-03    -227.159E-03     12.5915E-03
             168    -110.508E-09     69.4786E-03    -135.564E+06    -315.303E+06    -135.264E+06     19.1522E+03    -227.693E-03     455.070E-03    -227.378E-03     14.1723E-03    -227.743E-03     453.913E-03    -227.400E-03     12.5440E-03
             169     651.766E-09     67.9853E-03    -135.092E+06    -315.169E+06    -135.452E+06     362.414E+03    -227.740E-03     454.680E-03    -226.941E-03     14.2836E-03    -227.787E-03     453.523E-03    -226.965E-03     12.7000E-03
             170    -111.296E-09     66.4950E-03    -135.187E+06    -315.004E+06    -134.995E+06     560.493E+03    -227.487E-03     454.581E-03    -227.095E-03     14.0980E-03    -227.535E-03     453.424E-03    -227.117E-03     12.4982E-03
             171     77.5662E-09     65.0024E-03    -136.070E+06    -314.886E+06    -134.797E+06    -450.535E+03    -227.335E-03     454.725E-03    -227.390E-03     13.6195E-03    -227.388E-03     453.568E-03    -227.410E-03     12.0084E-03
             172    -161.573E-09     63.5097E-03    -136.355E+06    -315.768E+06    -136.934E+06    -295.260E+03    -227.542E-03     454.369E-03    -226.827E-03     13.2452E-03    -227.590E-03     453.210E-03    -226.856E-03     11.6961E-03
             173     1.21680E-06     62.0186E-03    -136.691E+06    -316.767E+06    -137.636E+06    -470.900E+03    -227.729E-03     454.278E-03    -226.549E-03     14.0213E-03    -227.777E-03     453.117E-03    -226.580E-03     12.4389E-03
             174    -645.952E-09     60.5258E-03    -135.413E+06    -315.409E+06    -135.497E+06     532.194E+03    -227.551E-03     454.611E-03    -227.060E-03     13.9422E-03    -227.600E-03     453.453E-03    -227.084E-03     12.3036E-03
             175     724.908E-09     59.0349E-03    -136.461E+06    -315.836E+06    -135.625E+06    -23.3845E+03    -227.316E-03     454.557E-03    -227.241E-03     13.2897E-03    -227.368E-03     453.398E-03    -227.264E-03     11.6717E-03
             176    -735.744E-09     57.5423E-03    -134.909E+06    -314.998E+06    -135.122E+06     215.977E+03    -227.249E-03     454.453E-03    -227.204E-03     13.7248E-03    -227.294E-03     453.294E-03    -227.227E-03     12.1545E-03
             177     755.174E-09     56.0484E-03    -135.581E+06    -314.739E+06    -134.849E+06    -472.262E+03    -227.106E-03     454.030E-03    -226.924E-03     13.7994E-03    -227.156E-03     452.873E-03    -226.945E-03     12.2267E-03
             178    -562.089E-09     54.5604E-03    -136.544E+06    -316.804E+06    -138.119E+06     178.341E+03    -226.359E-03     453.593E-03    -227.234E-03     13.8786E-03    -226.406E-03     452.432E-03    -227.267E-03     12.3291E-03
             179    -957.557E-09     53.0685E-03    -132.543E+06    -311.635E+06    -131.008E+06     1.15275E+06    -226.878E-03     454.211E-03    -227.333E-03     13.5678E-03    -226.923E-03     453.061E-03    -227.344E-03     11.9517E-03
             180     1.78838E-06     51.5749E-03    -131.380E+06    -310.573E+06    -132.214E+06    -797.320E+03    -228.286E-03     454.174E-03    -225.888E-03     13.5232E-03    -228.326E-03     453.030E-03    -225.908E-03     11.8485E-03
             181     766.062E-09     50.0856E-03    -136.394E+06    -316.156E+06    -137.863E+06    -561.275E+03    -227.764E-03     453.558E-03    -225.794E-03     14.1659E-03    -227.812E-03     452.401E-03    -225.827E-03     12.5738E-03
             182    -566.575E-09     48.5951E-03    -135.611E+06    -315.673E+06    -135.935E+06     459.688E+03    -226.754E-03     453.268E-03    -226.514E-03     13.4398E-03    -226.801E-03     452.107E-03    -226.539E-03     11.8779E-03
             183     658.912E-09     47.1039E-03    -136.270E+06    -314.324E+06    -135.492E+06    -285.240E+03    -226.199E-03     452.684E-03    -226.485E-03     13.9933E-03    -226.252E-03     451.532E-03    -226.509E-03     12.4012E-03
             184    -1.21179E-06     45.6160E-03    -137.109E+06    -315.864E+06    -137.265E+06     273.065E+03    -226.059E-03     452.943E-03    -226.884E-03     14.4968E-03    -226.112E-03     451.787E-03    -226.913E-03     12.9449E-03
             185     515.955E-09     44.1242E-03    -130.867E+06    -310.397E+06    -130.788E+06     1.54683E+06    -226.079E-03     452.816E-03    -226.737E-03     13.5197E-03    -226.118E-03     451.669E-03    -226.751E-03     11.9598E-03
             186    -814.487E-09     42.6375E-03    -133.237E+06    -311.431E+06    -130.895E+06    -1.53500E+06    -226.072E-03     451.946E-03    -225.874E-03     13.1253E-03    -226.120E-03     450.797E-03    -225.884E-03     11.5020E-03
             187     1.37369E-06     41.1497E-03    -134.218E+06    -315.149E+06    -136.619E+06     314.925E+03    -226.465E-03     452.113E-03    -225.647E-03     13.4850E-03    -226.506E-03     450.956E-03    -225.679E-03     11.8612E-03
             188    -829.140E-09     39.6588E-03    -136.416E+06    -311.745E+06    -135.717E+06     559.626E+03    -226.387E-03     452.103E-03    -225.716E-03     13.7564E-03    -226.444E-03     450.964E-03    -225.745E-03     12.1982E-03
             189     1.19963E-06     38.1715E-03    -134.740E+06    -310.113E+06    -135.589E+06    -415.089E+03    -226.077E-03     450.766E-03    -224.689E-03     13.3308E-03    -226.128E-03     449.632E-03    -224.722E-03     11.7683E-03
             190     369.288E-09     36.6860E-03    -133.951E+06    -313.031E+06    -133.885E+06    -436.948E+03    -224.751E-03     449.654E-03    -224.902E-03     14.4292E-03    -224.799E-03     448.504E-03    -224.924E-03     12.7998E-03
             191    -2.21313E-06     35.2033E-03    -134.849E+06    -313.595E+06    -133.957E+06    -84.4288E+03    -223.787E-03     449.286E-03    -225.499E-03     12.9510E-03    -223.834E-03     448.132E-03    -225.518E-03     11.4281E-03
             192     1.55973E-06     33.7173E-03    -132.566E+06    -311.680E+06    -133.271E+06     642.914E+03    -224.261E-03     448.205E-03    -223.945E-03     12.4503E-03    -224.299E-03     447.056E-03    -223.967E-03     10.9631E-03
             193    -497.117E-09     32.2378E-03    -131.437E+06    -310.108E+06    -130.683E+06     633.823E+03    -224.083E-03     447.625E-03    -223.542E-03     13.5672E-03    -224.123E-03     446.479E-03    -223.555E-03     12.0624E-03
             194     165.813E-09     30.7544E-03    -133.429E+06    -304.763E+06    -134.097E+06     1.29237E+06    -223.375E-03     446.857E-03    -223.482E-03     12.2403E-03    -223.427E-03     445.743E-03    -223.517E-03     10.7848E-03
             195    -31.7489E-09     29.2760E-03    -135.273E+06    -295.823E+06    -135.381E+06     1.68278E+06    -222.914E-03     445.299E-03    -222.385E-03     11.8931E-03    -222.985E-03     444.233E-03    -222.437E-03     10.4728E-03
             196     622.484E-09     27.7999E-03    -133.028E+06    -289.278E+06    -132.592E+06     220.862E+03    -222.411E-03     444.726E-03    -222.314E-03     12.5264E-03    -222.486E-03     443.687E-03    -222.365E-03     11.0456E-03
             197    -1.11074E-06     26.3181E-03    -131.500E+06    -287.891E+06    -131.594E+06    -115.618E+03    -221.713E-03     443.017E-03    -221.303E-03     11.8952E-03    -221.781E-03     441.979E-03    -221.353E-03     10.4969E-03
             198     2.15483E-06     24.8482E-03    -132.135E+06    -289.901E+06    -132.336E+06     444.707E+03    -220.952E-03     439.776E-03    -218.824E-03     11.5216E-03    -221.018E-03     438.730E-03    -218.874E-03     10.1792E-03
             199    -159.654E-09     23.3806E-03    -129.818E+06    -288.139E+06    -131.362E+06      53.175E+03    -218.958E-03     436.459E-03    -217.501E-03     11.2340E-03    -219.017E-03     435.416E-03    -217.551E-03     9.85496E-03
             200     227.684E-09     21.9170E-03    -131.048E+06    -287.401E+06    -130.390E+06    -310.992E+03    -215.821E-03     432.153E-03    -216.332E-03     10.0888E-03    -215.887E-03     431.112E-03    -216.377E-03     8.78769E-03
             201    -1.05089E-06     20.4638E-03    -131.867E+06    -288.659E+06    -130.659E+06     435.069E+03    -212.682E-03     426.246E-03    -213.564E-03     9.12045E-03    -212.747E-03     425.198E-03    -213.608E-03     7.94853E-03
             202     590.381E-09     19.0146E-03    -126.672E+06    -287.020E+06    -126.930E+06     143.444E+03    -207.856E-03     417.184E-03    -209.327E-03     8.25158E-03    -207.902E-03     416.127E-03    -209.362E-03     7.21059E-03
             203    -2.28860E-06     17.5887E-03    -123.870E+06    -286.669E+06    -124.559E+06    -190.163E+03    -202.110E-03     405.167E-03    -203.057E-03     5.92197E-03    -202.143E-03     404.103E-03    -203.084E-03     4.96451E-03
             204     2.60681E-06     16.1789E-03    -120.674E+06    -283.022E+06    -120.518E+06     995.297E+03    -196.780E-03     391.825E-03    -195.045E-03     4.25365E-03    -196.806E-03     390.765E-03    -195.062E-03     3.42779E-03
             205    -326.275E-09     14.7849E-03    -117.744E+06    -280.475E+06    -119.037E+06     95.9532E+03    -188.808E-03     376.400E-03    -187.592E-03     4.41654E-03    -188.826E-03     375.345E-03    -187.610E-03     3.67813E-03
             206    -143.509E-09     13.4191E-03    -114.310E+06    -277.189E+06    -114.733E+06     1.30046E+06    -179.657E-03     359.583E-03    -179.927E-03     2.80973E-03    -179.667E-03     358.531E-03    -179.933E-03     2.20540E-03
             207     235.176E-09     12.0730E-03    -110.129E+06    -270.585E+06    -109.330E+06     1.00183E+06    -171.198E-03     342.147E-03    -170.949E-03     1.12828E-03    -171.204E-03     341.112E-03    -170.944E-03     596.779E-06
             208     93.2173E-09     10.7542E-03    -109.690E+06    -269.126E+06    -109.931E+06    -395.002E+03    -162.675E-03     324.799E-03    -162.125E-03     257.900E-06    -162.679E-03     323.772E-03    -162.125E-03    -262.972E-06
             209     448.021E-09     9.45340E-03    -110.327E+06    -265.137E+06    -111.000E+06     1.44277E+06    -155.628E-03     311.312E-03    -155.684E-03     1.15801E-03    -155.638E-03     310.309E-03    -155.695E-03     675.195E-06
             210    -1.07018E-06     8.17012E-03    -115.429E+06    -260.544E+06    -113.306E+06     359.396E+03    -153.074E-03     307.482E-03    -154.408E-03     3.76898E-03    -153.115E-03     306.516E-03    -154.429E-03     3.27061E-03
             211    -338.933E-09     6.87844E-03    -116.665E+06    -262.390E+06    -117.515E+06    -842.841E+03    -157.720E-03     316.431E-03    -158.710E-03     6.29103E-03    -157.761E-03     315.462E-03    -158.748E-03     5.77402E-03
             212     224.844E-09     5.57130E-03    -112.153E+06    -264.420E+06    -111.386E+06     1.66016E+03    -168.416E-03     336.948E-03    -168.532E-03     8.46512E-03    -168.445E-03     335.950E-03    -168.543E-03     7.96994E-03
             213    -243.882E-09     4.22725E-03    -100.749E+06    -271.293E+06    -100.305E+06    -2.06953E+06    -181.910E-03     363.852E-03    -181.942E-03     8.56141E-03    -181.887E-03     362.785E-03    -181.905E-03     8.06164E-03
             214     259.810E-09     2.84396E-03    -90.3437E+06    -277.421E+06    -91.3424E+06    -113.092E+03    -194.591E-03     388.912E-03    -194.320E-03     6.83377E-03    -194.516E-03     387.787E-03    -194.244E-03     6.44477E-03
             215     137.237E-09     1.43222E-03    -86.6911E+06    -275.782E+06    -85.0274E+06     508.866E+03    -203.415E-03     406.453E-03    -203.038E-03     3.88306E-03    -203.328E-03     405.322E-03    -202.937E-03     3.67057E-03
             216     731.036E-06     5.93969E-15    -83.1273E+06    -273.257E+06    -82.1583E+06     52.9427E+03    -206.395E-03     412.771E-03    -206.376E-03     3.14868E-03    -206.296E-03     411.645E-03    -206.270E-03     2.94306E-03
             217     1.46214E-03     5.93969E-15    -82.4873E+06    -270.968E+06    -79.5145E+06     103.490E+03    -206.006E-03     412.332E-03    -206.326E-03     6.18156E-03    -205.913E-03     411.214E-03    -206.211E-03     5.81111E-03
             218     2.19345E-03     5.93969E-15    -79.9926E+06    -258.770E+06    -76.3193E+06    -1.95414E+06    -205.636E-03     411.803E-03    -206.167E-03     9.09146E-03    -205.556E-03     410.741E-03    -206.058E-03     8.51755E-03
             219     2.92571E-03     5.93969E-15    -76.5723E+06    -239.066E+06    -69.7566E+06    -1.69886E+06    -205.138E-03     411.127E-03    -205.989E-03     11.9031E-03    -205.083E-03     410.153E-03    -205.880E-03     11.1581E-03
             220     3.65708E-03     5.93969E-15    -73.1870E+06    -213.814E+06    -61.3249E+06    -659.577E+03    -204.468E-03     410.244E-03    -205.776E-03     15.1223E-03    -204.450E-03     409.384E-03    -205.666E-03     14.2194E-03
             221     4.39023E-03     5.93969E-15    -70.0982E+06    -179.236E+06    -54.3032E+06    -462.123E+03    -203.985E-03     409.509E-03    -205.525E-03     17.3794E-03    -204.017E-03     408.814E-03    -205.435E-03     16.3063E-03
             222     5.12430E-03     5.93969E-15    -65.7863E+06    -140.581E+06    -46.6757E+06    -3.05372E+06    -203.733E-03     409.023E-03    -205.290E-03     19.1460E-03    -203.818E-03     408.510E-03    -205.224E-03     17.8441E-03
             223     5.85628E-03     5.93969E-15    -58.7813E+06    -94.2736E+06    -37.5699E+06    -5.35785E+06    -203.462E-03     408.539E-03    -205.076E-03     22.1837E-03    -203.601E-03     408.242E-03    -205.042E-03     20.6581E-03
             224     6.58999E-03     5.93969E-15    -49.6780E+06    -38.8003E+06    -26.7294E+06    -7.36952E+06    -203.617E-03     408.514E-03    -204.896E-03     25.4455E-03    -203.817E-03     408.476E-03    -204.902E-03     23.7237E-03
             225     7.32258E-03     5.93969E-15    -38.9280E+06    -2.48687E+06    -12.9941E+06    -8.53264E+06    -204.662E-03     409.510E-03    -204.848E-03     28.0318E-03    -204.893E-03     409.631E-03    -204.853E-03     26.0584E-03
             226     8.05495E-03     5.93969E-15    -29.4879E+06     10.4109E+06     3.66710E+06    -4.68701E+06    -206.655E-03     411.653E-03    -204.998E-03     30.7197E-03    -206.895E-03     411.814E-03    -204.952E-03     28.5508E-03
             227     8.78435E-03     5.93969E-15    -23.7467E+06     20.2510E+06     20.1908E+06     122.208E+03    -209.923E-03     415.283E-03    -205.360E-03     34.6230E-03    -210.195E-03     415.484E-03    -205.254E-03     32.1825E-03
             228     9.51088E-03     5.93969E-15    -20.8727E+06     28.1489E+06     36.6222E+06     1.63414E+06    -214.714E-03     420.706E-03    -205.992E-03     38.2570E-03    -215.031E-03     420.943E-03    -205.819E-03     35.4533E-03
             229     10.2348E-03     5.93969E-15    -18.7062E+06     34.5214E+06     55.8028E+06     2.44275E+06    -222.626E-03     429.634E-03    -207.008E-03     42.7970E-03    -223.014E-03     429.917E-03    -206.752E-03     39.3449E-03
             230     10.9502E-03     5.93969E-15    -14.9799E+06     40.0689E+06     71.6040E+06     1.15854E+06    -235.380E-03     443.933E-03    -208.554E-03     47.6000E-03    -235.833E-03     444.271E-03    -208.232E-03     43.2713E-03
             231     11.6560E-03     5.93969E-15    -10.5042E+06     49.2636E+06     78.7966E+06    -1.23872E+06    -254.381E-03     465.206E-03    -210.825E-03     59.5818E-03    -254.980E-03     465.717E-03    -210.487E-03     53.6164E-03
             232     12.3371E-03     5.93969E-15    -10.1188E+06     56.6587E+06     78.3215E+06    -2.60931E+06    -286.358E-03     500.573E-03    -214.215E-03     73.6803E-03    -287.220E-03     501.392E-03    -213.891E-03     64.5271E-03
             233     13.0139E-03     5.93969E-15    -11.6230E+06     62.8322E+06     76.8223E+06     121.488E+03    -345.755E-03     565.283E-03    -219.529E-03     77.7205E-03    -346.913E-03     566.455E-03    -219.219E-03     63.8394E-03
             234     13.6334E-03     5.93969E-15    -1.50333E+06     81.4651E+06     87.8526E+06     7.75104E+06    -440.758E-03     668.514E-03    -227.756E-03     162.134E-03    -443.843E-03     671.602E-03    -227.433E-03     138.015E-03
             235     14.2965E-03     2.12795E-03    -2.21663E+06     88.8654E+06     82.9992E+06     778.423E+03    -424.643E-03     654.790E-03    -230.147E-03     225.510E-03    -430.275E-03     660.420E-03    -229.858E-03     192.402E-03
             236     14.3034E-03     3.77259E-03    -9.01671E+06     79.4162E+06     73.6298E+06    -3.59591E+06    -343.082E-03     570.241E-03    -227.159E-03     164.365E-03    -348.062E-03     575.246E-03    -226.893E-03     133.068E-03
             237     14.3294E-03     5.41272E-03    -883.126E+03     77.4521E+06     80.7195E+06     426.786E+03    -314.853E-03     541.484E-03    -226.630E-03     124.229E-03    -318.621E-03     545.281E-03    -226.338E-03     96.6728E-03
             238     14.3337E-03     6.99612E-03    -2.11245E+06     74.8212E+06     80.6434E+06    -1.56783E+06    -294.663E-03     521.090E-03    -226.427E-03     112.853E-03    -298.311E-03     524.762E-03    -226.129E-03     86.5025E-03
             239     14.3362E-03     8.59883E-03    -4.56973E+06     73.3813E+06     83.6590E+06    -658.155E+03    -287.341E-03     513.697E-03    -226.356E-03     103.919E-03    -290.646E-03     517.003E-03    -226.038E-03     78.9852E-03
             240     14.3415E-03     10.1623E-03    -1.22888E+06     74.9837E+06     86.4971E+06    -938.942E+03    -277.309E-03     503.704E-03    -226.395E-03     98.3568E-03    -280.366E-03     506.770E-03    -226.070E-03     74.9147E-03
             241     14.3401E-03     11.7273E-03    -1.59760E+06     70.4199E+06     83.5285E+06    -616.732E+03    -268.316E-03     494.823E-03    -226.507E-03     89.9264E-03    -271.066E-03     497.574E-03    -226.189E-03     68.0718E-03
             242     14.3430E-03     13.2696E-03    -1.59457E+06     69.2212E+06     84.6441E+06    -59.9207E+03    -258.216E-03     484.917E-03    -226.701E-03     85.8312E-03    -260.827E-03     487.522E-03    -226.376E-03     65.2080E-03
             243     14.3421E-03     14.7995E-03    -1.66408E+06     69.1289E+06     83.9836E+06    -566.181E+03    -249.832E-03     476.756E-03    -226.925E-03     78.8564E-03    -252.274E-03     479.194E-03    -226.603E-03     59.3529E-03
             244     14.3397E-03     16.3205E-03    -2.06917E+06     68.2478E+06     82.8214E+06     965.361E+03    -241.427E-03     468.618E-03    -227.190E-03     73.8009E-03    -243.697E-03     470.881E-03    -226.872E-03     55.5793E-03
             245     14.3420E-03     17.8222E-03     1.56218E+06     69.9407E+06     86.1970E+06    -58.1219E+03    -233.983E-03     461.370E-03    -227.387E-03     69.7114E-03    -236.118E-03     463.508E-03    -227.059E-03     52.4427E-03
             246     14.3398E-03     19.3219E-03    -2.51465E+06     63.8750E+06     79.5978E+06    -1.34496E+06    -231.000E-03     458.471E-03    -227.471E-03     66.2274E-03    -233.070E-03     460.528E-03    -227.162E-03     49.3182E-03
             247     14.3403E-03     20.8225E-03    -5.79249E+06     61.7558E+06     77.2084E+06     580.273E+03    -229.304E-03     456.813E-03    -227.509E-03     65.6971E-03    -231.380E-03     458.865E-03    -227.204E-03     48.9392E-03
             248     14.3415E-03     22.3157E-03    -1.50018E+06     67.3814E+06     83.3628E+06     459.504E+03    -228.651E-03     456.108E-03    -227.457E-03     65.4270E-03    -230.722E-03     458.172E-03    -227.136E-03     48.6785E-03
             249     14.3434E-03     23.8150E-03    -2.20642E+06     68.2570E+06     83.3860E+06    -540.272E+03    -229.395E-03     456.735E-03    -227.340E-03     65.2228E-03    -231.445E-03     458.778E-03    -227.019E-03     48.5083E-03
             250     14.3439E-03     25.3189E-03    -1.50507E+06     68.8585E+06     82.9702E+06     338.481E+03    -229.894E-03     457.173E-03    -227.280E-03     67.2843E-03    -231.970E-03     459.248E-03    -226.963E-03     50.5467E-03
             251     14.3436E-03     26.8193E-03    -2.39954E+06     69.1280E+06     82.6804E+06     1.03864E+06    -229.301E-03     456.562E-03    -227.260E-03     68.3259E-03    -231.416E-03     458.674E-03    -226.944E-03     51.5149E-03
             252     14.3457E-03     28.3128E-03    -2.69528E+06     69.0339E+06     83.0112E+06    -221.392E+03    -229.202E-03     456.410E-03    -227.208E-03     67.0124E-03    -231.303E-03     458.505E-03    -226.889E-03     50.1832E-03
             253     14.3449E-03     29.8120E-03    -969.627E+03     70.0804E+06     85.3521E+06     145.403E+03    -229.697E-03     456.861E-03    -227.164E-03     65.5255E-03    -231.760E-03     458.922E-03    -226.837E-03     48.7718E-03
             254     14.3465E-03     31.3143E-03    -1.81802E+06     69.3526E+06     85.3929E+06    -325.247E+03    -228.920E-03     456.110E-03    -227.191E-03     65.9976E-03    -231.003E-03     458.186E-03    -226.861E-03     49.2300E-03
             255     14.3438E-03     32.8099E-03    -3.74438E+06     66.7467E+06     82.2029E+06    -678.911E+03    -228.375E-03     455.590E-03    -227.215E-03     66.5872E-03    -230.492E-03     457.692E-03    -226.895E-03     49.7168E-03
             256     14.3464E-03     34.3042E-03    -1.59120E+06     67.2042E+06     83.5624E+06     405.690E+03    -228.091E-03     455.269E-03    -227.178E-03     66.1105E-03    -230.191E-03     457.360E-03    -226.855E-03     49.2821E-03
             257     14.3466E-03     35.8022E-03    -1.09503E+06     69.5413E+06     86.0460E+06    -275.605E+03    -227.724E-03     454.855E-03    -227.131E-03     66.4295E-03    -229.845E-03     456.970E-03    -226.800E-03     49.5555E-03
             258     14.3473E-03     37.3011E-03    -1.91444E+06     68.9214E+06     85.1342E+06    -186.226E+03    -227.610E-03     454.736E-03    -227.126E-03     68.1904E-03    -229.774E-03     456.890E-03    -226.797E-03     51.2406E-03
             259     14.3460E-03     38.7970E-03    -3.47670E+06     68.3475E+06     84.5875E+06     651.487E+03    -227.527E-03     454.689E-03    -227.162E-03     68.7235E-03    -229.696E-03     456.843E-03    -226.833E-03     51.8440E-03
             260     14.3460E-03     40.2922E-03    -1.97222E+06     69.3581E+06     86.8507E+06    -269.789E+03    -227.270E-03     454.458E-03    -227.187E-03     68.5754E-03    -229.423E-03     456.598E-03    -226.851E-03     51.7598E-03
             261     14.3468E-03     41.7845E-03    -1.65555E+06     67.0455E+06     83.4416E+06    -545.298E+03    -227.094E-03     454.249E-03    -227.155E-03     67.0812E-03    -229.211E-03     456.356E-03    -226.833E-03     50.2966E-03
             262     14.3465E-03     43.2807E-03    -3.40829E+06     65.7212E+06     82.9952E+06     548.976E+03    -226.628E-03     453.793E-03    -227.164E-03     66.1435E-03    -228.748E-03     455.893E-03    -226.840E-03     49.3861E-03
             263     14.3465E-03     44.7754E-03    -1.52768E+06     69.5300E+06      85.684E+06    -55.3744E+03    -225.952E-03     453.123E-03    -227.171E-03     67.7423E-03    -228.120E-03     455.284E-03    -226.841E-03     50.8824E-03
             264     14.3476E-03     46.2663E-03    -2.35800E+06     69.5646E+06     84.9568E+06     218.508E+03    -226.377E-03     453.510E-03    -227.133E-03     68.0525E-03    -228.542E-03     455.668E-03    -226.806E-03     51.2051E-03
             265     14.3467E-03     47.7659E-03    -950.030E+03     70.5363E+06     86.4541E+06     446.016E+03    -226.563E-03     453.710E-03    -227.148E-03     67.3735E-03    -228.692E-03     455.836E-03    -226.816E-03     50.6486E-03
             266     14.3466E-03     49.2556E-03    -3.24390E+06     69.8024E+06     84.7524E+06    -126.297E+03    -226.081E-03     453.271E-03    -227.190E-03     67.4128E-03    -228.237E-03     455.417E-03    -226.863E-03     50.6317E-03
             267     14.3458E-03     50.7511E-03    -3.16235E+06     69.4486E+06     85.1547E+06    -310.839E+03    -225.972E-03     453.175E-03    -227.203E-03     68.0221E-03    -228.138E-03     455.330E-03    -226.874E-03     51.2380E-03
             268     14.3470E-03     52.2440E-03    -1.81036E+06     69.8448E+06     85.4508E+06     123.250E+03    -225.819E-03     453.003E-03    -227.184E-03     67.8076E-03    -227.970E-03     455.147E-03    -226.855E-03     51.0559E-03
             269     14.3467E-03     53.7351E-03    -2.07696E+06     69.7245E+06     86.0363E+06    -277.654E+03    -225.629E-03     452.796E-03    -227.167E-03     66.9692E-03    -227.766E-03     454.924E-03    -226.835E-03     50.2575E-03
             270     14.3475E-03     55.2306E-03    -1.26697E+06     68.5788E+06     85.4073E+06    -757.914E+03    -225.570E-03     452.724E-03    -227.153E-03     67.4861E-03    -227.727E-03     454.871E-03    -226.824E-03     50.6734E-03
             271     14.3469E-03     56.7219E-03    -2.64130E+06     68.2629E+06     84.9220E+06     1.51366E+06    -226.267E-03     453.416E-03    -227.149E-03     67.5729E-03    -228.433E-03     455.568E-03    -226.819E-03     50.7363E-03
             272     14.3466E-03     58.2180E-03    -2.70552E+06     72.4062E+06     88.5372E+06     346.538E+03    -226.065E-03     453.253E-03    -227.187E-03     67.2318E-03    -228.226E-03     455.404E-03    -226.846E-03     50.4711E-03
             273     14.3466E-03     59.7115E-03    -1.68258E+06     70.6081E+06     85.5643E+06    -1.58006E+06    -225.153E-03     452.352E-03    -227.199E-03     68.8153E-03    -227.327E-03     454.523E-03    -226.871E-03     52.0431E-03
             274     14.3468E-03     61.2015E-03    -1.39611E+06     69.0811E+06     84.4500E+06     1.23030E+06    -225.327E-03     452.499E-03    -227.172E-03     68.5787E-03    -227.476E-03     454.643E-03    -226.848E-03     51.9195E-03
             275     14.3475E-03     62.6952E-03    -1.32733E+06     72.0176E+06     87.7275E+06     235.563E+03    -225.655E-03     452.808E-03    -227.153E-03     67.4311E-03    -227.800E-03     454.949E-03    -226.816E-03     50.7345E-03
             276     14.3472E-03     64.1864E-03    -3.26420E+06     69.8198E+06     85.9056E+06    -896.914E+03    -225.940E-03     453.118E-03    -227.178E-03     66.5356E-03    -228.094E-03     455.259E-03    -226.845E-03     49.7349E-03
             277     14.3450E-03     65.6852E-03    -3.65928E+06     69.1966E+06     85.0368E+06     373.277E+03    -225.412E-03     452.622E-03    -227.210E-03     68.5356E-03    -227.608E-03     454.804E-03    -226.880E-03     51.6842E-03
             278     14.3485E-03     67.1699E-03    -2.29713E+06     71.7332E+06     86.4497E+06    -54.1157E+03    -225.452E-03     452.625E-03    -227.173E-03     68.0894E-03    -227.631E-03     454.799E-03    -226.841E-03     51.2888E-03
             279     14.3458E-03     68.6684E-03    -8.25775E+03     73.9180E+06     87.0543E+06     414.549E+03    -225.185E-03     452.338E-03    -227.152E-03     67.0492E-03    -227.323E-03     454.485E-03    -226.824E-03     50.3886E-03
             280     14.3490E-03     70.1594E-03    -1.06492E+06     72.4410E+06     85.8834E+06     -535.22E+03    -225.222E-03     452.385E-03    -227.163E-03     69.2088E-03    -227.407E-03     454.574E-03    -226.837E-03     52.4039E-03
             281     14.3445E-03     71.6521E-03    -2.60082E+06     70.4536E+06     85.2129E+06    -186.819E+03    -226.263E-03     453.454E-03    -227.191E-03     67.1059E-03    -228.411E-03     455.596E-03    -226.863E-03     50.3356E-03
             282     14.3473E-03     73.1456E-03    -3.59058E+06     70.4875E+06     84.5526E+06     6.31544E+03    -225.023E-03     452.248E-03    -227.225E-03     66.8490E-03    -227.189E-03     454.406E-03    -226.899E-03     50.0779E-03
             283     14.3460E-03     74.6344E-03    -2.84926E+06     70.5811E+06     86.0685E+06    -726.228E+03    -225.452E-03     452.645E-03    -227.193E-03     68.3912E-03    -227.652E-03     454.835E-03    -226.861E-03     51.4935E-03
             284     14.3474E-03     76.1327E-03    -1.37452E+06     71.1405E+06     87.2956E+06     106.603E+03    -226.075E-03     453.236E-03    -227.161E-03     68.4339E-03    -228.228E-03     455.384E-03    -226.826E-03     51.7181E-03
             285     14.3471E-03     77.6263E-03    -2.16253E+06     69.2883E+06     85.9756E+06     88.4775E+03    -225.610E-03     452.800E-03    -227.190E-03     69.2895E-03    -227.786E-03     454.966E-03    -226.858E-03     52.5319E-03
             286     14.3452E-03     79.1176E-03    -3.00155E+06     70.0911E+06     83.2189E+06     1.17720E+06    -225.642E-03     452.846E-03    -227.204E-03     68.4586E-03    -227.815E-03     455.016E-03    -226.885E-03     51.6927E-03
             287     14.3476E-03     80.6084E-03    -2.22009E+06     72.6293E+06     85.9987E+06     522.954E+03    -224.863E-03     452.039E-03    -227.176E-03     68.2445E-03    -227.027E-03     454.204E-03    -226.848E-03     51.5657E-03
             288     14.3478E-03     82.1002E-03    -825.153E+03     73.0291E+06     88.1484E+06    -1.14980E+06    -225.847E-03     453.013E-03    -227.166E-03     67.0663E-03    -227.997E-03     455.164E-03    -226.830E-03     50.3154E-03
             289     14.3446E-03     83.5991E-03    -3.72697E+06     69.7906E+06     84.1063E+06     845.563E+03    -226.156E-03     453.362E-03    -227.206E-03     68.4166E-03    -228.322E-03     455.519E-03    -226.881E-03     51.6793E-03
             290     14.3476E-03     85.0883E-03    -2.54670E+06     71.4853E+06     85.9496E+06     731.074E+03    -225.128E-03     452.364E-03    -227.236E-03     68.7092E-03    -227.287E-03     454.519E-03    -226.906E-03     52.0874E-03
             291     14.3449E-03     86.5802E-03    -1.94088E+06     72.1135E+06     86.4541E+06    -381.368E+03    -224.755E-03     451.980E-03    -227.225E-03     67.0789E-03    -226.917E-03     454.140E-03    -226.895E-03     50.3384E-03
             292     717.223E-06     85.9147E-03    -134.157E+06    -303.458E+06    -133.129E+06     572.646E+03    -227.028E-03     454.413E-03    -227.385E-03     23.1290E-03    -227.145E-03     453.363E-03    -227.416E-03     20.4922E-03
             293     1.43433E-03     85.9589E-03    -131.092E+06    -280.898E+06    -124.017E+06    -136.364E+03    -227.694E-03     454.892E-03    -227.198E-03     42.5301E-03    -228.009E-03     454.104E-03    -227.221E-03     37.6509E-03
             294     2.15151E-03     86.0307E-03    -126.156E+06    -265.562E+06    -107.724E+06    -347.983E+03    -228.163E-03     455.485E-03    -227.322E-03     62.7922E-03    -228.787E-03     455.031E-03    -227.292E-03     55.4584E-03
             295     2.86815E-03     86.1289E-03    -119.759E+06    -252.692E+06    -89.2972E+06    -291.453E+03    -228.522E-03     455.938E-03    -227.417E-03     82.7443E-03    -229.568E-03     455.921E-03    -227.323E-03     72.8899E-03
             296     3.58522E-03     86.2534E-03    -111.736E+06    -223.188E+06    -71.0197E+06     -639.35E+03    -228.971E-03     456.415E-03    -227.443E-03     102.213E-03    -230.591E-03     457.051E-03    -227.313E-03     89.7068E-03
             297     4.30178E-03     86.4041E-03    -103.324E+06    -182.992E+06    -52.4273E+06    -569.526E+03    -229.515E-03     456.958E-03    -227.442E-03     121.355E-03    -231.861E-03     458.439E-03    -227.289E-03     106.110E-03
             298     5.01920E-03     86.5798E-03    -95.1003E+06    -156.838E+06    -33.8758E+06    -432.485E+03    -229.936E-03     457.385E-03    -227.449E-03     139.722E-03    -233.129E-03     459.782E-03    -227.253E-03     121.693E-03
             299     5.73688E-03     86.7779E-03    -86.5875E+06    -123.657E+06    -15.6960E+06    -369.696E+03    -230.377E-03     457.806E-03    -227.429E-03     157.146E-03    -234.566E-03     461.294E-03    -227.202E-03     136.271E-03
             300     6.45377E-03     86.9987E-03    -77.6999E+06    -81.1250E+06     2.61890E+06    -806.175E+03    -230.902E-03     458.301E-03    -227.399E-03     173.583E-03    -236.222E-03     463.050E-03    -227.156E-03     149.873E-03
             301     7.17187E-03     87.2403E-03    -69.0778E+06    -40.7980E+06     19.9199E+06    -1.53268E+06    -231.359E-03     458.741E-03    -227.382E-03     188.192E-03    -237.864E-03     464.798E-03    -227.123E-03     161.816E-03
             302     7.88837E-03     87.4983E-03    -60.3402E+06     939.971E+03     36.2738E+06    -1.26180E+06    -231.647E-03     459.017E-03    -227.370E-03     200.249E-03    -239.308E-03     466.362E-03    -227.103E-03     171.548E-03
             303     8.60598E-03     87.7727E-03    -51.7695E+06     26.1563E+06     46.6602E+06     686.464E+03    -231.564E-03     458.920E-03    -227.356E-03     208.575E-03    -240.187E-03     467.317E-03    -227.085E-03     178.087E-03
             304     9.32385E-03     88.0512E-03    -43.9509E+06     38.7961E+06     54.7578E+06     2.11753E+06    -231.088E-03     458.428E-03    -227.340E-03     212.345E-03    -240.352E-03     467.514E-03    -227.058E-03     180.748E-03
             305     10.0401E-03     88.3325E-03    -36.6068E+06     47.6304E+06     65.5477E+06     1.57100E+06    -230.401E-03     457.735E-03    -227.334E-03     210.612E-03    -239.895E-03     467.078E-03    -227.022E-03     178.583E-03
             306     10.7593E-03     88.6023E-03    -28.5669E+06     52.8433E+06     77.4871E+06     1.27548E+06    -229.520E-03     456.859E-03    -227.339E-03     202.786E-03    -238.778E-03     465.978E-03    -226.987E-03     171.006E-03
             307     11.4761E-03     88.8601E-03    -20.2119E+06     59.3295E+06     85.4285E+06     1.85842E+06    -228.597E-03     455.924E-03    -227.327E-03     191.084E-03    -237.285E-03     464.503E-03    -226.957E-03     160.034E-03
             308     12.1935E-03     89.0964E-03    -13.8675E+06     65.6443E+06     88.1010E+06     1.38638E+06    -227.484E-03     454.778E-03    -227.294E-03     172.136E-03    -235.035E-03     462.257E-03    -226.929E-03     142.897E-03
             309     12.9104E-03     89.2983E-03    -9.14927E+06     70.9914E+06     89.2790E+06     235.627E+03    -226.108E-03     453.355E-03    -227.248E-03     155.005E-03    -232.784E-03     459.993E-03    -226.891E-03     127.000E-03
             310     13.6310E-03     89.4873E-03    -5.03429E+06     72.7398E+06     88.0410E+06    -73.8284E+03    -225.601E-03     452.796E-03    -227.196E-03     108.433E-03    -229.972E-03     457.153E-03    -226.854E-03     86.0171E-03
             311     717.087E-06     87.4067E-03    -132.724E+06    -303.152E+06    -132.771E+06    -723.402E+03    -227.740E-03     454.889E-03    -227.149E-03     23.1241E-03    -227.850E-03     453.837E-03    -227.181E-03     20.4637E-03
             312     1.43379E-03     87.4516E-03    -131.045E+06    -280.401E+06    -124.252E+06    -87.7009E+03    -227.719E-03     455.110E-03    -227.391E-03     42.2894E-03    -228.034E-03     454.325E-03    -227.416E-03     37.3974E-03
             313     2.15052E-03     87.5230E-03    -126.609E+06    -265.199E+06    -107.843E+06    -112.235E+03    -227.958E-03     455.385E-03    -227.427E-03     62.3964E-03    -228.582E-03     454.931E-03    -227.398E-03     55.0704E-03
             314     2.86787E-03     87.6217E-03    -119.620E+06    -251.920E+06    -89.4456E+06    -209.334E+03    -228.426E-03     455.883E-03    -227.457E-03     82.3161E-03    -229.470E-03     455.868E-03    -227.366E-03     72.4611E-03
             315     3.58479E-03     87.7461E-03    -112.183E+06    -222.632E+06    -71.4386E+06    -324.131E+03    -228.970E-03     456.438E-03    -227.467E-03     102.148E-03    -230.593E-03     457.079E-03    -227.339E-03     89.6319E-03
             316     4.30225E-03     87.8972E-03    -104.567E+06    -183.130E+06    -53.3935E+06    -175.408E+03    -229.402E-03     456.856E-03    -227.454E-03     121.331E-03    -231.753E-03     458.340E-03    -227.304E-03     106.096E-03
             317     5.01945E-03     88.0717E-03    -96.0090E+06    -156.334E+06    -34.5053E+06    -71.7854E+03    -229.870E-03     457.317E-03    -227.447E-03     139.573E-03    -233.065E-03     459.716E-03    -227.253E-03     121.557E-03
             318     5.73654E-03     88.2706E-03    -87.2594E+06    -123.735E+06    -16.4388E+06    -565.515E+03    -230.499E-03     457.930E-03    -227.431E-03     157.197E-03    -234.695E-03     461.424E-03    -227.207E-03     136.291E-03
             319     6.45422E-03     88.4914E-03    -78.8900E+06    -80.9217E+06     1.59718E+06    -146.598E+03    -231.073E-03     458.489E-03    -227.417E-03     173.488E-03    -236.394E-03     463.238E-03    -227.177E-03     149.779E-03
             320     7.17089E-03     88.7326E-03    -70.9653E+06    -38.2652E+06     19.6188E+06    -175.068E+03    -231.527E-03     458.943E-03    -227.416E-03     188.272E-03    -238.045E-03     465.017E-03    -227.159E-03     161.910E-03
             321     7.88841E-03     88.9928E-03    -63.4267E+06     610.110E+03     34.4877E+06    -966.934E+03    -231.644E-03     459.049E-03    -227.405E-03     200.612E-03    -239.327E-03     466.409E-03    -227.142E-03     171.910E-03
             322     8.60547E-03     89.2642E-03    -55.2821E+06     22.5215E+06     43.5676E+06    -1.26163E+06    -231.355E-03     458.729E-03    -227.374E-03     209.129E-03    -239.991E-03     467.122E-03    -227.109E-03     178.664E-03
             323     9.32262E-03     89.5446E-03    -46.0814E+06     36.8656E+06     52.9265E+06    -832.533E+03    -230.921E-03     458.259E-03    -227.339E-03     212.781E-03    -240.193E-03     467.345E-03    -227.061E-03     181.180E-03
             324     10.0422E-03     89.8235E-03    -36.7883E+06     47.5620E+06     65.2006E+06    -26.1720E+03    -230.335E-03     457.659E-03    -227.325E-03     210.656E-03    -239.837E-03     467.010E-03    -227.014E-03     178.586E-03
             325     10.7580E-03     90.0970E-03    -29.2468E+06     52.1096E+06     76.2237E+06     104.296E+03    -229.536E-03     456.862E-03    -227.326E-03     202.773E-03    -238.800E-03     465.987E-03    -226.978E-03     170.950E-03
             326     11.4761E-03     90.3511E-03    -22.9670E+06     57.8553E+06     82.9958E+06    -180.316E+03    -228.464E-03     455.774E-03    -227.310E-03     191.190E-03    -237.156E-03     464.349E-03    -226.946E-03     160.140E-03
             327     12.1943E-03     90.5901E-03    -16.3106E+06     65.1685E+06     86.3786E+06     532.318E+03    -227.558E-03     454.835E-03    -227.277E-03     172.384E-03    -235.129E-03     462.329E-03    -226.916E-03     143.096E-03
             328     12.9124E-03     90.7912E-03    -9.92934E+06     72.4329E+06     88.5996E+06     1.02428E+06    -226.773E-03     454.026E-03    -227.253E-03     154.835E-03    -233.492E-03     460.710E-03    -226.901E-03     126.642E-03
             329     13.6272E-03     90.9789E-03    -4.10517E+06     73.9450E+06     88.2569E+06     324.627E+03    -225.753E-03     452.981E-03    -227.228E-03     109.287E-03    -230.163E-03     457.382E-03    -226.888E-03     86.7404E-03
             330     716.454E-06     88.9003E-03    -134.165E+06    -303.284E+06    -131.918E+06     599.850E+03    -228.193E-03     455.242E-03    -227.049E-03     23.5427E-03    -228.314E-03     454.193E-03    -227.074E-03     20.8733E-03
             331     1.43340E-03     88.9443E-03    -131.941E+06    -280.429E+06    -123.649E+06     182.176E+03    -227.711E-03     455.243E-03    -227.532E-03     42.7408E-03    -228.033E-03     454.459E-03    -227.552E-03     37.8534E-03
             332     2.15073E-03     89.0158E-03    -126.765E+06    -265.004E+06    -108.403E+06     119.221E+03    -227.989E-03     455.499E-03    -227.511E-03     62.8142E-03    -228.615E-03     455.049E-03    -227.485E-03     55.5016E-03
             333     2.86760E-03     89.1140E-03    -120.174E+06    -252.256E+06    -90.1921E+06     338.197E+03    -228.412E-03     455.930E-03    -227.518E-03     82.5707E-03    -229.461E-03     455.919E-03    -227.429E-03     72.7062E-03
             334     3.58486E-03     89.2389E-03    -112.664E+06    -222.227E+06    -71.6247E+06     623.982E+03    -228.837E-03     456.339E-03    -227.502E-03     102.185E-03    -230.462E-03     456.983E-03    -227.375E-03     89.6961E-03
             335     4.30183E-03     89.3894E-03    -104.221E+06    -182.394E+06    -52.7470E+06     302.438E+03    -229.328E-03     456.796E-03    -227.467E-03     121.210E-03    -231.676E-03     458.279E-03    -227.316E-03     105.999E-03
             336     5.01921E-03     89.5643E-03    -95.6433E+06    -156.540E+06    -34.4632E+06     223.415E+03    -230.001E-03     457.462E-03    -227.461E-03     139.476E-03    -233.197E-03     459.862E-03    -227.268E-03     121.434E-03
             337     5.73674E-03     89.7630E-03    -87.4279E+06    -123.547E+06    -16.5390E+06     677.960E+03    -230.639E-03     458.100E-03    -227.461E-03     157.018E-03    -234.831E-03     461.591E-03    -227.238E-03     136.127E-03
             338     6.45347E-03     89.9846E-03    -79.1544E+06    -80.9441E+06     1.41196E+06     666.832E+03    -231.114E-03     458.569E-03    -227.455E-03     173.433E-03    -236.434E-03     463.316E-03    -227.216E-03     149.740E-03
             339     7.17100E-03     90.2259E-03    -69.8133E+06    -38.9707E+06     19.6221E+06     1.01725E+06    -231.344E-03     458.785E-03    -227.442E-03     188.510E-03    -237.855E-03     464.853E-03    -227.186E-03     162.194E-03
             340     7.88817E-03     90.4855E-03    -60.2362E+06     2.66519E+06     36.5047E+06     1.23327E+06    -231.289E-03     458.692E-03    -227.403E-03     200.941E-03    -238.960E-03     466.053E-03    -227.137E-03     172.336E-03
             341     8.60611E-03     90.7573E-03    -51.5673E+06     26.5372E+06     47.4555E+06    -432.308E+03    -231.285E-03     458.640E-03    -227.355E-03     209.445E-03    -239.923E-03     467.051E-03    -227.081E-03     178.994E-03
             342     9.32456E-03     91.0369E-03    -43.8075E+06     34.9382E+06     55.4779E+06    -1.40908E+06    -231.119E-03     458.446E-03    -227.328E-03     212.891E-03    -240.391E-03     467.526E-03    -227.037E-03     181.243E-03
             343     10.0399E-03     91.3170E-03    -37.5108E+06     45.5688E+06     65.3701E+06    -394.307E+03    -230.483E-03     457.803E-03    -227.319E-03     210.762E-03    -239.990E-03     467.148E-03    -227.004E-03     178.681E-03
             344     10.7594E-03     91.5883E-03    -30.9753E+06     53.0079E+06     75.6416E+06    -313.336E+03    -229.495E-03     456.814E-03    -227.319E-03     202.806E-03    -238.767E-03     465.944E-03    -226.972E-03     170.997E-03
             345     11.4766E-03     91.8453E-03    -23.1289E+06     57.7513E+06     82.6859E+06    -417.249E+03    -228.637E-03     455.946E-03    -227.309E-03     190.689E-03    -237.324E-03     464.516E-03    -226.946E-03     159.603E-03
             346     12.1940E-03     92.0806E-03    -16.6002E+06     63.9832E+06     85.3906E+06    -522.736E+03    -227.556E-03     454.839E-03    -227.284E-03     171.687E-03    -235.115E-03     462.319E-03    -226.926E-03     142.375E-03
             347     12.9104E-03     92.2867E-03    -10.1346E+06     71.9746E+06     87.1390E+06    -690.156E+03    -226.424E-03     453.671E-03    -227.247E-03     155.195E-03    -233.138E-03     460.352E-03    -226.901E-03     127.036E-03
             348     13.6299E-03     92.4712E-03    -3.79481E+06     74.8720E+06     86.8956E+06     112.633E+03    -225.707E-03     452.913E-03    -227.206E-03     110.075E-03    -230.121E-03     457.327E-03    -226.875E-03     87.5206E-03
             349     717.081E-06     90.3934E-03    -132.804E+06    -305.185E+06    -132.817E+06     661.420E+03    -228.198E-03     455.187E-03    -226.989E-03     23.4199E-03    -228.307E-03     454.126E-03    -227.018E-03     20.7841E-03
             350     1.43400E-03     90.4371E-03    -130.731E+06    -280.387E+06    -123.774E+06     383.627E+03    -227.778E-03     455.297E-03    -227.519E-03     42.4968E-03    -228.093E-03     454.512E-03    -227.542E-03     37.6081E-03
             351     2.15062E-03     90.5086E-03    -126.489E+06    -265.677E+06    -108.306E+06     598.545E+03    -228.021E-03     455.546E-03    -227.525E-03     62.6023E-03    -228.645E-03     455.092E-03    -227.498E-03     55.2788E-03
             352     2.86762E-03     90.6070E-03    -119.744E+06    -252.404E+06    -89.3675E+06     892.321E+03    -228.364E-03     455.896E-03    -227.532E-03     82.6091E-03    -229.413E-03     455.883E-03    -227.439E-03     72.7509E-03
             353     3.58460E-03     90.7312E-03    -111.563E+06    -222.433E+06    -70.8862E+06     755.581E+03    -228.846E-03     456.351E-03    -227.506E-03     102.320E-03    -230.465E-03     456.991E-03    -227.376E-03     89.8430E-03
             354     4.30217E-03     90.8820E-03    -103.217E+06    -182.778E+06    -52.4067E+06     906.332E+03    -229.463E-03     456.940E-03    -227.478E-03     121.321E-03    -231.805E-03     458.420E-03    -227.325E-03     106.115E-03
             355     5.01928E-03     91.0570E-03    -95.1975E+06    -157.343E+06    -34.0852E+06     1.15218E+06    -230.168E-03     457.659E-03    -227.491E-03     139.574E-03    -233.362E-03     460.056E-03    -227.295E-03     121.532E-03
             356     5.73583E-03     91.2563E-03    -86.5269E+06    -124.025E+06    -15.8554E+06     1.50621E+06    -230.663E-03     458.162E-03    -227.499E-03     157.198E-03    -234.854E-03     461.651E-03    -227.273E-03     136.322E-03
             357     6.45349E-03     91.4770E-03    -77.3043E+06    -80.4228E+06     2.89338E+06     1.42120E+06    -230.953E-03     458.431E-03    -227.478E-03     173.898E-03    -236.276E-03     463.186E-03    -227.235E-03     150.221E-03
             358     7.17066E-03     91.7190E-03    -68.3867E+06    -38.9340E+06     20.8672E+06     609.279E+03    -231.085E-03     458.523E-03    -227.438E-03     188.710E-03    -237.594E-03     464.591E-03    -227.178E-03     162.413E-03
             359     7.88887E-03     91.9771E-03    -59.0346E+06     3.60438E+06     38.0160E+06    -56.8678E+03    -231.195E-03     458.578E-03    -227.383E-03     200.867E-03    -238.859E-03     465.935E-03    -227.113E-03     172.260E-03
             360     8.60666E-03     92.2501E-03    -50.1026E+06     28.2228E+06     49.1430E+06     399.897E+03    -231.324E-03     458.660E-03    -227.335E-03     209.160E-03    -239.954E-03     467.069E-03    -227.058E-03     178.710E-03
             361     9.32283E-03     92.5300E-03    -43.0313E+06     34.9541E+06     55.6678E+06     1.09235E+06    -231.172E-03     458.484E-03    -227.312E-03     212.632E-03    -240.435E-03     467.556E-03    -227.022E-03     181.017E-03
             362     10.0426E-03     92.8095E-03    -35.7574E+06     46.2889E+06     66.3709E+06     317.387E+03    -230.571E-03     457.884E-03    -227.313E-03     210.542E-03    -240.068E-03     467.225E-03    -226.996E-03     178.458E-03
             363     10.7581E-03     93.0820E-03    -27.5918E+06     54.1306E+06     77.9564E+06    -256.381E+03    -229.693E-03     457.020E-03    -227.328E-03     202.461E-03    -238.951E-03     466.147E-03    -226.976E-03     170.614E-03
             364     11.4761E-03     93.3364E-03    -21.0241E+06     57.3381E+06     83.3953E+06    -382.102E+03    -228.738E-03     456.062E-03    -227.324E-03     190.954E-03    -237.428E-03     464.639E-03    -226.959E-03     159.843E-03
             365     12.1926E-03     93.5770E-03    -14.3333E+06     64.5709E+06     86.0822E+06    -160.682E+03    -227.319E-03     454.609E-03    -227.290E-03     171.970E-03    -234.860E-03     462.079E-03    -226.932E-03     142.747E-03
             366     12.9125E-03     93.7738E-03    -9.10435E+06     71.3765E+06     87.4593E+06     239.631E+03    -226.143E-03     453.380E-03    -227.236E-03     155.506E-03    -232.835E-03     460.039E-03    -226.889E-03     127.463E-03
             367     13.6293E-03     93.9675E-03    -4.99820E+06     74.0615E+06     86.6162E+06    -13.2271E+03    -225.612E-03     452.796E-03    -227.184E-03     109.348E-03    -230.010E-03     457.189E-03    -226.851E-03     86.8597E-03
             368     716.600E-06     91.8862E-03    -132.641E+06    -306.659E+06    -132.159E+06     146.957E+03    -227.841E-03     455.323E-03    -227.482E-03     22.7902E-03    -227.947E-03     454.253E-03    -227.506E-03     20.1657E-03
             369     1.43332E-03     91.9304E-03    -130.447E+06    -281.068E+06    -124.112E+06     632.599E+03    -227.698E-03     455.254E-03    -227.556E-03     42.4192E-03    -228.011E-03     454.466E-03    -227.580E-03     37.5238E-03
             370     2.15037E-03     92.0016E-03    -125.697E+06    -265.882E+06    -107.418E+06     530.883E+03    -227.897E-03     455.414E-03    -227.517E-03     62.7229E-03    -228.518E-03     454.957E-03    -227.487E-03     55.4000E-03
             371     2.86775E-03     92.0990E-03    -118.647E+06    -253.139E+06    -88.9629E+06     478.594E+03    -228.384E-03     455.890E-03    -227.506E-03     82.7581E-03    -229.428E-03     455.872E-03    -227.412E-03     72.8930E-03
             372     3.58509E-03     92.2243E-03    -110.846E+06    -223.317E+06    -70.6197E+06     795.123E+03    -229.027E-03     456.531E-03    -227.504E-03     102.212E-03    -230.643E-03     457.165E-03    -227.372E-03     89.7130E-03
             373     4.30183E-03     92.3743E-03    -102.774E+06    -184.227E+06    -52.1410E+06     1.08071E+06    -229.572E-03     457.076E-03    -227.504E-03     121.179E-03    -231.911E-03     458.547E-03    -227.348E-03     105.961E-03
             374     5.01875E-03     92.5507E-03    -93.7871E+06    -157.761E+06    -33.0310E+06     1.46426E+06    -230.015E-03     457.527E-03    -227.512E-03     139.724E-03    -233.201E-03     459.916E-03    -227.312E-03     121.715E-03
             375     5.73649E-03     92.7486E-03    -84.4711E+06    -124.222E+06    -14.3511E+06     1.30433E+06    -230.470E-03     457.962E-03    -227.492E-03     157.628E-03    -234.661E-03     461.454E-03    -227.261E-03     136.755E-03
             376     6.45359E-03     92.9702E-03    -75.2489E+06    -81.2957E+06     4.20388E+06     1.51739E+06    -230.841E-03     458.292E-03    -227.451E-03     174.168E-03    -236.157E-03     463.040E-03    -227.203E-03     150.505E-03
             377     7.17151E-03     93.2110E-03    -66.4142E+06    -36.2008E+06     23.3324E+06     1.71432E+06    -231.146E-03     458.555E-03    -227.409E-03     188.715E-03    -237.653E-03     464.630E-03    -227.144E-03     162.433E-03
             378     7.88871E-03     93.4698E-03    -58.4844E+06     5.36665E+06     39.6053E+06     714.407E+03    -231.422E-03     458.791E-03    -227.369E-03     200.920E-03    -239.097E-03     466.163E-03    -227.094E-03     172.277E-03
             379     8.60571E-03     93.7429E-03    -50.4864E+06     26.1677E+06     48.3936E+06     248.509E+03    -231.468E-03     458.802E-03    -227.333E-03     209.221E-03    -240.095E-03     467.202E-03    -227.056E-03     178.762E-03
             380     9.32492E-03     94.0223E-03    -41.6524E+06     34.5680E+06     55.5565E+06     562.368E+03    -231.264E-03     458.582E-03    -227.318E-03     212.495E-03    -240.520E-03     467.651E-03    -227.030E-03     180.854E-03
             381     10.0398E-03     94.3032E-03    -33.2739E+06     48.0814E+06     67.9293E+06     623.209E+03    -230.528E-03     457.854E-03    -227.326E-03     210.142E-03    -240.011E-03     467.192E-03    -227.008E-03     178.057E-03
             382     10.7592E-03     94.5738E-03    -26.4346E+06     54.8216E+06     79.0396E+06     74.5858E+03    -229.485E-03     456.817E-03    -227.332E-03     202.858E-03    -238.737E-03     465.940E-03    -226.978E-03     171.071E-03
             383     11.4756E-03     94.8319E-03    -20.0901E+06     56.4749E+06     84.2002E+06     728.927E+03    -228.260E-03     455.563E-03    -227.302E-03     191.680E-03    -236.941E-03     464.129E-03    -226.934E-03     160.704E-03
             384     12.1953E-03     95.0658E-03    -15.2458E+06     64.1454E+06     86.3607E+06     1.30705E+06    -227.400E-03     454.652E-03    -227.252E-03     172.580E-03    -234.957E-03     462.132E-03    -226.891E-03     143.384E-03
             385     12.9110E-03     95.2695E-03    -10.0984E+06     72.2365E+06     88.1118E+06     976.738E+03    -226.836E-03     454.057E-03    -227.221E-03     155.521E-03    -233.551E-03     460.737E-03    -226.871E-03     127.365E-03
             386     13.6292E-03     95.4571E-03    -4.35758E+06     74.8590E+06     87.2777E+06     59.2671E+03    -225.725E-03     452.916E-03    -227.192E-03     109.006E-03    -230.140E-03     457.328E-03    -226.857E-03     86.4026E-03
             387     716.646E-06     93.3798E-03    -132.618E+06    -307.100E+06    -131.953E+06     104.428E+03    -227.344E-03     455.118E-03    -227.773E-03     23.3323E-03    -227.451E-03     454.047E-03    -227.796E-03     20.6651E-03
             388     1.43378E-03     93.4231E-03    -130.627E+06    -281.746E+06    -124.298E+06    -48.3717E+03    -227.612E-03     455.064E-03    -227.452E-03     42.7200E-03    -227.924E-03     454.272E-03    -227.475E-03     37.8402E-03
             389     2.15115E-03     93.4937E-03    -125.491E+06    -266.373E+06    -107.885E+06     299.700E+03    -227.998E-03     455.440E-03    -227.442E-03     62.6727E-03    -228.616E-03     454.980E-03    -227.413E-03     55.3648E-03
             390     2.86794E-03     93.5921E-03    -119.009E+06    -253.707E+06    -89.3387E+06     414.699E+03    -228.579E-03     456.068E-03    -227.488E-03     82.6296E-03    -229.623E-03     456.047E-03    -227.395E-03     72.7587E-03
             391     3.58451E-03     93.7169E-03    -111.162E+06    -224.234E+06    -70.7460E+06     361.182E+03    -229.066E-03     456.583E-03    -227.517E-03     102.309E-03    -230.684E-03     457.216E-03    -227.385E-03     89.7936E-03
             392     4.30155E-03     93.8680E-03    -102.253E+06    -184.535E+06    -51.6317E+06     460.441E+03    -229.410E-03     456.914E-03    -227.505E-03     121.531E-03    -231.750E-03     458.386E-03    -227.347E-03     106.317E-03
             393     5.01921E-03     94.0422E-03    -92.9975E+06    -158.134E+06    -32.6731E+06     377.909E+03    -229.878E-03     457.364E-03    -227.486E-03     140.061E-03    -233.065E-03     459.755E-03    -227.285E-03     122.043E-03
             394     5.73648E-03     94.2415E-03    -83.7614E+06    -124.999E+06    -14.1353E+06     617.982E+03    -230.424E-03     457.879E-03    -227.455E-03     157.605E-03    -234.608E-03     461.363E-03    -227.223E-03     136.729E-03
             395     6.45421E-03     94.4625E-03    -74.5524E+06    -81.6991E+06     4.84084E+06     731.690E+03    -230.855E-03     458.275E-03    -227.420E-03     173.763E-03    -236.159E-03     463.011E-03    -227.169E-03     150.100E-03
             396     7.17143E-03     94.7034E-03    -65.0248E+06    -38.1186E+06     23.4183E+06     1.46481E+06    -231.271E-03     458.660E-03    -227.390E-03     188.546E-03    -237.767E-03     464.723E-03    -227.123E-03     162.239E-03
             397     7.88885E-03     94.9634E-03    -55.6356E+06     5.53995E+06     40.5481E+06     2.93714E+06    -231.546E-03     458.909E-03    -227.363E-03     200.772E-03    -239.208E-03     466.275E-03    -227.087E-03     172.140E-03
             398     8.60701E-03     95.2350E-03    -47.8637E+06     29.2870E+06     50.7064E+06     2.50585E+06    -231.600E-03     458.942E-03    -227.342E-03     209.082E-03    -240.224E-03     467.353E-03    -227.061E-03     178.627E-03
             399     9.32224E-03     95.5163E-03    -41.6192E+06     34.7879E+06     56.6387E+06     934.744E+03    -231.140E-03     458.467E-03    -227.327E-03     212.722E-03    -240.395E-03     467.534E-03    -227.034E-03     181.123E-03
             400     10.0420E-03     95.7954E-03    -35.1821E+06      48.048E+06     67.3618E+06     366.610E+03    -230.274E-03     457.585E-03    -227.311E-03     211.000E-03    -239.774E-03     466.936E-03    -226.993E-03     178.974E-03
             401     10.7580E-03     96.0669E-03    -28.1060E+06     55.0974E+06     78.2132E+06     452.444E+03    -229.218E-03     456.512E-03    -227.294E-03     203.323E-03    -238.486E-03     465.649E-03    -226.942E-03     171.585E-03
             402     11.4780E-03     96.3222E-03    -21.9892E+06     53.6951E+06     82.9829E+06     1.09331E+06    -228.363E-03     455.627E-03    -227.264E-03     191.054E-03    -237.033E-03     464.169E-03    -226.895E-03     160.070E-03
             403     12.1945E-03     96.5592E-03    -15.4134E+06     64.5210E+06     87.3774E+06     2.15180E+06    -227.703E-03     454.939E-03    -227.236E-03     171.931E-03    -235.261E-03     462.418E-03    -226.870E-03     142.656E-03
             404     12.9126E-03     96.7643E-03    -9.33715E+06     75.3365E+06     90.1092E+06     488.895E+03    -226.670E-03     453.884E-03    -227.214E-03     155.232E-03    -233.390E-03     460.577E-03    -226.859E-03     127.059E-03
             405     13.6290E-03     96.9494E-03    -5.78720E+06     75.2280E+06     87.9064E+06    -519.901E+03    -225.796E-03     452.980E-03    -227.183E-03     109.663E-03    -230.228E-03     457.403E-03    -226.845E-03     87.0386E-03
             406     717.270E-06     94.8717E-03    -133.413E+06    -305.437E+06    -133.386E+06    -1.30276E+06    -227.492E-03     454.740E-03    -227.248E-03     23.0898E-03    -227.602E-03     453.679E-03    -227.278E-03     20.4289E-03
             407     1.43422E-03     94.9158E-03    -131.179E+06    -282.636E+06    -124.450E+06    -364.615E+03    -227.747E-03     455.085E-03    -227.338E-03     42.2546E-03    -228.058E-03     454.289E-03    -227.361E-03     37.3670E-03
             408     2.15062E-03     94.9865E-03    -126.764E+06    -266.982E+06    -108.554E+06     54.8936E+03    -228.123E-03     455.542E-03    -227.419E-03     62.5095E-03    -228.746E-03     455.082E-03    -227.391E-03     55.1847E-03
             409     2.86755E-03     95.0851E-03    -119.564E+06    -253.513E+06    -89.5249E+06    -179.242E+03    -228.516E-03     456.000E-03    -227.484E-03     82.8295E-03    -229.564E-03     455.982E-03    -227.390E-03     72.9527E-03
             410     3.58480E-03     95.2099E-03    -111.538E+06    -224.089E+06    -71.0465E+06    -269.281E+03    -228.849E-03     456.332E-03    -227.483E-03     102.575E-03    -230.470E-03     456.967E-03    -227.352E-03     90.0727E-03
             411     4.30239E-03     95.3599E-03    -103.177E+06    -184.332E+06    -52.2794E+06    -278.555E+03    -229.321E-03     456.768E-03    -227.447E-03     121.570E-03    -231.665E-03     458.243E-03    -227.291E-03     106.353E-03
             412     5.01953E-03     95.5351E-03    -94.6688E+06    -158.238E+06    -33.4829E+06    -611.152E+03    -230.015E-03     457.456E-03    -227.441E-03     139.932E-03    -233.211E-03     459.852E-03    -227.242E-03     121.874E-03
             413     5.73673E-03     95.7341E-03    -85.8857E+06    -125.630E+06    -15.5466E+06    -942.420E+03    -230.537E-03     457.972E-03    -227.434E-03     157.341E-03    -234.724E-03     461.452E-03    -227.205E-03     136.440E-03
             414     6.45384E-03     95.9547E-03    -76.8129E+06    -82.4738E+06     2.73191E+06    -795.887E+03    -230.949E-03     458.362E-03    -227.412E-03     173.687E-03    -236.263E-03     463.103E-03    -227.168E-03     149.983E-03
             415     7.17134E-03     96.1966E-03    -67.9970E+06    -41.7219E+06     20.3869E+06    -396.319E+03    -231.374E-03     458.769E-03    -227.395E-03     188.457E-03    -237.876E-03     464.823E-03    -227.134E-03     162.104E-03
             416     7.88893E-03     96.4554E-03    -58.8073E+06     1.76595E+06     37.4724E+06     894.925E+03    -231.539E-03     458.913E-03    -227.374E-03     200.588E-03    -239.197E-03     466.260E-03    -227.104E-03     171.947E-03
             417     8.60521E-03     96.7291E-03    -49.9083E+06     28.7097E+06     48.6313E+06     3.08522E+06    -231.289E-03     458.627E-03    -227.338E-03     209.216E-03    -239.916E-03     467.038E-03    -227.064E-03     178.817E-03
             418     9.32488E-03     97.0084E-03    -42.3633E+06     38.1836E+06     55.9236E+06     3.45607E+06    -230.773E-03     458.067E-03    -227.295E-03     212.875E-03    -240.032E-03     467.149E-03    -227.009E-03     181.364E-03
             419     10.0412E-03     97.2872E-03    -35.9289E+06     50.5941E+06     67.4178E+06     1.76230E+06    -230.078E-03     457.344E-03    -227.266E-03     210.782E-03    -239.579E-03     466.701E-03    -226.950E-03     178.797E-03
             420     10.7608E-03     97.5602E-03    -30.1715E+06     53.9019E+06     77.4939E+06     1.34121E+06    -229.439E-03     456.697E-03    -227.258E-03     202.692E-03    -238.702E-03     465.820E-03    -226.905E-03     170.939E-03
             421     11.4764E-03     97.8137E-03    -23.3380E+06     53.5095E+06     83.1965E+06     1.40484E+06    -228.904E-03     456.164E-03    -227.260E-03     191.067E-03    -237.600E-03     464.726E-03    -226.888E-03     159.971E-03
             422     12.1938E-03     98.0547E-03    -16.7321E+06     63.1135E+06     86.6372E+06     396.436E+03    -227.569E-03     454.812E-03    -227.243E-03     172.112E-03    -235.140E-03     462.296E-03    -226.877E-03     142.805E-03
             423     12.9113E-03     98.2528E-03    -10.9780E+06     74.2608E+06     89.1899E+06     108.719E+03    -226.199E-03     453.401E-03    -227.202E-03     155.337E-03    -232.909E-03     460.077E-03    -226.848E-03     127.274E-03
             424     13.6307E-03     98.4448E-03    -4.13891E+06     77.7350E+06     90.1888E+06    -3.31306E+03    -225.913E-03     453.080E-03    -227.167E-03     109.426E-03    -230.321E-03     457.487E-03    -226.823E-03     86.9284E-03
             425     716.871E-06     96.3649E-03    -135.476E+06    -303.318E+06    -132.774E+06    -111.469E+03    -227.715E-03     454.922E-03    -227.208E-03     22.6858E-03    -227.838E-03     453.873E-03    -227.235E-03     20.0435E-03
             426     1.43354E-03     96.4082E-03    -132.936E+06    -282.803E+06    -124.140E+06    -184.793E+03    -227.652E-03     455.056E-03    -227.404E-03     42.3234E-03    -227.974E-03     454.263E-03    -227.422E-03     37.4271E-03
             427     2.15094E-03     96.4797E-03    -127.310E+06    -266.479E+06    -108.308E+06    -388.989E+03    -227.967E-03     455.385E-03    -227.418E-03     62.7830E-03    -228.596E-03     454.930E-03    -227.389E-03     55.4310E-03
             428     2.86801E-03     96.5775E-03    -120.550E+06    -253.298E+06    -90.0563E+06    -398.415E+03    -228.349E-03     455.789E-03    -227.439E-03     82.8400E-03    -229.403E-03     455.776E-03    -227.347E-03     72.9553E-03
             429     3.58525E-03     96.7022E-03    -112.903E+06    -223.712E+06    -71.8509E+06    -379.407E+03    -228.804E-03     456.231E-03    -227.426E-03     102.276E-03    -230.427E-03     456.867E-03    -227.298E-03     89.7818E-03
             430     4.30221E-03     96.8523E-03    -104.887E+06    -184.247E+06    -53.4475E+06    -581.799E+03    -229.468E-03     456.877E-03    -227.410E-03     121.385E-03    -231.819E-03     458.357E-03    -227.258E-03     106.148E-03
             431     5.01937E-03     97.0279E-03    -96.4926E+06    -157.703E+06    -34.6418E+06    -577.813E+03    -230.111E-03     457.540E-03    -227.430E-03     139.731E-03    -233.312E-03     459.939E-03    -227.234E-03     121.669E-03
             432     5.73653E-03     97.2266E-03    -88.2937E+06    -124.535E+06    -16.8758E+06    -794.851E+03    -230.552E-03     457.985E-03    -227.433E-03     157.164E-03    -234.747E-03     461.474E-03    -227.209E-03     136.271E-03
             433     6.45405E-03     97.4475E-03    -80.4357E+06    -83.1006E+06     139.312E+03    -1.13757E+06    -231.006E-03     458.420E-03    -227.415E-03     173.786E-03    -236.332E-03     463.166E-03    -227.177E-03     150.076E-03
             434     7.17123E-03     97.6893E-03    -72.0002E+06    -42.0560E+06     17.7601E+06    -1.05975E+06    -231.377E-03     458.775E-03    -227.398E-03     188.766E-03    -237.895E-03     464.836E-03    -227.144E-03     162.423E-03
             435     7.88801E-03     97.9488E-03    -63.8581E+06    -1.36719E+06     33.7225E+06    -701.168E+03    -231.351E-03     458.716E-03    -227.364E-03     201.130E-03    -239.036E-03     466.071E-03    -227.101E-03     172.487E-03
             436     8.60705E-03     98.2209E-03    -55.3976E+06     23.2173E+06     43.2416E+06     221.583E+03    -231.075E-03     458.381E-03    -227.306E-03     209.337E-03    -239.715E-03     466.782E-03    -227.043E-03     178.921E-03
             437     9.32355E-03     98.4998E-03    -46.5946E+06     37.9971E+06     51.8586E+06     1.39349E+06    -230.747E-03     458.002E-03    -227.255E-03     212.594E-03    -240.024E-03     467.097E-03    -226.983E-03     181.027E-03
             438     10.0424E-03     98.7809E-03    -38.5612E+06     51.3233E+06     64.7280E+06     2.19158E+06    -230.283E-03     457.525E-03    -227.242E-03     210.314E-03    -239.792E-03     466.891E-03    -226.937E-03     178.284E-03
             439     10.7587E-03     99.0500E-03    -30.4263E+06     54.3742E+06     77.1445E+06     1.77858E+06    -229.664E-03     456.926E-03    -227.262E-03     202.555E-03    -238.929E-03     466.052E-03    -226.911E-03     170.761E-03
             440     11.4772E-03     99.3106E-03    -22.8139E+06     55.5430E+06     83.8760E+06    -62.6592E+03    -228.598E-03     455.862E-03    -227.264E-03     191.117E-03    -237.290E-03     464.427E-03    -226.892E-03     160.046E-03
             441     12.1948E-03     99.5441E-03    -15.5190E+06     63.8186E+06     87.6914E+06    -1.01871E+06    -227.408E-03     454.643E-03    -227.235E-03     171.952E-03    -234.963E-03     462.115E-03    -226.867E-03     142.688E-03
             442     12.9132E-03     99.7480E-03    -8.68597E+06     76.6006E+06     91.0061E+06     361.554E+03    -226.697E-03     453.902E-03    -227.204E-03     154.855E-03    -233.398E-03     460.580E-03    -226.848E-03     126.750E-03
             443     13.6293E-03     99.9345E-03    -4.46657E+06     77.7986E+06     88.4653E+06     465.015E+03    -226.161E-03     453.342E-03    -227.181E-03     108.984E-03    -230.564E-03     457.748E-03    -226.845E-03     86.4497E-03
             444     716.574E-06     97.8566E-03    -135.590E+06    -303.552E+06    -134.320E+06     615.497E+03    -227.571E-03     454.840E-03    -227.269E-03     23.1750E-03    -227.694E-03     453.794E-03    -227.304E-03     20.5240E-03
             445     1.43409E-03     97.9013E-03    -132.903E+06    -282.352E+06    -124.512E+06     517.970E+03    -227.581E-03     454.933E-03    -227.352E-03     42.7107E-03    -227.904E-03     454.143E-03    -227.372E-03     37.8175E-03
             446     2.15086E-03     97.9715E-03    -127.970E+06    -266.275E+06    -108.449E+06     118.890E+03    -227.924E-03     455.287E-03    -227.363E-03     62.7963E-03    -228.556E-03     454.834E-03    -227.334E-03     55.4558E-03
             447     2.86802E-03     98.0704E-03    -121.223E+06    -253.191E+06    -90.2569E+06     233.217E+03    -228.413E-03     455.814E-03    -227.401E-03     82.6140E-03    -229.466E-03     455.799E-03    -227.309E-03     72.7540E-03
             448     3.58499E-03     98.1942E-03    -113.647E+06    -223.101E+06    -72.0663E+06     216.375E+03    -228.989E-03     456.411E-03    -227.422E-03     102.065E-03    -230.615E-03     457.050E-03    -227.294E-03     89.5705E-03
             449     4.30238E-03     98.3453E-03    -105.724E+06    -183.760E+06    -53.8483E+06    -5.05899E+03    -229.510E-03     456.939E-03    -227.428E-03     121.232E-03    -231.862E-03     458.418E-03    -227.278E-03     106.009E-03
             450     5.01935E-03     98.5208E-03    -97.7009E+06    -157.747E+06    -35.8498E+06     279.337E+03    -229.974E-03     457.412E-03    -227.438E-03     139.650E-03    -233.174E-03     459.809E-03    -227.247E-03     121.632E-03
             451     5.73664E-03     98.7191E-03    -89.6487E+06    -124.330E+06    -17.9156E+06     907.991E+03    -230.506E-03     457.934E-03    -227.428E-03     157.366E-03    -234.710E-03     461.431E-03    -227.207E-03     136.497E-03
             452     6.45374E-03     98.9403E-03    -81.5532E+06    -81.6899E+06     138.645E+03     762.617E+03    -230.975E-03     458.380E-03    -227.406E-03     174.059E-03    -236.311E-03     463.137E-03    -227.168E-03     150.386E-03
             453     7.17118E-03     99.1821E-03    -73.7942E+06    -40.6887E+06     17.2838E+06     343.342E+03    -231.133E-03     458.505E-03    -227.373E-03     189.002E-03    -237.664E-03     464.580E-03    -227.120E-03     162.710E-03
             454     7.88965E-03     99.4412E-03    -65.5606E+06    -1.25182E+06     32.8638E+06    -232.699E+03    -231.176E-03     458.497E-03    -227.321E-03     201.162E-03    -238.869E-03     465.857E-03    -227.060E-03     172.544E-03
             455     8.60616E-03     99.7129E-03    -56.4914E+06     22.6593E+06     43.3241E+06    -1.59411E+06    -231.290E-03     458.563E-03    -227.272E-03     209.397E-03    -239.944E-03     466.970E-03    -227.007E-03     178.920E-03
             456     9.32465E-03     99.9932E-03    -46.8834E+06     34.7196E+06     52.5566E+06    -1.99780E+06    -231.105E-03     458.357E-03    -227.252E-03     212.607E-03    -240.388E-03     467.444E-03    -226.972E-03     180.941E-03
             457     10.0415E-03     100.271E-03    -37.1585E+06     47.5403E+06     65.3579E+06    -381.762E+03    -230.616E-03     457.879E-03    -227.263E-03     210.411E-03    -240.121E-03     467.231E-03    -226.951E-03     178.296E-03
             458     10.7596E-03     100.546E-03    -28.5641E+06     55.1986E+06     77.3470E+06     705.639E+03    -229.623E-03     456.906E-03    -227.283E-03     202.510E-03    -238.886E-03     466.039E-03    -226.935E-03     170.678E-03
             459     11.4764E-03     100.799E-03    -21.3240E+06     60.2671E+06     84.8561E+06    -493.849E+03    -228.351E-03     455.627E-03    -227.275E-03     190.527E-03    -237.033E-03     464.200E-03    -226.908E-03     159.469E-03
             460     12.1947E-03     101.039E-03    -15.4636E+06     64.1591E+06     86.5217E+06    -1.21318E+06    -227.574E-03     454.818E-03    -227.244E-03     171.380E-03    -235.113E-03     462.279E-03    -226.882E-03     142.104E-03
             461     12.9109E-03     101.239E-03    -10.4235E+06     72.9922E+06     87.2646E+06    -348.863E+03    -226.838E-03     454.056E-03    -227.219E-03     154.844E-03    -233.542E-03     460.730E-03    -226.873E-03     126.670E-03
             462     13.6286E-03     101.431E-03    -4.70345E+06     77.5921E+06     87.8187E+06     496.333E+03    -225.847E-03     453.044E-03    -227.197E-03     109.932E-03    -230.268E-03     457.469E-03    -226.864E-03     87.3917E-03
             463     717.612E-06     99.3500E-03    -134.648E+06    -305.529E+06    -133.572E+06     953.880E+03    -227.415E-03     454.587E-03    -227.172E-03     23.0355E-03    -227.531E-03     453.528E-03    -227.202E-03     20.4080E-03
             464     1.43399E-03     99.3930E-03    -132.148E+06    -282.256E+06    -125.604E+06     438.517E+03    -227.663E-03     454.921E-03    -227.258E-03     42.3748E-03    -227.980E-03     454.131E-03    -227.286E-03     37.4822E-03
             465     2.15120E-03     99.4647E-03    -127.455E+06    -266.633E+06    -109.154E+06     635.247E+03    -227.988E-03     455.319E-03    -227.331E-03     62.6367E-03    -228.614E-03     454.862E-03    -227.305E-03     55.3258E-03
             466     2.86809E-03     99.5624E-03    -120.684E+06    -253.424E+06    -90.2057E+06     660.548E+03    -228.514E-03     455.914E-03    -227.400E-03     82.5803E-03    -229.563E-03     455.896E-03    -227.308E-03     72.7309E-03
             467     3.58512E-03     99.6876E-03    -112.898E+06    -223.707E+06    -72.0206E+06     937.495E+03    -229.006E-03     456.438E-03    -227.432E-03     102.259E-03    -230.629E-03     457.076E-03    -227.304E-03     89.7694E-03
             468     4.30161E-03     99.8379E-03    -104.843E+06    -183.908E+06    -53.5050E+06     1.62710E+06    -229.403E-03     456.829E-03    -227.426E-03     121.554E-03    -231.752E-03     458.308E-03    -227.275E-03     106.372E-03
             469     5.01931E-03     100.013E-03    -96.7571E+06    -158.016E+06    -35.0646E+06     1.80574E+06    -229.915E-03     457.337E-03    -227.421E-03     140.014E-03    -233.116E-03     459.734E-03    -227.227E-03     122.020E-03
             470     5.73677E-03     100.212E-03     -87.956E+06    -125.338E+06    -17.0961E+06     1.95702E+06    -230.479E-03     457.883E-03    -227.404E-03     157.636E-03    -234.679E-03     461.375E-03    -227.180E-03     136.778E-03
             471     6.45427E-03     100.433E-03    -78.9712E+06    -82.1289E+06     1.44171E+06     2.87656E+06    -230.857E-03     458.230E-03    -227.374E-03     174.139E-03    -236.182E-03     462.980E-03    -227.133E-03     150.514E-03
             472     7.17189E-03     100.674E-03    -70.0394E+06    -39.4656E+06     20.0784E+06     3.26067E+06    -231.081E-03     458.419E-03    -227.338E-03     188.808E-03    -237.598E-03     464.489E-03    -227.079E-03     162.558E-03
             473     7.88891E-03     100.933E-03    -60.6929E+06     3.53180E+06     37.6362E+06     1.37699E+06    -231.345E-03     458.644E-03    -227.299E-03     200.950E-03    -239.022E-03     466.009E-03    -227.028E-03     172.341E-03
             474     8.60758E-03     101.206E-03    -51.4408E+06     27.6936E+06     48.8225E+06    -1.65666E+06    -231.488E-03     458.761E-03    -227.273E-03     208.989E-03    -240.117E-03     467.164E-03    -226.995E-03     178.506E-03
             475     9.32413E-03     101.485E-03    -42.9173E+06     34.5386E+06     56.1591E+06    -3.32143E+06    -231.371E-03     458.645E-03    -227.274E-03     212.272E-03    -240.633E-03     467.714E-03    -226.981E-03     180.552E-03
             476     10.0415E-03     101.766E-03    -35.0410E+06      42.597E+06     66.2120E+06    -2.49777E+06    -230.661E-03     457.953E-03    -227.293E-03     210.360E-03    -240.155E-03     467.283E-03    -226.973E-03     178.193E-03
             477     10.7584E-03     102.037E-03    -27.3132E+06     53.5721E+06     78.2408E+06    -681.688E+03    -229.438E-03     456.741E-03    -227.303E-03     202.480E-03    -238.688E-03     465.858E-03    -226.950E-03     170.679E-03
             478     11.4768E-03     102.294E-03    -20.1706E+06     61.3607E+06     84.7436E+06     1.10918E+06    -228.653E-03     455.940E-03    -227.287E-03     190.984E-03    -237.335E-03     464.522E-03    -226.923E-03     159.939E-03
             479     12.1934E-03     102.530E-03    -14.8171E+06     65.0686E+06     85.8829E+06     1.22127E+06    -227.654E-03     454.914E-03    -227.260E-03     172.167E-03    -235.211E-03     462.401E-03    -226.904E-03     142.894E-03
             480     12.9119E-03     102.734E-03    -9.82999E+06     73.1934E+06     87.9350E+06    -42.2442E+03    -226.415E-03     453.642E-03    -227.228E-03     155.620E-03    -233.128E-03     460.325E-03    -226.880E-03     127.514E-03
             481     13.6301E-03     102.920E-03    -4.82311E+06     76.5981E+06     87.3672E+06    -102.776E+03    -225.900E-03     453.090E-03    -227.190E-03     109.829E-03    -230.318E-03     457.510E-03    -226.858E-03     87.2896E-03
             482     716.578E-06     100.842E-03    -132.868E+06    -308.115E+06    -132.269E+06     723.340E+03    -227.339E-03     454.764E-03    -227.424E-03     23.2583E-03    -227.445E-03     453.688E-03    -227.446E-03     20.5949E-03
             483     1.43401E-03     100.886E-03    -130.912E+06    -281.902E+06    -124.671E+06     675.032E+03    -227.632E-03     454.949E-03    -227.317E-03     42.2523E-03    -227.944E-03     454.157E-03    -227.342E-03     37.3716E-03
             484     2.15086E-03     100.957E-03    -126.482E+06    -267.312E+06    -109.107E+06     406.584E+03    -227.983E-03     455.341E-03    -227.358E-03     62.5885E-03    -228.601E-03     454.878E-03    -227.333E-03     55.2853E-03
             485     2.86794E-03     101.055E-03    -119.850E+06    -254.604E+06    -90.5537E+06     929.647E+03    -228.369E-03     455.768E-03    -227.399E-03     82.7033E-03    -229.412E-03     455.745E-03    -227.309E-03     72.8624E-03
             486     3.58483E-03     101.180E-03    -112.095E+06    -224.901E+06    -71.7006E+06     1.43062E+06    -228.782E-03     456.177E-03    -227.395E-03     102.542E-03    -230.403E-03     456.809E-03    -227.265E-03     90.0735E-03
             487     4.30299E-03     101.330E-03    -103.339E+06    -185.408E+06    -52.7154E+06     1.72167E+06    -229.353E-03     456.722E-03    -227.369E-03     121.692E-03    -231.695E-03     458.192E-03    -227.214E-03     106.511E-03
             488     5.01992E-03     101.506E-03    -93.8621E+06    -158.801E+06    -33.3822E+06     2.03511E+06    -230.025E-03     457.400E-03    -227.375E-03     140.054E-03    -233.213E-03     459.788E-03    -227.176E-03     122.053E-03
             489     5.73696E-03     101.704E-03    -84.5070E+06    -126.106E+06    -14.8207E+06     2.09459E+06    -230.527E-03     457.902E-03    -227.376E-03     157.538E-03    -234.712E-03     461.383E-03    -227.144E-03     136.676E-03
             490     6.45440E-03     101.925E-03    -74.6254E+06    -84.0222E+06     3.85789E+06     2.34366E+06    -230.865E-03     458.219E-03    -227.355E-03     173.777E-03    -236.165E-03     462.945E-03    -227.105E-03     150.140E-03
             491     7.17189E-03     102.167E-03    -63.4354E+06    -40.5465E+06     23.5984E+06     2.59487E+06    -231.289E-03     458.624E-03    -227.335E-03     188.405E-03    -237.770E-03     464.668E-03    -227.066E-03     162.120E-03
             492     7.88987E-03     102.426E-03    -52.9378E+06     7.06219E+06     42.8028E+06     2.73877E+06    -231.593E-03     458.914E-03    -227.320E-03     200.532E-03    -239.241E-03     466.274E-03    -227.040E-03     171.896E-03
             493     8.60598E-03     102.699E-03    -45.2033E+06     33.6831E+06     54.2826E+06     2.09849E+06    -231.558E-03     458.867E-03    -227.309E-03     208.729E-03    -240.170E-03     467.281E-03    -227.021E-03     178.281E-03
             494     9.32387E-03     102.979E-03    -39.9800E+06     38.3071E+06     59.8554E+06     691.487E+03    -231.213E-03     458.515E-03    -227.302E-03     212.528E-03    -240.473E-03     467.596E-03    -227.001E-03     180.900E-03
             495     10.0411E-03     103.259E-03    -35.0861E+06     42.2967E+06      67.313E+06    -570.964E+03    -230.393E-03     457.691E-03    -227.298E-03     210.613E-03    -239.885E-03     467.014E-03    -226.972E-03     178.542E-03
             496     10.7594E-03     103.530E-03    -29.2625E+06     51.4196E+06     77.1647E+06    -520.912E+03    -229.559E-03     456.854E-03    -227.294E-03     202.914E-03    -238.819E-03     465.969E-03    -226.941E-03     171.123E-03
             497     11.4766E-03     103.786E-03    -23.6062E+06     58.8490E+06     82.8327E+06    -378.622E+03    -228.755E-03     456.037E-03    -227.281E-03     191.387E-03    -237.454E-03     464.621E-03    -226.918E-03     160.321E-03
             498     12.1943E-03     104.025E-03    -16.2569E+06      64.657E+06     85.8703E+06     318.106E+03    -227.574E-03     454.834E-03    -227.260E-03     171.911E-03    -235.137E-03     462.320E-03    -226.900E-03     142.620E-03
             499     12.9119E-03     104.223E-03    -9.80616E+06     75.6641E+06     89.0524E+06     857.673E+03    -226.616E-03     453.849E-03    -227.233E-03     154.992E-03    -233.335E-03     460.543E-03    -226.883E-03     126.830E-03
             500     13.6288E-03     104.417E-03    -5.30001E+06     77.0176E+06     88.2433E+06    -89.8291E+03    -225.831E-03     453.035E-03    -227.204E-03     109.614E-03    -230.246E-03     457.448E-03    -226.867E-03     87.0804E-03
             501     717.125E-06     102.335E-03    -132.603E+06    -309.422E+06    -132.466E+06    -360.768E+03    -227.480E-03     454.804E-03    -227.324E-03     23.7262E-03    -227.584E-03     453.724E-03    -227.346E-03     21.0136E-03
             502     1.43387E-03     102.378E-03    -130.689E+06    -283.439E+06    -124.571E+06     534.447E+03    -227.639E-03     454.970E-03    -227.331E-03     42.6015E-03    -227.949E-03     454.171E-03    -227.353E-03     37.7075E-03
             503     2.15092E-03     102.450E-03    -126.131E+06    -267.902E+06    -108.139E+06     1.05042E+06    -227.873E-03     455.226E-03    -227.353E-03     62.7876E-03    -228.492E-03     454.760E-03    -227.322E-03     55.4881E-03
             504     2.86803E-03     102.547E-03    -119.486E+06    -255.293E+06    -89.3521E+06     753.009E+03    -228.211E-03     455.574E-03    -227.363E-03     82.8309E-03    -229.255E-03     455.546E-03    -227.266E-03     72.9947E-03
             505     3.58592E-03     102.672E-03    -111.132E+06    -225.614E+06    -70.8953E+06     761.408E+03    -228.831E-03     456.181E-03    -227.350E-03     102.377E-03    -230.445E-03     456.805E-03    -227.217E-03     89.8986E-03
             506     4.30228E-03     102.823E-03    -102.379E+06    -186.519E+06    -52.2588E+06     493.121E+03    -229.485E-03     456.835E-03    -227.350E-03     121.219E-03    -231.818E-03     458.294E-03    -227.192E-03     106.005E-03
             507     5.01975E-03     102.998E-03    -93.3701E+06    -160.204E+06    -33.3578E+06     484.657E+03    -230.011E-03     457.384E-03    -227.373E-03     139.513E-03    -233.189E-03     459.759E-03    -227.172E-03     121.489E-03
             508     5.73720E-03     103.197E-03    -83.7575E+06    -126.434E+06    -14.1130E+06     646.047E+03    -230.481E-03     457.858E-03    -227.377E-03     157.130E-03    -234.655E-03     461.327E-03    -227.143E-03     136.259E-03
             509     6.45436E-03     103.418E-03    -73.9135E+06    -83.6289E+06     5.15477E+06    -327.318E+03    -231.032E-03     458.400E-03    -227.368E-03     173.602E-03    -236.333E-03     463.127E-03    -227.114E-03     149.891E-03
             510     7.17174E-03     103.659E-03    -64.8937E+06    -42.2260E+06     22.8944E+06    -1.08952E+06    -231.535E-03     458.903E-03    -227.367E-03     188.380E-03    -238.028E-03     464.949E-03    -227.097E-03     161.989E-03
             511     7.88815E-03     103.919E-03    -55.9315E+06     2.62896E+06     40.0873E+06     419.406E+03    -231.585E-03     458.945E-03    -227.359E-03     200.482E-03    -239.241E-03     466.295E-03    -227.082E-03     171.800E-03
             512     8.60673E-03     104.191E-03    -47.5742E+06     30.7685E+06     51.5199E+06     4.28299E+06    -231.264E-03     458.593E-03    -227.329E-03     208.931E-03    -239.884E-03     467.004E-03    -227.047E-03     178.542E-03
             513     9.32388E-03     104.472E-03    -40.9903E+06     42.3832E+06     59.2189E+06     5.90122E+06    -230.799E-03     458.088E-03    -227.289E-03     212.814E-03    -240.064E-03     467.186E-03    -226.995E-03     181.332E-03
             514     10.0420E-03     104.751E-03    -35.6557E+06     48.9164E+06     68.3103E+06     3.36737E+06    -230.414E-03     457.686E-03    -227.272E-03     210.674E-03    -239.911E-03     467.032E-03    -226.950E-03     178.682E-03
             515     10.7593E-03     105.022E-03    -30.0138E+06     52.1580E+06     77.8270E+06     863.233E+03    -229.797E-03     457.082E-03    -227.286E-03     202.699E-03    -239.066E-03     466.205E-03    -226.929E-03     170.874E-03
             516     11.4763E-03     105.280E-03    -22.7580E+06     59.5510E+06     85.3254E+06     638.093E+03    -228.585E-03     455.870E-03    -227.285E-03     191.036E-03    -237.278E-03     464.446E-03    -226.912E-03     160.001E-03
             517     12.1943E-03     105.515E-03    -17.3010E+06     63.8754E+06     86.3097E+06    -397.327E+03    -227.579E-03     454.832E-03    -227.253E-03     172.300E-03    -235.141E-03     462.309E-03    -226.889E-03     143.048E-03
             518     12.9109E-03     105.720E-03    -10.8610E+06     75.2868E+06     88.3089E+06    -810.336E+03    -226.739E-03     453.959E-03    -227.220E-03     156.140E-03    -233.480E-03     460.673E-03    -226.872E-03     127.957E-03
             519     13.6287E-03     105.906E-03    -3.25044E+06     78.3432E+06     88.7012E+06    -223.870E+03    -225.539E-03     452.722E-03    -227.183E-03     110.435E-03    -229.965E-03     457.157E-03    -226.848E-03     87.8984E-03
             520     717.009E-06     103.826E-03    -132.478E+06    -310.102E+06    -131.948E+06     489.862E+03    -227.479E-03     454.715E-03    -227.235E-03     23.1921E-03    -227.582E-03     453.629E-03    -227.253E-03     20.5334E-03
             521     1.43405E-03     103.871E-03    -131.366E+06    -284.974E+06    -124.502E+06     432.299E+03    -227.538E-03     454.816E-03    -227.279E-03     42.6468E-03    -227.851E-03     454.012E-03    -227.297E-03     37.7335E-03
             522     2.15111E-03     103.941E-03    -126.271E+06    -268.718E+06    -107.763E+06     677.420E+03    -227.860E-03     455.159E-03    -227.299E-03     62.6201E-03    -228.480E-03     454.689E-03    -227.265E-03     55.2972E-03
             523     2.86861E-03     104.040E-03    -118.899E+06    -254.575E+06    -88.5028E+06     558.406E+03    -228.420E-03     455.768E-03    -227.347E-03     82.4556E-03    -229.461E-03     455.739E-03    -227.248E-03     72.6024E-03
             524     3.58494E-03     104.164E-03    -111.185E+06    -225.951E+06    -70.5994E+06    -128.621E+03    -229.005E-03     456.387E-03    -227.382E-03     102.078E-03    -230.617E-03     457.007E-03    -227.246E-03     89.5732E-03
             525     4.30261E-03     104.316E-03    -103.065E+06    -186.688E+06    -52.2747E+06     22.4476E+03    -229.460E-03     456.853E-03    -227.393E-03     121.143E-03    -231.796E-03     458.311E-03    -227.234E-03     105.923E-03
             526     5.01943E-03     104.490E-03    -94.4220E+06    -159.643E+06    -33.2367E+06    -147.785E+03    -229.989E-03     457.397E-03    -227.408E-03     139.621E-03    -233.178E-03     459.780E-03    -227.205E-03     121.579E-03
             527     5.73663E-03     104.689E-03    -85.9183E+06    -126.382E+06    -15.0891E+06    -675.237E+03    -230.574E-03     457.983E-03    -227.409E-03     157.125E-03    -234.760E-03     461.459E-03    -227.177E-03     136.209E-03
             528     6.45430E-03     104.910E-03    -78.3054E+06    -83.2166E+06     2.84866E+06    -554.595E+03    -231.118E-03     458.523E-03    -227.405E-03     173.541E-03    -236.438E-03     463.261E-03    -227.156E-03     149.817E-03
             529     7.17101E-03     105.153E-03    -71.4914E+06    -40.8475E+06     20.1380E+06    -877.543E+03    -231.397E-03     458.796E-03    -227.399E-03     188.544E-03    -237.920E-03     464.861E-03    -227.135E-03     162.185E-03
             530     7.88907E-03     105.412E-03    -64.7662E+06    -1.34620E+06     34.8454E+06    -902.177E+03    -231.339E-03     458.706E-03    -227.368E-03     200.874E-03    -239.027E-03     466.059E-03    -227.098E-03     172.222E-03
             531     8.60572E-03     105.684E-03    -56.7179E+06     21.6779E+06     43.5211E+06     945.900E+03    -231.131E-03     458.445E-03    -227.313E-03     209.094E-03    -239.776E-03     466.839E-03    -227.045E-03     178.675E-03
             532     9.32439E-03     105.963E-03    -47.5113E+06     40.2665E+06     52.9107E+06     3.19992E+06    -230.871E-03     458.140E-03    -227.269E-03     212.350E-03    -240.144E-03     467.234E-03    -226.994E-03     180.812E-03
             533     10.0421E-03     106.244E-03    -38.0992E+06     53.9573E+06     65.7883E+06     3.03917E+06    -230.413E-03     457.676E-03    -227.263E-03     210.330E-03    -239.915E-03     467.043E-03    -226.957E-03     178.318E-03
             534     10.7587E-03     106.517E-03    -29.7408E+06     55.9854E+06     77.4670E+06     1.27820E+06    -229.435E-03     456.710E-03    -227.274E-03     202.771E-03    -238.704E-03     465.847E-03    -226.925E-03     170.998E-03
             535     11.4770E-03     106.771E-03    -22.3138E+06     59.5359E+06     85.0868E+06    -391.835E+03    -228.415E-03     455.677E-03    -227.262E-03     191.493E-03    -237.113E-03     464.260E-03    -226.890E-03     160.462E-03
             536     12.1944E-03     107.010E-03    -13.8785E+06     64.9357E+06     88.8666E+06     96.1918E+03    -227.479E-03     454.706E-03    -227.227E-03     172.949E-03    -235.044E-03     462.195E-03    -226.857E-03     143.700E-03
             537     12.9132E-03     107.211E-03    -8.16767E+06     76.4317E+06     90.8163E+06    -742.665E+03    -226.547E-03     453.734E-03    -227.186E-03     155.991E-03    -233.278E-03     460.443E-03    -226.831E-03     127.829E-03
             538     13.6311E-03     107.401E-03    -5.88655E+06     77.0386E+06     87.7648E+06    -936.238E+03    -226.055E-03     453.210E-03    -227.156E-03     109.299E-03    -230.481E-03     457.635E-03    -226.820E-03     86.7038E-03
             539     716.789E-06     105.319E-03    -134.183E+06    -311.405E+06    -132.739E+06     191.012E+03    -227.549E-03     454.831E-03    -227.282E-03     23.1571E-03    -227.657E-03     453.742E-03    -227.300E-03     20.4936E-03
             540     1.43412E-03     105.363E-03    -131.085E+06    -284.832E+06    -123.815E+06     284.048E+03    -227.500E-03     454.826E-03    -227.325E-03     42.2789E-03    -227.810E-03     454.018E-03    -227.341E-03     37.3747E-03
             541     2.15133E-03     105.434E-03    -126.374E+06    -269.018E+06    -108.459E+06     160.192E+03    -227.973E-03     455.309E-03    -227.336E-03     62.2994E-03    -228.589E-03     454.836E-03    -227.305E-03     54.9841E-03
             542     2.86767E-03     105.532E-03    -119.617E+06    -255.234E+06    -89.8396E+06     495.496E+03    -228.533E-03     455.936E-03    -227.403E-03     82.4702E-03    -229.575E-03     455.908E-03    -227.309E-03     72.6018E-03
             543     3.58515E-03     105.657E-03    -112.207E+06    -225.450E+06    -70.7576E+06     618.868E+03    -228.949E-03     456.386E-03    -227.437E-03     102.270E-03    -230.570E-03     457.013E-03    -227.301E-03     89.7691E-03
             544     4.30186E-03     105.807E-03    -104.325E+06    -186.032E+06    -52.1107E+06     367.177E+03    -229.406E-03     456.836E-03    -227.430E-03     121.263E-03    -231.752E-03     458.302E-03    -227.270E-03     106.042E-03
             545     5.01968E-03     105.983E-03    -96.2940E+06    -159.349E+06    -33.8929E+06     585.423E+03    -230.056E-03     457.494E-03    -227.438E-03     139.565E-03    -233.252E-03     459.881E-03    -227.237E-03     121.529E-03
             546     5.73685E-03     106.182E-03    -88.7945E+06    -126.610E+06    -16.4863E+06     927.803E+03    -230.687E-03     458.133E-03    -227.446E-03     157.206E-03    -234.887E-03     461.617E-03    -227.216E-03     136.305E-03
             547     6.45327E-03     106.404E-03    -81.0432E+06    -83.4673E+06     1.20898E+06     1.57686E+06    -231.006E-03     458.441E-03    -227.436E-03     173.846E-03    -236.340E-03     463.188E-03    -227.191E-03     150.168E-03
             548     7.17130E-03     106.645E-03    -72.8684E+06    -40.0934E+06     19.3230E+06     2.65643E+06    -231.122E-03     458.527E-03    -227.405E-03     188.739E-03    -237.649E-03     464.596E-03    -227.144E-03     162.478E-03
             549     7.88852E-03     106.904E-03    -65.0446E+06    -48.0285E+03     34.7779E+06     2.69634E+06    -231.185E-03     458.538E-03    -227.353E-03     200.739E-03    -238.865E-03     465.886E-03    -227.085E-03     172.181E-03
             550     8.60722E-03     107.176E-03    -57.0173E+06     22.4488E+06     43.8348E+06    -41.2676E+03    -231.338E-03     458.643E-03    -227.304E-03     209.030E-03    -239.980E-03     467.035E-03    -227.035E-03     178.589E-03
             551     9.32365E-03     107.456E-03    -47.3178E+06     36.2031E+06     53.1663E+06    -1.84426E+06    -231.203E-03     458.490E-03    -227.286E-03     212.693E-03    -240.491E-03     467.583E-03    -227.005E-03     181.017E-03
             552     10.0404E-03     107.736E-03    -37.1619E+06     51.6960E+06     66.0922E+06    -261.889E+03    -230.228E-03     457.507E-03    -227.279E-03     210.743E-03    -239.732E-03     466.871E-03    -226.970E-03     178.715E-03
             553     10.7600E-03     108.007E-03    -28.2389E+06     59.0272E+06     77.2672E+06    -121.293E+03    -229.107E-03     456.367E-03    -227.260E-03     202.753E-03    -238.358E-03     465.503E-03    -226.918E-03     171.029E-03
             554     11.4774E-03     108.265E-03    -20.7222E+06     60.8343E+06     84.4185E+06    -647.423E+03    -228.280E-03     455.513E-03    -227.234E-03     191.041E-03    -236.961E-03     464.092E-03    -226.870E-03     160.002E-03
             555     12.1954E-03     108.501E-03    -15.5952E+06     63.0075E+06     86.6128E+06    -827.906E+03    -227.499E-03     454.701E-03    -227.202E-03     172.354E-03    -235.065E-03     462.184E-03    -226.838E-03     143.038E-03
             556     12.9121E-03     108.704E-03    -10.8950E+06     73.3192E+06     88.8899E+06    -245.234E+03    -226.858E-03     454.038E-03    -227.180E-03     155.300E-03    -233.581E-03     460.725E-03    -226.826E-03     127.107E-03
             557     13.6287E-03     108.893E-03    -4.80013E+06     78.2093E+06     90.2006E+06     408.467E+03    -226.264E-03     453.439E-03    -227.175E-03     109.127E-03    -230.680E-03     457.854E-03    -226.831E-03     86.5620E-03
             558     716.976E-06     106.812E-03    -133.582E+06    -310.995E+06    -133.073E+06    -271.306E+03    -227.943E-03     454.841E-03    -226.897E-03     23.1502E-03    -228.046E-03     453.751E-03    -226.918E-03     20.5190E-03
             559     1.43364E-03     106.855E-03    -131.815E+06    -285.485E+06    -124.955E+06    -29.8024E+03    -227.681E-03     455.039E-03    -227.358E-03     42.5812E-03    -227.992E-03     454.231E-03    -227.378E-03     37.6991E-03
             560     2.15050E-03     106.926E-03    -127.015E+06    -269.531E+06    -108.884E+06     363.738E+03    -228.011E-03     455.409E-03    -227.398E-03     62.7526E-03    -228.633E-03     454.939E-03    -227.368E-03     55.4170E-03
             561     2.86810E-03     107.025E-03    -120.538E+06    -256.401E+06    -90.1848E+06     609.143E+03    -228.449E-03     455.893E-03    -227.444E-03     82.7595E-03    -229.496E-03     455.863E-03    -227.348E-03     72.8885E-03
             562     3.58485E-03     107.149E-03    -112.527E+06    -226.294E+06    -71.4345E+06     1.26987E+06    -228.950E-03     456.407E-03    -227.456E-03     102.240E-03    -230.567E-03     457.027E-03    -227.322E-03     89.7700E-03
             563     4.30251E-03     107.301E-03    -104.283E+06    -186.158E+06    -52.3570E+06     1.71995E+06    -229.525E-03     456.980E-03    -227.455E-03     121.248E-03    -231.869E-03     458.445E-03    -227.296E-03     106.044E-03
             564     5.01895E-03     107.475E-03    -96.3406E+06    -160.587E+06    -34.1235E+06     2.01315E+06    -230.122E-03     457.596E-03    -227.474E-03     139.673E-03    -233.319E-03     459.980E-03    -227.272E-03     121.641E-03
             565     5.73602E-03     107.675E-03    -87.5569E+06    -127.230E+06    -15.9970E+06     2.83009E+06    -230.494E-03     457.963E-03    -227.469E-03     157.411E-03    -234.687E-03     461.439E-03    -227.237E-03     136.570E-03
             566     6.45420E-03     107.896E-03    -78.4738E+06    -84.1143E+06     2.26974E+06     3.39542E+06    -230.852E-03     458.285E-03    -227.433E-03     174.019E-03    -236.175E-03     463.024E-03    -227.186E-03     150.385E-03
             567     7.17129E-03     108.137E-03    -69.1442E+06    -43.2117E+06     20.0001E+06     4.25852E+06    -231.168E-03     458.562E-03    -227.394E-03     188.633E-03    -237.671E-03     464.608E-03    -227.131E-03     162.389E-03
             568     7.88926E-03     108.397E-03    -58.6040E+06     2.09549E+06     38.1568E+06     4.08672E+06    -231.295E-03     458.647E-03    -227.352E-03     200.564E-03    -238.945E-03     465.986E-03    -227.079E-03     172.019E-03
             569     8.60594E-03     108.668E-03    -48.0386E+06     30.8967E+06     51.2440E+06     1.73818E+06    -231.344E-03     458.658E-03    -227.313E-03     209.218E-03    -239.965E-03     467.069E-03    -227.032E-03     178.804E-03
             570     9.32397E-03     108.950E-03    -40.1016E+06     37.2033E+06     58.6870E+06    -214.820E+03    -231.013E-03     458.301E-03    -227.288E-03     212.953E-03    -240.273E-03     467.380E-03    -226.990E-03     181.351E-03
             571     10.0427E-03     109.228E-03    -33.9338E+06     48.9661E+06     68.1606E+06    -423.531E+03    -230.297E-03     457.565E-03    -227.268E-03     210.695E-03    -239.785E-03     466.908E-03    -226.949E-03     178.662E-03
             572     10.7587E-03     109.501E-03    -27.4781E+06     59.9216E+06     78.9832E+06     103.884E+03    -229.415E-03     456.674E-03    -227.259E-03     202.781E-03    -238.678E-03     465.822E-03    -226.911E-03     171.007E-03
             573     11.4769E-03     109.755E-03    -21.6249E+06     60.3204E+06     84.3609E+06     596.768E+03    -228.667E-03     455.919E-03    -227.252E-03     190.758E-03    -237.355E-03     464.500E-03    -226.886E-03     159.668E-03
             574     12.1945E-03     109.994E-03    -15.8804E+06     65.3603E+06     87.3704E+06    -27.4919E+03    -227.724E-03     454.964E-03    -227.240E-03     171.431E-03    -235.271E-03     462.434E-03    -226.875E-03     142.124E-03
             575     12.9123E-03     110.198E-03    -9.71803E+06     74.9878E+06     90.1438E+06    -100.799E+03    -226.511E-03     453.728E-03    -227.217E-03     155.068E-03    -233.211E-03     460.398E-03    -226.861E-03     126.984E-03
             576     13.6301E-03     110.387E-03    -4.45451E+06     76.0913E+06     88.6655E+06     178.411E+03    -225.684E-03     452.861E-03    -227.177E-03     109.733E-03    -230.090E-03     457.264E-03    -226.838E-03     87.2535E-03
             577     717.056E-06     108.303E-03    -133.502E+06    -311.067E+06    -132.989E+06     255.999E+03    -227.799E-03     454.722E-03    -226.923E-03     22.8129E-03    -227.901E-03     453.632E-03    -226.943E-03     20.2060E-03
             578     1.43428E-03     108.348E-03    -132.139E+06    -285.942E+06    -125.031E+06     409.028E+03    -227.701E-03     455.016E-03    -227.315E-03     42.7317E-03    -228.015E-03     454.209E-03    -227.334E-03     37.8365E-03
             579     2.15119E-03     108.419E-03    -127.487E+06    -270.386E+06    -108.468E+06     499.325E+03    -228.098E-03     455.489E-03    -227.391E-03     62.8196E-03    -228.723E-03     455.016E-03    -227.356E-03     55.4687E-03
             580     2.86779E-03     108.517E-03    -120.330E+06    -257.382E+06    -89.9047E+06     777.143E+03    -228.533E-03     455.994E-03    -227.461E-03     82.6106E-03    -229.576E-03     455.957E-03    -227.363E-03     72.7473E-03
             581     3.58504E-03     108.643E-03    -112.380E+06    -227.823E+06    -71.8269E+06     1.18722E+06    -228.974E-03     456.454E-03    -227.480E-03     102.141E-03    -230.587E-03     457.067E-03    -227.346E-03     89.6681E-03
             582     4.30157E-03     108.793E-03    -103.775E+06     -188.27E+06    -53.1360E+06     1.88236E+06    -229.463E-03     456.932E-03    -227.469E-03     121.478E-03    -231.801E-03     458.387E-03    -227.311E-03     106.287E-03
             583     5.01928E-03     108.969E-03    -94.6509E+06    -161.731E+06    -33.9430E+06     2.44599E+06    -230.018E-03     457.488E-03    -227.470E-03     140.076E-03    -233.209E-03     459.867E-03    -227.268E-03     122.067E-03
             584     5.73677E-03     109.167E-03    -85.4678E+06    -128.709E+06    -15.5970E+06     2.57091E+06    -230.523E-03     457.980E-03    -227.457E-03     157.473E-03    -234.707E-03     461.449E-03    -227.224E-03     136.616E-03
             585     6.45382E-03     109.388E-03    -75.7525E+06    -86.5354E+06     2.89499E+06     2.80363E+06    -230.885E-03     458.312E-03    -227.427E-03     173.793E-03    -236.187E-03     463.030E-03    -227.178E-03     150.154E-03
             586     7.17141E-03     109.630E-03    -65.2959E+06    -44.5642E+06     21.7927E+06     2.64907E+06    -231.156E-03     458.550E-03    -227.394E-03     188.473E-03    -237.633E-03     464.574E-03    -227.125E-03     162.220E-03
             587     7.88858E-03     109.888E-03    -55.2097E+06     3.02585E+06     40.5709E+06     2.14349E+06    -231.334E-03     458.685E-03    -227.351E-03     200.861E-03    -238.981E-03     466.030E-03    -227.073E-03     172.272E-03
             588     8.60680E-03     110.162E-03    -47.2964E+06     32.2535E+06     52.2781E+06     2.78407E+06    -231.254E-03     458.559E-03    -227.305E-03     209.349E-03    -239.876E-03     466.977E-03    -227.022E-03     178.962E-03
             589     9.32459E-03     110.441E-03    -41.1248E+06     39.7675E+06     58.7802E+06     3.18111E+06    -230.961E-03     458.233E-03    -227.272E-03     212.552E-03    -240.217E-03     467.314E-03    -226.976E-03     181.008E-03
             590     10.0411E-03     110.722E-03    -35.4606E+06     52.2337E+06     69.2805E+06     1.51871E+06    -230.403E-03     457.668E-03    -227.265E-03     210.115E-03    -239.907E-03     467.031E-03    -226.943E-03     178.044E-03
             591     10.7601E-03     110.992E-03    -29.3123E+06     59.0252E+06     79.8129E+06     463.839E+03    -229.804E-03     457.088E-03    -227.284E-03     202.285E-03    -239.080E-03     466.239E-03    -226.928E-03     170.414E-03
             592     11.4770E-03     111.250E-03    -21.9513E+06     59.7074E+06     86.1621E+06     389.747E+03    -229.057E-03     456.365E-03    -227.307E-03     190.538E-03    -237.757E-03     464.948E-03    -226.931E-03     159.372E-03
             593     12.1930E-03     111.488E-03    -15.3598E+06     67.7836E+06     89.3503E+06     766.403E+03    -227.569E-03     454.866E-03    -227.297E-03     171.421E-03    -235.122E-03     462.346E-03    -226.927E-03     142.155E-03
             594     12.9107E-03     111.688E-03    -10.2165E+06     75.5981E+06     89.9057E+06     369.569E+03    -226.028E-03     453.275E-03    -227.247E-03     155.231E-03    -232.738E-03     459.956E-03    -226.892E-03     127.174E-03
             595     13.6294E-03     111.879E-03    -4.64946E+06     75.2310E+06     88.6477E+06    -259.564E+03    -225.465E-03     452.655E-03    -227.190E-03     109.587E-03    -229.874E-03     457.057E-03    -226.849E-03     87.1101E-03
             596     716.957E-06     109.796E-03    -134.715E+06    -312.281E+06    -133.806E+06     256.883E+03    -227.273E-03     454.830E-03    -227.556E-03     23.0950E-03    -227.380E-03     453.738E-03    -227.577E-03     20.4350E-03
             597     1.43373E-03     109.840E-03    -131.943E+06    -286.509E+06    -124.982E+06     350.277E+03    -227.758E-03     455.131E-03    -227.373E-03     42.4093E-03    -228.067E-03     454.318E-03    -227.392E-03     37.5331E-03
             598     2.15077E-03     109.912E-03    -126.935E+06    -270.874E+06    -108.648E+06     599.164E+03    -228.022E-03     455.452E-03    -227.430E-03     62.5553E-03    -228.640E-03     454.973E-03    -227.396E-03     55.2378E-03
             599     2.86773E-03     110.010E-03    -120.380E+06    -258.023E+06    -90.3799E+06     744.610E+03    -228.466E-03     455.936E-03    -227.470E-03     82.7595E-03    -229.509E-03     455.897E-03    -227.373E-03     72.9016E-03
             600     3.58460E-03     110.135E-03    -112.322E+06    -228.590E+06    -71.9908E+06     745.529E+03    -228.951E-03     456.427E-03    -227.476E-03     102.500E-03    -230.568E-03     457.043E-03    -227.341E-03     89.9997E-03
             601     4.30240E-03     110.286E-03    -103.797E+06    -190.182E+06    -53.8057E+06     874.315E+03    -229.431E-03     456.889E-03    -227.458E-03     121.541E-03    -231.767E-03     458.337E-03    -227.300E-03     106.333E-03
             602     5.01949E-03     110.461E-03    -94.8116E+06    -163.356E+06    -35.0111E+06     1.17772E+06    -229.973E-03     457.427E-03    -227.454E-03     139.792E-03    -233.153E-03     459.791E-03    -227.254E-03     121.792E-03
             603     5.73657E-03     110.660E-03    -85.3181E+06    -129.656E+06    -15.9427E+06     1.10242E+06    -230.538E-03     457.982E-03    -227.444E-03     157.357E-03    -234.716E-03     461.443E-03    -227.212E-03     136.486E-03
             604     6.45371E-03     110.881E-03    -75.7575E+06    -87.6738E+06     3.06566E+06     881.330E+03    -230.915E-03     458.337E-03    -227.421E-03     173.896E-03    -236.216E-03     463.049E-03    -227.169E-03     150.230E-03
             605     7.17142E-03     111.122E-03    -66.8679E+06    -44.9556E+06     21.5012E+06     817.389E+03    -231.149E-03     458.537E-03    -227.387E-03     188.717E-03    -237.641E-03     464.569E-03    -227.118E-03     162.425E-03
             606     7.88933E-03     111.382E-03    -59.0829E+06     954.652E+03     38.9070E+06     1.79310E+06    -231.329E-03     458.673E-03    -227.345E-03     200.791E-03    -238.990E-03     466.016E-03    -227.066E-03     172.190E-03
             607     8.60662E-03     111.654E-03    -51.7711E+06     29.0063E+06     49.5402E+06     3.56895E+06    -231.363E-03     458.668E-03    -227.305E-03     208.878E-03    -239.996E-03     467.076E-03    -227.024E-03     178.469E-03
             608     9.32379E-03     111.934E-03    -44.0997E+06     41.7144E+06     57.9175E+06     3.77205E+06    -231.100E-03     458.387E-03    -227.287E-03     212.259E-03    -240.381E-03     467.492E-03    -226.994E-03     180.654E-03
             609     10.0423E-03     112.214E-03    -35.5720E+06     56.1220E+06     71.1441E+06     2.28066E+06    -230.700E-03     458.004E-03    -227.305E-03     210.014E-03    -240.220E-03     467.391E-03    -226.979E-03     177.878E-03
             610     10.7581E-03     112.486E-03    -27.5484E+06     60.0172E+06     82.2315E+06     862.566E+03    -229.926E-03     457.268E-03    -227.342E-03     202.226E-03    -239.214E-03     466.433E-03    -226.978E-03     170.293E-03
             611     11.4748E-03     112.744E-03    -20.8973E+06     59.4555E+06     86.8881E+06     1.06444E+06    -228.440E-03     455.780E-03    -227.340E-03     191.016E-03    -237.135E-03     464.360E-03    -226.961E-03     159.967E-03
             612     12.1940E-03     112.979E-03    -14.7186E+06     66.8467E+06     89.5705E+06     1.68506E+06    -227.278E-03     454.573E-03    -227.295E-03     172.518E-03    -234.847E-03     462.067E-03    -226.923E-03     143.303E-03
             613     12.9121E-03     113.182E-03    -8.97493E+06     78.0576E+06     92.3997E+06     1.35292E+06    -226.736E-03     453.993E-03    -227.257E-03     155.513E-03    -233.460E-03     460.694E-03    -226.895E-03     127.379E-03
             614     13.6293E-03     113.370E-03    -4.45661E+06     77.1389E+06     90.5493E+06     502.727E+03    -225.683E-03     452.907E-03    -227.224E-03     109.522E-03    -230.097E-03     457.316E-03    -226.877E-03     86.9863E-03
             615     717.068E-06     111.289E-03    -135.168E+06    -312.710E+06    -133.811E+06     134.789E+03    -227.268E-03     454.978E-03    -227.710E-03     23.7465E-03    -227.377E-03     453.886E-03    -227.730E-03     21.0863E-03
             616     1.43371E-03     111.334E-03    -132.248E+06    -287.365E+06    -125.571E+06     319.760E+03    -227.720E-03     455.138E-03    -227.419E-03     42.8308E-03    -228.031E-03     454.325E-03    -227.438E-03     37.9379E-03
             617     2.15055E-03     111.404E-03    -127.481E+06    -271.491E+06    -109.465E+06     433.496E+03    -227.980E-03     455.419E-03    -227.439E-03     62.9099E-03    -228.601E-03     454.941E-03    -227.408E-03     55.5824E-03
             618     2.86810E-03     111.503E-03    -120.699E+06    -258.040E+06    -91.0839E+06     302.647E+03    -228.399E-03     455.859E-03    -227.460E-03     82.7227E-03    -229.442E-03     455.822E-03    -227.366E-03     72.8627E-03
             619     3.58537E-03     111.628E-03    -113.075E+06    -228.978E+06    -72.8131E+06     289.398E+03    -228.938E-03     456.400E-03    -227.461E-03     102.222E-03    -230.553E-03     457.011E-03    -227.330E-03     89.7304E-03
             620     4.30188E-03     111.778E-03    -104.841E+06    -190.484E+06    -54.0248E+06     237.151E+03    -229.482E-03     456.937E-03    -227.455E-03     121.324E-03    -231.820E-03     458.383E-03    -227.297E-03     106.112E-03
             621     5.01903E-03     111.954E-03    -95.9838E+06    -163.795E+06    -35.1714E+06    -87.7114E+03    -229.990E-03     457.449E-03    -227.459E-03     139.845E-03    -233.177E-03     459.816E-03    -227.258E-03     121.816E-03
             622     5.73656E-03     112.152E-03    -87.2134E+06    -130.219E+06    -16.8839E+06    -71.6166E+03    -230.409E-03     457.849E-03    -227.440E-03     157.469E-03    -234.595E-03     461.312E-03    -227.209E-03     136.592E-03
             623     6.45446E-03     112.374E-03    -79.0952E+06    -88.0709E+06     1.40814E+06     225.744E+03    -230.856E-03     458.263E-03    -227.407E-03     173.729E-03    -236.169E-03     462.978E-03    -227.157E-03     150.055E-03
             624     7.17151E-03     112.615E-03    -71.2641E+06    -46.6971E+06     19.0220E+06     999.532E+03    -231.307E-03     458.689E-03    -227.382E-03     188.452E-03    -237.814E-03     464.722E-03    -227.116E-03     162.132E-03
             625     7.88878E-03     112.874E-03    -62.8280E+06    -1.69858E+06     36.3749E+06     2.08411E+06    -231.515E-03     458.875E-03    -227.360E-03     200.494E-03    -239.191E-03     466.217E-03    -227.085E-03     171.847E-03
             626     8.60624E-03     113.147E-03    -53.5379E+06     26.6889E+06     48.0417E+06     2.46048E+06    -231.455E-03     458.792E-03    -227.337E-03     208.710E-03    -240.099E-03     467.202E-03    -227.058E-03     178.238E-03
             627     9.32395E-03     113.427E-03    -44.1802E+06     42.6036E+06     57.3572E+06     2.02889E+06    -231.251E-03     458.577E-03    -227.326E-03     212.186E-03    -240.535E-03     467.689E-03    -227.037E-03     180.523E-03
             628     10.0404E-03     113.707E-03    -36.2430E+06     57.2638E+06     69.8031E+06     1.76536E+06    -230.581E-03     457.918E-03    -227.337E-03     210.449E-03    -240.107E-03     467.316E-03    -227.018E-03     178.342E-03
             629     10.7580E-03     113.981E-03    -30.0507E+06     60.9413E+06     80.1034E+06     2.29353E+06    -229.296E-03     456.635E-03    -227.339E-03     203.261E-03    -238.593E-03     465.810E-03    -226.983E-03     171.509E-03
             630     11.4772E-03     114.233E-03    -24.2574E+06     61.0964E+06     85.5612E+06     1.07854E+06    -228.240E-03     455.548E-03    -227.308E-03     191.581E-03    -236.961E-03     464.152E-03    -226.934E-03     160.565E-03
             631     12.1948E-03     114.472E-03    -17.3797E+06     65.3418E+06     88.3417E+06    -135.260E+03    -227.661E-03     454.934E-03    -227.273E-03     172.398E-03    -235.253E-03     462.440E-03    -226.901E-03     143.051E-03
             632     12.9113E-03     114.675E-03    -10.6000E+06     77.3206E+06     91.4513E+06     650.353E+03    -226.828E-03     454.079E-03    -227.251E-03     155.448E-03    -233.565E-03     460.787E-03    -226.890E-03     127.265E-03
             633     13.6275E-03     114.865E-03    -4.81053E+06     78.5928E+06     91.0629E+06     736.259E+03    -225.360E-03     452.576E-03    -227.215E-03     109.752E-03    -229.789E-03     457.002E-03    -226.867E-03     87.2259E-03
             634     716.526E-06     112.782E-03    -134.869E+06    -312.678E+06    -134.476E+06     126.427E+03    -227.890E-03     455.181E-03    -227.291E-03     23.2737E-03    -227.996E-03     454.088E-03    -227.315E-03     20.6147E-03
             635     1.43412E-03     112.825E-03    -133.280E+06    -287.961E+06    -126.344E+06     170.292E+03    -227.537E-03     455.005E-03    -227.468E-03     42.4217E-03    -227.850E-03     454.189E-03    -227.489E-03     37.5214E-03
             636     2.15128E-03     112.897E-03    -128.608E+06    -271.997E+06    -110.519E+06     205.832E+03    -228.007E-03     455.446E-03    -227.439E-03     62.5639E-03    -228.629E-03     454.967E-03    -227.411E-03     55.2318E-03
             637     2.86753E-03     112.995E-03    -121.935E+06    -258.275E+06    -91.8556E+06     272.671E+03    -228.470E-03     455.947E-03    -227.477E-03     82.5143E-03    -229.516E-03     455.910E-03    -227.385E-03     72.6523E-03
             638     3.58449E-03     113.120E-03    -114.272E+06    -228.894E+06    -73.2093E+06     220.190E+03    -228.857E-03     456.335E-03    -227.478E-03     102.269E-03    -230.477E-03     456.950E-03    -227.347E-03     89.7816E-03
             639     4.30218E-03     113.271E-03    -106.001E+06    -189.915E+06    -54.2438E+06     7.60875E+03    -229.396E-03     456.850E-03    -227.454E-03     121.550E-03    -231.743E-03     458.304E-03    -227.296E-03     106.332E-03
             640     5.01957E-03     113.446E-03    -97.6396E+06    -163.659E+06    -35.5866E+06     43.9053E+03    -230.013E-03     457.466E-03    -227.453E-03     139.833E-03    -233.210E-03     459.839E-03    -227.252E-03     121.788E-03
             641     5.73675E-03     113.645E-03    -89.6467E+06    -130.674E+06    -18.0754E+06     478.974E+03    -230.487E-03     457.930E-03    -227.443E-03     157.192E-03    -234.682E-03     461.395E-03    -227.214E-03     136.301E-03
             642     6.45364E-03     113.866E-03    -81.4593E+06    -88.7927E+06    -282.000E+03     1.05623E+06    -230.964E-03     458.385E-03    -227.421E-03     173.572E-03    -236.289E-03     463.107E-03    -227.176E-03     149.875E-03
             643     7.17143E-03     114.108E-03    -72.6541E+06    -48.5130E+06     17.3769E+06     1.54740E+06    -231.443E-03     458.853E-03    -227.410E-03     188.262E-03    -237.953E-03     464.883E-03    -227.148E-03     161.918E-03
             644     7.88851E-03     114.367E-03    -63.5391E+06    -2.80698E+06     35.0752E+06     1.48451E+06    -231.549E-03     458.944E-03    -227.395E-03     200.444E-03    -239.223E-03     466.281E-03    -227.124E-03     171.790E-03
             645     8.60587E-03     114.639E-03    -54.4792E+06     26.5199E+06     46.9097E+06     879.077E+03    -231.478E-03     458.848E-03    -227.370E-03     208.911E-03    -240.122E-03     467.257E-03    -227.095E-03     178.438E-03
             646     9.32302E-03     114.920E-03    -46.6214E+06     42.1236E+06     55.7738E+06     742.558E+03    -231.087E-03     458.433E-03    -227.347E-03     212.859E-03    -240.388E-03     467.557E-03    -227.061E-03     181.222E-03
             647     10.0407E-03     115.201E-03    -39.4867E+06     55.8720E+06     67.1679E+06     1.84222E+06    -230.059E-03     457.382E-03    -227.323E-03     211.043E-03    -239.597E-03     466.783E-03    -227.011E-03     179.040E-03
             648     10.7599E-03     115.469E-03    -31.5155E+06     61.2956E+06     78.9854E+06     1.65105E+06    -229.135E-03     456.439E-03    -227.304E-03     202.834E-03    -238.417E-03     465.597E-03    -226.952E-03     171.114E-03
             649     11.4769E-03     115.729E-03    -22.6517E+06     64.2935E+06     87.4023E+06     510.306E+03    -228.734E-03     456.029E-03    -227.295E-03     190.849E-03    -237.448E-03     464.637E-03    -226.918E-03     159.729E-03
             650     12.1933E-03     115.964E-03    -15.6573E+06     65.7628E+06     89.5139E+06    -36.4935E+03    -227.680E-03     454.961E-03    -227.280E-03     172.176E-03    -235.263E-03     462.461E-03    -226.906E-03     142.830E-03
             651     12.9112E-03     116.170E-03    -9.84203E+06     75.0183E+06     91.0498E+06     189.810E+03    -225.946E-03     453.178E-03    -227.231E-03     155.793E-03    -232.677E-03     459.876E-03    -226.871E-03     127.724E-03
             652     13.6316E-03     116.354E-03    -4.55236E+06     78.7121E+06     90.0839E+06     717.802E+03    -225.346E-03     452.511E-03    -227.165E-03     109.582E-03    -229.767E-03     456.934E-03    -226.822E-03     87.1132E-03
             653     716.697E-06     114.274E-03    -136.107E+06    -313.440E+06    -135.674E+06     316.067E+03    -228.025E-03     455.207E-03    -227.181E-03     22.8972E-03    -228.134E-03     454.113E-03    -227.208E-03     20.2666E-03
             654     1.43322E-03     114.318E-03    -134.331E+06    -287.996E+06    -127.110E+06     168.346E+03    -227.674E-03     455.181E-03    -227.507E-03     42.6216E-03    -227.993E-03     454.369E-03    -227.530E-03     37.7223E-03
             655     2.15021E-03     114.390E-03    -129.509E+06    -272.325E+06    -110.984E+06     29.5117E+03    -227.886E-03     455.362E-03    -227.476E-03     62.8549E-03    -228.514E-03     454.885E-03    -227.448E-03     55.5190E-03
             656     2.86794E-03     114.488E-03    -122.534E+06    -258.597E+06    -92.0133E+06     421.567E+03    -228.349E-03     455.820E-03    -227.471E-03     82.8305E-03    -229.400E-03     455.785E-03    -227.378E-03     72.9696E-03
             657     3.58514E-03     114.612E-03    -114.590E+06    -228.739E+06    -73.2908E+06     496.806E+03    -228.907E-03     456.368E-03    -227.461E-03     102.476E-03    -230.532E-03     456.987E-03    -227.330E-03     89.9790E-03
             658     4.30220E-03     114.763E-03    -106.552E+06    -189.907E+06    -54.7455E+06     644.623E+03    -229.469E-03     456.917E-03    -227.448E-03     121.477E-03    -231.819E-03     458.374E-03    -227.292E-03     106.249E-03
             659     5.01917E-03     114.939E-03    -98.3510E+06    -164.210E+06    -36.3451E+06     1.01303E+06    -230.069E-03     457.529E-03    -227.460E-03     139.657E-03    -233.268E-03     459.902E-03    -227.261E-03     121.614E-03
             660     5.73627E-03     115.137E-03    -89.4455E+06    -131.569E+06    -18.4336E+06     1.41271E+06    -230.668E-03     458.133E-03    -227.465E-03     157.104E-03    -234.863E-03     461.597E-03    -227.237E-03     136.200E-03
             661     6.45407E-03     115.359E-03    -80.3332E+06    -90.1715E+06    -609.087E+03     1.85128E+06    -231.186E-03     458.649E-03    -227.463E-03     173.551E-03    -236.503E-03     463.363E-03    -227.219E-03     149.842E-03
             662     7.17059E-03     115.601E-03    -71.6263E+06    -49.1474E+06     17.1935E+06     2.21299E+06    -231.366E-03     458.820E-03    -227.455E-03     188.249E-03    -237.861E-03     464.837E-03    -227.194E-03     161.950E-03
             663     7.88818E-03     115.860E-03    -62.8505E+06    -1.83067E+06     35.2393E+06     1.73958E+06    -231.380E-03     458.802E-03    -227.421E-03     200.650E-03    -239.047E-03     466.136E-03    -227.151E-03     172.050E-03
             664     8.60584E-03     116.132E-03    -54.3241E+06     27.9566E+06     46.9898E+06     891.318E+03    -231.318E-03     458.692E-03    -227.375E-03     209.432E-03    -239.969E-03     467.114E-03    -227.102E-03     178.989E-03
             665     9.32334E-03     116.413E-03    -46.0422E+06     41.2521E+06     56.2936E+06     934.558E+03    -230.777E-03     458.112E-03    -227.335E-03     212.859E-03    -240.066E-03     467.220E-03    -227.046E-03     181.289E-03
             666     10.0423E-03     116.691E-03    -37.0321E+06     53.9800E+06     68.5806E+06     924.093E+03    -230.170E-03     457.480E-03    -227.310E-03     210.402E-03    -239.683E-03     466.854E-03    -226.992E-03     178.361E-03
             667     10.7583E-03     116.965E-03    -27.9695E+06     63.2152E+06     80.9762E+06     556.203E+03    -229.633E-03     456.945E-03    -227.312E-03     202.485E-03    -238.913E-03     466.115E-03    -226.958E-03     170.635E-03
             668     11.4761E-03     117.219E-03    -21.2191E+06     64.6502E+06     87.3472E+06     308.109E+03    -228.614E-03     455.925E-03    -227.311E-03     191.260E-03    -237.327E-03     464.539E-03    -226.937E-03     160.159E-03
             669     12.1941E-03     117.460E-03    -15.5577E+06     65.2214E+06     89.0664E+06     1.29989E+06    -227.149E-03     454.425E-03    -227.275E-03     171.973E-03    -234.713E-03     461.906E-03    -226.902E-03     142.752E-03
             670     12.9129E-03     117.656E-03    -10.7257E+06     76.0409E+06     91.2240E+06     1.06688E+06    -226.024E-03     453.242E-03    -227.218E-03     154.591E-03    -232.734E-03     459.920E-03    -226.857E-03     126.525E-03
             671     13.6292E-03     117.849E-03    -6.25907E+06     79.0450E+06     90.2833E+06    -106.645E+03    -225.549E-03     452.715E-03    -227.167E-03     108.810E-03    -229.958E-03     457.121E-03    -226.821E-03     86.3408E-03
             672     717.224E-06     115.768E-03    -136.750E+06    -313.756E+06    -135.792E+06    -7.72025E+03    -227.500E-03     454.806E-03    -227.306E-03     23.2119E-03    -227.613E-03     453.713E-03    -227.331E-03     20.5508E-03
             673     1.43413E-03     115.811E-03    -134.060E+06    -288.261E+06    -127.266E+06     101.533E+03    -227.748E-03     455.107E-03    -227.359E-03     42.8124E-03    -228.066E-03     454.295E-03    -227.383E-03     37.8918E-03
             674     2.15117E-03     115.882E-03    -129.197E+06    -272.261E+06    -110.491E+06     384.190E+03    -227.969E-03     455.377E-03    -227.408E-03     62.9944E-03    -228.596E-03     454.900E-03    -227.379E-03     55.6623E-03
             675     2.86796E-03     115.980E-03    -122.364E+06    -259.214E+06    -92.0126E+06     335.523E+03    -228.439E-03     455.881E-03    -227.442E-03     82.7125E-03    -229.489E-03     455.843E-03    -227.349E-03     72.8335E-03
             676     3.58504E-03     116.105E-03    -114.798E+06    -229.963E+06    -73.9369E+06     975.095E+03    -229.061E-03     456.525E-03    -227.464E-03     102.118E-03    -230.682E-03     457.137E-03    -227.334E-03     89.6113E-03
             677     4.30189E-03     116.256E-03    -106.646E+06    -190.774E+06    -55.3495E+06     1.31132E+06    -229.566E-03     457.041E-03    -227.475E-03     121.205E-03    -231.911E-03     458.491E-03    -227.321E-03     105.986E-03
             678     5.01927E-03     116.431E-03    -97.8631E+06    -164.708E+06    -36.5659E+06     1.37664E+06    -230.102E-03     457.596E-03    -227.494E-03     139.568E-03    -233.294E-03     459.961E-03    -227.296E-03     121.541E-03
             679     5.73664E-03     116.630E-03    -88.9564E+06    -132.659E+06    -18.7304E+06     1.17622E+06    -230.741E-03     458.242E-03    -227.501E-03     157.150E-03    -234.927E-03     461.696E-03    -227.273E-03     136.252E-03
             680     6.45278E-03     116.852E-03    -79.6747E+06    -91.3570E+06    -668.763E+03     1.14142E+06    -231.089E-03     458.581E-03    -227.492E-03     173.780E-03    -236.399E-03     463.286E-03    -227.248E-03     150.094E-03
             681     7.17072E-03     117.093E-03    -69.8284E+06    -49.2855E+06     17.9999E+06     1.63331E+06    -231.247E-03     458.714E-03    -227.467E-03     188.706E-03    -237.746E-03     464.737E-03    -227.204E-03     162.406E-03
             682     7.88840E-03     117.352E-03    -60.3433E+06    -2.01937E+06     36.6335E+06     2.30770E+06    -231.352E-03     458.774E-03    -227.423E-03     201.023E-03    -239.023E-03     466.118E-03    -227.149E-03     172.405E-03
             683     8.60585E-03     117.626E-03    -51.9412E+06     29.0356E+06     48.9166E+06     2.70202E+06    -231.172E-03     458.542E-03    -227.369E-03     209.185E-03    -239.808E-03     466.954E-03    -227.091E-03     178.789E-03
             684     9.32426E-03     117.904E-03    -44.0522E+06     43.1555E+06     57.6681E+06     1.20267E+06    -230.918E-03     458.247E-03    -227.329E-03     212.358E-03    -240.194E-03     467.352E-03    -227.039E-03     180.766E-03
             685     10.0402E-03     118.185E-03    -36.4893E+06     54.5025E+06     68.7485E+06    -512.212E+03    -230.511E-03     457.833E-03    -227.322E-03     210.415E-03    -240.027E-03     467.214E-03    -227.004E-03     178.307E-03
             686     10.7591E-03     118.456E-03    -29.8634E+06     61.2495E+06     79.5882E+06     128.467E+03    -229.577E-03     456.908E-03    -227.331E-03     202.795E-03    -238.862E-03     466.073E-03    -226.979E-03     170.976E-03
             687     11.4762E-03     118.715E-03    -23.7487E+06     63.8315E+06     86.1584E+06     2.12213E+06    -228.173E-03     455.486E-03    -227.313E-03     190.921E-03    -236.875E-03     464.080E-03    -226.940E-03     159.944E-03
             688     12.1945E-03     118.948E-03    -17.8223E+06     65.9162E+06     87.7155E+06     895.194E+03    -227.039E-03     454.298E-03    -227.259E-03     171.902E-03    -234.606E-03     461.781E-03    -226.890E-03     142.701E-03
             689     12.9110E-03     119.153E-03    -10.6950E+06     77.2346E+06     90.7901E+06     158.548E+03    -226.368E-03     453.576E-03    -227.208E-03     155.435E-03    -233.113E-03     460.294E-03    -226.851E-03     127.261E-03
             690     13.6294E-03     119.338E-03    -3.27113E+06       80.18E+06     91.7995E+06     279.071E+03    -225.588E-03     452.758E-03    -227.170E-03     110.133E-03    -230.025E-03     457.202E-03    -226.823E-03     87.5819E-03
             691     716.919E-06     117.260E-03    -134.964E+06    -313.318E+06    -134.234E+06    -190.876E+03    -227.370E-03     454.674E-03    -227.304E-03     23.2636E-03    -227.476E-03     453.578E-03    -227.325E-03     20.5889E-03
             692     1.43402E-03     117.304E-03    -133.208E+06    -289.050E+06    -126.652E+06     335.081E+03    -227.705E-03     455.003E-03    -227.298E-03     42.3861E-03    -228.015E-03     454.181E-03    -227.319E-03     37.4977E-03
             693     2.15084E-03     117.375E-03    -128.683E+06    -273.304E+06    -110.737E+06     707.748E+03    -228.176E-03     455.567E-03    -227.391E-03     62.4042E-03    -228.795E-03     455.080E-03    -227.362E-03     55.0847E-03
             694     2.86788E-03     117.473E-03    -122.466E+06    -260.097E+06    -92.1631E+06     1.25401E+06    -228.620E-03     456.105E-03    -227.485E-03     82.4452E-03    -229.667E-03     456.061E-03    -227.391E-03     72.5759E-03
             695     3.58456E-03     117.598E-03    -114.797E+06    -230.832E+06    -73.7292E+06     1.05445E+06    -229.058E-03     456.578E-03    -227.521E-03     102.182E-03    -230.679E-03     457.186E-03    -227.388E-03     89.6787E-03
             696     4.30184E-03     117.749E-03    -105.982E+06    -191.487E+06    -55.1166E+06     1.15036E+06    -229.546E-03     457.065E-03    -227.518E-03     121.205E-03    -231.883E-03     458.505E-03    -227.363E-03     106.006E-03
             697     5.01879E-03     117.924E-03    -97.0985E+06    -165.190E+06    -36.2829E+06     1.22684E+06    -230.136E-03     457.665E-03    -227.529E-03     139.758E-03    -233.325E-03     460.028E-03    -227.330E-03     121.732E-03
             698     5.73555E-03     118.124E-03    -88.3177E+06    -132.196E+06    -17.8610E+06     1.06789E+06    -230.572E-03     458.094E-03    -227.522E-03     157.541E-03    -234.762E-03     461.553E-03    -227.292E-03     136.659E-03
             699     6.45392E-03     118.345E-03    -79.7519E+06    -90.6001E+06     341.458E+03     699.129E+03    -230.887E-03     458.376E-03    -227.489E-03     173.917E-03    -236.202E-03     463.085E-03    -227.240E-03     150.244E-03
             700     7.17124E-03     118.585E-03    -71.1410E+06    -50.1498E+06     17.8047E+06    -92.8597E+03    -231.263E-03     458.716E-03    -227.453E-03     188.696E-03    -237.772E-03     464.742E-03    -227.188E-03     162.347E-03
             701     7.88829E-03     118.846E-03    -61.8413E+06    -5.50526E+06     35.3100E+06     319.891E+03    -231.413E-03     458.827E-03    -227.414E-03     200.760E-03    -239.078E-03     466.151E-03    -227.140E-03     172.111E-03
             702     8.60623E-03     119.117E-03    -51.8980E+06     26.6076E+06     48.0094E+06     1.96061E+06    -231.331E-03     458.703E-03    -227.372E-03     208.900E-03    -239.961E-03     467.104E-03    -227.095E-03     178.465E-03
             703     9.32283E-03     119.398E-03    -43.4461E+06     46.2105E+06     58.7222E+06     2.83369E+06    -231.044E-03     458.389E-03    -227.345E-03     212.410E-03    -240.326E-03     467.511E-03    -227.055E-03     180.812E-03
             704     10.0420E-03     119.677E-03    -37.3067E+06     58.0460E+06     69.9881E+06     1.78181E+06    -230.425E-03     457.766E-03    -227.340E-03     210.568E-03    -239.948E-03     467.159E-03    -227.020E-03     178.519E-03
             705     10.7579E-03     119.950E-03    -31.0291E+06     58.8124E+06     79.4299E+06     1.20105E+06    -229.307E-03     456.645E-03    -227.338E-03     202.726E-03    -238.589E-03     465.795E-03    -226.981E-03     170.969E-03
             706     11.4765E-03     120.204E-03    -23.3448E+06     61.9478E+06     86.2034E+06     966.649E+03    -228.167E-03     455.476E-03    -227.309E-03     190.754E-03    -236.864E-03     464.061E-03    -226.934E-03     159.757E-03
             707     12.1941E-03     120.442E-03    -15.2738E+06     70.6871E+06     90.2497E+06     394.476E+03    -227.034E-03     454.290E-03    -227.256E-03     171.785E-03    -234.596E-03     461.787E-03    -226.885E-03     142.582E-03
             708     12.9134E-03     120.644E-03    -9.20629E+06     79.9398E+06     92.0077E+06    -376.766E+03    -226.056E-03     453.251E-03    -227.195E-03     155.317E-03    -232.777E-03     459.956E-03    -226.837E-03     127.236E-03
             709     13.6308E-03     120.833E-03    -5.25524E+06     78.1447E+06     88.6648E+06    -263.283E+03    -225.672E-03     452.813E-03    -227.141E-03     109.575E-03    -230.089E-03     457.232E-03    -226.803E-03     87.0576E-03
             710     716.985E-06     118.752E-03    -135.086E+06    -315.215E+06    -133.746E+06     1.06710E+06    -227.675E-03     455.050E-03    -227.375E-03     22.8868E-03    -227.778E-03     453.942E-03    -227.391E-03     20.2616E-03
             711     1.43396E-03     118.796E-03    -133.518E+06    -290.539E+06    -125.647E+06     1.42529E+06    -227.706E-03     455.161E-03    -227.454E-03     42.3665E-03    -228.017E-03     454.330E-03    -227.467E-03     37.5021E-03
             712     2.15073E-03     118.868E-03    -129.262E+06    -274.716E+06    -110.192E+06     1.66684E+06    -228.090E-03     455.568E-03    -227.479E-03     62.5829E-03    -228.710E-03     455.075E-03    -227.444E-03     55.2865E-03
             713     2.86736E-03     118.966E-03    -122.119E+06    -260.465E+06    -91.4210E+06     1.30880E+06    -228.559E-03     456.086E-03    -227.526E-03     82.7718E-03    -229.606E-03     456.039E-03    -227.429E-03     72.9209E-03
             714     3.58472E-03     119.091E-03    -113.795E+06    -230.350E+06    -72.8290E+06     1.04209E+06    -229.033E-03     456.572E-03    -227.539E-03     102.459E-03    -230.651E-03     457.180E-03    -227.404E-03     89.9680E-03
             715     4.30164E-03     119.242E-03    -105.562E+06    -191.946E+06    -54.2530E+06     963.736E+03    -229.563E-03     457.094E-03    -227.531E-03     121.520E-03    -231.904E-03     458.537E-03    -227.371E-03     106.304E-03
             716     5.01892E-03     119.417E-03    -97.0542E+06    -165.833E+06    -35.8036E+06     1.10814E+06    -230.080E-03     457.615E-03    -227.535E-03     139.984E-03    -233.274E-03     459.980E-03    -227.333E-03     121.945E-03
             717     5.73669E-03     119.616E-03    -88.3969E+06    -132.471E+06    -17.3958E+06     1.54804E+06    -230.469E-03     457.985E-03    -227.517E-03     157.414E-03    -234.657E-03     461.440E-03    -227.283E-03     136.547E-03
             718     6.45340E-03     119.837E-03    -79.7832E+06    -90.3866E+06     929.177E+03     1.58623E+06    -230.939E-03     458.422E-03    -227.483E-03     173.750E-03    -236.251E-03     463.127E-03    -227.231E-03     150.085E-03
             719     7.17062E-03     120.079E-03    -71.6287E+06    -48.6057E+06     18.6010E+06     1.25969E+06    -231.351E-03     458.807E-03    -227.455E-03     188.507E-03    -237.855E-03     464.830E-03    -227.188E-03     162.192E-03
             720     7.88857E-03     120.337E-03    -63.7293E+06    -5.00217E+06     35.1523E+06     119.677E+03    -231.495E-03     458.921E-03    -227.426E-03     200.564E-03    -239.164E-03     466.244E-03    -227.151E-03     171.911E-03
             721     8.60546E-03     120.611E-03    -55.6909E+06     23.6253E+06     45.9748E+06    -1.12156E+06    -231.451E-03     458.843E-03    -227.392E-03     208.824E-03    -240.094E-03     467.239E-03    -227.116E-03     178.320E-03
             722     9.32391E-03     120.890E-03    -46.4190E+06     42.9254E+06     56.3781E+06    -178.056E+03    -231.074E-03     458.444E-03    -227.370E-03     212.241E-03    -240.367E-03     467.561E-03    -227.083E-03     180.568E-03
             723     10.0398E-03     121.171E-03    -36.4362E+06     58.2758E+06     69.5255E+06     1.85077E+06    -230.104E-03     457.459E-03    -227.356E-03     210.169E-03    -239.621E-03     466.853E-03    -227.040E-03     178.127E-03
             724     10.7594E-03     121.442E-03    -27.5793E+06     59.8565E+06     79.9281E+06     1.73327E+06    -229.054E-03     456.389E-03    -227.336E-03     202.435E-03    -238.312E-03     465.530E-03    -226.983E-03     170.710E-03
             725     11.4766E-03     121.697E-03    -20.7268E+06     62.3866E+06     87.1077E+06     1.33812E+06    -228.238E-03     455.543E-03    -227.305E-03     190.746E-03    -236.927E-03     464.128E-03    -226.930E-03     159.734E-03
             726     12.1942E-03     121.934E-03    -16.1819E+06     71.9557E+06     90.3322E+06     1.86668E+06    -227.244E-03     454.506E-03    -227.261E-03     171.361E-03    -234.810E-03     462.008E-03    -226.891E-03     142.133E-03
             727     12.9113E-03     122.134E-03    -11.3839E+06     79.8866E+06     90.9385E+06    -278.145E+03    -226.249E-03     453.462E-03    -227.213E-03     154.687E-03    -232.972E-03     460.164E-03    -226.857E-03     126.546E-03
             728     13.6293E-03     122.326E-03    -5.12922E+06     78.1914E+06     89.8568E+06    -961.844E+03    -225.579E-03     452.750E-03    -227.171E-03     108.986E-03    -229.994E-03     457.164E-03    -226.828E-03     86.4491E-03
             729     716.495E-06     120.245E-03    -136.546E+06    -318.087E+06    -136.613E+06     215.469E+03    -227.785E-03     455.310E-03    -227.525E-03     22.9027E-03    -227.887E-03     454.195E-03    -227.549E-03     20.2748E-03
             730     1.43325E-03     120.289E-03    -134.144E+06    -293.201E+06    -126.853E+06     1.31888E+06    -227.676E-03     455.228E-03    -227.551E-03     42.6275E-03    -227.986E-03     454.389E-03    -227.566E-03     37.7465E-03
             731     2.15061E-03     120.360E-03    -128.206E+06    -275.037E+06    -109.625E+06     1.21459E+06    -227.952E-03     455.467E-03    -227.514E-03     62.8186E-03    -228.571E-03     454.972E-03    -227.478E-03     55.5016E-03
             732     2.86809E-03     120.459E-03    -120.472E+06    -260.527E+06    -90.7653E+06     817.443E+03    -228.512E-03     456.037E-03    -227.525E-03     82.7654E-03    -229.550E-03     455.985E-03    -227.426E-03     72.9107E-03
             733     3.58468E-03     120.584E-03    -112.640E+06    -231.260E+06    -72.4402E+06     1.09322E+06    -229.034E-03     456.567E-03    -227.533E-03     102.310E-03    -230.644E-03     457.166E-03    -227.396E-03     89.8252E-03
             734     4.30198E-03     120.734E-03    -104.397E+06    -192.804E+06    -53.5493E+06     1.47573E+06    -229.531E-03     457.057E-03    -227.526E-03     121.477E-03    -231.868E-03     458.494E-03    -227.362E-03     106.259E-03
             735     5.01898E-03     120.910E-03    -96.1360E+06    -166.548E+06    -34.7918E+06     1.86599E+06    -230.052E-03     457.581E-03    -227.528E-03     139.758E-03    -233.236E-03     459.933E-03    -227.321E-03     121.745E-03
             736     5.73579E-03     121.108E-03    -87.2961E+06    -133.318E+06    -16.6531E+06     2.07682E+06    -230.561E-03     458.076E-03    -227.515E-03     157.312E-03    -234.741E-03     461.520E-03    -227.278E-03     136.455E-03
             737     6.45364E-03     121.330E-03    -78.1769E+06    -91.2947E+06     1.85014E+06     2.55006E+06    -231.068E-03     458.561E-03    -227.493E-03     173.829E-03    -236.372E-03     463.258E-03    -227.238E-03     150.169E-03
             738     7.17125E-03     121.571E-03    -69.0453E+06    -48.1325E+06     20.6210E+06     3.14787E+06    -231.463E-03     458.941E-03    -227.478E-03     188.442E-03    -237.959E-03     464.961E-03    -227.205E-03     162.134E-03
             739     7.88788E-03     121.831E-03    -60.2248E+06    -1.15191E+06     38.7951E+06     2.85952E+06    -231.576E-03     459.034E-03    -227.458E-03     200.400E-03    -239.244E-03     466.372E-03    -227.175E-03     171.746E-03
             740     8.60588E-03     122.103E-03    -51.7959E+06     28.6114E+06     50.9216E+06     731.861E+03    -231.450E-03     458.881E-03    -227.431E-03     208.795E-03    -240.092E-03     467.293E-03    -227.143E-03     178.298E-03
             741     9.32207E-03     122.383E-03    -43.9735E+06     40.3867E+06     59.0095E+06    -1.22276E+06    -230.964E-03     458.367E-03    -227.403E-03     212.485E-03    -240.254E-03     467.473E-03    -227.103E-03     180.811E-03
             742     10.0412E-03     122.662E-03    -36.3855E+06     53.1838E+06     69.4897E+06    -313.942E+03    -230.077E-03     457.451E-03    -227.374E-03     210.250E-03    -239.590E-03     466.822E-03    -227.051E-03     178.189E-03
             743     10.7580E-03     122.933E-03    -29.2895E+06     60.3220E+06     79.9294E+06     1.17420E+06    -229.127E-03     456.477E-03    -227.350E-03     202.391E-03    -238.397E-03     465.625E-03    -226.995E-03     170.639E-03
             744     11.4762E-03     123.190E-03    -22.8710E+06     61.1754E+06     85.4530E+06     2.28072E+06    -228.200E-03     455.517E-03    -227.316E-03     190.441E-03    -236.889E-03     464.093E-03    -226.945E-03     159.438E-03
             745     12.1944E-03     123.425E-03    -15.1867E+06     72.0790E+06     90.7856E+06     1.98367E+06    -227.434E-03     454.715E-03    -227.281E-03     171.442E-03    -235.006E-03     462.226E-03    -226.910E-03     142.154E-03
             746     12.9118E-03     123.630E-03    -8.02366E+06     81.8714E+06     94.3730E+06     157.801E+03    -226.579E-03     453.834E-03    -227.255E-03     154.746E-03    -233.303E-03     460.546E-03    -226.890E-03     126.567E-03
             747     13.6294E-03     123.815E-03    -3.53817E+06     79.2077E+06     92.1731E+06     358.686E+03    -225.316E-03     452.528E-03    -227.212E-03     109.379E-03    -229.735E-03     456.949E-03    -226.861E-03     86.8507E-03
             748     716.987E-06     121.738E-03    -132.391E+06    -318.930E+06    -130.231E+06    -307.596E+03    -227.663E-03     455.120E-03    -227.457E-03     23.2314E-03    -227.754E-03     453.987E-03    -227.454E-03     20.5721E-03
             749     1.43401E-03     121.782E-03    -128.985E+06    -295.383E+06    -123.623E+06     110.012E+03    -227.793E-03     455.281E-03    -227.489E-03     42.6694E-03    -228.078E-03     454.419E-03    -227.492E-03     37.7657E-03
             750     2.15076E-03     121.853E-03    -124.805E+06    -275.034E+06    -110.446E+06     34.2697E+03    -228.101E-03     455.597E-03    -227.496E-03     62.8590E-03    -228.702E-03     455.098E-03    -227.468E-03     55.5267E-03
             751     2.86729E-03     121.952E-03    -119.039E+06    -262.098E+06    -91.5945E+06     734.091E+03    -228.523E-03     456.056E-03    -227.533E-03     82.7582E-03    -229.551E-03     455.997E-03    -227.438E-03     72.9005E-03
             752     3.58470E-03     122.076E-03    -111.582E+06    -232.761E+06    -72.1778E+06     1.37263E+06    -229.007E-03     456.549E-03    -227.542E-03     102.299E-03    -230.612E-03     457.140E-03    -227.403E-03     89.8122E-03
             753     4.30162E-03     122.227E-03    -103.402E+06    -193.914E+06    -53.0015E+06     1.71930E+06    -229.489E-03     457.017E-03    -227.528E-03     121.414E-03    -231.815E-03     458.441E-03    -227.362E-03     106.223E-03
             754     5.01901E-03     122.403E-03    -94.4244E+06    -167.255E+06    -33.5385E+06     2.14585E+06    -230.069E-03     457.598E-03    -227.529E-03     139.788E-03    -233.244E-03     459.941E-03    -227.317E-03     121.783E-03
             755     5.73666E-03     122.601E-03    -85.7338E+06    -134.311E+06    -15.4499E+06     2.33759E+06    -230.747E-03     458.274E-03    -227.527E-03     157.283E-03    -234.923E-03     461.714E-03    -227.286E-03     136.393E-03
             756     6.45343E-03     122.823E-03    -76.7849E+06    -92.3490E+06     2.90541E+06     2.36950E+06    -231.261E-03     458.788E-03    -227.527E-03     173.508E-03    -236.559E-03     463.478E-03    -227.268E-03     149.801E-03
             757     7.17020E-03     123.065E-03    -67.3689E+06    -50.1783E+06     21.3783E+06     2.67821E+06    -231.478E-03     459.002E-03    -227.524E-03     188.103E-03    -237.961E-03     465.006E-03    -227.246E-03     161.768E-03
             758     7.88810E-03     123.324E-03    -57.5394E+06    -579.599E+03     40.3469E+06     3.09994E+06    -231.463E-03     458.960E-03    -227.497E-03     200.316E-03    -239.119E-03     466.292E-03    -227.211E-03     171.674E-03
             759     8.60482E-03     123.596E-03    -48.8177E+06     31.5121E+06     53.2096E+06     3.60031E+06    -231.260E-03     458.713E-03    -227.453E-03     208.844E-03    -239.895E-03     467.132E-03    -227.162E-03     178.411E-03
             760     9.32379E-03     123.876E-03    -42.4930E+06     44.0273E+06     61.1695E+06     3.32716E+06    -230.774E-03     458.183E-03    -227.409E-03     212.237E-03    -240.049E-03     467.286E-03    -227.105E-03     180.678E-03
             761     10.0405E-03     124.154E-03    -37.6330E+06     53.7346E+06     70.1927E+06     1.65356E+06    -230.170E-03     457.549E-03    -227.378E-03     210.048E-03    -239.680E-03     466.912E-03    -227.051E-03     178.024E-03
             762     10.7586E-03     124.427E-03    -31.3604E+06     57.8067E+06     79.1610E+06     1.65906E+06    -229.413E-03     456.778E-03    -227.365E-03     202.354E-03    -238.686E-03     465.915E-03    -227.008E-03     170.592E-03
             763     11.4762E-03     124.681E-03    -23.6952E+06     62.5189E+06     86.2113E+06     349.206E+03    -228.395E-03     455.743E-03    -227.347E-03     190.457E-03    -237.104E-03     464.339E-03    -226.973E-03     159.368E-03
             764     12.1932E-03     124.920E-03    -16.6865E+06     72.4322E+06     90.5834E+06    -1.11667E+06    -227.249E-03     454.559E-03    -227.310E-03     171.678E-03    -234.843E-03     462.088E-03    -226.938E-03     142.333E-03
             765     12.9111E-03     125.121E-03    -11.0555E+06     79.7519E+06     92.4768E+06     1.18767E+06    -226.159E-03     453.421E-03    -227.261E-03     155.021E-03    -232.882E-03     460.119E-03    -226.899E-03     126.955E-03
             766     13.6283E-03     125.310E-03    -5.70870E+06     80.4406E+06     91.9145E+06     1.31706E+06    -225.117E-03     452.320E-03    -227.203E-03     109.463E-03    -229.534E-03     456.735E-03    -226.851E-03     87.0266E-03
             767     716.993E-06     123.231E-03    -130.018E+06    -318.504E+06    -129.121E+06     292.977E+03    -227.720E-03     454.925E-03    -227.205E-03     23.1263E-03    -227.800E-03     453.787E-03    -227.200E-03     20.4847E-03
             768     1.43370E-03     123.274E-03    -128.554E+06    -295.885E+06    -122.457E+06    -188.335E+03    -227.891E-03     455.323E-03    -227.432E-03     42.5531E-03    -228.174E-03     454.454E-03    -227.429E-03     37.6686E-03
             769     2.15057E-03     123.346E-03    -125.123E+06    -275.722E+06    -109.153E+06     391.587E+03    -228.172E-03     455.667E-03    -227.495E-03     62.7186E-03    -228.773E-03     455.162E-03    -227.460E-03     55.4000E-03
             770     2.86792E-03     123.444E-03    -119.518E+06    -263.605E+06    -91.0168E+06     771.278E+03    -228.489E-03     456.028E-03    -227.540E-03     82.8343E-03    -229.520E-03     455.963E-03    -227.439E-03     72.9655E-03
             771     3.58467E-03     123.570E-03    -111.769E+06    -234.055E+06    -71.9775E+06     1.16685E+06    -228.998E-03     456.538E-03    -227.540E-03     102.480E-03    -230.603E-03     457.123E-03    -227.398E-03     89.9920E-03
             772     4.30193E-03     123.720E-03    -103.389E+06    -194.952E+06    -52.8079E+06     1.48994E+06    -229.604E-03     457.138E-03    -227.533E-03     121.349E-03    -231.930E-03     458.558E-03    -227.365E-03     106.141E-03
             773     5.01914E-03     123.895E-03    -95.0193E+06    -168.890E+06    -34.0122E+06     1.66798E+06    -230.259E-03     457.816E-03    -227.557E-03     139.485E-03    -233.435E-03     460.154E-03    -227.344E-03     121.430E-03
             774     5.73573E-03     124.095E-03    -86.1516E+06    -135.553E+06    -15.5145E+06     1.86765E+06    -230.856E-03     458.433E-03    -227.577E-03     157.010E-03    -235.030E-03     461.865E-03    -227.333E-03     136.095E-03
             775     6.45279E-03     124.316E-03    -77.4204E+06    -92.9653E+06     2.67154E+06     2.14212E+06    -231.280E-03     458.859E-03    -227.579E-03     173.558E-03    -236.584E-03     463.550E-03    -227.319E-03     149.836E-03
             776     7.17025E-03     124.558E-03    -68.8021E+06     -51.109E+06     20.5291E+06     2.16190E+06    -231.412E-03     458.979E-03    -227.566E-03     188.247E-03    -237.906E-03     464.987E-03    -227.290E-03     161.902E-03
             777     7.88723E-03     124.816E-03    -60.8542E+06    -2.66154E+06     38.5397E+06     2.54632E+06    -231.328E-03     458.853E-03    -227.525E-03     200.426E-03    -238.994E-03     466.183E-03    -227.240E-03     171.793E-03
             778     8.60576E-03     125.089E-03    -53.3405E+06     27.6389E+06     49.6850E+06     4.18501E+06    -231.136E-03     458.602E-03    -227.466E-03     208.510E-03    -239.765E-03     466.996E-03    -227.180E-03     178.126E-03
             779     9.32228E-03     125.367E-03    -45.4202E+06     45.5074E+06     58.3534E+06     5.20307E+06    -230.815E-03     458.229E-03    -227.414E-03     211.819E-03    -240.089E-03     467.333E-03    -227.122E-03     180.287E-03
             780     10.0407E-03     125.648E-03    -37.3912E+06     59.0426E+06     70.1002E+06     4.20112E+06    -230.286E-03     457.681E-03    -227.395E-03     209.630E-03    -239.796E-03     467.065E-03    -227.076E-03     177.607E-03
             781     10.7583E-03     125.918E-03    -30.0653E+06     59.3595E+06     80.6281E+06     1.55010E+06    -229.392E-03     456.792E-03    -227.400E-03     201.739E-03    -238.655E-03     465.925E-03    -227.039E-03     169.943E-03
             782     11.4753E-03     126.176E-03    -22.5162E+06     65.6161E+06     89.2314E+06     309.703E+03    -228.187E-03     455.569E-03    -227.382E-03     190.374E-03    -236.890E-03     464.166E-03    -226.998E-03     159.324E-03
             783     12.1936E-03     126.410E-03    -16.4016E+06     71.9352E+06     91.6608E+06     332.563E+03    -226.918E-03     454.240E-03    -227.322E-03     172.112E-03    -234.498E-03     461.751E-03    -226.944E-03     142.920E-03
             784     12.9116E-03     126.615E-03    -10.5440E+06     79.4181E+06     92.1511E+06     1.43793E+06    -225.923E-03     453.170E-03    -227.246E-03     155.253E-03    -232.639E-03     459.862E-03    -226.885E-03     127.258E-03
             785     13.6313E-03     126.799E-03    -4.03230E+06     81.9090E+06     91.2696E+06     688.754E+03    -225.337E-03     452.518E-03    -227.181E-03     108.671E-03    -229.738E-03     456.931E-03    -226.838E-03     86.2130E-03
             786     716.941E-06     124.722E-03    -135.297E+06    -318.283E+06    -135.015E+06    -247.649E+03    -227.886E-03     455.077E-03    -227.191E-03     23.0863E-03    -227.985E-03     453.958E-03    -227.208E-03     20.4273E-03
             787     1.43400E-03     124.768E-03    -133.611E+06    -295.045E+06    -125.201E+06    -399.008E+03    -227.751E-03     455.229E-03    -227.479E-03     42.5533E-03    -228.057E-03     454.377E-03    -227.483E-03     37.6554E-03
             788     2.15069E-03     124.839E-03    -127.704E+06    -277.957E+06    -108.085E+06     400.870E+03    -228.058E-03     455.561E-03    -227.503E-03     62.7244E-03    -228.672E-03     455.048E-03    -227.455E-03     55.3863E-03
             789     2.86745E-03     124.937E-03    -120.204E+06    -263.867E+06    -89.3128E+06     841.263E+03    -228.578E-03     456.120E-03    -227.543E-03     82.7341E-03    -229.613E-03     456.052E-03    -227.432E-03     72.8595E-03
             790     3.58481E-03     125.062E-03    -112.615E+06    -235.085E+06    -71.8472E+06     879.730E+03    -229.153E-03     456.718E-03    -227.565E-03     102.184E-03    -230.758E-03     457.297E-03    -227.420E-03     89.6802E-03
             791     4.30179E-03     125.213E-03    -104.623E+06    -196.366E+06    -53.5091E+06     1.44504E+06    -229.767E-03     457.350E-03    -227.583E-03     121.029E-03    -232.094E-03     458.764E-03    -227.414E-03     105.797E-03
             792     5.01824E-03     125.389E-03    -96.0881E+06    -169.943E+06    -34.7342E+06     1.67227E+06    -230.376E-03     457.997E-03    -227.622E-03     139.475E-03    -233.555E-03     460.333E-03    -227.410E-03     121.411E-03
             793     5.73556E-03     125.588E-03    -87.5534E+06    -136.465E+06    -16.4673E+06     1.90375E+06    -230.854E-03     458.493E-03    -227.639E-03     157.224E-03    -235.037E-03     461.929E-03    -227.397E-03     136.299E-03
             794     6.45288E-03     125.809E-03    -79.2414E+06    -94.3211E+06     1.44018E+06     2.33151E+06    -231.105E-03     458.730E-03    -227.625E-03     173.467E-03    -236.408E-03     463.412E-03    -227.366E-03     149.779E-03
             795     7.16992E-03     126.051E-03    -71.0493E+06    -51.9587E+06     19.2899E+06     3.00766E+06    -231.248E-03     458.839E-03    -227.591E-03     188.079E-03    -237.740E-03     464.838E-03    -227.316E-03     161.784E-03
             796     7.88777E-03     126.309E-03    -62.5483E+06    -5.52886E+06     36.8120E+06     4.13932E+06    -231.353E-03     458.895E-03    -227.542E-03     200.365E-03    -239.018E-03     466.211E-03    -227.259E-03     171.758E-03
             797     8.60446E-03     126.581E-03    -53.5518E+06     26.0166E+06     48.3921E+06     4.53677E+06    -231.334E-03     458.822E-03    -227.488E-03     208.442E-03    -239.963E-03     467.213E-03    -227.206E-03     178.029E-03
             798     9.32308E-03     126.861E-03     -44.846E+06     44.8360E+06     58.6683E+06     4.12883E+06    -231.067E-03     458.526E-03    -227.458E-03     211.581E-03    -240.335E-03     467.623E-03    -227.165E-03     179.995E-03
             799     10.0399E-03     127.140E-03    -35.9302E+06     60.7343E+06     72.1639E+06     3.44421E+06    -230.347E-03     457.801E-03    -227.455E-03     209.447E-03    -239.860E-03     467.193E-03    -227.130E-03     177.370E-03
             800     10.7568E-03     127.412E-03    -27.5463E+06     64.0021E+06     83.2692E+06     2.52255E+06    -229.113E-03     456.561E-03    -227.448E-03     201.648E-03    -238.376E-03     465.711E-03    -227.084E-03     169.877E-03
             801     11.4758E-03     127.666E-03    -21.4962E+06     65.7075E+06     89.4451E+06     1.92679E+06    -227.815E-03     455.219E-03    -227.404E-03     190.131E-03    -236.495E-03     463.796E-03    -227.021E-03     159.185E-03
             802     12.1937E-03     127.904E-03    -15.2770E+06     71.7977E+06     92.3813E+06     2.51828E+06    -226.888E-03     454.223E-03    -227.335E-03     171.203E-03    -234.440E-03     461.707E-03    -226.955E-03     142.063E-03
             803     12.9122E-03     128.104E-03    -9.57659E+06     81.6220E+06     93.5875E+06     773.873E+03    -226.109E-03     453.377E-03    -227.268E-03     154.065E-03    -232.803E-03     460.056E-03    -226.905E-03     126.034E-03
             804     13.6276E-03     128.295E-03    -5.61537E+06     82.9646E+06     91.1872E+06    -318.139E+03    -225.159E-03     452.364E-03    -227.205E-03     108.023E-03    -229.564E-03     456.778E-03    -226.861E-03     85.5360E-03
             805     716.652E-06     126.217E-03    -136.919E+06    -318.094E+06    -133.943E+06    -102.029E+03    -227.813E-03     455.271E-03    -227.457E-03     23.2474E-03    -227.922E-03     454.153E-03    -227.467E-03     20.5726E-03
             806     1.43326E-03     126.260E-03    -133.329E+06    -294.517E+06    -124.746E+06     2.50892E+03    -227.684E-03     455.230E-03    -227.546E-03     42.4410E-03    -227.991E-03     454.379E-03    -227.549E-03     37.5474E-03
             807     2.15091E-03     126.332E-03    -128.519E+06    -279.349E+06    -109.408E+06     31.6708E+03    -228.109E-03     455.645E-03    -227.536E-03     62.6126E-03    -228.722E-03     455.128E-03    -227.492E-03     55.2728E-03
             808     2.86788E-03     126.430E-03    -121.399E+06    -265.562E+06    -90.9158E+06     800.302E+03    -228.756E-03     456.351E-03    -227.596E-03     82.4292E-03    -229.789E-03     456.275E-03    -227.489E-03     72.5602E-03
             809     3.58427E-03     126.555E-03    -114.027E+06    -236.166E+06    -72.5447E+06     1.54141E+06    -229.303E-03     456.950E-03    -227.647E-03     102.086E-03    -230.913E-03     457.527E-03    -227.502E-03     89.5782E-03
             810     4.30087E-03     126.706E-03    -105.922E+06    -197.078E+06    -53.9845E+06     1.65298E+06    -229.766E-03     457.432E-03    -227.666E-03     121.168E-03    -232.100E-03     458.847E-03    -227.496E-03     105.934E-03
             811     5.01851E-03     126.882E-03    -97.4805E+06    -171.038E+06    -35.6408E+06     1.90561E+06    -230.325E-03     458.011E-03    -227.687E-03     139.559E-03    -233.509E-03     460.346E-03    -227.476E-03     121.502E-03
             812     5.73526E-03     127.081E-03    -89.0821E+06    -137.999E+06    -17.8063E+06     2.61869E+06    -230.805E-03     458.494E-03    -227.689E-03     157.116E-03    -234.988E-03     461.922E-03    -227.449E-03     136.213E-03
             813     6.45204E-03     127.302E-03    -80.4363E+06    -95.1663E+06      499.44E+03     3.09859E+06    -231.035E-03     458.699E-03    -227.664E-03     173.321E-03    -236.338E-03     463.377E-03    -227.407E-03     149.650E-03
             814     7.16990E-03     127.543E-03    -71.4678E+06    -54.0803E+06     18.0759E+06     3.50301E+06    -231.304E-03     458.931E-03    -227.627E-03     187.903E-03    -237.794E-03     464.923E-03    -227.354E-03     161.591E-03
             815     7.88711E-03     127.802E-03    -62.1211E+06    -7.70928E+06     35.9619E+06     3.54140E+06    -231.490E-03     459.077E-03    -227.587E-03     199.739E-03    -239.135E-03     466.370E-03    -227.306E-03     171.104E-03
             816     8.60532E-03     128.075E-03    -53.1258E+06     25.7913E+06     48.7769E+06     3.19023E+06    -231.439E-03     458.988E-03    -227.550E-03     207.828E-03    -240.053E-03     467.364E-03    -227.266E-03     177.373E-03
             817     9.32135E-03     128.354E-03    -44.3055E+06     45.2563E+06     58.6991E+06     2.79764E+06    -231.024E-03     458.544E-03    -227.519E-03     211.394E-03    -240.292E-03     467.644E-03    -227.227E-03     179.763E-03
             818     10.0389E-03     128.633E-03    -36.0948E+06     60.4810E+06     71.0839E+06     2.38207E+06    -230.121E-03     457.619E-03    -227.499E-03     209.601E-03    -239.628E-03     467.007E-03    -227.179E-03     177.556E-03
             819     10.7578E-03     128.904E-03    -28.9978E+06     62.7159E+06     81.2221E+06     3.08242E+06    -229.053E-03     456.530E-03    -227.477E-03     201.373E-03    -238.306E-03     465.667E-03    -227.120E-03     169.648E-03
             820     11.4748E-03     129.158E-03    -22.5142E+06     66.4969E+06     88.5663E+06     3.98397E+06    -228.120E-03     455.565E-03    -227.444E-03     189.298E-03    -236.800E-03     464.144E-03    -227.065E-03     158.313E-03
             821     12.1930E-03     129.394E-03    -16.9025E+06     73.5251E+06     91.7732E+06     2.57855E+06    -226.997E-03     454.389E-03    -227.392E-03     170.604E-03    -234.562E-03     461.889E-03    -227.015E-03     141.373E-03
             822     12.9094E-03     129.598E-03    -11.3683E+06     81.8201E+06     93.4955E+06     1.14515E+06    -225.518E-03     452.835E-03    -227.317E-03     154.278E-03    -232.228E-03     459.524E-03    -226.951E-03     126.285E-03
             823     13.6302E-03     129.784E-03    -5.44293E+06     84.8859E+06     94.3327E+06     297.701E+03    -224.655E-03     451.886E-03    -227.231E-03     108.958E-03    -229.080E-03     456.320E-03    -226.875E-03     86.5417E-03
             824     716.732E-06     127.709E-03    -136.333E+06    -318.541E+06    -135.076E+06     352.739E+03    -227.527E-03     455.228E-03    -227.701E-03     23.1205E-03    -227.630E-03     454.108E-03    -227.717E-03     20.4970E-03
             825     1.43413E-03     127.753E-03    -133.694E+06    -295.673E+06    -126.361E+06     492.545E+03    -227.905E-03     455.471E-03    -227.567E-03     42.4455E-03    -228.209E-03     454.617E-03    -227.576E-03     37.5642E-03
             826     2.15016E-03     127.824E-03    -128.757E+06    -279.991E+06    -109.923E+06     679.235E+03    -228.340E-03     455.971E-03    -227.631E-03     62.6457E-03    -228.951E-03     455.450E-03    -227.588E-03     55.3257E-03
             827     2.86687E-03     127.923E-03    -122.547E+06    -267.522E+06    -91.9588E+06     1.20268E+06    -228.819E-03     456.525E-03    -227.706E-03     82.5518E-03    -229.854E-03     456.442E-03    -227.600E-03     72.6870E-03
             828     3.58392E-03     128.049E-03    -114.510E+06    -237.705E+06    -73.3938E+06     1.84348E+06    -229.280E-03     457.018E-03    -227.738E-03     102.106E-03    -230.888E-03     457.588E-03    -227.594E-03     89.6088E-03
             829     4.30131E-03     128.200E-03    -106.244E+06    -198.004E+06    -54.6018E+06     2.31807E+06    -229.770E-03     457.509E-03    -227.739E-03     121.133E-03    -232.105E-03     458.922E-03    -227.571E-03     105.899E-03
             830     5.01762E-03     128.375E-03    -97.9064E+06    -172.402E+06    -36.0092E+06     2.69164E+06    -230.361E-03     458.116E-03    -227.755E-03     139.514E-03    -233.547E-03     460.447E-03    -227.543E-03     121.449E-03
             831     5.73480E-03     128.574E-03    -89.1652E+06    -139.575E+06    -18.2473E+06     2.94996E+06    -230.754E-03     458.503E-03    -227.749E-03     156.854E-03    -234.928E-03     461.918E-03    -227.509E-03     135.963E-03
             832     6.45260E-03     128.795E-03    -80.2455E+06    -96.5339E+06    -229.448E+03     3.58206E+06    -231.135E-03     458.856E-03    -227.721E-03     172.916E-03    -236.431E-03     463.526E-03    -227.466E-03     149.224E-03
             833     7.16934E-03     129.036E-03    -71.6982E+06    -55.2548E+06     17.6018E+06     3.44468E+06    -231.559E-03     459.261E-03    -227.702E-03     187.464E-03    -238.044E-03     465.245E-03    -227.430E-03     161.099E-03
             834     7.88640E-03     129.296E-03    -63.4418E+06    -7.40594E+06     35.6530E+06     2.89696E+06    -231.634E-03     459.313E-03    -227.679E-03     199.420E-03    -239.281E-03     466.605E-03    -227.398E-03     170.747E-03
             835     8.60277E-03     129.567E-03    -55.0603E+06     25.9496E+06     48.1040E+06     2.41428E+06    -231.357E-03     458.995E-03    -227.639E-03     207.785E-03    -239.978E-03     467.374E-03    -227.356E-03     177.322E-03
             836     9.32147E-03     129.847E-03    -47.2717E+06     45.4703E+06     57.6139E+06     1.76517E+06    -230.804E-03     458.395E-03    -227.592E-03     211.185E-03    -240.072E-03     467.490E-03    -227.301E-03     179.578E-03
             837     10.0396E-03     130.125E-03    -40.2821E+06     58.9878E+06     68.7734E+06     2.24608E+06    -230.026E-03     457.584E-03    -227.557E-03     208.689E-03    -239.519E-03     466.944E-03    -227.241E-03     176.674E-03
             838     10.7562E-03     130.397E-03    -33.4803E+06     61.1693E+06     78.8511E+06     2.61484E+06    -229.107E-03     456.645E-03    -227.538E-03     200.541E-03    -238.355E-03     465.763E-03    -227.184E-03     168.804E-03
             839     11.4744E-03     130.650E-03    -25.2693E+06     66.4352E+06     87.3463E+06     1.56839E+06    -228.214E-03     455.726E-03    -227.512E-03     189.376E-03    -236.917E-03     464.321E-03    -227.134E-03     158.304E-03
             840     12.1909E-03     130.889E-03    -16.0546E+06     75.3268E+06     93.1737E+06     819.586E+03    -226.696E-03     454.152E-03    -227.455E-03     170.596E-03    -234.262E-03     461.658E-03    -227.075E-03     141.376E-03
             841     12.9115E-03     131.086E-03    -8.49033E+06     84.6037E+06     96.3885E+06     1.83099E+06    -224.968E-03     452.325E-03    -227.357E-03     153.633E-03    -231.656E-03     459.004E-03    -226.986E-03     125.738E-03
             842     13.6287E-03     131.276E-03    -3.47331E+06     85.1891E+06     94.8720E+06     1.81529E+06    -224.321E-03     451.562E-03    -227.241E-03     108.535E-03    -228.717E-03     455.973E-03    -226.885E-03     86.2502E-03
             843     717.056E-06     129.202E-03    -136.345E+06    -318.979E+06    -135.866E+06    -167.283E+03    -227.646E-03     455.375E-03    -227.729E-03     23.0568E-03    -227.747E-03     454.254E-03    -227.748E-03     20.4195E-03
             844     1.43311E-03     129.246E-03    -134.002E+06    -297.637E+06    -126.825E+06     669.131E+03    -228.105E-03     455.771E-03    -227.667E-03     42.4053E-03    -228.406E-03     454.908E-03    -227.675E-03     37.5164E-03
             845     2.15039E-03     129.318E-03    -129.164E+06    -281.363E+06    -109.707E+06     1.52502E+06    -228.449E-03     456.206E-03    -227.757E-03     62.6025E-03    -229.061E-03     455.679E-03    -227.711E-03     55.2829E-03
             846     2.86715E-03     129.417E-03    -122.218E+06    -268.622E+06    -91.2118E+06     1.57435E+06    -228.863E-03     456.686E-03    -227.823E-03     82.5335E-03    -229.898E-03     456.598E-03    -227.712E-03     72.6555E-03
             847     3.58378E-03     129.542E-03    -114.633E+06    -239.583E+06    -73.8232E+06     1.94355E+06    -229.329E-03     457.168E-03    -227.839E-03     101.928E-03    -230.934E-03     457.729E-03    -227.694E-03     89.4140E-03
             848     4.30019E-03     129.693E-03    -106.349E+06    -199.973E+06    -55.3604E+06     2.55374E+06    -229.854E-03     457.689E-03    -227.835E-03     120.957E-03    -232.186E-03     459.094E-03    -227.667E-03     105.705E-03
             849     5.01772E-03     129.869E-03    -97.5942E+06    -173.781E+06    -36.4699E+06     3.03975E+06    -230.357E-03     458.202E-03    -227.845E-03     139.232E-03    -233.536E-03     460.523E-03    -227.634E-03     121.162E-03
             850     5.73460E-03     130.068E-03    -89.1681E+06    -140.734E+06    -18.5538E+06     3.41732E+06    -230.851E-03     458.689E-03    -227.838E-03     156.465E-03    -235.020E-03     462.096E-03    -227.597E-03     135.556E-03
             851     6.45107E-03     130.289E-03    -80.7420E+06    -98.6289E+06    -815.778E+03     3.40489E+06    -231.366E-03     459.188E-03    -227.822E-03     172.738E-03    -236.660E-03     463.848E-03    -227.566E-03     149.001E-03
             852     7.16824E-03     130.530E-03    -71.8218E+06    -56.0015E+06     17.3912E+06     3.96336E+06    -231.666E-03     459.477E-03    -227.811E-03     187.308E-03    -238.140E-03     465.447E-03    -227.539E-03     160.957E-03
             853     7.88545E-03     130.789E-03    -63.0517E+06    -7.07185E+06     35.9341E+06     4.44135E+06    -231.626E-03     459.410E-03    -227.784E-03     199.288E-03    -239.267E-03     466.698E-03    -227.502E-03     170.641E-03
             854     8.60366E-03     131.061E-03    -55.0088E+06     27.5598E+06     48.5817E+06     4.08519E+06    -231.415E-03     459.154E-03    -227.739E-03     207.263E-03    -240.023E-03     467.524E-03    -227.456E-03     176.819E-03
             855     9.32031E-03     131.339E-03    -47.7014E+06     46.6330E+06     58.5788E+06     3.55042E+06    -230.947E-03     458.649E-03    -227.702E-03     210.252E-03    -240.201E-03     467.729E-03    -227.408E-03     178.651E-03
             856     10.0369E-03     131.619E-03    -40.0844E+06     58.6760E+06     69.3269E+06     2.89063E+06    -230.056E-03     457.730E-03    -227.674E-03     207.848E-03    -239.537E-03     467.076E-03    -227.355E-03     175.814E-03
             857     10.7556E-03     131.888E-03    -31.2241E+06     62.3038E+06     79.5636E+06     1.83379E+06    -228.951E-03     456.596E-03    -227.644E-03     200.152E-03    -238.178E-03     465.703E-03    -227.292E-03     168.412E-03
             858     11.4729E-03     132.144E-03    -23.0693E+06     69.1515E+06     89.1541E+06     100.575E+03    -227.528E-03     455.118E-03    -227.590E-03     188.975E-03    -236.206E-03     463.702E-03    -227.212E-03     157.985E-03
             859     12.1924E-03     132.379E-03    -17.0163E+06     75.5209E+06     92.9760E+06    -520.862E+03    -226.198E-03     453.692E-03    -227.495E-03     170.150E-03    -233.750E-03     461.183E-03    -227.115E-03     141.007E-03
             860     12.9087E-03     132.578E-03    -11.8185E+06     83.0186E+06     93.5593E+06     1.20815E+06    -225.195E-03     452.577E-03    -227.382E-03     153.382E-03    -231.913E-03     459.277E-03    -227.018E-03     125.366E-03
             861     13.6286E-03     132.765E-03    -6.23473E+06     85.6711E+06     92.2029E+06     1.53322E+06    -224.081E-03     451.345E-03    -227.264E-03     108.488E-03    -228.508E-03     455.787E-03    -226.918E-03     86.1212E-03
             862     716.417E-06     130.696E-03    -136.922E+06    -319.983E+06    -134.966E+06     889.068E+03    -228.147E-03     455.874E-03    -227.727E-03     23.1095E-03    -228.252E-03     454.748E-03    -227.739E-03     20.4466E-03
             863     1.43356E-03     130.740E-03    -134.792E+06    -299.404E+06    -126.469E+06     1.01093E+06    -228.180E-03     456.066E-03    -227.886E-03     42.3689E-03    -228.483E-03     455.194E-03    -227.888E-03     37.4937E-03
             864     2.14963E-03     130.812E-03     -129.46E+06    -283.506E+06    -110.716E+06     1.41822E+06    -228.507E-03     456.426E-03    -227.919E-03     62.4508E-03    -229.117E-03     455.890E-03    -227.874E-03     55.1115E-03
             865     2.86624E-03     130.911E-03    -122.737E+06    -270.665E+06    -92.1973E+06     2.19061E+06    -228.894E-03     456.850E-03    -227.957E-03     82.3224E-03    -229.926E-03     456.754E-03    -227.847E-03     72.4363E-03
             866     3.58309E-03     131.036E-03    -114.847E+06    -240.992E+06    -73.6306E+06     2.31508E+06    -229.399E-03     457.360E-03    -227.960E-03     101.960E-03    -231.007E-03     457.917E-03    -227.813E-03     89.4296E-03
             867     4.30029E-03     131.187E-03    -106.464E+06    -201.649E+06    -55.6571E+06     2.43497E+06    -229.963E-03     457.911E-03    -227.949E-03     120.972E-03    -232.293E-03     459.309E-03    -227.780E-03     105.703E-03
             868     5.01653E-03     131.362E-03    -98.0264E+06    -176.008E+06    -37.5839E+06     2.95353E+06    -230.513E-03     458.473E-03    -227.960E-03     139.029E-03    -233.686E-03     460.782E-03    -227.750E-03     120.947E-03
             869     5.73364E-03     131.561E-03    -89.0887E+06    -142.315E+06    -19.0621E+06     3.56629E+06    -231.072E-03     459.037E-03    -227.964E-03     156.295E-03    -235.235E-03     462.434E-03    -227.724E-03     135.363E-03
             870     6.45091E-03     131.783E-03    -80.1135E+06    -99.1621E+06    -285.433E+03     3.96450E+06    -231.511E-03     459.470E-03    -227.960E-03     172.449E-03    -236.793E-03     464.117E-03    -227.701E-03     148.718E-03
             871     7.16775E-03     132.024E-03    -71.4120E+06    -57.7442E+06     17.5324E+06     4.30729E+06    -231.748E-03     459.699E-03    -227.951E-03     186.797E-03    -238.210E-03     465.651E-03    -227.676E-03     160.429E-03
             872     7.88476E-03     132.283E-03    -62.3448E+06    -8.83789E+06     36.1080E+06     4.78349E+06    -231.785E-03     459.714E-03    -227.929E-03     198.371E-03    -239.402E-03     466.974E-03    -227.645E-03     169.691E-03
             873     8.60118E-03     132.554E-03    -53.4340E+06     27.0297E+06     49.7502E+06     5.57885E+06    -231.563E-03     459.460E-03    -227.897E-03     206.212E-03    -240.147E-03     467.806E-03    -227.610E-03     175.747E-03
             874     9.31851E-03     132.834E-03    -45.1036E+06     47.7934E+06     60.2022E+06     5.74018E+06    -230.882E-03     458.741E-03    -227.858E-03     209.575E-03    -240.115E-03     467.808E-03    -227.561E-03     177.989E-03
             875     10.0369E-03     133.111E-03    -37.2077E+06     62.6298E+06     72.3648E+06     3.85667E+06    -229.927E-03     457.746E-03    -227.819E-03     207.590E-03    -239.392E-03     467.091E-03    -227.494E-03     175.582E-03
             876     10.7536E-03     133.381E-03    -30.0574E+06     65.3168E+06     82.7331E+06     1.15603E+06    -228.659E-03     456.431E-03    -227.772E-03     199.842E-03    -237.889E-03     465.546E-03    -227.410E-03     168.108E-03
             877     11.4721E-03     133.635E-03    -23.3301E+06     69.3392E+06     89.9112E+06     1.46211E+06    -227.051E-03     454.736E-03    -227.685E-03     187.996E-03    -235.695E-03     463.283E-03    -227.302E-03     157.134E-03
             878     12.1904E-03     133.869E-03    -17.9007E+06     75.7120E+06     92.5433E+06     2.52829E+06    -225.707E-03     453.261E-03    -227.554E-03     169.455E-03    -233.225E-03     460.716E-03    -227.175E-03     140.469E-03
             879     12.9107E-03     134.072E-03    -12.0777E+06     84.1263E+06     93.5934E+06     203.288E+03    -224.660E-03     452.071E-03    -227.411E-03     153.261E-03    -231.364E-03     458.760E-03    -227.048E-03     125.311E-03
             880     13.6276E-03     134.254E-03    -4.59336E+06     86.2044E+06     93.1497E+06    -778.894E+03    -223.602E-03     450.869E-03    -227.267E-03     108.929E-03    -228.024E-03     455.311E-03    -226.920E-03     86.5396E-03
             881     716.413E-06     132.190E-03    -138.354E+06    -323.977E+06    -137.021E+06     1.38267E+06    -228.600E-03     456.384E-03    -227.784E-03     23.1997E-03    -228.704E-03     455.244E-03    -227.799E-03     20.5472E-03
             882     1.43252E-03     132.234E-03    -135.162E+06    -300.809E+06    -127.109E+06     1.67629E+06    -228.315E-03     456.432E-03    -228.117E-03     42.3139E-03    -228.618E-03     455.556E-03    -228.120E-03     37.4128E-03
             883     2.14952E-03     132.306E-03    -130.867E+06    -285.848E+06    -112.036E+06     1.79340E+06    -228.492E-03     456.586E-03    -228.094E-03     62.4244E-03    -229.103E-03     456.043E-03    -228.050E-03     55.0879E-03
             884     2.86625E-03     132.405E-03    -123.822E+06    -272.448E+06    -93.4179E+06     1.80789E+06    -228.975E-03     457.067E-03    -228.092E-03     82.4323E-03    -230.009E-03     456.965E-03    -227.984E-03     72.5416E-03
             885     3.58297E-03     132.530E-03    -115.344E+06    -242.388E+06    -74.6378E+06     1.95885E+06    -229.563E-03     457.655E-03    -228.091E-03     101.878E-03    -231.169E-03     458.207E-03    -227.946E-03     89.3288E-03
             886     4.29928E-03     132.681E-03    -106.751E+06    -202.997E+06    -55.9520E+06     2.25014E+06    -230.093E-03     458.181E-03    -228.088E-03     120.655E-03    -232.417E-03     459.567E-03    -227.918E-03     105.378E-03
             887     5.01655E-03     132.857E-03    -97.8594E+06    -177.292E+06    -37.3181E+06     2.49586E+06    -230.808E-03     458.921E-03    -228.114E-03     138.785E-03    -233.975E-03     461.220E-03    -227.901E-03     120.669E-03
             888     5.73285E-03     133.056E-03    -88.8993E+06    -144.626E+06    -19.4755E+06     2.76356E+06    -231.422E-03     459.564E-03    -228.142E-03     155.822E-03    -235.577E-03     462.946E-03    -227.900E-03     134.826E-03
             889     6.44916E-03     133.277E-03    -79.9870E+06    -101.711E+06    -1.11852E+06     3.85814E+06    -231.720E-03     459.876E-03    -228.155E-03     171.620E-03    -236.988E-03     464.502E-03    -227.897E-03     147.840E-03
             890     7.16597E-03     133.518E-03    -71.0798E+06    -59.3994E+06     17.4734E+06     4.44663E+06    -231.953E-03     460.113E-03    -228.159E-03     185.920E-03    -238.401E-03     466.046E-03    -227.883E-03     159.496E-03
             891     7.88270E-03     133.777E-03    -62.4559E+06    -11.4867E+06     35.4982E+06     5.07802E+06    -231.936E-03     460.079E-03    -228.144E-03     197.619E-03    -239.536E-03     467.314E-03    -227.859E-03     168.906E-03
             892     8.59987E-03     134.049E-03    -54.1845E+06     24.8052E+06     48.5867E+06       5.905E+06    -231.459E-03     459.560E-03    -228.100E-03     205.669E-03    -240.028E-03     467.883E-03    -227.815E-03     175.209E-03
             893     9.31728E-03     134.326E-03    -45.9729E+06     48.5384E+06     60.0361E+06     5.43130E+06    -230.738E-03     458.782E-03    -228.043E-03     208.851E-03    -239.952E-03     467.830E-03    -227.747E-03     177.274E-03
             894     10.0343E-03     134.604E-03    -38.2787E+06     65.8964E+06     73.7831E+06     4.55826E+06    -229.582E-03     457.567E-03    -227.985E-03     206.556E-03    -239.028E-03     466.897E-03    -227.656E-03     174.600E-03
             895     10.7529E-03     134.874E-03    -31.9298E+06     69.3573E+06     84.1971E+06     4.00014E+06    -228.068E-03     455.973E-03    -227.905E-03     198.896E-03    -237.271E-03     465.065E-03    -227.538E-03     167.331E-03
             896     11.4711E-03     135.125E-03    -26.5537E+06     69.0392E+06     89.1743E+06     2.32967E+06    -226.856E-03     454.643E-03    -227.787E-03     187.510E-03    -235.496E-03     463.174E-03    -227.402E-03     156.703E-03
             897     12.1897E-03     135.360E-03    -18.5738E+06     74.5624E+06     92.6256E+06     770.324E+03    -225.413E-03     453.054E-03    -227.641E-03     168.908E-03    -232.929E-03     460.499E-03    -227.259E-03     139.898E-03
             898     12.9079E-03     135.558E-03    -10.1089E+06     87.0182E+06     96.5004E+06    -613.273E+03    -223.759E-03     451.227E-03    -227.467E-03     152.354E-03    -230.424E-03     457.884E-03    -227.096E-03     124.552E-03
             899     13.6297E-03     135.746E-03    -4.50117E+06     87.8364E+06     95.8706E+06    -1.25146E+06    -223.050E-03     450.338E-03    -227.288E-03     107.292E-03    -227.434E-03     454.740E-03    -226.930E-03     85.0535E-03
             900     716.330E-06     133.686E-03    -139.080E+06    -324.728E+06    -139.715E+06    -1.34584E+06    -228.564E-03     456.557E-03    -227.993E-03     23.3264E-03    -228.666E-03     455.417E-03    -228.019E-03     20.6483E-03
             901     1.43268E-03     133.730E-03    -136.237E+06    -303.968E+06    -130.646E+06     445.906E+03    -228.475E-03     456.682E-03    -228.207E-03     42.5715E-03    -228.775E-03     455.799E-03    -228.222E-03     37.6432E-03
             902     2.14898E-03     133.800E-03    -130.848E+06    -286.906E+06    -113.061E+06     1.24463E+06    -228.763E-03     456.990E-03    -228.227E-03     62.3841E-03    -229.372E-03     456.443E-03    -228.187E-03     55.0197E-03
             903     2.86575E-03     133.899E-03    -123.623E+06    -273.370E+06    -93.9061E+06     1.12489E+06    -229.279E-03     457.546E-03    -228.268E-03     82.0992E-03    -230.309E-03     457.440E-03    -228.162E-03     72.1715E-03
             904     3.58196E-03     134.025E-03    -115.789E+06    -243.460E+06    -75.6850E+06     1.17537E+06    -229.817E-03     458.108E-03    -228.292E-03     101.372E-03    -231.416E-03     458.652E-03    -228.149E-03     88.7929E-03
             905     4.29883E-03     134.175E-03    -107.072E+06    -204.128E+06    -56.8256E+06     1.25772E+06    -230.445E-03     458.756E-03    -228.312E-03     120.071E-03    -232.763E-03     460.135E-03    -228.145E-03     104.741E-03
             906     5.01489E-03     134.351E-03    -98.1555E+06    -179.280E+06    -38.3056E+06     1.53209E+06    -231.129E-03     459.491E-03    -228.363E-03     138.020E-03    -234.286E-03     461.775E-03    -228.152E-03     119.841E-03
             907     5.73123E-03     134.551E-03    -89.6021E+06    -146.670E+06    -20.4857E+06     2.38545E+06    -231.591E-03     459.991E-03    -228.400E-03     155.062E-03    -235.734E-03     463.355E-03    -228.160E-03     134.037E-03
             908     6.44772E-03     134.772E-03    -80.7154E+06    -104.789E+06    -2.58673E+06     2.85804E+06    -232.024E-03     460.441E-03    -228.417E-03     171.242E-03    -237.291E-03     465.058E-03    -228.161E-03     147.369E-03
             909     7.16413E-03     135.013E-03    -71.5803E+06    -63.1907E+06     15.3644E+06     4.08866E+06    -232.202E-03     460.628E-03    -228.426E-03     185.442E-03    -238.638E-03     466.540E-03    -228.153E-03     158.957E-03
             910     7.88062E-03     135.272E-03    -62.8968E+06    -14.9679E+06     34.0140E+06     5.88147E+06    -231.866E-03     460.268E-03    -228.402E-03     196.949E-03    -239.446E-03     467.473E-03    -228.119E-03     168.242E-03
             911     8.59770E-03     135.542E-03    -54.2511E+06     23.5495E+06     48.4001E+06     6.53891E+06    -231.421E-03     459.764E-03    -228.343E-03     204.716E-03    -239.965E-03     468.059E-03    -228.057E-03     174.252E-03
             912     9.31489E-03     135.820E-03    -46.3219E+06     50.2572E+06     59.8342E+06     6.01999E+06    -230.595E-03     458.861E-03    -228.266E-03     207.799E-03    -239.787E-03     467.894E-03    -227.973E-03     176.237E-03
             913     10.0326E-03     136.097E-03    -38.8049E+06     66.5574E+06     72.0218E+06     5.20525E+06    -229.122E-03     457.295E-03    -228.174E-03     205.442E-03    -238.531E-03     466.595E-03    -227.854E-03     173.578E-03
             914     10.7508E-03     136.363E-03    -30.1108E+06     70.7730E+06     83.7300E+06     4.49614E+06    -227.610E-03     455.669E-03    -228.059E-03     197.786E-03    -236.768E-03     464.729E-03    -227.699E-03     166.294E-03
             915     11.4699E-03     136.618E-03    -20.5413E+06     72.4060E+06     92.3829E+06     3.77473E+06    -226.303E-03     454.217E-03    -227.914E-03     186.638E-03    -234.901E-03     462.731E-03    -227.528E-03     155.897E-03
             916     12.1885E-03     136.850E-03    -14.2922E+06     78.3157E+06     96.9228E+06     1.53466E+06    -224.910E-03     452.651E-03    -227.741E-03     168.061E-03    -232.402E-03     460.090E-03    -227.350E-03     139.097E-03
             917     12.9087E-03     137.049E-03    -9.71816E+06     89.7754E+06     99.3001E+06    -197.909E+03    -223.640E-03     451.190E-03    -227.550E-03     151.726E-03    -230.325E-03     457.871E-03    -227.169E-03     123.868E-03
             918     13.6267E-03     137.232E-03    -4.35263E+06     87.4886E+06     95.9628E+06     74.9409E+03    -222.909E-03     450.263E-03    -227.355E-03     106.967E-03    -227.308E-03     454.680E-03    -226.996E-03     84.7021E-03
             919     716.259E-06     135.180E-03    -136.623E+06    -321.757E+06    -133.594E+06    -1.04597E+06    -228.463E-03     456.897E-03    -228.435E-03     22.8601E-03    -228.565E-03     455.760E-03    -228.438E-03     20.1674E-03
             920     1.43287E-03     135.224E-03    -134.920E+06    -307.307E+06    -127.794E+06    -148.187E+03    -228.611E-03     456.995E-03    -228.384E-03     41.9950E-03    -228.901E-03     456.087E-03    -228.382E-03     37.0504E-03
             921     2.14907E-03     135.296E-03    -130.673E+06    -287.110E+06    -114.766E+06     275.659E+03    -229.164E-03     457.575E-03    -228.410E-03     62.1639E-03    -229.769E-03     457.029E-03    -228.378E-03     54.7661E-03
             922     2.86465E-03     135.394E-03    -124.213E+06    -273.753E+06    -95.8605E+06     271.929E+03    -229.741E-03     458.255E-03    -228.514E-03     81.9839E-03    -230.770E-03     458.149E-03    -228.416E-03     72.0194E-03
             923     3.58115E-03     135.520E-03    -116.051E+06    -243.742E+06    -76.9581E+06     208.532E+03    -230.288E-03     458.875E-03    -228.587E-03     101.057E-03    -231.886E-03     459.419E-03    -228.450E-03     88.4229E-03
             924     4.29701E-03     135.671E-03    -107.863E+06    -205.371E+06    -58.7354E+06     303.030E+03    -230.919E-03     459.559E-03    -228.640E-03     119.707E-03    -233.237E-03     460.935E-03    -228.479E-03     104.300E-03
             925     5.01296E-03     135.848E-03    -99.4521E+06    -181.465E+06    -40.4348E+06     678.974E+03    -231.383E-03     460.085E-03    -228.702E-03     137.634E-03    -234.537E-03     462.360E-03    -228.497E-03     119.406E-03
             926     5.72929E-03     136.046E-03    -89.9703E+06    -148.932E+06    -22.1806E+06     1.23038E+06    -231.824E-03     460.557E-03    -228.733E-03     154.663E-03    -235.962E-03     463.911E-03    -228.498E-03     133.567E-03
             927     6.44574E-03     136.268E-03    -80.6557E+06    -107.413E+06    -4.07066E+06     1.99554E+06    -232.255E-03     461.001E-03    -228.746E-03     170.520E-03    -237.502E-03     465.592E-03    -228.493E-03     146.596E-03
             928     7.16158E-03     136.509E-03    -71.8721E+06    -67.4208E+06     13.6409E+06     3.47583E+06    -232.261E-03     461.008E-03    -228.747E-03     184.411E-03    -238.670E-03     466.882E-03    -228.476E-03     157.894E-03
             929     7.87848E-03     136.766E-03    -62.6773E+06    -19.8284E+06     31.9900E+06     5.24302E+06    -232.023E-03     460.737E-03    -228.713E-03     195.821E-03    -239.575E-03     467.902E-03    -228.434E-03     167.044E-03
             930     8.59531E-03     137.037E-03    -53.6436E+06     21.3979E+06     46.8165E+06     6.29362E+06    -231.393E-03     460.037E-03    -228.644E-03     203.453E-03    -239.905E-03     468.298E-03    -228.363E-03     172.956E-03
             931     9.31210E-03     137.314E-03    -44.9901E+06     50.8742E+06     59.4436E+06     6.51217E+06    -230.091E-03     458.626E-03    -228.536E-03     206.390E-03    -239.231E-03     467.615E-03    -228.247E-03     174.909E-03
             932     10.0305E-03     137.588E-03    -36.3943E+06     68.4567E+06     72.3456E+06     5.35264E+06    -228.701E-03     457.103E-03    -228.401E-03     204.177E-03    -238.065E-03     466.371E-03    -228.086E-03     172.360E-03
             933     10.7488E-03     137.856E-03    -28.4607E+06     71.9895E+06     84.4125E+06     3.62304E+06    -227.382E-03     455.645E-03    -228.262E-03     196.660E-03    -236.521E-03     464.693E-03    -227.904E-03     165.133E-03
             934     11.4674E-03     138.106E-03    -22.2774E+06     72.8333E+06     92.9588E+06     2.59660E+06    -225.841E-03     453.941E-03    -228.099E-03     185.181E-03    -234.422E-03     462.431E-03    -227.708E-03     154.444E-03
             935     12.1876E-03     138.340E-03    -15.1370E+06     82.1788E+06     98.8822E+06     2.66476E+06    -224.243E-03     452.137E-03    -227.894E-03     166.060E-03    -231.702E-03     459.547E-03    -227.497E-03     137.193E-03
             936     12.9064E-03     138.536E-03    -9.07985E+06     92.0839E+06     100.984E+06     2.08985E+06    -222.871E-03     450.533E-03    -227.661E-03     150.382E-03    -229.522E-03     457.185E-03    -227.277E-03     122.667E-03
             937     13.6266E-03     138.724E-03    -5.70127E+06     87.5857E+06     96.4571E+06     1.36582E+06    -221.556E-03     448.964E-03    -227.408E-03     107.468E-03    -225.958E-03     453.377E-03    -227.044E-03     85.3561E-03
             938     715.795E-06     136.676E-03    -142.865E+06    -322.193E+06    -139.438E+06     950.431E+03    -228.895E-03     457.584E-03    -228.688E-03     22.7021E-03    -229.020E-03     456.462E-03    -228.711E-03     20.0260E-03
             939     1.43162E-03     136.720E-03    -139.154E+06    -307.367E+06    -129.087E+06     283.205E+03    -229.021E-03     457.784E-03    -228.763E-03     41.8008E-03    -229.330E-03     456.883E-03    -228.761E-03     36.8500E-03
             940     2.14792E-03     136.792E-03    -133.043E+06    -285.822E+06    -115.067E+06    -892.388E+03    -229.455E-03     458.248E-03    -228.793E-03     61.8272E-03    -230.071E-03     457.711E-03    -228.761E-03     54.3946E-03
             941     2.86430E-03     136.891E-03    -125.416E+06    -273.396E+06    -97.6304E+06    -1.22556E+06    -230.140E-03     459.025E-03    -228.886E-03     81.3706E-03    -231.168E-03     458.921E-03    -228.795E-03     71.3637E-03
             942     3.57957E-03     137.016E-03    -117.833E+06    -244.368E+06    -79.8333E+06    -1.11470E+06    -230.773E-03     459.747E-03    -228.974E-03     100.664E-03    -232.374E-03     460.294E-03    -228.848E-03     87.9648E-03
             943     4.29521E-03     137.169E-03    -109.400E+06    -206.321E+06    -61.1012E+06    -1.19848E+06    -231.216E-03     460.251E-03    -229.035E-03     119.447E-03    -233.537E-03     461.628E-03    -228.883E-03     103.972E-03
             944     5.01136E-03     137.344E-03    -99.9313E+06    -182.081E+06    -42.1327E+06    -906.604E+03    -231.769E-03     460.865E-03    -229.096E-03     137.128E-03    -234.921E-03     463.138E-03    -228.897E-03     118.813E-03
             945     5.72723E-03     137.543E-03    -91.1569E+06    -151.375E+06    -24.7120E+06    -570.643E+03    -232.349E-03     461.490E-03    -229.141E-03     153.982E-03    -236.484E-03     464.836E-03    -228.913E-03     132.757E-03
             946     6.44245E-03     137.765E-03    -82.4239E+06    -110.687E+06    -6.97473E+06     466.446E+03    -232.490E-03     461.651E-03    -229.161E-03     169.511E-03    -237.724E-03     466.220E-03    -228.916E-03     145.505E-03
             947     7.15921E-03     138.005E-03    -73.0190E+06    -71.0476E+06     10.8853E+06     1.46815E+06    -232.433E-03     461.588E-03    -229.154E-03     183.108E-03    -238.819E-03     467.431E-03    -228.891E-03     156.500E-03
             948     7.87516E-03     138.262E-03    -63.8930E+06    -26.5065E+06     28.1929E+06     3.22680E+06    -232.065E-03     461.172E-03    -229.108E-03     194.392E-03    -239.576E-03     468.281E-03    -228.836E-03     165.558E-03
             949     8.59128E-03     138.532E-03    -55.6327E+06     18.6979E+06     43.7672E+06     5.29421E+06    -231.031E-03     460.036E-03    -229.004E-03     202.036E-03    -239.500E-03     468.246E-03    -228.732E-03     171.576E-03
             950     9.30964E-03     138.806E-03    -47.3826E+06     51.0276E+06     57.0532E+06     4.78089E+06    -229.783E-03     458.639E-03    -228.856E-03     204.826E-03    -238.898E-03     467.601E-03    -228.576E-03     173.322E-03
             951     10.0273E-03     139.081E-03    -39.6324E+06     68.8108E+06     71.2533E+06     4.40596E+06    -228.476E-03     457.179E-03    -228.703E-03     202.386E-03    -237.823E-03     466.422E-03    -228.389E-03     170.525E-03
             952     10.7462E-03     139.346E-03    -33.4408E+06     73.6293E+06     84.6947E+06     4.43674E+06    -226.906E-03     455.451E-03    -228.545E-03     194.589E-03    -236.018E-03     464.460E-03    -228.180E-03     163.117E-03
             953     11.4650E-03     139.598E-03    -26.4666E+06     74.9978E+06     93.7979E+06     3.02637E+06    -225.057E-03     453.396E-03    -228.340E-03     183.547E-03    -233.608E-03     461.848E-03    -227.941E-03     152.951E-03
             954     12.1834E-03     139.827E-03    -20.0781E+06     82.4250E+06     97.8523E+06     1.20033E+06    -223.174E-03     451.240E-03    -228.066E-03     166.220E-03    -230.640E-03     458.643E-03    -227.667E-03     137.506E-03
             955     12.9044E-03     140.025E-03    -13.4816E+06     91.6816E+06     100.032E+06     2.01568E+06    -221.309E-03     449.057E-03    -227.748E-03     151.053E-03    -227.954E-03     455.690E-03    -227.362E-03     123.623E-03
             956     13.6265E-03     140.206E-03    -5.45630E+06     90.2377E+06     98.5731E+06     1.46890E+06    -219.565E-03     446.963E-03    -227.397E-03     107.357E-03    -223.947E-03     451.360E-03    -227.028E-03     85.4693E-03
             957     715.981E-06     138.173E-03    -142.365E+06    -324.024E+06    -140.527E+06     540.711E+03    -229.467E-03     458.437E-03    -228.970E-03     22.7422E-03    -229.584E-03     457.306E-03    -228.996E-03     20.0563E-03
             958     1.43161E-03     138.217E-03    -138.331E+06    -304.491E+06    -131.434E+06    -797.674E+03    -229.712E-03     458.936E-03    -229.224E-03     41.6859E-03    -230.017E-03     458.050E-03    -229.239E-03     36.7074E-03
             959     2.14683E-03     138.289E-03    -133.127E+06    -283.040E+06    -117.449E+06    -2.20504E+06    -230.081E-03     459.405E-03    -229.324E-03     61.6071E-03    -230.697E-03     458.884E-03    -229.307E-03     54.1233E-03
             960     2.86194E-03     138.389E-03    -127.135E+06    -272.490E+06    -99.7469E+06    -2.72070E+06    -230.554E-03     459.979E-03    -229.425E-03     81.0946E-03    -231.591E-03     459.887E-03    -229.344E-03     71.0044E-03
             961     3.57773E-03     138.515E-03    -119.095E+06    -243.424E+06    -81.7571E+06    -2.95299E+06    -231.065E-03     460.548E-03    -229.482E-03     100.190E-03    -232.670E-03     461.102E-03    -229.366E-03     87.4137E-03
             962     4.29351E-03     138.666E-03    -110.422E+06    -206.022E+06    -63.3735E+06    -3.08906E+06    -231.653E-03     461.177E-03    -229.525E-03     118.591E-03    -233.967E-03     462.552E-03    -229.383E-03     103.041E-03
             963     5.00880E-03     138.842E-03    -102.464E+06    -183.561E+06    -45.6225E+06    -2.65205E+06    -232.358E-03     461.955E-03    -229.597E-03     136.263E-03    -235.512E-03     464.226E-03    -229.410E-03     117.823E-03
             964     5.72366E-03     139.042E-03    -94.0063E+06    -152.226E+06    -27.8117E+06    -2.16606E+06    -232.741E-03     462.396E-03    -229.655E-03     152.939E-03    -236.872E-03     465.734E-03    -229.437E-03     131.619E-03
             965     6.43985E-03     139.262E-03    -84.9130E+06    -112.828E+06    -10.1145E+06    -2.12418E+06    -232.809E-03     462.482E-03    -229.673E-03     168.265E-03    -238.032E-03     467.032E-03    -229.437E-03     144.147E-03
             966     7.15486E-03     139.502E-03    -76.1896E+06    -75.8752E+06     6.50897E+06    -918.926E+03    -232.582E-03     462.232E-03    -229.650E-03     182.023E-03    -238.950E-03     468.041E-03    -229.397E-03     155.329E-03
             967     7.87088E-03     139.759E-03    -68.0840E+06    -32.8635E+06     23.6034E+06     1.61953E+06    -231.847E-03     461.417E-03    -229.570E-03     193.192E-03    -239.335E-03     468.478E-03    -229.306E-03     164.342E-03
             968     8.58890E-03     140.026E-03    -59.3424E+06     15.2398E+06     40.6894E+06     3.22773E+06    -230.886E-03     460.315E-03    -229.430E-03     200.418E-03    -239.326E-03     468.481E-03    -229.162E-03     169.913E-03
             969     9.30543E-03     140.300E-03    -51.2673E+06     51.0899E+06     54.5930E+06     4.11144E+06    -229.686E-03     458.941E-03    -229.255E-03     202.886E-03    -238.766E-03     467.862E-03    -228.982E-03     171.364E-03
             970     10.0235E-03     140.572E-03    -43.8057E+06     67.2475E+06     67.5984E+06     4.23728E+06    -228.063E-03     457.130E-03    -229.067E-03     200.775E-03    -237.363E-03     466.317E-03    -228.763E-03     168.997E-03
             971     10.7414E-03     140.838E-03    -34.3177E+06     74.2718E+06     82.6925E+06     3.76085E+06    -225.885E-03     454.730E-03    -228.845E-03     193.797E-03    -234.947E-03     463.693E-03    -228.489E-03     162.521E-03
             972     11.4612E-03     141.085E-03    -25.5919E+06     77.3848E+06     93.6298E+06     2.86033E+06    -223.616E-03     452.163E-03    -228.547E-03     183.523E-03    -232.126E-03     460.586E-03    -228.154E-03     153.193E-03
             973     12.1841E-03     141.315E-03    -17.9544E+06     83.9777E+06     100.145E+06     3.08633E+06    -221.485E-03     449.661E-03    -228.176E-03     166.242E-03    -228.910E-03     457.031E-03    -227.771E-03     137.834E-03
             974     12.9059E-03     141.510E-03    -11.1441E+06     95.4638E+06     103.577E+06     1.77291E+06    -219.573E-03     447.330E-03    -227.757E-03     151.032E-03    -226.197E-03     453.954E-03    -227.362E-03     123.835E-03
             975     13.6278E-03     141.691E-03    -6.50145E+06     91.1818E+06     97.8624E+06    -813.801E+03    -218.219E-03     445.530E-03    -227.312E-03     107.322E-03    -222.604E-03     449.932E-03    -226.945E-03     85.5078E-03
             976     715.155E-06     139.672E-03    -138.782E+06    -324.307E+06    -137.709E+06     109.590E+03    -230.008E-03     459.923E-03    -229.915E-03     22.3808E-03    -230.111E-03     458.781E-03    -229.932E-03     19.6697E-03
             977     1.43014E-03     139.716E-03    -137.805E+06    -301.394E+06    -132.501E+06    -509.648E+03    -230.304E-03     460.227E-03    -229.922E-03     41.3201E-03    -230.611E-03     459.358E-03    -229.948E-03     36.2869E-03
             978     2.14529E-03     139.789E-03    -135.334E+06    -279.322E+06    -119.515E+06    -1.23896E+06    -230.643E-03     460.625E-03    -229.982E-03     61.2128E-03    -231.273E-03     460.129E-03    -229.978E-03     53.6959E-03
             979     2.86063E-03     139.888E-03    -129.579E+06    -267.163E+06    -101.237E+06    -3.86871E+06    -231.077E-03     461.137E-03    -230.060E-03     80.8497E-03    -232.135E-03     461.080E-03    -229.991E-03     70.6802E-03
             980     3.57559E-03     140.014E-03    -121.840E+06    -242.053E+06    -84.2180E+06    -5.35265E+06    -231.706E-03     461.820E-03    -230.114E-03     99.6623E-03    -233.321E-03     462.387E-03    -230.007E-03     86.7735E-03
             981     4.29041E-03     140.165E-03    -114.187E+06    -207.311E+06    -66.8062E+06    -4.12285E+06    -232.362E-03     462.535E-03    -230.173E-03     117.743E-03    -234.685E-03     463.911E-03    -230.041E-03     102.084E-03
             982     5.00519E-03     140.342E-03    -105.856E+06    -182.011E+06    -48.0303E+06    -4.13223E+06    -232.787E-03     463.036E-03    -230.248E-03     135.294E-03    -235.947E-03     465.312E-03    -230.071E-03     116.760E-03
             983     5.72064E-03     140.541E-03    -96.5033E+06    -152.035E+06    -30.5759E+06    -5.16133E+06    -233.019E-03     463.301E-03    -230.281E-03     151.894E-03    -237.144E-03     466.631E-03    -230.074E-03     130.478E-03
             984     6.43508E-03     140.761E-03    -87.3780E+06    -115.663E+06    -13.6568E+06    -4.34197E+06    -233.002E-03     463.269E-03    -230.267E-03     167.278E-03    -238.208E-03     467.794E-03    -230.041E-03     143.086E-03
             985     7.15105E-03     141.001E-03    -78.5783E+06    -79.1239E+06     3.59014E+06    -2.55807E+06    -232.573E-03     462.783E-03    -230.210E-03     180.789E-03    -238.915E-03     468.555E-03    -229.963E-03     154.061E-03
             986     7.86791E-03     141.255E-03    -68.7817E+06    -38.4552E+06     20.7385E+06    -914.738E+03    -231.958E-03     462.057E-03    -230.098E-03     191.470E-03    -239.394E-03     469.051E-03    -229.839E-03     162.555E-03
             987     8.58319E-03     141.522E-03    -58.6185E+06     9.74639E+06     38.1715E+06     1.18277E+06    -230.788E-03     460.718E-03    -229.930E-03     198.457E-03    -239.151E-03     468.797E-03    -229.669E-03     167.956E-03
             988     9.30108E-03     141.794E-03    -48.5350E+06     46.0501E+06     53.0808E+06     3.85077E+06    -229.082E-03     458.784E-03    -229.702E-03     201.696E-03    -238.069E-03     467.609E-03    -229.433E-03     170.337E-03
             989     10.0190E-03     142.065E-03    -39.2406E+06     67.5551E+06     66.4974E+06     5.35343E+06    -226.909E-03     456.321E-03    -229.412E-03     200.198E-03    -236.119E-03     465.438E-03    -229.120E-03     168.706E-03
             990     10.7396E-03     142.326E-03    -32.5777E+06     77.2331E+06     79.7716E+06     3.74118E+06    -224.395E-03     453.461E-03    -229.066E-03     193.411E-03    -233.387E-03     462.380E-03    -228.732E-03     162.449E-03
             991     11.4615E-03     142.572E-03    -25.9033E+06     78.2916E+06     91.9556E+06     2.39819E+06    -222.174E-03     450.845E-03    -228.671E-03     183.163E-03    -230.635E-03     459.225E-03    -228.287E-03     153.108E-03
             992     12.1816E-03     142.799E-03    -18.3822E+06     84.3130E+06     98.7308E+06     1.96470E+06    -219.836E-03     448.039E-03    -228.203E-03     165.600E-03    -227.220E-03     455.371E-03    -227.805E-03     137.431E-03
             993     12.9052E-03     142.991E-03    -10.9838E+06     96.0342E+06     102.514E+06     327.861E+03    -217.583E-03     445.265E-03    -227.682E-03     151.068E-03    -224.194E-03     451.880E-03    -227.292E-03     124.078E-03
             994     13.6302E-03     143.172E-03    -4.29091E+06     93.2075E+06     99.7690E+06    -87.0455E+03    -216.551E-03     443.701E-03    -227.150E-03     108.272E-03    -220.937E-03     448.113E-03    -226.780E-03     86.6547E-03
             995     714.297E-06     141.173E-03    -145.620E+06    -323.207E+06    -144.116E+06    -662.568E+03    -230.666E-03     461.396E-03    -230.730E-03     23.0023E-03    -230.797E-03     460.282E-03    -230.771E-03     20.2635E-03
             996     1.42910E-03     141.218E-03    -142.597E+06    -300.190E+06    -135.147E+06    -401.865E+03    -231.034E-03     461.702E-03    -230.667E-03     41.8556E-03    -231.364E-03     460.852E-03    -230.701E-03     36.8051E-03
             997     2.14367E-03     141.290E-03    -136.392E+06    -274.467E+06    -119.840E+06    -1.82615E+06    -231.443E-03     462.178E-03    -230.735E-03     60.9754E-03    -232.085E-03     461.708E-03    -230.738E-03     53.3950E-03
             998     2.85822E-03     141.389E-03    -128.809E+06    -258.235E+06    -100.369E+06    -4.54539E+06    -231.932E-03     462.769E-03    -230.837E-03     80.0258E-03    -232.993E-03     462.747E-03    -230.777E-03     69.7934E-03
             999     3.57273E-03     141.516E-03    -121.343E+06    -241.113E+06    -82.0032E+06    -5.62588E+06    -232.507E-03     463.438E-03    -230.930E-03     98.8276E-03    -234.121E-03     464.003E-03    -230.815E-03     85.8475E-03
            1000     4.28694E-03     141.667E-03    -113.048E+06    -209.136E+06    -65.4246E+06    -4.48248E+06    -232.936E-03     463.916E-03    -230.980E-03     117.018E-03    -235.249E-03     465.275E-03    -230.840E-03     101.265E-03
            1001     5.00143E-03     141.843E-03    -103.909E+06    -175.724E+06    -47.8890E+06    -5.50351E+06    -233.209E-03     464.212E-03    -231.003E-03     134.479E-03    -236.357E-03     466.506E-03    -230.837E-03     115.863E-03
            1002     5.71581E-03     142.042E-03    -94.9394E+06    -151.479E+06    -30.9624E+06    -7.05582E+06    -233.319E-03     464.320E-03    -231.001E-03     150.941E-03    -237.421E-03     467.638E-03    -230.799E-03     129.433E-03
            1003     6.43143E-03     142.262E-03    -85.8324E+06    -118.311E+06    -14.6178E+06    -5.97719E+06    -233.096E-03     464.039E-03    -230.943E-03     165.864E-03    -238.254E-03     468.515E-03    -230.720E-03     141.644E-03
            1004     7.14686E-03     142.499E-03    -75.7334E+06    -80.9200E+06     2.28342E+06    -5.21426E+06    -232.731E-03     463.569E-03    -230.838E-03     179.131E-03    -239.003E-03     469.278E-03    -230.599E-03     152.373E-03
            1005     7.86161E-03     142.754E-03    -65.6050E+06    -44.6683E+06     18.7094E+06    -4.06260E+06    -231.764E-03     462.444E-03    -230.680E-03     190.113E-03    -239.107E-03     469.342E-03    -230.427E-03     161.248E-03
            1006     8.57909E-03     143.018E-03    -56.2701E+06     2.96881E+06     36.1081E+06    -1.20539E+06    -230.066E-03     460.496E-03    -230.430E-03     197.862E-03    -238.339E-03     468.475E-03    -230.172E-03     167.535E-03
            1007     9.29687E-03     143.287E-03    -47.7838E+06     38.9008E+06     50.3238E+06     1.45810E+06    -227.936E-03     458.023E-03    -230.087E-03     201.357E-03    -236.838E-03     466.748E-03    -229.823E-03     170.244E-03
            1008     10.0171E-03     143.556E-03    -40.1262E+06     63.3700E+06     63.2884E+06     4.15351E+06    -225.411E-03     455.078E-03    -229.667E-03     199.556E-03    -234.529E-03     464.095E-03    -229.384E-03     168.407E-03
            1009     10.7376E-03     143.813E-03    -32.1676E+06     81.7635E+06     80.0117E+06     5.16163E+06    -222.907E-03     452.110E-03    -229.204E-03     192.851E-03    -231.820E-03     460.967E-03    -228.876E-03     162.275E-03
            1010     11.4588E-03     144.058E-03    -24.2978E+06     82.4661E+06     92.8162E+06     2.79489E+06    -220.366E-03     449.059E-03    -228.693E-03     183.265E-03    -228.750E-03     457.381E-03    -228.314E-03     153.652E-03
            1011     12.1840E-03     144.282E-03    -17.0618E+06     84.3371E+06     98.7295E+06     979.309E+03    -217.870E-03     445.975E-03    -228.106E-03     166.694E-03    -225.202E-03     453.260E-03    -227.710E-03     138.949E-03
            1012     12.9084E-03     144.471E-03    -10.9154E+06     98.0779E+06     104.158E+06     1.11614E+06    -215.581E-03     443.056E-03    -227.474E-03     152.731E-03    -222.180E-03     449.662E-03    -227.080E-03     126.128E-03
            1013     13.6338E-03     144.649E-03    -5.58239E+06     93.8888E+06     99.8077E+06     336.408E+03    -214.651E-03     441.488E-03    -226.837E-03     111.372E-03    -219.057E-03     445.918E-03    -226.466E-03     89.9865E-03
            1014     714.627E-06     142.676E-03    -141.442E+06    -317.527E+06    -140.359E+06    -3.22725E+06    -231.800E-03     463.001E-03    -231.200E-03     22.6593E-03    -231.922E-03     461.901E-03    -231.237E-03     19.8925E-03
            1015     1.42838E-03     142.721E-03    -137.456E+06    -298.325E+06    -133.764E+06    -3.33818E+06    -231.999E-03     463.494E-03    -231.495E-03     41.3499E-03    -232.305E-03     462.641E-03    -231.532E-03     36.2540E-03
            1016     2.14201E-03     142.794E-03    -133.267E+06    -268.991E+06    -121.755E+06    -4.09913E+06    -232.431E-03     464.025E-03    -231.594E-03     60.5906E-03    -233.061E-03     463.580E-03    -231.620E-03     52.9304E-03
            1017     2.85535E-03     142.893E-03    -127.949E+06    -252.124E+06    -102.058E+06    -4.81760E+06    -232.917E-03     464.646E-03    -231.729E-03     79.8389E-03    -233.981E-03     464.657E-03    -231.689E-03     69.5291E-03
            1018     3.56895E-03     143.019E-03    -120.621E+06    -238.510E+06    -81.7888E+06    -5.63563E+06    -233.256E-03     465.090E-03    -231.834E-03     98.5859E-03    -234.870E-03     465.666E-03    -231.723E-03     85.5351E-03
            1019     4.28303E-03     143.171E-03    -111.876E+06    -207.363E+06    -64.4921E+06    -6.71744E+06    -233.480E-03     465.330E-03    -231.850E-03     116.505E-03    -235.784E-03     466.688E-03    -231.710E-03     100.661E-03
            1020     4.99732E-03     143.346E-03    -102.561E+06    -170.250E+06    -48.3182E+06    -8.07344E+06    -233.668E-03     465.482E-03    -231.814E-03     133.761E-03    -236.804E-03     467.790E-03    -231.660E-03     115.060E-03
            1021     5.71174E-03     143.545E-03    -93.1589E+06    -149.456E+06    -31.6703E+06    -8.77277E+06    -233.632E-03     465.401E-03    -231.770E-03     149.897E-03    -237.696E-03     468.696E-03    -231.576E-03     128.369E-03
            1022     6.42604E-03     143.762E-03    -83.5580E+06    -119.099E+06    -15.1581E+06    -9.25362E+06    -233.283E-03     464.947E-03    -231.664E-03     164.847E-03    -238.387E-03     469.375E-03    -231.446E-03     140.611E-03
            1023     7.14103E-03     144.001E-03    -74.3873E+06    -83.1063E+06     765.780E+03    -9.00720E+06    -232.371E-03     463.851E-03    -231.480E-03     178.547E-03    -238.574E-03     469.493E-03    -231.248E-03     151.881E-03
            1024     7.85798E-03     144.252E-03    -65.5189E+06    -49.5986E+06     16.7974E+06    -7.23692E+06    -230.816E-03     462.022E-03    -231.206E-03     189.754E-03    -238.080E-03     468.828E-03    -230.955E-03     161.113E-03
            1025     8.57562E-03     144.513E-03    -57.2130E+06    -6.36418E+06     33.2124E+06    -3.48078E+06    -228.849E-03     459.666E-03    -230.818E-03     197.542E-03    -237.022E-03     467.517E-03    -230.559E-03     167.528E-03
            1026     9.29474E-03     144.781E-03    -49.3927E+06     33.7669E+06     47.9870E+06     266.558E+03    -226.404E-03     456.733E-03    -230.329E-03     201.003E-03    -235.187E-03     465.321E-03    -230.066E-03     170.348E-03
            1027     10.0149E-03     145.043E-03    -40.5736E+06     58.4791E+06     62.6311E+06     1.68746E+06    -223.689E-03     453.457E-03    -229.769E-03     200.102E-03    -232.693E-03     462.343E-03    -229.481E-03     169.459E-03
            1028     10.7373E-03     145.302E-03    -31.4782E+06     79.5077E+06     79.4987E+06     3.50853E+06    -220.864E-03     450.011E-03    -229.147E-03     194.667E-03    -229.676E-03     458.763E-03    -228.819E-03     164.700E-03
            1029     11.4622E-03     145.539E-03    -23.9585E+06     89.0971E+06     93.6296E+06     3.17365E+06    -218.059E-03     446.532E-03    -228.473E-03     185.695E-03    -226.382E-03     454.815E-03    -228.099E-03     156.722E-03
            1030     12.1867E-03     145.761E-03    -17.2549E+06     85.3000E+06     100.193E+06     1.03304E+06    -215.597E-03     443.348E-03    -227.751E-03     169.796E-03    -222.893E-03     450.594E-03    -227.348E-03     142.636E-03
            1031     12.9135E-03     145.948E-03    -9.94409E+06     99.0765E+06     108.146E+06     1.85027E+06    -214.284E-03     441.313E-03    -227.029E-03     156.061E-03    -220.875E-03     447.907E-03    -226.617E-03     129.839E-03
            1032     13.6418E-03     146.122E-03    -4.24800E+06     95.2193E+06     102.428E+06     1.75909E+06    -214.314E-03     440.664E-03    -226.350E-03     113.871E-03    -218.741E-03     445.117E-03    -225.970E-03     92.5472E-03
            1033     712.811E-06     144.182E-03    -142.578E+06    -304.425E+06    -140.013E+06    -4.02209E+06    -233.032E-03     465.585E-03    -232.553E-03     21.9019E-03    -233.178E-03     464.551E-03    -232.605E-03     19.0749E-03
            1034     1.42603E-03     144.228E-03    -140.809E+06    -291.133E+06    -136.177E+06    -6.94465E+06    -232.824E-03     465.530E-03    -232.706E-03     40.7420E-03    -233.153E-03     464.720E-03    -232.760E-03     35.5626E-03
            1035     2.13945E-03     144.301E-03    -137.091E+06    -266.385E+06    -125.732E+06    -6.54157E+06    -233.101E-03     465.753E-03    -232.652E-03     60.1725E-03    -233.744E-03     465.329E-03    -232.696E-03     52.4551E-03
            1036     2.85300E-03     144.400E-03    -130.987E+06    -248.218E+06    -107.627E+06    -5.91035E+06    -233.521E-03     466.194E-03    -232.672E-03     79.4275E-03    -234.593E-03     466.231E-03    -232.660E-03     69.0762E-03
            1037     3.56617E-03     144.527E-03    -123.038E+06    -230.926E+06    -87.7859E+06    -8.16312E+06    -233.860E-03     466.559E-03    -232.700E-03     98.1818E-03    -235.475E-03     467.173E-03    -232.625E-03     85.0986E-03
            1038     4.27943E-03     144.677E-03    -113.697E+06    -201.894E+06    -68.2608E+06    -11.1904E+06    -234.085E-03     466.767E-03    -232.682E-03     116.351E-03    -236.392E-03     468.151E-03    -232.566E-03     100.425E-03
            1039     4.99278E-03     144.852E-03    -104.162E+06    -168.020E+06    -50.5957E+06    -11.7213E+06    -234.012E-03     466.617E-03    -232.605E-03     133.491E-03    -237.131E-03     468.917E-03    -232.464E-03     114.773E-03
            1040     5.70687E-03     145.049E-03    -95.1128E+06    -145.760E+06    -34.2162E+06    -12.2402E+06    -233.659E-03     466.138E-03    -232.479E-03     149.847E-03    -237.696E-03     469.419E-03    -232.300E-03     128.396E-03
            1041     6.42175E-03     145.267E-03    -86.1104E+06    -117.221E+06    -17.5077E+06    -13.7445E+06    -232.877E-03     465.145E-03    -232.268E-03     165.424E-03    -237.954E-03     469.551E-03    -232.061E-03     141.305E-03
            1042     7.13762E-03     145.500E-03    -76.9142E+06    -85.1081E+06    -417.696E+03    -12.5644E+06    -231.420E-03     463.373E-03    -231.953E-03     179.089E-03    -237.574E-03     468.954E-03    -231.720E-03     152.670E-03
            1043     7.85492E-03     145.749E-03    -68.6735E+06    -54.0202E+06     14.9114E+06    -9.96032E+06    -229.573E-03     461.093E-03    -231.520E-03     190.465E-03    -236.758E-03     467.799E-03    -231.268E-03     162.200E-03
            1044     8.57316E-03     146.009E-03    -60.0339E+06    -17.1928E+06     29.8758E+06    -6.42986E+06    -227.166E-03     458.129E-03    -230.963E-03     198.622E-03    -235.217E-03     465.819E-03    -230.702E-03     169.154E-03
            1045     9.29409E-03     146.269E-03    -50.4076E+06     28.0316E+06     45.6961E+06    -2.64383E+06    -224.250E-03     454.530E-03    -230.280E-03     203.035E-03    -232.902E-03     462.970E-03    -230.019E-03     173.071E-03
            1046     10.0171E-03     146.533E-03    -42.4960E+06     55.1278E+06     58.4809E+06    -458.506E+03    -221.290E-03     450.800E-03    -229.510E-03     203.033E-03    -230.165E-03     459.550E-03    -229.236E-03     173.199E-03
            1047     10.7421E-03     146.781E-03    -35.9040E+06     74.7223E+06     73.4902E+06     982.221E+03    -218.174E-03     446.865E-03    -228.691E-03     198.037E-03    -226.870E-03     455.486E-03    -228.380E-03     168.924E-03
            1048     11.4680E-03     147.020E-03    -27.3839E+06     92.5452E+06     91.9940E+06     1.16214E+06    -215.465E-03     443.312E-03    -227.847E-03     189.889E-03    -223.715E-03     451.527E-03    -227.482E-03     161.732E-03
            1049     12.1967E-03     147.235E-03    -18.8977E+06     86.7582E+06     100.427E+06     876.577E+03    -214.383E-03     441.405E-03    -227.022E-03     174.566E-03    -221.660E-03     448.632E-03    -226.618E-03     147.935E-03
            1050     12.9256E-03     147.422E-03    -12.8965E+06     96.4632E+06     107.844E+06     427.074E+03    -214.949E-03     441.252E-03    -226.303E-03     160.480E-03    -221.595E-03     447.882E-03    -225.885E-03     134.295E-03
            1051     13.6495E-03     147.601E-03    -6.79965E+06     95.1427E+06     101.312E+06     673.102E+03    -215.555E-03     441.248E-03    -225.692E-03     116.204E-03    -220.049E-03     445.761E-03    -225.314E-03     94.6627E-03
            1052     711.877E-06     145.693E-03    -142.471E+06    -289.045E+06    -139.237E+06    -3.17645E+06    -233.940E-03     467.953E-03    -234.013E-03     22.2892E-03    -234.111E-03     466.996E-03    -234.084E-03     19.4716E-03
            1053     1.42439E-03     145.738E-03    -138.917E+06    -279.210E+06    -128.419E+06    -6.09123E+06    -233.786E-03     467.667E-03    -233.880E-03     41.0997E-03    -234.136E-03     466.904E-03    -233.916E-03     35.8709E-03
            1054     2.13704E-03     145.810E-03    -134.307E+06    -264.580E+06    -117.719E+06    -6.83611E+06    -233.890E-03     467.637E-03    -233.747E-03     60.4337E-03    -234.533E-03     467.206E-03    -233.757E-03     52.6916E-03
            1055     2.84950E-03     145.910E-03    -128.143E+06    -242.734E+06    -105.904E+06    -7.46332E+06    -234.025E-03     467.649E-03    -233.624E-03     79.3535E-03    -235.082E-03     467.696E-03    -233.616E-03     69.0180E-03
            1056     3.56268E-03     146.035E-03    -121.274E+06    -218.064E+06    -90.4697E+06    -11.0036E+06    -234.173E-03     467.680E-03    -233.507E-03     98.1694E-03    -235.779E-03     468.344E-03    -233.468E-03     85.1156E-03
            1057     4.27588E-03     146.186E-03    -113.625E+06    -193.917E+06    -71.4868E+06    -14.5617E+06    -234.160E-03     467.542E-03    -233.382E-03     116.643E-03    -236.445E-03     468.943E-03    -233.294E-03     100.802E-03
            1058     4.98961E-03     146.359E-03    -105.148E+06    -166.324E+06    -52.7338E+06    -15.1766E+06    -233.807E-03     467.002E-03    -233.195E-03     134.313E-03    -236.898E-03     469.282E-03    -233.065E-03     115.745E-03
            1059     5.70404E-03     146.554E-03    -96.2276E+06    -141.243E+06    -34.6738E+06    -15.1495E+06    -233.081E-03     466.009E-03    -232.928E-03     151.201E-03    -237.094E-03     469.280E-03    -232.757E-03     129.955E-03
            1060     6.41945E-03     146.769E-03    -88.1427E+06    -112.949E+06    -17.6641E+06    -15.2995E+06    -231.685E-03     464.232E-03    -232.547E-03     166.741E-03    -236.710E-03     468.595E-03    -232.344E-03     143.020E-03
            1061     7.13663E-03     147.000E-03    -80.7838E+06    -87.1804E+06    -2.29622E+06    -14.6820E+06    -229.841E-03     461.879E-03    -232.038E-03     181.037E-03    -235.920E-03     467.368E-03    -231.805E-03     155.148E-03
            1062     7.85469E-03     147.246E-03    -72.0228E+06    -57.2529E+06     12.7055E+06    -13.2673E+06    -227.526E-03     458.914E-03    -231.388E-03     193.552E-03    -234.614E-03     465.506E-03    -231.137E-03     165.974E-03
            1063     8.57626E-03     147.499E-03    -62.2530E+06    -23.9167E+06     27.1472E+06    -11.4106E+06    -224.690E-03     455.289E-03    -230.600E-03     202.597E-03    -232.613E-03     462.828E-03    -230.339E-03     173.961E-03
            1064     9.29905E-03     147.758E-03    -53.5443E+06     17.0290E+06     41.2531E+06    -6.44653E+06    -221.637E-03     451.323E-03    -229.686E-03     207.665E-03    -230.147E-03     459.584E-03    -229.427E-03     178.635E-03
            1065     10.0248E-03     148.013E-03    -46.1485E+06     49.9087E+06     53.7162E+06    -863.912E+03    -218.547E-03     447.243E-03    -228.695E-03     208.035E-03    -227.282E-03     455.835E-03    -228.432E-03     179.242E-03
            1066     10.7516E-03     148.262E-03    -38.2839E+06     75.0986E+06     67.6397E+06    -151.988E+03    -215.731E-03     443.414E-03    -227.683E-03     203.235E-03    -224.297E-03     451.914E-03    -227.398E-03     175.112E-03
            1067     11.4818E-03     148.491E-03    -31.0731E+06     92.7781E+06     85.6396E+06    -921.281E+03    -214.314E-03     441.052E-03    -226.738E-03     194.856E-03    -222.476E-03     449.185E-03    -226.399E-03     167.428E-03
            1068     12.2113E-03     148.710E-03    -24.1826E+06     87.1312E+06     97.3544E+06    -1.62903E+06    -215.106E-03     441.049E-03    -225.943E-03     179.241E-03    -222.369E-03     448.253E-03    -225.548E-03     152.921E-03
            1069     12.9354E-03     148.899E-03    -14.8622E+06     94.4514E+06     106.142E+06    -2.87766E+06    -216.588E-03     441.916E-03    -225.328E-03     165.381E-03    -223.283E-03     448.585E-03    -224.912E-03     139.162E-03
            1070     13.6618E-03     149.078E-03    -5.86435E+06     93.2315E+06     98.0163E+06    -1.91448E+06    -217.955E-03     442.800E-03    -224.845E-03     119.789E-03    -222.492E-03     447.363E-03    -224.482E-03     98.0247E-03
            1071     711.915E-06     147.208E-03    -143.197E+06    -277.211E+06    -140.146E+06    -2.44231E+06    -234.512E-03     469.063E-03    -234.551E-03     22.4925E-03    -234.702E-03     468.167E-03    -234.642E-03     19.7021E-03
            1072     1.42338E-03     147.250E-03    -139.323E+06    -269.756E+06    -129.502E+06    -4.49228E+06    -234.607E-03     469.089E-03    -234.483E-03     41.5617E-03    -234.970E-03     468.376E-03    -234.537E-03     36.3754E-03
            1073     2.13524E-03     147.323E-03    -133.763E+06    -257.469E+06    -115.146E+06    -6.61897E+06    -234.532E-03     468.940E-03    -234.408E-03     61.3371E-03    -235.182E-03     468.536E-03    -234.417E-03     53.6557E-03
            1074     2.84779E-03     147.421E-03    -127.121E+06    -233.689E+06    -102.219E+06    -9.54549E+06    -234.393E-03     468.630E-03    -234.238E-03     80.5828E-03    -235.458E-03     468.711E-03    -234.226E-03     70.3133E-03
            1075     3.56047E-03     147.546E-03    -120.355E+06    -207.094E+06    -87.4960E+06    -11.4654E+06    -234.120E-03     468.127E-03    -234.007E-03     99.6866E-03    -235.729E-03     468.827E-03    -233.969E-03     86.7777E-03
            1076     4.27384E-03     147.695E-03    -114.784E+06    -183.921E+06    -69.8603E+06    -13.3788E+06    -233.552E-03     467.269E-03    -233.717E-03     118.262E-03    -235.828E-03     468.688E-03    -233.634E-03     102.729E-03
            1077     4.98845E-03     147.866E-03    -108.810E+06    -159.933E+06    -51.8703E+06    -16.0706E+06    -232.733E-03     466.069E-03    -233.336E-03     136.436E-03    -235.810E-03     468.343E-03    -233.206E-03     118.243E-03
            1078     5.70376E-03     148.060E-03    -101.326E+06    -135.821E+06    -34.8285E+06    -17.4946E+06    -231.412E-03     464.252E-03    -232.840E-03     153.920E-03    -235.392E-03     467.491E-03    -232.671E-03     133.198E-03
            1079     6.42074E-03     148.270E-03    -92.7863E+06    -110.974E+06    -18.9609E+06    -17.0427E+06    -229.546E-03     461.750E-03    -232.204E-03     170.573E-03    -234.507E-03     466.043E-03    -232.004E-03     147.574E-03
            1080     7.13946E-03     148.498E-03    -83.2703E+06    -86.0552E+06    -3.50944E+06    -16.9255E+06    -227.263E-03     458.688E-03    -231.424E-03     185.986E-03    -233.249E-03     464.082E-03    -231.196E-03     160.976E-03
            1081     7.86181E-03     148.738E-03    -73.9149E+06    -56.6491E+06     11.2198E+06    -16.9508E+06    -224.604E-03     455.107E-03    -230.503E-03     198.945E-03    -231.559E-03     461.565E-03    -230.257E-03     172.400E-03
            1082     8.58495E-03     148.988E-03    -66.0435E+06    -28.8781E+06     24.1001E+06    -14.6984E+06    -221.711E-03     451.176E-03    -229.465E-03     208.348E-03    -229.475E-03     458.533E-03    -229.207E-03     180.850E-03
            1083     9.31180E-03     149.240E-03    -58.0040E+06     4.54565E+06     37.0522E+06    -9.90069E+06    -218.724E-03     447.062E-03    -228.339E-03     213.830E-03    -227.049E-03     455.090E-03    -228.076E-03     185.994E-03
            1084     10.0395E-03     149.493E-03    -47.9185E+06     42.3788E+06     52.0550E+06    -5.03554E+06    -216.100E-03     443.277E-03    -227.177E-03     214.638E-03    -224.652E-03     451.658E-03    -226.909E-03     186.995E-03
            1085     10.7706E-03     149.733E-03    -38.4303E+06     75.2395E+06     66.1139E+06    -2.45409E+06    -214.934E-03     441.009E-03    -226.074E-03     209.619E-03    -223.358E-03     449.372E-03    -225.797E-03     182.386E-03
            1086     11.4997E-03     149.966E-03    -29.6914E+06     93.8058E+06     79.8516E+06    -2.58054E+06    -215.721E-03     440.886E-03    -225.164E-03     201.041E-03    -223.793E-03     448.953E-03    -224.858E-03     174.086E-03
            1087     12.2258E-03     150.184E-03    -19.6367E+06     91.3830E+06     95.9597E+06    -5.15210E+06    -217.218E-03     441.747E-03    -224.529E-03     185.874E-03    -224.448E-03     448.954E-03    -224.153E-03     159.772E-03
            1088     12.9539E-03     150.377E-03    -10.5222E+06     93.9271E+06     107.459E+06    -6.04450E+06    -219.178E-03     443.282E-03    -224.104E-03     171.684E-03    -225.895E-03     449.984E-03    -223.688E-03     145.428E-03
            1089     13.6762E-03     150.558E-03    -3.64031E+06     86.5212E+06     94.4958E+06    -2.82812E+06    -223.054E-03     446.903E-03    -223.849E-03     124.541E-03    -227.630E-03     451.500E-03    -223.497E-03     102.376E-03
            1090     711.458E-06     148.722E-03    -144.322E+06    -270.391E+06    -143.286E+06    -1.33202E+06    -234.785E-03     468.976E-03    -234.190E-03     23.0168E-03    -234.985E-03     468.118E-03    -234.305E-03     20.2587E-03
            1091     1.42345E-03     148.766E-03    -143.207E+06    -261.693E+06    -135.062E+06    -3.23029E+06    -234.590E-03     469.005E-03    -234.414E-03     42.5132E-03    -234.969E-03     468.338E-03    -234.503E-03     37.5099E-03
            1092     2.13531E-03     148.836E-03    -138.415E+06    -244.933E+06    -119.650E+06    -6.97224E+06    -234.369E-03     468.684E-03    -234.315E-03     62.6016E-03    -235.045E-03     468.346E-03    -234.358E-03     55.1111E-03
            1093     2.84770E-03     148.934E-03    -131.673E+06    -222.163E+06    -100.894E+06    -10.8097E+06    -233.905E-03     467.997E-03    -234.093E-03     82.7750E-03    -235.000E-03     468.129E-03    -234.084E-03     72.7265E-03
            1094     3.56079E-03     149.057E-03    -123.540E+06    -200.936E+06    -82.4968E+06    -12.2744E+06    -233.199E-03     466.942E-03    -233.743E-03     102.477E-03    -234.816E-03     467.647E-03    -233.685E-03     89.9101E-03
            1095     4.27546E-03     149.202E-03    -113.866E+06    -175.889E+06    -64.0949E+06    -12.3309E+06    -232.126E-03     465.382E-03    -233.256E-03     121.870E-03    -234.386E-03     466.799E-03    -233.156E-03     106.830E-03
            1096     4.99084E-03     149.372E-03    -104.667E+06    -150.057E+06    -45.2868E+06    -13.5223E+06    -230.543E-03     463.164E-03    -232.621E-03     140.958E-03    -233.567E-03     465.415E-03    -232.478E-03     123.482E-03
            1097     5.70872E-03     149.560E-03    -97.0842E+06    -130.208E+06    -29.0077E+06    -14.2963E+06    -228.457E-03     460.277E-03    -231.821E-03     159.413E-03    -232.347E-03     463.445E-03    -231.636E-03     139.652E-03
            1098     6.42900E-03     149.768E-03    -90.3336E+06    -105.203E+06    -14.6754E+06    -15.1462E+06    -226.219E-03     457.073E-03    -230.854E-03     177.100E-03    -231.070E-03     461.272E-03    -230.644E-03     155.227E-03
            1099     7.15185E-03     149.990E-03    -83.9737E+06    -79.4869E+06    -1.60612E+06    -17.1219E+06    -223.867E-03     453.633E-03    -229.767E-03     193.143E-03    -229.715E-03     458.905E-03    -229.538E-03     169.405E-03
            1100     7.87552E-03     150.226E-03    -77.9591E+06    -55.4089E+06     10.3547E+06    -17.2775E+06    -221.224E-03     449.809E-03    -228.584E-03     206.692E-03    -228.024E-03     456.104E-03    -228.339E-03     181.510E-03
            1101     8.60344E-03     150.469E-03    -70.2138E+06    -29.1025E+06     23.5010E+06    -16.8554E+06    -218.553E-03     445.888E-03    -227.335E-03     216.865E-03    -226.150E-03     453.063E-03    -227.073E-03     190.746E-03
            1102     9.33183E-03     150.718E-03    -59.5657E+06    -2.02427E+06     36.3095E+06    -16.6377E+06    -216.449E-03     442.515E-03    -226.066E-03     222.488E-03    -224.576E-03     450.317E-03    -225.795E-03     195.911E-03
            1103     10.0642E-03     150.963E-03    -47.8482E+06     32.7870E+06     50.0448E+06    -13.0883E+06    -215.558E-03     440.428E-03    -224.870E-03     222.471E-03    -223.904E-03     448.575E-03    -224.598E-03     195.819E-03
            1104     10.7940E-03     151.207E-03    -35.7798E+06     69.6947E+06     66.7203E+06    -8.29799E+06    -216.311E-03     440.182E-03    -223.871E-03     217.433E-03    -224.567E-03     448.366E-03    -223.587E-03     190.903E-03
            1105     11.5223E-03     151.439E-03    -24.6773E+06     97.0594E+06     83.1032E+06    -7.27671E+06    -218.355E-03     441.504E-03    -223.149E-03     209.487E-03    -226.337E-03     449.502E-03    -222.839E-03     182.960E-03
            1106     12.2500E-03     151.662E-03    -16.3115E+06     95.7382E+06     97.2293E+06    -8.23638E+06    -221.263E-03     444.023E-03    -222.760E-03     193.266E-03    -228.472E-03     451.232E-03    -222.389E-03     167.250E-03
            1107     12.9716E-03     151.855E-03    -10.1321E+06     87.5373E+06     105.481E+06    -6.35351E+06    -225.361E-03     448.038E-03    -222.677E-03     177.249E-03    -232.112E-03     454.759E-03    -222.262E-03     150.559E-03
            1108     13.6916E-03     152.048E-03    -4.65941E+06     78.8842E+06     89.3263E+06    -2.42936E+06    -230.835E-03     453.662E-03    -222.826E-03     128.990E-03    -235.473E-03     458.305E-03    -222.487E-03     106.137E-03
            1109     712.467E-06     150.235E-03    -142.267E+06    -266.889E+06    -139.727E+06    -1.22523E+06    -234.128E-03     467.223E-03    -233.095E-03     23.5945E-03    -234.325E-03     466.373E-03    -233.200E-03     20.9742E-03
            1110     1.42448E-03     150.280E-03    -136.889E+06    -250.968E+06    -127.822E+06    -3.29966E+06    -233.409E-03     466.875E-03    -233.466E-03     43.8701E-03    -233.775E-03     466.235E-03    -233.542E-03     39.0800E-03
            1111     2.13730E-03     150.348E-03    -129.923E+06    -231.428E+06    -111.036E+06    -6.93023E+06    -232.872E-03     466.083E-03    -233.211E-03     64.8321E-03    -233.525E-03     465.775E-03    -233.242E-03     57.6534E-03
            1112     2.85093E-03     150.444E-03    -122.076E+06    -212.539E+06    -91.0664E+06    -9.09076E+06    -232.023E-03     464.833E-03    -232.810E-03     86.0460E-03    -233.073E-03     464.959E-03    -232.780E-03     76.4827E-03
            1113     3.56612E-03     150.564E-03    -114.743E+06    -195.479E+06    -71.9889E+06    -9.75352E+06    -230.763E-03     463.003E-03    -232.240E-03     106.877E-03    -232.322E-03     463.669E-03    -232.150E-03     94.9785E-03
            1114     4.28207E-03     150.708E-03    -107.787E+06    -168.937E+06    -56.3094E+06    -10.9342E+06    -229.034E-03     460.493E-03    -231.459E-03     127.741E-03    -231.230E-03     461.869E-03    -231.339E-03     113.537E-03
            1115     5.00114E-03     150.871E-03    -100.343E+06    -142.897E+06    -40.9473E+06    -12.0897E+06    -226.804E-03     457.293E-03    -230.488E-03     148.009E-03    -229.740E-03     459.482E-03    -230.340E-03     131.615E-03
            1116     5.72241E-03     151.056E-03    -91.7874E+06    -126.819E+06    -24.5901E+06    -11.7607E+06    -224.476E-03     453.845E-03    -229.369E-03     167.528E-03    -228.239E-03     456.903E-03    -229.175E-03     149.044E-03
            1117     6.44612E-03     151.256E-03    -82.6496E+06    -98.0309E+06    -7.19873E+06    -11.1180E+06    -222.112E-03     450.227E-03    -228.115E-03     186.060E-03    -226.796E-03     454.289E-03    -227.889E-03     165.662E-03
            1118     7.17182E-03     151.475E-03    -74.3659E+06    -71.0559E+06     8.11189E+06    -11.7856E+06    -219.723E-03     446.494E-03    -226.771E-03     202.984E-03    -225.362E-03     451.591E-03    -226.519E-03     180.904E-03
            1119     7.90146E-03     151.704E-03    -65.4048E+06    -50.2371E+06     20.6897E+06    -13.2833E+06    -217.680E-03     443.064E-03    -225.384E-03     217.343E-03    -224.234E-03     449.146E-03    -225.113E-03     193.827E-03
            1120     8.63154E-03     151.944E-03    -55.5354E+06    -20.4101E+06     34.6177E+06    -15.3301E+06    -216.251E-03     440.275E-03    -224.024E-03     227.396E-03    -223.584E-03     447.237E-03    -223.741E-03     202.807E-03
            1121     9.36516E-03     152.187E-03    -47.4315E+06    -66.0257E+03     46.1373E+06    -16.7483E+06    -216.139E-03     438.936E-03    -222.797E-03     232.491E-03    -224.011E-03     446.506E-03    -222.498E-03     207.163E-03
            1122     10.0947E-03     152.435E-03    -39.9713E+06     27.5734E+06     57.2938E+06    -15.9687E+06    -217.422E-03     439.209E-03    -221.787E-03     232.348E-03    -225.568E-03     447.145E-03    -221.482E-03     206.545E-03
            1123     10.8247E-03     152.677E-03    -32.0935E+06     65.6431E+06     71.4032E+06    -14.1669E+06    -219.471E-03     440.530E-03    -221.060E-03     227.175E-03    -227.591E-03     448.563E-03    -220.751E-03     201.195E-03
            1124     11.5527E-03     152.916E-03    -24.4294E+06     93.6200E+06     86.4045E+06    -10.0227E+06    -222.959E-03     443.629E-03    -220.670E-03     218.604E-03    -230.868E-03     451.534E-03    -220.338E-03     192.375E-03
            1125     12.2749E-03     153.142E-03    -17.7613E+06     98.2780E+06     100.241E+06    -7.94453E+06    -228.385E-03     449.078E-03    -220.694E-03     201.423E-03    -235.625E-03     456.315E-03    -220.309E-03     175.181E-03
            1126     12.9932E-03     153.347E-03    -10.8438E+06     80.8711E+06     103.448E+06    -7.97343E+06    -234.896E-03     456.016E-03    -221.120E-03     185.174E-03    -241.758E-03     462.828E-03    -220.704E-03     157.612E-03
            1127     13.7022E-03     153.547E-03    -3.96032E+06     68.4712E+06     84.6099E+06    -3.27041E+06    -240.810E-03     462.621E-03    -221.812E-03     135.847E-03    -245.549E-03     467.346E-03    -221.482E-03     112.050E-03
            1128     713.330E-06     151.746E-03    -127.896E+06    -261.061E+06    -126.377E+06    -1.65561E+06    -231.525E-03     462.598E-03    -231.072E-03     24.9270E-03    -231.674E-03     461.732E-03    -231.140E-03     22.4932E-03
            1129     1.42755E-03     151.787E-03    -125.169E+06    -241.438E+06    -118.390E+06    -3.63812E+06    -230.531E-03     461.522E-03    -230.992E-03     46.2205E-03    -230.859E-03     460.891E-03    -231.052E-03     41.7428E-03
            1130     2.14273E-03     151.855E-03    -121.554E+06    -219.393E+06    -105.898E+06    -6.54921E+06    -229.493E-03     459.948E-03    -230.455E-03     68.5583E-03    -230.110E-03     459.661E-03    -230.491E-03     61.8833E-03
            1131     2.85905E-03     151.948E-03    -116.586E+06    -206.439E+06    -87.8936E+06    -8.18836E+06    -228.136E-03     457.911E-03    -229.774E-03     91.0643E-03    -229.135E-03     458.016E-03    -229.745E-03     82.2528E-03
            1132     3.57676E-03     152.064E-03    -108.166E+06    -190.977E+06    -68.0094E+06    -8.00299E+06    -226.269E-03     455.167E-03    -228.898E-03     113.378E-03    -227.750E-03     455.780E-03    -228.804E-03     102.453E-03
            1133     4.29784E-03     152.202E-03    -98.9045E+06    -162.314E+06    -48.2747E+06    -7.89456E+06    -223.917E-03     451.706E-03    -227.790E-03     135.530E-03    -225.998E-03     452.998E-03    -227.652E-03     122.579E-03
            1134     5.02067E-03     152.361E-03    -90.3729E+06    -135.723E+06    -30.5509E+06    -8.79371E+06    -221.546E-03     448.043E-03    -226.498E-03     157.250E-03    -224.333E-03     450.114E-03    -226.323E-03     142.326E-03
            1135     5.74643E-03     152.539E-03    -81.3546E+06    -121.761E+06    -15.2975E+06    -11.1338E+06    -219.385E-03     444.483E-03    -225.098E-03     178.365E-03    -222.959E-03     447.378E-03    -224.880E-03     161.491E-03
            1136     6.47454E-03     152.736E-03    -71.0092E+06    -95.4206E+06     292.128E+03    -11.8101E+06    -217.271E-03     440.888E-03    -223.617E-03     198.162E-03    -221.725E-03     444.748E-03    -223.374E-03     179.485E-03
            1137     7.20615E-03     152.947E-03    -59.3742E+06    -65.8145E+06     17.3111E+06    -10.7287E+06    -215.640E-03     437.764E-03    -222.124E-03     215.762E-03    -221.016E-03     442.643E-03    -221.856E-03     195.449E-03
            1138     7.93854E-03     153.174E-03    -49.8164E+06    -43.6742E+06     32.7420E+06    -10.6196E+06    -215.027E-03     435.739E-03    -220.712E-03     229.918E-03    -221.287E-03     441.571E-03    -220.413E-03     208.136E-03
            1139     8.67289E-03     153.411E-03    -44.0787E+06    -13.6654E+06     46.4888E+06    -10.1446E+06    -215.779E-03     435.250E-03    -219.471E-03     239.705E-03    -222.844E-03     441.974E-03    -219.155E-03     216.640E-03
            1140     9.40362E-03     153.656E-03    -40.0997E+06     6.32844E+06     56.8188E+06    -10.1966E+06    -217.961E-03     436.471E-03    -218.510E-03     244.906E-03    -225.633E-03     443.858E-03    -218.177E-03     220.754E-03
            1141     10.1358E-03     153.905E-03    -36.5568E+06     33.2161E+06     67.4681E+06    -12.0637E+06    -221.023E-03     438.900E-03    -217.877E-03     244.468E-03    -229.018E-03     446.689E-03    -217.535E-03     219.531E-03
            1142     10.8630E-03     154.153E-03    -32.7087E+06     66.5939E+06     79.0344E+06    -12.2551E+06    -225.282E-03     442.892E-03    -217.610E-03     238.507E-03    -233.321E-03     450.824E-03    -217.264E-03     212.962E-03
            1143     11.5861E-03     154.393E-03    -26.8262E+06     89.6379E+06     91.5948E+06    -11.4651E+06    -231.209E-03     448.980E-03    -217.771E-03     229.095E-03    -239.102E-03     456.833E-03    -217.404E-03     202.782E-03
            1144     12.3049E-03     154.635E-03    -17.4616E+06     98.5256E+06     104.023E+06    -11.2295E+06    -238.225E-03     456.616E-03    -218.391E-03     211.396E-03    -245.528E-03     463.907E-03    -217.989E-03     184.578E-03
            1145     13.0142E-03     154.849E-03    -9.41848E+06     73.5274E+06     100.225E+06    -8.72247E+06    -245.934E-03     465.355E-03    -219.422E-03     194.593E-03    -252.915E-03     472.276E-03    -219.014E-03     166.041E-03
            1146     13.7199E-03     155.065E-03    -4.98346E+06     56.6094E+06     80.9240E+06    -3.71183E+06    -253.025E-03     473.786E-03    -220.760E-03     143.065E-03    -257.836E-03     478.548E-03    -220.431E-03     118.404E-03
            1147     716.801E-06     153.244E-03    -120.296E+06    -250.808E+06    -120.948E+06    -3.92163E+06    -226.290E-03     452.896E-03    -226.606E-03     27.1734E-03    -226.422E-03     452.058E-03    -226.673E-03     24.9577E-03
            1148     1.43444E-03     153.286E-03    -116.989E+06    -234.543E+06    -112.071E+06    -4.74394E+06    -225.321E-03     451.357E-03    -226.036E-03     49.8592E-03    -225.617E-03     450.725E-03    -226.086E-03     45.8257E-03
            1149     2.15316E-03     153.349E-03    -113.047E+06    -212.513E+06    -98.1247E+06    -4.38068E+06    -223.765E-03     449.050E-03    -225.286E-03     73.8982E-03    -224.332E-03     448.742E-03    -225.304E-03     67.9934E-03
            1150     2.87407E-03     153.439E-03    -107.117E+06    -197.685E+06    -78.9090E+06    -6.29718E+06    -221.812E-03     446.133E-03    -224.321E-03     98.1804E-03    -222.736E-03     446.199E-03    -224.274E-03     90.4088E-03
            1151     3.59754E-03     153.550E-03    -99.2633E+06    -185.244E+06    -60.7275E+06    -9.27628E+06    -219.549E-03     442.682E-03    -223.134E-03     122.210E-03    -220.918E-03     443.213E-03    -223.025E-03     112.554E-03
            1152     4.32280E-03     153.682E-03    -88.9390E+06    -158.575E+06    -42.3291E+06    -9.91555E+06    -217.107E-03     438.847E-03    -221.740E-03     145.876E-03    -219.028E-03     440.007E-03    -221.592E-03     134.438E-03
            1153     5.05209E-03     153.835E-03    -77.1010E+06    -130.738E+06    -22.7228E+06    -9.27299E+06    -214.920E-03     435.141E-03    -220.221E-03     169.335E-03    -217.496E-03     437.040E-03    -220.033E-03     156.143E-03
            1154     5.78340E-03     154.009E-03    -67.6940E+06    -115.776E+06    -5.83453E+06    -8.66286E+06    -213.229E-03     431.892E-03    -218.663E-03     191.704E-03    -216.552E-03     434.576E-03    -218.426E-03     176.759E-03
            1155     6.51760E-03     154.200E-03    -62.3391E+06    -89.5507E+06     8.02045E+06    -8.96404E+06    -212.257E-03     429.371E-03    -217.114E-03     212.351E-03    -216.448E-03     432.996E-03    -216.853E-03     195.657E-03
            1156     7.25254E-03     154.409E-03    -59.0768E+06    -62.1209E+06     20.3845E+06    -9.83350E+06    -212.503E-03     428.193E-03    -215.689E-03     230.490E-03    -217.630E-03     432.827E-03    -215.412E-03     212.037E-03
            1157     7.98861E-03     154.634E-03    -54.8523E+06    -41.0216E+06     33.9306E+06    -9.61097E+06    -214.155E-03     428.667E-03    -214.512E-03     244.892E-03    -220.196E-03     434.268E-03    -214.204E-03     224.754E-03
            1158     8.72268E-03     154.872E-03    -48.4313E+06    -13.0595E+06     48.7393E+06    -7.68970E+06    -217.330E-03     430.984E-03    -213.654E-03     254.900E-03    -224.209E-03     437.503E-03    -213.321E-03     233.175E-03
            1159     9.45678E-03     155.122E-03    -41.4578E+06     9.92925E+06     61.1870E+06    -5.66930E+06    -221.772E-03     434.955E-03    -213.183E-03     259.497E-03    -229.277E-03     442.172E-03    -212.831E-03     236.405E-03
            1160     10.1838E-03     155.375E-03    -35.7975E+06     42.4683E+06     75.2159E+06    -4.87907E+06    -227.281E-03     440.421E-03    -213.140E-03     258.008E-03    -235.149E-03     448.097E-03    -212.773E-03     233.794E-03
            1161     10.9087E-03     155.631E-03    -29.6563E+06     73.7158E+06     88.1514E+06    -7.35236E+06    -234.477E-03     448.041E-03    -213.564E-03     251.219E-03    -242.449E-03     455.918E-03    -213.187E-03     225.848E-03
            1162     11.6258E-03     155.886E-03    -22.3539E+06     93.0875E+06     99.3277E+06    -9.89783E+06    -242.679E-03     457.168E-03    -214.488E-03     240.436E-03    -250.560E-03     465.016E-03    -214.094E-03     213.759E-03
            1163     12.3347E-03     156.136E-03    -17.3142E+06     100.809E+06     107.430E+06    -10.3113E+06    -250.979E-03     466.865E-03    -215.886E-03     221.848E-03    -258.382E-03     474.258E-03    -215.470E-03     194.153E-03
            1164     13.0390E-03     156.368E-03    -12.3418E+06     66.6212E+06     95.8187E+06    -10.3651E+06    -259.875E-03     477.556E-03    -217.681E-03     202.713E-03    -266.983E-03     484.584E-03    -217.281E-03     172.797E-03
            1165     13.7322E-03     156.597E-03    -4.76838E+06     43.1170E+06     82.6513E+06    -6.22434E+06    -266.928E-03     486.739E-03    -219.811E-03     147.208E-03    -271.774E-03     491.484E-03    -219.453E-03     121.383E-03
            1166     722.695E-06     154.728E-03    -111.801E+06    -234.224E+06    -108.185E+06    -5.83699E+06    -218.054E-03     436.601E-03    -218.546E-03     29.7497E-03    -218.184E-03     435.807E-03    -218.586E-03     27.8281E-03
            1167     1.44579E-03     154.763E-03    -106.953E+06    -229.590E+06    -99.7825E+06    -6.96564E+06    -217.064E-03     434.924E-03    -217.860E-03     54.3511E-03    -217.316E-03     434.261E-03    -217.871E-03     50.9151E-03
            1168     2.17117E-03     154.825E-03    -101.085E+06    -209.422E+06    -87.9026E+06    -5.76519E+06    -215.249E-03     432.236E-03    -216.986E-03     80.4483E-03    -215.734E-03     431.864E-03    -216.975E-03     75.4778E-03
            1169     2.89839E-03     154.908E-03    -93.4785E+06    -188.100E+06    -70.7659E+06    -6.60855E+06    -212.912E-03     428.740E-03    -215.828E-03     106.586E-03    -213.718E-03     428.743E-03    -215.774E-03     100.055E-03
            1170     3.62834E-03     155.014E-03    -86.2762E+06    -177.963E+06    -52.2404E+06    -8.06648E+06    -210.542E-03     424.997E-03    -214.455E-03     132.704E-03    -211.746E-03     425.407E-03    -214.334E-03     124.636E-03
            1171     4.36174E-03     155.140E-03    -81.5771E+06    -153.250E+06    -38.5560E+06    -8.74325E+06    -208.601E-03     421.513E-03    -212.913E-03     158.521E-03    -210.332E-03     422.514E-03    -212.765E-03     148.894E-03
            1172     5.09676E-03     155.289E-03    -78.7118E+06    -128.316E+06    -26.2018E+06    -8.71735E+06    -207.271E-03     418.610E-03    -211.339E-03     183.767E-03    -209.642E-03     420.314E-03    -211.169E-03     172.550E-03
            1173     5.83482E-03     155.458E-03    -74.7213E+06    -113.794E+06    -10.3835E+06    -7.21654E+06    -206.929E-03     416.789E-03    -209.860E-03     207.274E-03    -210.030E-03     419.245E-03    -209.639E-03     194.401E-03
            1174     6.57373E-03     155.647E-03    -68.5264E+06    -85.5922E+06     8.33628E+06    -5.01544E+06    -208.029E-03     416.576E-03    -208.546E-03     228.827E-03    -211.982E-03     419.953E-03    -208.281E-03     214.178E-03
            1175     7.31323E-03     155.857E-03    -61.7849E+06    -57.5381E+06     24.9660E+06    -3.97760E+06    -210.817E-03     418.323E-03    -207.506E-03     247.629E-03    -215.695E-03     422.703E-03    -207.208E-03     231.078E-03
            1176     8.05075E-03     156.084E-03    -55.2838E+06    -34.3015E+06     38.6930E+06    -5.01508E+06    -215.369E-03     422.211E-03    -206.842E-03     262.392E-03    -221.188E-03     427.600E-03    -206.519E-03     243.824E-03
            1177     8.78610E-03     156.329E-03    -49.2413E+06    -13.6684E+06     50.3166E+06    -5.25773E+06    -221.375E-03     428.003E-03    -206.627E-03     272.125E-03    -228.060E-03     434.321E-03    -206.285E-03     251.572E-03
            1178     9.51492E-03     156.585E-03    -43.2569E+06     8.09259E+06     62.0014E+06    -2.51125E+06    -228.618E-03     435.527E-03    -206.909E-03     275.393E-03    -235.970E-03     442.578E-03    -206.548E-03     253.072E-03
            1179     10.2418E-03     156.850E-03    -35.6528E+06     51.7486E+06     78.3358E+06    -2.75425E+06    -237.309E-03     445.024E-03    -207.714E-03     272.173E-03    -245.090E-03     452.641E-03    -207.346E-03     248.185E-03
            1180     10.9582E-03     157.119E-03    -27.0517E+06     84.4379E+06     92.0654E+06    -6.75118E+06    -246.930E-03     455.999E-03    -209.069E-03     263.646E-03    -254.865E-03     463.877E-03    -208.692E-03     237.985E-03
            1181     11.6673E-03     157.389E-03    -19.3078E+06     94.2702E+06     97.6472E+06    -8.08120E+06    -256.979E-03     467.915E-03    -210.935E-03     250.820E-03    -264.854E-03     475.779E-03    -210.556E-03     223.390E-03
            1182     12.3697E-03     157.655E-03    -12.3190E+06     101.810E+06     107.171E+06    -6.61878E+06    -267.136E-03     480.440E-03    -213.304E-03     230.195E-03    -274.599E-03     487.917E-03    -212.898E-03     201.194E-03
            1183     13.0592E-03     157.906E-03    -7.40848E+06     70.4734E+06     99.7493E+06    -7.13566E+06    -276.209E-03     492.261E-03    -216.052E-03     209.386E-03    -283.434E-03     499.425E-03    -215.644E-03     177.817E-03
            1184     13.7425E-03     158.152E-03    -4.85898E+06     32.8706E+06     86.5713E+06    -6.26969E+06    -281.222E-03     500.243E-03    -219.021E-03     151.814E-03    -286.159E-03     505.032E-03    -218.629E-03     124.593E-03
            1185     730.899E-06     156.178E-03    -96.6318E+06    -221.220E+06    -95.2772E+06    -1.74405E+06    -206.665E-03     413.197E-03    -206.532E-03     32.1635E-03    -206.749E-03     412.414E-03    -206.548E-03     30.7253E-03
            1186     1.46348E-03     156.214E-03    -98.2146E+06    -221.231E+06    -89.9827E+06    -4.48041E+06    -205.174E-03     411.267E-03    -206.093E-03     59.1229E-03    -205.382E-03     410.586E-03    -206.080E-03     56.4909E-03
            1187     2.19662E-03     156.270E-03    -96.3958E+06    -204.103E+06    -85.4839E+06    -6.43323E+06    -203.359E-03     408.469E-03    -205.111E-03     87.9939E-03    -203.772E-03     408.048E-03    -205.102E-03     84.1196E-03
            1188     2.93276E-03     156.349E-03    -94.6934E+06    -182.725E+06    -76.8701E+06    -6.22860E+06    -201.304E-03     405.184E-03    -203.880E-03     116.725E-03    -202.011E-03     405.114E-03    -203.862E-03     111.640E-03
            1189     3.67183E-03     156.449E-03    -92.5404E+06    -173.008E+06    -61.3017E+06    -6.09734E+06    -199.596E-03     402.131E-03    -202.535E-03     145.233E-03    -200.671E-03     402.428E-03    -202.457E-03     138.914E-03
            1190     4.41296E-03     156.572E-03    -88.1432E+06    -151.054E+06    -42.1193E+06    -3.94482E+06    -198.835E-03     399.990E-03    -201.155E-03     173.166E-03    -200.390E-03     400.806E-03    -201.019E-03     165.530E-03
            1191     5.15657E-03     156.717E-03    -82.6823E+06    -123.915E+06    -22.8929E+06    -2.05614E+06    -199.353E-03     399.222E-03    -199.869E-03     199.810E-03    -201.499E-03     400.692E-03    -199.684E-03     190.716E-03
            1192     5.90047E-03     156.885E-03    -76.4708E+06    -111.147E+06    -7.25687E+06    -3.26272E+06    -201.453E-03     400.257E-03    -198.804E-03     224.776E-03    -204.290E-03     402.443E-03    -198.569E-03     213.973E-03
            1193     6.64427E-03     157.077E-03    -69.3146E+06    -86.6976E+06     8.71769E+06    -1.97327E+06    -205.417E-03     403.465E-03    -198.048E-03     247.224E-03    -209.079E-03     406.544E-03    -197.778E-03     234.521E-03
            1194     7.38611E-03     157.291E-03    -62.8548E+06    -53.4354E+06     25.7775E+06     533.678E+03    -211.354E-03     409.065E-03    -197.711E-03     266.208E-03    -215.959E-03     413.183E-03    -197.414E-03     251.394E-03
            1195     8.12467E-03     157.527E-03    -57.8886E+06    -25.5658E+06     40.7711E+06     187.501E+03    -219.074E-03     416.955E-03    -197.881E-03     280.687E-03    -224.676E-03     422.145E-03    -197.556E-03     263.511E-03
            1196     8.85730E-03     157.782E-03    -52.7978E+06    -12.5059E+06     49.1338E+06    -1.22621E+06    -228.461E-03     427.062E-03    -198.601E-03     289.420E-03    -234.973E-03     433.206E-03    -198.261E-03     269.788E-03
            1197     9.58558E-03     158.053E-03    -45.6032E+06     9.27586E+06     58.4131E+06    -2.49222E+06    -239.373E-03     439.291E-03    -199.919E-03     291.182E-03    -246.615E-03     446.243E-03    -199.574E-03     269.144E-03
            1198     10.3014E-03     158.333E-03    -36.7067E+06     64.4182E+06     75.9921E+06    -5.04588E+06    -251.083E-03     452.929E-03    -201.845E-03     286.180E-03    -258.842E-03     460.574E-03    -201.505E-03     261.859E-03
            1199     11.0106E-03     158.621E-03    -28.6590E+06     91.0361E+06     87.0653E+06    -7.72066E+06    -262.898E-03     467.259E-03    -204.361E-03     274.765E-03    -270.845E-03     475.185E-03    -204.016E-03     248.251E-03
            1200     11.7106E-03     158.907E-03    -21.6432E+06     94.8618E+06     91.3415E+06    -8.96052E+06    -274.712E-03     482.101E-03    -207.389E-03     259.161E-03    -282.622E-03     490.017E-03    -207.039E-03     230.398E-03
            1201     12.3976E-03     159.198E-03    -14.6276E+06     96.6544E+06     100.142E+06    -9.01775E+06    -285.112E-03     495.977E-03    -210.865E-03     236.713E-03    -292.629E-03     503.502E-03    -210.483E-03     206.083E-03
            1202     13.0782E-03     159.466E-03    -7.30870E+06     66.0681E+06     94.5746E+06    -6.67996E+06    -291.941E-03     506.510E-03    -214.569E-03     214.213E-03    -299.241E-03     513.749E-03    -214.181E-03     180.981E-03
            1203     13.7528E-03     159.727E-03    -855.845E+03     29.3031E+06     86.8429E+06    -2.99899E+06    -294.472E-03     512.790E-03    -218.318E-03     155.430E-03    -299.466E-03     517.636E-03    -217.925E-03     126.923E-03
            1204     742.579E-06     157.593E-03    -111.061E+06    -217.236E+06    -111.497E+06    -367.427E+03    -190.871E-03     381.579E-03    -190.708E-03     35.3382E-03    -191.002E-03     380.841E-03    -190.789E-03     34.3754E-03
            1205     1.48543E-03     157.624E-03    -109.215E+06    -211.731E+06    -102.613E+06    -1.95726E+06    -189.588E-03     379.897E-03    -190.308E-03     65.3651E-03    -189.814E-03     379.255E-03    -190.356E-03     63.5777E-03
            1206     2.23165E-03     157.678E-03    -106.751E+06    -199.175E+06    -91.6613E+06    -3.20687E+06    -188.267E-03     377.730E-03    -189.463E-03     96.9722E-03    -188.658E-03     377.277E-03    -189.478E-03     94.3025E-03
            1207     2.97911E-03     157.752E-03    -103.852E+06    -182.185E+06    -78.5981E+06    -1.42914E+06    -187.456E-03     375.937E-03    -188.481E-03     128.167E-03    -188.082E-03     375.754E-03    -188.459E-03     124.621E-03
            1208     3.72809E-03     157.849E-03    -99.7597E+06    -166.229E+06    -60.8484E+06    -1.85199E+06    -187.588E-03     375.117E-03    -187.529E-03     158.946E-03    -188.534E-03     375.277E-03    -187.448E-03     154.361E-03
            1209     4.47878E-03     157.971E-03    -93.1562E+06    -153.473E+06    -41.8201E+06    -2.27535E+06    -189.041E-03     375.744E-03    -186.703E-03     188.764E-03    -190.389E-03     376.324E-03    -186.554E-03     182.978E-03
            1210     5.22921E-03     158.118E-03    -85.2454E+06    -124.393E+06    -21.9827E+06     1.65725E+06    -192.221E-03     378.308E-03    -186.088E-03     216.687E-03    -194.105E-03     379.503E-03    -185.894E-03     209.545E-03
            1211     5.97910E-03     158.290E-03    -79.8384E+06    -104.325E+06    -7.33629E+06     2.01719E+06    -197.587E-03     383.407E-03    -185.820E-03     242.502E-03    -200.145E-03     385.328E-03    -185.590E-03     233.635E-03
            1212     6.72642E-03     158.488E-03    -75.4903E+06    -86.9212E+06     4.50414E+06     1.22796E+06    -205.158E-03     391.168E-03    -186.010E-03     265.307E-03    -208.532E-03     393.952E-03    -185.752E-03     254.359E-03
            1213     7.46931E-03     158.714E-03    -69.1558E+06    -51.0243E+06     20.4966E+06     2.87122E+06    -214.587E-03     401.315E-03    -186.728E-03     284.164E-03    -218.931E-03     405.176E-03    -186.451E-03     270.813E-03
            1214     8.20623E-03     158.963E-03    -60.6890E+06    -20.1721E+06     36.1190E+06     3.13182E+06    -225.938E-03     413.977E-03    -188.039E-03     298.026E-03    -231.312E-03     418.967E-03    -187.741E-03     281.924E-03
            1215     8.93652E-03     159.235E-03    -51.8146E+06    -7.08931E+06     44.7593E+06     1.13582E+06    -239.266E-03     429.259E-03    -189.992E-03     305.443E-03    -245.611E-03     435.275E-03    -189.683E-03     286.299E-03
            1216     9.65442E-03     159.525E-03    -43.6132E+06     21.5596E+06     56.1738E+06    -3.56741E+06    -253.600E-03     446.220E-03    -192.621E-03     305.520E-03    -260.773E-03     453.166E-03    -192.308E-03     283.277E-03
            1217     10.3652E-03     159.829E-03    -35.4737E+06     74.1062E+06     72.6901E+06    -7.25747E+06    -268.070E-03     463.960E-03    -195.891E-03     298.259E-03    -275.819E-03     471.650E-03    -195.583E-03     273.135E-03
            1218     11.0627E-03     160.138E-03    -27.5068E+06     94.6391E+06     81.8088E+06    -8.55281E+06    -282.293E-03     482.047E-03    -199.754E-03     283.987E-03    -290.253E-03     490.022E-03    -199.442E-03     256.137E-03
            1219     11.7473E-03     160.451E-03    -20.5822E+06     98.6994E+06     88.5765E+06    -9.60414E+06    -294.617E-03     498.708E-03    -204.091E-03     265.977E-03    -302.578E-03     506.702E-03    -203.761E-03     235.457E-03
            1220     12.4252E-03     160.760E-03    -14.6193E+06     92.8510E+06     96.8378E+06    -8.79820E+06    -302.572E-03     511.273E-03    -208.701E-03     241.603E-03    -310.131E-03     518.837E-03    -208.330E-03     209.270E-03
            1221     13.0939E-03     161.048E-03    -10.0816E+06     59.4015E+06     90.3837E+06    -6.75484E+06    -306.773E-03     520.080E-03    -213.307E-03     217.267E-03    -314.094E-03     527.319E-03    -212.927E-03     182.476E-03
            1222     13.7594E-03     161.314E-03    -6.72889E+06     21.9114E+06     83.1319E+06    -4.85020E+06    -306.316E-03     524.073E-03    -217.757E-03     156.955E-03    -311.382E-03     528.954E-03    -217.364E-03     126.940E-03
            1223     757.744E-06     158.956E-03    -126.283E+06    -214.442E+06    -123.638E+06    -354.580E+03    -170.837E-03     341.823E-03    -170.986E-03     39.3816E-03    -171.024E-03     341.120E-03    -171.110E-03     38.8179E-03
            1224     1.51679E-03     158.987E-03    -124.281E+06    -207.513E+06    -115.304E+06    -1.13717E+06    -170.932E-03     341.589E-03    -170.657E-03     72.0921E-03    -171.186E-03     340.964E-03    -170.752E-03     71.0534E-03
            1225     2.27520E-03     159.037E-03    -119.534E+06    -196.596E+06    -97.8492E+06    -805.991E+03    -171.347E-03     341.747E-03    -170.400E-03     106.256E-03    -171.717E-03     341.249E-03    -170.431E-03     104.653E-03
            1226     3.03530E-03     159.112E-03    -112.329E+06    -185.701E+06    -77.7571E+06     789.865E+03    -172.748E-03     342.925E-03    -170.177E-03     139.729E-03    -173.284E-03     342.604E-03    -170.134E-03     137.480E-03
            1227     3.79546E-03     159.210E-03    -106.288E+06    -163.719E+06    -60.2904E+06     4.28444E+06    -175.658E-03     345.736E-03    -170.078E-03     172.204E-03    -176.456E-03     345.732E-03    -169.988E-03     169.156E-03
            1228     4.55444E-03     159.336E-03    -104.043E+06    -148.948E+06    -47.3366E+06     2.89802E+06    -180.283E-03     350.514E-03    -170.231E-03     203.201E-03    -181.446E-03     350.904E-03    -170.101E-03     199.066E-03
            1229     5.31217E-03     159.488E-03    -100.144E+06    -128.737E+06    -34.4162E+06     2.23417E+06    -186.999E-03     357.724E-03    -170.725E-03     232.105E-03    -188.653E-03     358.659E-03    -170.565E-03     226.597E-03
            1230     6.06640E-03     159.671E-03    -91.8019E+06    -97.6382E+06    -18.2033E+06     3.42423E+06    -196.102E-03     367.768E-03    -171.666E-03     258.296E-03    -198.402E-03     369.447E-03    -171.482E-03     251.047E-03
            1231     6.81490E-03     159.883E-03    -81.5835E+06    -82.9824E+06    -3.70624E+06     366.765E+03    -207.484E-03     380.644E-03    -173.160E-03     281.278E-03    -210.573E-03     383.163E-03    -172.940E-03     271.746E-03
            1232     7.55720E-03     160.125E-03    -70.0530E+06    -52.4772E+06     12.9360E+06     407.065E+03    -220.869E-03     396.111E-03    -175.242E-03     299.616E-03    -224.917E-03     399.695E-03    -174.999E-03     287.368E-03
            1233     8.29148E-03     160.394E-03    -59.1305E+06    -15.8966E+06     29.2588E+06     1.09122E+06    -236.296E-03     414.266E-03    -177.970E-03     312.422E-03    -241.420E-03     419.053E-03    -177.715E-03     296.981E-03
            1234     9.01401E-03     160.691E-03    -49.3430E+06     1.34666E+06     40.6663E+06    -2.69973E+06    -253.207E-03     434.609E-03    -181.403E-03     318.616E-03    -259.389E-03     440.520E-03    -181.130E-03     299.519E-03
            1235     9.72675E-03     161.009E-03    -39.6133E+06     34.3465E+06     56.2956E+06    -5.97552E+06    -270.574E-03     456.104E-03    -185.530E-03     316.811E-03    -277.675E-03     463.042E-03    -185.241E-03     293.978E-03
            1236     10.4239E-03     161.339E-03    -31.7226E+06     81.8974E+06     71.8007E+06    -7.05852E+06    -287.608E-03     477.888E-03    -190.280E-03     307.130E-03    -295.330E-03     485.599E-03    -189.994E-03     280.835E-03
            1237     11.1088E-03     161.679E-03    -25.3846E+06     99.0467E+06     78.7785E+06    -8.87375E+06    -302.598E-03     498.150E-03    -195.553E-03     290.876E-03    -310.541E-03     506.143E-03    -195.266E-03     261.517E-03
            1238     11.7830E-03     162.017E-03    -19.0553E+06     100.158E+06     86.2482E+06    -9.18591E+06    -313.722E-03     514.878E-03    -201.156E-03     271.363E-03    -321.666E-03     522.872E-03    -200.842E-03     239.228E-03
            1239     12.4459E-03     162.346E-03    -13.2594E+06     89.4702E+06     94.9458E+06    -7.55045E+06    -319.277E-03     526.104E-03    -206.827E-03     244.275E-03    -326.810E-03     533.641E-03    -206.463E-03     210.328E-03
            1240     13.1079E-03     162.643E-03    -7.92429E+06     54.5086E+06     90.7659E+06    -4.85030E+06    -320.102E-03     532.371E-03    -212.269E-03     219.052E-03    -327.385E-03     539.560E-03    -211.883E-03     182.947E-03
            1241     13.7637E-03     162.930E-03    -1.55160E+06     15.2327E+06     81.0286E+06    -2.99322E+06    -315.976E-03     533.269E-03    -217.293E-03     157.985E-03    -321.015E-03     538.123E-03    -216.908E-03     126.960E-03
            1242     775.956E-06     160.261E-03    -139.462E+06    -217.360E+06    -136.443E+06     3.44314E+06    -148.943E-03     297.318E-03    -148.375E-03     42.2397E-03    -149.162E-03     296.623E-03    -148.539E-03     42.0465E-03
            1243     1.55086E-03     160.292E-03    -139.505E+06    -207.925E+06    -123.214E+06     4.76341E+06    -150.752E-03     299.545E-03    -148.793E-03     77.2651E-03    -151.034E-03     298.913E-03    -148.905E-03     76.8414E-03
            1244     2.32578E-03     160.347E-03    -137.815E+06    -195.473E+06    -109.386E+06     4.34574E+06    -153.857E-03     303.288E-03    -149.430E-03     113.611E-03    -154.230E-03     302.764E-03    -149.494E-03     112.842E-03
            1245     3.09835E-03     160.425E-03    -135.251E+06    -187.839E+06    -96.5801E+06     3.78721E+06    -158.437E-03     308.747E-03    -150.310E-03     149.071E-03    -158.938E-03     308.358E-03    -150.324E-03     147.813E-03
            1246     3.86872E-03     160.532E-03    -128.853E+06    -167.927E+06    -81.1162E+06     5.28912E+06    -164.784E-03     316.247E-03    -151.463E-03     183.148E-03    -165.488E-03     316.117E-03    -151.438E-03     181.238E-03
            1247     4.63610E-03     160.666E-03    -117.918E+06    -140.562E+06    -62.5946E+06     4.99456E+06    -173.379E-03     326.360E-03    -152.981E-03     215.187E-03    -174.384E-03     326.620E-03    -152.919E-03     212.314E-03
            1248     5.39837E-03     160.832E-03    -105.953E+06    -125.376E+06    -44.7977E+06     514.147E+03    -184.322E-03     339.288E-03    -154.965E-03     244.732E-03    -185.743E-03     340.016E-03    -154.854E-03     240.464E-03
            1249     6.15455E-03     161.031E-03    -94.0273E+06    -95.4028E+06    -26.2108E+06    -1.25610E+06    -197.341E-03     354.784E-03    -157.443E-03     270.946E-03    -199.364E-03     356.216E-03    -157.299E-03     264.868E-03
            1250     6.90421E-03     161.263E-03    -83.2339E+06    -72.6077E+06    -10.9297E+06    -4.53973E+06    -212.657E-03     373.137E-03    -160.480E-03     293.176E-03    -215.459E-03     375.429E-03    -160.309E-03     284.703E-03
            1251     7.64399E-03     161.528E-03    -72.8315E+06    -53.5228E+06     2.86586E+06    -8.70283E+06    -230.285E-03     394.441E-03    -164.155E-03     310.313E-03    -234.040E-03     397.754E-03    -163.958E-03     298.789E-03
            1252     8.37175E-03     161.825E-03    -60.9274E+06    -15.4933E+06     21.0027E+06    -7.41504E+06    -249.438E-03     417.947E-03    -168.510E-03     321.524E-03    -254.300E-03     422.497E-03    -168.294E-03     306.390E-03
            1253     9.08788E-03     162.152E-03    -50.4606E+06     11.7891E+06     36.8861E+06    -8.81476E+06    -269.242E-03     442.798E-03    -173.556E-03     325.634E-03    -275.209E-03     448.542E-03    -173.315E-03     306.391E-03
            1254     9.78823E-03     162.501E-03    -42.5265E+06     38.6320E+06     52.2601E+06    -11.6505E+06    -288.980E-03     468.233E-03    -179.253E-03     322.079E-03    -295.912E-03     475.022E-03    -178.986E-03     298.529E-03
            1255     10.4756E-03     162.868E-03    -34.9503E+06     82.6599E+06     67.5844E+06    -10.4606E+06    -306.964E-03     492.442E-03    -185.478E-03     311.175E-03    -314.571E-03     500.043E-03    -185.209E-03     283.689E-03
            1256     11.1485E-03     163.239E-03    -28.9601E+06     104.861E+06     77.1872E+06    -9.63473E+06    -321.041E-03     513.111E-03    -192.069E-03     293.339E-03    -328.919E-03     521.051E-03    -191.793E-03     262.533E-03
            1257     11.8105E-03     163.603E-03    -23.2241E+06     101.040E+06     83.8373E+06    -11.4586E+06    -330.020E-03     528.802E-03    -198.783E-03     271.415E-03    -337.822E-03     536.650E-03    -198.477E-03     238.029E-03
            1258     12.4677E-03     163.954E-03    -16.1937E+06     81.6539E+06     90.6914E+06    -11.0538E+06    -333.165E-03     538.516E-03    -205.350E-03     242.985E-03    -340.515E-03     545.843E-03    -204.992E-03     207.951E-03
            1259     13.1157E-03     164.260E-03    -10.2869E+06     47.3886E+06     89.5256E+06    -7.98083E+06    -329.798E-03     541.264E-03    -211.466E-03     216.430E-03    -336.900E-03     548.240E-03    -211.072E-03     179.592E-03
            1260     13.7713E-03     164.545E-03    -8.25065E+06     6.88062E+06     77.7675E+06    -5.56727E+06    -322.994E-03     539.923E-03    -216.929E-03     156.905E-03    -327.912E-03     544.612E-03    -216.538E-03     125.647E-03
            1261     794.017E-06     161.507E-03    -182.570E+06    -225.985E+06    -177.578E+06     3.03984E+06    -127.818E-03     254.117E-03    -126.299E-03     43.5846E-03    -128.167E-03     253.498E-03    -126.595E-03     43.5450E-03
            1262     1.58647E-03     161.544E-03    -174.427E+06    -214.460E+06    -162.050E+06     6.42215E+06    -131.395E-03     258.940E-03    -127.545E-03     79.6924E-03    -131.757E-03     258.361E-03    -127.792E-03     79.5928E-03
            1263     2.37524E-03     161.606E-03    -166.387E+06    -196.543E+06    -141.888E+06     8.14341E+06    -137.239E-03     266.351E-03    -129.113E-03     117.253E-03    -137.649E-03     265.860E-03    -129.296E-03     116.989E-03
            1264     3.16036E-03     161.695E-03    -156.557E+06    -183.356E+06    -120.770E+06     4.29698E+06    -145.373E-03     276.541E-03    -131.168E-03     154.162E-03    -145.861E-03     276.156E-03    -131.279E-03     153.510E-03
            1265     3.94062E-03     161.813E-03    -142.970E+06    -164.407E+06    -98.6315E+06    -2.22787E+06    -155.836E-03     289.548E-03    -133.711E-03     189.289E-03    -156.462E-03     289.359E-03    -133.759E-03     188.000E-03
            1266     4.71465E-03     161.965E-03    -126.870E+06    -134.640E+06    -76.0215E+06    -7.18273E+06    -168.566E-03     305.313E-03    -136.747E-03     221.782E-03    -169.433E-03     305.471E-03    -136.748E-03     219.583E-03
            1267     5.48099E-03     162.151E-03    -111.246E+06    -119.610E+06    -57.5009E+06    -10.0964E+06    -183.625E-03     323.939E-03    -140.314E-03     251.358E-03    -184.848E-03     324.515E-03    -140.267E-03     247.863E-03
            1268     6.23865E-03     162.372E-03    -98.4262E+06    -95.1776E+06    -37.8500E+06    -10.0501E+06    -201.042E-03     345.490E-03    -144.448E-03     277.008E-03    -202.818E-03     346.701E-03    -144.357E-03     271.729E-03
            1269     6.98509E-03     162.630E-03    -86.9558E+06    -58.7753E+06    -17.5627E+06    -12.5194E+06    -220.663E-03     369.857E-03    -149.194E-03     297.592E-03    -223.202E-03     371.948E-03    -149.071E-03     289.845E-03
            1270     7.71962E-03     162.926E-03    -74.6489E+06    -45.8035E+06    -3.14682E+06    -19.1970E+06    -241.919E-03     396.522E-03    -154.602E-03     312.577E-03    -245.354E-03     399.559E-03    -154.444E-03     301.577E-03
            1271     8.44073E-03     163.257E-03    -62.0116E+06    -22.8282E+06     13.0165E+06    -20.0708E+06    -263.900E-03     424.556E-03    -160.655E-03     321.432E-03    -268.364E-03     428.705E-03    -160.467E-03     306.576E-03
            1272     9.14609E-03     163.619E-03    -50.8232E+06     11.2646E+06     31.0391E+06    -14.6201E+06    -285.786E-03     453.099E-03    -167.313E-03     323.520E-03    -291.319E-03     458.427E-03    -167.101E-03     304.367E-03
            1273     9.83736E-03     164.007E-03    -42.3435E+06     43.9411E+06     50.0073E+06    -12.6730E+06    -306.196E-03     480.701E-03    -174.505E-03     318.842E-03    -312.692E-03     487.082E-03    -174.258E-03     295.152E-03
            1274     10.5125E-03     164.410E-03    -35.8934E+06     80.6332E+06     65.6831E+06    -11.8512E+06    -323.101E-03     505.141E-03    -182.039E-03     306.993E-03    -330.297E-03     512.324E-03    -181.776E-03     279.074E-03
            1275     11.1760E-03     164.814E-03    -29.8360E+06     104.386E+06     78.9872E+06    -8.35724E+06    -335.208E-03     524.922E-03    -189.715E-03     288.963E-03    -342.753E-03     532.520E-03    -189.428E-03     257.501E-03
            1276     11.8292E-03     165.206E-03    -25.4519E+06     115.741E+06     91.4946E+06    -9.54915E+06    -341.685E-03     538.964E-03    -197.279E-03     266.943E-03    -349.226E-03     546.571E-03    -196.952E-03     232.969E-03
            1277     12.4751E-03     165.569E-03    -22.1137E+06     84.1316E+06     93.7203E+06    -15.8314E+06    -341.296E-03     545.746E-03    -204.449E-03     238.993E-03    -348.345E-03     552.748E-03    -204.071E-03     203.880E-03
            1278     13.1244E-03     165.892E-03    -13.6213E+06     32.9688E+06     93.3168E+06    -15.9229E+06    -335.611E-03     546.602E-03    -210.991E-03     211.373E-03    -342.342E-03     553.133E-03    -210.552E-03     174.736E-03
            1279     13.7722E-03     166.161E-03    -4.27309E+06    -9.66654E+06     88.7883E+06    -7.57333E+06    -327.570E-03     544.332E-03    -216.762E-03     155.274E-03    -332.263E-03     548.719E-03    -216.298E-03     124.148E-03
            1280     808.607E-06     162.703E-03    -260.534E+06    -223.696E+06    -256.121E+06    -4.76035E+06    -111.365E-03     220.028E-03    -108.663E-03     42.0413E-03    -111.983E-03     219.655E-03    -109.241E-03     41.9372E-03
            1281     1.61454E-03     162.747E-03    -244.884E+06    -213.025E+06    -235.936E+06    -10.0386E+06    -115.639E-03     226.336E-03    -110.696E-03     76.6788E-03    -116.232E-03     225.973E-03    -111.212E-03     76.4512E-03
            1282     2.41676E-03     162.821E-03    -220.493E+06    -193.185E+06    -201.319E+06    -14.5976E+06    -123.451E-03     236.321E-03    -112.871E-03     113.609E-03    -124.025E-03     236.000E-03    -113.278E-03     113.194E-03
            1283     3.21322E-03     162.924E-03    -190.859E+06    -172.714E+06    -161.434E+06    -20.2038E+06    -134.484E-03     250.276E-03    -115.793E-03     150.401E-03    -135.054E-03     250.018E-03    -116.073E-03     149.670E-03
            1284     4.00114E-03     163.063E-03    -164.065E+06    -155.062E+06    -126.605E+06    -25.4093E+06    -148.575E-03     268.023E-03    -119.448E-03     185.684E-03    -149.204E-03     267.886E-03    -119.618E-03     184.445E-03
            1285     4.77946E-03     163.236E-03    -141.872E+06    -127.028E+06    -96.7742E+06    -28.3574E+06    -165.209E-03     288.997E-03    -123.787E-03     218.123E-03    -166.018E-03     289.137E-03    -123.881E-03     216.111E-03
            1286     5.54814E-03     163.447E-03    -121.964E+06    -117.612E+06    -73.9914E+06    -30.6324E+06    -184.459E-03     313.273E-03    -128.814E-03     246.603E-03    -185.545E-03     313.735E-03    -128.836E-03     243.407E-03
            1287     6.30455E-03     163.698E-03    -100.729E+06    -99.9784E+06    -50.6201E+06    -28.6592E+06    -206.148E-03     340.682E-03    -134.535E-03     270.240E-03    -207.669E-03     341.656E-03    -134.497E-03     265.365E-03
            1288     7.04734E-03     163.990E-03    -81.0774E+06    -52.9123E+06    -22.0621E+06    -24.9974E+06    -229.358E-03     370.300E-03    -140.942E-03     288.369E-03    -231.537E-03     372.089E-03    -140.858E-03     281.168E-03
            1289     7.77451E-03     164.320E-03    -67.8464E+06    -36.0505E+06    -3.21584E+06    -25.5034E+06    -253.358E-03     401.369E-03    -148.011E-03     300.664E-03    -256.313E-03     403.989E-03    -147.877E-03     290.372E-03
            1290     8.48597E-03     164.688E-03    -60.5280E+06    -27.7681E+06     10.5344E+06    -24.6936E+06    -277.210E-03     432.875E-03    -155.665E-03     306.774E-03    -281.045E-03     436.392E-03    -155.485E-03     292.731E-03
            1291     9.18231E-03     165.090E-03    -54.0963E+06     3.48695E+06     28.9423E+06    -22.3369E+06    -299.433E-03     463.226E-03    -163.794E-03     306.501E-03    -304.200E-03     467.754E-03    -163.576E-03     288.249E-03
            1292     9.86194E-03     165.518E-03    -45.4899E+06     42.0964E+06     51.0051E+06    -20.2760E+06    -318.279E-03     490.514E-03    -172.235E-03     300.462E-03    -323.880E-03     495.975E-03    -171.975E-03     277.922E-03
            1293     10.5293E-03     165.958E-03    -36.0465E+06     70.4270E+06     67.0526E+06    -15.4262E+06    -332.245E-03     512.975E-03    -180.730E-03     289.423E-03    -338.493E-03     519.168E-03    -180.444E-03     262.816E-03
            1294     11.1850E-03     166.395E-03    -27.4194E+06     89.7485E+06     81.4509E+06    -7.54850E+06    -341.019E-03     530.070E-03    -189.052E-03     274.673E-03    -347.708E-03     536.758E-03    -188.735E-03     244.481E-03
            1295     11.8343E-03     166.812E-03    -19.2257E+06     124.969E+06     104.485E+06    -2.08989E+06    -344.140E-03     541.123E-03    -196.983E-03     256.482E-03    -351.059E-03     548.123E-03    -196.614E-03     223.578E-03
            1296     12.4812E-03     167.197E-03    -12.2551E+06     108.581E+06     113.717E+06    -4.50254E+06    -341.858E-03     546.174E-03    -204.316E-03     230.840E-03    -348.438E-03     552.772E-03    -203.888E-03     196.808E-03
            1297     13.1264E-03     167.514E-03    -12.3699E+06     40.7703E+06     108.955E+06    -13.6757E+06    -336.108E-03     547.050E-03    -210.941E-03     204.727E-03    -342.370E-03     553.098E-03    -210.438E-03     169.370E-03
            1298     13.7739E-03     167.804E-03    -10.4211E+06    -30.5384E+06     99.8922E+06    -15.4709E+06    -327.460E-03     544.229E-03    -216.769E-03     151.644E-03    -331.842E-03     548.176E-03    -216.210E-03     121.535E-03
            1299     815.744E-06     163.867E-03    -291.342E+06    -196.528E+06    -288.955E+06    -16.7095E+06    -103.494E-03     203.506E-03    -100.012E-03     36.1012E-03    -104.253E-03     203.369E-03    -100.749E-03     35.8036E-03
            1300     1.62926E-03     163.918E-03    -277.670E+06    -184.481E+06    -264.486E+06    -31.0294E+06    -107.455E-03     209.999E-03    -102.544E-03     66.0352E-03    -108.213E-03     209.881E-03    -103.197E-03     65.4667E-03
            1301     2.43847E-03     164.003E-03    -257.767E+06    -167.949E+06    -233.256E+06    -46.5454E+06    -115.979E-03     220.920E-03    -104.941E-03     98.1423E-03    -116.736E-03     220.841E-03    -105.490E-03     97.2208E-03
            1302     3.24039E-03     164.125E-03    -233.469E+06    -152.530E+06    -201.932E+06    -57.6054E+06    -127.880E-03     236.123E-03    -108.243E-03     130.472E-03    -128.639E-03     236.099E-03    -108.693E-03     129.166E-03
            1303     4.03402E-03     164.284E-03    -206.140E+06    -142.481E+06    -170.536E+06    -63.9443E+06    -143.067E-03     255.493E-03    -112.426E-03     162.273E-03    -143.847E-03     255.535E-03    -112.773E-03     160.497E-03
            1304     4.81676E-03     164.485E-03    -178.928E+06    -122.258E+06    -139.366E+06    -65.3734E+06    -161.947E-03     279.437E-03    -117.489E-03     192.109E-03    -162.832E-03     279.665E-03    -117.750E-03     189.673E-03
            1305     5.58487E-03     164.726E-03    -153.424E+06    -112.646E+06    -109.169E+06    -67.7159E+06    -184.286E-03     307.795E-03    -123.509E-03     218.272E-03    -185.356E-03     308.252E-03    -123.669E-03     214.801E-03
            1306     6.33722E-03     165.011E-03    -129.857E+06    -109.542E+06    -79.5461E+06    -70.3959E+06    -208.752E-03     339.202E-03    -130.449E-03     239.377E-03    -210.115E-03     339.963E-03    -130.500E-03     234.385E-03
            1307     7.07315E-03     165.339E-03    -105.643E+06    -74.3986E+06    -44.8495E+06    -63.9107E+06    -234.053E-03     372.222E-03    -138.169E-03     254.246E-03    -235.859E-03     373.539E-03    -138.132E-03     247.323E-03
            1308     7.79292E-03     165.709E-03    -83.5741E+06    -53.5595E+06    -15.1128E+06    -51.0857E+06    -259.464E-03     406.037E-03    -146.573E-03     262.574E-03    -261.791E-03     407.942E-03    -146.450E-03     253.173E-03
            1309     8.49509E-03     166.118E-03    -64.5667E+06    -45.6265E+06     9.27657E+06    -39.4020E+06    -283.392E-03     438.904E-03    -155.512E-03     265.027E-03    -286.294E-03     441.409E-03    -155.306E-03     252.541E-03
            1310     9.17958E-03     166.560E-03    -47.5034E+06    -8.71048E+06     37.4150E+06    -29.7431E+06    -303.757E-03     468.497E-03    -164.740E-03     262.663E-03    -307.288E-03     471.739E-03    -164.471E-03     246.744E-03
            1311     9.85125E-03     167.024E-03    -32.9982E+06     33.5175E+06     64.3180E+06    -21.9852E+06    -318.798E-03     492.760E-03    -173.962E-03     256.723E-03    -322.925E-03     496.718E-03    -173.641E-03     237.305E-03
            1312     10.5117E-03     167.498E-03    -21.7323E+06     51.0439E+06     78.9862E+06    -11.1536E+06    -328.130E-03     510.982E-03    -182.853E-03     248.457E-03    -332.760E-03     515.502E-03    -182.500E-03     225.671E-03
            1313     11.1675E-03     167.963E-03    -15.5856E+06     68.3557E+06     90.9784E+06     2.84876E+06    -332.230E-03     523.401E-03    -191.171E-03     238.836E-03    -337.324E-03     528.430E-03    -190.793E-03     212.973E-03
            1314     11.8189E-03     168.407E-03    -12.4584E+06     130.374E+06     122.180E+06     6.26750E+06    -331.885E-03     530.679E-03    -198.794E-03     226.775E-03    -337.447E-03     536.315E-03    -198.354E-03     198.146E-03
            1315     12.4701E-03     168.802E-03    -6.26634E+06     128.860E+06     137.152E+06     1.11491E+06    -330.170E-03     535.847E-03    -205.678E-03     208.883E-03    -335.912E-03     541.636E-03    -205.170E-03     177.527E-03
            1316     13.1195E-03     169.146E-03     4.30190E+06     60.3268E+06     132.940E+06    -344.146E+03    -325.761E-03     537.609E-03    -211.848E-03     186.098E-03    -331.400E-03     543.096E-03    -211.277E-03     152.609E-03
            1317     13.7733E-03     169.418E-03     12.0177E+06    -30.5751E+06     117.992E+06    -810.741E+03    -316.272E-03     533.481E-03    -217.209E-03     137.870E-03    -320.097E-03     536.898E-03    -216.592E-03     109.979E-03
            1318     812.907E-06     165.024E-03    -235.312E+06    -144.589E+06    -232.641E+06    -24.0758E+06    -107.461E-03     213.130E-03    -105.669E-03     23.5377E-03    -108.108E-03     213.085E-03    -106.281E-03     23.0373E-03
            1319     1.62392E-03     165.081E-03    -226.080E+06    -137.104E+06    -214.414E+06    -40.8385E+06    -111.835E-03     219.490E-03    -107.655E-03     42.9032E-03    -112.493E-03     219.459E-03    -108.200E-03     41.9934E-03
            1320     2.42959E-03     165.178E-03    -213.041E+06    -124.208E+06    -190.584E+06    -54.6283E+06    -119.144E-03     229.374E-03    -110.230E-03     63.6501E-03    -119.825E-03     229.392E-03    -110.694E-03     62.2933E-03
            1321     3.22855E-03     165.313E-03    -200.712E+06    -114.965E+06    -168.801E+06    -68.0743E+06    -129.308E-03     242.982E-03    -113.674E-03     85.0314E-03    -130.032E-03     243.058E-03    -114.060E-03     83.1363E-03
            1322     4.01830E-03     165.492E-03    -188.768E+06    -112.904E+06    -151.966E+06    -79.3601E+06    -142.718E-03     260.756E-03    -118.038E-03     106.006E-03    -143.498E-03     260.891E-03    -118.361E-03     103.470E-03
            1323     4.79665E-03     165.715E-03    -174.017E+06    -105.341E+06    -134.423E+06    -87.1641E+06    -159.493E-03     282.895E-03    -123.402E-03     125.770E-03    -160.358E-03     283.145E-03    -123.669E-03     122.477E-03
            1324     5.56089E-03     165.988E-03    -156.602E+06    -95.5690E+06    -113.449E+06    -91.9682E+06    -179.390E-03     309.206E-03    -129.816E-03     143.236E-03    -180.371E-03     309.613E-03    -130.017E-03     139.001E-03
            1325     6.30814E-03     166.307E-03    -139.311E+06    -97.5273E+06    -90.3989E+06    -96.8692E+06    -201.492E-03     338.749E-03    -137.257E-03     156.860E-03    -202.618E-03     339.295E-03    -137.366E-03     151.384E-03
            1326     7.03711E-03     166.674E-03    -123.101E+06    -91.2507E+06    -67.3644E+06    -97.5896E+06    -224.523E-03     370.090E-03    -145.568E-03     165.819E-03    -225.843E-03     370.849E-03    -145.594E-03     158.863E-03
            1327     7.74630E-03     167.082E-03    -105.879E+06    -87.5124E+06    -46.3461E+06    -88.9132E+06    -247.116E-03     401.673E-03    -154.557E-03     170.381E-03    -248.651E-03     402.667E-03    -154.509E-03     161.727E-03
            1328     8.43697E-03     167.531E-03    -88.2863E+06    -80.3605E+06    -22.9309E+06    -79.9336E+06    -267.233E-03     431.189E-03    -163.956E-03     171.810E-03    -269.014E-03     432.452E-03    -163.826E-03     161.176E-03
            1329     9.11388E-03     168.009E-03    -71.5604E+06    -56.6369E+06     4.92595E+06    -69.4236E+06    -282.841E-03     456.211E-03    -173.370E-03     172.135E-03    -284.905E-03     457.824E-03    -173.159E-03     159.467E-03
            1330     9.77878E-03     168.507E-03    -57.9553E+06    -14.5511E+06     39.4210E+06    -54.8549E+06    -293.162E-03     475.557E-03    -182.395E-03     172.544E-03    -295.569E-03     477.616E-03    -182.093E-03     157.911E-03
            1331     10.4399E-03     169.004E-03    -45.6817E+06    -1.07915E+06     68.8549E+06    -39.1176E+06    -298.921E-03     489.634E-03    -190.713E-03     173.524E-03    -301.651E-03     492.023E-03    -190.301E-03     156.905E-03
            1332     11.0973E-03     169.494E-03    -28.4846E+06     7.98761E+06     94.4151E+06    -19.6854E+06    -300.642E-03     498.731E-03    -198.090E-03     173.639E-03    -303.677E-03     501.444E-03    -197.588E-03     155.053E-03
            1333     11.7602E-03     169.951E-03    -9.43068E+06     96.4911E+06     140.209E+06     2.64878E+06    -299.455E-03     503.924E-03    -204.469E-03     171.489E-03    -302.946E-03     507.339E-03    -203.894E-03     150.901E-03
            1334     12.4234E-03     170.376E-03    -3.93858E+06     138.585E+06     163.076E+06     17.5613E+06    -296.652E-03     506.531E-03    -209.878E-03     169.251E-03    -300.735E-03     510.640E-03    -209.258E-03     145.706E-03
            1335     13.0867E-03     170.736E-03    -10.6764E+06     91.7921E+06     155.112E+06     9.94032E+06    -293.532E-03     507.978E-03    -214.446E-03     166.901E-03    -298.336E-03     512.635E-03    -213.788E-03     139.206E-03
            1336     13.7499E-03     171.018E-03    -11.7253E+06    -23.0169E+06     129.623E+06    -1.71958E+06    -290.577E-03     508.944E-03    -218.367E-03     132.619E-03    -294.191E-03     512.064E-03    -217.669E-03     108.157E-03
            1337     796.246E-06     166.210E-03    -151.714E+06    -83.2552E+06    -146.171E+06    -21.5562E+06    -132.133E-03     262.850E-03    -130.717E-03    -663.721E-06    -132.625E-03     262.798E-03    -131.107E-03    -1.38946E-03
            1338     1.58775E-03     166.274E-03    -146.368E+06    -82.6982E+06    -135.268E+06    -38.9003E+06    -133.789E-03     266.768E-03    -132.979E-03    -1.92480E-03    -134.269E-03     266.699E-03    -133.323E-03    -3.28413E-03
            1339     2.37524E-03     166.376E-03    -137.452E+06    -81.6264E+06    -118.443E+06    -50.7185E+06    -137.858E-03     273.350E-03    -135.491E-03    -1.53171E-03    -138.324E-03     273.252E-03    -135.766E-03    -3.55698E-03
            1340     3.15654E-03     166.522E-03    -126.923E+06    -73.4600E+06    -99.1304E+06    -58.5097E+06    -143.672E-03     282.692E-03    -139.020E-03    -1.23738E-03    -144.135E-03     282.600E-03    -139.225E-03    -3.95521E-03
            1341     3.92834E-03     166.713E-03    -115.731E+06    -71.5896E+06    -81.6393E+06    -67.0725E+06    -151.220E-03     294.831E-03    -143.611E-03    -1.03712E-03    -151.668E-03     294.722E-03    -143.747E-03    -4.57874E-03
            1342     4.68731E-03     166.954E-03    -104.927E+06    -70.4621E+06    -68.2168E+06    -74.5890E+06    -160.038E-03     309.267E-03    -149.229E-03    -845.332E-06    -160.469E-03     309.149E-03    -149.316E-03    -5.27932E-03
            1343     5.43251E-03     167.243E-03    -97.1036E+06    -67.3622E+06    -56.9273E+06    -78.3647E+06    -169.661E-03     325.466E-03    -155.806E-03    -1.06504E-03    -170.094E-03     325.363E-03    -155.852E-03    -6.38761E-03
            1344     6.16224E-03     167.587E-03    -92.0786E+06    -63.2178E+06    -46.5020E+06    -81.1599E+06    -180.024E-03     343.269E-03    -163.245E-03    -1.99875E-03    -180.471E-03     343.197E-03    -163.252E-03    -8.29281E-03
            1345     6.87491E-03     167.977E-03    -89.9449E+06    -66.8914E+06    -39.9443E+06    -83.1587E+06    -190.531E-03     361.915E-03    -171.384E-03    -3.12391E-03    -190.989E-03     361.849E-03    -171.356E-03    -10.4588E-03
            1346     7.57156E-03     168.415E-03    -89.2568E+06    -75.6727E+06    -34.2716E+06    -85.3730E+06    -200.001E-03     379.943E-03    -179.941E-03    -2.73348E-03    -200.482E-03     379.878E-03    -179.874E-03    -11.0813E-03
            1347     8.25503E-03     168.890E-03    -87.7972E+06    -78.2637E+06    -23.2814E+06    -85.6124E+06    -207.197E-03     395.700E-03    -188.503E-03     413.368E-06    -207.738E-03     395.692E-03    -188.378E-03    -8.79724E-03
            1348     8.92764E-03     169.395E-03    -87.0438E+06    -74.1058E+06    -8.07029E+06    -83.4553E+06    -211.393E-03     407.945E-03    -196.552E-03     7.81708E-03    -212.047E-03     408.058E-03    -196.358E-03    -2.03661E-03
            1349     9.59963E-03     169.912E-03    -82.0193E+06    -54.4054E+06     15.8790E+06    -78.7951E+06    -213.465E-03     417.100E-03    -203.635E-03     20.6788E-03    -214.288E-03     417.434E-03    -203.358E-03     10.4307E-03
            1350     10.2710E-03     170.437E-03    -70.6931E+06    -42.5026E+06     46.2915E+06    -70.3562E+06    -214.634E-03     424.105E-03    -209.471E-03     38.6427E-03    -215.643E-03     424.651E-03    -209.076E-03     28.1267E-03
            1351     10.9500E-03     170.943E-03    -56.6904E+06    -49.5840E+06     68.9324E+06    -61.0914E+06    -216.512E-03     430.385E-03    -213.872E-03     61.9629E-03    -217.701E-03     431.097E-03    -213.374E-03     51.1310E-03
            1352     11.6300E-03     171.429E-03    -42.2495E+06    -6.94531E+06     95.0916E+06    -41.4171E+06    -219.560E-03     436.374E-03    -216.814E-03     91.1513E-03    -221.062E-03     437.536E-03    -216.267E-03     79.8521E-03
            1353     12.3201E-03     171.864E-03    -21.0481E+06     60.6956E+06     135.328E+06     983.514E+03    -222.722E-03     441.271E-03    -218.549E-03     121.300E-03    -224.692E-03     443.071E-03    -217.929E-03     109.221E-03
            1354     13.0291E-03     172.246E-03    -800.508E+03     124.786E+06     172.169E+06     28.5833E+06    -230.217E-03     449.764E-03    -219.547E-03     146.009E-03    -233.152E-03     452.682E-03    -218.866E-03     130.650E-03
            1355     13.7436E-03     172.560E-03     11.8793E+06     25.2618E+06     133.977E+06     16.3995E+06    -242.569E-03     462.986E-03    -220.417E-03     130.533E-03    -245.321E-03     465.498E-03    -219.801E-03     113.554E-03
            1356     752.068E-06     167.489E-03    -55.0454E+06    -32.7564E+06    -49.9650E+06    -12.7231E+06    -186.544E-03     375.811E-03    -189.267E-03    -44.3536E-03    -186.920E-03     375.506E-03    -189.389E-03    -45.3754E-03
            1357     1.50600E-03     167.552E-03    -52.9363E+06    -31.7036E+06    -38.9285E+06    -23.0814E+06    -184.865E-03     375.459E-03    -190.593E-03    -80.3318E-03    -185.207E-03     375.036E-03    -190.665E-03    -82.2089E-03
            1358     2.25516E-03     167.657E-03    -51.9101E+06    -40.9402E+06    -29.2966E+06    -32.3871E+06    -182.117E-03     375.351E-03    -193.234E-03    -118.550E-03    -182.343E-03     374.750E-03    -193.246E-03    -121.255E-03
            1359     2.99544E-03     167.806E-03    -49.5666E+06    -39.1807E+06    -22.9548E+06    -39.2257E+06    -178.022E-03     375.012E-03    -196.990E-03    -155.667E-03    -178.087E-03     374.253E-03    -196.976E-03    -159.193E-03
            1360     3.72580E-03     168.000E-03    -47.1152E+06    -35.4411E+06    -13.7103E+06    -44.2109E+06    -171.880E-03     373.645E-03    -201.765E-03    -189.833E-03    -171.769E-03     372.716E-03    -201.714E-03    -194.118E-03
            1361     4.44516E-03     168.243E-03    -47.3566E+06    -37.1733E+06    -3.46582E+06    -47.1729E+06    -163.639E-03     371.042E-03    -207.403E-03    -219.192E-03    -163.345E-03     369.918E-03    -207.298E-03    -224.137E-03
            1362     5.15127E-03     168.534E-03    -48.5020E+06    -35.9051E+06     6.02808E+06    -48.7754E+06    -153.268E-03     366.964E-03    -213.696E-03    -242.165E-03    -152.795E-03     365.675E-03    -213.544E-03    -247.665E-03
            1363     5.84422E-03     168.874E-03    -49.1000E+06    -32.3934E+06     16.0250E+06    -48.3381E+06    -141.121E-03     361.517E-03    -220.397E-03    -256.446E-03    -140.503E-03     360.125E-03    -220.198E-03    -262.372E-03
            1364     6.52478E-03     169.265E-03    -48.6214E+06    -30.0425E+06     24.7392E+06    -47.0393E+06    -128.202E-03     355.397E-03    -227.195E-03    -260.953E-03    -127.487E-03     353.977E-03    -226.957E-03    -267.189E-03
            1365     7.19564E-03     169.696E-03    -48.0059E+06    -31.8070E+06     32.7181E+06    -45.1401E+06    -115.169E-03     348.870E-03    -233.701E-03    -254.930E-03    -114.424E-03     347.493E-03    -233.421E-03    -261.310E-03
            1366     7.86038E-03     170.167E-03    -46.7449E+06    -35.9378E+06     41.5250E+06    -44.2080E+06    -102.316E-03     341.723E-03    -239.407E-03    -237.853E-03    -101.630E-03     340.472E-03    -239.079E-03    -244.176E-03
            1367     8.53003E-03     170.663E-03    -44.7504E+06    -39.3496E+06     52.2471E+06    -40.2543E+06    -90.6102E-03     334.420E-03    -243.810E-03    -211.535E-03    -90.0688E-03     333.375E-03    -243.427E-03    -217.589E-03
            1368     9.20649E-03     171.179E-03    -36.7446E+06    -27.8354E+06     68.9913E+06    -43.7623E+06    -80.8313E-03     327.344E-03    -246.513E-03    -177.220E-03    -80.4963E-03     326.614E-03    -246.074E-03    -182.930E-03
            1369     9.90130E-03     171.701E-03    -35.5616E+06    -25.7074E+06     74.9127E+06    -40.6611E+06    -73.4346E-03     320.657E-03    -247.223E-03    -136.200E-03    -73.3356E-03     320.231E-03    -246.759E-03    -141.336E-03
            1370     10.6165E-03     172.223E-03    -39.1502E+06    -27.4080E+06     74.6411E+06    -42.4247E+06    -68.7842E-03     314.606E-03    -245.822E-03    -88.8112E-03    -68.9216E-03     314.451E-03    -245.352E-03    -93.3528E-03
            1371     11.3658E-03     172.727E-03    -45.9398E+06    -41.0669E+06     75.0706E+06    -42.7816E+06    -68.6582E-03     311.192E-03    -242.533E-03    -39.5651E-03    -69.0258E-03     311.200E-03    -242.032E-03    -43.6880E-03
            1372     12.1428E-03     173.204E-03    -37.7961E+06    -33.9720E+06     83.6716E+06    -30.8917E+06    -75.8327E-03     313.801E-03    -237.968E-03    -1.37274E-03    -76.3769E-03     314.006E-03    -237.445E-03    -5.36851E-03
            1373     12.9202E-03     173.623E-03    -6.91704E+06     49.7966E+06     125.620E+06    -4.45234E+06    -98.4056E-03     331.675E-03    -233.269E-03     25.4562E-03    -99.2921E-03     332.506E-03    -232.703E-03     20.6262E-03
            1374     13.6742E-03     174.003E-03     10.9093E+06     37.4075E+06     102.695E+06     20.3906E+06    -102.714E-03     330.791E-03    -228.077E-03     32.3755E-03    -103.722E-03     331.883E-03    -227.634E-03     26.1723E-03
            1375     13.6278E-03     86.5026E-03    -4.88569E+06     73.7564E+06     87.2147E+06     370.096E+03    -225.592E-03     452.840E-03    -227.247E-03     109.551E-03    -230.006E-03     457.244E-03    -226.911E-03     87.0260E-03
            1376     12.9102E-03     86.3128E-03    -10.8628E+06     70.5297E+06     87.2847E+06     1.46796E+06    -226.898E-03     454.180E-03    -227.282E-03     156.171E-03    -233.620E-03     460.861E-03    -226.932E-03     128.055E-03
            1377     12.1942E-03     86.1121E-03    -17.1865E+06     61.8401E+06     84.6548E+06     635.081E+03    -227.808E-03     455.110E-03    -227.302E-03     172.495E-03    -235.379E-03     462.594E-03    -226.943E-03     143.194E-03
            1378     11.4753E-03     85.8740E-03    -21.7542E+06     58.3909E+06     84.0095E+06    -932.863E+03    -228.732E-03     456.055E-03    -227.324E-03     190.702E-03    -237.410E-03     464.620E-03    -226.957E-03     159.613E-03
            1379     10.7592E-03     85.6172E-03    -26.1169E+06     54.8775E+06     79.6571E+06    -773.588E+03    -229.777E-03     457.103E-03    -227.325E-03     202.098E-03    -239.021E-03     466.217E-03    -226.969E-03     170.238E-03
            1380     10.0407E-03     85.3457E-03    -33.3365E+06     45.4783E+06     67.4568E+06        -425.406    -230.736E-03     458.031E-03    -227.295E-03     209.933E-03    -240.216E-03     467.358E-03    -226.975E-03     177.794E-03
            1381     9.32474E-03     85.0652E-03    -41.7100E+06     35.5644E+06     56.1746E+06      24.307E+03    -231.222E-03     458.497E-03    -227.275E-03     212.187E-03    -240.469E-03     467.559E-03    -226.986E-03     180.555E-03
            1382     8.60715E-03     84.7863E-03    -50.0846E+06     27.1888E+06     48.7369E+06     817.676E+03    -231.307E-03     458.599E-03    -227.292E-03     209.056E-03    -239.927E-03     466.996E-03    -227.015E-03     178.637E-03
            1383     7.88849E-03     84.5139E-03    -58.3479E+06     4.88289E+06     39.1337E+06     1.56586E+06    -231.250E-03     458.588E-03    -227.337E-03     200.876E-03    -238.915E-03     465.949E-03    -227.064E-03     172.283E-03
            1384     7.17201E-03     84.2549E-03    -66.5260E+06    -36.0760E+06     23.2565E+06     1.42854E+06    -231.041E-03     458.431E-03    -227.390E-03     188.668E-03    -237.544E-03     464.502E-03    -227.125E-03     162.403E-03
            1385     6.45334E-03     84.0142E-03    -75.5333E+06    -80.4576E+06     4.07438E+06     758.117E+03    -230.835E-03     458.267E-03    -227.433E-03     173.851E-03    -236.143E-03     463.010E-03    -227.186E-03     150.204E-03
            1386     5.73641E-03     83.7928E-03    -84.8363E+06    -124.528E+06    -14.8936E+06     33.0611E+03    -230.618E-03     458.077E-03    -227.459E-03     157.352E-03    -234.802E-03     461.560E-03    -227.229E-03     136.463E-03
            1387     5.01943E-03     83.5939E-03    -93.6385E+06    -157.012E+06    -32.7709E+06     310.480E+03    -230.057E-03     457.517E-03    -227.461E-03     139.824E-03    -233.246E-03     459.912E-03    -227.261E-03     121.786E-03
            1388     4.30174E-03     83.4188E-03    -102.400E+06    -183.358E+06    -51.6954E+06     567.294E+03    -229.401E-03     456.859E-03    -227.459E-03     121.429E-03    -231.742E-03     458.336E-03    -227.303E-03     106.222E-03
            1389     3.58486E-03     83.2688E-03    -110.807E+06    -222.911E+06    -70.2426E+06     389.194E+03    -228.988E-03     456.461E-03    -227.473E-03     102.389E-03    -230.605E-03     457.098E-03    -227.341E-03     89.8921E-03
            1390     2.86813E-03     83.1432E-03    -118.790E+06    -252.346E+06    -88.7272E+06     381.196E+03    -228.471E-03     455.931E-03    -227.460E-03     82.7670E-03    -229.517E-03     455.917E-03    -227.366E-03     72.8927E-03
            1391     2.15102E-03     83.0453E-03    -126.123E+06    -265.944E+06    -107.816E+06     528.585E+03    -227.860E-03     455.307E-03    -227.447E-03     62.7006E-03    -228.483E-03     454.851E-03    -227.418E-03     55.3856E-03
            1392     1.43326E-03     82.9736E-03    -131.053E+06    -281.574E+06    -123.553E+06     97.2988E+03    -227.606E-03     455.097E-03    -227.491E-03     42.5232E-03    -227.923E-03     454.308E-03    -227.511E-03     37.5971E-03
            1393     716.671E-06     82.9308E-03    -133.866E+06    -302.364E+06    -132.264E+06    -472.567E+03    -227.859E-03     455.180E-03    -227.321E-03     23.3163E-03    -227.979E-03     454.136E-03    -227.350E-03     20.6305E-03
            1394     13.6290E-03     85.0105E-03    -5.21705E+06     70.9466E+06     86.3660E+06     1.13490E+06    -225.865E-03     453.117E-03    -227.252E-03     109.726E-03    -230.259E-03     457.494E-03    -226.915E-03     87.2494E-03
            1395     12.9110E-03     84.8208E-03    -9.21526E+06     70.5151E+06     87.6975E+06     690.723E+03    -226.899E-03     454.174E-03    -227.275E-03     154.626E-03    -233.588E-03     460.826E-03    -226.925E-03     126.476E-03
            1396     12.1924E-03     84.6169E-03    -12.5485E+06     67.0739E+06     88.2435E+06    -576.815E+03    -227.815E-03     455.104E-03    -227.290E-03     171.177E-03    -235.362E-03     462.590E-03    -226.927E-03     141.816E-03
            1397     11.4776E-03     84.3809E-03    -19.0379E+06     58.9755E+06     85.0583E+06    -1.34382E+06    -228.938E-03     456.233E-03    -227.296E-03     190.656E-03    -237.625E-03     464.816E-03    -226.928E-03     159.470E-03
            1398     10.7589E-03     84.1248E-03    -27.4527E+06     51.6220E+06     77.0696E+06    -880.840E+03    -229.851E-03     457.132E-03    -227.281E-03     202.546E-03    -239.104E-03     466.247E-03    -226.930E-03     170.670E-03
            1399     10.0428E-03     83.8524E-03    -35.1938E+06     44.5481E+06     65.7323E+06     350.239E+03    -230.438E-03     457.700E-03    -227.262E-03     210.315E-03    -239.913E-03     467.018E-03    -226.947E-03     178.276E-03
            1400     9.32397E-03     83.5731E-03    -42.8104E+06     35.4530E+06     55.1893E+06     1.10594E+06    -230.861E-03     458.135E-03    -227.273E-03     212.728E-03    -240.111E-03     467.198E-03    -226.987E-03     181.193E-03
            1401     8.60584E-03     83.2938E-03    -50.8673E+06     26.7216E+06     48.0686E+06     512.049E+03    -231.204E-03     458.519E-03    -227.316E-03     209.328E-03    -239.827E-03     466.918E-03    -227.040E-03     178.925E-03
            1402     7.88937E-03     83.0212E-03    -59.0939E+06     4.81500E+06     38.6348E+06    -236.966E+03    -231.230E-03     458.601E-03    -227.370E-03     200.936E-03    -238.902E-03     465.968E-03    -227.099E-03     172.312E-03
            1403     7.17049E-03     82.7630E-03    -67.6070E+06    -36.6685E+06     22.3455E+06     331.454E+03    -231.207E-03     458.624E-03    -227.417E-03     188.685E-03    -237.718E-03     464.700E-03    -227.154E-03     162.375E-03
            1404     6.45403E-03     82.5211E-03    -76.2720E+06    -80.0430E+06     3.78156E+06     957.722E+03    -231.073E-03     458.513E-03    -227.440E-03     173.693E-03    -236.384E-03     463.258E-03    -227.194E-03     150.019E-03
            1405     5.73667E-03     82.3001E-03    -85.1058E+06    -123.545E+06    -15.1316E+06     720.800E+03    -230.567E-03     458.019E-03    -227.453E-03     157.198E-03    -234.750E-03     461.506E-03    -227.226E-03     136.320E-03
            1406     5.01914E-03     82.1014E-03    -94.1663E+06    -157.078E+06    -33.4377E+06     548.027E+03    -229.934E-03     457.398E-03    -227.465E-03     139.636E-03    -233.123E-03     459.793E-03    -227.267E-03     121.610E-03
            1407     4.30214E-03     81.9266E-03    -102.945E+06    -183.028E+06    -52.0797E+06     523.138E+03    -229.472E-03     456.936E-03    -227.465E-03     121.309E-03    -231.815E-03     458.415E-03    -227.310E-03     106.088E-03
            1408     3.58491E-03     81.7753E-03    -111.381E+06    -222.777E+06    -70.7602E+06     343.869E+03    -229.047E-03     456.512E-03    -227.465E-03     102.271E-03    -230.667E-03     457.151E-03    -227.334E-03     89.7676E-03
            1409     2.86772E-03     81.6509E-03    -119.321E+06    -252.261E+06    -88.5621E+06     668.366E+03    -228.424E-03     455.874E-03    -227.450E-03     82.5574E-03    -229.471E-03     455.859E-03    -227.354E-03     72.6999E-03
            1410     2.15058E-03     81.5526E-03    -126.346E+06    -265.236E+06    -107.481E+06     679.387E+03    -227.854E-03     455.292E-03    -227.438E-03     62.6142E-03    -228.479E-03     454.839E-03    -227.407E-03     55.2953E-03
            1411     1.43404E-03     81.4816E-03    -130.788E+06    -280.391E+06    -123.349E+06     337.476E+03    -227.590E-03     455.070E-03    -227.480E-03     42.5915E-03    -227.907E-03     454.285E-03    -227.500E-03     37.6947E-03
            1412     716.790E-06     81.4366E-03    -133.355E+06    -302.537E+06    -132.493E+06     238.726E+03    -227.727E-03     455.168E-03    -227.441E-03     23.3264E-03    -227.844E-03     454.121E-03    -227.471E-03     20.6638E-03
            1413     13.6276E-03     83.5146E-03    -4.61127E+06     71.3064E+06     86.2742E+06     306.502E+03    -226.331E-03     453.542E-03    -227.210E-03     109.060E-03    -230.727E-03     457.924E-03    -226.875E-03     86.4853E-03
            1414     12.9123E-03     83.3275E-03    -8.25994E+06     72.1862E+06     88.8034E+06    -1.37614E+06    -226.672E-03     453.898E-03    -227.226E-03     154.518E-03    -233.370E-03     460.565E-03    -226.875E-03     126.327E-03
            1415     12.1960E-03     83.1256E-03    -14.6672E+06     66.2312E+06     87.1496E+06    -1.28958E+06    -227.468E-03     454.722E-03    -227.254E-03     172.067E-03    -235.023E-03     462.208E-03    -226.893E-03     142.779E-03
            1416     11.4755E-03     82.8876E-03    -22.3513E+06     57.9496E+06     83.3319E+06     507.690E+03    -228.742E-03     456.021E-03    -227.280E-03     191.221E-03    -237.433E-03     464.598E-03    -226.914E-03     160.141E-03
            1417     10.7598E-03     82.6308E-03    -30.2961E+06     52.5391E+06     75.8044E+06     303.092E+03    -229.634E-03     456.914E-03    -227.280E-03     202.831E-03    -238.896E-03     466.036E-03    -226.933E-03     171.035E-03
            1418     10.0411E-03     82.3604E-03    -37.5009E+06     43.3380E+06     64.1002E+06    -677.842E+03    -230.267E-03     457.546E-03    -227.279E-03     210.674E-03    -239.753E-03     466.867E-03    -226.967E-03     178.660E-03
            1419     9.32375E-03     82.0813E-03    -44.0666E+06     33.8974E+06     54.4492E+06    -667.088E+03    -230.911E-03     458.212E-03    -227.301E-03     212.780E-03    -240.167E-03     467.274E-03    -227.014E-03     181.204E-03
            1420     8.60671E-03     81.8006E-03    -50.6931E+06     28.2333E+06     48.4654E+06    -562.805E+03    -231.177E-03     458.520E-03    -227.343E-03     209.176E-03    -239.803E-03     466.925E-03    -227.068E-03     178.746E-03
            1421     7.88777E-03     81.5294E-03    -58.7470E+06     4.14498E+06     38.0729E+06    -534.457E+03    -231.379E-03     458.768E-03    -227.390E-03     200.764E-03    -239.049E-03     466.135E-03    -227.120E-03     172.101E-03
            1422     7.17144E-03     81.2696E-03    -68.0559E+06    -38.5018E+06     20.9659E+06     198.403E+03    -231.425E-03     458.840E-03    -227.416E-03     188.351E-03    -237.926E-03     464.903E-03    -227.157E-03     162.016E-03
            1423     6.45375E-03     81.0281E-03    -77.1346E+06    -80.1943E+06     3.08255E+06     593.526E+03    -230.969E-03     458.401E-03    -227.432E-03     173.613E-03    -236.282E-03     463.146E-03    -227.188E-03     149.940E-03
            1424     5.73649E-03     80.8075E-03    -86.2066E+06    -122.805E+06    -15.2222E+06     977.464E+03    -230.478E-03     457.936E-03    -227.458E-03     157.367E-03    -234.673E-03     461.432E-03    -227.231E-03     136.494E-03
            1425     5.01934E-03     80.6090E-03     -95.328E+06    -156.705E+06    -34.0352E+06      789.72E+03    -230.089E-03     457.552E-03    -227.463E-03     139.727E-03    -233.284E-03     459.952E-03    -227.268E-03     121.695E-03
            1426     4.30193E-03     80.4336E-03    -104.007E+06    -183.234E+06    -52.6601E+06     212.474E+03    -229.568E-03     457.012E-03    -227.444E-03     121.298E-03    -231.914E-03     458.491E-03    -227.290E-03     106.073E-03
            1427     3.58506E-03     80.2827E-03    -112.289E+06    -222.439E+06    -71.1906E+06     354.244E+03    -228.932E-03     456.374E-03    -227.442E-03     102.158E-03    -230.554E-03     457.014E-03    -227.313E-03     89.6617E-03
            1428     2.86813E-03     80.1584E-03    -120.096E+06    -252.113E+06    -89.7170E+06     354.479E+03    -228.368E-03     455.806E-03    -227.437E-03     82.5172E-03    -229.417E-03     455.793E-03    -227.346E-03     72.6605E-03
            1429     2.15110E-03     80.0603E-03    -126.627E+06    -264.625E+06    -108.005E+06     76.7087E+03    -227.979E-03     455.386E-03    -227.406E-03     62.6778E-03    -228.606E-03     454.937E-03    -227.379E-03     55.3497E-03
            1430     1.43356E-03     79.9888E-03    -131.741E+06    -280.290E+06    -124.100E+06     109.070E+03    -227.729E-03     455.087E-03    -227.359E-03     42.5996E-03    -228.049E-03     454.305E-03    -227.382E-03     37.7176E-03
            1431     716.830E-06     79.9440E-03    -133.931E+06    -302.097E+06    -132.484E+06     392.107E+03    -227.474E-03     454.795E-03    -227.321E-03     22.9468E-03    -227.592E-03     453.750E-03    -227.352E-03     20.3110E-03
            1432     13.6321E-03     82.0240E-03    -3.55957E+06     74.4334E+06     88.7306E+06    -703.373E+03    -225.705E-03     452.888E-03    -227.183E-03     109.521E-03    -230.106E-03     457.283E-03    -226.842E-03     87.0326E-03
            1433     12.9118E-03     81.8347E-03    -10.3898E+06     70.0434E+06     87.0309E+06     -41.056E+03    -226.357E-03     453.577E-03    -227.220E-03     155.970E-03    -233.068E-03     460.247E-03    -226.871E-03     127.882E-03
            1434     12.1924E-03     81.6331E-03    -17.5892E+06     61.3029E+06     83.7966E+06     647.687E+03    -227.760E-03     455.011E-03    -227.251E-03     172.424E-03    -235.323E-03     462.486E-03    -226.895E-03     143.124E-03
            1435     11.4777E-03     81.3942E-03    -23.4156E+06     58.4838E+06     82.4817E+06     747.030E+03    -228.563E-03     455.839E-03    -227.276E-03     191.086E-03    -237.245E-03     464.406E-03    -226.914E-03     160.067E-03
            1436     10.7584E-03     81.1388E-03    -29.1488E+06     55.3340E+06     77.3407E+06    -63.5185E+03    -229.227E-03     456.528E-03    -227.301E-03     202.457E-03    -238.468E-03     465.638E-03    -226.952E-03     170.744E-03
            1437     10.0413E-03     80.8682E-03    -35.6638E+06     44.2209E+06     66.1893E+06    -862.090E+03    -230.298E-03     457.614E-03    -227.316E-03     210.506E-03    -239.783E-03     466.937E-03    -226.997E-03     178.457E-03
            1438     9.32387E-03     80.5875E-03    -43.0098E+06     33.8147E+06     55.2884E+06    -1.62987E+06    -231.061E-03     458.389E-03    -227.328E-03     212.722E-03    -240.327E-03     467.462E-03    -227.038E-03     181.071E-03
            1439     8.60547E-03     80.3094E-03    -51.3761E+06     26.9748E+06     47.5537E+06    -1.32227E+06    -231.409E-03     458.757E-03    -227.348E-03     209.021E-03    -240.039E-03     467.162E-03    -227.075E-03     178.534E-03
            1440     7.88901E-03     80.0357E-03    -60.4349E+06     2.53805E+06     36.6657E+06    -224.462E+03    -231.525E-03     458.901E-03    -227.376E-03     200.551E-03    -239.192E-03     466.256E-03    -227.109E-03     171.885E-03
            1441     7.17125E-03     79.7765E-03    -69.5204E+06    -39.1378E+06     20.1829E+06     176.225E+03    -231.231E-03     458.635E-03    -227.404E-03     188.398E-03    -237.737E-03     464.697E-03    -227.146E-03     162.086E-03
            1442     6.45400E-03     79.5362E-03    -78.8718E+06    -80.6571E+06     1.82653E+06     422.606E+03    -230.881E-03     458.314E-03    -227.433E-03     173.744E-03    -236.202E-03     463.063E-03    -227.193E-03     150.080E-03
            1443     5.73628E-03     79.3148E-03    -87.7105E+06    -123.535E+06    -16.4458E+06     240.410E+03    -230.574E-03     458.032E-03    -227.458E-03     157.189E-03    -234.768E-03     461.524E-03    -227.234E-03     136.308E-03
            1444     5.01904E-03     79.1159E-03    -95.9563E+06    -156.275E+06    -34.2025E+06     69.1392E+03    -230.129E-03     457.584E-03    -227.455E-03     139.633E-03    -233.324E-03     459.983E-03    -227.260E-03     121.598E-03
            1445     4.30249E-03     78.9406E-03    -104.332E+06    -182.724E+06    -52.8261E+06     76.0260E+03    -229.529E-03     456.961E-03    -227.432E-03     121.321E-03    -231.878E-03     458.444E-03    -227.280E-03     106.093E-03
            1446     3.58510E-03     78.7906E-03    -112.452E+06    -222.617E+06    -71.3446E+06    -3.30763E+03    -228.914E-03     456.349E-03    -227.435E-03     102.204E-03    -230.537E-03     456.990E-03    -227.306E-03     89.7043E-03
            1447     2.86768E-03     78.6657E-03    -120.036E+06    -251.739E+06    -89.9431E+06    -145.937E+03    -228.429E-03     455.850E-03    -227.421E-03     82.5187E-03    -229.477E-03     455.839E-03    -227.332E-03     72.6613E-03
            1448     2.15061E-03     78.5677E-03    -126.922E+06    -264.782E+06    -108.238E+06    -204.012E+03    -228.089E-03     455.444E-03    -227.355E-03     62.6313E-03    -228.716E-03     454.995E-03    -227.328E-03     55.2994E-03
            1449     1.43441E-03     78.4958E-03    -131.764E+06    -280.292E+06    -124.230E+06     8.45140E+03    -227.752E-03     454.998E-03    -227.246E-03     42.5393E-03    -228.072E-03     454.215E-03    -227.270E-03     37.6483E-03
            1450     717.548E-06     78.4519E-03    -134.273E+06    -301.564E+06    -133.484E+06    -165.234E+03    -227.515E-03     454.495E-03    -226.980E-03     22.8627E-03    -227.634E-03     453.454E-03    -227.015E-03     20.2307E-03
            1451     13.6270E-03     80.5324E-03    -5.49403E+06     72.4754E+06     86.1720E+06    -971.557E+03    -225.562E-03     452.760E-03    -227.199E-03     110.226E-03    -229.981E-03     457.168E-03    -226.865E-03     87.6834E-03
            1452     12.9107E-03     80.3424E-03    -9.76102E+06     68.8822E+06     87.1538E+06     48.6127E+03    -226.861E-03     454.096E-03    -227.235E-03     155.726E-03    -233.571E-03     460.763E-03    -226.885E-03     127.552E-03
            1453     12.1959E-03     80.1387E-03    -14.1462E+06     62.9119E+06     86.7087E+06     1.82474E+06    -227.826E-03     455.079E-03    -227.253E-03     171.696E-03    -235.370E-03     462.545E-03    -226.890E-03     142.397E-03
            1454     11.4760E-03     79.9025E-03    -20.8267E+06     60.4661E+06     84.7714E+06     689.438E+03    -228.346E-03     455.622E-03    -227.276E-03     190.533E-03    -237.013E-03     464.185E-03    -226.910E-03     159.531E-03
            1455     10.7592E-03     79.6468E-03    -28.0874E+06     56.2997E+06     77.6370E+06     12.4895E+03    -229.146E-03     456.449E-03    -227.303E-03     202.464E-03    -238.386E-03     465.563E-03    -226.955E-03     170.744E-03
            1456     10.0410E-03     79.3751E-03    -36.2434E+06     45.7292E+06     64.7722E+06    -459.970E+03    -230.294E-03     457.608E-03    -227.314E-03     210.478E-03    -239.785E-03     466.944E-03    -227.004E-03     178.411E-03
            1457     9.32305E-03     79.0954E-03    -44.5898E+06     35.0145E+06     53.6506E+06    -958.795E+03    -231.128E-03     458.450E-03    -227.322E-03     212.326E-03    -240.389E-03     467.521E-03    -227.040E-03     180.676E-03
            1458     8.60659E-03     78.8156E-03    -53.0500E+06     24.9116E+06     45.9738E+06    -951.296E+03    -231.552E-03     458.888E-03    -227.336E-03     208.890E-03    -240.182E-03     467.285E-03    -227.065E-03     178.392E-03
            1459     7.88884E-03     78.5428E-03    -61.7836E+06     1.12558E+06     35.9161E+06    -243.438E+03    -231.392E-03     458.757E-03    -227.365E-03     200.634E-03    -239.061E-03     466.106E-03    -227.097E-03     172.000E-03
            1460     7.17117E-03     78.2851E-03    -70.6077E+06       -39.3E+06     19.6067E+06    -160.223E+03    -231.124E-03     458.528E-03    -227.404E-03     188.446E-03    -237.634E-03     464.591E-03    -227.146E-03     162.149E-03
            1461     6.45337E-03     78.0426E-03    -78.8691E+06    -81.2463E+06     1.81648E+06    -615.335E+03    -230.998E-03     458.430E-03    -227.432E-03     173.657E-03    -236.319E-03     463.177E-03    -227.191E-03     149.961E-03
            1462     5.73680E-03     77.8223E-03    -86.9103E+06    -123.325E+06    -15.9855E+06    -635.582E+03    -230.640E-03     458.085E-03    -227.445E-03     157.179E-03    -234.831E-03     461.575E-03    -227.220E-03     136.280E-03
            1463     5.01969E-03     77.6232E-03    -95.3904E+06    -156.500E+06    -34.0759E+06    -554.786E+03    -230.064E-03     457.504E-03    -227.440E-03     139.709E-03    -233.257E-03     459.902E-03    -227.245E-03     121.673E-03
            1464     4.30179E-03     77.4481E-03    -103.950E+06    -183.087E+06    -52.9650E+06    -305.464E+03    -229.451E-03     456.878E-03    -227.427E-03     121.187E-03    -231.795E-03     458.356E-03    -227.276E-03     105.966E-03
            1465     3.58491E-03     77.2976E-03    -112.242E+06    -222.685E+06    -71.6214E+06    -253.337E+03    -228.957E-03     456.386E-03    -227.429E-03     102.035E-03    -230.576E-03     457.023E-03    -227.301E-03     89.5383E-03
            1466     2.86828E-03     77.1734E-03    -120.094E+06    -252.059E+06    -89.8941E+06    -337.916E+03    -228.519E-03     455.917E-03    -227.398E-03     82.5527E-03    -229.566E-03     455.904E-03    -227.308E-03     72.6905E-03
            1467     2.15144E-03     77.0747E-03    -126.891E+06    -265.177E+06    -108.376E+06    -188.331E+03    -228.060E-03     455.376E-03    -227.316E-03     62.7550E-03    -228.686E-03     454.925E-03    -227.290E-03     55.4262E-03
            1468     1.43393E-03     77.0035E-03    -131.975E+06    -280.537E+06    -124.186E+06    -84.6097E+03    -227.562E-03     454.819E-03    -227.258E-03     42.5382E-03    -227.883E-03     454.036E-03    -227.280E-03     37.6445E-03
            1469     716.590E-06     76.9602E-03    -134.000E+06    -301.193E+06    -132.996E+06    -24.4552E+03    -227.459E-03     454.619E-03    -227.160E-03     23.2169E-03    -227.579E-03     453.581E-03    -227.194E-03     20.5655E-03
            1470     13.6302E-03     79.0389E-03    -4.65732E+06     73.1695E+06     86.0891E+06     100.162E+03    -226.355E-03     453.566E-03    -227.211E-03     109.740E-03    -230.775E-03     457.979E-03    -226.880E-03     87.0973E-03
            1471     12.9130E-03     78.8486E-03    -10.1645E+06     69.0100E+06     87.2091E+06    -1.43811E+06    -227.021E-03     454.243E-03    -227.222E-03     155.372E-03    -233.739E-03     460.917E-03    -226.872E-03     127.128E-03
            1472     12.1931E-03     78.6460E-03    -15.5342E+06     61.5810E+06     86.2990E+06    -568.498E+03    -227.353E-03     454.603E-03    -227.250E-03     172.033E-03    -234.901E-03     462.064E-03    -226.886E-03     142.794E-03
            1473     11.4775E-03     78.4099E-03    -20.5786E+06     60.9269E+06     86.2514E+06     1.00437E+06    -228.320E-03     455.616E-03    -227.296E-03     190.858E-03    -236.994E-03     464.182E-03    -226.923E-03     159.880E-03
            1474     10.7587E-03     78.1554E-03    -27.8599E+06     56.4072E+06     79.0262E+06     1.35162E+06    -229.496E-03     456.810E-03    -227.314E-03     202.791E-03    -238.752E-03     465.938E-03    -226.960E-03     171.026E-03
            1475     10.0412E-03     77.8822E-03    -35.2315E+06     46.6992E+06     66.0175E+06     1.50398E+06    -230.481E-03     457.785E-03    -227.304E-03     210.340E-03    -239.961E-03     467.114E-03    -226.991E-03     178.301E-03
            1476     9.32428E-03     77.6029E-03    -43.0704E+06     36.6368E+06     54.7926E+06     1.50569E+06    -231.129E-03     458.431E-03    -227.302E-03     212.313E-03    -240.379E-03     467.500E-03    -227.019E-03     180.719E-03
            1477     8.60610E-03     77.3223E-03    -51.5936E+06     26.3226E+06     47.1681E+06     695.234E+03    -231.314E-03     458.641E-03    -227.327E-03     208.980E-03    -239.941E-03     467.041E-03    -227.055E-03     178.537E-03
            1478     7.88858E-03     77.0510E-03    -60.1849E+06     1.21753E+06     36.7150E+06    -498.001E+03    -231.345E-03     458.713E-03    -227.368E-03     200.513E-03    -239.008E-03     466.060E-03    -227.099E-03     171.869E-03
            1479     7.17121E-03     76.7917E-03    -68.1700E+06    -39.5922E+06     20.9280E+06    -1.14011E+06    -231.359E-03     458.757E-03    -227.398E-03     188.319E-03    -237.857E-03     464.812E-03    -227.137E-03     161.978E-03
            1480     6.45438E-03     76.5506E-03    -76.2617E+06    -81.1362E+06     3.54984E+06    -840.370E+03    -230.979E-03     458.394E-03    -227.415E-03     173.541E-03    -236.285E-03     463.130E-03    -227.169E-03     149.851E-03
            1481     5.73638E-03     76.3290E-03    -85.3517E+06    -123.620E+06    -15.1300E+06    -384.153E+03    -230.521E-03     457.953E-03    -227.432E-03     157.186E-03    -234.703E-03     461.437E-03    -227.205E-03     136.309E-03
            1482     5.01908E-03     76.1307E-03    -94.5756E+06    -157.220E+06    -34.0598E+06    -167.576E+03    -230.078E-03     457.508E-03    -227.430E-03     139.643E-03    -233.266E-03     459.901E-03    -227.235E-03     121.605E-03
            1483     4.30263E-03     75.9554E-03    -103.388E+06    -183.431E+06    -52.7979E+06    -53.1370E+03    -229.473E-03     456.886E-03    -227.413E-03     121.110E-03    -231.813E-03     458.360E-03    -227.261E-03     105.895E-03
            1484     3.58523E-03     75.8054E-03    -111.830E+06    -222.371E+06    -71.1379E+06    -101.665E+03    -228.942E-03     456.354E-03    -227.412E-03     102.055E-03    -230.559E-03     456.991E-03    -227.283E-03     89.5695E-03
            1485     2.86782E-03     75.6804E-03    -119.883E+06    -252.312E+06    -89.5033E+06    -121.916E+03    -228.477E-03     455.863E-03    -227.386E-03     82.6180E-03    -229.525E-03     455.849E-03    -227.293E-03     72.7546E-03
            1486     2.15075E-03     75.5824E-03    -126.811E+06    -265.373E+06    -108.239E+06    -190.239E+03    -227.954E-03     455.280E-03    -227.326E-03     62.6879E-03    -228.580E-03     454.827E-03    -227.298E-03     55.3640E-03
            1487     1.43412E-03     75.5113E-03    -131.457E+06    -280.718E+06    -124.085E+06    -285.649E+03    -227.563E-03     454.855E-03    -227.292E-03     42.3197E-03    -227.881E-03     454.070E-03    -227.315E-03     37.4133E-03
            1488     717.182E-06     75.4682E-03    -134.155E+06    -301.865E+06    -132.852E+06    -239.268E+03    -227.269E-03     454.702E-03    -227.432E-03     22.9856E-03    -227.389E-03     453.659E-03    -227.464E-03     20.3377E-03
            1489     13.6280E-03     77.5424E-03    -4.69039E+06     74.0992E+06     87.5776E+06     359.013E+03    -225.999E-03     453.199E-03    -227.199E-03     110.114E-03    -230.409E-03     457.601E-03    -226.862E-03     87.5829E-03
            1490     12.9112E-03     77.3562E-03    -9.58914E+06     71.1755E+06     88.2020E+06     40.2906E+03    -226.551E-03     453.780E-03    -227.229E-03     155.279E-03    -233.251E-03     460.443E-03    -226.878E-03     127.178E-03
            1491     12.1954E-03     77.1545E-03    -16.3566E+06     59.8940E+06     85.2059E+06    -1.07390E+06    -227.260E-03     454.532E-03    -227.272E-03     172.195E-03    -234.805E-03     461.984E-03    -226.909E-03     142.977E-03
            1492     11.4750E-03     76.9177E-03    -23.1440E+06     57.6323E+06     83.4798E+06    -822.426E+03    -228.523E-03     455.836E-03    -227.313E-03     191.004E-03    -237.202E-03     464.395E-03    -226.945E-03     159.976E-03
            1493     10.7587E-03     76.6611E-03    -28.5151E+06     55.6948E+06     78.6646E+06     109.637E+03    -229.773E-03     457.094E-03    -227.321E-03     202.664E-03    -239.039E-03     466.229E-03    -226.967E-03     170.823E-03
            1494     10.0418E-03     76.3900E-03    -34.4715E+06     45.4646E+06     67.4474E+06     645.176E+03    -230.652E-03     457.955E-03    -227.303E-03     210.548E-03    -240.141E-03     467.288E-03    -226.982E-03     178.463E-03
            1495     9.32359E-03     76.1097E-03    -40.4683E+06     35.8670E+06     57.4347E+06     1.68628E+06    -231.097E-03     458.398E-03    -227.300E-03     212.433E-03    -240.337E-03     467.455E-03    -227.007E-03     180.861E-03
            1496     8.60648E-03     75.8305E-03    -47.2998E+06     29.2093E+06     50.5681E+06     2.06022E+06    -231.280E-03     458.604E-03    -227.324E-03     208.756E-03    -239.883E-03     466.996E-03    -227.045E-03     178.359E-03
            1497     7.88875E-03     75.5581E-03    -55.4678E+06     4.41697E+06     39.8346E+06     1.08926E+06    -231.430E-03     458.790E-03    -227.359E-03     200.423E-03    -239.073E-03     466.136E-03    -227.086E-03     171.801E-03
            1498     7.17155E-03     75.2987E-03    -65.3352E+06    -39.1664E+06     22.1893E+06     432.412E+03    -231.319E-03     458.703E-03    -227.385E-03     188.359E-03    -237.806E-03     464.755E-03    -227.122E-03     162.043E-03
            1499     6.45385E-03     75.0577E-03    -75.6895E+06    -81.6650E+06     3.33695E+06     382.510E+03    -230.975E-03     458.378E-03    -227.403E-03     173.717E-03    -236.281E-03     463.115E-03    -227.158E-03     150.042E-03
            1500     5.73693E-03     74.8371E-03    -85.1004E+06    -124.166E+06    -14.9544E+06     396.867E+03    -230.579E-03     457.998E-03    -227.419E-03     157.268E-03    -234.763E-03     461.482E-03    -227.190E-03     136.388E-03
            1501     5.01977E-03     74.6376E-03    -94.1621E+06    -156.895E+06    -32.9450E+06     482.601E+03    -230.039E-03     457.457E-03    -227.417E-03     139.556E-03    -233.226E-03     459.848E-03    -227.218E-03     121.531E-03
            1502     4.30198E-03     74.4629E-03    -103.023E+06    -182.506E+06    -51.4948E+06     643.909E+03    -229.477E-03     456.876E-03    -227.399E-03     121.048E-03    -231.816E-03     458.351E-03    -227.242E-03     105.849E-03
            1503     3.58504E-03     74.3126E-03    -111.807E+06    -222.231E+06    -70.7924E+06     380.582E+03    -228.979E-03     456.365E-03    -227.386E-03     101.958E-03    -230.596E-03     457.002E-03    -227.255E-03     89.4724E-03
            1504     2.86834E-03     74.1881E-03    -119.929E+06    -252.167E+06    -89.4688E+06    -23.5739E+03    -228.437E-03     455.786E-03    -227.349E-03     82.3365E-03    -229.484E-03     455.771E-03    -227.257E-03     72.4757E-03
            1505     2.15130E-03     74.0899E-03    -126.427E+06    -265.067E+06    -107.739E+06    -177.337E+03    -227.905E-03     455.193E-03    -227.288E-03     62.2792E-03    -228.528E-03     454.739E-03    -227.259E-03     54.9502E-03
            1506     1.43383E-03     74.0191E-03    -131.328E+06    -281.076E+06    -124.324E+06    -256.554E+03    -227.559E-03     454.797E-03    -227.237E-03     42.1485E-03    -227.875E-03     454.008E-03    -227.261E-03     37.2591E-03
            1507     716.980E-06     73.9751E-03    -135.186E+06    -302.957E+06    -133.600E+06     163.963E+03    -227.399E-03     454.563E-03    -227.164E-03     22.7155E-03    -227.520E-03     453.516E-03    -227.197E-03     20.0803E-03
            1508     13.6307E-03     76.0525E-03    -4.09747E+06     75.2458E+06     88.4592E+06     655.723E+03    -225.608E-03     452.786E-03    -227.178E-03     109.245E-03    -229.985E-03     457.160E-03    -226.839E-03     86.8338E-03
            1509     12.9118E-03     75.8625E-03    -10.5454E+06     69.8436E+06     86.7215E+06     416.254E+03    -225.833E-03     453.063E-03    -227.230E-03     154.646E-03    -232.503E-03     459.693E-03    -226.883E-03     126.672E-03
            1510     12.1921E-03     75.6625E-03    -15.8967E+06     60.4270E+06     84.5393E+06    -16.7946E+03    -227.455E-03     454.741E-03    -227.286E-03     172.041E-03    -235.000E-03     462.199E-03    -226.928E-03     142.791E-03
            1511     11.4772E-03     75.4242E-03    -21.4637E+06     58.0742E+06     83.7047E+06    -894.838E+03    -228.824E-03     456.138E-03    -227.314E-03     190.920E-03    -237.503E-03     464.704E-03    -226.948E-03     159.826E-03
            1512     10.7589E-03     75.1687E-03    -28.6560E+06     53.5153E+06     77.0885E+06    -1.63435E+06    -229.726E-03     457.036E-03    -227.310E-03     202.461E-03    -238.983E-03     466.158E-03    -226.961E-03     170.602E-03
            1513     10.0409E-03     74.8964E-03    -35.6332E+06     44.3758E+06     65.2425E+06    -1.07173E+06    -230.565E-03     457.857E-03    -227.292E-03     210.317E-03    -240.054E-03     467.187E-03    -226.978E-03     178.203E-03
            1514     9.32435E-03     74.6172E-03    -42.8045E+06     33.9310E+06     54.7483E+06    -1.40390E+06    -231.123E-03     458.411E-03    -227.288E-03     212.239E-03    -240.366E-03     467.463E-03    -227.001E-03     180.612E-03
            1515     8.60635E-03     74.3380E-03    -49.9127E+06     26.7523E+06     48.5390E+06    -820.657E+03    -231.402E-03     458.710E-03    -227.308E-03     208.872E-03    -240.016E-03     467.100E-03    -227.031E-03     178.416E-03
            1516     7.88912E-03     74.0650E-03    -58.2888E+06     3.80013E+06     38.6164E+06     1.17847E+06    -231.373E-03     458.714E-03    -227.341E-03     200.531E-03    -239.025E-03     466.061E-03    -227.069E-03     171.931E-03
            1517     7.17138E-03     73.8066E-03    -67.6437E+06    -37.7540E+06     21.8030E+06     1.90009E+06    -231.183E-03     458.558E-03    -227.375E-03     188.343E-03    -237.680E-03     464.618E-03    -227.113E-03     162.068E-03
            1518     6.45401E-03     73.5651E-03    -76.9384E+06    -80.4671E+06     3.19921E+06     1.11604E+06    -231.030E-03     458.425E-03    -227.394E-03     173.591E-03    -236.340E-03     463.167E-03    -227.150E-03     149.925E-03
            1519     5.73666E-03     73.3437E-03    -86.0930E+06    -123.858E+06    -14.8841E+06     468.502E+03    -230.670E-03     458.069E-03    -227.400E-03     157.056E-03    -234.856E-03     461.553E-03    -227.170E-03     136.163E-03
            1520     5.01940E-03     73.1456E-03    -94.9521E+06    -156.417E+06    -32.5241E+06     633.508E+03    -230.041E-03     457.428E-03    -227.386E-03     139.345E-03    -233.232E-03     459.820E-03    -227.184E-03     121.323E-03
            1521     4.30266E-03     72.9701E-03    -103.762E+06    -182.392E+06    -51.6052E+06     550.823E+03    -229.412E-03     456.775E-03    -227.362E-03     120.878E-03    -231.750E-03     458.246E-03    -227.205E-03     105.697E-03
            1522     3.58553E-03     72.8201E-03    -111.955E+06    -221.824E+06    -70.6495E+06     425.130E+03    -228.894E-03     456.250E-03    -227.356E-03     101.960E-03    -230.511E-03     456.888E-03    -227.225E-03     89.4879E-03
            1523     2.86823E-03     72.6955E-03    -119.435E+06    -251.066E+06    -89.1114E+06     171.549E+03    -228.384E-03     455.714E-03    -227.330E-03     82.6037E-03    -229.430E-03     455.704E-03    -227.239E-03     72.7530E-03
            1524     2.15118E-03     72.5977E-03    -126.972E+06    -265.311E+06    -107.886E+06    -258.762E+03    -227.907E-03     455.184E-03    -227.276E-03     62.6604E-03    -228.536E-03     454.732E-03    -227.247E-03     55.3270E-03
            1525     1.43450E-03     72.5269E-03    -132.930E+06    -282.243E+06    -124.325E+06     245.256E+03    -227.508E-03     454.751E-03    -227.243E-03     42.4221E-03    -227.830E-03     453.960E-03    -227.263E-03     37.5498E-03
            1526     717.084E-06     72.4835E-03    -134.510E+06    -302.026E+06    -133.425E+06     345.101E+03    -227.666E-03     454.598E-03    -226.932E-03     22.9344E-03    -227.786E-03     453.555E-03    -226.966E-03     20.3043E-03
            1527     13.6300E-03     74.5602E-03    -4.82545E+06     73.3996E+06     87.5003E+06     157.583E+03    -225.774E-03     452.985E-03    -227.211E-03     110.625E-03    -230.211E-03     457.411E-03    -226.873E-03     88.0413E-03
            1528     12.9114E-03     74.3739E-03    -8.68314E+06     70.9860E+06     88.4276E+06     1.26175E+06    -226.707E-03     453.952E-03    -227.245E-03     155.986E-03    -233.421E-03     460.631E-03    -226.893E-03     127.867E-03
            1529     12.1949E-03     74.1686E-03    -14.1894E+06     62.6749E+06     86.2512E+06     59.1337E+03    -227.704E-03     454.972E-03    -227.268E-03     171.478E-03    -235.237E-03     462.428E-03    -226.907E-03     142.184E-03
            1530     11.4755E-03     73.9311E-03    -20.7983E+06     58.8700E+06     83.8748E+06    -493.782E+03    -228.591E-03     455.879E-03    -227.288E-03     190.490E-03    -237.258E-03     464.437E-03    -226.923E-03     159.425E-03
            1531     10.7589E-03     73.6755E-03    -28.0580E+06     54.3427E+06     77.2266E+06    -148.170E+03    -229.603E-03     456.896E-03    -227.293E-03     202.367E-03    -238.853E-03     466.015E-03    -226.944E-03     170.548E-03
            1532     10.0421E-03     73.4039E-03    -35.7610E+06     44.5375E+06     65.4109E+06    -1.19078E+06    -230.418E-03     457.702E-03    -227.284E-03     210.260E-03    -239.897E-03     467.023E-03    -226.970E-03     178.185E-03
            1533     9.32362E-03     73.1245E-03    -43.5973E+06     33.9002E+06     54.5614E+06    -1.49287E+06    -231.078E-03     458.366E-03    -227.288E-03     212.532E-03    -240.335E-03     467.431E-03    -227.001E-03     180.895E-03
            1534     8.60671E-03     72.8449E-03    -53.1994E+06     23.8689E+06     46.2126E+06    -823.304E+03    -231.422E-03     458.730E-03    -227.307E-03     209.099E-03    -240.055E-03     467.124E-03    -227.034E-03     178.622E-03
            1535     7.88900E-03     72.5728E-03    -62.6852E+06     884.832E+03     35.8806E+06    -484.867E+03    -231.430E-03     458.768E-03    -227.337E-03     200.709E-03    -239.106E-03     466.120E-03    -227.068E-03     172.061E-03
            1536     7.17147E-03     72.3141E-03    -70.6825E+06    -38.1733E+06     20.6806E+06    -455.901E+03    -231.424E-03     458.781E-03    -227.357E-03     188.321E-03    -237.935E-03     464.846E-03    -227.096E-03     161.987E-03
            1537     6.45430E-03     72.0720E-03    -78.3768E+06    -79.9098E+06     3.45802E+06     42.9973E+03    -231.128E-03     458.484E-03    -227.356E-03     173.261E-03    -236.439E-03     463.223E-03    -227.109E-03     149.579E-03
            1538     5.73717E-03     71.8515E-03    -86.8605E+06    -123.173E+06    -15.1164E+06     298.919E+03    -230.554E-03     457.903E-03    -227.349E-03     156.637E-03    -234.733E-03     461.380E-03    -227.120E-03     135.779E-03
            1539     5.02021E-03     71.6525E-03    -95.5303E+06    -156.665E+06    -33.4357E+06    -157.670E+03    -229.905E-03     457.247E-03    -227.341E-03     139.247E-03    -233.091E-03     459.635E-03    -227.143E-03     121.239E-03
            1540     4.30261E-03     71.4783E-03    -103.619E+06    -182.794E+06    -51.7133E+06    -205.878E+03    -229.267E-03     456.606E-03    -227.339E-03     121.201E-03    -231.607E-03     458.079E-03    -227.182E-03     106.013E-03
            1541     3.58520E-03     71.3275E-03    -111.704E+06    -221.550E+06    -70.2047E+06    -7.22534E+03    -228.730E-03     456.096E-03    -227.366E-03     102.246E-03    -230.349E-03     456.735E-03    -227.234E-03     89.7844E-03
            1542     2.86811E-03     71.2036E-03    -119.874E+06    -250.687E+06    -88.6592E+06     114.669E+03    -228.271E-03     455.652E-03    -227.381E-03     82.7491E-03    -229.323E-03     455.645E-03    -227.287E-03     72.8981E-03
            1543     2.15093E-03     71.1049E-03    -127.256E+06    -265.404E+06    -108.085E+06     519.365E+03    -227.858E-03     455.227E-03    -227.369E-03     62.6960E-03    -228.485E-03     454.774E-03    -227.340E-03     55.4008E-03
            1544     1.43356E-03     71.0350E-03    -132.200E+06    -282.153E+06    -124.282E+06     207.284E+03    -227.573E-03     454.953E-03    -227.380E-03     42.5457E-03    -227.891E-03     454.160E-03    -227.400E-03     37.6758E-03
            1545     716.832E-06     70.9909E-03    -134.201E+06    -302.011E+06    -133.319E+06    -519.833E+03    -227.658E-03     454.920E-03    -227.262E-03     23.4145E-03    -227.777E-03     453.878E-03    -227.296E-03     20.7635E-03
            1546     13.6259E-03     73.0681E-03    -5.60366E+06     72.7653E+06     86.4593E+06    -323.469E+03    -225.996E-03     453.234E-03    -227.238E-03     108.889E-03    -230.410E-03     457.635E-03    -226.903E-03     86.2730E-03
            1547     12.9110E-03     72.8757E-03    -9.58566E+06     70.8935E+06     88.5646E+06    -869.638E+03    -227.262E-03     454.513E-03    -227.251E-03     154.898E-03    -233.971E-03     461.182E-03    -226.897E-03     126.653E-03
            1548     12.1944E-03     72.6766E-03    -14.1312E+06     63.1138E+06     87.4421E+06    -401.133E+03    -227.887E-03     455.140E-03    -227.253E-03     171.723E-03    -235.439E-03     462.612E-03    -226.886E-03     142.379E-03
            1549     11.4778E-03     72.4400E-03    -20.8515E+06     57.5761E+06     84.0906E+06     565.298E+03    -228.566E-03     455.831E-03    -227.265E-03     190.882E-03    -237.239E-03     464.391E-03    -226.898E-03     159.839E-03
            1550     10.7594E-03     72.1820E-03    -28.3381E+06     55.1847E+06     76.8854E+06     1.14312E+06    -229.344E-03     456.619E-03    -227.275E-03     202.494E-03    -238.590E-03     465.738E-03    -226.930E-03     170.741E-03
            1551     10.0410E-03     71.9119E-03    -36.7673E+06     47.8831E+06     64.9264E+06     716.944E+03    -230.322E-03     457.598E-03    -227.276E-03     210.368E-03    -239.818E-03     466.946E-03    -226.968E-03     178.306E-03
            1552     9.32409E-03     71.6316E-03    -46.1697E+06     34.3822E+06     52.9778E+06    -278.857E+03    -231.054E-03     458.338E-03    -227.284E-03     212.421E-03    -240.315E-03     467.404E-03    -227.002E-03     180.809E-03
            1553     8.60616E-03     71.3520E-03    -53.7100E+06     23.3088E+06     45.7765E+06    -886.528E+03    -231.418E-03     458.726E-03    -227.307E-03     208.808E-03    -240.038E-03     467.104E-03    -227.034E-03     178.354E-03
            1554     7.88868E-03     71.0803E-03    -60.8092E+06     962.596E+03     36.9463E+06    -1.43480E+06    -231.681E-03     459.007E-03    -227.326E-03     200.336E-03    -239.339E-03     466.346E-03    -227.055E-03     171.657E-03
            1555     7.17185E-03     70.8202E-03    -69.0829E+06    -39.5851E+06     20.9280E+06    -1.42270E+06    -231.532E-03     458.854E-03    -227.322E-03     188.038E-03    -238.025E-03     464.901E-03    -227.060E-03     161.691E-03
            1556     6.45486E-03     70.5799E-03    -77.8457E+06    -82.0266E+06     2.95777E+06    -1.00289E+06    -230.988E-03     458.306E-03    -227.318E-03     173.466E-03    -236.296E-03     463.038E-03    -227.072E-03     149.781E-03
            1557     5.73762E-03     70.3584E-03    -85.9944E+06    -123.299E+06    -14.7510E+06    -483.553E+03    -230.377E-03     457.711E-03    -227.334E-03     157.274E-03    -234.561E-03     461.194E-03    -227.104E-03     136.422E-03
            1558     5.01981E-03     70.1613E-03    -94.2486E+06    -156.475E+06    -32.8383E+06    -467.688E+03    -229.810E-03     457.162E-03    -227.352E-03     139.842E-03    -232.997E-03     459.555E-03    -227.153E-03     121.841E-03
            1559     4.30250E-03     69.9855E-03    -103.069E+06    -183.237E+06    -51.3224E+06    -519.685E+03    -229.278E-03     456.643E-03    -227.365E-03     121.408E-03    -231.619E-03     458.117E-03    -227.207E-03     106.210E-03
            1560     3.58526E-03     69.8360E-03    -111.787E+06    -221.890E+06    -70.1142E+06    -46.9833E+03    -228.801E-03     456.189E-03    -227.388E-03     102.153E-03    -230.419E-03     456.826E-03    -227.255E-03     89.6830E-03
            1561     2.86787E-03     69.7107E-03    -120.128E+06    -251.408E+06    -89.3035E+06     310.786E+03    -228.292E-03     455.684E-03    -227.392E-03     82.4056E-03    -229.340E-03     455.672E-03    -227.300E-03     72.5668E-03
            1562     2.15077E-03     69.6132E-03    -126.517E+06    -264.963E+06    -108.062E+06     255.528E+03    -227.818E-03     455.203E-03    -227.385E-03     62.3005E-03    -228.440E-03     454.748E-03    -227.358E-03     55.0037E-03
            1563     1.43387E-03     69.5419E-03    -131.190E+06    -281.201E+06    -123.804E+06    -29.5075E+03    -227.566E-03     454.979E-03    -227.412E-03     42.1771E-03    -227.881E-03     454.188E-03    -227.434E-03     37.2952E-03
            1564     716.775E-06     69.4983E-03    -134.506E+06    -302.529E+06    -132.905E+06    -48.6736E+03    -227.592E-03     454.998E-03    -227.407E-03     23.1448E-03    -227.712E-03     453.953E-03    -227.437E-03     20.4821E-03
            1565     13.6321E-03     71.5738E-03    -4.66039E+06     74.5197E+06     87.3405E+06    -781.923E+03    -226.229E-03     453.424E-03    -227.195E-03     108.812E-03    -230.629E-03     457.819E-03    -226.860E-03     86.2259E-03
            1566     12.9126E-03     71.3850E-03    -9.53946E+06     70.8601E+06     88.0027E+06    -1.01654E+06    -226.397E-03     453.618E-03    -227.221E-03     154.848E-03    -233.088E-03     460.272E-03    -226.870E-03     126.734E-03
            1567     12.1938E-03     71.1829E-03    -16.2674E+06     61.1534E+06     85.5641E+06    -506.972E+03    -227.525E-03     454.783E-03    -227.259E-03     172.056E-03    -235.078E-03     462.248E-03    -226.896E-03     142.789E-03
            1568     11.4763E-03     70.9453E-03    -22.7512E+06     55.3734E+06     83.2747E+06     206.753E+03    -228.755E-03     456.039E-03    -227.284E-03     191.230E-03    -237.453E-03     464.611E-03    -226.915E-03     160.138E-03
            1569     10.7592E-03     70.6919E-03    -29.2396E+06     54.0979E+06     77.6744E+06     1.20880E+06    -229.549E-03     456.838E-03    -227.289E-03     202.878E-03    -238.814E-03     465.966E-03    -226.936E-03     171.097E-03
            1570     10.0417E-03     70.4182E-03    -36.0798E+06     49.2400E+06     66.7863E+06     2.02989E+06    -230.446E-03     457.726E-03    -227.280E-03     210.358E-03    -239.932E-03     467.065E-03    -226.965E-03     178.335E-03
            1571     9.32408E-03     70.1394E-03    -42.1089E+06     37.3875E+06     55.9733E+06     1.61019E+06    -231.184E-03     458.461E-03    -227.277E-03     212.213E-03    -240.424E-03     467.522E-03    -226.990E-03     180.627E-03
            1572     8.60659E-03     69.8599E-03    -49.4391E+06     26.3440E+06     48.5908E+06    -516.786E+03    -231.664E-03     458.945E-03    -227.281E-03     208.638E-03    -240.271E-03     467.329E-03    -227.004E-03     178.151E-03
            1573     7.88978E-03     69.5862E-03    -57.9854E+06     361.122E+03     38.2194E+06    -1.52870E+06    -231.606E-03     458.895E-03    -227.288E-03     200.141E-03    -239.242E-03     466.215E-03    -227.014E-03     171.480E-03
            1574     7.17233E-03     69.3284E-03    -66.7033E+06    -40.8016E+06     21.9269E+06    -876.411E+03    -231.185E-03     458.490E-03    -227.305E-03     188.337E-03    -237.671E-03     464.530E-03    -227.039E-03     162.033E-03
            1575     6.45451E-03     69.0868E-03    -75.6511E+06    -82.0958E+06     3.75133E+06    -522.218E+03    -230.745E-03     458.079E-03    -227.334E-03     173.783E-03    -236.046E-03     462.809E-03    -227.087E-03     150.140E-03
            1576     5.73660E-03     68.8672E-03    -84.8556E+06    -124.287E+06    -14.5617E+06    -646.730E+03    -230.346E-03     457.718E-03    -227.371E-03     157.283E-03    -234.524E-03     461.195E-03    -227.141E-03     136.425E-03
            1577     5.01947E-03     68.6680E-03    -94.1016E+06    -156.997E+06    -32.7683E+06    -130.494E+03    -229.944E-03     457.329E-03    -227.385E-03     139.564E-03    -233.129E-03     459.718E-03    -227.185E-03     121.548E-03
            1578     4.30228E-03     68.4937E-03    -103.332E+06    -183.497E+06    -52.0031E+06     177.448E+03    -229.440E-03     456.811E-03    -227.370E-03     121.019E-03    -231.775E-03     458.278E-03    -227.215E-03     105.828E-03
            1579     3.58511E-03     68.3428E-03    -111.851E+06    -222.621E+06    -70.8980E+06     93.6929E+03    -228.891E-03     456.257E-03    -227.366E-03     101.885E-03    -230.505E-03     456.889E-03    -227.235E-03     89.4198E-03
            1580     2.86842E-03     68.2188E-03    -119.399E+06    -250.943E+06    -89.2346E+06     208.269E+03    -228.301E-03     455.653E-03    -227.352E-03     82.2916E-03    -229.344E-03     455.640E-03    -227.261E-03     72.4586E-03
            1581     2.15118E-03     68.1207E-03    -126.684E+06    -264.784E+06    -107.929E+06     132.840E+03    -227.832E-03     455.163E-03    -227.330E-03     62.5045E-03    -228.458E-03     454.711E-03    -227.302E-03     55.1963E-03
            1582     1.43399E-03     68.0496E-03    -131.883E+06    -281.143E+06    -123.808E+06     174.132E+03    -227.593E-03     454.910E-03    -227.317E-03     42.3666E-03    -227.911E-03     454.121E-03    -227.337E-03     37.4995E-03
            1583     716.987E-06     68.0058E-03    -134.279E+06    -302.234E+06    -133.073E+06     252.602E+03    -227.623E-03     454.747E-03    -227.124E-03     23.2278E-03    -227.742E-03     453.703E-03    -227.157E-03     20.5969E-03
            1584     13.6275E-03     70.0788E-03    -4.14986E+06     75.2956E+06     86.7782E+06    -383.695E+03    -225.668E-03     452.848E-03    -227.180E-03     109.983E-03    -230.089E-03     457.270E-03    -226.849E-03     87.3797E-03
            1585     12.9114E-03     69.8941E-03    -10.3858E+06     70.0924E+06     86.3030E+06    -245.337E+03    -226.537E-03     453.754E-03    -227.217E-03     155.330E-03    -233.252E-03     460.430E-03    -226.872E-03     127.159E-03
            1586     12.1941E-03     69.6898E-03    -16.3115E+06     60.4576E+06     84.1586E+06     173.456E+03    -227.312E-03     454.570E-03    -227.258E-03     171.976E-03    -234.851E-03     462.021E-03    -226.901E-03     142.761E-03
            1587     11.4764E-03     69.4535E-03    -22.7232E+06     53.8484E+06     81.3613E+06     182.052E+03    -228.450E-03     455.748E-03    -227.298E-03     190.814E-03    -237.113E-03     464.286E-03    -226.937E-03     159.805E-03
            1588     10.7587E-03     69.1972E-03    -28.8419E+06     53.5996E+06     77.1425E+06    -259.989E+03    -229.822E-03     457.131E-03    -227.309E-03     202.895E-03    -239.084E-03     466.258E-03    -226.960E-03     171.060E-03
            1589     10.0417E-03     68.9261E-03    -33.6788E+06     48.2139E+06     68.8582E+06    -908.396E+03    -230.796E-03     458.088E-03    -227.291E-03     210.534E-03    -240.283E-03     467.426E-03    -226.968E-03     178.424E-03
            1590     9.32389E-03     68.6467E-03    -39.0890E+06     35.9859E+06     58.9286E+06    -365.689E+03    -231.474E-03     458.743E-03    -227.269E-03     212.287E-03    -240.714E-03     467.802E-03    -226.970E-03     180.621E-03
            1591     8.60731E-03     68.3654E-03    -46.3351E+06     28.7133E+06     51.6447E+06     1.52374E+06    -231.559E-03     458.820E-03    -227.261E-03     208.802E-03    -240.159E-03     467.208E-03    -226.978E-03     178.364E-03
            1592     7.88964E-03     68.0947E-03    -55.9565E+06     2.38627E+06     39.5166E+06     1.39770E+06    -231.294E-03     458.579E-03    -227.285E-03     200.719E-03    -238.936E-03     465.916E-03    -227.009E-03     172.133E-03
            1593     7.17163E-03     67.8357E-03    -66.4300E+06    -40.4685E+06     21.7202E+06     352.710E+03    -231.104E-03     458.427E-03    -227.322E-03     188.502E-03    -237.591E-03     464.471E-03    -227.059E-03     162.229E-03
            1594     6.45414E-03     67.5952E-03    -76.2616E+06    -82.1044E+06     3.37204E+06     197.682E+03    -230.829E-03     458.182E-03    -227.353E-03     173.440E-03    -236.125E-03     462.906E-03    -227.107E-03     149.800E-03
            1595     5.73714E-03     67.3742E-03    -85.8600E+06    -124.448E+06    -15.4082E+06     416.392E+03    -230.515E-03     457.885E-03    -227.370E-03     156.852E-03    -234.691E-03     461.359E-03    -227.142E-03     135.996E-03
            1596     5.01982E-03     67.1760E-03    -95.1456E+06    -157.515E+06    -33.9467E+06     303.703E+03    -230.032E-03     457.392E-03    -227.360E-03     139.213E-03    -233.213E-03     459.774E-03    -227.163E-03     121.207E-03
            1597     4.30269E-03     67.0007E-03    -103.774E+06    -183.414E+06    -52.4576E+06     365.098E+03    -229.390E-03     456.728E-03    -227.338E-03     120.882E-03    -231.725E-03     458.195E-03    -227.183E-03     105.703E-03
            1598     3.58571E-03     66.8508E-03    -112.247E+06    -222.035E+06    -71.2428E+06     306.113E+03    -228.788E-03     456.130E-03    -227.342E-03     102.003E-03    -230.405E-03     456.767E-03    -227.213E-03     89.5467E-03
            1599     2.86803E-03     66.7265E-03    -120.454E+06    -251.222E+06    -89.8610E+06     2.74437E+03    -228.287E-03     455.625E-03    -227.338E-03     82.4857E-03    -229.336E-03     455.616E-03    -227.249E-03     72.6461E-03
            1600     2.15095E-03     66.6286E-03    -127.287E+06    -264.850E+06    -108.141E+06     22.1378E+03    -227.856E-03     455.168E-03    -227.312E-03     62.6379E-03    -228.484E-03     454.718E-03    -227.284E-03     55.3300E-03
            1601     1.43397E-03     66.5571E-03    -132.605E+06    -280.952E+06    -124.606E+06     98.5846E+03    -227.582E-03     454.867E-03    -227.286E-03     42.6076E-03    -227.904E-03     454.082E-03    -227.309E-03     37.7356E-03
            1602     717.183E-06     66.5131E-03    -135.082E+06    -302.138E+06    -133.567E+06     408.800E+03    -227.499E-03     454.682E-03    -227.183E-03     23.3093E-03    -227.622E-03     453.640E-03    -227.217E-03     20.6722E-03
            1603     13.6303E-03     68.5881E-03    -3.43543E+06     75.1164E+06     87.6992E+06     715.410E+03    -225.403E-03     452.580E-03    -227.177E-03     108.770E-03    -229.785E-03     456.963E-03    -226.843E-03     86.3146E-03
            1604     12.9117E-03     68.3991E-03    -10.1631E+06      69.204E+06     86.4079E+06     761.783E+03    -226.286E-03     453.511E-03    -227.225E-03     154.847E-03    -232.968E-03     460.153E-03    -226.879E-03     126.777E-03
            1605     12.1946E-03     68.1985E-03    -16.5290E+06     60.7972E+06     83.8083E+06     45.0231E+03    -227.504E-03     454.768E-03    -227.265E-03     172.188E-03    -235.055E-03     462.234E-03    -226.910E-03     142.919E-03
            1606     11.4761E-03     67.9616E-03    -21.9482E+06     54.9480E+06     81.5423E+06    -713.254E+03    -228.712E-03     456.005E-03    -227.293E-03     191.128E-03    -237.384E-03     464.557E-03    -226.933E-03     160.051E-03
            1607     10.7587E-03     67.7035E-03    -28.0539E+06     54.1137E+06     76.5805E+06    -1.69112E+06    -229.804E-03     457.094E-03    -227.290E-03     202.062E-03    -239.041E-03     466.202E-03    -226.945E-03     170.198E-03
            1608     10.0410E-03     67.4331E-03    -36.5248E+06     49.2498E+06     66.2132E+06    -2.50734E+06    -230.748E-03     458.008E-03    -227.260E-03     209.766E-03    -240.240E-03     467.353E-03    -226.947E-03     177.590E-03
            1609     9.32502E-03     67.1518E-03    -45.7733E+06     33.5341E+06     53.4387E+06    -3.35892E+06    -231.203E-03     458.442E-03    -227.239E-03     212.210E-03    -240.457E-03     467.497E-03    -226.954E-03     180.542E-03
            1610     8.60696E-03     66.8746E-03    -53.8669E+06     22.2316E+06     45.3116E+06    -2.47080E+06    -231.191E-03     458.449E-03    -227.258E-03     208.994E-03    -239.805E-03     466.819E-03    -226.986E-03     178.570E-03
            1611     7.88875E-03     66.6015E-03    -60.9685E+06     1.63533E+06     36.7484E+06     128.531E+03    -231.282E-03     458.586E-03    -227.303E-03     200.573E-03    -238.937E-03     465.923E-03    -227.034E-03     171.986E-03
            1612     7.17183E-03     66.3434E-03    -69.1911E+06    -38.6771E+06     20.8109E+06     995.912E+03    -231.255E-03     458.589E-03    -227.334E-03     188.125E-03    -237.748E-03     464.639E-03    -227.074E-03     161.852E-03
            1613     6.45456E-03     66.1025E-03    -78.5335E+06    -82.5327E+06     1.86143E+06     625.474E+03    -231.009E-03     458.353E-03    -227.344E-03     173.380E-03    -236.315E-03     463.082E-03    -227.101E-03     149.725E-03
            1614     5.73704E-03     65.8817E-03    -87.4295E+06    -124.543E+06    -16.3628E+06     332.601E+03    -230.582E-03     457.928E-03    -227.345E-03     156.989E-03    -234.768E-03     461.408E-03    -227.120E-03     136.118E-03
            1615     5.02001E-03     65.6832E-03    -96.0265E+06    -157.119E+06    -34.2320E+06     340.387E+03    -229.954E-03     457.290E-03    -227.336E-03     139.421E-03    -233.144E-03     459.680E-03    -227.140E-03     121.415E-03
            1616     4.30271E-03     65.5087E-03    -104.690E+06    -183.281E+06    -52.8792E+06     129.683E+03    -229.269E-03     456.598E-03    -227.329E-03     121.119E-03    -231.612E-03     458.072E-03    -227.176E-03     105.938E-03
            1617     3.58498E-03     65.3587E-03    -113.105E+06    -221.775E+06    -71.6239E+06     74.2975E+03    -228.752E-03     456.100E-03    -227.348E-03     102.095E-03    -230.374E-03     456.741E-03    -227.221E-03     89.6309E-03
            1618     2.86828E-03     65.2341E-03    -120.913E+06    -251.046E+06    -90.2973E+06     52.7194E+03    -228.311E-03     455.657E-03    -227.346E-03     82.4862E-03    -229.363E-03     455.651E-03    -227.258E-03     72.6408E-03
            1619     2.15123E-03     65.1363E-03    -127.889E+06    -264.966E+06    -108.936E+06    -334.334E+03    -227.884E-03     455.195E-03    -227.311E-03     62.6580E-03    -228.515E-03     454.747E-03    -227.286E-03     55.3291E-03
            1620     1.43403E-03     65.0649E-03    -133.179E+06    -281.052E+06    -125.640E+06    -173.282E+03    -227.551E-03     454.838E-03    -227.288E-03     42.6463E-03    -227.875E-03     454.056E-03    -227.315E-03     37.7571E-03
            1621     716.720E-06     65.0207E-03    -135.630E+06    -302.254E+06    -134.109E+06    -154.730E+03    -227.371E-03     454.706E-03    -227.335E-03     23.0772E-03    -227.496E-03     453.666E-03    -227.371E-03     20.4338E-03
            1622     13.6300E-03     67.0993E-03    -4.79774E+06     73.6533E+06     87.6592E+06     692.231E+03    -225.693E-03     452.886E-03    -227.193E-03     110.290E-03    -230.107E-03     457.291E-03    -226.855E-03     87.7974E-03
            1623     12.9115E-03     66.9064E-03    -9.54905E+06     70.2777E+06     88.2482E+06     1.22189E+06    -226.430E-03     453.668E-03    -227.238E-03     155.764E-03    -233.119E-03     460.317E-03    -226.885E-03     127.741E-03
            1624     12.1927E-03     66.7067E-03    -14.3807E+06     62.9863E+06     87.0236E+06     659.234E+03    -227.878E-03     455.144E-03    -227.266E-03     171.541E-03    -235.413E-03     462.600E-03    -226.902E-03     142.228E-03
            1625     11.4769E-03     66.4660E-03    -21.2163E+06     57.8467E+06     84.0320E+06    -551.937E+03    -229.072E-03     456.334E-03    -227.262E-03     190.217E-03    -237.751E-03     464.899E-03    -226.895E-03     159.030E-03
            1626     10.7600E-03     66.2127E-03    -29.7990E+06     53.4065E+06     75.6001E+06    -515.478E+03    -229.728E-03     456.961E-03    -227.234E-03     201.855E-03    -238.968E-03     466.066E-03    -226.890E-03     170.009E-03
            1627     10.0432E-03     65.9387E-03    -38.3735E+06     50.6935E+06     64.2644E+06     269.738E+03    -230.273E-03     457.486E-03    -227.213E-03     210.020E-03    -239.750E-03     466.820E-03    -226.909E-03     178.015E-03
            1628     9.32413E-03     65.6613E-03    -46.8275E+06     37.8050E+06     52.5703E+06    -1.19802E+06    -230.779E-03     458.006E-03    -227.227E-03     212.328E-03    -240.035E-03     467.078E-03    -226.951E-03     180.759E-03
            1629     8.60632E-03     65.3811E-03    -55.6381E+06     20.0527E+06     42.9409E+06    -3.44884E+06    -231.311E-03     458.571E-03    -227.260E-03     208.707E-03    -239.926E-03     466.935E-03    -226.993E-03     178.236E-03
            1630     7.88970E-03     65.1097E-03    -64.5027E+06    -3.55236E+06     33.3581E+06    -3.71521E+06    -231.385E-03     458.678E-03    -227.293E-03     200.237E-03    -239.040E-03     465.994E-03    -227.027E-03     171.579E-03
            1631     7.17163E-03     64.8505E-03    -72.2857E+06    -42.2941E+06     18.4971E+06    -1.91138E+06    -231.234E-03     458.552E-03    -227.318E-03     188.054E-03    -237.732E-03     464.589E-03    -227.059E-03     161.743E-03
            1632     6.45429E-03     64.6098E-03    -79.6106E+06    -82.7322E+06     1.47379E+06    -542.808E+03    -230.966E-03     458.295E-03    -227.329E-03     173.303E-03    -236.274E-03     463.023E-03    -227.086E-03     149.634E-03
            1633     5.73733E-03     64.3891E-03    -88.0112E+06    -124.289E+06    -16.4532E+06    -381.107E+03    -230.434E-03     457.773E-03    -227.340E-03     156.974E-03    -234.623E-03     461.257E-03    -227.114E-03     136.102E-03
            1634     5.01985E-03     64.1910E-03    -96.8767E+06    -157.052E+06    -34.5704E+06    -242.999E+03    -229.808E-03     457.158E-03    -227.350E-03     139.500E-03    -233.003E-03     459.552E-03    -227.155E-03     121.497E-03
            1635     4.30238E-03     64.0166E-03    -105.437E+06    -183.485E+06    -53.4881E+06    -204.582E+03    -229.305E-03     456.658E-03    -227.352E-03     121.211E-03    -231.653E-03     458.135E-03    -227.201E-03     106.014E-03
            1636     3.58564E-03     63.8663E-03    -113.634E+06    -222.345E+06    -72.3741E+06    -335.140E+03    -228.860E-03     456.221E-03    -227.361E-03     102.127E-03    -230.485E-03     456.863E-03    -227.236E-03     89.6491E-03
            1637     2.86807E-03     63.7420E-03    -121.479E+06    -251.122E+06    -90.9736E+06    -210.509E+03    -228.386E-03     455.726E-03    -227.340E-03     82.4757E-03    -229.439E-03     455.720E-03    -227.254E-03     72.6255E-03
            1638     2.15086E-03     63.6438E-03    -128.016E+06    -264.929E+06    -109.745E+06    -35.4964E+03    -227.969E-03     455.241E-03    -227.272E-03     62.4382E-03    -228.598E-03     454.794E-03    -227.251E-03     55.1172E-03
            1639     1.43401E-03     63.5726E-03    -132.911E+06    -281.314E+06    -125.734E+06    -306.377E+03    -227.584E-03     454.783E-03    -227.198E-03     42.2566E-03    -227.904E-03     453.997E-03    -227.226E-03     37.3783E-03
            1640     717.234E-06     63.5285E-03    -135.781E+06    -302.893E+06    -134.904E+06    -464.120E+03    -227.463E-03     454.458E-03    -226.995E-03     22.7285E-03    -227.585E-03     453.414E-03    -227.033E-03     20.1091E-03
            1641     13.6273E-03     65.6001E-03    -5.00277E+06     72.8559E+06     87.6341E+06     11.7522E+03    -226.091E-03     453.311E-03    -227.220E-03     109.144E-03    -230.502E-03     457.708E-03    -226.880E-03     86.5151E-03
            1642     12.9114E-03     65.4177E-03    -8.99301E+06     71.0846E+06     89.5368E+06    -139.658E+03    -227.238E-03     454.465E-03    -227.227E-03     154.586E-03    -233.934E-03     461.122E-03    -226.870E-03     126.358E-03
            1643     12.1957E-03     65.2094E-03    -14.4707E+06     62.5234E+06     88.0335E+06     394.257E+03    -228.041E-03     455.265E-03    -227.223E-03     171.413E-03    -235.577E-03     462.716E-03    -226.853E-03     142.077E-03
            1644     11.4779E-03     64.9761E-03    -21.3942E+06     57.7571E+06     84.2248E+06     1.89119E+06    -228.678E-03     455.898E-03    -227.221E-03     190.457E-03    -237.338E-03     464.444E-03    -226.852E-03     159.431E-03
            1645     10.7600E-03     64.7172E-03    -29.3468E+06     54.5380E+06     75.9255E+06     2.56842E+06    -229.386E-03     456.605E-03    -227.220E-03     202.839E-03    -238.628E-03     465.717E-03    -226.877E-03     171.146E-03
            1646     10.0415E-03     64.4488E-03    -36.3191E+06     52.7368E+06     66.7665E+06     1.26403E+06    -230.263E-03     457.488E-03    -227.225E-03     210.547E-03    -239.750E-03     466.840E-03    -226.915E-03     178.561E-03
            1647     9.32426E-03     64.1680E-03    -42.9976E+06     41.3146E+06     56.6928E+06     616.845E+03    -231.044E-03     458.280E-03    -227.236E-03     212.234E-03    -240.297E-03     467.362E-03    -226.950E-03     180.645E-03
            1648     8.60745E-03     63.8888E-03    -50.9639E+06     24.5287E+06     47.2283E+06    -51.1304E+03    -231.423E-03     458.674E-03    -227.250E-03     208.541E-03    -240.022E-03     467.041E-03    -226.976E-03     178.110E-03
            1649     7.88913E-03     63.6169E-03    -60.3141E+06    -3.20714E+06     35.4010E+06    -1.69528E+06    -231.467E-03     458.735E-03    -227.268E-03     200.105E-03    -239.105E-03     466.045E-03    -226.999E-03     171.457E-03
            1650     7.17225E-03     63.3584E-03    -69.9523E+06    -45.5838E+06     18.4712E+06    -2.39189E+06    -231.203E-03     458.489E-03    -227.286E-03     187.870E-03    -237.679E-03     464.501E-03    -227.026E-03     161.561E-03
            1651     6.45484E-03     63.1171E-03    -79.2295E+06    -84.7302E+06     1.12486E+06    -1.76443E+06    -230.728E-03     458.037E-03    -227.309E-03     173.288E-03    -236.027E-03     462.750E-03    -227.065E-03     149.637E-03
            1652     5.73709E-03     62.8969E-03    -88.0002E+06    -125.176E+06    -16.8663E+06    -893.396E+03    -230.254E-03     457.596E-03    -227.342E-03     156.930E-03    -234.437E-03     461.071E-03    -227.117E-03     136.081E-03
            1653     5.01961E-03     62.6990E-03    -96.4371E+06    -157.620E+06    -34.7714E+06    -647.456E+03    -229.817E-03     457.181E-03    -227.364E-03     139.447E-03    -233.006E-03     459.569E-03    -227.170E-03     121.442E-03
            1654     4.30243E-03     62.5239E-03    -104.983E+06    -183.933E+06    -53.2588E+06    -411.132E+03    -229.379E-03     456.742E-03    -227.363E-03     121.074E-03    -231.723E-03     458.215E-03    -227.210E-03     105.873E-03
            1655     3.58487E-03     62.3738E-03    -113.401E+06    -222.458E+06    -72.3858E+06    -239.891E+03    -228.922E-03     456.278E-03    -227.357E-03     101.921E-03    -230.542E-03     456.916E-03    -227.232E-03     89.4465E-03
            1656     2.86825E-03     62.2495E-03    -121.105E+06    -251.778E+06    -91.2750E+06    -392.959E+03    -228.459E-03     455.773E-03    -227.314E-03     82.3528E-03    -229.507E-03     455.762E-03    -227.230E-03     72.5098E-03
            1657     2.15158E-03     62.1512E-03    -128.057E+06    -265.412E+06    -109.527E+06    -127.257E+03    -227.974E-03     455.203E-03    -227.229E-03     62.4673E-03    -228.601E-03     454.752E-03    -227.207E-03     55.1591E-03
            1658     1.43452E-03     62.0805E-03    -132.618E+06    -281.094E+06    -124.462E+06     205.092E+03    -227.533E-03     454.686E-03    -227.153E-03     42.4265E-03    -227.855E-03     453.900E-03    -227.175E-03     37.5412E-03
            1659     717.169E-06     62.0369E-03    -135.247E+06    -303.047E+06    -134.062E+06    -85.6314E+03    -227.531E-03     454.366E-03    -226.835E-03     23.2029E-03    -227.653E-03     453.321E-03    -226.870E-03     20.5625E-03
            1660     13.6309E-03     64.1119E-03    -4.97168E+06     72.9614E+06     88.1653E+06    -781.962E+03    -226.223E-03     453.406E-03    -227.183E-03     108.574E-03    -230.617E-03     457.786E-03    -226.841E-03     85.9897E-03
            1661     12.9128E-03     63.9190E-03    -9.62318E+06     69.7145E+06     88.9168E+06     40.1018E+03    -226.926E-03     454.120E-03    -227.194E-03     155.202E-03    -233.628E-03     460.778E-03    -226.837E-03     127.024E-03
            1662     12.1948E-03     63.7200E-03    -16.6395E+06     60.2842E+06     85.3321E+06     995.079E+03    -227.623E-03     454.831E-03    -227.208E-03     172.475E-03    -235.182E-03     462.297E-03    -226.844E-03     143.214E-03
            1663     11.4770E-03     63.4808E-03    -22.8161E+06     55.5530E+06     83.2346E+06     1.62352E+06    -228.423E-03     455.663E-03    -227.240E-03     191.378E-03    -237.096E-03     464.211E-03    -226.871E-03     160.422E-03
            1664     10.7592E-03     63.2280E-03    -27.6642E+06     56.5519E+06     79.8575E+06     1.65945E+06    -229.539E-03     456.799E-03    -227.260E-03     202.720E-03    -238.787E-03     465.918E-03    -226.903E-03     170.978E-03
            1665     10.0418E-03     62.9542E-03    -34.1400E+06     55.0039E+06     70.7141E+06     1.03451E+06    -230.558E-03     457.805E-03    -227.246E-03     210.043E-03    -240.044E-03     467.159E-03    -226.923E-03     177.982E-03
            1666     9.32501E-03     62.6756E-03    -41.8298E+06     41.1341E+06     58.3024E+06     847.138E+03    -231.180E-03     458.410E-03    -227.231E-03     212.084E-03    -240.425E-03     467.484E-03    -226.938E-03     180.484E-03
            1667     8.60658E-03     62.3964E-03    -50.0832E+06     26.6175E+06     48.6658E+06     875.428E+03    -231.460E-03     458.694E-03    -227.234E-03     208.689E-03    -240.064E-03     467.073E-03    -226.957E-03     178.264E-03
            1668     7.89006E-03     62.1238E-03    -58.7121E+06    -344.569E+03     37.3970E+06     569.638E+03    -231.416E-03     458.670E-03    -227.253E-03     200.126E-03    -239.048E-03     465.983E-03    -226.981E-03     171.531E-03
            1669     7.17243E-03     61.8661E-03    -67.8438E+06    -44.5077E+06     19.9721E+06    -58.3251E+03    -231.146E-03     458.423E-03    -227.276E-03     188.154E-03    -237.621E-03     464.441E-03    -227.014E-03     161.884E-03
            1670     6.45460E-03     61.6254E-03    -77.4164E+06    -85.4171E+06     1.64316E+06    -452.324E+03    -230.752E-03     458.054E-03    -227.301E-03     173.429E-03    -236.045E-03     462.764E-03    -227.057E-03     149.798E-03
            1671     5.73710E-03     61.4049E-03    -86.5573E+06    -125.949E+06    -16.4856E+06    -576.948E+03    -230.325E-03     457.653E-03    -227.328E-03     156.695E-03    -234.493E-03     461.115E-03    -227.103E-03     135.861E-03
            1672     5.01980E-03     61.2067E-03    -95.4969E+06    -158.327E+06    -34.5120E+06    -511.084E+03    -229.910E-03     457.244E-03    -227.334E-03     139.118E-03    -233.089E-03     459.622E-03    -227.139E-03     121.112E-03
            1673     4.30253E-03     61.0314E-03    -104.281E+06    -184.605E+06    -53.1969E+06    -405.258E+03    -229.374E-03     456.691E-03    -227.317E-03     120.707E-03    -231.707E-03     458.152E-03    -227.164E-03     105.522E-03
            1674     3.58576E-03     60.8816E-03    -112.426E+06    -222.923E+06    -71.5956E+06    -409.076E+03    -228.843E-03     456.154E-03    -227.311E-03     101.710E-03    -230.455E-03     456.783E-03    -227.182E-03     89.2421E-03
            1675     2.86839E-03     60.7568E-03    -120.389E+06    -251.787E+06    -90.0671E+06    -33.1687E+03    -228.311E-03     455.597E-03    -227.286E-03     82.3161E-03    -229.357E-03     455.583E-03    -227.197E-03     72.4793E-03
            1676     2.15096E-03     60.6593E-03    -127.281E+06    -265.571E+06    -108.909E+06     30.7685E+03    -227.783E-03     455.031E-03    -227.248E-03     62.5386E-03    -228.408E-03     454.577E-03    -227.223E-03     55.2360E-03
            1677     1.43381E-03     60.5882E-03    -132.293E+06    -281.670E+06    -124.675E+06    -188.420E+03    -227.474E-03     454.717E-03    -227.243E-03     42.4980E-03    -227.794E-03     453.929E-03    -227.266E-03     37.6125E-03
            1678     716.924E-06     60.5452E-03    -134.927E+06    -302.772E+06    -133.397E+06     181.455E+03    -227.473E-03     454.628E-03    -227.154E-03     23.1455E-03    -227.595E-03     453.583E-03    -227.187E-03     20.4841E-03
            1679     13.6292E-03     62.6166E-03    -5.19507E+06     72.2811E+06     87.2211E+06    -99.1801E+03    -225.890E-03     453.051E-03    -227.162E-03     109.801E-03    -230.302E-03     457.449E-03    -226.823E-03     87.2578E-03
            1680     12.9119E-03     62.4287E-03    -11.4685E+06     66.7077E+06     85.6119E+06    -68.2695E+03    -226.412E-03     453.605E-03    -227.193E-03     155.853E-03    -233.129E-03     460.269E-03    -226.845E-03     127.711E-03
            1681     12.1943E-03     62.2257E-03    -15.9345E+06     60.7800E+06     85.3733E+06     615.542E+03    -227.357E-03     454.595E-03    -227.238E-03     172.091E-03    -234.909E-03     462.059E-03    -226.876E-03     142.840E-03
            1682     11.4765E-03     61.9901E-03    -21.2266E+06     56.6365E+06     84.9393E+06     167.252E+03    -228.732E-03     456.004E-03    -227.272E-03     190.898E-03    -237.411E-03     464.563E-03    -226.899E-03     159.818E-03
            1683     10.7593E-03     61.7329E-03    -27.9546E+06       55.32E+06     79.9159E+06    -542.912E+03    -229.871E-03     457.136E-03    -227.266E-03     202.330E-03    -239.120E-03     466.251E-03    -226.906E-03     170.479E-03
            1684     10.0426E-03     61.4619E-03    -34.8857E+06     54.2093E+06     70.1415E+06     79.2507E+03    -230.543E-03     457.779E-03    -227.236E-03     210.115E-03    -240.032E-03     467.133E-03    -226.914E-03     178.045E-03
            1685     9.32404E-03     61.1833E-03    -42.1414E+06     40.5033E+06     57.5682E+06     849.044E+03    -231.205E-03     458.424E-03    -227.219E-03     212.232E-03    -240.454E-03     467.499E-03    -226.929E-03     180.628E-03
            1686     8.60780E-03     60.9028E-03    -49.9970E+06     26.8271E+06     48.6817E+06     1.12383E+06    -231.432E-03     458.656E-03    -227.224E-03     208.546E-03    -240.032E-03     467.032E-03    -226.947E-03     178.129E-03
            1687     7.88953E-03     60.6321E-03    -58.7260E+06     970.271E+03     37.8737E+06     1.40087E+06    -231.234E-03     458.486E-03    -227.252E-03     200.159E-03    -238.863E-03     465.801E-03    -226.979E-03     171.617E-03
            1688     7.17168E-03     60.3736E-03    -68.0146E+06    -43.4178E+06     20.0532E+06     993.743E+03    -231.178E-03     458.459E-03    -227.281E-03     187.993E-03    -237.651E-03     464.478E-03    -227.019E-03     161.739E-03
            1689     6.45473E-03     60.1328E-03    -76.8376E+06    -84.4950E+06     2.42483E+06     326.442E+03    -230.948E-03     458.240E-03    -227.293E-03     173.076E-03    -236.238E-03     462.951E-03    -227.047E-03     149.423E-03
            1690     5.73754E-03     59.9128E-03    -85.8180E+06    -125.564E+06    -15.3635E+06     283.128E+03    -230.541E-03     457.832E-03    -227.291E-03     156.584E-03    -234.708E-03     461.294E-03    -227.062E-03     135.740E-03
            1691     5.02032E-03     59.7142E-03    -94.9708E+06    -158.358E+06    -34.0023E+06     131.891E+03    -229.968E-03     457.238E-03    -227.269E-03     139.025E-03    -233.142E-03     459.611E-03    -227.072E-03     121.037E-03
            1692     4.30316E-03     59.5394E-03    -103.662E+06    -184.294E+06    -52.7693E+06    -227.934E+03    -229.285E-03     456.528E-03    -227.243E-03     120.699E-03    -231.613E-03     457.987E-03    -227.090E-03     105.535E-03
            1693     3.58549E-03     59.3892E-03    -112.408E+06    -223.337E+06    -71.3650E+06    -230.420E+03    -228.689E-03     455.938E-03    -227.249E-03     101.775E-03    -230.300E-03     456.565E-03    -227.119E-03     89.3265E-03
            1694     2.86842E-03     59.2650E-03    -120.353E+06    -252.221E+06     -89.846E+06    -60.9458E+03    -228.177E-03     455.422E-03    -227.245E-03     82.2289E-03    -229.222E-03     455.405E-03    -227.154E-03     72.4004E-03
            1695     2.15138E-03     59.1672E-03    -127.189E+06    -265.338E+06    -108.537E+06    -9.19185E+03    -227.735E-03     454.954E-03    -227.219E-03     62.1482E-03    -228.359E-03     454.499E-03    -227.192E-03     54.8493E-03
            1696     1.43407E-03     59.0964E-03    -132.161E+06    -281.714E+06    -124.817E+06     54.0176E+03    -227.438E-03     454.647E-03    -227.209E-03     42.0969E-03    -227.754E-03     453.857E-03    -227.233E-03     37.2193E-03
            1697     717.008E-06     59.0520E-03    -135.123E+06    -303.066E+06    -133.790E+06     8.07938E+03    -227.326E-03     454.552E-03    -227.226E-03     22.7370E-03    -227.447E-03     453.506E-03    -227.259E-03     20.0809E-03
            1698     13.6301E-03     61.1248E-03    -3.50272E+06     71.3814E+06     86.4291E+06     564.700E+03    -225.823E-03     453.014E-03    -227.191E-03     110.124E-03    -230.229E-03     457.410E-03    -226.857E-03     87.5981E-03
            1699     12.9121E-03     60.9358E-03    -8.56019E+06     68.4984E+06     87.9159E+06     806.452E+03    -226.719E-03     453.945E-03    -227.227E-03     155.653E-03    -233.424E-03     460.608E-03    -226.874E-03     127.524E-03
            1700     12.1942E-03     60.7340E-03    -14.4369E+06     62.2854E+06     87.1859E+06     189.325E+03    -227.810E-03     455.060E-03    -227.250E-03     171.871E-03    -235.362E-03     462.529E-03    -226.883E-03     142.546E-03
            1701     11.4770E-03     60.4964E-03    -21.2888E+06     56.7232E+06     84.1617E+06    -974.366E+03    -228.925E-03     456.179E-03    -227.254E-03     190.605E-03    -237.600E-03     464.735E-03    -226.885E-03     159.455E-03
            1702     10.7600E-03     60.2395E-03    -28.1755E+06     55.1756E+06     77.4172E+06    -802.206E+03    -229.632E-03     456.870E-03    -227.239E-03     202.115E-03    -238.865E-03     465.975E-03    -226.891E-03     170.308E-03
            1703     10.0414E-03     59.9703E-03    -35.0591E+06     52.1706E+06     67.7314E+06    -546.664E+03    -230.508E-03     457.728E-03    -227.220E-03     209.965E-03    -239.984E-03     467.068E-03    -226.906E-03     177.900E-03
            1704     9.32520E-03     59.6889E-03    -42.8257E+06     38.6241E+06     56.4341E+06     501.127E+03    -231.183E-03     458.393E-03    -227.211E-03     212.192E-03    -240.424E-03     467.456E-03    -226.922E-03     180.602E-03
            1705     8.60697E-03     59.4111E-03    -50.8302E+06     26.3648E+06     48.0616E+06     1.18254E+06    -231.302E-03     458.524E-03    -227.222E-03     208.463E-03    -239.900E-03     466.895E-03    -226.946E-03     178.075E-03
            1706     7.88958E-03     59.1397E-03    -59.2545E+06     887.280E+03     37.6215E+06     1.23712E+06    -231.399E-03     458.647E-03    -227.247E-03     199.976E-03    -239.032E-03     465.963E-03    -226.975E-03     171.397E-03
            1707     7.17263E-03     58.8811E-03    -67.8801E+06    -41.4207E+06     21.2011E+06     1.13390E+06    -231.317E-03     458.576E-03    -227.259E-03     187.661E-03    -237.789E-03     464.599E-03    -226.995E-03     161.390E-03
            1708     6.45491E-03     58.6406E-03    -77.0465E+06    -83.4229E+06     2.76732E+06     625.102E+03    -230.996E-03     458.248E-03    -227.252E-03     172.811E-03    -236.280E-03     462.955E-03    -227.006E-03     149.175E-03
            1709     5.73765E-03     58.4199E-03    -86.0622E+06    -125.881E+06    -15.6001E+06     224.045E+03    -230.551E-03     457.790E-03    -227.239E-03     156.455E-03    -234.715E-03     461.247E-03    -227.010E-03     135.613E-03
            1710     5.02059E-03     58.2220E-03    -94.6188E+06    -157.693E+06    -33.2052E+06     412.685E+03    -229.910E-03     457.126E-03    -227.216E-03     138.996E-03    -233.082E-03     459.499E-03    -227.016E-03     121.027E-03
            1711     4.30314E-03     58.0475E-03    -103.558E+06    -183.636E+06    -52.0904E+06     530.458E+03    -229.213E-03     456.405E-03    -227.192E-03     120.731E-03    -231.541E-03     457.864E-03    -227.036E-03     105.594E-03
            1712     3.58610E-03     57.8976E-03    -112.060E+06    -223.015E+06    -71.1223E+06     338.206E+03    -228.630E-03     455.828E-03    -227.198E-03     101.738E-03    -230.239E-03     456.454E-03    -227.068E-03     89.3163E-03
            1713     2.86864E-03     57.7732E-03    -120.031E+06    -252.159E+06    -89.5699E+06    -15.7958E+03    -228.120E-03     455.318E-03    -227.198E-03     82.3035E-03    -229.162E-03     455.299E-03    -227.106E-03     72.4868E-03
            1714     2.15137E-03     57.6750E-03    -127.428E+06    -265.737E+06    -108.340E+06     132.638E+03    -227.738E-03     454.905E-03    -227.166E-03     62.4720E-03    -228.365E-03     454.449E-03    -227.138E-03     55.1723E-03
            1715     1.43450E-03     57.6046E-03    -132.562E+06    -281.775E+06    -124.793E+06     371.245E+03    -227.411E-03     454.550E-03    -227.139E-03     42.4288E-03    -227.731E-03     453.761E-03    -227.162E-03     37.5624E-03
            1716     717.150E-06     57.5604E-03    -134.636E+06    -302.558E+06    -133.505E+06     236.258E+03    -227.232E-03     454.400E-03    -227.167E-03     23.1215E-03    -227.352E-03     453.355E-03    -227.201E-03     20.4945E-03
            1717     13.6277E-03     59.6303E-03    -4.33875E+06     72.5250E+06     87.7196E+06     744.152E+03    -225.858E-03     453.078E-03    -227.220E-03     109.894E-03    -230.254E-03     457.462E-03    -226.880E-03     87.4073E-03
            1718     12.9110E-03     59.4428E-03    -10.2338E+06     68.1336E+06     88.1213E+06     759.619E+03    -227.139E-03     454.379E-03    -227.240E-03     155.002E-03    -233.824E-03     461.014E-03    -226.883E-03     126.881E-03
            1719     12.1944E-03     59.2401E-03    -16.0972E+06     61.2300E+06     85.8999E+06    -819.082E+03    -228.148E-03     455.381E-03    -227.233E-03     171.636E-03    -235.694E-03     462.838E-03    -226.869E-03     142.261E-03
            1720     11.4777E-03     59.0026E-03    -21.1963E+06     57.5784E+06     84.0853E+06    -658.744E+03    -228.806E-03     456.035E-03    -227.230E-03     190.438E-03    -237.471E-03     464.586E-03    -226.862E-03     159.334E-03
            1721     10.7594E-03     58.7487E-03    -27.7488E+06     54.6456E+06     77.4564E+06    -867.518E+03    -229.571E-03     456.791E-03    -227.220E-03     201.991E-03    -238.794E-03     465.885E-03    -226.872E-03     170.206E-03
            1722     10.0429E-03     58.4759E-03    -35.7666E+06     50.0514E+06     66.5014E+06     339.970E+03    -230.526E-03     457.725E-03    -227.200E-03     209.926E-03    -239.988E-03     467.046E-03    -226.888E-03     177.899E-03
            1723     9.32453E-03     58.1976E-03    -43.7690E+06     37.9195E+06     55.6574E+06     517.964E+03    -231.026E-03     458.219E-03    -227.193E-03     211.781E-03    -240.259E-03     467.270E-03    -226.907E-03     180.212E-03
            1724     8.60713E-03     57.9183E-03    -51.6064E+06     25.5900E+06     47.8248E+06     446.684E+03    -231.296E-03     458.504E-03    -227.209E-03     208.107E-03    -239.880E-03     466.858E-03    -226.932E-03     177.729E-03
            1725     7.89000E-03     57.6466E-03    -59.8568E+06     869.346E+03     37.4614E+06     568.144E+03    -231.510E-03     458.735E-03    -227.225E-03     199.900E-03    -239.140E-03     466.047E-03    -226.952E-03     171.308E-03
            1726     7.17232E-03     57.3887E-03    -68.7357E+06    -41.2238E+06     20.9243E+06     454.321E+03    -231.397E-03     458.621E-03    -227.224E-03     187.721E-03    -237.874E-03     464.647E-03    -226.960E-03     161.435E-03
            1727     6.45546E-03     57.1478E-03    -77.2963E+06    -82.6850E+06     3.01293E+06     822.699E+03    -230.997E-03     458.208E-03    -227.211E-03     172.911E-03    -236.281E-03     462.915E-03    -226.964E-03     149.297E-03
            1728     5.73825E-03     56.9280E-03    -86.1017E+06    -124.851E+06    -15.5986E+06     522.399E+03    -230.434E-03     457.634E-03    -227.200E-03     156.531E-03    -234.596E-03     461.093E-03    -226.972E-03     135.727E-03
            1729     5.02069E-03     56.7299E-03    -95.2824E+06    -158.117E+06    -33.7649E+06     286.450E+03    -229.816E-03     457.004E-03    -227.188E-03     139.095E-03    -232.988E-03     459.375E-03    -226.990E-03     121.144E-03
            1730     4.30347E-03     56.5559E-03    -103.806E+06    -183.600E+06    -51.9526E+06     498.305E+03    -229.217E-03     456.387E-03    -227.170E-03     120.841E-03    -231.548E-03     457.849E-03    -227.013E-03     105.699E-03
            1731     3.58588E-03     56.4056E-03    -112.088E+06    -222.212E+06    -70.2703E+06     473.465E+03    -228.668E-03     455.839E-03    -227.171E-03     101.865E-03    -230.282E-03     456.470E-03    -227.037E-03     89.4312E-03
            1732     2.86873E-03     56.2817E-03    -120.218E+06    -251.862E+06    -88.9385E+06     351.493E+03    -228.144E-03     455.298E-03    -227.154E-03     82.2829E-03    -229.190E-03     455.282E-03    -227.060E-03     72.4622E-03
            1733     2.15133E-03     56.1834E-03    -127.167E+06    -265.680E+06    -108.104E+06     25.5786E+03    -227.684E-03     454.794E-03    -227.110E-03     62.2699E-03    -228.308E-03     454.337E-03    -227.081E-03     54.9751E-03
            1734     1.43391E-03     56.1123E-03    -132.387E+06    -281.837E+06    -124.264E+06    -355.740E+03    -227.404E-03     454.466E-03    -227.062E-03     41.9748E-03    -227.722E-03     453.674E-03    -227.083E-03     37.1052E-03
            1735     716.946E-06     56.0692E-03    -135.039E+06    -302.582E+06    -133.008E+06    -419.709E+03    -227.213E-03     454.192E-03    -226.979E-03     22.7861E-03    -227.334E-03     453.146E-03    -227.010E-03     20.1639E-03
            1736     13.6301E-03     58.1393E-03    -5.33852E+06     71.6330E+06     88.2624E+06     368.733E+03    -226.216E-03     453.404E-03    -227.188E-03     108.683E-03    -230.600E-03     457.767E-03    -226.842E-03     86.1557E-03
            1737     12.9122E-03     57.9481E-03    -9.72609E+06     68.3447E+06     87.8634E+06    -204.006E+03    -226.775E-03     453.970E-03    -227.195E-03     154.279E-03    -233.441E-03     460.589E-03    -226.841E-03     126.146E-03
            1738     12.1951E-03     57.7468E-03    -14.6790E+06     62.3709E+06     86.5619E+06    -898.987E+03    -227.709E-03     454.918E-03    -227.210E-03     171.432E-03    -235.238E-03     462.366E-03    -226.846E-03     142.122E-03
            1739     11.4770E-03     57.5104E-03    -21.5407E+06     57.5001E+06     83.9775E+06    -1.22992E+06    -228.742E-03     455.963E-03    -227.221E-03     190.485E-03    -237.407E-03     464.512E-03    -226.853E-03     159.394E-03
            1740     10.7605E-03     57.2550E-03    -28.9318E+06     52.1934E+06     77.1758E+06    -325.103E+03    -229.758E-03     456.969E-03    -227.211E-03     202.071E-03    -238.984E-03     466.054E-03    -226.859E-03     170.273E-03
            1741     10.0421E-03     56.9842E-03    -36.1645E+06     48.5788E+06     67.1343E+06     752.774E+03    -230.536E-03     457.721E-03    -227.185E-03     209.886E-03    -239.996E-03     467.030E-03    -226.867E-03     177.873E-03
            1742     9.32526E-03     56.7043E-03    -43.3177E+06     39.3548E+06     56.3670E+06     757.462E+03    -231.058E-03     458.228E-03    -227.170E-03     211.607E-03    -240.276E-03     467.268E-03    -226.882E-03     180.071E-03
            1743     8.60798E-03     56.4266E-03    -51.3161E+06     25.3833E+06     47.6266E+06     408.356E+03    -231.421E-03     458.596E-03    -227.175E-03     208.201E-03    -239.997E-03     466.942E-03    -226.900E-03     177.831E-03
            1744     7.88985E-03     56.1541E-03    -60.0690E+06     806.588E+03     37.1862E+06     210.230E+03    -231.465E-03     458.651E-03    -227.186E-03     199.768E-03    -239.082E-03     465.950E-03    -226.915E-03     171.210E-03
            1745     7.17300E-03     55.8957E-03    -68.9216E+06    -41.5947E+06     20.2354E+06     290.287E+03    -231.237E-03     458.427E-03    -227.190E-03     187.498E-03    -237.697E-03     464.437E-03    -226.929E-03     161.264E-03
            1746     6.45535E-03     55.6557E-03    -77.8304E+06    -82.9667E+06     2.69869E+06     247.312E+03    -230.853E-03     458.045E-03    -227.193E-03     172.998E-03    -236.138E-03     462.752E-03    -226.946E-03     149.395E-03
            1747     5.73787E-03     55.4355E-03    -86.5555E+06    -124.323E+06    -15.2208E+06     575.191E+03    -230.386E-03     457.580E-03    -227.194E-03     156.593E-03    -234.553E-03     461.043E-03    -226.965E-03     135.790E-03
            1748     5.02065E-03     55.2384E-03    -95.0241E+06    -157.574E+06    -33.5341E+06     431.365E+03    -229.839E-03     457.020E-03    -227.180E-03     139.051E-03    -233.013E-03     459.394E-03    -226.982E-03     121.091E-03
            1749     4.30316E-03     55.0634E-03    -103.723E+06    -183.739E+06    -51.9387E+06     74.8042E+03    -229.262E-03     456.416E-03    -227.153E-03     120.690E-03    -231.594E-03     457.877E-03    -226.996E-03     105.528E-03
            1750     3.58614E-03     54.9143E-03    -112.151E+06    -222.178E+06    -70.6285E+06     215.240E+03    -228.749E-03     455.881E-03    -227.132E-03     101.602E-03    -230.363E-03     456.512E-03    -227.000E-03     89.1472E-03
            1751     2.86886E-03     54.7894E-03    -119.959E+06    -251.619E+06    -89.0617E+06     130.362E+03    -228.235E-03     455.315E-03    -227.080E-03     82.0500E-03    -229.278E-03     455.297E-03    -226.986E-03     72.2284E-03
            1752     2.15200E-03     54.6921E-03    -127.054E+06    -265.158E+06    -107.165E+06    -245.693E+03    -227.735E-03     454.724E-03    -226.988E-03     62.1492E-03    -228.358E-03     454.265E-03    -226.955E-03     54.8670E-03
            1753     1.43492E-03     54.6208E-03    -132.922E+06    -281.671E+06    -123.741E+06    -361.128E+03    -227.318E-03     454.203E-03    -226.885E-03     41.9269E-03    -227.639E-03     453.411E-03    -226.902E-03     37.0626E-03
            1754     717.816E-06     54.5773E-03    -136.058E+06    -303.820E+06    -134.840E+06    -61.4049E+03    -226.743E-03     453.775E-03    -227.032E-03     22.8024E-03    -226.865E-03     452.727E-03    -227.068E-03     20.1848E-03
            1755     13.6305E-03     56.6456E-03    -4.30772E+06     71.0295E+06     86.6157E+06    -570.622E+03    -226.368E-03     453.517E-03    -227.149E-03     109.760E-03    -230.776E-03     457.911E-03    -226.813E-03     87.1386E-03
            1756     12.9134E-03     56.4567E-03    -8.41094E+06     70.5698E+06     88.6614E+06    -1.17066E+06    -226.656E-03     453.823E-03    -227.167E-03     155.674E-03    -233.358E-03     460.488E-03    -226.814E-03     127.515E-03
            1757     12.1945E-03     56.2547E-03    -14.2560E+06     63.8040E+06     87.3822E+06     109.814E+03    -227.530E-03     454.726E-03    -227.195E-03     171.783E-03    -235.062E-03     462.180E-03    -226.830E-03     142.533E-03
            1758     11.4777E-03     56.0167E-03    -21.6055E+06     57.1173E+06     83.9511E+06     275.518E+03    -228.694E-03     455.907E-03    -227.213E-03     190.360E-03    -237.340E-03     464.436E-03    -226.845E-03     159.335E-03
            1759     10.7595E-03     55.7625E-03    -29.1549E+06     51.2134E+06     76.6730E+06     376.158E+03    -229.772E-03     456.975E-03    -227.203E-03     202.073E-03    -238.993E-03     466.053E-03    -226.852E-03     170.290E-03
            1760     10.0432E-03     55.4907E-03    -36.5528E+06     48.3342E+06     66.8858E+06     102.540E+03    -230.574E-03     457.749E-03    -227.175E-03     209.856E-03    -240.031E-03     467.054E-03    -226.858E-03     177.837E-03
            1761     9.32520E-03     55.2127E-03    -43.9664E+06     39.1685E+06     56.4661E+06     343.558E+03    -231.164E-03     458.321E-03    -227.158E-03     211.915E-03    -240.385E-03     467.362E-03    -226.869E-03     180.383E-03
            1762     8.60732E-03     54.9331E-03    -51.7513E+06     25.7443E+06     47.3567E+06     193.649E+03    -231.625E-03     458.773E-03    -227.148E-03     208.312E-03    -240.209E-03     467.128E-03    -226.874E-03     177.907E-03
            1763     7.89104E-03     54.6616E-03    -60.0072E+06     773.804E+03     37.1265E+06    -101.941E+03    -231.469E-03     458.617E-03    -227.148E-03     199.643E-03    -239.082E-03     465.913E-03    -226.877E-03     171.082E-03
            1764     7.17289E-03     54.4040E-03    -68.5338E+06    -41.2037E+06     20.9382E+06     99.2899E+03    -231.114E-03     458.272E-03    -227.157E-03     187.479E-03    -237.567E-03     464.274E-03    -226.893E-03     161.278E-03
            1765     6.45546E-03     54.1634E-03    -77.3219E+06    -82.8077E+06     2.81251E+06     61.6836E+03    -230.785E-03     457.946E-03    -227.161E-03     172.590E-03    -236.059E-03     462.643E-03    -226.915E-03     149.001E-03
            1766     5.73810E-03     53.9438E-03    -85.9616E+06    -124.921E+06    -15.0774E+06     67.5300E+03    -230.333E-03     457.495E-03    -227.162E-03     156.033E-03    -234.489E-03     460.946E-03    -226.932E-03     135.224E-03
            1767     5.02079E-03     53.7458E-03    -94.7376E+06    -157.171E+06    -33.2159E+06     485.624E+03    -229.816E-03     456.958E-03    -227.142E-03     138.605E-03    -232.984E-03     459.328E-03    -226.943E-03     120.649E-03
            1768     4.30369E-03     53.5721E-03    -103.285E+06    -183.670E+06    -52.7850E+06     287.318E+03    -229.307E-03     456.403E-03    -227.096E-03     120.450E-03    -231.632E-03     457.862E-03    -226.944E-03     105.290E-03
            1769     3.58633E-03     53.4216E-03    -111.395E+06    -222.568E+06    -71.9022E+06    -197.276E+03    -228.777E-03     455.830E-03    -227.053E-03     101.392E-03    -230.381E-03     456.457E-03    -226.928E-03     88.9443E-03
            1770     2.86934E-03     53.2984E-03    -118.806E+06    -251.576E+06    -90.4545E+06    -110.334E+03    -228.146E-03     455.136E-03    -226.990E-03     81.9743E-03    -229.178E-03     455.116E-03    -226.905E-03     72.1693E-03
            1771     2.15178E-03     53.1999E-03    -124.628E+06    -264.207E+06    -108.404E+06    -268.483E+03    -227.547E-03     454.471E-03    -226.924E-03     62.4048E-03    -228.159E-03     454.017E-03    -226.902E-03     55.1286E-03
            1772     1.43464E-03     53.1297E-03    -128.301E+06    -283.270E+06    -121.379E+06    -371.990E+03    -227.109E-03     454.046E-03    -226.938E-03     42.4741E-03    -227.409E-03     453.238E-03    -226.948E-03     37.6155E-03
            1773     716.896E-06     53.0870E-03    -131.025E+06    -303.797E+06    -128.499E+06     467.545E+03    -226.903E-03     454.057E-03    -227.154E-03     23.0148E-03    -227.011E-03     452.995E-03    -227.166E-03     20.3664E-03
            1774     13.6290E-03     55.1511E-03    -3.95240E+06     72.7172E+06     87.2346E+06    -418.682E+03    -225.955E-03     453.120E-03    -227.165E-03     109.430E-03    -230.350E-03     457.506E-03    -226.829E-03     86.8751E-03
            1775     12.9115E-03     54.9640E-03    -10.4309E+06     70.0469E+06     87.1572E+06    -578.021E+03    -226.934E-03     454.116E-03    -227.182E-03     155.554E-03    -233.636E-03     460.777E-03    -226.833E-03     127.387E-03
            1776     12.1955E-03     54.7612E-03    -17.2559E+06     61.4236E+06     84.8379E+06    -177.465E+03    -227.862E-03     455.055E-03    -227.193E-03     171.860E-03    -235.401E-03     462.505E-03    -226.832E-03     142.574E-03
            1777     11.4774E-03     54.5251E-03    -22.9667E+06     56.9003E+06     83.1232E+06     765.521E+03    -228.694E-03     455.899E-03    -227.205E-03     190.559E-03    -237.339E-03     464.423E-03    -226.838E-03     159.579E-03
            1778     10.7604E-03     54.2690E-03    -29.2026E+06     52.3847E+06     76.3876E+06     254.819E+03    -229.679E-03     456.877E-03    -227.198E-03     202.270E-03    -238.895E-03     465.954E-03    -226.850E-03     170.525E-03
            1779     10.0422E-03     53.9981E-03    -35.9928E+06     48.1131E+06     66.3830E+06    -250.766E+03    -230.646E-03     457.818E-03    -227.172E-03     209.769E-03    -240.100E-03     467.122E-03    -226.857E-03     177.727E-03
            1780     9.32497E-03     53.7202E-03    -43.0650E+06     38.2224E+06     56.3305E+06    -110.499E+03    -231.429E-03     458.571E-03    -227.141E-03     211.680E-03    -240.648E-03     467.608E-03    -226.853E-03     180.080E-03
            1781     8.60860E-03     53.4395E-03    -50.6424E+06     26.3291E+06     48.4754E+06     108.080E+03    -231.589E-03     458.712E-03    -227.122E-03     207.979E-03    -240.157E-03     467.052E-03    -226.845E-03     177.590E-03
            1782     7.89030E-03     53.1698E-03    -58.9287E+06     1.62099E+06     38.1841E+06     207.172E+03    -231.473E-03     458.590E-03    -227.118E-03     199.379E-03    -239.078E-03     465.882E-03    -226.844E-03     170.822E-03
            1783     7.17337E-03     52.9115E-03    -67.9205E+06    -41.1880E+06     21.1549E+06     77.7829E+03    -231.270E-03     458.378E-03    -227.108E-03     187.050E-03    -237.716E-03     464.376E-03    -226.844E-03     160.823E-03
            1784     6.45610E-03     52.6716E-03    -76.9897E+06    -83.1178E+06     2.68765E+06     89.3027E+03    -230.769E-03     457.864E-03    -227.095E-03     172.283E-03    -236.032E-03     462.551E-03    -226.849E-03     148.710E-03
            1785     5.73878E-03     52.4516E-03     -86.286E+06    -125.347E+06    -16.1598E+06     190.319E+03    -230.275E-03     457.361E-03    -227.087E-03     155.978E-03    -234.425E-03     460.807E-03    -226.860E-03     135.197E-03
            1786     5.02130E-03     52.2546E-03    -94.9206E+06    -158.019E+06    -34.3117E+06    -36.7228E+03    -229.831E-03     456.891E-03    -227.059E-03     138.551E-03    -232.993E-03     459.254E-03    -226.864E-03     120.601E-03
            1787     4.30379E-03     52.0796E-03    -102.881E+06    -182.998E+06    -52.8815E+06     54.7228E+03    -229.254E-03     456.259E-03    -227.005E-03     120.200E-03    -231.572E-03     457.716E-03    -226.855E-03     105.058E-03
            1788     3.58678E-03     51.9304E-03    -110.948E+06    -221.897E+06    -71.9263E+06    -21.0530E+03    -228.581E-03     455.549E-03    -226.968E-03     101.191E-03    -230.177E-03     456.172E-03    -226.845E-03     88.7831E-03
            1789     2.86929E-03     51.8066E-03    -118.332E+06    -251.403E+06    -90.8362E+06    -495.703E+03    -227.950E-03     454.883E-03    -226.933E-03     81.9031E-03    -228.979E-03     454.863E-03    -226.851E-03     72.1036E-03
            1790     2.15210E-03     51.7095E-03    -124.252E+06    -264.125E+06    -109.534E+06    -488.264E+03    -227.357E-03     454.267E-03    -226.910E-03     62.1921E-03    -227.966E-03     453.815E-03    -226.894E-03     54.9012E-03
            1791     1.43403E-03     51.6387E-03    -128.876E+06    -284.293E+06    -122.863E+06    -230.909E+03    -227.081E-03     454.048E-03    -226.966E-03     41.9844E-03    -227.380E-03     453.236E-03    -226.982E-03     37.1228E-03
            1792     717.008E-06     51.5950E-03    -131.137E+06    -304.047E+06    -129.740E+06    -435.196E+03    -227.685E-03     454.138E-03    -226.453E-03     22.6443E-03    -227.790E-03     453.075E-03    -226.471E-03     19.9767E-03
            1793     13.6303E-03     53.6609E-03    -5.12978E+06     72.2424E+06     86.8502E+06    -167.997E+03    -226.053E-03     453.227E-03    -227.175E-03     109.293E-03    -230.447E-03     457.608E-03    -226.838E-03     86.7597E-03
            1794     12.9125E-03     53.4695E-03    -10.3391E+06     69.9439E+06     87.3575E+06     487.939E+03    -226.847E-03     454.040E-03    -227.193E-03     155.346E-03    -233.530E-03     460.681E-03    -226.842E-03     127.253E-03
            1795     12.1945E-03     53.2681E-03    -15.4569E+06     61.5984E+06     85.6566E+06     423.120E+03    -227.839E-03     455.047E-03    -227.208E-03     171.797E-03    -235.365E-03     462.488E-03    -226.846E-03     142.536E-03
            1796     11.4776E-03     53.0324E-03    -21.7817E+06     56.4663E+06     82.9576E+06    -211.637E+03    -228.958E-03     456.168E-03    -227.210E-03     190.770E-03    -237.618E-03     464.711E-03    -226.846E-03     159.681E-03
            1797     10.7597E-03     52.7758E-03    -27.8784E+06     53.3485E+06     77.4041E+06    -394.277E+03    -229.874E-03     457.065E-03    -227.191E-03     201.896E-03    -239.082E-03     466.139E-03    -226.841E-03     170.103E-03
            1798     10.0427E-03     52.5062E-03    -34.5421E+06     47.5490E+06     67.5344E+06    -328.797E+03    -230.865E-03     458.013E-03    -227.148E-03     209.269E-03    -240.292E-03     467.290E-03    -226.829E-03     177.217E-03
            1799     9.32615E-03     52.2251E-03    -42.0032E+06     37.4935E+06     56.8162E+06     33.1153E+03    -231.468E-03     458.568E-03    -227.100E-03     211.115E-03    -240.658E-03     467.577E-03    -226.809E-03     179.535E-03
            1800     8.60805E-03     51.9489E-03    -50.0267E+06     26.6206E+06     48.9408E+06     199.065E+03    -231.509E-03     458.582E-03    -227.073E-03     207.465E-03    -240.062E-03     466.911E-03    -226.795E-03     177.088E-03
            1801     7.89121E-03     51.6760E-03    -59.0100E+06     1.55195E+06     38.0167E+06     595.070E+03    -231.441E-03     458.504E-03    -227.063E-03     198.965E-03    -239.028E-03     465.777E-03    -226.790E-03     170.450E-03
            1802     7.17407E-03     51.4196E-03    -68.1648E+06    -41.5082E+06     20.2742E+06     691.251E+03    -231.195E-03     458.244E-03    -227.049E-03     186.937E-03    -237.634E-03     464.234E-03    -226.788E-03     160.742E-03
            1803     6.45653E-03     51.1797E-03    -77.3478E+06    -83.4342E+06     1.98202E+06     682.460E+03    -230.801E-03     457.834E-03    -227.032E-03     172.427E-03    -236.066E-03     462.522E-03    -226.789E-03     148.866E-03
            1804     5.73880E-03     50.9604E-03    -85.9348E+06    -124.494E+06    -16.0952E+06     399.363E+03    -230.407E-03     457.416E-03    -227.008E-03     155.890E-03    -234.549E-03     460.857E-03    -226.784E-03     135.129E-03
            1805     5.02161E-03     50.7623E-03    -94.6291E+06    -157.577E+06    -34.3058E+06    -316.835E+03    -229.859E-03     456.817E-03    -226.958E-03     138.288E-03    -233.013E-03     459.175E-03    -226.764E-03     120.348E-03
            1806     4.30476E-03     50.5883E-03    -103.570E+06    -183.270E+06    -52.6173E+06    -273.563E+03    -229.045E-03     455.949E-03    -226.905E-03     119.941E-03    -231.358E-03     457.397E-03    -226.752E-03     104.841E-03
            1807     3.58695E-03     50.4394E-03    -111.857E+06    -221.210E+06    -71.1519E+06     43.1531E+03    -228.353E-03     455.243E-03    -226.891E-03     101.118E-03    -229.954E-03     455.868E-03    -226.763E-03     88.7357E-03
            1808     2.86952E-03     50.3156E-03    -120.010E+06    -251.044E+06    -89.9305E+06     70.7752E+03    -227.850E-03     454.723E-03    -226.873E-03     81.6862E-03    -228.889E-03     454.705E-03    -226.785E-03     71.8947E-03
            1809     2.15182E-03     50.2186E-03    -127.608E+06    -265.403E+06    -108.974E+06     430.864E+03    -227.412E-03     454.236E-03    -226.825E-03     61.8396E-03    -228.034E-03     453.779E-03    -226.800E-03     54.5682E-03
            1810     1.43509E-03     50.1476E-03    -133.043E+06    -283.009E+06    -125.976E+06     494.194E+03    -227.101E-03     453.879E-03    -226.777E-03     42.0717E-03    -227.418E-03     453.083E-03    -226.804E-03     37.2361E-03
            1811     717.752E-06     50.1036E-03    -135.727E+06    -304.571E+06    -135.762E+06    -219.547E+03    -227.375E-03     453.649E-03    -226.274E-03     23.2075E-03    -227.493E-03     452.598E-03    -226.315E-03     20.5935E-03
            1812     13.6287E-03     52.1657E-03    -4.17652E+06     71.7898E+06     86.9492E+06     341.252E+03    -226.265E-03     453.454E-03    -227.189E-03     109.712E-03    -230.658E-03     457.835E-03    -226.853E-03     87.1683E-03
            1813     12.9121E-03     51.9771E-03    -9.37540E+06     69.5893E+06     88.0087E+06     255.108E+03    -226.978E-03     454.180E-03    -227.202E-03     155.408E-03    -233.667E-03     460.827E-03    -226.849E-03     127.269E-03
            1814     12.1945E-03     51.7761E-03    -14.7177E+06     62.6031E+06     86.5511E+06    -232.729E+03    -227.967E-03     455.175E-03    -227.208E-03     171.478E-03    -235.494E-03     462.621E-03    -226.844E-03     142.153E-03
            1815     11.4772E-03     51.5372E-03    -20.3694E+06     56.8391E+06     83.8068E+06    -139.235E+03    -229.125E-03     456.320E-03    -227.196E-03     189.849E-03    -237.761E-03     464.843E-03    -226.829E-03     158.724E-03
            1816     10.7607E-03     51.2842E-03    -28.0809E+06     53.5378E+06     76.8365E+06     123.661E+03    -230.135E-03     457.287E-03    -227.151E-03     201.388E-03    -239.332E-03     466.351E-03    -226.804E-03     169.559E-03
            1817     10.0438E-03     51.0112E-03    -36.2565E+06     47.9763E+06     66.6629E+06    -498.292E+03    -230.914E-03     458.007E-03    -227.093E-03     209.218E-03    -240.342E-03     467.283E-03    -226.777E-03     177.166E-03
            1818     9.32596E-03     50.7341E-03    -43.7920E+06     36.5231E+06     55.9107E+06    -803.289E+03    -231.360E-03     458.405E-03    -227.044E-03     211.035E-03    -240.548E-03     467.405E-03    -226.754E-03     179.468E-03
            1819     8.60943E-03     50.4548E-03    -51.8141E+06     25.3814E+06     46.9995E+06    -109.536E+03    -231.540E-03     458.550E-03    -227.010E-03     207.327E-03    -240.088E-03     466.868E-03    -226.737E-03     176.965E-03
            1820     7.89198E-03     50.1850E-03    -60.3388E+06      97.668E+03     36.2582E+06     470.091E+03    -231.320E-03     458.320E-03    -227.000E-03     199.019E-03    -238.902E-03     465.583E-03    -226.731E-03     170.540E-03
            1821     7.17376E-03     49.9274E-03    -69.1892E+06    -41.7503E+06     19.5655E+06     751.262E+03    -231.130E-03     458.123E-03    -226.992E-03     186.835E-03    -237.561E-03     464.103E-03    -226.734E-03     160.680E-03
            1822     6.45649E-03     49.6877E-03    -77.5747E+06    -82.4722E+06     2.02947E+06     320.290E+03    -230.943E-03     457.906E-03    -226.963E-03     171.909E-03    -236.196E-03     462.585E-03    -226.721E-03     148.352E-03
            1823     5.73973E-03     49.4683E-03    -86.2204E+06    -123.992E+06    -15.5430E+06     39.0220E+03    -230.459E-03     457.376E-03    -226.917E-03     155.561E-03    -234.596E-03     460.812E-03    -226.690E-03     134.804E-03
            1824     5.02268E-03     49.2706E-03    -95.2204E+06    -156.665E+06    -33.5750E+06     164.277E+03    -229.639E-03     456.503E-03    -226.864E-03     138.155E-03    -232.791E-03     458.859E-03    -226.667E-03     120.267E-03
            1825     4.30464E-03     49.0977E-03    -104.165E+06    -182.843E+06    -52.5074E+06     83.7573E+03    -228.868E-03     455.692E-03    -226.825E-03     119.995E-03    -231.183E-03     457.140E-03    -226.671E-03     104.927E-03
            1826     3.58726E-03     48.9483E-03    -112.979E+06    -222.096E+06    -71.3933E+06     74.6128E+03    -228.327E-03     455.141E-03    -226.814E-03     101.080E-03    -229.932E-03     455.763E-03    -226.685E-03     88.7009E-03
            1827     2.86977E-03     48.8251E-03    -120.907E+06    -251.610E+06    -89.8634E+06     491.329E+03    -227.819E-03     454.602E-03    -226.783E-03     81.6532E-03    -228.859E-03     454.580E-03    -226.692E-03     71.8847E-03
            1828     2.15271E-03     48.7273E-03    -127.867E+06    -265.388E+06    -108.467E+06     800.287E+03    -227.401E-03     454.111E-03    -226.711E-03     61.9180E-03    -228.023E-03     453.652E-03    -226.683E-03     54.6836E-03
            1829     1.43472E-03     48.6574E-03    -133.044E+06    -281.978E+06    -124.483E+06     725.689E+03    -227.007E-03     453.642E-03    -226.636E-03     42.0395E-03    -227.325E-03     452.848E-03    -226.656E-03     37.2229E-03
            1830     717.016E-06     48.6129E-03    -135.305E+06    -303.231E+06    -133.695E+06     632.121E+03    -226.769E-03     453.326E-03    -226.557E-03     22.8156E-03    -226.890E-03     452.278E-03    -226.590E-03     20.2171E-03
            1831     13.6297E-03     50.6718E-03    -5.11943E+06     71.4188E+06     86.8757E+06     52.4430E+03    -226.415E-03     453.620E-03    -227.205E-03     109.481E-03    -230.812E-03     458.001E-03    -226.867E-03     86.9035E-03
            1832     12.9116E-03     50.4847E-03    -9.65222E+06     69.8991E+06     88.2508E+06     289.612E+03    -227.442E-03     454.640E-03    -227.198E-03     154.835E-03    -234.134E-03     461.290E-03    -226.844E-03     126.597E-03
            1833     12.1954E-03     50.2807E-03    -15.9514E+06     63.9957E+06     86.7068E+06     -320.34E+03    -228.312E-03     455.487E-03    -227.175E-03     170.955E-03    -235.845E-03     462.939E-03    -226.811E-03     141.555E-03
            1834     11.4786E-03     50.0461E-03    -23.4808E+06     55.5745E+06     82.0419E+06    -498.728E+03    -229.088E-03     456.234E-03    -227.146E-03     189.707E-03    -237.714E-03     464.736E-03    -226.782E-03     158.633E-03
            1835     10.7609E-03     49.7889E-03    -29.9844E+06     52.9631E+06     75.1518E+06    -19.2729E+03    -230.061E-03     457.162E-03    -227.101E-03     201.595E-03    -239.254E-03     466.219E-03    -226.759E-03     169.811E-03
            1836     10.0437E-03     49.5197E-03    -36.2554E+06     49.8359E+06     65.8183E+06    -177.436E+03    -230.905E-03     457.946E-03    -227.041E-03     209.149E-03    -240.335E-03     467.234E-03    -226.732E-03     177.090E-03
            1837     9.32693E-03     49.2405E-03    -44.0572E+06     35.8402E+06     54.2120E+06    -381.408E+03    -231.319E-03     458.309E-03    -226.990E-03     210.899E-03    -240.494E-03     467.297E-03    -226.707E-03     179.368E-03
            1838     8.60928E-03     48.9625E-03    -52.2862E+06     24.0064E+06     45.9827E+06     111.170E+03    -231.388E-03     458.355E-03    -226.967E-03     207.367E-03    -239.915E-03     466.648E-03    -226.696E-03     177.084E-03
            1839     7.89157E-03     48.6931E-03    -60.8147E+06    -414.689E+03     35.9378E+06     16.8439E+03    -231.515E-03     458.468E-03    -226.953E-03     198.890E-03    -239.094E-03     465.726E-03    -226.684E-03     170.387E-03
            1840     7.17496E-03     48.4353E-03    -69.3931E+06    -41.1568E+06     20.2915E+06    -213.891E+03    -231.395E-03     458.312E-03    -226.917E-03     186.407E-03    -237.819E-03     464.285E-03    -226.656E-03     160.223E-03
            1841     6.45781E-03     48.1960E-03    -78.1539E+06    -82.0833E+06     2.25370E+06    -259.303E+03    -230.881E-03     457.744E-03    -226.863E-03     171.682E-03    -236.126E-03     462.414E-03    -226.620E-03     148.149E-03
            1842     5.74025E-03     47.9761E-03    -86.9259E+06    -124.562E+06    -16.1079E+06    -425.808E+03    -230.169E-03     456.992E-03    -226.823E-03     155.452E-03    -234.303E-03     460.422E-03    -226.597E-03     134.727E-03
            1843     5.02237E-03     47.7803E-03    -95.5653E+06    -156.679E+06    -33.6356E+06     190.963E+03    -229.427E-03     456.221E-03    -226.794E-03     138.048E-03    -232.574E-03     458.570E-03    -226.596E-03     120.207E-03
            1844     4.30510E-03     47.6065E-03    -104.166E+06    -182.826E+06    -52.4743E+06     275.241E+03    -228.869E-03     455.626E-03    -226.757E-03     119.904E-03    -231.183E-03     457.074E-03    -226.603E-03     104.837E-03
            1845     3.58758E-03     47.4577E-03    -112.259E+06    -222.498E+06    -70.9443E+06     176.622E+03    -228.371E-03     455.099E-03    -226.728E-03     100.899E-03    -229.968E-03     455.713E-03    -226.598E-03     88.5368E-03
            1846     2.87010E-03     47.3343E-03    -120.342E+06    -251.881E+06    -89.1456E+06     182.711E+03    -227.823E-03     454.493E-03    -226.669E-03     81.4078E-03    -228.858E-03     454.464E-03    -226.575E-03     71.6531E-03
            1847     2.15215E-03     47.2370E-03    -127.484E+06    -265.317E+06    -107.746E+06     53.7724E+03    -227.320E-03     453.887E-03    -226.567E-03     61.6158E-03    -227.940E-03     453.425E-03    -226.536E-03     54.3674E-03
            1848     1.43537E-03     47.1663E-03    -132.457E+06    -281.297E+06    -123.869E+06     166.770E+03    -226.915E-03     453.366E-03    -226.451E-03     41.5424E-03    -227.231E-03     452.572E-03    -226.471E-03     36.7197E-03
            1849     718.161E-06     47.1238E-03    -135.285E+06    -302.070E+06    -133.192E+06    -98.7182E+03    -226.458E-03     452.895E-03    -226.437E-03     22.7139E-03    -226.580E-03     451.852E-03    -226.469E-03     20.0989E-03
            1850     13.6284E-03     49.1801E-03    -5.28395E+06     71.0357E+06     86.3788E+06    -61.1610E+03    -226.727E-03     453.910E-03    -227.183E-03     108.982E-03    -231.118E-03     458.283E-03    -226.846E-03     86.3632E-03
            1851     12.9128E-03     48.9879E-03    -9.94040E+06     69.3927E+06     87.8792E+06     189.821E+03    -227.504E-03     454.668E-03    -227.164E-03     154.352E-03    -234.170E-03     461.290E-03    -226.811E-03     126.157E-03
            1852     12.1958E-03     48.7887E-03    -15.5833E+06     63.9761E+06     86.5517E+06     772.332E+03    -228.153E-03     455.295E-03    -227.142E-03     170.967E-03    -235.657E-03     462.720E-03    -226.780E-03     141.683E-03
            1853     11.4783E-03     48.5515E-03    -21.2074E+06     56.9408E+06     83.8040E+06     664.855E+03    -229.232E-03     456.352E-03    -227.120E-03     190.179E-03    -237.865E-03     464.868E-03    -226.753E-03     159.095E-03
            1854     10.7615E-03     48.2974E-03    -27.6626E+06     53.1657E+06     77.2178E+06    -29.8236E+03    -230.196E-03     457.264E-03    -227.068E-03     201.435E-03    -239.378E-03     466.313E-03    -226.719E-03     169.634E-03
            1855     10.0443E-03     48.0254E-03    -35.2726E+06     48.9519E+06     66.2014E+06     504.645E+03    -230.809E-03     457.807E-03    -226.998E-03     208.703E-03    -240.203E-03     467.057E-03    -226.687E-03     176.726E-03
            1856     9.32723E-03     47.7480E-03    -43.0604E+06     36.3912E+06     54.9335E+06     1.20969E+06    -231.188E-03     458.139E-03    -226.951E-03     210.588E-03    -240.339E-03     467.106E-03    -226.666E-03     179.136E-03
            1857     8.60952E-03     47.4717E-03    -51.4492E+06     24.3162E+06     47.1668E+06     704.095E+03    -231.570E-03     458.491E-03    -226.921E-03     206.981E-03    -240.084E-03     466.772E-03    -226.646E-03     176.694E-03
            1858     7.89261E-03     47.1993E-03    -59.8770E+06      830.74E+03     37.1545E+06    -169.156E+03    -231.679E-03     458.561E-03    -226.882E-03     198.330E-03    -239.234E-03     465.798E-03    -226.611E-03     169.845E-03
            1859     7.17540E-03     46.9434E-03    -68.4932E+06    -41.0430E+06     20.6014E+06    -602.144E+03    -231.327E-03     458.156E-03    -226.829E-03     186.196E-03    -237.736E-03     464.116E-03    -226.567E-03     160.035E-03
            1860     6.45801E-03     46.7039E-03    -77.1362E+06    -82.2764E+06     3.16717E+06    -187.865E+03    -230.683E-03     457.467E-03    -226.784E-03     171.737E-03    -235.922E-03     462.130E-03    -226.537E-03     148.240E-03
            1861     5.74057E-03     46.4858E-03    -86.1261E+06    -123.784E+06    -15.4970E+06     271.936E+03    -230.005E-03     456.759E-03    -226.754E-03     155.286E-03    -234.129E-03     460.182E-03    -226.527E-03     134.615E-03
            1862     5.02311E-03     46.2893E-03    -95.2150E+06    -157.786E+06    -34.4324E+06    -95.7323E+03    -229.502E-03     456.217E-03    -226.714E-03     137.848E-03    -232.642E-03     458.558E-03    -226.520E-03     120.000E-03
            1863     4.30539E-03     46.1158E-03    -103.445E+06    -183.680E+06    -52.3673E+06    -224.205E+03    -228.945E-03     455.598E-03    -226.653E-03     119.507E-03    -231.248E-03     457.033E-03    -226.498E-03     104.439E-03
            1864     3.58787E-03     45.9670E-03    -111.834E+06    -222.223E+06    -70.4846E+06     157.702E+03    -228.345E-03     454.939E-03    -226.594E-03     100.449E-03    -229.935E-03     455.548E-03    -226.462E-03     88.1028E-03
            1865     2.87056E-03     45.8436E-03    -119.784E+06    -251.448E+06    -88.3427E+06     338.258E+03    -227.758E-03     454.266E-03    -226.508E-03     81.0538E-03    -228.787E-03     454.234E-03    -226.412E-03     71.3149E-03
            1866     2.15368E-03     45.7471E-03    -127.155E+06    -264.984E+06    -106.968E+06    -9.88249E+03    -227.094E-03     453.495E-03    -226.401E-03     61.5540E-03    -227.714E-03     453.033E-03    -226.367E-03     54.3112E-03
            1867     1.43542E-03     45.6765E-03    -132.468E+06    -281.117E+06    -124.130E+06    -428.543E+03    -226.566E-03     452.920E-03    -226.354E-03     41.8617E-03    -226.883E-03     452.129E-03    -226.375E-03     37.0253E-03
            1868     717.445E-06     45.6344E-03    -135.554E+06    -302.631E+06    -134.459E+06    -94.0052E+03    -226.219E-03     452.837E-03    -226.619E-03     23.1845E-03    -226.341E-03     451.795E-03    -226.656E-03     20.5757E-03
            1869     13.6308E-03     47.6823E-03    -4.09462E+06     70.4758E+06     86.6160E+06     338.113E+03    -226.674E-03     453.811E-03    -227.137E-03     108.869E-03    -231.049E-03     458.171E-03    -226.800E-03     86.2971E-03
            1870     12.9133E-03     47.4968E-03    -10.1683E+06     68.0710E+06     86.5884E+06     35.1911E+03    -227.060E-03     454.186E-03    -227.125E-03     154.289E-03    -233.719E-03     460.799E-03    -226.776E-03     126.136E-03
            1871     12.1954E-03     47.2944E-03    -15.1657E+06     64.3180E+06     86.5924E+06    -20.4336E+03    -228.078E-03     455.198E-03    -227.120E-03     170.952E-03    -235.574E-03     462.617E-03    -226.758E-03     141.679E-03
            1872     11.4786E-03     47.0587E-03    -20.7966E+06     57.0211E+06     83.7866E+06    -144.455E+03    -229.424E-03     456.515E-03    -227.091E-03     189.857E-03    -238.046E-03     465.023E-03    -226.725E-03     158.729E-03
            1873     10.7619E-03     46.8024E-03    -27.9437E+06     52.5418E+06     77.2325E+06     608.790E+03    -230.244E-03     457.274E-03    -227.030E-03     201.076E-03    -239.410E-03     466.303E-03    -226.680E-03     169.295E-03
            1874     10.0453E-03     46.5337E-03    -35.5992E+06     48.4982E+06     67.7342E+06     1.31199E+06    -230.734E-03     457.699E-03    -226.965E-03     208.567E-03    -240.113E-03     466.927E-03    -226.645E-03     176.656E-03
            1875     9.32700E-03     46.2562E-03    -43.0689E+06     36.6385E+06     56.2244E+06     996.614E+03    -231.459E-03     458.362E-03    -226.902E-03     210.271E-03    -240.591E-03     467.308E-03    -226.612E-03     178.823E-03
            1876     8.61058E-03     45.9775E-03    -50.2199E+06     25.9474E+06     48.1774E+06     441.453E+03    -231.800E-03     458.639E-03    -226.840E-03     206.491E-03    -240.292E-03     466.905E-03    -226.564E-03     176.201E-03
            1877     7.89355E-03     45.7080E-03    -58.2062E+06     1.80714E+06     38.2149E+06     332.395E+03    -231.452E-03     458.244E-03    -226.792E-03     198.160E-03    -238.988E-03     465.469E-03    -226.519E-03     169.740E-03
            1878     7.17595E-03     45.4514E-03    -66.9977E+06    -40.9093E+06     21.1987E+06     238.152E+03    -231.056E-03     457.810E-03    -226.754E-03     186.088E-03    -237.446E-03     463.756E-03    -226.492E-03     159.998E-03
            1879     6.45858E-03     45.2130E-03    -76.3787E+06    -82.9214E+06     3.07130E+06     55.3013E+03    -230.621E-03     457.336E-03    -226.716E-03     171.288E-03    -235.842E-03     461.983E-03    -226.469E-03     147.819E-03
            1880     5.74080E-03     44.9949E-03    -85.2387E+06    -124.008E+06    -14.7153E+06     514.620E+03    -230.135E-03     456.806E-03    -226.671E-03     154.821E-03    -234.244E-03     460.215E-03    -226.441E-03     134.158E-03
            1881     5.02333E-03     44.7982E-03    -93.7440E+06    -156.856E+06    -33.2113E+06     432.725E+03    -229.589E-03     456.188E-03    -226.599E-03     137.422E-03    -232.717E-03     458.523E-03    -226.402E-03     119.581E-03
            1882     4.30624E-03     44.6251E-03    -102.906E+06    -183.262E+06    -52.4417E+06     236.744E+03    -228.845E-03     455.357E-03    -226.511E-03     119.183E-03    -231.139E-03     456.786E-03    -226.359E-03     104.155E-03
            1883     3.58892E-03     44.4767E-03    -111.214E+06    -222.311E+06    -71.2764E+06     75.4251E+03    -228.128E-03     454.583E-03    -226.455E-03     100.614E-03    -229.714E-03     455.191E-03    -226.327E-03     88.2867E-03
            1884     2.87122E-03     44.3539E-03    -118.531E+06    -251.448E+06    -89.8561E+06    -6.89591E+03    -227.519E-03     453.913E-03    -226.395E-03     81.4617E-03    -228.541E-03     453.883E-03    -226.307E-03     71.7413E-03
            1885     2.15285E-03     44.2573E-03    -123.969E+06    -263.530E+06    -107.547E+06    -277.533E+03    -226.916E-03     453.248E-03    -226.332E-03     61.6800E-03    -227.519E-03     452.787E-03    -226.308E-03     54.4689E-03
            1886     1.43530E-03     44.1881E-03    -128.471E+06    -282.823E+06    -121.050E+06    -376.591E+03    -226.534E-03     452.869E-03    -226.335E-03     41.7362E-03    -226.833E-03     452.059E-03    -226.343E-03     36.9105E-03
            1887     717.363E-06     44.1443E-03    -131.052E+06    -303.006E+06    -128.661E+06     705.230E+03    -226.266E-03     452.813E-03    -226.547E-03     22.6076E-03    -226.373E-03     451.752E-03    -226.561E-03     20.0000E-03
            1888     13.6305E-03     46.1925E-03    -4.48822E+06     70.6070E+06     86.3658E+06     682.536E+03    -226.455E-03     453.588E-03    -227.133E-03     109.882E-03    -230.852E-03     457.970E-03    -226.797E-03     87.3095E-03
            1889     12.9128E-03     46.0017E-03    -9.18071E+06     69.8216E+06     88.0844E+06     456.933E+03    -227.239E-03     454.370E-03    -227.131E-03     155.346E-03    -233.923E-03     461.013E-03    -226.778E-03     127.169E-03
            1890     12.1965E-03     45.8026E-03    -15.8892E+06     64.0788E+06     85.7830E+06    -649.393E+03    -228.612E-03     455.713E-03    -227.101E-03     171.404E-03    -236.134E-03     463.157E-03    -226.742E-03     141.996E-03
            1891     11.4794E-03     45.5637E-03    -23.0432E+06     55.0796E+06     81.2126E+06    -155.857E+03    -229.449E-03     456.500E-03    -227.051E-03     189.856E-03    -238.051E-03     464.981E-03    -226.692E-03     158.790E-03
            1892     10.7625E-03     45.3101E-03    -29.5963E+06     51.3772E+06     75.3358E+06     215.801E+03    -230.081E-03     457.077E-03    -226.996E-03     200.997E-03    -239.225E-03     466.080E-03    -226.651E-03     169.297E-03
            1893     10.0443E-03     45.0408E-03    -36.0734E+06     48.2586E+06     66.7954E+06    -7.13163E+03    -231.155E-03     458.074E-03    -226.919E-03     208.313E-03    -240.531E-03     467.300E-03    -226.603E-03     176.320E-03
            1894     9.32874E-03     44.7626E-03    -42.4568E+06     37.1500E+06     56.6490E+06    -53.4078E+03    -231.763E-03     458.590E-03    -226.827E-03     209.918E-03    -240.882E-03     467.525E-03    -226.536E-03     178.425E-03
            1895     8.61152E-03     44.4854E-03    -49.9083E+06     26.1907E+06     48.5953E+06    -112.952E+03    -231.564E-03     458.319E-03    -226.755E-03     206.286E-03    -240.038E-03     466.568E-03    -226.477E-03     176.051E-03
            1896     7.89379E-03     44.2163E-03    -58.4742E+06     1.25957E+06     38.1812E+06     81.1456E+03    -231.290E-03     458.005E-03    -226.715E-03     198.018E-03    -238.820E-03     465.221E-03    -226.442E-03     169.618E-03
            1897     7.17642E-03     43.9600E-03    -67.5921E+06    -40.4453E+06     21.3207E+06     736.986E+03    -231.040E-03     457.716E-03    -226.676E-03     185.765E-03    -237.423E-03     463.654E-03    -226.413E-03     159.705E-03
            1898     6.45879E-03     43.7217E-03    -76.6050E+06    -82.3057E+06     2.46183E+06     663.435E+03    -230.699E-03     457.316E-03    -226.617E-03     170.801E-03    -235.903E-03     461.948E-03    -226.374E-03     147.374E-03
            1899     5.74188E-03     43.5037E-03    -85.4457E+06    -125.400E+06    -15.8264E+06    -112.659E+03    -230.217E-03     456.763E-03    -226.546E-03     154.431E-03    -234.311E-03     460.155E-03    -226.320E-03     133.777E-03
            1900     5.02466E-03     43.3077E-03    -94.1122E+06    -156.679E+06    -33.0294E+06     430.659E+03    -229.410E-03     455.877E-03    -226.466E-03     137.216E-03    -232.531E-03     458.203E-03    -226.268E-03     119.421E-03
            1901     4.30678E-03     43.1349E-03    -102.309E+06    -181.785E+06    -51.9713E+06     788.615E+03    -228.549E-03     454.944E-03    -226.395E-03     119.216E-03    -230.838E-03     456.376E-03    -226.243E-03     104.239E-03
            1902     3.58856E-03     42.9874E-03    -110.407E+06    -221.707E+06    -71.4149E+06     122.471E+03    -227.933E-03     454.296E-03    -226.363E-03     100.556E-03    -229.512E-03     454.903E-03    -226.238E-03     88.2596E-03
            1903     2.87064E-03     42.8640E-03    -117.982E+06    -251.237E+06    -90.7165E+06    -566.072E+03    -227.392E-03     453.709E-03    -226.316E-03     81.0333E-03    -228.407E-03     453.675E-03    -226.234E-03     71.3261E-03
            1904     2.15346E-03     42.7682E-03    -124.289E+06    -264.098E+06    -109.243E+06    -417.921E+03    -226.941E-03     453.174E-03    -226.233E-03     61.0184E-03    -227.537E-03     452.708E-03    -226.216E-03     53.8258E-03
            1905     1.43552E-03     42.6982E-03    -127.984E+06    -283.485E+06    -122.559E+06    -63.3784E+03    -226.647E-03     452.782E-03    -226.135E-03     41.3596E-03    -226.938E-03     451.968E-03    -226.151E-03     36.5422E-03
            1906     718.453E-06     42.6548E-03    -130.997E+06    -303.619E+06    -129.124E+06    -769.087E+03    -226.293E-03     452.270E-03    -225.977E-03     22.3850E-03    -226.398E-03     451.207E-03    -225.992E-03     19.7462E-03
            1907     13.6290E-03     44.6966E-03    -3.79795E+06     71.7315E+06     87.3848E+06     539.863E+03    -226.607E-03     453.774E-03    -227.167E-03     109.459E-03    -230.992E-03     458.147E-03    -226.829E-03     86.8622E-03
            1908     12.9126E-03     44.5098E-03    -9.55234E+06     69.2955E+06     87.4229E+06     591.880E+03    -227.824E-03     454.965E-03    -227.141E-03     155.097E-03    -234.485E-03     461.585E-03    -226.790E-03     126.903E-03
            1909     12.1955E-03     44.3052E-03    -15.1361E+06     62.6750E+06     85.5047E+06     725.443E+03    -228.791E-03     455.882E-03    -227.091E-03     171.136E-03    -236.282E-03     463.294E-03    -226.733E-03     141.784E-03
            1910     11.4797E-03     44.0714E-03    -21.0815E+06     56.3478E+06     82.7489E+06     960.249E+03    -229.504E-03     456.541E-03    -227.037E-03     189.437E-03    -238.086E-03     465.008E-03    -226.674E-03     158.401E-03
            1911     10.7617E-03     43.8172E-03    -27.7702E+06     52.1402E+06     76.0051E+06    -14.3158E+03    -230.487E-03     457.446E-03    -226.959E-03     200.643E-03    -239.615E-03     466.440E-03    -226.614E-03     168.888E-03
            1912     10.0464E-03     43.5465E-03    -34.7098E+06     47.9339E+06     66.4543E+06    -607.033E+03    -231.345E-03     458.198E-03    -226.853E-03     207.905E-03    -240.695E-03     467.403E-03    -226.540E-03     175.894E-03
            1913     9.32899E-03     43.2695E-03    -42.5389E+06     37.0165E+06     56.2139E+06    -505.365E+03    -231.503E-03     458.262E-03    -226.759E-03     209.782E-03    -240.615E-03     467.191E-03    -226.470E-03     178.317E-03
            1914     8.61169E-03     42.9939E-03    -50.4550E+06     25.6362E+06     48.3798E+06    -44.8537E+03    -231.525E-03     458.220E-03    -226.695E-03     206.321E-03    -239.999E-03     466.466E-03    -226.417E-03     176.092E-03
            1915     7.89458E-03     42.7243E-03    -59.4606E+06     866.564E+03     37.1609E+06     361.513E+03    -231.483E-03     458.121E-03    -226.638E-03     197.677E-03    -239.000E-03     465.322E-03    -226.367E-03     169.290E-03
            1916     7.17719E-03     42.4690E-03    -68.3921E+06    -41.2554E+06     20.3225E+06     221.911E+03    -231.177E-03     457.749E-03    -226.571E-03     185.253E-03    -237.543E-03     463.666E-03    -226.311E-03     159.202E-03
            1917     6.46010E-03     42.2304E-03    -76.8324E+06    -81.7025E+06     2.96801E+06     696.934E+03    -230.653E-03     457.150E-03    -226.497E-03     170.490E-03    -235.842E-03     461.768E-03    -226.252E-03     147.114E-03
            1918     5.74243E-03     42.0129E-03    -86.0553E+06    -123.968E+06    -16.1630E+06     680.807E+03    -230.010E-03     456.432E-03    -226.421E-03     154.283E-03    -234.096E-03     459.818E-03    -226.198E-03     133.706E-03
            1919     5.02472E-03     41.8175E-03    -95.0355E+06    -157.478E+06    -34.6331E+06    -182.557E+03    -229.268E-03     455.612E-03    -226.345E-03     136.940E-03    -232.380E-03     457.929E-03    -226.152E-03     119.179E-03
            1920     4.30683E-03     41.6459E-03    -103.359E+06    -182.323E+06    -52.5374E+06    -216.649E+03    -228.568E-03     454.831E-03    -226.263E-03     118.600E-03    -230.849E-03     456.250E-03    -226.112E-03     103.635E-03
            1921     3.58942E-03     41.4973E-03    -111.503E+06    -221.014E+06    -71.0875E+06     63.8204E+03    -227.914E-03     454.110E-03    -226.196E-03     99.5732E-03    -229.487E-03     454.709E-03    -226.070E-03     87.3041E-03
            1922     2.87196E-03     41.3752E-03    -119.575E+06    -250.829E+06    -89.4914E+06     280.450E+03    -227.179E-03     453.309E-03    -226.131E-03     80.3137E-03    -228.195E-03     453.270E-03    -226.041E-03     70.6549E-03
            1923     2.15363E-03     41.2785E-03    -127.055E+06    -265.205E+06    -108.889E+06     539.163E+03    -226.659E-03     452.718E-03    -226.059E-03     61.0692E-03    -227.267E-03     452.250E-03    -226.035E-03     53.9084E-03
            1924     1.43629E-03     41.2094E-03    -132.968E+06    -282.530E+06    -126.655E+06     554.921E+03    -226.316E-03     452.320E-03    -226.004E-03     41.6211E-03    -226.627E-03     451.524E-03    -226.035E-03     36.8349E-03
            1925     717.588E-06     41.1667E-03    -134.891E+06    -303.533E+06    -135.613E+06     326.958E+03    -226.292E-03     452.107E-03    -225.815E-03     22.6752E-03    -226.408E-03     451.060E-03    -225.857E-03     20.0493E-03
            1926     13.6298E-03     43.2040E-03    -5.57396E+06     69.3923E+06     84.5941E+06    -711.948E+03    -227.012E-03     454.157E-03    -227.146E-03     108.460E-03    -231.381E-03     458.507E-03    -226.815E-03     85.8335E-03
            1927     12.9131E-03     43.0133E-03    -9.09414E+06     70.0219E+06     87.3293E+06    -7.65348E+03    -227.832E-03     454.942E-03    -227.111E-03     154.465E-03    -234.471E-03     461.544E-03    -226.762E-03     126.283E-03
            1928     12.1971E-03     42.8128E-03    -13.8546E+06     64.1228E+06     87.4781E+06     1.38667E+06    -228.680E-03     455.747E-03    -227.068E-03     170.232E-03    -236.130E-03     463.122E-03    -226.703E-03     140.985E-03
            1929     11.4789E-03     42.5770E-03    -20.1830E+06     57.9542E+06     85.0808E+06     446.613E+03    -229.756E-03     456.759E-03    -227.004E-03     188.508E-03    -238.315E-03     465.206E-03    -226.633E-03     157.433E-03
            1930     10.7640E-03     42.3229E-03    -27.2496E+06     53.2212E+06     78.6265E+06     195.175E+03    -230.633E-03     457.540E-03    -226.907E-03     200.123E-03    -239.745E-03     466.517E-03    -226.552E-03     168.359E-03
            1931     10.0463E-03     42.0530E-03    -34.7377E+06     48.0024E+06     68.0757E+06     218.755E+03    -230.995E-03     457.796E-03    -226.801E-03     207.846E-03    -240.332E-03     466.982E-03    -226.480E-03     175.925E-03
            1932     9.32930E-03     41.7779E-03    -42.4644E+06     37.1111E+06     56.3426E+06     225.325E+03    -231.455E-03     458.164E-03    -226.709E-03     209.478E-03    -240.543E-03     467.070E-03    -226.419E-03     178.065E-03
            1933     8.61212E-03     41.5010E-03    -51.0496E+06     25.1357E+06     47.2404E+06     309.199E+03    -231.743E-03     458.368E-03    -226.625E-03     205.594E-03    -240.187E-03     466.583E-03    -226.351E-03     175.380E-03
            1934     7.89506E-03     41.2325E-03    -59.3424E+06     970.091E+03     36.9289E+06     551.615E+03    -231.592E-03     458.136E-03    -226.544E-03     197.070E-03    -239.080E-03     465.310E-03    -226.275E-03     168.718E-03
            1935     7.17817E-03     40.9771E-03    -68.2682E+06    -41.0622E+06     20.0060E+06     497.894E+03    -231.204E-03     457.662E-03    -226.458E-03     184.926E-03    -237.549E-03     463.560E-03    -226.199E-03     158.925E-03
            1936     6.46063E-03     40.7399E-03    -77.4981E+06    -82.5409E+06      2.2157E+06     215.447E+03    -230.599E-03     456.970E-03    -226.371E-03     170.205E-03    -235.774E-03     461.571E-03    -226.128E-03     146.863E-03
            1937     5.74309E-03     40.5227E-03    -85.8590E+06    -122.926E+06    -15.2131E+06     763.375E+03    -229.925E-03     456.214E-03    -226.289E-03     153.627E-03    -233.994E-03     459.586E-03    -226.062E-03     133.097E-03
            1938     5.02546E-03     40.3278E-03    -94.6844E+06    -156.315E+06    -34.1109E+06     698.036E+03    -229.300E-03     455.485E-03    -226.185E-03     136.032E-03    -232.393E-03     457.786E-03    -225.992E-03     118.328E-03
            1939     4.30830E-03     40.1558E-03    -103.743E+06    -182.896E+06    -53.0149E+06    -184.985E+03    -228.583E-03     454.646E-03    -226.062E-03     118.015E-03    -230.852E-03     456.051E-03    -225.912E-03     103.085E-03
            1940     3.59061E-03     40.0084E-03    -112.353E+06    -221.474E+06    -71.0420E+06     39.3032E+03    -227.703E-03     453.679E-03    -225.976E-03     99.4120E-03    -229.273E-03     454.270E-03    -225.847E-03     87.1906E-03
            1941     2.87227E-03     39.8869E-03    -120.355E+06    -251.420E+06    -89.0701E+06     815.660E+03    -226.926E-03     452.841E-03    -225.915E-03     80.4093E-03    -227.942E-03     452.795E-03    -225.821E-03     70.8029E-03
            1942     2.15427E-03     39.7908E-03    -127.350E+06    -264.894E+06    -107.416E+06     1.14592E+06    -226.342E-03     452.213E-03    -225.871E-03     60.9491E-03    -226.952E-03     451.742E-03    -225.839E-03     53.8214E-03
            1943     1.43534E-03     39.7207E-03    -132.916E+06    -281.234E+06    -124.005E+06     1.31783E+06    -225.974E-03     451.863E-03    -225.890E-03     41.0969E-03    -226.288E-03     451.067E-03    -225.909E-03     36.3426E-03
            1944     717.974E-06     39.6786E-03    -135.748E+06    -301.029E+06    -133.548E+06     985.444E+03    -226.130E-03     451.947E-03    -225.818E-03     22.4759E-03    -226.254E-03     450.909E-03    -225.852E-03     19.9023E-03
            1945     13.6308E-03     41.7100E-03    -4.40914E+06     70.6205E+06     85.5251E+06     152.984E+03    -227.481E-03     454.609E-03    -227.129E-03     109.341E-03    -231.856E-03     458.972E-03    -226.797E-03     86.7105E-03
            1946     12.9139E-03     41.5195E-03    -10.5156E+06     69.1625E+06     86.8767E+06     1.38746E+03    -228.040E-03     455.115E-03    -227.076E-03     154.716E-03    -234.694E-03     461.726E-03    -226.726E-03     126.503E-03
            1947     12.1963E-03     41.3184E-03    -16.4599E+06     62.8649E+06     85.8395E+06    -608.904E+03    -228.883E-03     455.898E-03    -227.014E-03     170.157E-03    -236.345E-03     463.275E-03    -226.652E-03     140.828E-03
            1948     11.4816E-03     41.0827E-03    -22.1017E+06     57.2860E+06     83.5721E+06    -461.809E+03    -229.817E-03     456.755E-03    -226.938E-03     188.603E-03    -238.371E-03     465.191E-03    -226.571E-03     157.532E-03
            1949     10.7637E-03     40.8290E-03    -28.1523E+06     52.4781E+06     77.1540E+06    -239.336E+03    -230.333E-03     457.178E-03    -226.845E-03     199.983E-03    -239.428E-03     466.135E-03    -226.494E-03     168.282E-03
            1950     10.0469E-03     40.5616E-03    -34.9050E+06     47.8141E+06     67.0747E+06     291.719E+03    -231.049E-03     457.791E-03    -226.742E-03     207.405E-03    -240.357E-03     466.950E-03    -226.425E-03     175.511E-03
            1951     9.32977E-03     40.2840E-03    -42.2149E+06     36.9665E+06     55.9904E+06     660.999E+03    -231.693E-03     458.327E-03    -226.634E-03     208.802E-03    -240.739E-03     467.192E-03    -226.346E-03     177.426E-03
            1952     8.61342E-03     40.0090E-03    -50.0531E+06     25.4145E+06     47.4504E+06     893.031E+03    -231.800E-03     458.330E-03    -226.529E-03     205.044E-03    -240.208E-03     466.512E-03    -226.256E-03     174.887E-03
            1953     7.89631E-03     39.7407E-03    -58.9633E+06     713.769E+03     37.0578E+06     983.373E+03    -231.576E-03     458.013E-03    -226.437E-03     196.670E-03    -239.038E-03     465.161E-03    -226.167E-03     168.370E-03
            1954     7.17870E-03     39.4861E-03    -68.0378E+06    -39.9822E+06     20.7286E+06     1.28558E+06    -231.194E-03     457.532E-03    -226.338E-03     184.266E-03    -237.509E-03     463.403E-03    -226.078E-03     158.340E-03
            1955     6.46151E-03     39.2492E-03    -76.9985E+06    -81.5086E+06     2.15562E+06     697.320E+03    -230.667E-03     456.891E-03    -226.224E-03     169.390E-03    -235.814E-03     461.469E-03    -225.983E-03     146.099E-03
            1956     5.74426E-03     39.0325E-03    -86.0825E+06    -124.458E+06    -15.8972E+06     161.502E+03    -230.041E-03     456.147E-03    -226.106E-03     152.981E-03    -234.090E-03     459.495E-03    -225.880E-03     132.473E-03
            1957     5.02697E-03     38.8382E-03    -94.4579E+06    -155.554E+06    -32.9997E+06     926.827E+03    -229.242E-03     455.214E-03    -225.972E-03     135.605E-03    -232.321E-03     457.502E-03    -225.775E-03     117.958E-03
            1958     4.30892E-03     38.6666E-03    -102.948E+06    -181.138E+06    -51.8642E+06     993.026E+03    -228.276E-03     454.115E-03    -225.839E-03     117.521E-03    -230.532E-03     455.513E-03    -225.687E-03     102.675E-03
            1959     3.59073E-03     38.5205E-03    -111.711E+06    -221.967E+06    -70.9451E+06     652.442E+03    -227.474E-03     453.227E-03    -225.753E-03     98.7826E-03    -229.029E-03     453.804E-03    -225.624E-03     86.6206E-03
            1960     2.87279E-03     38.3990E-03    -119.880E+06    -251.934E+06    -89.4268E+06     560.011E+03    -226.870E-03     452.530E-03    -225.660E-03     79.6948E-03    -227.876E-03     452.476E-03    -225.568E-03     70.1033E-03
            1961     2.15468E-03     38.3029E-03    -126.997E+06    -264.947E+06    -107.595E+06     614.494E+03    -226.286E-03     451.823E-03    -225.537E-03     60.2165E-03    -226.889E-03     451.347E-03    -225.507E-03     53.0984E-03
            1962     1.43713E-03     38.2339E-03    -132.008E+06    -279.761E+06    -122.678E+06     560.537E+03    -225.801E-03     451.236E-03    -225.435E-03     40.4904E-03    -226.111E-03     450.440E-03    -225.451E-03     35.7642E-03
            1963     718.065E-06     38.1902E-03    -134.364E+06    -298.797E+06    -132.420E+06    -35.4024E+03    -225.838E-03     450.878E-03    -225.040E-03     21.9798E-03    -225.959E-03     449.845E-03    -225.074E-03     19.4282E-03
            1964     13.6289E-03     40.2119E-03    -4.58435E+06     72.1532E+06     87.9091E+06     793.830E+03    -227.856E-03     455.002E-03    -227.146E-03     109.286E-03    -232.233E-03     459.364E-03    -226.804E-03     86.6200E-03
            1965     12.9138E-03     40.0254E-03    -9.81790E+06     69.0252E+06     87.6068E+06     822.525E+03    -228.544E-03     455.602E-03    -227.058E-03     154.063E-03    -235.186E-03     462.201E-03    -226.706E-03     125.777E-03
            1966     12.1985E-03     39.8239E-03    -15.6266E+06     61.9617E+06     85.5385E+06    -731.656E+03    -228.994E-03     455.967E-03    -226.973E-03     170.407E-03    -236.452E-03     463.342E-03    -226.613E-03     141.048E-03
            1967     11.4805E-03     39.5882E-03    -21.8031E+06     56.4210E+06     82.3920E+06    -1.14981E+06    -229.647E-03     456.541E-03    -226.894E-03     188.674E-03    -238.191E-03     464.969E-03    -226.532E-03     157.612E-03
            1968     10.7644E-03     39.3369E-03    -28.4218E+06     51.4902E+06     74.9577E+06    -841.912E+03    -230.553E-03     457.345E-03    -226.792E-03     199.724E-03    -239.628E-03     466.285E-03    -226.451E-03     167.993E-03
            1969     10.0475E-03     39.0674E-03    -35.6618E+06     46.9246E+06     65.0910E+06    -357.070E+03    -231.393E-03     458.059E-03    -226.666E-03     206.968E-03    -240.667E-03     467.185E-03    -226.357E-03     175.077E-03
            1970     9.33140E-03     38.7920E-03    -43.0438E+06     35.7165E+06     54.8364E+06     129.461E+03    -231.743E-03     458.285E-03    -226.542E-03     208.624E-03    -240.765E-03     467.122E-03    -226.257E-03     177.290E-03
            1971     8.61375E-03     38.5166E-03    -50.9623E+06     24.0392E+06     46.8017E+06     993.991E+03    -231.876E-03     458.303E-03    -226.427E-03     204.730E-03    -240.259E-03     466.455E-03    -226.154E-03     174.620E-03
            1972     7.89674E-03     38.2489E-03    -59.5496E+06     1.05057E+06     36.8122E+06     1.46955E+06    -231.729E-03     458.039E-03    -226.310E-03     195.885E-03    -239.158E-03     465.154E-03    -226.041E-03     167.641E-03
            1973     7.18007E-03     37.9950E-03    -68.1851E+06    -39.2926E+06     20.8766E+06     981.064E+03    -231.327E-03     457.505E-03    -226.178E-03     183.418E-03    -237.614E-03     463.350E-03    -225.918E-03     157.524E-03
            1974     6.46286E-03     37.7586E-03    -76.8186E+06    -80.4359E+06     2.90458E+06     1.05798E+06    -230.729E-03     456.757E-03    -226.028E-03     168.477E-03    -235.849E-03     461.311E-03    -225.786E-03     145.242E-03
            1975     5.74543E-03     37.5428E-03    -85.6320E+06    -123.625E+06    -15.9676E+06     759.032E+03    -229.961E-03     455.836E-03    -225.874E-03     152.129E-03    -233.984E-03     459.162E-03    -225.651E-03     131.693E-03
            1976     5.02781E-03     37.3486E-03    -94.6270E+06    -156.356E+06      -33.54E+06     281.979E+03    -229.019E-03     454.741E-03    -225.722E-03     134.765E-03    -232.080E-03     457.008E-03    -225.526E-03     117.157E-03
            1977     4.31020E-03     37.1789E-03    -103.283E+06    -180.575E+06    -51.5532E+06     960.295E+03    -228.093E-03     453.666E-03    -225.573E-03     116.653E-03    -230.338E-03     455.052E-03    -225.419E-03     101.850E-03
            1978     3.59227E-03     37.0326E-03    -111.434E+06    -220.824E+06    -70.4767E+06     992.271E+03    -227.429E-03     452.871E-03    -225.443E-03     98.0442E-03    -228.975E-03     453.443E-03    -225.314E-03     85.9144E-03
            1979     2.87428E-03     36.9115E-03    -119.311E+06    -251.453E+06    -89.0545E+06     701.413E+03    -226.768E-03     452.048E-03    -225.280E-03     79.0123E-03    -227.765E-03     451.987E-03    -225.188E-03     69.4572E-03
            1980     2.15604E-03     36.8163E-03    -126.184E+06    -264.262E+06    -107.875E+06       464.1E+03    -226.010E-03     451.094E-03    -225.085E-03     59.7524E-03    -226.604E-03     450.615E-03    -225.058E-03     52.6823E-03
            1981     1.43718E-03     36.7469E-03    -130.475E+06    -278.497E+06    -123.522E+06    -165.028E+03    -225.404E-03     450.326E-03    -224.922E-03     40.5776E-03    -225.705E-03     449.534E-03    -224.947E-03     35.8758E-03
            1982     719.415E-06     36.7054E-03    -132.803E+06    -299.364E+06    -131.914E+06    -422.556E+03    -224.961E-03     449.839E-03    -224.878E-03     22.7607E-03    -225.076E-03     448.802E-03    -224.911E-03     20.1774E-03
            1983     13.6309E-03     38.7159E-03    -4.91154E+06     70.6383E+06     86.3771E+06     135.697E+03    -227.850E-03     454.971E-03    -227.122E-03     108.835E-03    -232.218E-03     459.322E-03    -226.785E-03     86.1244E-03
            1984     12.9144E-03     38.5295E-03    -8.56480E+06     69.3930E+06     88.2907E+06    -359.676E+03    -228.421E-03     455.461E-03    -227.041E-03     153.462E-03    -235.035E-03     462.036E-03    -226.688E-03     125.185E-03
            1985     12.1973E-03     38.3291E-03    -13.4015E+06     63.7231E+06     87.4264E+06     21.7501E+03    -228.996E-03     455.955E-03    -226.960E-03     170.169E-03    -236.427E-03     463.312E-03    -226.595E-03     140.848E-03
            1986     11.4817E-03     38.0956E-03    -20.0996E+06     57.0668E+06     83.4569E+06     318.408E+03    -229.885E-03     456.755E-03    -226.870E-03     188.353E-03    -238.395E-03     465.155E-03    -226.506E-03     157.324E-03
            1987     10.7646E-03     37.8419E-03    -28.0289E+06     51.7411E+06     75.4375E+06     376.666E+03    -230.842E-03     457.590E-03    -226.749E-03     199.440E-03    -239.882E-03     466.496E-03    -226.406E-03     167.762E-03
            1988     10.0487E-03     37.5743E-03    -35.8708E+06     46.7192E+06     65.2026E+06     398.296E+03    -231.513E-03     458.118E-03    -226.605E-03     206.828E-03    -240.769E-03     467.224E-03    -226.295E-03     174.973E-03
            1989     9.33112E-03     37.2994E-03    -44.0209E+06     34.6800E+06     54.2495E+06     642.327E+03    -232.047E-03     458.504E-03    -226.457E-03     208.274E-03    -241.053E-03     467.319E-03    -226.172E-03     176.937E-03
            1990     8.61510E-03     37.0239E-03    -52.1712E+06     23.1384E+06     46.1111E+06     755.442E+03    -232.194E-03     458.499E-03    -226.304E-03     203.894E-03    -240.546E-03     466.614E-03    -226.032E-03     173.796E-03
            1991     7.89858E-03     36.7574E-03    -60.0167E+06     1.58872E+06     36.6056E+06     389.107E+03    -231.935E-03     458.079E-03    -226.143E-03     194.932E-03    -239.333E-03     465.163E-03    -225.875E-03     166.699E-03
            1992     7.18137E-03     36.5037E-03    -68.3791E+06    -39.2825E+06     20.1668E+06     308.795E+03    -231.465E-03     457.431E-03    -225.965E-03     182.467E-03    -237.723E-03     463.247E-03    -225.708E-03     156.591E-03
            1993     6.46446E-03     36.2683E-03    -76.9496E+06    -80.7530E+06     2.69338E+06     569.972E+03    -230.713E-03     456.492E-03    -225.779E-03     167.511E-03    -235.806E-03     461.017E-03    -225.537E-03     144.319E-03
            1994     5.74729E-03     36.0533E-03    -85.6210E+06    -122.411E+06    -15.2683E+06     928.129E+03    -229.772E-03     455.371E-03    -225.599E-03     151.192E-03    -233.773E-03     458.678E-03    -225.374E-03     130.820E-03
            1995     5.02970E-03     35.8606E-03    -94.5413E+06    -155.961E+06    -33.8226E+06     744.304E+03    -228.799E-03     454.221E-03    -225.422E-03     133.948E-03    -231.840E-03     456.471E-03    -225.228E-03     116.409E-03
            1996     4.31148E-03     35.6911E-03    -103.169E+06    -180.930E+06    -51.8515E+06     401.764E+03    -227.958E-03     453.204E-03    -225.246E-03     116.093E-03    -230.189E-03     454.577E-03    -225.093E-03     101.331E-03
            1997     3.59346E-03     35.5453E-03    -111.285E+06    -220.322E+06    -70.1730E+06     590.782E+03    -227.185E-03     452.272E-03    -225.087E-03     97.7376E-03    -228.724E-03     452.836E-03    -224.957E-03     85.6608E-03
            1998     2.87522E-03     35.4250E-03    -118.715E+06    -250.804E+06    -88.5105E+06     568.792E+03    -226.369E-03     451.285E-03    -224.916E-03     78.9883E-03    -227.360E-03     451.221E-03    -224.823E-03     69.4822E-03
            1999     2.15687E-03     35.3304E-03    -125.292E+06    -263.096E+06    -106.745E+06     410.791E+03    -225.571E-03     450.316E-03    -224.745E-03     59.8845E-03    -226.162E-03     449.838E-03    -224.716E-03     52.8555E-03
            2000     1.43822E-03     35.2630E-03    -130.552E+06    -277.816E+06    -123.370E+06     319.454E+03    -224.977E-03     449.611E-03    -224.634E-03     40.6850E-03    -225.280E-03     448.821E-03    -224.658E-03     36.0013E-03
            2001     718.259E-06     35.2197E-03    -133.858E+06    -299.790E+06    -132.506E+06     41.5373E+03    -224.274E-03     449.321E-03    -225.047E-03     22.0717E-03    -224.391E-03     448.285E-03    -225.081E-03     19.5262E-03
            2002     13.6303E-03     37.2205E-03    -4.06794E+06     70.9124E+06     86.7042E+06    -455.963E+03    -227.630E-03     454.722E-03    -227.092E-03     108.814E-03    -231.977E-03     459.054E-03    -226.755E-03     86.1618E-03
            2003     12.9142E-03     37.0343E-03    -9.15755E+06     69.5733E+06     87.6011E+06    -872.219E+03    -228.141E-03     455.163E-03    -227.022E-03     153.325E-03    -234.719E-03     461.702E-03    -226.672E-03     125.160E-03
            2004     12.1984E-03     36.8352E-03    -15.7025E+06     62.2142E+06     85.2263E+06    -623.160E+03    -229.184E-03     456.124E-03    -226.940E-03     169.601E-03    -236.585E-03     463.443E-03    -226.581E-03     140.305E-03
            2005     11.4812E-03     36.6003E-03    -22.1095E+06     55.1472E+06     82.1265E+06     940.033E+03    -230.145E-03     456.984E-03    -226.839E-03     188.108E-03    -238.626E-03     465.344E-03    -226.476E-03     157.139E-03
            2006     10.7658E-03     36.3481E-03    -28.5677E+06     52.8785E+06     76.7134E+06     1.46583E+06    -231.033E-03     457.740E-03    -226.707E-03     199.159E-03    -240.056E-03     466.627E-03    -226.359E-03     167.513E-03
            2007     10.0482E-03     36.0813E-03    -35.9614E+06     46.7877E+06     66.4516E+06     1.07194E+06    -231.981E-03     458.514E-03    -226.533E-03     205.881E-03    -241.210E-03     467.589E-03    -226.216E-03     173.987E-03
            2008     9.33293E-03     35.8052E-03    -43.2087E+06     34.6042E+06     54.9476E+06     1.19135E+06    -232.429E-03     458.761E-03    -226.332E-03     206.801E-03    -241.384E-03     467.526E-03    -226.045E-03     175.463E-03
            2009     8.61643E-03     35.5317E-03    -50.6189E+06     24.8857E+06     46.9640E+06     636.544E+03    -232.353E-03     458.485E-03    -226.132E-03     202.805E-03    -240.662E-03     466.566E-03    -225.859E-03     172.728E-03
            2010     7.89967E-03     35.2650E-03    -58.9009E+06     1.39397E+06     36.7204E+06     196.015E+03    -232.066E-03     457.998E-03    -225.932E-03     194.018E-03    -239.427E-03     465.049E-03    -225.665E-03     165.805E-03
            2011     7.18350E-03     35.0129E-03    -67.8221E+06    -39.2125E+06     20.3990E+06     412.023E+03    -231.397E-03     457.120E-03    -225.724E-03     181.577E-03    -237.620E-03     462.904E-03    -225.466E-03     155.763E-03
            2012     6.46644E-03     34.7784E-03    -77.0808E+06    -80.4589E+06     2.35479E+06     475.722E+03    -230.495E-03     456.013E-03    -225.518E-03     167.060E-03    -235.567E-03     460.520E-03    -225.278E-03     143.939E-03
            2013     5.74892E-03     34.5648E-03    -85.7361E+06    -122.807E+06    -15.4893E+06     683.692E+03    -229.592E-03     454.922E-03    -225.330E-03     150.923E-03    -233.577E-03     458.212E-03    -225.105E-03     130.619E-03
            2014     5.03096E-03     34.3731E-03    -94.1602E+06    -155.075E+06    -33.5267E+06     854.947E+03    -228.718E-03     453.851E-03    -225.133E-03     133.791E-03    -231.745E-03     456.090E-03    -224.939E-03     116.322E-03
            2015     4.31323E-03     34.2041E-03    -102.586E+06    -180.440E+06    -52.2349E+06     444.430E+03    -227.780E-03     452.708E-03    -224.927E-03     115.844E-03    -229.996E-03     454.070E-03    -224.778E-03     101.153E-03
            2016     3.59484E-03     34.0595E-03    -110.632E+06    -220.567E+06    -70.2139E+06     204.664E+03    -226.831E-03     451.592E-03    -224.761E-03     97.3911E-03    -228.354E-03     452.143E-03    -224.632E-03     85.3845E-03
            2017     2.87610E-03     33.9398E-03    -118.247E+06    -250.462E+06    -88.2497E+06     240.782E+03    -225.942E-03     450.549E-03    -224.607E-03     78.4661E-03    -226.924E-03     450.477E-03    -224.513E-03     69.0117E-03
            2018     2.15683E-03     33.8461E-03    -125.013E+06    -262.951E+06    -106.556E+06     437.592E+03    -225.261E-03     449.707E-03    -224.446E-03     59.1962E-03    -225.846E-03     449.223E-03    -224.416E-03     52.1980E-03
            2019     1.43777E-03     33.7780E-03    -130.237E+06    -277.499E+06    -122.459E+06     676.863E+03    -224.812E-03     449.094E-03    -224.282E-03     39.8634E-03    -225.111E-03     448.301E-03    -224.303E-03     35.2097E-03
            2020     719.733E-06     33.7367E-03    -132.383E+06    -298.358E+06    -131.329E+06     715.437E+03    -224.432E-03     448.501E-03    -224.070E-03     21.2812E-03    -224.542E-03     447.465E-03    -224.102E-03     18.7811E-03
            2021     13.6317E-03     35.7275E-03    -4.11308E+06     71.8043E+06     86.7363E+06    -652.234E+03    -227.747E-03     454.839E-03    -227.092E-03     108.683E-03    -232.081E-03     459.161E-03    -226.756E-03     86.0813E-03
            2022     12.9144E-03     35.5390E-03    -10.4626E+06     69.2356E+06     86.1294E+06    -431.479E+03    -228.410E-03     455.421E-03    -227.011E-03     153.768E-03    -234.986E-03     461.955E-03    -226.665E-03     125.613E-03
            2023     12.1979E-03     35.3401E-03    -16.1790E+06     61.3804E+06     84.3048E+06     506.642E+03    -229.477E-03     456.391E-03    -226.915E-03     169.141E-03    -236.850E-03     463.680E-03    -226.559E-03     139.881E-03
            2024     11.4825E-03     35.1060E-03    -22.3341E+06     53.9087E+06     81.4950E+06     385.198E+03    -230.529E-03     457.320E-03    -226.791E-03     187.542E-03    -238.988E-03     465.654E-03    -226.429E-03     156.533E-03
            2025     10.7651E-03     34.8544E-03    -28.8032E+06     51.8847E+06     75.8054E+06     485.188E+03    -231.700E-03     458.312E-03    -226.611E-03     197.835E-03    -240.690E-03     467.164E-03    -226.266E-03     166.078E-03
            2026     10.0509E-03     34.5854E-03    -34.8147E+06     46.6249E+06     66.4755E+06     882.750E+03    -232.304E-03     458.689E-03    -226.385E-03     204.370E-03    -241.476E-03     467.710E-03    -226.070E-03     172.471E-03
            2027     9.33472E-03     34.3127E-03    -41.7819E+06     34.8628E+06     55.7076E+06     868.869E+03    -232.473E-03     458.626E-03    -226.153E-03     205.986E-03    -241.385E-03     467.352E-03    -225.865E-03     174.682E-03
            2028     8.61833E-03     34.0393E-03    -49.9051E+06     25.7559E+06     47.6019E+06     1.01580E+06    -232.427E-03     458.354E-03    -225.927E-03     202.156E-03    -240.704E-03     466.407E-03    -225.654E-03     172.119E-03
            2029     7.90234E-03     33.7733E-03    -58.9334E+06     2.00945E+06     36.8647E+06     1.06780E+06    -231.837E-03     457.549E-03    -225.712E-03     193.396E-03    -239.160E-03     464.562E-03    -225.445E-03     165.307E-03
            2030     7.18510E-03     33.5227E-03    -67.9050E+06    -38.7869E+06     20.3733E+06     791.787E+03    -231.080E-03     456.586E-03    -225.506E-03     181.437E-03    -237.283E-03     462.351E-03    -225.250E-03     155.727E-03
            2031     6.46762E-03     33.2895E-03    -76.5651E+06    -79.8734E+06     2.36215E+06     726.448E+03    -230.382E-03     455.682E-03    -225.300E-03     166.839E-03    -235.434E-03     460.171E-03    -225.061E-03     143.798E-03
            2032     5.74989E-03     33.0766E-03    -85.2764E+06    -123.041E+06    -16.0842E+06     656.056E+03    -229.611E-03     454.697E-03    -225.086E-03     150.237E-03    -233.564E-03     457.957E-03    -224.864E-03     130.014E-03
            2033     5.03231E-03     32.8857E-03    -93.7103E+06    -155.343E+06    -33.8100E+06     441.821E+03    -228.644E-03     453.497E-03    -224.854E-03     132.885E-03    -231.643E-03     455.711E-03    -224.662E-03     115.483E-03
            2034     4.31405E-03     32.7176E-03    -101.982E+06    -179.241E+06    -52.0394E+06     518.836E+03    -227.580E-03     452.197E-03    -224.617E-03     114.954E-03    -229.774E-03     453.544E-03    -224.469E-03     100.341E-03
            2035     3.59562E-03     32.5744E-03    -110.123E+06    -220.049E+06    -70.3635E+06     251.417E+03    -226.652E-03     451.068E-03    -224.416E-03     96.4240E-03    -228.159E-03     451.607E-03    -224.289E-03     84.4655E-03
            2036     2.87700E-03     32.4553E-03    -117.901E+06    -250.695E+06    -88.3402E+06     311.869E+03    -225.720E-03     449.934E-03    -224.214E-03     77.3797E-03    -226.687E-03     449.849E-03    -224.122E-03     67.9849E-03
            2037     2.15848E-03     32.3626E-03    -124.684E+06    -262.982E+06    -107.039E+06     683.431E+03    -224.882E-03     448.894E-03    -224.012E-03     58.5369E-03    -225.458E-03     448.404E-03    -223.985E-03     51.5866E-03
            2038     1.43958E-03     32.2945E-03    -128.992E+06    -276.590E+06    -122.882E+06     615.667E+03    -224.291E-03     448.152E-03    -223.861E-03     39.7086E-03    -224.584E-03     447.361E-03    -223.887E-03     35.0851E-03
            2039     719.498E-06     32.2543E-03    -130.945E+06    -296.806E+06    -130.157E+06     546.206E+03    -224.062E-03     447.732E-03    -223.671E-03     21.8237E-03    -224.169E-03     446.700E-03    -223.701E-03     19.3349E-03
            2040     13.6295E-03     34.2330E-03    -4.62228E+06     70.5410E+06     84.8977E+06    -407.817E+03    -228.494E-03     455.615E-03    -227.121E-03     108.683E-03    -232.846E-03     459.955E-03    -226.792E-03     85.9511E-03
            2041     12.9142E-03     34.0426E-03    -9.77419E+06     69.9989E+06     86.6044E+06     90.1810E+03    -229.108E-03     456.115E-03    -227.007E-03     153.693E-03    -235.703E-03     462.673E-03    -226.662E-03     125.396E-03
            2042     12.1991E-03     33.8449E-03    -15.3005E+06     62.2868E+06     85.4504E+06     991.008E+03    -230.106E-03     456.978E-03    -226.871E-03     168.315E-03    -237.461E-03     464.251E-03    -226.512E-03     138.978E-03
            2043     11.4821E-03     33.6114E-03    -21.6231E+06     54.9679E+06     81.9264E+06     139.618E+03    -231.341E-03     458.030E-03    -226.689E-03     186.351E-03    -239.771E-03     466.341E-03    -226.328E-03     155.216E-03
            2044     10.7691E-03     33.3571E-03    -28.1114E+06     51.2235E+06     75.2939E+06    -274.794E+03    -231.836E-03     458.300E-03    -226.464E-03     197.116E-03    -240.782E-03     467.109E-03    -226.121E-03     165.380E-03
            2045     10.0525E-03     33.0930E-03    -35.2432E+06     45.8680E+06     65.5517E+06     304.762E+03    -232.206E-03     458.432E-03    -226.226E-03     204.499E-03    -241.352E-03     467.426E-03    -225.914E-03     172.673E-03
            2046     9.33591E-03     32.8193E-03    -42.8718E+06     34.9951E+06     54.9219E+06     724.629E+03    -232.636E-03     458.619E-03    -225.983E-03     206.015E-03    -241.531E-03     467.326E-03    -225.697E-03     174.746E-03
            2047     8.62037E-03     32.5461E-03    -50.4630E+06     25.0267E+06     46.8975E+06     914.828E+03    -232.259E-03     458.004E-03    -225.746E-03     201.817E-03    -240.498E-03     466.017E-03    -225.474E-03     171.889E-03
            2048     7.90323E-03     32.2831E-03    -58.3719E+06     2.73952E+06     36.9300E+06     1.45484E+06    -231.564E-03     457.100E-03    -225.536E-03     193.354E-03    -238.854E-03     464.086E-03    -225.270E-03     165.388E-03
            2049     7.18585E-03     32.0330E-03    -67.1904E+06    -37.6896E+06     20.3535E+06     1.46423E+06    -231.132E-03     456.455E-03    -225.323E-03     180.893E-03    -237.296E-03     462.188E-03    -225.069E-03     155.279E-03
            2050     6.46873E-03     31.8003E-03    -76.0204E+06    -79.5441E+06     2.03047E+06     1.03664E+06    -230.535E-03     455.614E-03    -225.079E-03     165.676E-03    -235.539E-03     460.060E-03    -224.843E-03     142.718E-03
            2051     5.75173E-03     31.5885E-03    -84.5399E+06    -123.007E+06    -16.3472E+06     608.297E+03    -229.686E-03     454.500E-03    -224.814E-03     149.097E-03    -233.602E-03     457.726E-03    -224.595E-03     128.938E-03
            2052     5.03410E-03     31.3988E-03    -92.9655E+06    -155.227E+06    -33.8106E+06     622.809E+03    -228.581E-03     453.113E-03    -224.532E-03     131.667E-03    -231.548E-03     455.297E-03    -224.341E-03     114.338E-03
            2053     4.31596E-03     31.2328E-03    -101.481E+06    -178.576E+06    -51.6689E+06     717.824E+03    -227.424E-03     451.673E-03    -224.249E-03     113.823E-03    -229.596E-03     453.001E-03    -224.101E-03     99.2707E-03
            2054     3.59756E-03     31.0892E-03    -109.931E+06    -219.270E+06    -70.2541E+06     664.988E+03    -226.354E-03     450.361E-03    -224.007E-03     95.4284E-03    -227.847E-03     450.889E-03    -223.881E-03     83.5394E-03
            2055     2.87889E-03     30.9725E-03    -117.855E+06    -250.808E+06    -88.4633E+06     732.162E+03    -225.335E-03     449.117E-03    -223.781E-03     76.8940E-03    -226.292E-03     449.022E-03    -223.689E-03     67.5681E-03
            2056     2.15909E-03     30.8800E-03    -124.539E+06    -262.989E+06    -106.547E+06     700.170E+03    -224.463E-03     448.032E-03    -223.569E-03     58.2611E-03    -225.035E-03     447.537E-03    -223.539E-03     51.3578E-03
            2057     1.43891E-03     30.8136E-03    -129.409E+06    -275.985E+06    -122.490E+06     1.02775E+06    -223.777E-03     447.204E-03    -223.427E-03     39.1178E-03    -224.069E-03     446.413E-03    -223.452E-03     34.5349E-03
            2058     719.355E-06     30.7725E-03    -132.354E+06    -293.738E+06    -131.816E+06     1.33622E+06    -223.431E-03     446.862E-03    -223.431E-03     20.8471E-03    -223.546E-03     445.846E-03    -223.472E-03     18.4014E-03
            2059     13.6299E-03     32.7327E-03    -5.33328E+06     70.4036E+06     85.0162E+06     495.956E+03    -229.086E-03     456.232E-03    -227.146E-03     107.964E-03    -233.426E-03     460.556E-03    -226.815E-03     85.1873E-03
            2060     12.9152E-03     32.5475E-03    -9.87558E+06     69.8301E+06     86.9281E+06     724.292E+03    -230.024E-03     457.011E-03    -226.987E-03     152.624E-03    -236.596E-03     463.544E-03    -226.640E-03     124.236E-03
            2061     12.1987E-03     32.3480E-03    -15.5168E+06     61.8202E+06     84.7777E+06    -100.853E+03    -230.885E-03     457.677E-03    -226.793E-03     168.087E-03    -238.234E-03     464.945E-03    -226.436E-03     138.615E-03
            2062     11.4865E-03     32.1135E-03    -21.4516E+06     56.3135E+06     82.1889E+06    -55.2141E+03    -231.390E-03     457.971E-03    -226.582E-03     186.409E-03    -239.806E-03     466.274E-03    -226.221E-03     155.288E-03
            2063     10.7688E-03     31.8644E-03    -27.9676E+06     51.3801E+06     75.7640E+06    -50.0422E+03    -231.683E-03     458.044E-03    -226.360E-03     197.669E-03    -240.613E-03     466.837E-03    -226.016E-03     166.028E-03
            2064     10.0525E-03     31.5985E-03    -34.9427E+06     44.1394E+06     65.3134E+06     491.277E+03    -232.496E-03     458.610E-03    -226.114E-03     204.489E-03    -241.613E-03     467.570E-03    -225.800E-03     172.691E-03
            2065     9.33792E-03     31.3248E-03    -41.8582E+06     35.0066E+06     54.8599E+06     1.10370E+06    -232.532E-03     458.385E-03    -225.853E-03     205.458E-03    -241.372E-03     467.042E-03    -225.569E-03     174.306E-03
            2066     8.62110E-03     31.0553E-03    -49.4262E+06     24.5651E+06     46.4062E+06     1.39390E+06    -232.098E-03     457.713E-03    -225.615E-03     201.418E-03    -240.286E-03     465.678E-03    -225.346E-03     171.612E-03
            2067     7.90399E-03     30.7927E-03    -58.1968E+06     2.26576E+06     35.9748E+06     1.38851E+06    -231.945E-03     457.323E-03    -225.378E-03     192.467E-03    -239.193E-03     464.268E-03    -225.117E-03     164.516E-03
            2068     7.18767E-03     30.5423E-03    -66.9598E+06    -36.5533E+06     20.1874E+06     1.59826E+06    -231.498E-03     456.603E-03    -225.104E-03     179.490E-03    -237.609E-03     462.288E-03    -224.853E-03     153.928E-03
            2069     6.47095E-03     30.3119E-03    -75.4981E+06    -78.4238E+06     2.12025E+06     1.18563E+06    -230.643E-03     455.442E-03    -224.799E-03     164.329E-03    -235.600E-03     459.846E-03    -224.565E-03     141.447E-03
            2070     5.75336E-03     30.1004E-03    -84.1732E+06    -122.376E+06    -16.2793E+06     895.003E+03    -229.576E-03     454.064E-03    -224.488E-03     147.787E-03    -233.454E-03     457.256E-03    -224.270E-03     127.713E-03
            2071     5.03567E-03     29.9129E-03    -93.0571E+06    -154.824E+06    -34.1014E+06     1.25068E+06    -228.430E-03     452.595E-03    -224.165E-03     130.464E-03    -231.368E-03     454.752E-03    -223.976E-03     113.230E-03
            2072     4.31769E-03     29.7473E-03    -101.603E+06    -178.049E+06    -52.1545E+06     1.11877E+06    -227.184E-03     451.025E-03    -223.842E-03     112.848E-03    -229.335E-03     452.335E-03    -223.697E-03     98.3861E-03
            2073     3.59892E-03     29.6066E-03    -109.777E+06    -218.694E+06    -70.0331E+06     1.06598E+06    -225.917E-03     449.499E-03    -223.582E-03     94.5616E-03    -227.391E-03     450.010E-03    -223.456E-03     82.7839E-03
            2074     2.87919E-03     29.4903E-03    -117.591E+06    -250.434E+06    -87.7719E+06     1.11492E+06    -224.935E-03     448.283E-03    -223.348E-03     76.0692E-03    -225.880E-03     448.176E-03    -223.254E-03     66.8224E-03
            2075     2.16013E-03     29.3988E-03    -124.564E+06    -262.627E+06    -105.595E+06     1.28627E+06    -224.115E-03     447.218E-03    -223.103E-03     57.2863E-03    -224.680E-03     446.715E-03    -223.070E-03     50.4451E-03
            2076     1.44103E-03     29.3331E-03    -130.225E+06    -275.436E+06    -120.989E+06     1.69184E+06    -223.433E-03     446.315E-03    -222.883E-03     38.5888E-03    -223.728E-03     445.521E-03    -222.899E-03     34.0623E-03
            2077     720.915E-06     29.2927E-03    -133.988E+06    -288.846E+06    -131.542E+06     1.84914E+06    -223.041E-03     445.624E-03    -222.583E-03     20.6779E-03    -223.170E-03     444.634E-03    -222.628E-03     18.2746E-03
            2078     13.6295E-03     31.2343E-03    -4.14227E+06     71.1350E+06     86.4768E+06     447.727E+03    -229.191E-03     456.304E-03    -227.112E-03     106.843E-03    -233.475E-03     460.574E-03    -226.777E-03     84.1973E-03
            2079     12.9146E-03     31.0491E-03    -9.18699E+06     68.0916E+06     86.3407E+06     551.459E+03    -230.115E-03     457.054E-03    -226.939E-03     152.037E-03    -236.635E-03     463.533E-03    -226.593E-03     123.721E-03
            2080     12.2021E-03     30.8500E-03    -14.5146E+06     61.4550E+06     84.6597E+06    -226.858E+03    -230.859E-03     457.601E-03    -226.742E-03     168.604E-03    -238.191E-03     464.854E-03    -226.387E-03     139.179E-03
            2081     11.4839E-03     30.6185E-03    -20.2231E+06     56.2983E+06     81.7902E+06     256.289E+03    -231.312E-03     457.845E-03    -226.533E-03     186.400E-03    -239.707E-03     466.131E-03    -226.176E-03     155.325E-03
            2082     10.7694E-03     30.3699E-03    -27.1815E+06     50.5836E+06     74.3019E+06     917.785E+03    -232.201E-03     458.490E-03    -226.289E-03     197.118E-03    -241.097E-03     467.253E-03    -225.951E-03     165.456E-03
            2083     10.0551E-03     30.1023E-03    -34.4455E+06     43.3452E+06     64.3873E+06     886.720E+03    -232.500E-03     458.521E-03    -226.021E-03     203.976E-03    -241.568E-03     467.434E-03    -225.712E-03     172.257E-03
            2084     9.33821E-03     29.8335E-03    -41.7730E+06     33.7589E+06     54.1467E+06     1.14341E+06    -232.406E-03     458.166E-03    -225.760E-03     205.017E-03    -241.198E-03     466.772E-03    -225.478E-03     173.961E-03
            2085     8.62139E-03     29.5633E-03    -49.9379E+06     24.2619E+06     45.6989E+06     1.77038E+06    -232.695E-03     458.185E-03    -225.489E-03     200.644E-03    -240.846E-03     466.112E-03    -225.224E-03     170.818E-03
            2086     7.90611E-03     29.3003E-03    -58.2373E+06     3.36575E+06     35.8554E+06     1.91349E+06    -232.544E-03     457.723E-03    -225.179E-03     191.154E-03    -239.744E-03     464.624E-03    -224.920E-03     163.208E-03
            2087     7.18966E-03     29.0530E-03    -66.7373E+06    -35.7661E+06     19.9194E+06     1.39811E+06    -231.803E-03     456.631E-03    -224.828E-03     178.179E-03    -237.865E-03     462.272E-03    -224.580E-03     152.657E-03
            2088     6.47272E-03     28.8224E-03    -75.7097E+06    -77.6169E+06     1.85069E+06     1.39142E+06    -230.759E-03     455.216E-03    -224.457E-03     162.733E-03    -235.664E-03     459.571E-03    -224.226E-03     139.947E-03
            2089     5.75587E-03     28.6142E-03    -84.6209E+06    -121.535E+06    -16.6812E+06     1.51625E+06    -229.505E-03     453.590E-03    -224.085E-03     145.920E-03    -233.329E-03     456.731E-03    -223.869E-03     125.985E-03
            2090     5.03799E-03     28.4272E-03    -93.0758E+06    -154.508E+06    -34.4425E+06     1.45150E+06    -228.154E-03     451.867E-03    -223.713E-03     128.585E-03    -231.043E-03     453.977E-03    -223.526E-03     111.497E-03
            2091     4.31952E-03     28.2638E-03    -101.380E+06    -176.991E+06    -52.2184E+06     1.36065E+06    -226.736E-03     450.091E-03    -223.356E-03     110.781E-03    -228.842E-03     451.361E-03    -223.213E-03     96.4816E-03
            2092     3.60044E-03     28.1245E-03    -109.503E+06    -218.124E+06    -70.1203E+06     1.13189E+06    -225.523E-03     448.586E-03    -223.063E-03     92.7570E-03    -226.966E-03     449.069E-03    -222.938E-03     81.0952E-03
            2093     2.88159E-03     28.0094E-03    -117.050E+06    -250.265E+06    -87.4158E+06     1.23247E+06    -224.501E-03     447.288E-03    -222.787E-03     74.6735E-03    -225.426E-03     447.162E-03    -222.692E-03     65.5241E-03
            2094     2.16149E-03     27.9188E-03    -123.907E+06    -261.847E+06    -104.677E+06     1.49876E+06    -223.494E-03     446.017E-03    -222.522E-03     56.2502E-03    -224.047E-03     445.503E-03    -222.486E-03     49.5080E-03
            2095     1.44053E-03     27.8546E-03    -129.352E+06    -273.794E+06    -119.760E+06     1.59975E+06    -222.675E-03     445.034E-03    -222.359E-03     38.1350E-03    -222.964E-03     444.239E-03    -222.373E-03     33.6829E-03
            2096     720.125E-06     27.8141E-03    -132.312E+06    -284.519E+06    -129.590E+06     850.759E+03    -222.375E-03     444.688E-03    -222.313E-03     20.9468E-03    -222.504E-03     443.714E-03    -222.357E-03     18.5404E-03
            2097     13.6326E-03     29.7394E-03    -3.65584E+06     70.7285E+06     85.8765E+06    -411.410E+03    -229.597E-03     456.673E-03    -227.075E-03     107.458E-03    -233.873E-03     460.937E-03    -226.743E-03     84.8203E-03
            2098     12.9167E-03     29.5513E-03    -8.91253E+06     67.3220E+06     85.9788E+06    -436.334E+03    -229.845E-03     456.749E-03    -226.904E-03     152.797E-03    -236.361E-03     463.223E-03    -226.558E-03     124.510E-03
            2099     12.1989E-03     29.3530E-03    -14.6162E+06     60.8641E+06     84.2149E+06     575.812E+03    -230.659E-03     457.378E-03    -226.719E-03     167.712E-03    -237.953E-03     464.592E-03    -226.365E-03     138.359E-03
            2100     11.4860E-03     29.1230E-03    -21.3860E+06     55.1294E+06     80.7005E+06     982.802E+03    -231.627E-03     458.126E-03    -226.499E-03     185.546E-03    -239.985E-03     466.370E-03    -226.144E-03     154.489E-03
            2101     10.7711E-03     28.8721E-03    -28.7299E+06     50.8123E+06     73.8661E+06     1.26982E+06    -232.183E-03     458.426E-03    -226.243E-03     197.015E-03    -241.059E-03     467.166E-03    -225.906E-03     165.398E-03
            2102     10.0543E-03     28.6101E-03    -36.2011E+06     44.5186E+06     63.6630E+06     1.04837E+06    -232.563E-03     458.531E-03    -225.969E-03     203.858E-03    -241.611E-03     467.425E-03    -225.662E-03     172.171E-03
            2103     9.33831E-03     28.3399E-03    -43.8902E+06     33.1128E+06     52.6652E+06     457.907E+03    -233.306E-03     458.967E-03    -225.662E-03     204.156E-03    -242.070E-03     467.541E-03    -225.383E-03     172.988E-03
            2104     8.62385E-03     28.0697E-03    -51.2747E+06     23.3092E+06     44.7032E+06     754.018E+03    -233.495E-03     458.798E-03    -225.303E-03     199.015E-03    -241.585E-03     466.659E-03    -225.039E-03     169.145E-03
            2105     7.90760E-03     27.8089E-03    -58.8800E+06     3.26377E+06     35.1204E+06     1.33707E+06    -232.948E-03     457.854E-03    -224.906E-03     189.243E-03    -240.068E-03     464.674E-03    -224.650E-03     161.368E-03
            2106     7.19178E-03     27.5621E-03    -67.5215E+06    -35.3441E+06     19.0601E+06     1.77514E+06    -232.097E-03     456.571E-03    -224.475E-03     175.895E-03    -238.078E-03     462.132E-03    -224.230E-03     150.485E-03
            2107     6.47583E-03     27.3344E-03    -76.2411E+06    -76.5408E+06     1.31333E+06     1.68163E+06    -230.857E-03     454.879E-03    -224.022E-03     160.330E-03    -235.682E-03     459.158E-03    -223.794E-03     137.697E-03
            2108     5.75851E-03     27.1276E-03    -84.3833E+06    -120.897E+06    -16.8096E+06     1.35335E+06    -229.455E-03     453.029E-03    -223.574E-03     143.643E-03    -233.205E-03     456.099E-03    -223.360E-03     123.877E-03
            2109     5.04103E-03     26.9431E-03    -92.4928E+06    -154.487E+06    -34.6656E+06     1.37195E+06    -227.914E-03     451.044E-03    -223.130E-03     126.352E-03    -230.737E-03     453.091E-03    -222.945E-03     109.447E-03
            2110     4.32252E-03     26.7818E-03    -100.609E+06    -175.878E+06    -51.7866E+06     1.55777E+06    -226.352E-03     449.062E-03    -222.710E-03     108.654E-03    -228.408E-03     450.287E-03    -222.568E-03     94.5307E-03
            2111     3.60338E-03     26.6441E-03    -108.517E+06    -216.794E+06    -68.8634E+06     1.29016E+06    -225.042E-03     447.400E-03    -222.359E-03     90.9026E-03    -226.448E-03     447.852E-03    -222.231E-03     79.3986E-03
            2112     2.88312E-03     26.5302E-03    -116.142E+06    -249.892E+06    -85.8304E+06     936.694E+03    -223.794E-03     445.836E-03    -222.042E-03     73.0160E-03    -224.693E-03     445.684E-03    -221.941E-03     64.0008E-03
            2113     2.16289E-03     26.4414E-03    -122.851E+06    -260.879E+06    -102.657E+06     764.635E+03    -222.681E-03     444.448E-03    -221.767E-03     54.8527E-03    -223.218E-03     443.921E-03    -221.724E-03     48.2077E-03
            2114     1.44263E-03     26.3776E-03    -128.068E+06    -272.261E+06    -118.347E+06     264.379E+03    -221.935E-03     443.521E-03    -221.586E-03     36.7967E-03    -222.214E-03     442.722E-03    -221.597E-03     32.4021E-03
            2115     720.976E-06     26.3384E-03    -130.859E+06    -282.980E+06    -128.659E+06    -86.5006E+03    -221.682E-03     443.094E-03    -221.412E-03     19.9107E-03    -221.804E-03     442.120E-03    -221.455E-03     17.5618E-03
            2116     13.6292E-03     28.2397E-03    -4.99696E+06     68.9225E+06     84.0219E+06    -1.04698E+06    -229.975E-03     457.090E-03    -227.115E-03     108.547E-03    -234.273E-03     461.371E-03    -226.788E-03     85.7837E-03
            2117     12.9152E-03     28.0543E-03    -9.66368E+06     66.6132E+06     85.2711E+06    -182.078E+03    -230.593E-03     457.511E-03    -226.919E-03     152.916E-03    -237.113E-03     463.987E-03    -226.575E-03     124.539E-03
            2118     12.2025E-03     27.8569E-03    -15.8043E+06     61.4444E+06     83.9827E+06     1.58844E+06    -230.832E-03     457.543E-03    -226.711E-03     168.013E-03    -238.129E-03     464.758E-03    -226.357E-03     138.674E-03
            2119     11.4857E-03     27.6252E-03    -22.5697E+06     55.7631E+06     80.8951E+06     1.67791E+06    -231.584E-03     458.078E-03    -226.494E-03     186.359E-03    -239.940E-03     466.317E-03    -226.137E-03     155.360E-03
            2120     10.7698E-03     27.3781E-03    -28.8035E+06     51.5761E+06     75.0186E+06     1.13194E+06    -232.484E-03     458.718E-03    -226.234E-03     196.645E-03    -241.338E-03     467.435E-03    -225.892E-03     164.996E-03
            2121     10.0545E-03     27.1152E-03    -35.5292E+06     45.0729E+06     64.7326E+06     899.532E+03    -233.647E-03     459.547E-03    -225.900E-03     202.321E-03    -242.643E-03     468.389E-03    -225.590E-03     170.496E-03
            2122     9.34077E-03     26.8438E-03    -42.3398E+06     33.8706E+06     53.2547E+06     1.13588E+06    -234.370E-03     459.857E-03    -225.488E-03     202.322E-03    -243.051E-03     468.354E-03    -225.209E-03     171.102E-03
            2123     8.62551E-03     26.5767E-03    -50.0034E+06     22.7514E+06     44.4832E+06     1.26524E+06    -234.213E-03     459.237E-03    -225.024E-03     196.810E-03    -242.200E-03     466.998E-03    -224.762E-03     166.980E-03
            2124     7.91099E-03     26.3166E-03    -59.1592E+06     2.37274E+06       33.88E+06     1.87480E+06    -233.459E-03     457.985E-03    -224.526E-03     186.741E-03    -240.465E-03     464.691E-03    -224.274E-03     158.992E-03
            2125     7.19569E-03     26.0722E-03    -67.7350E+06    -34.7187E+06     18.2670E+06     1.63604E+06    -232.334E-03     456.334E-03    -224.000E-03     173.258E-03    -238.201E-03     461.785E-03    -223.760E-03     148.033E-03
            2126     6.47912E-03     25.8466E-03    -75.4883E+06    -75.3524E+06     1.58805E+06     951.232E+03    -230.931E-03     454.391E-03    -223.460E-03     157.586E-03    -235.654E-03     458.574E-03    -223.233E-03     135.132E-03
            2127     5.76248E-03     25.6423E-03    -83.5960E+06    -120.262E+06    -15.8267E+06     980.734E+03    -229.355E-03     452.278E-03    -222.924E-03     140.796E-03    -233.013E-03     455.259E-03    -222.707E-03     121.240E-03
            2128     5.04450E-03     25.4601E-03    -91.6777E+06    -154.186E+06    -33.7665E+06     1.12496E+06    -227.698E-03     450.082E-03    -222.383E-03     123.398E-03    -230.440E-03     452.049E-03    -222.196E-03     106.714E-03
            2129     4.32581E-03     25.3013E-03    -99.2977E+06    -175.339E+06    -51.0883E+06     1.07078E+06    -226.029E-03     447.883E-03    -221.854E-03     105.776E-03    -228.019E-03     449.046E-03    -221.711E-03     91.8493E-03
            2130     3.60629E-03     25.1653E-03    -106.642E+06    -215.504E+06    -66.2713E+06     956.971E+03    -224.460E-03     445.862E-03    -221.402E-03     88.0643E-03    -225.815E-03     446.265E-03    -221.266E-03     76.7528E-03
            2131     2.88649E-03     25.0538E-03    -114.072E+06    -248.353E+06    -81.8176E+06     320.573E+03    -222.978E-03     443.975E-03    -220.997E-03     70.3057E-03    -223.840E-03     443.788E-03    -220.881E-03     61.4495E-03
            2132     2.16532E-03     24.9662E-03    -120.962E+06    -260.231E+06    -100.137E+06    -354.322E+03    -221.761E-03     442.384E-03    -220.624E-03     52.6684E-03    -222.272E-03     441.833E-03    -220.571E-03     46.1490E-03
            2133     1.44332E-03     24.9034E-03    -126.107E+06    -271.954E+06    -116.638E+06    -560.406E+03    -220.991E-03     441.287E-03    -220.295E-03     35.3425E-03    -221.253E-03     440.474E-03    -220.301E-03     31.0368E-03
            2134     722.531E-06     24.8643E-03    -130.115E+06    -283.772E+06    -127.955E+06    -142.939E+03    -220.831E-03     440.312E-03    -219.481E-03     19.1665E-03    -220.946E-03     439.330E-03    -219.520E-03     16.8700E-03
            2135     13.6292E-03     26.7383E-03    -4.98361E+06     68.5898E+06     83.4053E+06    -211.843E+03    -229.943E-03     457.112E-03    -227.168E-03     108.193E-03    -234.218E-03     461.370E-03    -226.843E-03     85.4760E-03
            2136     12.9159E-03     26.5546E-03    -10.3330E+06     65.2441E+06     84.0672E+06     159.465E+03    -230.645E-03     457.617E-03    -226.972E-03     152.125E-03    -237.130E-03     464.053E-03    -226.631E-03     123.806E-03
            2137     12.1991E-03     26.3598E-03    -15.4082E+06     61.1319E+06     83.8398E+06     1.19627E+06    -231.122E-03     457.882E-03    -226.759E-03     168.493E-03    -238.419E-03     465.098E-03    -226.407E-03     139.119E-03
            2138     11.4847E-03     26.1292E-03    -20.5423E+06     56.3080E+06     82.0075E+06     838.667E+03    -232.253E-03     458.771E-03    -226.518E-03     185.965E-03    -240.593E-03     467.000E-03    -226.160E-03     154.822E-03
            2139     10.7704E-03     25.8811E-03    -26.4820E+06     51.2859E+06     75.4330E+06     1.25224E+06    -233.828E-03     460.012E-03    -226.184E-03     195.423E-03    -242.632E-03     468.686E-03    -225.843E-03     163.589E-03
            2140     10.0574E-03     25.6175E-03    -33.1288E+06     44.4593E+06     65.2892E+06     1.88525E+06    -235.011E-03     460.754E-03    -225.743E-03     200.927E-03    -243.926E-03     469.519E-03    -225.433E-03     169.006E-03
            2141     9.34263E-03     25.3492E-03     -41.121E+06     33.8923E+06     53.8202E+06     2.70475E+06    -235.343E-03     460.564E-03    -225.221E-03     200.412E-03    -243.911E-03     468.950E-03    -224.941E-03     169.240E-03
            2142     8.62922E-03     25.0811E-03    -49.6551E+06     22.9276E+06     44.3671E+06     3.03603E+06    -235.019E-03     459.664E-03    -224.645E-03     194.262E-03    -242.873E-03     467.294E-03    -224.384E-03     164.552E-03
            2143     7.91482E-03     24.8251E-03    -57.4139E+06     3.93659E+06     35.1583E+06     2.32851E+06    -234.098E-03     458.129E-03    -224.031E-03     183.763E-03    -240.959E-03     464.698E-03    -223.777E-03     156.166E-03
            2144     7.19933E-03     24.5823E-03    -65.1118E+06    -32.4462E+06     20.1189E+06     1.35104E+06    -232.783E-03     456.162E-03    -223.378E-03     169.798E-03    -238.497E-03     461.471E-03    -223.136E-03     144.784E-03
            2145     6.48402E-03     24.3597E-03    -73.4939E+06    -74.6483E+06     2.58279E+06     911.426E+03    -231.173E-03     453.873E-03    -222.700E-03     153.448E-03    -235.742E-03     457.909E-03    -222.472E-03     131.263E-03
            2146     5.76704E-03     24.1581E-03    -81.8264E+06    -119.505E+06    -14.1229E+06     819.297E+03    -229.349E-03     451.370E-03    -222.021E-03     136.319E-03    -232.873E-03     454.220E-03    -221.800E-03     117.041E-03
            2147     5.04959E-03     23.9789E-03    -89.6307E+06    -153.562E+06    -30.2436E+06     502.437E+03    -227.437E-03     448.775E-03    -221.338E-03     118.935E-03    -230.068E-03     450.631E-03    -221.137E-03     102.513E-03
            2148     4.33113E-03     23.8224E-03    -97.9279E+06    -176.178E+06    -48.2333E+06     882.872E+03    -225.517E-03     446.171E-03    -220.654E-03     101.521E-03    -227.418E-03     447.239E-03    -220.498E-03     87.8600E-03
            2149     3.61160E-03     23.6896E-03    -106.430E+06    -212.488E+06    -66.5585E+06     696.639E+03    -223.669E-03     443.699E-03    -220.030E-03     84.2179E-03    -224.963E-03     444.054E-03    -219.900E-03     73.1594E-03
            2150     2.89052E-03     23.5801E-03    -113.914E+06    -245.706E+06    -82.8517E+06     -1.2066E+06    -221.935E-03     441.407E-03    -219.472E-03     67.0209E-03    -222.755E-03     441.190E-03    -219.365E-03     58.3876E-03
            2151     2.16905E-03     23.4951E-03    -120.285E+06    -262.255E+06    -99.8076E+06    -1.56405E+06    -220.438E-03     439.408E-03    -218.971E-03     50.2069E-03    -220.915E-03     438.817E-03    -218.915E-03     43.8870E-03
            2152     1.44721E-03     23.4330E-03    -126.076E+06    -273.526E+06    -116.259E+06    -402.071E+03    -219.275E-03     437.841E-03    -218.566E-03     33.7339E-03    -219.523E-03     437.007E-03    -218.567E-03     29.5707E-03
            2153     723.247E-06     23.3958E-03    -129.375E+06    -283.810E+06    -127.587E+06     93.4824E+03    -218.867E-03     436.814E-03    -217.947E-03     18.3589E-03    -218.976E-03     435.827E-03    -217.986E-03     16.1008E-03
            2154     13.6297E-03     25.2394E-03    -4.02906E+06     69.2067E+06     84.2521E+06     1.07051E+06    -229.519E-03     456.721E-03    -227.202E-03     107.748E-03    -233.759E-03     460.948E-03    -226.875E-03     85.2314E-03
            2155     12.9129E-03     25.0572E-03    -9.59103E+06     65.5853E+06     84.7675E+06     658.360E+03    -230.021E-03     457.059E-03    -227.038E-03     152.052E-03    -236.479E-03     463.470E-03    -226.695E-03     123.882E-03
            2156     12.1997E-03     24.8613E-03    -14.8904E+06     60.0311E+06     83.6813E+06    -29.9408E+03    -231.876E-03     458.697E-03    -226.822E-03     167.885E-03    -239.156E-03     465.895E-03    -226.469E-03     138.384E-03
            2157     11.4853E-03     24.6312E-03    -20.6677E+06     55.2583E+06     81.0410E+06     41.0915E+03    -233.771E-03     460.277E-03    -226.506E-03     185.538E-03    -242.098E-03     468.492E-03    -226.151E-03     154.161E-03
            2158     10.7720E-03     24.3816E-03    -27.3430E+06     48.7684E+06     73.8748E+06     673.359E+03    -235.409E-03     461.476E-03    -226.066E-03     194.761E-03    -244.161E-03     470.089E-03    -225.728E-03     162.763E-03
            2159     10.0582E-03     24.1194E-03    -34.2996E+06     42.3785E+06     63.6025E+06     2.60572E+06    -236.446E-03     461.948E-03    -225.501E-03     198.888E-03    -245.253E-03     470.599E-03    -225.195E-03     166.900E-03
            2160     9.34648E-03     23.8512E-03    -41.5522E+06     34.1459E+06     53.4259E+06     3.39494E+06    -236.600E-03     461.444E-03    -224.844E-03     197.361E-03    -245.012E-03     469.674E-03    -224.566E-03     166.223E-03
            2161     8.63316E-03     23.5870E-03    -48.1748E+06     24.5236E+06     46.2705E+06     2.62023E+06    -236.121E-03     460.245E-03    -224.124E-03     190.582E-03    -243.773E-03     467.680E-03    -223.859E-03     161.027E-03
            2162     7.91954E-03     23.3319E-03    -55.5259E+06     6.08710E+06     37.7183E+06     1.57545E+06    -235.212E-03     458.546E-03    -223.333E-03     178.831E-03    -241.850E-03     464.899E-03    -223.073E-03     151.439E-03
            2163     7.20612E-03     23.0932E-03    -64.1856E+06    -30.1997E+06     22.7124E+06     1.37965E+06    -233.622E-03     456.094E-03    -222.472E-03     163.738E-03    -239.109E-03     461.180E-03    -222.221E-03     139.024E-03
            2164     6.49070E-03     22.8733E-03    -72.8140E+06    -73.8627E+06     4.60689E+06     1.39633E+06    -231.565E-03     453.136E-03    -221.571E-03     147.003E-03    -235.917E-03     456.954E-03    -221.336E-03     125.214E-03
            2165     5.77498E-03     22.6757E-03    -81.4051E+06    -117.436E+06    -13.3835E+06     557.562E+03    -229.337E-03     450.001E-03    -220.663E-03     129.700E-03    -232.671E-03     452.668E-03    -220.442E-03     110.837E-03
            2166     5.05741E-03     22.4999E-03    -90.0221E+06    -152.724E+06    -29.8655E+06    -252.218E+03    -226.931E-03     446.698E-03    -219.768E-03     112.567E-03    -229.405E-03     448.397E-03    -219.565E-03     96.5857E-03
            2167     4.33833E-03     22.3470E-03    -98.3628E+06    -178.929E+06    -47.2807E+06     668.684E+03    -224.502E-03     443.404E-03    -218.902E-03     95.6214E-03    -226.274E-03     444.329E-03    -218.737E-03     82.4231E-03
            2168     3.61792E-03     22.2172E-03    -105.937E+06    -207.430E+06    -67.0328E+06     643.840E+03    -222.221E-03     440.323E-03    -218.103E-03     79.1044E-03    -223.425E-03     440.609E-03    -217.983E-03     68.4894E-03
            2169     2.89671E-03     22.1112E-03    -113.366E+06    -242.481E+06    -84.9339E+06    -1.56440E+06    -220.185E-03     437.604E-03    -217.419E-03     63.0231E-03    -220.943E-03     437.344E-03    -217.327E-03     54.7628E-03
            2170     2.17371E-03     22.0286E-03    -120.880E+06    -266.663E+06    -101.111E+06    -1.83301E+06    -218.427E-03     435.279E-03    -216.853E-03     47.4183E-03    -218.867E-03     434.637E-03    -216.796E-03     41.3671E-03
            2171     1.44908E-03     21.9690E-03    -126.445E+06    -275.538E+06    -116.545E+06    -640.414E+03    -217.105E-03     433.523E-03    -216.418E-03     31.9333E-03    -217.338E-03     432.666E-03    -216.418E-03     27.9533E-03
            2172     725.063E-06     21.9331E-03    -129.780E+06    -283.668E+06    -127.010E+06    -299.040E+03    -216.210E-03     432.498E-03    -216.287E-03     17.0834E-03    -216.317E-03     431.505E-03    -216.323E-03     14.9403E-03
            2173     13.6285E-03     23.7451E-03    -4.40039E+06     69.2677E+06     84.4945E+06     1.16193E+06    -229.262E-03     456.531E-03    -227.270E-03     107.537E-03    -233.503E-03     460.757E-03    -226.941E-03     85.0681E-03
            2174     12.9136E-03     23.5588E-03    -9.19387E+06     66.5241E+06     84.9221E+06     1.13420E+06    -230.414E-03     457.521E-03    -227.106E-03     153.472E-03    -236.908E-03     463.971E-03    -226.765E-03     125.240E-03
            2175     12.1979E-03     23.3615E-03    -15.3498E+06     59.0705E+06     82.3884E+06    -168.528E+03    -233.135E-03     459.981E-03    -226.846E-03     168.429E-03    -240.428E-03     467.190E-03    -226.498E-03     138.719E-03
            2176     11.4852E-03     23.1299E-03    -21.2551E+06     54.9699E+06     80.2044E+06     443.840E+03    -235.623E-03     462.059E-03    -226.436E-03     184.707E-03    -243.909E-03     470.231E-03    -226.084E-03     153.111E-03
            2177     10.7731E-03     22.8805E-03    -27.3264E+06     47.5368E+06     74.0204E+06     488.178E+03    -237.382E-03     463.243E-03    -225.861E-03     192.474E-03    -246.013E-03     471.732E-03    -225.521E-03     160.313E-03
            2178     10.0631E-03     22.6186E-03    -33.5443E+06     38.4266E+06     64.0545E+06     976.489E+03    -238.324E-03     463.457E-03    -225.133E-03     195.403E-03    -246.922E-03     471.887E-03    -224.820E-03     163.382E-03
            2179     9.35106E-03     22.3533E-03    -38.4586E+06     33.4586E+06     56.2996E+06     2.01747E+06    -238.588E-03     462.867E-03    -224.279E-03     192.518E-03    -246.726E-03     470.824E-03    -223.990E-03     161.454E-03
            2180     8.63957E-03     22.0913E-03    -45.3101E+06     26.2697E+06     49.5413E+06     2.66249E+06    -238.180E-03     461.484E-03    -223.304E-03     183.889E-03    -245.506E-03     468.599E-03    -223.029E-03     154.538E-03
            2181     7.92830E-03     21.8382E-03    -54.1427E+06     8.54711E+06     40.1980E+06     2.40926E+06    -236.705E-03     458.927E-03    -222.222E-03     170.660E-03    -242.989E-03     464.933E-03    -221.955E-03     143.681E-03
            2182     7.21552E-03     21.6041E-03    -62.9406E+06    -28.4721E+06     25.0516E+06     1.66891E+06    -234.519E-03     455.586E-03    -221.067E-03     155.068E-03    -239.663E-03     460.334E-03    -220.809E-03     130.891E-03
            2183     6.50202E-03     21.3890E-03    -71.6577E+06    -73.4473E+06     6.87767E+06     1.96578E+06    -231.997E-03     451.869E-03    -219.872E-03     138.285E-03    -236.038E-03     455.375E-03    -219.627E-03     117.117E-03
            2184     5.78608E-03     21.1957E-03    -80.3858E+06    -113.203E+06    -12.3352E+06     1.73537E+06    -229.139E-03     447.795E-03    -218.656E-03     120.889E-03    -232.198E-03     450.204E-03    -218.437E-03     102.747E-03
            2185     5.06877E-03     21.0250E-03    -89.0751E+06    -150.741E+06    -31.1623E+06     394.979E+03    -226.100E-03     443.572E-03    -217.472E-03     103.971E-03    -228.340E-03     445.050E-03    -217.280E-03     88.7300E-03
            2186     4.34944E-03     20.8768E-03    -96.9294E+06    -180.706E+06    -48.3175E+06    -105.472E+03    -222.992E-03     439.352E-03    -216.361E-03     87.5321E-03    -224.573E-03     440.088E-03    -216.200E-03     75.0251E-03
            2187     3.62794E-03     20.7514E-03    -104.274E+06    -204.701E+06    -65.7900E+06    -80.3990E+03    -219.988E-03     435.358E-03    -215.370E-03     71.7270E-03    -221.058E-03     435.521E-03    -215.251E-03     61.7477E-03
            2188     2.90404E-03     20.6489E-03    -111.646E+06    -240.215E+06    -83.2605E+06    -278.681E+03    -217.494E-03     432.057E-03    -214.563E-03     56.8318E-03    -218.163E-03     431.718E-03    -214.469E-03     49.1195E-03
            2189     2.17927E-03     20.5694E-03    -118.920E+06    -268.340E+06    -100.471E+06    -831.212E+03    -215.605E-03     429.515E-03    -213.910E-03     42.3454E-03    -215.985E-03     428.811E-03    -213.851E-03     36.7037E-03
            2190     1.45393E-03     20.5121E-03    -124.895E+06    -277.317E+06    -115.504E+06    -903.853E+03    -214.098E-03     427.522E-03    -213.424E-03     28.3739E-03    -214.298E-03     426.628E-03    -213.418E-03     24.6651E-03
            2191     726.938E-06     20.4764E-03    -129.532E+06    -284.576E+06    -126.135E+06    -76.7600E+03    -213.058E-03     426.460E-03    -213.402E-03     15.3912E-03    -213.157E-03     425.454E-03    -213.432E-03     13.4136E-03
            2192     13.6266E-03     22.2469E-03    -4.12063E+06     69.2689E+06       84.03E+06     918.889E+03    -229.798E-03     457.170E-03    -227.372E-03     107.956E-03    -234.070E-03     461.430E-03    -227.047E-03     85.3051E-03
            2193     12.9109E-03     22.0606E-03    -9.20179E+06     65.9869E+06      83.504E+06     956.015E+03    -232.189E-03     459.335E-03    -227.146E-03     153.882E-03    -238.722E-03     465.827E-03    -226.811E-03     125.297E-03
            2194     12.1988E-03     21.8591E-03    -14.0429E+06     59.6944E+06     81.9705E+06     588.509E+03    -235.114E-03     461.890E-03    -226.776E-03     167.433E-03    -242.375E-03     469.075E-03    -226.433E-03     137.415E-03
            2195     11.4876E-03     21.6262E-03    -19.6358E+06     55.4364E+06     80.1194E+06     57.7402E+03    -237.946E-03     464.165E-03    -226.219E-03     181.940E-03    -246.092E-03     472.206E-03    -225.870E-03     150.112E-03
            2196     10.7781E-03     21.3765E-03    -25.7355E+06     46.5872E+06     73.7917E+06     67.1112E+03    -239.946E-03     465.399E-03    -225.453E-03     188.352E-03    -248.330E-03     473.643E-03    -225.114E-03     156.098E-03
            2197     10.0675E-03     21.1163E-03    -32.1336E+06     38.5414E+06     64.7497E+06    -233.876E+03    -241.231E-03     465.708E-03    -224.477E-03     189.048E-03    -249.460E-03     473.773E-03    -224.163E-03     157.098E-03
            2198     9.35904E-03     20.8527E-03    -39.4922E+06     31.1675E+06     55.4912E+06    -732.644E+03    -241.664E-03     464.962E-03    -223.299E-03     183.921E-03    -249.356E-03     472.465E-03    -223.009E-03     153.058E-03
            2199     8.65132E-03     20.5922E-03    -46.4554E+06     23.1664E+06     48.2948E+06     955.225E+03    -240.673E-03     462.623E-03    -221.950E-03     173.714E-03    -247.505E-03     469.234E-03    -221.675E-03     144.818E-03
            2200     7.94191E-03     20.3463E-03    -53.2066E+06     9.65252E+06     40.8025E+06     2.72983E+06    -238.304E-03     458.795E-03    -220.491E-03     159.732E-03    -244.087E-03     464.306E-03    -220.224E-03     133.480E-03
            2201     7.23072E-03     20.1165E-03    -61.3588E+06    -26.4791E+06     25.6670E+06     2.85945E+06    -235.484E-03     454.442E-03    -218.958E-03     143.692E-03    -240.157E-03     458.730E-03    -218.702E-03     120.385E-03
            2202     6.51739E-03     19.9072E-03    -70.2938E+06    -72.3906E+06     6.99621E+06     2.50602E+06    -232.228E-03     449.608E-03    -217.380E-03     126.438E-03    -235.847E-03     452.701E-03    -217.139E-03     106.209E-03
            2203     5.80259E-03     19.7201E-03    -78.5246E+06    -109.493E+06    -11.1229E+06     2.21041E+06    -228.489E-03     444.286E-03    -215.796E-03     109.304E-03    -231.199E-03     446.361E-03    -215.579E-03     92.1382E-03
            2204     5.08486E-03     19.5557E-03    -86.4247E+06    -147.442E+06    -30.0098E+06     1.45279E+06    -224.634E-03     438.903E-03    -214.269E-03     93.0727E-03    -226.594E-03     440.120E-03    -214.080E-03     78.7790E-03
            2205     4.36454E-03     19.4135E-03    -94.6274E+06    -179.663E+06    -48.1838E+06     692.563E+03    -220.763E-03     433.616E-03    -212.853E-03     77.7631E-03    -222.134E-03     434.153E-03    -212.696E-03     66.1137E-03
            2206     3.64165E-03     19.2941E-03    -102.712E+06    -203.699E+06    -65.9745E+06     256.093E+03    -217.175E-03     428.767E-03    -211.592E-03     63.2237E-03    -218.098E-03     428.794E-03    -211.478E-03     53.9898E-03
            2207     2.91652E-03     19.1968E-03    -110.074E+06    -239.221E+06    -82.5461E+06     132.708E+03    -214.169E-03     424.717E-03    -210.548E-03     49.5715E-03    -214.740E-03     424.287E-03    -210.454E-03     42.4906E-03
            2208     2.18917E-03     19.1196E-03    -116.457E+06    -267.442E+06    -97.9816E+06     248.541E+03    -211.729E-03     421.439E-03    -209.710E-03     36.5899E-03    -212.048E-03     420.678E-03    -209.644E-03     31.4460E-03
            2209     1.46004E-03     19.0657E-03    -122.751E+06    -278.050E+06    -113.874E+06     307.845E+03    -209.944E-03     419.024E-03    -209.081E-03     24.3412E-03    -210.109E-03     418.096E-03    -209.069E-03     20.9810E-03
            2210     729.943E-06     19.0322E-03    -126.363E+06    -284.991E+06    -124.292E+06     204.415E+03    -208.551E-03     417.628E-03    -209.077E-03     13.3752E-03    -208.628E-03     416.603E-03    -209.102E-03     11.5998E-03
            2211     13.6241E-03     20.7450E-03    -6.05481E+06     67.4072E+06     80.8425E+06    -538.516E+03    -231.082E-03     458.477E-03    -227.395E-03     107.181E-03    -235.363E-03     462.741E-03    -227.079E-03     84.2839E-03
            2212     12.9132E-03     20.5585E-03    -7.80076E+06     68.0551E+06     84.5444E+06     116.167E+03    -234.568E-03     461.640E-03    -227.072E-03     152.464E-03    -241.072E-03     468.113E-03    -226.737E-03     123.525E-03
            2213     12.2016E-03     20.3543E-03    -12.1393E+06     62.1070E+06     83.9395E+06     864.821E+03    -238.086E-03     464.625E-03    -226.539E-03     165.913E-03    -245.228E-03     471.701E-03    -226.192E-03     135.662E-03
            2214     11.4925E-03     20.1194E-03    -18.5370E+06     55.5711E+06     80.7361E+06     323.111E+03    -241.495E-03     467.247E-03    -225.753E-03     178.065E-03    -249.383E-03     475.033E-03    -225.403E-03     146.068E-03
            2215     10.7842E-03     19.8701E-03    -25.7903E+06     46.8027E+06     73.6727E+06     370.789E+03    -244.077E-03     468.749E-03    -224.672E-03     180.707E-03    -252.037E-03     476.570E-03    -224.334E-03     148.447E-03
            2216     10.0795E-03     19.6100E-03    -33.3998E+06     40.4494E+06     64.2225E+06    -113.929E+03    -245.344E-03     468.642E-03    -223.298E-03     178.557E-03    -253.024E-03     476.161E-03    -222.987E-03     146.847E-03
            2217     9.37492E-03     19.3492E-03    -40.9337E+06     31.2253E+06     53.6009E+06    -418.190E+03    -244.989E-03     466.666E-03    -221.677E-03     171.927E-03    -252.057E-03     473.546E-03    -221.395E-03     141.639E-03
            2218     8.66868E-03     19.0943E-03    -48.4504E+06     20.0918E+06     45.0137E+06    -932.548E+03    -242.933E-03     462.822E-03    -219.889E-03     160.675E-03    -249.122E-03     468.781E-03    -219.623E-03     132.627E-03
            2219     7.96116E-03     18.8545E-03    -56.0981E+06     6.49911E+06     37.2264E+06    -2.08336E+03    -240.026E-03     458.006E-03    -217.980E-03     146.155E-03    -245.209E-03     462.907E-03    -217.722E-03     120.871E-03
            2220     7.25192E-03     18.6316E-03    -63.5221E+06    -25.6883E+06     23.4340E+06     1.60552E+06    -236.491E-03     452.462E-03    -215.971E-03     129.602E-03    -240.632E-03     456.220E-03    -215.725E-03     107.367E-03
            2221     6.54056E-03     18.4300E-03    -70.8519E+06    -69.7644E+06     5.88984E+06     1.59056E+06    -232.004E-03     445.929E-03    -213.925E-03     112.163E-03    -235.161E-03     448.572E-03    -213.692E-03     93.0923E-03
            2222     5.82517E-03     18.2513E-03    -78.3959E+06    -107.204E+06    -11.6989E+06     877.838E+03    -227.095E-03     439.013E-03    -211.919E-03     95.8658E-03    -229.434E-03     440.729E-03    -211.708E-03     79.8375E-03
            2223     5.10673E-03     18.0946E-03    -85.9444E+06    -145.734E+06    -29.8150E+06     1.15895E+06    -222.230E-03     432.253E-03    -210.023E-03     80.7266E-03    -223.907E-03     433.194E-03    -209.836E-03     67.5120E-03
            2224     4.38475E-03     17.9606E-03    -93.2649E+06    -178.106E+06    -48.2332E+06     1.72665E+06    -217.594E-03     425.870E-03    -208.276E-03     66.6695E-03    -218.755E-03     426.206E-03    -208.123E-03     55.9996E-03
            2225     3.65928E-03     17.8477E-03    -100.412E+06    -201.503E+06    -66.2753E+06     1.28988E+06    -213.466E-03     420.173E-03    -206.708E-03     53.8395E-03    -214.243E-03     420.070E-03    -206.601E-03     45.4185E-03
            2226     2.93134E-03     17.7555E-03    -107.512E+06    -238.057E+06    -82.2014E+06     997.699E+03    -209.888E-03     415.270E-03    -205.382E-03     41.9825E-03    -210.362E-03     414.754E-03    -205.292E-03     35.5664E-03
            2227     2.20090E-03     17.6847E-03    -114.403E+06    -267.427E+06    -97.1813E+06     1.39798E+06    -206.843E-03     411.151E-03    -204.308E-03     30.8744E-03    -207.104E-03     410.337E-03    -204.241E-03     26.2615E-03
            2228     1.46833E-03     17.6331E-03    -119.364E+06    -276.301E+06    -111.191E+06     1.51419E+06    -204.745E-03     408.204E-03    -203.459E-03     20.5125E-03    -204.878E-03     407.252E-03    -203.441E-03     17.5173E-03
            2229     735.308E-06     17.6011E-03    -122.451E+06    -283.259E+06    -120.949E+06     595.564E+03    -203.058E-03     406.131E-03    -203.073E-03     10.7153E-03    -203.115E-03     405.097E-03    -203.090E-03     9.11991E-03
            2230     13.6281E-03     19.2449E-03    -4.42111E+06     68.0061E+06     81.7734E+06    -502.111E+03    -233.052E-03     460.353E-03    -227.301E-03     108.105E-03    -237.341E-03     464.630E-03    -226.984E-03     84.9620E-03
            2231     12.9146E-03     19.0519E-03    -8.70242E+06     67.9961E+06     83.6995E+06    -667.881E+03    -237.858E-03     464.683E-03    -226.825E-03     152.333E-03    -244.320E-03     471.112E-03    -226.492E-03     123.003E-03
            2232     12.2066E-03     18.8461E-03    -14.3080E+06     60.2271E+06     82.0418E+06    -920.700E+03    -243.016E-03     469.045E-03    -226.028E-03     162.103E-03    -249.942E-03     475.896E-03    -225.685E-03     131.466E-03
            2233     11.5007E-03     18.6076E-03    -20.0339E+06     53.7022E+06     80.1092E+06     494.312E+03    -247.026E-03     471.893E-03    -224.866E-03     170.165E-03    -254.491E-03     479.245E-03    -224.515E-03     138.013E-03
            2234     10.8000E-03     18.3571E-03    -25.9158E+06     48.1440E+06     74.9619E+06     800.519E+03    -249.287E-03     472.619E-03    -223.333E-03     169.997E-03    -256.672E-03     479.867E-03    -222.990E-03     137.908E-03
            2235     10.0982E-03     18.1010E-03    -32.2432E+06     40.8690E+06     65.3965E+06     549.339E+03    -249.744E-03     471.212E-03    -221.467E-03     166.594E-03    -256.757E-03     478.067E-03    -221.153E-03     135.424E-03
            2236     9.39622E-03     17.8443E-03    -38.7281E+06     31.6203E+06     54.7266E+06     962.893E+03    -248.390E-03     467.734E-03    -219.344E-03     158.302E-03    -254.738E-03     473.900E-03    -219.060E-03     128.905E-03
            2237     8.69362E-03     17.5977E-03    -45.9773E+06     22.0711E+06     45.7675E+06     814.473E+03    -245.597E-03     462.627E-03    -217.030E-03     145.546E-03    -251.077E-03     467.891E-03    -216.766E-03     118.583E-03
            2238     7.98848E-03     17.3653E-03    -53.8362E+06     6.10112E+06     36.6843E+06    -399.538E+03    -241.908E-03     456.472E-03    -214.565E-03     130.270E-03    -246.438E-03     460.729E-03    -214.312E-03     106.142E-03
            2239     7.28112E-03     17.1503E-03    -61.4403E+06    -26.1466E+06     22.6722E+06    -440.123E+03    -236.964E-03     448.964E-03    -212.000E-03     113.015E-03    -240.527E-03     452.152E-03    -211.760E-03     92.0347E-03
            2240     6.56955E-03     16.9600E-03    -68.6900E+06    -67.4164E+06     5.92867E+06     495.005E+03    -231.070E-03     440.510E-03    -209.439E-03     96.0605E-03    -233.747E-03     442.687E-03    -209.212E-03     78.3192E-03
            2241     5.85417E-03     16.7915E-03    -76.2954E+06    -104.928E+06    -11.8142E+06     566.787E+03    -224.958E-03     431.925E-03    -206.967E-03     80.6069E-03    -226.914E-03     433.273E-03    -206.763E-03     65.8808E-03
            2242     5.13397E-03     16.6451E-03    -83.8226E+06    -145.595E+06    -30.1615E+06     858.192E+03    -218.893E-03     423.558E-03    -204.666E-03     66.6256E-03    -220.273E-03     424.211E-03    -204.484E-03     54.6154E-03
            2243     4.40959E-03     16.5199E-03    -91.2882E+06    -178.196E+06    -48.9294E+06     1.99449E+06    -213.386E-03     415.955E-03    -202.569E-03     54.4469E-03    -214.333E-03     416.087E-03    -202.423E-03     44.8331E-03
            2244     3.68179E-03     16.4153E-03    -98.6863E+06    -199.137E+06    -66.8075E+06     2.75624E+06    -208.546E-03     409.243E-03    -200.696E-03     43.5221E-03    -209.182E-03     409.013E-03    -200.599E-03     36.0041E-03
            2245     2.95000E-03     16.3303E-03    -105.198E+06    -235.629E+06    -81.2249E+06     2.63309E+06    -204.343E-03     403.465E-03    -199.122E-03     33.4029E-03    -204.727E-03     402.872E-03    -199.034E-03     27.7097E-03
            2246     2.21530E-03     16.2651E-03    -110.893E+06    -265.728E+06    -94.3452E+06     2.00148E+06    -200.962E-03     398.780E-03    -197.818E-03     24.4141E-03    -201.166E-03     397.918E-03    -197.744E-03     20.3246E-03
            2247     1.47856E-03     16.2177E-03    -116.112E+06    -274.234E+06    -106.910E+06     1.20471E+06    -198.278E-03     395.063E-03    -196.786E-03     16.2502E-03    -198.384E-03     394.090E-03    -196.754E-03     13.5858E-03
            2248     739.195E-06     16.1887E-03    -119.584E+06    -280.290E+06    -116.496E+06     922.394E+03    -196.922E-03     392.621E-03    -195.699E-03     8.20103E-03    -196.970E-03     391.584E-03    -195.701E-03     6.79391E-03
            2249     13.6273E-03     17.7402E-03    -2.47174E+06     69.9343E+06     84.9789E+06    -334.062E+03    -237.250E-03     464.343E-03    -227.093E-03     109.036E-03    -241.538E-03     468.624E-03    -226.766E-03     85.3522E-03
            2250     12.9205E-03     17.5419E-03    -9.99187E+06     65.8954E+06     82.3445E+06    -795.016E+03    -243.827E-03     470.131E-03    -226.304E-03     149.546E-03    -250.182E-03     476.445E-03    -225.973E-03     119.496E-03
            2251     12.2172E-03     17.3278E-03    -15.6879E+06     58.9436E+06     80.6660E+06    -1.07522E+06    -249.666E-03     474.753E-03    -225.087E-03     155.645E-03    -256.308E-03     481.315E-03    -224.746E-03     124.476E-03
            2252     11.5196E-03     17.0896E-03    -21.2410E+06     51.4909E+06     78.3987E+06    -1.22712E+06    -253.212E-03     476.650E-03    -223.437E-03     161.250E-03    -260.206E-03     483.524E-03    -223.089E-03     128.984E-03
            2253     10.8204E-03     16.8405E-03    -26.9729E+06     47.0565E+06     73.3267E+06    -1.03198E+06    -254.707E-03     476.094E-03    -221.387E-03     159.644E-03    -261.506E-03     482.753E-03    -221.050E-03     127.864E-03
            2254     10.1232E-03     16.5892E-03    -32.3461E+06     40.4503E+06     64.4768E+06    -626.954E+03    -254.552E-03     473.526E-03    -218.974E-03     153.377E-03    -260.888E-03     479.706E-03    -218.664E-03     122.824E-03
            2255     9.42563E-03     16.3391E-03    -37.9784E+06     30.3292E+06     53.7624E+06    -412.662E+03    -252.365E-03     468.623E-03    -216.258E-03     142.752E-03    -257.998E-03     474.076E-03    -215.978E-03     114.235E-03
            2256     8.72553E-03     16.1020E-03    -43.5374E+06     22.9467E+06     46.0978E+06    -237.087E+03    -248.820E-03     462.128E-03    -213.308E-03     128.671E-03    -253.604E-03     466.708E-03    -213.047E-03     102.771E-03
            2257     8.02376E-03     15.8779E-03    -49.8825E+06     8.33915E+06     37.3857E+06     136.273E+03    -243.656E-03     453.842E-03    -210.186E-03     112.257E-03    -247.541E-03     457.475E-03    -209.939E-03     89.3906E-03
            2258     7.31772E-03     15.6767E-03    -57.6192E+06    -24.5403E+06     22.4144E+06     362.890E+03    -236.799E-03     443.805E-03    -207.007E-03     94.4629E-03    -239.781E-03     446.434E-03    -206.776E-03     74.9411E-03
            2259     6.60648E-03     15.4990E-03    -66.2743E+06    -66.4046E+06     4.83697E+06     838.055E+03    -229.374E-03     433.273E-03    -203.899E-03     78.1522E-03    -231.576E-03     434.992E-03    -203.682E-03     61.8826E-03
            2260     5.88985E-03     15.3428E-03    -74.4607E+06    -102.649E+06    -12.1527E+06     1.31385E+06    -221.883E-03     422.827E-03    -200.944E-03     63.9512E-03    -223.475E-03     423.827E-03    -200.748E-03     50.6129E-03
            2261     5.16794E-03     15.2097E-03    -82.3797E+06    -144.551E+06    -30.0997E+06     1.60247E+06    -214.735E-03     412.955E-03    -198.219E-03     51.7240E-03    -215.846E-03     413.347E-03    -198.041E-03     40.9630E-03
            2262     4.44035E-03     15.0954E-03    -90.0052E+06    -179.125E+06    -49.1536E+06     2.56306E+06    -208.224E-03     403.975E-03    -195.752E-03     41.3690E-03    -208.976E-03     403.914E-03    -195.607E-03     32.8491E-03
            2263     3.70778E-03     14.9997E-03    -95.7565E+06    -197.578E+06    -66.4028E+06     3.36258E+06    -202.416E-03     395.993E-03    -193.578E-03     32.2983E-03    -202.914E-03     395.640E-03    -193.484E-03     25.7072E-03
            2264     2.97176E-03     14.9233E-03    -100.822E+06    -231.895E+06    -78.1088E+06     3.32722E+06    -197.623E-03     389.407E-03    -191.784E-03     24.5003E-03    -197.918E-03     388.743E-03    -191.692E-03     19.5413E-03
            2265     2.23224E-03     14.8645E-03    -107.009E+06    -262.012E+06    -88.9392E+06     2.54701E+06    -193.816E-03     384.131E-03    -190.315E-03     17.8181E-03    -193.973E-03     383.231E-03    -190.225E-03     14.2597E-03
            2266     1.48987E-03     14.8222E-03    -112.955E+06    -271.488E+06    -103.144E+06     1.41261E+06    -190.767E-03     379.923E-03    -189.155E-03     11.4537E-03    -190.849E-03     378.933E-03    -189.114E-03     9.13572E-03
            2267     745.750E-06     14.7980E-03    -116.657E+06    -278.239E+06    -114.762E+06     479.903E+03    -189.117E-03     377.249E-03    -188.132E-03     6.31816E-03    -189.151E-03     376.209E-03    -188.134E-03     5.08444E-03
            2268     13.6347E-03     16.2242E-03    -4.28369E+06     69.4630E+06     83.9646E+06    -547.024E+03    -245.101E-03     471.787E-03    -226.686E-03     109.637E-03    -249.429E-03     476.103E-03    -226.361E-03     84.9350E-03
            2269     12.9329E-03     16.0239E-03    -8.09682E+06     67.5976E+06     85.4307E+06    -656.334E+03    -251.627E-03     477.076E-03    -225.449E-03     147.130E-03    -257.893E-03     483.305E-03    -225.108E-03     116.196E-03
            2270     12.2360E-03     15.8014E-03    -13.3938E+06     60.6266E+06     83.0402E+06    -110.519E+03    -256.550E-03     480.293E-03    -223.742E-03     151.785E-03    -262.977E-03     486.647E-03    -223.396E-03     120.111E-03
            2271     11.5398E-03     15.5664E-03    -19.6719E+06     52.5354E+06     79.0674E+06    -1.07926E+06    -259.926E-03     481.493E-03    -221.567E-03     153.916E-03    -266.542E-03     487.998E-03    -221.219E-03     121.440E-03
            2272     10.8474E-03     15.3196E-03    -25.6247E+06     47.7683E+06     73.5503E+06    -1.78210E+06    -261.250E-03     480.174E-03    -218.924E-03     148.951E-03    -267.546E-03     486.338E-03    -218.588E-03     117.258E-03
            2273     10.1553E-03     15.0728E-03    -31.6911E+06     39.9383E+06     63.9242E+06    -2.58088E+06    -260.193E-03     476.050E-03    -215.856E-03     139.395E-03    -265.934E-03     481.638E-03    -215.549E-03     109.267E-03
            2274     9.46162E-03     14.8344E-03    -37.4760E+06     29.1701E+06     53.0698E+06    -2.61753E+06    -257.271E-03     469.707E-03    -212.436E-03     126.726E-03    -262.279E-03     474.536E-03    -212.158E-03     98.8856E-03
            2275     8.76639E-03     14.6059E-03    -44.1203E+06     21.0378E+06     43.7626E+06    -1.98962E+06    -252.360E-03     461.099E-03    -208.739E-03     110.874E-03    -256.533E-03     465.069E-03    -208.487E-03     85.9018E-03
            2276     8.06712E-03     14.3965E-03    -51.5233E+06     7.93017E+06     34.2650E+06    -1.07881E+06    -244.962E-03     449.861E-03    -204.899E-03     92.8300E-03    -248.269E-03     452.920E-03    -204.665E-03     71.2230E-03
            2277     7.36174E-03     14.2112E-03    -59.0382E+06    -23.1318E+06     19.7270E+06     175.647E+03    -236.118E-03     437.197E-03    -201.079E-03     75.2421E-03    -238.604E-03     439.338E-03    -200.861E-03     57.1496E-03
            2278     6.65023E-03     14.0489E-03    -66.2289E+06    -65.2034E+06     2.15515E+06     1.30238E+06    -226.982E-03     424.388E-03    -197.406E-03     59.9631E-03    -228.786E-03     425.722E-03    -197.205E-03     45.0992E-03
            2279     5.93159E-03     13.9096E-03    -73.5905E+06    -100.974E+06    -14.3889E+06     2.03506E+06    -217.997E-03     411.962E-03    -193.965E-03     47.1498E-03    -219.283E-03     412.671E-03    -193.784E-03     35.1314E-03
            2280     5.20602E-03     13.7895E-03    -81.3179E+06    -142.736E+06    -29.9036E+06     2.98147E+06    -209.795E-03     400.620E-03    -190.825E-03     36.6888E-03    -210.685E-03     400.801E-03    -190.649E-03     27.1055E-03
            2281     4.47536E-03     13.6887E-03    -88.4414E+06    -177.737E+06    -46.6037E+06     3.13963E+06    -202.244E-03     390.236E-03    -187.992E-03     28.1341E-03    -202.839E-03     390.020E-03    -187.839E-03     20.6239E-03
            2282     3.73899E-03     13.6047E-03    -95.1886E+06    -197.617E+06    -66.0841E+06     3.70189E+06    -195.372E-03     380.887E-03    -185.515E-03     21.2706E-03    -195.765E-03     380.429E-03    -185.421E-03     15.5286E-03
            2283     2.99677E-03     13.5375E-03    -101.845E+06    -227.392E+06    -83.2480E+06     4.44437E+06    -189.800E-03     373.297E-03    -183.497E-03     15.7648E-03    -190.036E-03     372.601E-03    -183.435E-03     11.4993E-03
            2284     2.25114E-03     13.4854E-03    -107.000E+06    -256.859E+06    -94.1659E+06     2.72540E+06    -185.500E-03     367.437E-03    -181.936E-03     11.2536E-03    -185.623E-03     366.535E-03    -181.880E-03     8.20840E-03
            2285     1.50255E-03     13.4497E-03    -110.500E+06    -269.443E+06    -103.427E+06     1.45784E+06    -182.387E-03     363.172E-03    -180.785E-03     7.17204E-03    -182.444E-03     362.174E-03    -180.751E-03     5.18749E-03
            2286     751.686E-06     13.4279E-03    -113.148E+06    -274.583E+06    -111.604E+06     1.50422E+06    -180.410E-03     360.528E-03    -180.118E-03     3.97803E-03    -180.432E-03     359.491E-03    -180.114E-03     2.93394E-03
            2287     13.6417E-03     14.6982E-03    -3.89898E+06     71.6064E+06     85.3012E+06    -439.840E+03    -253.693E-03     479.883E-03    -226.190E-03     114.699E-03    -258.215E-03     484.397E-03    -225.862E-03     88.6647E-03
            2288     12.9472E-03     14.4916E-03    -9.21965E+06     67.0891E+06     84.4844E+06    -1.26033E+06    -260.542E-03     484.996E-03    -224.454E-03     149.753E-03    -266.942E-03     491.357E-03    -224.115E-03     117.522E-03
            2289     12.2539E-03     14.2717E-03    -14.1788E+06     58.7446E+06     82.1115E+06    -1.26825E+06    -265.279E-03     487.467E-03    -222.188E-03     149.869E-03    -271.655E-03     493.765E-03    -221.842E-03     117.232E-03
            2290     11.5659E-03     14.0327E-03    -18.5857E+06     54.8231E+06     80.4364E+06    -1.30066E+06    -268.310E-03     487.695E-03    -219.385E-03     147.752E-03    -274.712E-03     493.995E-03    -219.036E-03     114.624E-03
            2291     10.8797E-03     13.7913E-03    -23.4686E+06     49.3446E+06     74.8781E+06    -2.39406E+06    -268.972E-03     485.016E-03    -216.045E-03     138.907E-03    -274.935E-03     490.858E-03    -215.708E-03     106.827E-03
            2292     10.1925E-03     13.5543E-03    -29.6349E+06     40.5355E+06     64.5404E+06    -2.23213E+06    -266.941E-03     479.166E-03    -212.225E-03     126.482E-03    -272.247E-03     484.328E-03    -211.918E-03     96.3992E-03
            2293     9.50441E-03     13.3254E-03    -37.3764E+06     29.3494E+06     51.6109E+06    -2.21488E+06    -262.947E-03     470.950E-03    -208.003E-03     111.444E-03    -267.478E-03     475.309E-03    -207.734E-03     83.9700E-03
            2294     8.81329E-03     13.1114E-03    -44.8713E+06     19.0996E+06     41.0367E+06    -1.82039E+06    -255.834E-03     459.345E-03    -203.512E-03     93.2896E-03    -259.517E-03     462.825E-03    -203.269E-03     69.0767E-03
            2295     8.11618E-03     12.9209E-03    -52.0734E+06     7.54111E+06     31.9045E+06    -959.889E+03    -245.894E-03     444.847E-03    -198.953E-03     74.3832E-03    -248.739E-03     447.448E-03    -198.729E-03     53.8877E-03
            2296     7.41170E-03     12.7553E-03    -59.6366E+06    -22.7530E+06     16.8548E+06    -178.825E+03    -234.981E-03     429.486E-03    -194.505E-03     57.5560E-03    -237.092E-03     431.262E-03    -194.302E-03     40.6331E-03
            2297     6.69862E-03     12.6126E-03    -67.0239E+06    -64.9848E+06    -2.08441E+06     1.26474E+06    -224.146E-03     414.432E-03    -190.285E-03     43.4140E-03    -225.661E-03     415.487E-03    -190.104E-03     29.6803E-03
            2298     5.97778E-03     12.4913E-03    -74.7220E+06    -101.136E+06    -19.7346E+06     3.49072E+06    -213.874E-03     400.234E-03    -186.360E-03     32.0193E-03    -214.943E-03     400.738E-03    -186.203E-03     21.0533E-03
            2299     5.24975E-03     12.3881E-03    -82.7387E+06    -139.009E+06    -34.6379E+06     4.40589E+06    -204.246E-03     387.050E-03    -182.804E-03     23.2482E-03    -204.988E-03     387.105E-03    -182.655E-03     14.6077E-03
            2300     4.51385E-03     12.3014E-03    -90.1668E+06    -174.417E+06    -49.0925E+06     3.67644E+06    -195.421E-03     375.088E-03    -179.666E-03     16.6146E-03    -195.923E-03     374.790E-03    -179.528E-03     9.90179E-03
            2301     3.77130E-03     12.2317E-03    -97.1717E+06    -199.595E+06    -67.7442E+06     4.91535E+06    -187.845E-03     364.809E-03    -176.964E-03     12.0479E-03    -188.177E-03     364.280E-03    -176.872E-03     6.97494E-03
            2302     3.02399E-03     12.1743E-03    -102.227E+06    -221.549E+06    -86.6288E+06     5.46333E+06    -181.587E-03     356.338E-03    -174.750E-03     8.58068E-03    -181.789E-03     355.637E-03    -174.714E-03     4.85051E-03
            2303     2.27156E-03     12.1314E-03    -105.415E+06    -249.800E+06    -98.6975E+06     3.15502E+06    -176.747E-03     349.851E-03    -173.105E-03     5.81814E-03    -176.843E-03     348.967E-03    -173.083E-03     3.16742E-03
            2304     1.51579E-03     12.1000E-03    -108.101E+06    -268.084E+06    -104.604E+06     1.46751E+06    -173.522E-03     345.511E-03    -171.989E-03     3.57190E-03    -173.558E-03     344.508E-03    -171.966E-03     1.84260E-03
            2305     758.460E-06     12.0823E-03    -109.715E+06    -270.317E+06    -108.023E+06     1.05941E+06    -171.758E-03     343.006E-03    -171.248E-03     1.78186E-03    -171.771E-03     341.977E-03    -171.237E-03     866.577E-06
            2306     13.6472E-03     13.1615E-03    -3.92499E+06     72.5613E+06     85.4870E+06    -638.840E+03    -262.560E-03     488.288E-03    -225.727E-03     120.101E-03    -267.328E-03     493.051E-03    -225.399E-03     92.5662E-03
            2307     12.9568E-03     12.9454E-03    -9.09031E+06     68.9467E+06     84.5327E+06    -1.29860E+06    -270.273E-03     493.736E-03    -223.464E-03     151.216E-03    -276.905E-03     500.336E-03    -223.128E-03     117.274E-03
            2308     12.2753E-03     12.7253E-03    -14.0352E+06     60.4643E+06     82.7300E+06    -2.65267E+06    -275.711E-03     496.275E-03    -220.563E-03     148.272E-03    -282.190E-03     502.679E-03    -220.217E-03     114.106E-03
            2309     11.5938E-03     12.4904E-03    -18.9270E+06     55.2927E+06     81.0699E+06    -4.29932E+06    -278.036E-03     495.081E-03    -217.045E-03     143.472E-03    -284.429E-03     501.370E-03    -216.692E-03     109.106E-03
            2310     10.9135E-03     12.2535E-03    -24.6306E+06     46.6576E+06     73.4629E+06    -3.59515E+06    -277.628E-03     490.567E-03    -212.939E-03     131.152E-03    -283.444E-03     496.252E-03    -212.603E-03     98.2851E-03
            2311     10.2336E-03     12.0295E-03    -30.6602E+06     38.7654E+06     61.2899E+06    -1.61031E+06    -275.103E-03     483.390E-03    -208.287E-03     115.694E-03    -280.177E-03     488.321E-03    -207.993E-03     85.0867E-03
            2312     9.55110E-03     11.8126E-03    -36.8680E+06     30.5536E+06     48.5894E+06    -527.478E+03    -268.802E-03     472.019E-03    -203.217E-03     97.2965E-03    -273.017E-03     476.079E-03    -202.965E-03     69.8360E-03
            2313     8.86371E-03     11.6192E-03    -43.7486E+06     19.1941E+06     37.7248E+06    -279.933E+03    -258.365E-03     456.340E-03    -197.975E-03     77.3708E-03    -261.687E-03     459.474E-03    -197.751E-03     53.7783E-03
            2314     8.16803E-03     11.4518E-03    -51.5539E+06     7.60038E+06     27.9183E+06     205.138E+03    -246.014E-03     438.810E-03    -192.796E-03     59.4000E-03    -248.563E-03     441.129E-03    -192.592E-03     39.6918E-03
            2315     7.46271E-03     11.3098E-03    -59.8070E+06    -22.4279E+06     13.4095E+06     1.68704E+06    -233.389E-03     421.217E-03    -187.828E-03     44.0151E-03    -235.284E-03     422.788E-03    -187.641E-03     27.8783E-03
            2316     6.74842E-03     11.1896E-03    -68.5655E+06    -65.0701E+06    -5.77672E+06     3.61078E+06    -221.036E-03     404.193E-03    -183.157E-03     31.5445E-03    -222.401E-03     405.105E-03    -182.992E-03     18.5610E-03
            2317     6.02482E-03     11.0888E-03    -76.5251E+06    -101.617E+06    -25.3103E+06     5.25412E+06    -209.294E-03     388.145E-03    -178.851E-03     22.3270E-03    -210.265E-03     388.560E-03    -178.720E-03     12.0302E-03
            2318     5.29241E-03     11.0045E-03    -82.7450E+06    -133.804E+06    -41.5079E+06     5.58446E+06    -198.422E-03     373.420E-03    -174.998E-03     15.6398E-03    -199.101E-03     373.452E-03    -174.892E-03     7.57119E-03
            2319     4.55179E-03     10.9364E-03    -88.9159E+06    -170.205E+06    -52.9101E+06     4.59355E+06    -188.794E-03     360.463E-03    -171.669E-03     10.7470E-03    -189.255E-03     360.157E-03    -171.557E-03     4.49868E-03
            2320     3.80417E-03     10.8794E-03    -94.4596E+06    -200.096E+06    -65.0541E+06     4.15033E+06    -180.662E-03     349.499E-03    -168.837E-03     7.39865E-03    -180.964E-03     348.942E-03    -168.735E-03     2.65298E-03
            2321     3.05009E-03     10.8347E-03    -98.4719E+06    -217.644E+06    -81.0598E+06     4.63520E+06    -173.979E-03     340.465E-03    -166.486E-03     4.91224E-03    -174.165E-03     339.761E-03    -166.433E-03     1.42166E-03
            2322     2.29161E-03     10.7998E-03    -102.334E+06    -244.068E+06    -94.0189E+06     5.05532E+06    -168.834E-03     333.526E-03    -164.692E-03     3.02319E-03    -168.924E-03     332.655E-03    -164.660E-03     583.945E-06
            2323     1.52967E-03     10.7753E-03    -105.865E+06    -262.615E+06    -101.878E+06     3.51927E+06    -165.238E-03     328.671E-03    -163.433E-03     1.69961E-03    -165.271E-03     327.686E-03    -163.408E-03     135.704E-06
            2324     765.334E-06     10.7591E-03    -108.537E+06    -267.062E+06    -107.605E+06     781.674E+03    -163.246E-03     325.770E-03    -162.524E-03     670.974E-06    -163.258E-03     324.755E-03    -162.517E-03    -172.450E-06
            2325     13.6533E-03     11.6070E-03    -3.90332E+06     73.1680E+06     85.0993E+06    -573.626E+03    -272.293E-03     497.575E-03    -225.281E-03     124.400E-03    -277.331E-03     502.611E-03    -224.956E-03     95.2633E-03
            2326     12.9735E-03     11.3889E-03    -8.40617E+06     71.8609E+06     86.0218E+06    -1.50180E+06    -280.373E-03     502.846E-03    -222.473E-03     154.641E-03    -287.351E-03     509.799E-03    -222.135E-03     118.779E-03
            2327     12.2935E-03     11.1640E-03    -13.6340E+06     64.5073E+06     83.7028E+06    -3.20220E+06    -286.153E-03     505.085E-03    -218.932E-03     147.644E-03    -292.842E-03     511.713E-03    -218.588E-03     111.746E-03
            2328     11.6212E-03     10.9320E-03    -19.8532E+06     56.2260E+06     80.0546E+06    -3.65788E+06    -288.015E-03     502.706E-03    -214.692E-03     139.299E-03    -294.515E-03     509.107E-03    -214.344E-03     103.418E-03
            2329     10.9483E-03     10.7094E-03    -26.8884E+06     44.4350E+06     71.1871E+06    -3.73882E+06    -287.627E-03     497.410E-03    -209.784E-03     124.574E-03    -293.450E-03     503.095E-03    -209.453E-03     90.4293E-03
            2330     10.2745E-03     10.4910E-03    -32.7311E+06     34.5099E+06     58.6825E+06    -3.83577E+06    -283.150E-03     487.437E-03    -204.287E-03     104.759E-03    -288.089E-03     492.220E-03    -203.996E-03     73.3887E-03
            2331     9.59874E-03     10.2975E-03    -37.4198E+06     27.1052E+06     46.0773E+06    -1.83564E+06    -272.667E-03     471.140E-03    -198.473E-03     84.3562E-03    -276.675E-03     474.988E-03    -198.228E-03     56.8656E-03
            2332     8.91281E-03     10.1304E-03    -43.1762E+06     17.9172E+06     33.3276E+06     1.19216E+06    -258.916E-03     451.590E-03    -192.674E-03     66.0611E-03    -262.054E-03     454.551E-03    -192.471E-03     42.8814E-03
            2333     8.21617E-03     9.99088E-03    -50.3729E+06     6.38716E+06     21.6064E+06     3.56015E+06    -244.477E-03     431.579E-03    -187.102E-03     50.4224E-03    -246.895E-03     433.786E-03    -186.930E-03     31.2447E-03
            2334     7.50966E-03     9.87392E-03    -59.2689E+06    -23.1345E+06     9.10585E+06     6.18049E+06    -230.223E-03     412.106E-03    -181.883E-03     38.0652E-03    -232.055E-03     413.626E-03    -181.718E-03     22.4624E-03
            2335     6.79249E-03     9.77972E-03    -68.1688E+06    -62.6617E+06    -5.80565E+06     7.58324E+06    -216.716E-03     393.787E-03    -177.070E-03     29.0085E-03    -218.084E-03     394.711E-03    -176.910E-03     16.4577E-03
            2336     6.06501E-03     9.70188E-03    -76.0465E+06    -98.3220E+06    -24.2073E+06     6.67775E+06    -204.138E-03     376.832E-03    -172.694E-03     22.3823E-03    -205.141E-03     377.289E-03    -172.562E-03     12.3906E-03
            2337     5.32758E-03     9.63946E-03    -82.9888E+06    -130.705E+06    -42.7358E+06     6.13806E+06    -192.861E-03     361.671E-03    -168.810E-03     17.3722E-03    -193.581E-03     361.758E-03    -168.714E-03     9.51014E-03
            2338     4.58212E-03     9.58755E-03    -88.8302E+06    -163.440E+06    -55.1107E+06     4.95078E+06    -183.270E-03     348.723E-03    -165.453E-03     13.6207E-03    -183.774E-03     348.492E-03    -165.363E-03     7.48918E-03
            2339     3.82959E-03     9.54708E-03    -94.5271E+06    -197.814E+06    -64.1876E+06     2.83455E+06    -175.106E-03     337.702E-03    -162.596E-03     10.4910E-03    -175.443E-03     337.187E-03    -162.493E-03     5.77491E-03
            2340     3.07129E-03     9.51345E-03    -100.403E+06    -219.779E+06    -77.8414E+06     4.38116E+06    -168.267E-03     328.453E-03    -160.186E-03     7.76265E-03    -168.484E-03     327.759E-03    -160.111E-03     4.28974E-03
            2341     2.30800E-03     9.48885E-03    -105.347E+06    -238.647E+06    -91.8287E+06     5.90690E+06    -162.947E-03     321.205E-03    -158.258E-03     5.45314E-03    -163.075E-03     320.376E-03    -158.218E-03     3.03065E-03
            2342     1.54099E-03     9.47010E-03    -108.713E+06    -254.857E+06    -101.866E+06     3.96147E+06    -158.997E-03     315.833E-03    -156.836E-03     3.56699E-03    -159.060E-03     314.898E-03    -156.818E-03     2.01491E-03
            2343     771.235E-06     9.45958E-03    -110.141E+06    -262.153E+06    -108.684E+06     2.08878E+06    -156.475E-03     312.441E-03    -155.966E-03     1.97925E-03    -156.500E-03     311.457E-03    -155.969E-03     1.16556E-03
            2344     13.6599E-03     10.0448E-03    -4.43577E+06     75.3773E+06     86.5180E+06    -493.842E+03    -282.506E-03     507.412E-03    -224.907E-03     131.350E-03    -287.905E-03     512.812E-03    -224.577E-03     100.374E-03
            2345     12.9806E-03     9.81416E-03    -9.85446E+06     72.5957E+06     84.7801E+06    -1.73538E+06    -290.926E-03     512.452E-03    -221.526E-03     158.313E-03    -298.317E-03     519.820E-03    -221.193E-03     120.345E-03
            2346     12.3156E-03     9.58535E-03    -15.4080E+06     65.3485E+06     81.3392E+06    -2.80479E+06    -296.209E-03     513.560E-03    -217.351E-03     147.951E-03    -303.226E-03     520.519E-03    -217.017E-03     110.070E-03
            2347     11.6471E-03     9.36705E-03    -21.4845E+06     57.2431E+06     77.3414E+06    -2.29692E+06    -299.532E-03     511.896E-03    -212.365E-03     135.414E-03    -306.218E-03     518.489E-03    -212.030E-03     97.5712E-03
            2348     10.9819E-03     9.14394E-03    -27.0047E+06     46.8763E+06     68.4465E+06    -3.00470E+06    -297.373E-03     503.991E-03    -206.618E-03     114.822E-03    -303.200E-03     509.698E-03    -206.304E-03     79.2225E-03
            2349     10.3177E-03     8.94782E-03    -33.5762E+06     34.0014E+06     54.5100E+06    -3.73404E+06    -286.689E-03     487.137E-03    -200.447E-03     92.8621E-03    -291.482E-03     491.783E-03    -200.175E-03     61.2915E-03
            2350     9.64098E-03     8.78377E-03    -40.5974E+06     21.1093E+06     39.8452E+06    -2.80345E+06    -271.601E-03     465.883E-03    -194.283E-03     76.0380E-03    -275.494E-03     469.602E-03    -194.055E-03     48.9848E-03
            2351     8.95338E-03     8.64851E-03    -47.0859E+06     10.1906E+06     27.3525E+06     958.599E+03    -255.625E-03     444.005E-03    -188.380E-03     62.4438E-03    -258.730E-03     446.909E-03    -188.190E-03     39.8243E-03
            2352     8.25471E-03     8.53759E-03    -54.2174E+06    -81.0470E+03     16.2742E+06     6.75146E+06    -239.466E-03     422.342E-03    -182.876E-03     51.5763E-03    -241.916E-03     424.559E-03    -182.716E-03     33.0490E-03
            2353     7.54295E-03     8.45195E-03    -61.6310E+06    -22.0699E+06     5.11445E+06     9.87500E+06    -224.205E-03     402.074E-03    -177.869E-03     43.9475E-03    -226.134E-03     403.697E-03    -177.722E-03     28.8824E-03
            2354     6.81971E-03     8.38199E-03    -68.4789E+06    -57.7351E+06    -5.41339E+06     8.84122E+06    -210.568E-03     383.960E-03    -173.392E-03     38.3756E-03    -212.061E-03     385.025E-03    -173.236E-03     26.1670E-03
            2355     6.08683E-03     8.32899E-03    -75.0125E+06    -94.2672E+06    -17.5971E+06     7.72866E+06    -198.642E-03     368.042E-03    -169.400E-03     33.8543E-03    -199.775E-03     368.629E-03    -169.242E-03     24.0280E-03
            2356     5.34558E-03     8.28598E-03    -81.8098E+06    -127.281E+06    -34.8305E+06     6.75069E+06    -188.282E-03     354.129E-03    -165.847E-03     29.9325E-03    -189.119E-03     354.329E-03    -165.718E-03     22.1137E-03
            2357     4.59634E-03     8.25278E-03    -88.2749E+06    -156.956E+06    -53.0315E+06     4.95081E+06    -179.342E-03     342.080E-03    -162.738E-03     26.2549E-03    -179.940E-03     341.964E-03    -162.648E-03     20.1130E-03
            2358     3.84102E-03     8.22473E-03    -94.7355E+06    -194.972E+06    -63.6028E+06     3.60796E+06    -171.839E-03     331.955E-03    -160.116E-03     22.4808E-03    -172.244E-03     331.517E-03    -160.014E-03     17.7382E-03
            2359     3.08002E-03     8.20564E-03    -101.591E+06    -222.479E+06    -72.1342E+06     3.69303E+06    -165.595E-03     323.508E-03    -157.913E-03     18.6472E-03    -165.865E-03     322.838E-03    -157.804E-03     15.1150E-03
            2360     2.31430E-03     8.18852E-03    -106.678E+06    -233.378E+06    -86.5175E+06     3.80509E+06    -160.460E-03     316.564E-03    -156.105E-03     14.4645E-03    -160.634E-03     315.783E-03    -156.044E-03     11.9772E-03
            2361     1.54512E-03     8.17914E-03    -110.589E+06    -248.486E+06    -101.415E+06     2.33517E+06    -156.711E-03     311.506E-03    -154.795E-03     10.3305E-03    -156.805E-03     310.619E-03    -154.781E-03     8.72738E-03
            2362     773.237E-06     8.17116E-03    -114.063E+06    -258.272E+06    -110.542E+06     835.523E+03    -154.156E-03     308.497E-03    -154.341E-03     6.13946E-03    -154.208E-03     307.547E-03    -154.354E-03     5.29414E-03
            2363     13.6594E-03     8.45537E-03    -5.14121E+06     76.0292E+06     85.4041E+06    -835.706E+03    -292.155E-03     516.782E-03    -224.627E-03     138.108E-03    -298.016E-03     522.645E-03    -224.303E-03     105.165E-03
            2364     12.9990E-03     8.22427E-03    -8.25952E+06     74.4245E+06     84.8192E+06    -801.706E+03    -301.913E-03     522.615E-03    -220.702E-03     164.366E-03    -309.859E-03     530.549E-03    -220.374E-03     123.957E-03
            2365     12.3296E-03     8.00189E-03    -13.5991E+06     67.4133E+06     81.4922E+06    -706.102E+03    -310.103E-03     525.899E-03    -215.796E-03     146.951E-03    -317.396E-03     533.148E-03    -215.467E-03     106.617E-03
            2366     11.6733E-03     7.77189E-03    -19.5055E+06     59.0566E+06     77.5088E+06    -1.51946E+06    -310.457E-03     520.433E-03    -209.976E-03     125.335E-03    -317.123E-03     527.021E-03    -209.645E-03     85.8119E-03
            2367     11.0213E-03     7.56905E-03    -25.8844E+06     47.2338E+06     66.2187E+06    -835.371E+03    -299.365E-03     503.019E-03    -203.654E-03     103.702E-03    -305.027E-03     508.575E-03    -203.354E-03     68.1128E-03
            2368     10.3524E-03     7.40985E-03    -33.4359E+06     34.5161E+06     50.1915E+06     1.60463E+06    -282.370E-03     479.743E-03    -197.374E-03     87.8138E-03    -287.018E-03     484.260E-03    -197.124E-03     57.3833E-03
            2369     9.67125E-03     7.28002E-03    -43.0264E+06     19.3614E+06     34.4552E+06     3.20811E+06    -264.402E-03     455.865E-03    -191.463E-03     76.7856E-03    -268.209E-03     459.499E-03    -191.257E-03     51.2163E-03
            2370     8.97755E-03     7.17598E-03    -53.1193E+06     3.91182E+06     21.3081E+06     4.59824E+06    -246.379E-03     432.453E-03    -186.074E-03     69.0007E-03    -249.483E-03     435.330E-03    -185.897E-03     47.8725E-03
            2371     8.26943E-03     7.10019E-03    -60.6716E+06    -7.87515E+06     13.7809E+06     6.84992E+06    -229.845E-03     411.133E-03    -181.288E-03     64.1563E-03    -232.385E-03     413.397E-03    -181.120E-03     46.8188E-03
            2372     7.55015E-03     7.04035E-03    -65.9737E+06    -19.8059E+06     7.63793E+06     8.07635E+06    -215.553E-03     392.633E-03    -177.080E-03     60.6731E-03    -217.624E-03     394.384E-03    -176.917E-03     46.4678E-03
            2373     6.82105E-03     6.99757E-03    -71.3527E+06    -52.6069E+06    -2.77096E+06     6.78621E+06    -203.381E-03     376.791E-03    -173.410E-03     57.4772E-03    -205.019E-03     378.003E-03    -173.244E-03     45.8756E-03
            2374     6.08291E-03     6.96322E-03    -76.9317E+06    -92.2817E+06    -14.2185E+06     5.34757E+06    -193.226E-03     363.446E-03    -170.220E-03     54.2032E-03    -194.490E-03     364.156E-03    -170.046E-03     44.7805E-03
            2375     5.33776E-03     6.93936E-03    -82.2589E+06    -124.292E+06    -25.8846E+06     4.70286E+06    -184.764E-03     352.201E-03    -167.437E-03     50.5676E-03    -185.722E-03     352.503E-03    -167.267E-03     42.9930E-03
            2376     4.58703E-03     6.91993E-03    -88.6413E+06    -155.743E+06    -41.8461E+06     5.16144E+06    -177.578E-03     342.597E-03    -165.019E-03     46.3299E-03    -178.278E-03     342.552E-03    -164.874E-03     40.3573E-03
            2377     3.83016E-03     6.90720E-03    -95.9521E+06    -189.037E+06    -56.5425E+06     3.66358E+06    -171.602E-03     334.590E-03    -162.987E-03     40.9797E-03    -172.092E-03     334.231E-03    -162.857E-03     36.3537E-03
            2378     3.06942E-03     6.89553E-03    -101.797E+06    -219.619E+06    -67.2959E+06    -989.197E+03    -166.726E-03     328.068E-03    -161.342E-03     34.6474E-03    -167.050E-03     327.444E-03    -161.212E-03     31.1205E-03
            2379     2.30541E-03     6.89006E-03    -106.407E+06    -234.795E+06    -80.6566E+06    -1.83462E+06    -162.929E-03     322.971E-03    -160.042E-03     27.4774E-03    -163.134E-03     322.195E-03    -159.950E-03     24.9537E-03
            2380     1.53785E-03     6.88448E-03    -111.140E+06    -246.090E+06    -96.8253E+06    -29.0106E+03    -160.395E-03     319.477E-03    -159.082E-03     19.3130E-03    -160.515E-03     318.605E-03    -159.048E-03     17.7065E-03
            2381     769.179E-06     6.88184E-03    -115.128E+06    -257.566E+06    -111.145E+06    -300.528E+03    -158.582E-03     317.280E-03    -158.699E-03     10.5827E-03    -158.644E-03     316.337E-03    -158.714E-03     9.73125E-03
            2382     13.6691E-03     6.86826E-03    -4.74248E+06     76.0447E+06     81.9202E+06    -1.68152E+06    -303.610E-03     528.038E-03    -224.428E-03     147.647E-03    -309.913E-03     534.352E-03    -224.122E-03     112.560E-03
            2383     12.9949E-03     6.61727E-03    -9.31846E+06     73.9185E+06     81.4048E+06    -1.30488E+06    -318.596E-03     538.374E-03    -219.778E-03     163.001E-03    -326.722E-03     546.491E-03    -219.464E-03     119.959E-03
            2384     12.3532E-03     6.37791E-03    -12.6414E+06     67.5687E+06     79.5302E+06    -634.462E+03    -321.876E-03     535.902E-03    -214.025E-03     135.021E-03    -329.007E-03     543.003E-03    -213.707E-03     93.1807E-03
            2385     11.7111E-03     6.16654E-03    -17.5986E+06     58.3480E+06     75.8788E+06     1.25026E+06    -310.106E-03     517.863E-03    -207.757E-03     115.782E-03    -316.452E-03     524.145E-03    -207.437E-03     77.2139E-03
            2386     11.0457E-03     6.01007E-03    -25.4212E+06     43.9771E+06     64.3089E+06     4.36668E+06    -290.407E-03     492.029E-03    -201.622E-03     99.7116E-03    -295.618E-03     497.131E-03    -201.327E-03     66.9782E-03
            2387     10.3686E-03     5.88331E-03    -33.2402E+06     29.6373E+06     50.2447E+06     7.77404E+06    -269.721E-03     465.726E-03    -196.005E-03     91.4083E-03    -274.020E-03     469.879E-03    -195.749E-03     64.1564E-03
            2388     9.67875E-03     5.79045E-03    -40.7039E+06     17.7654E+06     39.1049E+06     11.1407E+06    -250.114E-03     441.171E-03    -191.057E-03     86.9601E-03    -253.674E-03     444.548E-03    -190.828E-03     64.4687E-03
            2389     8.97227E-03     5.72496E-03    -48.6439E+06     7.09937E+06     29.5925E+06     11.0978E+06    -232.388E-03     419.204E-03    -186.816E-03     85.1652E-03    -235.340E-03     421.933E-03    -186.608E-03     66.7244E-03
            2390     8.25415E-03     5.67564E-03    -56.5649E+06    -4.56145E+06     23.6823E+06     6.76503E+06    -217.819E-03     401.080E-03    -183.261E-03     83.9348E-03    -220.271E-03     403.255E-03    -183.054E-03     68.7181E-03
            2391     7.52621E-03     5.64145E-03    -63.3384E+06    -18.6973E+06     19.4286E+06     3.66462E+06    -206.089E-03     386.379E-03    -180.289E-03     82.1717E-03    -208.108E-03     388.057E-03    -180.073E-03     69.6175E-03
            2392     6.79021E-03     5.61694E-03    -69.4102E+06    -50.9207E+06     9.02627E+06     3.16471E+06    -196.774E-03     374.572E-03    -177.798E-03     79.8513E-03    -198.393E-03     375.742E-03    -177.578E-03     69.5359E-03
            2393     6.04849E-03     5.60080E-03    -76.4353E+06    -89.1206E+06    -4.37494E+06     1.16921E+06    -189.401E-03     365.113E-03    -175.712E-03     76.3882E-03    -190.668E-03     365.807E-03    -175.494E-03     67.9365E-03
            2394     5.30146E-03     5.58883E-03    -83.4178E+06    -125.548E+06    -15.9810E+06    -550.453E+03    -183.604E-03     357.585E-03    -173.981E-03     71.4816E-03    -184.577E-03     357.862E-03    -173.758E-03     64.6031E-03
            2395     4.54990E-03     5.58218E-03    -88.7339E+06    -157.948E+06    -28.2860E+06    -216.758E+03    -179.106E-03     351.642E-03    -172.536E-03     64.9620E-03    -179.826E-03     351.566E-03    -172.320E-03     59.4476E-03
            2396     3.79632E-03     5.57654E-03    -92.6317E+06    -181.311E+06    -45.4420E+06    -2.35963E+06    -175.443E-03     346.772E-03    -171.329E-03     57.1230E-03    -175.950E-03     346.433E-03    -171.159E-03     52.7748E-03
            2397     3.03955E-03     5.57473E-03    -97.5476E+06    -217.145E+06    -64.4471E+06    -6.22990E+06    -172.760E-03     343.158E-03    -170.398E-03     47.7766E-03    -173.077E-03     342.537E-03    -170.264E-03     44.4069E-03
            2398     2.28024E-03     5.57277E-03    -103.815E+06    -242.039E+06    -80.3601E+06    -6.48198E+06    -171.034E-03     340.712E-03    -169.678E-03     37.1581E-03    -171.223E-03     339.895E-03    -169.578E-03     34.6957E-03
            2399     1.52147E-03     5.57126E-03    -108.909E+06    -251.083E+06    -95.5967E+06    -4.10792E+06    -169.811E-03     338.889E-03    -169.078E-03     25.6276E-03    -169.919E-03     337.985E-03    -169.034E-03     24.0195E-03
            2400     761.507E-06     5.57048E-03    -111.550E+06    -260.765E+06    -107.316E+06    -1.41571E+06    -168.836E-03     337.507E-03    -168.671E-03     14.0524E-03    -168.886E-03     336.533E-03    -168.668E-03     13.2022E-03
            2401     13.6545E-03     5.25055E-03    -3.77715E+06     79.2726E+06     80.9505E+06    -833.397E+03    -324.611E-03     548.725E-03    -224.114E-03     150.518E-03    -330.956E-03     555.099E-03    -223.819E-03     113.387E-03
            2402     13.0287E-03     4.96323E-03    -8.25267E+06     74.6673E+06     76.5593E+06    -2.64340E+06    -332.159E-03     550.707E-03    -218.547E-03     156.525E-03    -340.148E-03     558.713E-03    -218.261E-03     112.089E-03
            2403     12.3866E-03     4.75454E-03    -13.5239E+06     61.0911E+06     69.9940E+06    -222.751E+03    -319.909E-03     532.326E-03    -212.417E-03     128.234E-03    -326.491E-03     538.885E-03    -212.136E-03     88.6443E-03
            2404     11.7216E-03     4.58206E-03    -19.9662E+06     49.9232E+06     66.9456E+06     5.29269E+06    -297.129E-03     503.680E-03    -206.551E-03     111.158E-03    -302.548E-03     509.025E-03    -206.259E-03     77.6710E-03
            2405     11.0510E-03     4.46567E-03    -26.6867E+06     39.8507E+06     61.8407E+06     9.30428E+06    -272.658E-03     474.052E-03    -201.394E-03     100.301E-03    -276.952E-03     478.227E-03    -201.104E-03     73.1909E-03
            2406     10.3608E-03     4.38440E-03    -33.3642E+06     27.5275E+06     54.2570E+06     10.0357E+06    -250.273E-03     447.374E-03    -197.101E-03     99.2732E-03    -253.808E-03     450.744E-03    -196.822E-03     77.3453E-03
            2407     9.65134E-03     4.32597E-03    -37.1958E+06     16.5890E+06     48.4762E+06     9.08380E+06    -231.926E-03     425.591E-03    -193.665E-03     99.8354E-03    -234.842E-03     428.304E-03    -193.393E-03     82.0687E-03
            2408     8.93287E-03     4.28963E-03    -39.4112E+06     11.1772E+06     45.9857E+06     8.93098E+06    -218.186E-03     409.136E-03    -190.950E-03     100.048E-03    -220.589E-03     411.314E-03    -190.679E-03     85.5293E-03
            2409     8.20513E-03     4.26203E-03    -44.4997E+06     5.82316E+06     45.3352E+06     7.05268E+06    -207.435E-03     396.261E-03    -188.827E-03     99.4201E-03    -209.436E-03     398.001E-03    -188.544E-03     87.4511E-03
            2410     7.47081E-03     4.24662E-03    -53.5217E+06    -14.9130E+06     39.0413E+06     2.58101E+06    -199.451E-03     386.632E-03    -187.182E-03     97.0306E-03    -201.104E-03     387.933E-03    -186.887E-03     87.0843E-03
            2411     6.73137E-03     4.23487E-03    -62.1683E+06    -50.1364E+06     25.8576E+06    -1.68578E+06    -193.796E-03     379.693E-03    -185.897E-03     92.9552E-03    -195.129E-03     380.553E-03    -185.605E-03     84.6330E-03
            2412     5.98835E-03     4.22931E-03    -67.7431E+06    -85.4104E+06     9.88713E+06    -5.26219E+06    -189.792E-03     374.674E-03    -184.882E-03     87.0943E-03    -190.834E-03     375.141E-03    -184.610E-03     80.1208E-03
            2413     5.24275E-03     4.22557E-03    -71.4652E+06    -127.316E+06    -8.93930E+06    -8.73667E+06    -186.996E-03     371.081E-03    -184.086E-03     79.7480E-03    -187.765E-03     371.166E-03    -183.842E-03     73.9111E-03
            2414     4.49656E-03     4.22396E-03    -73.9811E+06    -159.940E+06    -25.3319E+06    -11.2221E+06    -184.972E-03     368.447E-03    -183.476E-03     70.9935E-03    -185.515E-03     368.226E-03    -183.263E-03     66.1474E-03
            2415     3.74767E-03     4.22449E-03    -76.9647E+06    -185.625E+06    -39.5415E+06    -9.94701E+06    -183.718E-03     366.739E-03    -183.020E-03     61.0923E-03    -184.083E-03     366.275E-03    -182.837E-03     57.1795E-03
            2416     2.99846E-03     4.22492E-03    -82.8635E+06    -222.048E+06    -58.0343E+06    -6.50310E+06    -183.155E-03     365.806E-03    -182.651E-03     49.9888E-03    -183.361E-03     365.085E-03    -182.499E-03     46.9526E-03
            2417     2.25040E-03     4.22495E-03    -89.9667E+06    -247.661E+06    -76.0069E+06    -5.57936E+06    -182.673E-03     364.991E-03    -182.318E-03     38.2729E-03    -182.769E-03     364.095E-03    -182.209E-03     36.0244E-03
            2418     1.50017E-03     4.22579E-03    -95.7323E+06    -260.542E+06    -89.0594E+06    -4.75405E+06    -182.137E-03     364.213E-03    -182.075E-03     26.2553E-03    -182.167E-03     363.222E-03    -182.004E-03     24.7407E-03
            2419     749.624E-06     4.22638E-03    -99.4041E+06    -268.365E+06    -97.5088E+06    -2.80160E+06    -181.914E-03     363.878E-03    -181.964E-03     14.3845E-03    -181.905E-03     362.831E-03    -181.919E-03     13.5577E-03
            2420     13.6878E-03     3.57361E-03    -4.84267E+06     80.7748E+06     76.6880E+06    -2.79478E+06    -348.045E-03     572.197E-03    -224.152E-03     174.545E-03    -354.897E-03     579.094E-03    -223.879E-03     135.713E-03
            2421     13.0385E-03     3.31913E-03    -5.18074E+06     70.2099E+06     71.8689E+06     1.56177E+06    -339.027E-03     556.976E-03    -217.950E-03     157.870E-03    -346.259E-03     564.243E-03    -217.685E-03     116.825E-03
            2422     12.3845E-03     3.13651E-03    -13.4028E+06     53.3068E+06     63.5916E+06     6.80675E+06    -308.537E-03     520.557E-03    -212.020E-03     119.159E-03    -313.495E-03     525.492E-03    -211.760E-03     87.2637E-03
            2423     11.7239E-03     3.02746E-03    -19.8236E+06     44.5621E+06     63.7675E+06     8.42977E+06    -276.805E-03     483.957E-03    -207.152E-03     104.110E-03    -280.480E-03     487.551E-03    -206.869E-03     79.4224E-03
            2424     11.0280E-03     2.95531E-03    -23.7223E+06     38.7183E+06     65.3475E+06     8.07840E+06    -250.781E-03     454.221E-03    -203.439E-03     100.747E-03    -253.630E-03     456.945E-03    -203.134E-03     81.8108E-03
            2425     10.3176E-03     2.91329E-03    -27.4417E+06     32.0830E+06     63.7597E+06     6.80720E+06    -232.172E-03     432.867E-03    -200.695E-03     100.431E-03    -234.463E-03     435.000E-03    -200.383E-03     85.5619E-03
            2426     9.59797E-03     2.88356E-03    -32.6966E+06     21.2101E+06     56.8564E+06     3.70944E+06    -218.689E-03     417.382E-03    -198.693E-03     99.2794E-03    -220.546E-03     419.040E-03    -198.392E-03     87.3621E-03
            2427     8.86941E-03     2.86210E-03    -37.7123E+06     12.2541E+06     49.4874E+06     1.03747E+06    -209.273E-03     406.544E-03    -197.270E-03     96.5948E-03    -210.792E-03     407.833E-03    -196.986E-03     86.8398E-03
            2428     8.13645E-03     2.85253E-03    -40.8822E+06     8.52849E+06     46.3816E+06     1.23640E+06    -202.946E-03     399.238E-03    -196.292E-03     93.1456E-03    -204.216E-03     400.260E-03    -196.013E-03     85.0277E-03
            2429     7.39954E-03     2.84358E-03    -43.7674E+06    -7.81781E+06     37.4958E+06    -717.369E+03    -198.840E-03     394.459E-03    -195.619E-03     88.4505E-03    -199.883E-03     395.210E-03    -195.357E-03     81.5677E-03
            2430     6.66159E-03     2.84090E-03    -47.8096E+06    -43.6679E+06     19.7527E+06    -7.45371E+06    -196.368E-03     391.525E-03    -195.157E-03     82.3936E-03    -197.187E-03     391.958E-03    -194.925E-03     76.4275E-03
            2431     5.92223E-03     2.83825E-03    -51.9642E+06    -86.1926E+06     1.52827E+06    -12.2125E+06    -194.877E-03     389.740E-03    -194.862E-03     75.4828E-03    -195.490E-03     389.853E-03    -194.654E-03     70.3071E-03
            2432     5.18291E-03     2.83837E-03    -56.8424E+06    -129.465E+06    -18.2763E+06    -13.6863E+06    -194.071E-03     388.753E-03    -194.682E-03     67.7430E-03    -194.502E-03     388.569E-03    -194.503E-03     63.2864E-03
            2433     4.44149E-03     2.83941E-03    -63.6821E+06    -165.794E+06    -37.3964E+06    -13.6361E+06    -193.841E-03     388.416E-03    -194.575E-03     59.1632E-03    -194.130E-03     387.992E-03    -194.430E-03     55.3813E-03
            2434     3.70148E-03     2.84045E-03    -71.2119E+06    -201.654E+06    -50.3742E+06    -9.67301E+06    -193.968E-03     388.500E-03    -194.531E-03     49.9610E-03    -194.145E-03     387.845E-03    -194.388E-03     46.8626E-03
            2435     2.96190E-03     2.84082E-03    -76.8466E+06    -231.288E+06    -60.9032E+06    -4.78425E+06    -194.064E-03     388.565E-03    -194.501E-03     40.6303E-03    -194.146E-03     387.721E-03    -194.359E-03     38.2074E-03
            2436     2.22061E-03     2.84278E-03    -81.0815E+06    -251.362E+06    -71.8580E+06    -2.59659E+06    -194.142E-03     388.617E-03    -194.474E-03     31.0073E-03    -194.151E-03     387.644E-03    -194.352E-03     29.2057E-03
            2437     1.48057E-03     2.84388E-03    -85.1323E+06    -266.890E+06    -80.6214E+06    -1.66702E+06    -194.282E-03     388.751E-03    -194.470E-03     21.0650E-03    -194.241E-03     387.683E-03    -194.362E-03     19.8547E-03
            2438     740.572E-06     2.84475E-03    -88.7391E+06    -274.264E+06    -87.9790E+06    -662.114E+03    -194.471E-03     388.865E-03    -194.393E-03     11.4163E-03    -194.405E-03     387.755E-03    -194.307E-03     10.7639E-03
            2439     13.6370E-03     1.83374E-03    -3.87936E+06     79.8037E+06     79.6084E+06     1.01010E+06    -399.273E-03     625.366E-03    -226.093E-03     182.476E-03    -404.561E-03     630.678E-03    -225.805E-03     150.573E-03
            2440     13.0304E-03     1.64695E-03    -7.61300E+06     63.9803E+06     73.4874E+06     3.40423E+06    -344.540E-03     563.319E-03    -218.780E-03     117.789E-03    -348.318E-03     567.120E-03    -218.494E-03     92.0994E-03
            2441     12.3828E-03     1.55632E-03    -11.6591E+06     53.7621E+06     71.1255E+06     4.71956E+06    -294.073E-03     507.304E-03    -213.231E-03     90.0696E-03    -296.328E-03     509.524E-03    -212.937E-03     72.1956E-03
            2442     11.6845E-03     1.50535E-03    -14.5895E+06     46.9212E+06     72.3327E+06     3.73965E+06    -259.603E-03     469.001E-03    -209.399E-03     80.1804E-03    -261.241E-03     470.555E-03    -209.084E-03     67.4305E-03
            2443     10.9790E-03     1.47798E-03    -17.1448E+06     40.0915E+06     70.8659E+06     3.32114E+06    -237.716E-03     444.522E-03    -206.806E-03     74.3731E-03    -238.942E-03     445.629E-03    -206.485E-03     65.1150E-03
            2444     10.2616E-03     1.45473E-03    -20.7664E+06     34.6270E+06     62.1451E+06     3.09077E+06    -223.846E-03     428.873E-03    -205.027E-03     69.7314E-03    -224.811E-03     429.710E-03    -204.736E-03     62.5256E-03
            2445     9.53801E-03     1.44416E-03    -25.4652E+06     26.6616E+06     48.3618E+06     2.16692E+06    -214.614E-03     418.430E-03    -203.816E-03     65.6627E-03    -215.400E-03     419.082E-03    -203.576E-03     59.8536E-03
            2446     8.80891E-03     1.43635E-03    -30.8878E+06     16.6607E+06     33.7387E+06    -940.324E+03    -208.403E-03     411.443E-03    -203.040E-03     61.4798E-03    -209.058E-03     411.949E-03    -202.851E-03     56.6190E-03
            2447     8.07669E-03     1.43092E-03    -36.0877E+06     8.59457E+06     19.9187E+06    -4.38300E+06    -204.696E-03     407.273E-03    -202.577E-03     56.6196E-03    -205.250E-03     407.671E-03    -202.438E-03     52.4530E-03
            2448     7.34378E-03     1.42839E-03    -39.7049E+06    -3.34378E+06     5.34313E+06    -6.75605E+06    -202.466E-03     404.795E-03    -202.330E-03     52.1412E-03    -202.931E-03     405.091E-03    -202.241E-03     48.4806E-03
            2449     6.60888E-03     1.42630E-03    -43.5957E+06    -38.6430E+06    -10.6000E+06    -8.97583E+06    -201.314E-03     403.577E-03    -202.263E-03     47.5157E-03    -201.670E-03     403.669E-03    -202.197E-03     44.2827E-03
            2450     5.87413E-03     1.42633E-03    -50.2699E+06    -91.3728E+06    -24.2301E+06    -9.81258E+06    -200.891E-03     403.230E-03    -202.339E-03     42.7743E-03    -201.138E-03     403.043E-03    -202.255E-03     39.9172E-03
            2451     5.13795E-03     1.42694E-03    -58.4727E+06    -135.983E+06    -36.7226E+06    -8.15451E+06    -200.930E-03     403.403E-03    -202.473E-03     37.8497E-03    -201.098E-03     402.984E-03    -202.375E-03     35.3768E-03
            2452     4.40416E-03     1.42712E-03    -66.5925E+06    -175.002E+06    -49.5753E+06    -5.41182E+06    -201.332E-03     403.952E-03    -202.620E-03     32.9931E-03    -201.432E-03     403.335E-03    -202.518E-03     30.9074E-03
            2453     3.66970E-03     1.42785E-03    -73.4385E+06    -212.023E+06    -60.4694E+06    -3.73172E+06    -201.728E-03     404.504E-03    -202.775E-03     28.0221E-03    -201.766E-03     403.700E-03    -202.664E-03     26.2954E-03
            2454     2.93446E-03     1.42946E-03    -78.2214E+06    -237.560E+06    -68.8668E+06    -3.08970E+06    -202.072E-03     405.003E-03    -202.931E-03     22.7948E-03    -202.063E-03     404.068E-03    -202.817E-03     21.4113E-03
            2455     2.20093E-03     1.42982E-03    -81.1262E+06    -256.075E+06    -74.4691E+06    -1.78650E+06    -202.528E-03     405.611E-03    -203.083E-03     17.2266E-03    -202.480E-03     404.578E-03    -202.966E-03     16.1856E-03
            2456     1.46696E-03     1.43082E-03    -83.1335E+06    -269.678E+06    -79.3758E+06    -3.49426E+03    -202.966E-03     406.154E-03    -203.189E-03     11.6906E-03    -202.888E-03     405.051E-03    -203.074E-03     11.0010E-03
            2457     733.308E-06     1.43115E-03    -85.3636E+06    -274.416E+06    -83.6342E+06     678.179E+03    -203.275E-03     406.403E-03    -203.128E-03     6.45635E-03    -203.188E-03     405.278E-03    -203.025E-03     6.09788E-03


