********************************************************************************
Field Output Report, written Tue May 28 20:17:16 2024

Source 1
---------

   ODB: G:/Abaqus_calc_2019/1740/Vel_20/odb/zeides_2a_8_red_2500_cal_10_vel_20_fric_025.odb
   Step: Step-1
   Frame: Increment   8581436: Step Time =   0.8651

Loc 1 : Nodal values from source 1

Output sorted by column "Nodal Label".

Field Output reported at nodes for region: DIE_2A_8_D0_36-1.Region_1
   Computation algorithm: EXTRAPOLATE_COMPUTE_AVERAGE
   Averaged at nodes
   Averaging regions: ODB_REGIONS

      Node Label     COORD.COOR1     COORD.COOR2
                          @Loc 1          @Loc 1
-------------------------------------------------
               1     14.4417E-03     217.804E-03


Field Output reported at nodes for region: DIE_2A_8_D0_36-1.Region_2
   Computation algorithm: EXTRAPOLATE_COMPUTE_AVERAGE
   Averaged at nodes
   Averaging regions: ODB_REGIONS

      Node Label     COORD.COOR1     COORD.COOR2
                          @Loc 1          @Loc 1
-------------------------------------------------
               1     14.4417E-03     217.804E-03


Field Output reported at nodes for part: WIRE-1
   Computation algorithm: EXTRAPOLATE_COMPUTE_AVERAGE
   Averaged at nodes
   Averaging regions: ODB_REGIONS

      Node Label     COORD.COOR1     COORD.COOR2           S.S11           S.S22           S.S33           S.S12         PE.PE11         PE.PE22         PE.PE33         PE.PE12         LE.LE11         LE.LE22         LE.LE33         LE.LE12
                          @Loc 1          @Loc 1          @Loc 1          @Loc 1          @Loc 1          @Loc 1          @Loc 1          @Loc 1          @Loc 1          @Loc 1          @Loc 1          @Loc 1          @Loc 1          @Loc 1
-------------------------------------------------------------------------------------------------------------------------------------------------------------------------------------------------------------------------------------------------
               1    -167.818E-09     97.6535E-03    -120.367E+06    -250.925E+06    -120.819E+06     87.3300E+03    -289.564E-03     579.239E-03    -289.676E-03     1.71324E-03    -289.627E-03     578.335E-03    -289.741E-03     1.87418E-03
               2     13.4798E-03     98.4591E-03     -1.9569E+06     78.6378E+06     100.525E+06    -244.829E+03    -288.649E-03     578.267E-03    -289.618E-03     26.2949E-03    -289.014E-03     578.613E-03    -289.227E-03     21.7035E-03
               3     13.5059E-03     196.448E-03    -34.3732E+06     33.7224E+06     48.5885E+06    -12.2961E+06    -245.460E-03     533.612E-03    -288.152E-03    -5.71899E-03    -245.749E-03     533.776E-03    -287.908E-03    -4.81804E-03
               4     381.465E-09     195.343E-03     43.4196E+06    -15.7773E+06     39.2316E+06    -4.50212E+06    -304.844E-03     608.571E-03    -303.727E-03    -9.80073E-03    -304.678E-03     608.351E-03    -303.571E-03    -10.1330E-03
               5    -86.2021E-09    -124.900E-18    -65.9183E+06    -244.074E+06    -66.1463E+06     262.036E+03    -265.571E-03     531.775E-03    -266.204E-03     329.400E-06    -265.451E-03     530.746E-03    -266.085E-03     302.145E-06
               6     13.3919E-03    -124.900E-18     6.29509E+06     81.6359E+06     105.639E+06    -2.36974E+06    -397.890E-03     689.267E-03    -291.377E-03     73.2668E-03    -398.553E-03     689.935E-03    -290.976E-03     64.0715E-03
               7     673.684E-06     97.6570E-03    -119.782E+06    -247.925E+06    -118.258E+06     215.804E+03    -289.597E-03     579.252E-03    -289.656E-03     2.92571E-03    -289.665E-03     578.358E-03    -289.714E-03     3.20137E-03
               8     1.34728E-03     97.6650E-03    -117.512E+06    -239.713E+06    -110.890E+06     461.092E+03    -289.619E-03     579.268E-03    -289.649E-03     5.43452E-03    -289.698E-03     578.400E-03    -289.685E-03     5.93844E-03
               9     2.02096E-03     97.6784E-03    -113.570E+06    -227.075E+06    -99.7666E+06     663.366E+03    -289.588E-03     579.261E-03    -289.673E-03     8.00562E-03    -289.682E-03     578.435E-03    -289.678E-03     8.71167E-03
              10     2.69463E-03     97.6968E-03    -108.390E+06    -210.742E+06    -85.7498E+06     885.626E+03    -289.542E-03     579.239E-03    -289.697E-03     10.5805E-03    -289.654E-03     578.467E-03    -289.663E-03     11.4321E-03
              11     3.36836E-03     97.7201E-03    -102.333E+06    -191.706E+06    -69.8892E+06     1.17069E+06    -289.490E-03     579.210E-03    -289.719E-03     13.2007E-03    -289.624E-03     578.502E-03    -289.642E-03     14.1308E-03
              12     4.04218E-03     97.7483E-03    -95.6811E+06    -170.470E+06    -53.3616E+06     1.32295E+06    -289.448E-03     579.185E-03    -289.737E-03     15.8126E-03    -289.604E-03     578.551E-03    -289.618E-03     16.7328E-03
              13     4.71600E-03     97.7809E-03    -88.6908E+06    -148.751E+06    -37.0347E+06     1.57051E+06    -289.421E-03     579.173E-03    -289.752E-03     18.3887E-03    -289.600E-03     578.616E-03    -289.593E-03     19.2104E-03
              14     5.38983E-03     97.8182E-03    -81.4696E+06    -124.453E+06    -21.4555E+06     2.01415E+06    -289.398E-03     579.158E-03    -289.760E-03     20.9532E-03    -289.602E-03     578.692E-03    -289.568E-03     21.5858E-03
              15     6.06364E-03     97.8596E-03    -73.9269E+06    -96.8331E+06    -6.49204E+06     2.27840E+06    -289.368E-03     579.127E-03    -289.759E-03     23.5325E-03    -289.601E-03     578.773E-03    -289.544E-03     23.8493E-03
              16     6.73758E-03     97.9051E-03    -66.1848E+06    -67.0406E+06     7.97433E+06     2.60649E+06    -289.312E-03     579.063E-03    -289.751E-03     26.1114E-03    -289.579E-03     578.834E-03    -289.518E-03     25.9913E-03
              17     7.41163E-03     97.9542E-03    -57.9345E+06    -32.3102E+06     22.4513E+06     2.77943E+06    -289.232E-03     578.965E-03    -289.733E-03     28.6798E-03    -289.541E-03     578.889E-03    -289.490E-03     28.0120E-03
              18     8.08560E-03     98.0070E-03    -49.6781E+06     5.98853E+06     36.8060E+06     2.17182E+06    -289.161E-03     578.867E-03    -289.706E-03     31.1598E-03    -289.520E-03     578.965E-03    -289.459E-03     29.8210E-03
              19     8.75973E-03     98.0627E-03    -42.7109E+06     26.6357E+06     48.1668E+06     1.95711E+06    -289.138E-03     578.831E-03    -289.693E-03     33.5875E-03    -289.530E-03     579.027E-03    -289.429E-03     31.4827E-03
              20     9.43361E-03     98.1212E-03    -36.5256E+06     41.2170E+06     59.3850E+06     2.58028E+06    -289.065E-03     578.753E-03    -289.689E-03     35.8721E-03    -289.489E-03     579.023E-03    -289.399E-03     32.9206E-03
              21     10.1078E-03     98.1817E-03    -30.1944E+06     57.1238E+06     72.8052E+06     2.54210E+06    -288.938E-03     578.629E-03    -289.691E-03     37.6484E-03    -289.404E-03     578.979E-03    -289.366E-03     33.7938E-03
              22     10.7822E-03     98.2430E-03    -24.0747E+06     62.0240E+06     85.2140E+06     1.67033E+06    -288.872E-03     578.575E-03    -289.703E-03     38.5898E-03    -289.359E-03     578.950E-03    -289.332E-03     33.8781E-03
              23     11.4563E-03     98.3044E-03    -17.9494E+06     66.8396E+06     95.7132E+06     585.593E+03    -288.791E-03     578.498E-03    -289.707E-03     38.5150E-03    -289.291E-03     578.893E-03    -289.299E-03     33.0904E-03
              24     12.1309E-03     98.3629E-03    -11.8425E+06     70.5942E+06     100.192E+06     21.3466E+03    -288.714E-03     578.398E-03    -289.684E-03     38.5151E-03    -289.225E-03     578.827E-03    -289.268E-03     32.1855E-03
              25     12.8044E-03     98.4204E-03    -5.42763E+06     75.2627E+06     100.272E+06    -107.693E+03    -288.671E-03     578.311E-03    -289.640E-03     32.5492E-03    -289.114E-03     578.711E-03    -289.240E-03     26.7919E-03
              26     13.4788E-03     100.151E-03    -2.69481E+06     77.8563E+06     99.7770E+06    -154.484E+03    -288.804E-03     578.425E-03    -289.622E-03     25.8790E-03    -289.167E-03     578.766E-03    -289.232E-03     21.3515E-03
              27     13.4793E-03     101.842E-03    -3.12918E+06     78.2097E+06     99.8841E+06     536.631E+03    -288.633E-03     578.271E-03    -289.638E-03     26.0536E-03    -289.001E-03     578.615E-03    -289.247E-03     21.5086E-03
              28     13.4788E-03     103.532E-03    -2.86939E+06     79.5866E+06     100.576E+06     1.05652E+06    -288.314E-03     577.945E-03    -289.630E-03     26.2962E-03    -288.685E-03     578.296E-03    -289.239E-03     21.7082E-03
              29     13.4802E-03     105.221E-03    -2.54768E+06     80.4581E+06     101.083E+06    -451.774E+03    -288.398E-03     577.991E-03    -289.593E-03     26.1000E-03    -288.768E-03     578.345E-03    -289.201E-03     21.4889E-03
              30     13.4797E-03     106.913E-03    -2.81090E+06     82.6103E+06     102.878E+06     651.793E+03    -288.777E-03     578.343E-03    -289.565E-03     25.9020E-03    -289.153E-03     578.704E-03    -289.167E-03     21.3604E-03
              31     13.4805E-03     108.605E-03    -2.90896E+06     84.7237E+06     103.067E+06     1.05417E+06    -288.485E-03     578.020E-03    -289.535E-03     26.3352E-03    -288.867E-03     578.394E-03    -289.139E-03     21.7648E-03
              32     13.4813E-03     110.293E-03    -2.06393E+06     87.5575E+06     103.509E+06    -109.773E+03    -287.902E-03     577.380E-03    -289.478E-03     26.9805E-03    -288.289E-03     577.770E-03    -289.084E-03     22.2943E-03
              33     13.4826E-03     111.985E-03    -1.67716E+06     89.9522E+06     105.142E+06    -940.742E+03    -288.019E-03     577.450E-03    -289.431E-03     26.5369E-03    -288.409E-03     577.849E-03    -289.034E-03     21.8105E-03
              34     13.4817E-03     113.673E-03    -2.70532E+06     88.3189E+06     105.018E+06     33.9838E+03    -288.464E-03     577.868E-03    -289.403E-03     26.3171E-03    -288.855E-03     578.258E-03    -289.002E-03     21.6597E-03
              35     13.4833E-03     115.364E-03    -4.31555E+06     86.2436E+06     103.875E+06     765.650E+03    -288.511E-03     577.866E-03    -289.355E-03     26.6065E-03    -288.906E-03     578.250E-03    -288.954E-03     21.9746E-03
              36     13.4835E-03     117.054E-03    -2.80316E+06     89.7253E+06     106.697E+06     835.722E+03    -288.397E-03     577.699E-03    -289.303E-03     26.7904E-03    -288.795E-03     578.097E-03    -288.895E-03     22.0957E-03
              37     13.4847E-03     118.744E-03    -2.33258E+06     93.1420E+06     108.746E+06     1.04695E+06    -288.077E-03     577.320E-03    -289.244E-03     26.8733E-03    -288.483E-03     577.733E-03    -288.831E-03     22.1188E-03
              38     13.4859E-03     120.432E-03    -2.62483E+06     95.9899E+06     110.043E+06    -458.147E+03    -288.052E-03     577.216E-03    -289.164E-03     27.1834E-03    -288.466E-03     577.643E-03    -288.749E-03     22.3971E-03
              39     13.4867E-03     122.123E-03    -1.00346E+06     99.8205E+06     112.071E+06     79.3875E+03    -288.139E-03     577.248E-03    -289.109E-03     26.4688E-03    -288.552E-03     577.686E-03    -288.692E-03     21.6769E-03
              40     13.4868E-03     123.812E-03    -3.07185E+06     99.9907E+06     110.291E+06    -211.331E+03    -287.968E-03     577.048E-03    -289.080E-03     26.6144E-03    -288.391E-03     577.495E-03    -288.669E-03     21.7635E-03
              41     13.4872E-03     125.501E-03    -4.14518E+06     101.097E+06     110.770E+06     1.27773E+06    -288.154E-03     577.188E-03    -289.033E-03     26.8483E-03    -288.584E-03     577.640E-03    -288.620E-03     22.0643E-03
              42     13.4885E-03     127.190E-03    -1.53233E+06     104.383E+06     113.615E+06     549.688E+03    -288.073E-03     577.041E-03    -288.968E-03     26.3578E-03    -288.498E-03     577.501E-03    -288.549E-03     21.5391E-03
              43     13.4893E-03     128.878E-03    -4.04919E+06     104.963E+06     113.094E+06     84.6199E+03    -288.559E-03     577.484E-03    -288.926E-03     25.8784E-03    -288.996E-03     577.952E-03    -288.507E-03     21.0001E-03
              44     13.4880E-03     130.572E-03    -4.89462E+06     106.450E+06     113.039E+06     1.56637E+06    -288.298E-03     577.213E-03    -288.915E-03     26.2830E-03    -288.743E-03     577.690E-03    -288.497E-03     21.4302E-03
              45     13.4907E-03     132.256E-03    -2.06959E+06     111.008E+06     116.263E+06     658.363E+03    -287.306E-03     576.164E-03    -288.859E-03     27.6952E-03    -287.755E-03     576.663E-03    -288.436E-03     22.7232E-03
              46     13.4912E-03     133.945E-03    -2.51529E+06     113.205E+06     118.187E+06     664.234E+03    -287.655E-03     576.421E-03    -288.766E-03     26.6623E-03    -288.108E-03     576.925E-03    -288.336E-03     21.7120E-03
              47     13.4923E-03     135.633E-03    -3.38036E+06     113.194E+06     118.384E+06    -320.580E+03    -287.767E-03     576.474E-03    -288.708E-03     26.1496E-03    -288.223E-03     576.977E-03    -288.275E-03     21.2035E-03
              48     13.4927E-03     137.321E-03    -3.16016E+06     115.574E+06     120.324E+06     581.566E+03    -287.717E-03     576.385E-03    -288.669E-03     26.5203E-03    -288.181E-03     576.900E-03    -288.230E-03     21.4936E-03
              49     13.4932E-03     139.011E-03    -3.26169E+06     117.616E+06     120.891E+06     1.05791E+06    -287.687E-03     576.308E-03    -288.621E-03     26.5953E-03    -288.156E-03     576.833E-03    -288.183E-03     21.5798E-03
              50     13.4943E-03     140.697E-03    -2.85884E+06     121.370E+06     123.215E+06     740.852E+03    -287.455E-03     576.030E-03    -288.575E-03     26.7081E-03    -287.931E-03     576.570E-03    -288.131E-03     21.6881E-03
              51     13.4946E-03     142.386E-03    -3.25044E+06     125.038E+06     125.129E+06     543.812E+03    -287.124E-03     575.658E-03    -288.534E-03     26.6285E-03    -287.610E-03     576.214E-03    -288.085E-03     21.6047E-03
              52     13.4957E-03     144.071E-03    -2.11233E+06     129.088E+06     127.544E+06    -140.199E+03    -286.792E-03     575.275E-03    -288.483E-03     27.4242E-03    -287.283E-03     575.847E-03    -288.029E-03     22.4189E-03
              53     13.4966E-03     145.758E-03    -2.46626E+06     130.395E+06     127.648E+06     224.713E+03    -286.847E-03     575.277E-03    -288.431E-03     26.4647E-03    -287.339E-03     575.853E-03    -287.978E-03     21.4863E-03
              54     13.4963E-03     147.443E-03    -3.34550E+06     132.448E+06     128.071E+06     730.539E+03    -286.492E-03     574.891E-03    -288.399E-03     26.2016E-03    -286.992E-03     575.478E-03    -287.945E-03     21.2005E-03
              55     13.4981E-03     149.128E-03    -3.08885E+06     135.202E+06     130.268E+06     1.15735E+06    -286.442E-03     574.794E-03    -288.352E-03     26.6978E-03    -286.949E-03     575.393E-03    -287.892E-03     21.7131E-03
              56     13.4977E-03     150.816E-03    -5.64426E+06     134.092E+06     128.813E+06     140.737E+03    -286.548E-03     574.856E-03    -288.308E-03     26.3478E-03    -287.061E-03     575.451E-03    -287.850E-03     21.4439E-03
              57     13.4989E-03     152.500E-03    -3.39156E+06     136.601E+06     131.249E+06    -4.05142E+03    -285.895E-03     574.175E-03    -288.280E-03     26.8459E-03    -286.406E-03     574.778E-03    -287.817E-03     21.9155E-03
              58     13.4995E-03     154.184E-03    -1.58256E+06     141.384E+06     135.684E+06    -288.795E+03    -285.338E-03     573.588E-03    -288.249E-03     26.8138E-03    -285.857E-03     574.209E-03    -287.774E-03     21.7529E-03
              59     13.5000E-03     155.868E-03    -3.16176E+06     145.763E+06     137.699E+06     935.111E+03    -285.541E-03     573.766E-03    -288.224E-03     26.9468E-03    -286.076E-03     574.408E-03    -287.742E-03     21.9414E-03
              60     13.4998E-03     157.553E-03    -5.08665E+06     147.542E+06     136.788E+06     2.16160E+06    -285.457E-03     573.645E-03    -288.187E-03     27.0654E-03    -286.000E-03     574.296E-03    -287.710E-03     22.2271E-03
              61     13.5016E-03     159.234E-03    -3.60147E+06     148.974E+06     137.932E+06    -585.771E+03    -285.192E-03     573.331E-03    -288.139E-03     26.9418E-03    -285.730E-03     573.985E-03    -287.660E-03     22.0785E-03
              62     13.5012E-03     160.918E-03    -4.00891E+06     151.715E+06     140.158E+06     1.22867E+06    -285.443E-03     573.552E-03    -288.109E-03     26.4130E-03    -285.990E-03     574.217E-03    -287.622E-03     21.5209E-03
              63     13.5018E-03     162.602E-03    -4.63507E+06     155.206E+06     140.752E+06     1.65127E+06    -285.164E-03     573.252E-03    -288.088E-03     26.7679E-03    -285.721E-03     573.935E-03    -287.602E-03     21.8862E-03
              64     13.5023E-03     164.284E-03    -1.10584E+06     158.481E+06     144.452E+06    -9.80756E+03    -284.708E-03     572.760E-03    -288.052E-03     27.5969E-03    -285.260E-03     573.452E-03    -287.558E-03     22.6655E-03
              65     13.5036E-03     165.967E-03    -6.32306E+06     156.051E+06     140.339E+06    -462.218E+03    -285.415E-03     573.426E-03    -288.010E-03     27.1325E-03    -285.984E-03     574.119E-03    -287.526E-03     22.1656E-03
              66     13.5012E-03     167.652E-03    -11.0514E+06     156.949E+06     137.172E+06     1.31927E+06    -285.817E-03     573.824E-03    -288.007E-03     26.9910E-03    -286.405E-03     574.531E-03    -287.532E-03     22.0804E-03
              67     13.5038E-03     169.334E-03     2.99963E+06     165.799E+06     149.894E+06     1.06413E+06    -285.167E-03     573.165E-03    -287.998E-03     28.0133E-03    -285.719E-03     573.881E-03    -287.493E-03     23.0764E-03
              68     13.5041E-03     171.017E-03    -794.543E+03     164.602E+06     148.642E+06    -3.46900E+06    -286.219E-03     574.141E-03    -287.922E-03     27.7759E-03    -286.787E-03     574.859E-03    -287.417E-03     22.7143E-03
              69     13.5035E-03     172.705E-03    -3.41159E+06     157.947E+06     142.539E+06    -283.214E+03    -287.390E-03     575.258E-03    -287.868E-03     27.6983E-03    -287.948E-03     575.951E-03    -287.379E-03     22.8276E-03
              70     13.5048E-03     174.391E-03    -4.59321E+06     155.051E+06     140.511E+06    -200.475E+03    -287.470E-03     575.307E-03    -287.837E-03     28.6153E-03    -288.027E-03     575.991E-03    -287.353E-03     23.8374E-03
              71     13.5042E-03     176.079E-03    -2.41472E+06     152.730E+06     143.641E+06    -677.098E+03    -288.041E-03     575.845E-03    -287.804E-03     29.3027E-03    -288.592E-03     576.513E-03    -287.303E-03     24.4441E-03
              72     13.5060E-03     177.766E-03    -7.05502E+06     141.822E+06     136.429E+06    -2.00507E+06    -289.337E-03     577.072E-03    -287.736E-03     29.2625E-03    -289.884E-03     577.702E-03    -287.249E-03     24.4005E-03
              73     13.5041E-03     179.457E-03    -9.67352E+06     133.274E+06     133.534E+06     56.4672E+03    -290.571E-03     578.252E-03    -287.682E-03     29.4679E-03    -291.113E-03     578.847E-03    -287.193E-03     24.6594E-03
              74     13.5074E-03     181.149E-03     1.91476E+06     130.166E+06     143.046E+06    -2.14254E+06    -292.146E-03     579.739E-03    -287.594E-03     31.9177E-03    -292.643E-03     580.291E-03    -287.070E-03     27.1876E-03
              75     13.5072E-03     182.847E-03     866.485E+03     117.065E+06     135.580E+06    -3.78755E+06    -295.716E-03     583.132E-03    -287.416E-03     32.3933E-03    -296.186E-03     583.628E-03    -286.909E-03     27.7362E-03
              76     13.5081E-03     184.551E-03    -6.67639E+06     98.0343E+06     126.545E+06    -4.51770E+06    -299.266E-03     586.561E-03    -287.295E-03     32.9060E-03    -299.732E-03     586.984E-03    -286.794E-03     28.3156E-03
              77     13.5078E-03     186.259E-03      57.978E+03     71.7606E+06     123.172E+06    -6.87517E+06    -302.376E-03     589.573E-03    -287.197E-03     34.3325E-03    -302.761E-03     589.857E-03    -286.686E-03     29.9378E-03
              78     13.5092E-03     187.973E-03    -5.14863E+06     42.4910E+06     115.092E+06    -4.40349E+06    -305.555E-03     592.648E-03    -287.093E-03     34.5381E-03    -305.906E-03     592.798E-03    -286.572E-03     30.3975E-03
              79     13.5086E-03     189.690E-03    -778.781E+03     30.8526E+06     115.485E+06     536.828E+03    -307.729E-03     594.729E-03    -287.000E-03     35.2902E-03    -308.036E-03     594.808E-03    -286.466E-03     31.5037E-03
              80     13.5112E-03     191.411E-03    -4.27369E+06     28.6742E+06     113.386E+06    -2.20186E+06    -307.797E-03     594.704E-03    -286.907E-03     35.5907E-03    -308.096E-03     594.760E-03    -286.375E-03     32.5634E-03
              81     13.5113E-03     193.130E-03     4.54110E+06     27.1031E+06     112.304E+06     781.682E+03    -301.948E-03     588.841E-03    -286.893E-03     33.8582E-03    -302.161E-03     588.840E-03    -286.377E-03     32.4315E-03
              82     13.5162E-03     194.830E-03     6.27994E+06     31.6936E+06     85.9393E+06     873.525E+03    -271.153E-03     558.690E-03    -287.536E-03     13.3029E-03    -271.297E-03     558.728E-03    -287.162E-03     13.6197E-03
              83     12.7762E-03     196.378E-03    -26.1651E+06    -10.5660E+06     56.6121E+06    -6.43206E+06    -245.598E-03     534.909E-03    -289.311E-03    -30.8671E-03    -245.805E-03     534.851E-03    -288.975E-03    -29.9137E-03
              84     12.0521E-03     196.295E-03    -16.0055E+06    -4.53870E+06     85.6617E+06    -1.32473E+06    -247.376E-03     538.879E-03    -291.503E-03    -78.1278E-03    -247.640E-03     538.861E-03    -291.045E-03    -76.7158E-03
              85     11.3439E-03     196.205E-03    -8.66808E+06     14.3563E+06     100.522E+06    -6.91793E+06    -251.115E-03     544.551E-03    -293.437E-03    -112.460E-03    -251.454E-03     544.647E-03    -292.942E-03    -110.694E-03
              86     10.6484E-03     196.113E-03    -1.68887E+06    -8.43795E+06     98.6021E+06    -10.6786E+06    -255.262E-03     550.425E-03    -295.163E-03    -130.373E-03    -255.557E-03     550.408E-03    -294.655E-03    -128.672E-03
              87     9.96106E-03     196.024E-03     250.784E+03    -1.96494E+06     103.247E+06    -9.50413E+06    -259.911E-03     556.662E-03    -296.751E-03    -138.218E-03    -260.219E-03     556.665E-03    -296.232E-03    -136.554E-03
              88     9.27866E-03     195.941E-03     1.11788E+06    -1.82940E+06     105.098E+06    -10.2312E+06    -265.411E-03     563.606E-03    -298.196E-03    -140.974E-03    -265.713E-03     563.597E-03    -297.669E-03    -139.389E-03
              89     8.60092E-03     195.863E-03     2.20904E+06    -1.27173E+06     105.975E+06    -11.5440E+06    -271.118E-03     570.579E-03    -299.460E-03    -140.932E-03    -271.409E-03     570.555E-03    -298.932E-03    -139.462E-03
              90     7.92732E-03     195.788E-03     3.49963E+06    -2.49372E+06     105.076E+06    -12.4655E+06    -276.513E-03     577.046E-03    -300.533E-03    -138.294E-03    -276.779E-03     576.996E-03    -300.009E-03    -136.981E-03
              91     7.25787E-03     195.719E-03     5.04375E+06    -3.13352E+06     103.655E+06    -12.9948E+06    -281.386E-03     582.817E-03    -301.431E-03    -132.940E-03    -281.622E-03     582.738E-03    -300.915E-03    -131.834E-03
              92     6.59138E-03     195.655E-03     6.46831E+06    -2.73893E+06     100.852E+06    -13.5615E+06    -285.677E-03     587.855E-03    -302.178E-03    -125.389E-03    -285.881E-03     587.755E-03    -301.679E-03    -124.509E-03
              93     5.92704E-03     195.596E-03     8.11206E+06    -1.93265E+06     95.9645E+06    -14.7688E+06    -289.495E-03     592.285E-03    -302.790E-03    -116.523E-03    -289.664E-03     592.171E-03    -302.319E-03    -115.883E-03
              94     5.26448E-03     195.544E-03     10.3683E+06    -2.68117E+06     88.9604E+06    -16.0551E+06    -292.913E-03     596.190E-03    -303.276E-03    -106.627E-03    -293.042E-03     596.058E-03    -302.842E-03    -106.213E-03
              95     4.60364E-03     195.498E-03     13.2894E+06    -3.77487E+06     80.8812E+06    -16.8959E+06    -295.858E-03     599.502E-03    -303.644E-03    -95.6501E-03    -295.945E-03     599.357E-03    -303.253E-03    -95.4330E-03
              96     3.94410E-03     195.457E-03     17.1676E+06    -5.01206E+06     72.3729E+06    -17.3317E+06    -298.257E-03     602.168E-03    -303.911E-03    -83.6996E-03    -298.299E-03     602.010E-03    -303.567E-03    -83.6721E-03
              97     3.28544E-03     195.423E-03     21.7794E+06    -6.53805E+06     63.1081E+06    -17.1287E+06    -300.238E-03     604.332E-03    -304.093E-03    -71.0710E-03    -300.233E-03     604.162E-03    -303.800E-03    -71.2215E-03
              98     2.62765E-03     195.395E-03     26.5434E+06    -9.41394E+06     53.8420E+06    -15.4627E+06    -301.865E-03     606.061E-03    -304.197E-03    -57.7910E-03    -301.815E-03     605.878E-03    -303.952E-03    -58.0355E-03
              99     1.97038E-03     195.373E-03     31.5257E+06    -8.39110E+06     45.2464E+06    -13.2903E+06    -302.937E-03     607.169E-03    -304.232E-03    -43.9738E-03    -302.850E-03     606.994E-03    -304.039E-03    -44.2607E-03
             100     1.31329E-03     195.356E-03     36.5577E+06    -11.7078E+06     41.2597E+06    -10.9282E+06    -303.638E-03     607.908E-03    -304.270E-03    -29.8161E-03    -303.516E-03     607.714E-03    -304.099E-03    -30.1106E-03
             101     656.809E-06     195.347E-03     41.1748E+06    -16.6646E+06     40.4233E+06    -6.96187E+06    -304.407E-03     608.423E-03    -304.015E-03    -16.2163E-03    -304.254E-03     608.199E-03    -303.849E-03    -16.5171E-03
             102     381.500E-09     193.601E-03    -9.66048E+06    -36.6209E+06    -8.25891E+06    -5.58092E+06    -296.061E-03     591.094E-03    -295.033E-03    -7.37651E-03    -296.057E-03     590.923E-03    -295.007E-03    -7.40492E-03
             103     303.370E-09     191.917E-03    -105.325E+06    -82.4704E+06    -104.656E+06    -6.41154E+06    -283.066E-03     565.243E-03    -282.176E-03    -2.12718E-03    -283.326E-03     565.132E-03    -282.427E-03    -1.77717E-03
             104     246.034E-09     190.262E-03    -193.479E+06    -129.421E+06    -193.584E+06    -5.83617E+06    -277.939E-03     555.312E-03    -277.372E-03     1.69239E-03    -278.438E-03     555.226E-03    -277.872E-03     2.19331E-03
             105    -26.1200E-09     188.613E-03    -221.662E+06    -165.983E+06    -221.575E+06    -4.31460E+06    -277.504E-03     554.887E-03    -277.384E-03     2.74985E-03    -278.049E-03     554.700E-03    -277.930E-03     3.29086E-03
             106    -37.1743E-09     186.960E-03    -174.548E+06    -186.452E+06    -175.418E+06    -1.56060E+06    -278.591E-03     557.509E-03    -278.918E-03     2.92007E-03    -278.938E-03     557.084E-03    -279.272E-03     3.42392E-03
             107    -360.469E-09     185.302E-03    -135.188E+06    -194.547E+06    -134.291E+06    -644.485E+03    -279.805E-03     559.888E-03    -280.083E-03     2.59012E-03    -280.004E-03     559.306E-03    -280.277E-03     3.02133E-03
             108     380.553E-09     183.642E-03    -126.756E+06    -202.209E+06    -127.550E+06    -1.50117E+06    -280.674E-03     561.141E-03    -280.468E-03     2.44730E-03    -280.829E-03     560.499E-03    -280.628E-03     2.80679E-03
             109    -132.893E-09     181.980E-03    -134.234E+06    -215.607E+06    -133.304E+06    -2.10247E+06    -281.061E-03     561.914E-03    -280.852E-03     2.67898E-03    -281.226E-03     561.223E-03    -281.012E-03     2.97836E-03
             110     171.200E-09     180.318E-03    -142.613E+06    -231.303E+06    -143.393E+06    -2.18156E+06    -281.582E-03     562.991E-03    -281.409E-03     2.70097E-03    -281.752E-03     562.249E-03    -281.584E-03     2.94206E-03
             111     13.2471E-09     178.653E-03    -148.881E+06    -245.118E+06    -149.143E+06    -1.44803E+06    -282.385E-03     564.528E-03    -282.144E-03     2.59258E-03    -282.557E-03     563.735E-03    -282.318E-03     2.82748E-03
             112     121.194E-09     176.986E-03    -153.424E+06    -257.412E+06    -152.987E+06    -1.67149E+06    -283.362E-03     566.590E-03    -283.228E-03     2.56056E-03    -283.534E-03     565.747E-03    -283.397E-03     2.75596E-03
             113    -74.1896E-09     175.314E-03    -156.170E+06    -268.211E+06    -155.699E+06    -1.39579E+06    -284.442E-03     568.908E-03    -284.467E-03     2.49147E-03    -284.608E-03     568.019E-03    -284.630E-03     2.69796E-03
             114    -7.21886E-09     173.638E-03    -155.574E+06    -276.357E+06    -156.233E+06    -969.424E+03    -285.520E-03     570.940E-03    -285.420E-03     2.32252E-03    -285.670E-03     570.010E-03    -285.575E-03     2.60352E-03
             115     212.402E-09     171.960E-03    -154.496E+06    -283.027E+06    -155.254E+06    -865.038E+03    -286.438E-03     572.715E-03    -286.277E-03     2.31880E-03    -286.575E-03     571.748E-03    -286.418E-03     2.60999E-03
             116    -210.286E-09     170.279E-03    -154.672E+06    -289.214E+06    -153.942E+06    -622.540E+03    -287.174E-03     574.372E-03    -287.198E-03     2.09990E-03    -287.305E-03     573.374E-03    -287.324E-03     2.34078E-03
             117     178.300E-09     168.596E-03    -152.681E+06    -292.925E+06    -152.304E+06    -158.238E+03    -287.983E-03     575.912E-03    -287.929E-03     1.97346E-03    -288.101E-03     574.889E-03    -288.044E-03     2.20973E-03
             118    -73.2777E-09     166.910E-03    -149.057E+06    -294.683E+06    -149.486E+06    -551.228E+03    -288.569E-03     577.149E-03    -288.580E-03     1.85823E-03    -288.670E-03     576.108E-03    -288.684E-03     2.11337E-03
             119    -52.5725E-09     165.221E-03    -147.552E+06    -297.311E+06    -147.202E+06    -200.724E+03    -288.888E-03     577.913E-03    -289.025E-03     1.65552E-03    -288.981E-03     576.854E-03    -289.116E-03     1.93750E-03
             120    -5.59881E-09     163.533E-03    -145.416E+06    -297.724E+06    -146.340E+06     425.935E+03    -289.274E-03     578.526E-03    -289.252E-03     1.61464E-03    -289.357E-03     577.461E-03    -289.341E-03     1.91149E-03
             121     82.6949E-09     161.843E-03    -144.065E+06    -296.986E+06    -144.455E+06    -250.299E+03    -289.573E-03     579.146E-03    -289.573E-03     1.70583E-03    -289.653E-03     578.079E-03    -289.656E-03     1.98633E-03
             122    -165.823E-09     160.152E-03    -145.050E+06    -298.094E+06    -144.394E+06     158.109E+03    -289.678E-03     579.465E-03    -289.787E-03     1.65066E-03    -289.762E-03     578.394E-03    -289.866E-03     1.94919E-03
             123     105.343E-09     158.461E-03    -143.731E+06    -297.145E+06    -144.110E+06     243.619E+03    -289.776E-03     579.470E-03    -289.695E-03     1.60222E-03    -289.854E-03     578.402E-03    -289.776E-03     1.89412E-03
             124     58.5469E-09     156.770E-03    -142.679E+06    -296.120E+06    -142.423E+06    -202.117E+03    -289.707E-03     579.396E-03    -289.689E-03     1.71779E-03    -289.784E-03     578.329E-03    -289.765E-03     1.94806E-03
             125    -199.018E-09     155.079E-03    -143.031E+06    -296.934E+06    -142.434E+06     56.7924E+03    -289.498E-03     579.210E-03    -289.713E-03     1.63384E-03    -289.576E-03     578.140E-03    -289.787E-03     1.84942E-03
             126     52.0979E-09     153.389E-03    -140.973E+06    -296.195E+06    -141.421E+06     184.423E+03    -289.502E-03     579.050E-03    -289.548E-03     1.64916E-03    -289.572E-03     577.979E-03    -289.621E-03     1.87475E-03
             127     26.6869E-09     151.699E-03    -139.711E+06    -295.303E+06    -140.147E+06     79.6354E+03    -289.505E-03     578.908E-03    -289.403E-03     1.65904E-03    -289.572E-03     577.838E-03    -289.473E-03     1.86841E-03
             128     25.3230E-09     150.009E-03    -139.849E+06    -294.418E+06    -139.123E+06     52.2695E+03    -289.295E-03     578.579E-03    -289.284E-03     1.72160E-03    -289.366E-03     577.511E-03    -289.350E-03     1.92702E-03
             129    -58.0050E-09     148.319E-03    -138.787E+06    -293.138E+06    -138.979E+06     180.001E+03    -289.028E-03     578.220E-03    -289.192E-03     1.83720E-03    -289.095E-03     577.157E-03    -289.261E-03     2.04699E-03
             130    -135.556E-09     146.631E-03    -138.670E+06    -292.197E+06    -138.719E+06     361.118E+03    -288.970E-03     577.920E-03    -288.950E-03     1.68917E-03    -289.039E-03     576.861E-03    -289.019E-03     1.89503E-03
             131     353.871E-09     144.943E-03    -137.770E+06    -291.365E+06    -137.598E+06    -26.7683E+03    -288.888E-03     577.661E-03    -288.773E-03     1.86285E-03    -288.955E-03     576.603E-03    -288.838E-03     2.06844E-03
             132    -418.136E-09     143.255E-03    -137.827E+06    -290.505E+06    -137.695E+06     160.314E+03    -288.672E-03     577.383E-03    -288.711E-03     1.74837E-03    -288.740E-03     576.330E-03    -288.779E-03     1.96193E-03
             133     427.549E-09     141.568E-03    -137.194E+06    -288.795E+06    -137.381E+06     325.710E+03    -288.665E-03     577.181E-03    -288.516E-03     1.72849E-03    -288.733E-03     576.135E-03    -288.585E-03     1.94029E-03
             134    -240.559E-09     139.881E-03    -136.702E+06    -287.466E+06    -136.637E+06     13.2141E+03    -288.579E-03     577.185E-03    -288.607E-03     1.89019E-03    -288.647E-03     576.144E-03    -288.675E-03     2.09053E-03
             135     13.9018E-09     138.194E-03    -136.331E+06    -286.900E+06    -136.455E+06     134.260E+03    -288.485E-03     577.185E-03    -288.700E-03     1.77969E-03    -288.553E-03     576.146E-03    -288.768E-03     1.98346E-03
             136    -80.5816E-09     136.506E-03    -134.700E+06    -285.519E+06    -134.861E+06     267.447E+03    -288.541E-03     577.099E-03    -288.559E-03     1.88932E-03    -288.604E-03     576.063E-03    -288.624E-03     2.09769E-03
             137     118.267E-09     134.820E-03    -133.333E+06    -283.933E+06    -133.478E+06    -19.8011E+03    -288.481E-03     576.937E-03    -288.456E-03     1.88526E-03    -288.542E-03     575.904E-03    -288.518E-03     2.08337E-03
             138    -126.405E-09     133.133E-03    -132.962E+06    -282.808E+06    -132.807E+06     340.495E+03    -288.475E-03     576.840E-03    -288.365E-03     1.79470E-03    -288.537E-03     575.811E-03    -288.426E-03     1.97734E-03
             139     281.250E-09     131.447E-03    -132.690E+06    -281.299E+06    -132.766E+06     240.896E+03    -288.584E-03     576.988E-03    -288.403E-03     1.80264E-03    -288.647E-03     575.966E-03    -288.467E-03     1.97132E-03
             140    -195.302E-09     129.760E-03    -132.036E+06    -279.683E+06    -132.142E+06     130.413E+03    -288.564E-03     577.130E-03    -288.566E-03     1.77705E-03    -288.627E-03     576.115E-03    -288.630E-03     1.95848E-03
             141     102.463E-09     128.073E-03    -131.054E+06    -278.436E+06    -131.102E+06     299.892E+03    -288.595E-03     577.243E-03    -288.648E-03     1.79986E-03    -288.656E-03     576.231E-03    -288.709E-03     1.98795E-03
             142    -83.7711E-09     126.385E-03    -129.414E+06    -276.522E+06    -129.405E+06     129.392E+03    -288.715E-03     577.454E-03    -288.739E-03     1.83901E-03    -288.774E-03     576.447E-03    -288.797E-03     2.03015E-03
             143     31.0516E-09     124.697E-03    -128.243E+06    -274.901E+06    -128.186E+06     399.410E+03    -288.954E-03     577.755E-03    -288.801E-03     1.78516E-03    -289.010E-03     576.753E-03    -288.858E-03     1.98086E-03
             144     225.033E-09     123.009E-03    -127.772E+06    -273.203E+06    -127.644E+06     347.553E+03    -289.199E-03     578.018E-03    -288.819E-03     1.82940E-03    -289.256E-03     577.022E-03    -288.876E-03     2.01482E-03
             145     29.3314E-09     121.320E-03    -126.406E+06    -271.163E+06    -126.945E+06     38.3041E+03    -289.146E-03     578.100E-03    -288.954E-03     1.87828E-03    -289.201E-03     577.112E-03    -289.012E-03     2.05483E-03
             146    -32.1096E-09     119.631E-03    -126.840E+06    -269.809E+06    -126.400E+06     187.472E+03    -289.002E-03     578.197E-03    -289.195E-03     1.88517E-03    -289.061E-03     577.215E-03    -289.252E-03     2.05300E-03
             147    -224.551E-09     117.942E-03    -126.793E+06    -267.982E+06    -126.828E+06     373.151E+03    -289.171E-03     578.460E-03    -289.289E-03     1.78374E-03    -289.232E-03     577.488E-03    -289.351E-03     1.94579E-03
             148     319.335E-09     116.252E-03    -125.803E+06    -265.888E+06    -125.951E+06     298.988E+03    -289.395E-03     578.778E-03    -289.384E-03     1.96963E-03    -289.455E-03     577.814E-03    -289.445E-03     2.15036E-03
             149    -403.895E-09     114.562E-03    -124.875E+06    -264.533E+06    -124.576E+06     71.1904E+03    -289.373E-03     578.987E-03    -289.614E-03     1.96248E-03    -289.433E-03     578.026E-03    -289.673E-03     2.14479E-03
             150     162.207E-09     112.872E-03    -123.353E+06    -263.319E+06    -123.798E+06     125.841E+03    -289.638E-03     579.104E-03    -289.465E-03     1.72546E-03    -289.693E-03     578.145E-03    -289.524E-03     1.87697E-03
             151     305.862E-09     111.181E-03    -123.009E+06    -261.695E+06    -122.862E+06     382.775E+03    -289.803E-03     579.254E-03    -289.451E-03     1.92131E-03    -289.860E-03     578.302E-03    -289.508E-03     2.07217E-03
             152    -302.208E-09     109.490E-03    -122.485E+06    -260.119E+06    -122.340E+06     209.227E+03    -289.565E-03     579.378E-03    -289.813E-03     1.82408E-03    -289.623E-03     578.433E-03    -289.870E-03     1.98082E-03
             153    -37.1672E-09     107.799E-03    -122.312E+06    -258.740E+06    -122.475E+06     105.790E+03    -289.636E-03     579.382E-03    -289.746E-03     1.66200E-03    -289.695E-03     578.444E-03    -289.806E-03     1.83535E-03
             154     223.822E-09     106.108E-03    -121.823E+06    -256.925E+06    -122.073E+06     271.538E+03    -289.786E-03     579.354E-03    -289.568E-03     1.83341E-03    -289.845E-03     578.423E-03    -289.630E-03     2.01859E-03
             155    -122.626E-09     104.417E-03    -121.561E+06    -255.400E+06    -121.234E+06     156.061E+03    -289.688E-03     579.345E-03    -289.657E-03     1.85057E-03    -289.749E-03     578.420E-03    -289.717E-03     2.03517E-03
             156     62.5666E-09     102.726E-03    -121.296E+06    -254.435E+06    -121.458E+06     125.078E+03    -289.698E-03     579.382E-03    -289.684E-03     1.81027E-03    -289.759E-03     578.462E-03    -289.747E-03     1.99202E-03
             157     11.6572E-09     101.035E-03    -121.192E+06    -253.108E+06    -121.023E+06     313.090E+03    -289.654E-03     579.367E-03    -289.714E-03     1.80271E-03    -289.717E-03     578.453E-03    -289.776E-03     1.97597E-03
             158    -168.127E-09     99.3442E-03    -120.814E+06    -251.765E+06    -121.013E+06     80.1469E+03    -289.437E-03     579.235E-03    -289.799E-03     1.77628E-03    -289.500E-03     578.327E-03    -289.864E-03     1.94892E-03
             159     346.885E-09     95.9626E-03    -120.989E+06    -250.522E+06    -120.733E+06     98.2639E+03    -289.842E-03     579.330E-03    -289.489E-03     1.72789E-03    -289.908E-03     578.428E-03    -289.554E-03     1.89046E-03
             160    -50.6915E-09     94.2715E-03    -120.725E+06    -249.513E+06    -120.655E+06      132.78E+03    -289.646E-03     579.287E-03    -289.641E-03     1.83368E-03    -289.713E-03     578.389E-03    -289.707E-03     2.00816E-03
             161    -239.773E-09     92.5807E-03    -120.189E+06    -248.146E+06    -120.308E+06     257.987E+03    -289.562E-03     579.299E-03    -289.737E-03     1.77437E-03    -289.629E-03     578.407E-03    -289.804E-03     1.94323E-03
             162     291.871E-09     90.8894E-03    -120.426E+06    -247.499E+06    -120.319E+06     64.8001E+03    -289.803E-03     579.398E-03    -289.595E-03     1.88871E-03    -289.872E-03     578.510E-03    -289.663E-03     2.06334E-03
             163    -66.0525E-09     89.1982E-03    -119.655E+06    -246.763E+06    -119.836E+06    -50.1732E+03    -289.706E-03     579.358E-03    -289.652E-03     1.90856E-03    -289.773E-03     578.472E-03    -289.720E-03     2.08038E-03
             164    -92.0423E-09     87.5077E-03    -119.612E+06    -246.497E+06    -119.344E+06     30.6619E+03    -289.661E-03     579.356E-03    -289.696E-03     1.71024E-03    -289.728E-03     578.470E-03    -289.762E-03     1.86046E-03
             165     202.853E-09     85.8163E-03    -120.123E+06    -246.913E+06    -120.035E+06      57.902E+03    -289.829E-03     579.449E-03    -289.620E-03     1.74559E-03    -289.897E-03     578.562E-03    -289.688E-03     1.91420E-03
             166    -34.9017E-09     84.1248E-03    -120.202E+06    -245.988E+06    -120.179E+06     157.974E+03    -289.675E-03     579.404E-03    -289.729E-03     1.85628E-03    -289.745E-03     578.522E-03    -289.798E-03     2.04791E-03
             167    -207.650E-09     82.4341E-03    -120.468E+06    -244.957E+06    -120.611E+06     61.8324E+03    -289.643E-03     579.330E-03    -289.687E-03     1.66675E-03    -289.715E-03     578.455E-03    -289.760E-03     1.82603E-03
             168     387.694E-09     80.7431E-03    -121.128E+06    -244.741E+06    -121.104E+06    -20.4290E+03    -289.839E-03     579.320E-03    -289.481E-03     1.71413E-03    -289.914E-03     578.448E-03    -289.556E-03     1.85303E-03
             169    -87.0016E-09     79.0518E-03    -121.400E+06    -244.859E+06    -121.067E+06     54.4060E+03    -289.804E-03     579.349E-03    -289.545E-03     1.80641E-03    -289.881E-03     578.476E-03    -289.619E-03     1.95497E-03
             170     136.406E-09     77.3611E-03    -120.772E+06    -244.969E+06    -121.042E+06    -174.927E+03    -289.813E-03     579.385E-03    -289.572E-03     1.63938E-03    -289.887E-03     578.511E-03    -289.647E-03     1.79617E-03
             171     135.181E-09     75.6696E-03    -121.016E+06    -245.216E+06    -120.925E+06     95.4410E+03    -289.748E-03     579.387E-03    -289.640E-03     1.79540E-03    -289.822E-03     578.512E-03    -289.713E-03     1.97899E-03
             172    -262.887E-09     73.9786E-03    -120.105E+06    -244.327E+06    -120.433E+06     82.6289E+03    -289.650E-03     579.440E-03    -289.789E-03     1.74774E-03    -289.722E-03     578.567E-03    -289.863E-03     1.93871E-03
             173     197.747E-09     72.2873E-03    -120.447E+06    -244.358E+06    -120.580E+06    -114.844E+03    -289.895E-03     579.554E-03    -289.660E-03     1.68633E-03    -289.968E-03     578.682E-03    -289.734E-03     1.85467E-03
             174     180.341E-09     70.5956E-03    -121.294E+06    -244.909E+06    -120.932E+06     103.356E+03    -289.957E-03     579.556E-03    -289.598E-03     1.80253E-03    -290.033E-03     578.682E-03    -289.672E-03     1.97986E-03
             175    -74.5907E-09     68.9043E-03    -120.280E+06    -244.121E+06    -120.114E+06     66.7682E+03    -289.671E-03     579.441E-03    -289.770E-03     1.80596E-03    -289.744E-03     578.569E-03    -289.843E-03     1.98647E-03
             176    -167.025E-09     67.2134E-03    -119.877E+06    -244.020E+06    -120.108E+06     19.0624E+03    -289.751E-03     579.542E-03    -289.791E-03     1.76389E-03    -289.823E-03     578.670E-03    -289.864E-03     1.90656E-03
             177     351.237E-09     65.5214E-03    -120.442E+06    -243.837E+06    -120.176E+06     103.560E+03    -290.090E-03     579.736E-03    -289.646E-03     1.75955E-03    -290.164E-03     578.866E-03    -289.719E-03     1.90987E-03
             178     61.7010E-09     63.8298E-03    -120.299E+06    -243.564E+06    -120.118E+06     88.2572E+03    -290.101E-03     579.739E-03    -289.638E-03     1.75432E-03    -290.175E-03     578.869E-03    -289.711E-03     1.91955E-03
             179     147.507E-09     62.1382E-03    -119.840E+06    -243.660E+06    -120.212E+06    -216.355E+03    -289.911E-03     579.685E-03    -289.774E-03     1.79502E-03    -289.983E-03     578.815E-03    -289.848E-03     1.94967E-03
             180    -177.506E-09     60.4462E-03    -119.846E+06    -243.730E+06    -119.857E+06    -24.6590E+03    -289.672E-03     579.640E-03    -289.968E-03     1.80579E-03    -289.744E-03     578.769E-03    -290.040E-03     1.95949E-03
             181    -194.085E-09     58.7554E-03    -119.720E+06    -243.508E+06    -119.860E+06    -44.2048E+03    -289.751E-03     579.796E-03    -290.045E-03     1.76479E-03    -289.823E-03     578.926E-03    -290.117E-03     1.91094E-03
             182     166.279E-09     57.0623E-03    -120.248E+06    -243.363E+06    -119.978E+06     178.115E+03    -290.115E-03     579.994E-03    -289.879E-03     1.80762E-03    -290.189E-03     579.125E-03    -289.952E-03     1.99121E-03
             183     178.534E-09     55.3704E-03    -119.618E+06    -242.731E+06    -119.581E+06     34.5177E+03    -290.179E-03     580.047E-03    -289.868E-03     2.00985E-03    -290.251E-03     579.180E-03    -289.941E-03     2.19364E-03
             184    -108.772E-09     53.6782E-03    -119.580E+06    -242.500E+06    -119.646E+06    -143.468E+03    -290.149E-03     580.178E-03    -290.029E-03     1.87650E-03    -290.222E-03     579.312E-03    -290.102E-03     2.02731E-03
             185     197.933E-09     51.9857E-03    -119.904E+06    -242.438E+06    -119.753E+06     147.812E+03    -290.322E-03     580.358E-03    -290.036E-03     1.77313E-03    -290.396E-03     579.493E-03    -290.110E-03     1.90379E-03
             186     96.2157E-09     50.2928E-03    -119.423E+06    -242.153E+06    -119.542E+06    -75.0418E+03    -290.417E-03     580.639E-03    -290.223E-03     2.01014E-03    -290.489E-03     579.775E-03    -290.296E-03     2.13803E-03
             187    -133.010E-09     48.5986E-03    -119.749E+06    -242.005E+06    -119.877E+06     146.511E+03    -290.334E-03     580.861E-03    -290.527E-03     1.96571E-03    -290.408E-03     579.998E-03    -290.602E-03     2.12393E-03
             188    -93.5952E-09     46.9054E-03    -119.900E+06    -241.414E+06    -120.047E+06     145.059E+03    -290.487E-03     581.078E-03    -290.591E-03     1.95404E-03    -290.563E-03     580.219E-03    -290.667E-03     2.09255E-03
             189     176.824E-09     45.2107E-03    -119.717E+06    -241.175E+06    -119.767E+06    -71.7847E+03    -290.788E-03     581.387E-03    -290.598E-03     1.98984E-03    -290.863E-03     580.528E-03    -290.674E-03     2.12163E-03
             190    -7.95249E-09     43.5161E-03    -120.073E+06    -241.869E+06    -119.829E+06    -203.664E+03    -290.939E-03     581.657E-03    -290.718E-03     2.02667E-03    -291.015E-03     580.796E-03    -290.793E-03     2.15606E-03
             191     135.375E-09     41.8210E-03    -120.031E+06    -242.205E+06    -119.894E+06     57.0180E+03    -291.166E-03     582.082E-03    -290.916E-03     2.07399E-03    -291.241E-03     581.219E-03    -290.990E-03     2.19530E-03
             192     71.3417E-09     40.1244E-03    -119.498E+06    -241.134E+06    -119.691E+06     245.640E+03    -291.322E-03     582.577E-03    -291.255E-03     2.20969E-03    -291.396E-03     581.718E-03    -291.330E-03     2.33763E-03
             193    -192.749E-09     38.4276E-03    -119.263E+06    -240.560E+06    -119.279E+06    -131.230E+03    -291.589E-03     583.155E-03    -291.566E-03     2.22266E-03    -291.663E-03     582.298E-03    -291.641E-03     2.33527E-03
             194     340.312E-09     36.7293E-03    -119.552E+06    -241.201E+06    -119.949E+06    -40.7771E+03    -292.075E-03     583.853E-03    -291.778E-03     2.28979E-03    -292.149E-03     582.994E-03    -291.854E-03     2.41505E-03
             195    -95.3937E-09     35.0299E-03    -120.088E+06    -241.039E+06    -119.782E+06     213.156E+03    -292.354E-03     584.704E-03    -292.350E-03     2.54335E-03    -292.431E-03     583.847E-03    -292.425E-03     2.66223E-03
             196    -146.108E-09     33.3290E-03    -119.886E+06    -240.989E+06    -120.092E+06    -110.890E+03    -292.893E-03     585.890E-03    -292.997E-03     2.53332E-03    -292.969E-03     585.033E-03    -293.074E-03     2.61280E-03
             197     242.629E-09     31.6253E-03    -120.029E+06    -240.904E+06    -120.280E+06     52.9470E+03    -293.621E-03     587.198E-03    -293.576E-03     2.69204E-03    -293.698E-03     586.341E-03    -293.654E-03     2.77386E-03
             198    -286.106E-09     29.9200E-03    -118.970E+06     -240.13E+06    -119.117E+06    -17.7593E+03    -294.207E-03     588.648E-03    -294.441E-03     2.84329E-03    -294.281E-03     587.793E-03    -294.516E-03     2.88500E-03
             199     9.71692E-09     28.2117E-03    -118.415E+06    -240.467E+06    -118.762E+06    -174.853E+03    -294.958E-03     590.137E-03    -295.179E-03     2.77279E-03    -295.029E-03     589.279E-03    -295.252E-03     2.80040E-03
             200    -37.3364E-09     26.5004E-03    -118.558E+06    -240.581E+06    -118.419E+06     331.660E+03    -295.627E-03     591.198E-03    -295.571E-03     2.78027E-03    -295.699E-03     590.338E-03    -295.642E-03     2.85665E-03
             201     135.923E-09     24.7889E-03    -118.142E+06    -239.753E+06    -118.101E+06     74.7512E+03    -295.863E-03     591.735E-03    -295.872E-03     2.81417E-03    -295.934E-03     590.879E-03    -295.944E-03     2.87829E-03
             202    -252.248E-09     23.0759E-03    -118.203E+06    -239.483E+06    -118.195E+06    -236.719E+03    -295.659E-03     591.532E-03    -295.873E-03     2.62754E-03    -295.731E-03     590.677E-03    -295.946E-03     2.67878E-03
             203     76.4393E-09     21.3649E-03    -118.237E+06    -239.735E+06    -118.042E+06    -25.1231E+03    -295.070E-03     590.218E-03    -295.148E-03     2.31443E-03    -295.142E-03     589.362E-03    -295.219E-03     2.36683E-03
             204    -7.26756E-09     19.6566E-03    -117.437E+06    -239.682E+06    -117.213E+06    -46.3467E+03    -293.801E-03     587.583E-03    -293.782E-03     2.06072E-03    -293.871E-03     586.725E-03    -293.850E-03     2.09672E-03
             205    -35.6592E-09     17.9546E-03    -117.387E+06    -239.820E+06    -116.777E+06    -23.3947E+03    -291.693E-03     583.490E-03    -291.797E-03     1.67036E-03    -291.763E-03     582.630E-03    -291.863E-03     1.69879E-03
             206    -56.2309E-09     16.2605E-03    -115.156E+06    -239.307E+06    -115.937E+06     297.594E+03    -288.583E-03     577.445E-03    -288.862E-03     994.960E-06    -288.644E-03     576.583E-03    -288.928E-03     989.798E-06
             207    -232.220E-09     14.5791E-03    -114.547E+06    -237.848E+06    -114.842E+06     168.199E+03    -284.373E-03     569.025E-03    -284.652E-03     194.467E-06    -284.436E-03     568.168E-03    -284.715E-03     121.860E-06
             208     149.517E-09     12.9135E-03    -115.387E+06    -236.533E+06    -115.267E+06     269.506E+03    -279.104E-03     558.348E-03    -279.244E-03    -535.974E-06    -279.172E-03     557.499E-03    -279.310E-03    -684.468E-06
             209    -245.715E-09     11.2678E-03    -115.283E+06    -234.381E+06    -115.901E+06     627.706E+03    -273.054E-03     546.251E-03    -273.197E-03    -1.01692E-03    -273.124E-03     545.413E-03    -273.269E-03    -1.27052E-03
             210     152.376E-09     9.64257E-03    -117.807E+06    -232.758E+06    -117.021E+06    -175.111E+03    -267.527E-03     535.182E-03    -267.656E-03    -684.351E-06    -267.609E-03     534.358E-03    -267.732E-03    -1.01884E-03
             211    -222.009E-09     8.03282E-03    -119.382E+06    -234.794E+06    -118.559E+06    -459.642E+03    -263.923E-03     528.027E-03    -264.104E-03     291.140E-06    -264.008E-03     527.198E-03    -264.184E-03    -20.9069E-06
             212     50.2903E-09     6.43047E-03    -113.973E+06    -239.340E+06    -113.341E+06    -669.588E+03    -262.720E-03     525.749E-03    -263.029E-03     1.13828E-03    -262.779E-03     524.882E-03    -263.083E-03     889.328E-06
             213    -300.383E-09     4.82793E-03    -96.9654E+06    -243.458E+06    -97.2313E+06    -518.409E+03    -263.236E-03     526.900E-03    -263.664E-03     1.39668E-03    -263.227E-03     525.965E-03    -263.656E-03     1.21417E-03
             214    -43.1195E-09     3.22185E-03    -80.0308E+06    -245.496E+06    -80.2924E+06     14.5304E+03    -264.333E-03     529.198E-03    -264.865E-03     1.14726E-03    -264.260E-03     528.203E-03    -264.794E-03     1.03093E-03
             215    -351.723E-09     1.61206E-03    -70.2896E+06    -244.939E+06    -70.0264E+06     71.8068E+03    -265.233E-03     531.070E-03    -265.838E-03     635.694E-06    -265.127E-03     530.049E-03    -265.731E-03     577.193E-06
             216     689.759E-06    -124.900E-18    -66.0619E+06    -241.752E+06    -65.8821E+06     200.026E+03    -265.843E-03     531.926E-03    -266.083E-03     556.263E-06    -265.727E-03     530.909E-03    -265.966E-03     509.304E-06
             217     1.37955E-03    -124.900E-18    -65.9740E+06    -235.228E+06    -65.1655E+06     201.512E+03    -266.341E-03     532.376E-03    -266.035E-03     1.02851E-03    -266.235E-03     531.390E-03    -265.924E-03     939.543E-06
             218     2.06881E-03    -124.900E-18    -65.6353E+06    -224.820E+06    -64.1352E+06     206.703E+03    -266.912E-03     533.131E-03    -266.219E-03     1.53883E-03    -266.821E-03     532.196E-03    -266.119E-03     1.40317E-03
             219     2.75774E-03    -124.900E-18    -65.1238E+06    -210.290E+06    -62.7684E+06    -72.4317E+03    -267.733E-03     534.212E-03    -266.480E-03     2.07669E-03    -267.663E-03     533.347E-03    -266.394E-03     1.88787E-03
             220     3.44586E-03    -124.900E-18    -64.1525E+06    -191.777E+06    -61.1619E+06    -662.209E+03    -268.819E-03     535.639E-03    -266.819E-03     2.63533E-03    -268.774E-03     534.862E-03    -266.754E-03     2.38435E-03
             221     4.13324E-03    -124.900E-18    -62.6426E+06    -169.372E+06    -59.3898E+06    -1.46785E+06    -270.193E-03     537.436E-03    -267.242E-03     3.22235E-03    -270.176E-03     536.767E-03    -267.203E-03     2.90122E-03
             222     4.81944E-03    -124.900E-18    -60.2531E+06    -143.064E+06    -57.4251E+06    -2.97636E+06    -271.880E-03     539.634E-03    -267.753E-03     3.85170E-03    -271.892E-03     539.090E-03    -267.746E-03     3.44301E-03
             223     5.50446E-03    -124.900E-18    -56.6489E+06    -112.169E+06    -55.1543E+06    -4.74415E+06    -273.916E-03     542.272E-03    -268.357E-03     4.52005E-03    -273.958E-03     541.876E-03    -268.388E-03     4.01093E-03
             224     6.18783E-03    -124.900E-18    -51.1994E+06    -75.9703E+06    -52.2207E+06    -8.04331E+06    -276.347E-03     545.408E-03    -269.061E-03     5.23464E-03    -276.420E-03     545.181E-03    -269.138E-03     4.58851E-03
             225     6.86951E-03    -124.900E-18     -44.313E+06    -33.7727E+06    -46.6581E+06    -8.86448E+06    -279.248E-03     549.133E-03    -269.885E-03     5.97204E-03    -279.356E-03     549.100E-03    -270.005E-03     5.20970E-03
             226     7.54889E-03    -124.900E-18    -38.2842E+06    -4.54041E+06    -34.2674E+06    -5.40403E+06    -282.756E-03     553.653E-03    -270.898E-03     6.84677E-03    -282.896E-03     553.741E-03    -271.007E-03     6.00741E-03
             227     8.22555E-03    -124.900E-18    -33.5539E+06     9.86257E+06    -19.6289E+06    -4.31185E+06    -286.974E-03     559.072E-03    -272.099E-03     7.93952E-03    -287.134E-03     559.206E-03    -272.162E-03     6.95675E-03
             228     8.89924E-03    -124.900E-18    -29.1180E+06     25.8039E+06    -130.224E+03    -2.91739E+06    -292.041E-03     565.539E-03    -273.498E-03     8.86839E-03    -292.232E-03     565.720E-03    -273.494E-03     7.70119E-03
             229     9.56957E-03    -124.900E-18    -25.6893E+06     39.3715E+06     29.8994E+06     1.77728E+06    -298.324E-03     573.490E-03    -275.167E-03     9.55451E-03    -298.564E-03     573.694E-03    -275.037E-03     8.19399E-03
             230     10.2350E-03    -124.900E-18    -22.8250E+06     47.1409E+06     58.1117E+06     3.43865E+06    -306.231E-03     583.326E-03    -277.095E-03     10.9624E-03    -306.514E-03     583.529E-03    -276.840E-03     9.34999E-03
             231     10.8938E-03    -124.900E-18    -19.4732E+06     52.2579E+06     77.3815E+06     2.78074E+06    -316.165E-03     595.466E-03    -279.301E-03     13.5537E-03    -316.473E-03     595.668E-03    -278.962E-03     11.6404E-03
             232     11.5457E-03    -124.900E-18    -16.3823E+06     57.3330E+06     87.9262E+06     2.50812E+06    -329.050E-03     610.913E-03    -281.863E-03     15.4966E-03    -329.373E-03     611.131E-03    -281.483E-03     13.0896E-03
             233     12.1904E-03    -124.900E-18    -10.6381E+06     63.2835E+06     93.4175E+06     1.49532E+06    -349.820E-03     634.822E-03    -285.001E-03     23.7271E-03    -350.177E-03     635.103E-03    -284.610E-03     19.9550E-03
             234     12.8108E-03    -124.900E-18     43.4372E+03     74.3708E+06     100.865E+06    -609.957E+03    -380.564E-03     669.631E-03    -289.067E-03     52.4017E-03    -381.087E-03     670.132E-03    -288.671E-03     45.4056E-03
             235     13.4512E-03     1.92847E-03    -2.01664E+06     76.6784E+06     99.5047E+06    -1.67955E+06    -373.254E-03     663.704E-03    -290.451E-03     66.5481E-03    -373.869E-03     664.294E-03    -290.062E-03     58.5495E-03
             236     13.4708E-03     3.72245E-03    -5.78554E+06     73.6606E+06     94.0088E+06    -115.999E+03    -338.580E-03     627.855E-03    -289.275E-03     50.6506E-03    -339.086E-03     628.327E-03    -288.903E-03     44.1330E-03
             237     13.4766E-03     5.47385E-03    -2.10400E+06     75.3446E+06     95.3679E+06     1.17993E+06    -322.693E-03     611.738E-03    -289.045E-03     38.5599E-03    -323.136E-03     612.164E-03    -288.674E-03     32.2158E-03
             238     13.4775E-03     7.21067E-03    -2.81304E+06     74.1400E+06     94.9994E+06     402.751E+03    -312.463E-03     601.593E-03    -289.130E-03     34.5019E-03    -312.894E-03     602.002E-03    -288.758E-03     28.1536E-03
             239     13.4787E-03     8.93219E-03    -2.64220E+06     73.1531E+06     95.8418E+06    -729.242E+03    -304.688E-03     593.972E-03    -289.284E-03     32.9193E-03    -305.105E-03     594.361E-03    -288.907E-03     26.8629E-03
             240     13.4778E-03     10.6434E-03    -2.02811E+06     72.2245E+06     96.2918E+06    -172.319E+03    -297.838E-03     587.254E-03    -289.417E-03     32.5188E-03    -298.242E-03     587.629E-03    -289.037E-03     26.7707E-03
             241     13.4807E-03     12.3409E-03    -1.46685E+06     71.3130E+06     95.6168E+06    -1.49841E+06    -292.660E-03     582.167E-03    -289.506E-03     31.4731E-03    -293.049E-03     582.526E-03    -289.130E-03     25.9573E-03
             242     13.4778E-03     14.0366E-03    -3.65481E+06     69.0858E+06     94.4039E+06    -86.0252E+03    -289.359E-03     578.997E-03    -289.638E-03     29.1775E-03    -289.736E-03     579.333E-03    -289.261E-03     24.0505E-03
             243     13.4782E-03     15.7241E-03    -2.45118E+06     69.1619E+06     93.4773E+06     1.74660E+06    -285.223E-03     574.971E-03    -289.748E-03     29.6079E-03    -285.588E-03     575.302E-03    -289.378E-03     24.7378E-03
             244     13.4798E-03     17.4025E-03    -1.82328E+06     69.3832E+06     93.7760E+06    -1.49408E+06    -283.030E-03     572.808E-03    -289.778E-03     29.2319E-03    -283.392E-03     573.138E-03    -289.407E-03     24.2862E-03
             245     13.4776E-03     19.0866E-03    -3.26111E+06     68.9118E+06     94.2652E+06     113.378E+03    -282.578E-03     572.409E-03    -289.831E-03     27.2269E-03    -282.936E-03     572.727E-03    -289.455E-03     22.4903E-03
             246     13.4785E-03     20.7639E-03    -2.67434E+06     69.7994E+06     94.2081E+06     1.04504E+06    -281.086E-03     570.965E-03    -289.879E-03     27.6446E-03    -281.440E-03     571.285E-03    -289.505E-03     23.0399E-03
             247     13.4783E-03     22.4407E-03    -2.97628E+06     69.5346E+06     93.6907E+06    -468.925E+03    -281.051E-03     570.920E-03    -289.869E-03     27.3784E-03    -281.406E-03     571.240E-03    -289.497E-03     22.7099E-03
             248     13.4782E-03     24.1210E-03    -973.709E+03     70.3061E+06     94.2585E+06     146.118E+03    -281.349E-03     571.197E-03    -289.847E-03     26.9367E-03    -281.693E-03     571.513E-03    -289.477E-03     22.3399E-03
             249     13.4793E-03     25.7974E-03    -1.46647E+06     70.6192E+06     94.2130E+06    -1.19301E+06    -282.137E-03     571.950E-03    -289.813E-03     27.0170E-03    -282.483E-03     572.268E-03    -289.443E-03     22.4055E-03
             250     13.4780E-03     27.4813E-03    -3.57509E+06     70.5719E+06     95.0210E+06     490.086E+03    -283.786E-03     573.591E-03    -289.805E-03     25.9853E-03    -284.138E-03     573.905E-03    -289.427E-03     21.5096E-03
             251     13.4781E-03     29.1645E-03    -2.99516E+06     70.4314E+06     94.2842E+06     1.09025E+06    -283.859E-03     573.658E-03    -289.798E-03     26.3217E-03    -284.207E-03     573.971E-03    -289.425E-03     21.8788E-03
             252     13.4792E-03     30.8453E-03    -2.30532E+06     71.2392E+06     95.1911E+06    -185.155E+03    -284.510E-03     574.269E-03    -289.759E-03     26.6422E-03    -284.860E-03     574.588E-03    -289.383E-03     22.0557E-03
             253     13.4782E-03     32.5334E-03    -1.71265E+06     72.7184E+06     96.6440E+06     537.480E+03    -285.528E-03     575.258E-03    -289.729E-03     25.8714E-03    -285.877E-03     575.578E-03    -289.349E-03     21.3011E-03
             254     13.4794E-03     34.2169E-03    -2.14266E+06     72.7066E+06     95.6036E+06    -1.00004E+06    -285.927E-03     575.631E-03    -289.704E-03     26.1887E-03    -286.278E-03     575.955E-03    -289.328E-03     21.5836E-03
             255     13.4785E-03     35.9058E-03    -2.98437E+06       72.19E+06     95.9950E+06    -351.015E+03    -286.917E-03     576.616E-03    -289.699E-03     25.5133E-03    -287.268E-03     576.935E-03    -289.320E-03     20.9645E-03
             256     13.4783E-03     37.5946E-03    -3.06069E+06     72.0321E+06     95.5568E+06     1.61393E+06    -286.961E-03     576.670E-03    -289.709E-03     25.6816E-03    -287.310E-03     576.987E-03    -289.332E-03     21.2597E-03
             257     13.4790E-03     39.2811E-03    -2.31042E+06     72.7056E+06     95.5825E+06     205.441E+03    -286.936E-03     576.631E-03    -289.695E-03     26.0926E-03    -287.286E-03     576.954E-03    -289.319E-03     21.5500E-03
             258     13.4785E-03     40.9709E-03    -2.20470E+06     73.0177E+06     95.9302E+06    -1.33343E+06    -287.522E-03     577.202E-03    -289.680E-03     25.7117E-03    -287.873E-03     577.526E-03    -289.303E-03     21.0720E-03
             259     13.4788E-03     42.6594E-03    -2.44402E+06     73.1298E+06     96.7695E+06     152.270E+03    -287.794E-03     577.476E-03    -289.682E-03     25.7320E-03    -288.146E-03     577.798E-03    -289.300E-03     21.1651E-03
             260     13.4784E-03     44.3502E-03    -2.81658E+06     72.4467E+06     96.1232E+06     663.052E+03    -287.868E-03     577.546E-03    -289.678E-03     25.7188E-03    -288.220E-03     577.866E-03    -289.298E-03     21.1751E-03
             261     13.4790E-03     46.0386E-03    -2.80413E+06     72.3965E+06     95.3588E+06    -113.302E+03    -287.972E-03     577.634E-03    -289.662E-03     26.0341E-03    -288.323E-03     577.956E-03    -289.286E-03     21.4526E-03
             262     13.4788E-03     47.7298E-03    -2.16121E+06     73.4686E+06     96.9669E+06     170.769E+03    -288.245E-03     577.906E-03    -289.661E-03     25.5743E-03    -288.597E-03     578.230E-03    -289.280E-03     20.9539E-03
             263     13.4785E-03     49.4194E-03    -1.89670E+06     73.7499E+06     96.1589E+06     46.9988E+03    -288.137E-03     577.785E-03    -289.649E-03     26.0790E-03    -288.487E-03     578.112E-03    -289.272E-03     21.4901E-03
             264     13.4797E-03     51.1097E-03    -2.03971E+06     74.0123E+06     96.1148E+06    -990.070E+03    -288.368E-03     577.997E-03    -289.628E-03     26.0267E-03    -288.719E-03     578.324E-03    -289.252E-03     21.4491E-03
             265     13.4783E-03     52.8011E-03    -2.50892E+06     73.8817E+06     97.1582E+06    -814.910E+03    -288.816E-03     578.454E-03    -289.639E-03     25.5331E-03    -289.169E-03     578.779E-03    -289.256E-03     20.9489E-03
             266     13.4792E-03     54.4918E-03    -2.31438E+06     74.1050E+06     97.3023E+06     723.559E+03    -288.616E-03     578.267E-03    -289.651E-03     25.8286E-03    -288.969E-03     578.592E-03    -289.268E-03     21.3075E-03
             267     13.4785E-03     56.1832E-03    -3.25597E+06     72.8258E+06     95.8554E+06     1.19292E+06    -288.501E-03     578.153E-03    -289.653E-03     25.7425E-03    -288.852E-03     578.474E-03    -289.274E-03     21.3024E-03
             268     13.4788E-03     57.8735E-03    -3.23251E+06     72.5381E+06     95.1725E+06     55.2807E+03    -288.482E-03     578.133E-03    -289.651E-03     26.0197E-03    -288.834E-03     578.455E-03    -289.276E-03     21.5013E-03
             269     13.4789E-03     59.5638E-03    -2.38790E+06     74.2303E+06     97.3663E+06    -298.524E+03    -288.671E-03     578.323E-03    -289.652E-03     25.9258E-03    -289.027E-03     578.651E-03    -289.269E-03     21.3057E-03
             270     13.4785E-03     61.2558E-03    -1.75583E+06     74.3456E+06     97.5492E+06     504.200E+03    -288.642E-03     578.289E-03    -289.647E-03     25.9225E-03    -288.995E-03     578.617E-03    -289.265E-03     21.3237E-03
             271     13.4794E-03     62.9454E-03    -2.90092E+06     73.3674E+06     96.1018E+06    -715.321E+03    -288.681E-03     578.317E-03    -289.636E-03     25.9658E-03    -289.036E-03     578.644E-03    -289.258E-03     21.3316E-03
             272     13.4782E-03     64.6380E-03     -3.2364E+06     74.2104E+06     97.1628E+06     483.150E+03    -289.001E-03     578.650E-03    -289.649E-03     25.6135E-03    -289.358E-03     578.977E-03    -289.266E-03     21.0511E-03
             273     13.4789E-03     66.3292E-03    -2.15185E+06     75.1135E+06     97.5293E+06     362.631E+03    -288.482E-03     578.135E-03    -289.653E-03     26.0890E-03    -288.839E-03     578.468E-03    -289.271E-03     21.4771E-03
             274     13.4792E-03     68.0179E-03    -1.64793E+06     75.1439E+06     97.3447E+06    -826.507E+03    -288.383E-03     578.000E-03    -289.618E-03     26.5998E-03    -288.739E-03     578.335E-03    -289.238E-03     21.9241E-03
             275     13.4797E-03     69.7109E-03    -1.42683E+06     75.4382E+06     98.0845E+06    -1.10122E+06    -288.878E-03     578.485E-03    -289.607E-03     25.6320E-03    -289.230E-03     578.815E-03    -289.224E-03     21.0073E-03
             276     13.4784E-03     71.4011E-03    -3.40205E+06     74.0567E+06     97.4942E+06     219.923E+03    -289.082E-03     578.719E-03    -289.637E-03     25.5773E-03    -289.440E-03     579.046E-03    -289.252E-03     21.0251E-03
             277     13.4788E-03     73.0940E-03    -2.98478E+06     74.0381E+06     96.8440E+06     1.64146E+06    -288.618E-03     578.257E-03    -289.640E-03     26.2529E-03    -288.974E-03     578.585E-03    -289.259E-03     21.7521E-03
             278     13.4797E-03     74.7826E-03    -1.77624E+06     75.0203E+06     97.4983E+06    -865.105E+03    -288.647E-03     578.274E-03    -289.628E-03     26.0387E-03    -289.001E-03     578.606E-03    -289.246E-03     21.3993E-03
             279     13.4781E-03     76.4757E-03    -3.72173E+06     74.1369E+06     97.5574E+06     171.435E+03    -289.187E-03     578.830E-03    -289.643E-03     25.6225E-03    -289.548E-03     579.158E-03    -289.257E-03     21.0339E-03
             280     13.4790E-03     78.1672E-03    -2.18016E+06     74.7335E+06     97.7227E+06     1.11163E+06    -288.385E-03     578.031E-03    -289.646E-03     26.2446E-03    -288.740E-03     578.360E-03    -289.263E-03     21.7107E-03
             281     13.4796E-03     79.8554E-03    -1.81329E+06     74.9400E+06     97.7216E+06    -1.04832E+06    -288.522E-03     578.147E-03    -289.625E-03     26.2677E-03    -288.878E-03     578.479E-03    -289.242E-03     21.5812E-03
             282     13.4784E-03     81.5491E-03    -3.52889E+06     74.9038E+06     98.0287E+06     279.250E+03    -289.235E-03     578.871E-03    -289.636E-03     25.5228E-03    -289.596E-03     579.201E-03    -289.250E-03     20.9385E-03
             283     13.4789E-03     83.2401E-03    -2.49507E+06     75.0584E+06     97.4795E+06     376.910E+03    -288.528E-03     578.176E-03    -289.647E-03     26.1029E-03    -288.885E-03     578.507E-03    -289.265E-03     21.5401E-03
             284     13.4793E-03     84.9292E-03    -2.17897E+06     74.8400E+06     97.1275E+06    -544.623E+03    -288.466E-03     578.097E-03    -289.631E-03     26.3403E-03    -288.824E-03     578.431E-03    -289.251E-03     21.6630E-03
             285     13.4788E-03     86.6225E-03    -1.94549E+06     75.4384E+06     97.9510E+06     164.743E+03    -288.768E-03     578.393E-03    -289.625E-03     26.3625E-03    -289.125E-03     578.727E-03    -289.242E-03     21.7567E-03
             286     13.4794E-03     88.3120E-03    -2.04584E+06     75.6542E+06     97.9402E+06    -218.524E+03    -288.749E-03     578.370E-03    -289.621E-03     26.6081E-03    -289.106E-03     578.704E-03    -289.238E-03     22.0498E-03
             287     13.4789E-03     90.0042E-03    -2.86015E+06     74.9213E+06     97.3088E+06    -426.692E+03    -288.900E-03     578.523E-03    -289.623E-03     25.8908E-03    -289.257E-03     578.854E-03    -289.241E-03     21.3218E-03
             288     13.4789E-03     91.6943E-03    -3.03746E+06     75.1424E+06     98.1601E+06     450.590E+03    -288.848E-03     578.492E-03    -289.643E-03     25.5354E-03    -289.207E-03     578.822E-03    -289.257E-03     20.9728E-03
             289     13.4786E-03     93.3856E-03    -2.92125E+06     75.9612E+06     98.3715E+06     774.031E+03    -288.747E-03     578.387E-03    -289.641E-03     25.7800E-03    -289.108E-03     578.722E-03    -289.255E-03     21.2080E-03
             290     13.4794E-03     95.0767E-03    -2.58391E+06     77.0780E+06     98.5404E+06    -86.3819E+03    -288.798E-03     578.424E-03    -289.625E-03     25.9189E-03    -289.160E-03     578.764E-03    -289.241E-03     21.3014E-03
             291     13.4788E-03     96.7688E-03    -1.73178E+06     78.1337E+06     100.028E+06    -152.462E+03    -288.703E-03     578.326E-03    -289.623E-03     26.1539E-03    -289.065E-03     578.670E-03    -289.234E-03     21.5154E-03
             292     673.670E-06     99.3478E-03    -120.031E+06    -248.939E+06    -118.385E+06     212.598E+03    -289.539E-03     579.258E-03    -289.719E-03     2.93713E-03    -289.606E-03     578.359E-03    -289.776E-03     3.22296E-03
             293     1.34734E-03     99.3561E-03    -117.607E+06    -240.828E+06    -111.027E+06     459.166E+03    -289.640E-03     579.295E-03    -289.655E-03     5.39820E-03    -289.718E-03     578.422E-03    -289.690E-03     5.90837E-03
             294     2.02093E-03     99.3694E-03    -113.646E+06    -228.079E+06    -99.8661E+06     657.388E+03    -289.606E-03     579.291E-03    -289.684E-03     7.99785E-03    -289.699E-03     578.460E-03    -289.688E-03     8.70686E-03
             295     2.69462E-03     99.3878E-03    -108.545E+06    -211.905E+06    -85.8985E+06     848.402E+03    -289.546E-03     579.255E-03    -289.709E-03     10.6102E-03    -289.657E-03     578.478E-03    -289.674E-03     11.4626E-03
             296     3.36836E-03     99.4110E-03    -102.421E+06    -193.052E+06    -70.1366E+06     1.11230E+06    -289.497E-03     579.225E-03    -289.729E-03     13.2253E-03    -289.628E-03     578.511E-03    -289.651E-03     14.1558E-03
             297     4.04212E-03     99.4392E-03    -95.6742E+06    -171.885E+06    -53.6303E+06     1.59415E+06    -289.467E-03     579.214E-03    -289.747E-03     15.8112E-03    -289.620E-03     578.573E-03    -289.627E-03     16.7451E-03
             298     4.71592E-03     99.4720E-03    -88.6784E+06    -149.998E+06    -37.1848E+06     1.94505E+06    -289.445E-03     579.209E-03    -289.764E-03     18.3910E-03    -289.621E-03     578.645E-03    -289.603E-03     19.2291E-03
             299     5.38972E-03     99.5092E-03    -81.1816E+06    -125.440E+06    -21.3937E+06     1.94524E+06    -289.394E-03     579.165E-03    -289.771E-03     21.0066E-03    -289.594E-03     578.694E-03    -289.578E-03     21.6450E-03
             300     6.06367E-03     99.5507E-03    -73.5735E+06    -97.8591E+06    -6.51257E+06     2.07665E+06    -289.336E-03     579.102E-03    -289.766E-03     23.6365E-03    -289.565E-03     578.742E-03    -289.550E-03     23.9626E-03
             301     6.73758E-03     99.5962E-03    -66.0781E+06    -67.8511E+06     7.99754E+06     2.00466E+06    -289.296E-03     579.051E-03    -289.755E-03     26.2280E-03    -289.561E-03     578.817E-03    -289.521E-03     26.1137E-03
             302     7.41147E-03     99.6453E-03    -58.8719E+06    -32.2113E+06     22.4774E+06     1.67281E+06    -289.214E-03     578.949E-03    -289.735E-03     28.8109E-03    -289.528E-03     578.874E-03    -289.490E-03     28.1337E-03
             303     8.08558E-03     99.6982E-03    -52.1902E+06     5.22521E+06     35.6919E+06     2.15868E+06    -289.089E-03     578.792E-03    -289.703E-03     31.3068E-03    -289.459E-03     578.891E-03    -289.456E-03     29.9756E-03
             304     8.75966E-03     99.7538E-03    -45.5139E+06     24.9790E+06     45.7879E+06     3.01562E+06    -289.026E-03     578.705E-03    -289.678E-03     33.7054E-03    -289.427E-03     578.899E-03    -289.420E-03     31.6155E-03
             305     9.43404E-03     99.8123E-03    -38.5303E+06     41.0670E+06     57.6584E+06     2.85938E+06    -288.995E-03     578.664E-03    -289.668E-03     35.9593E-03    -289.428E-03     578.938E-03    -289.384E-03     32.9998E-03
             306     10.1082E-03     99.8726E-03    -31.0513E+06     57.7416E+06     72.6957E+06     2.27301E+06    -288.983E-03     578.659E-03    -289.676E-03     37.6968E-03    -289.454E-03     579.014E-03    -289.351E-03     33.8340E-03
             307     10.7823E-03     99.9344E-03    -23.6090E+06     63.1930E+06     86.3666E+06     2.19200E+06    -288.951E-03     578.647E-03    -289.697E-03     38.6017E-03    -289.440E-03     579.026E-03    -289.322E-03     33.8837E-03
             308     11.4567E-03     99.9950E-03    -16.7297E+06     68.8129E+06     97.4183E+06     1.80768E+06    -288.829E-03     578.534E-03    -289.705E-03     38.3585E-03    -289.327E-03     578.935E-03    -289.294E-03     32.9500E-03
             309     12.1308E-03     100.054E-03    -10.8427E+06     72.5861E+06     101.544E+06     501.932E+03    -288.751E-03     578.435E-03    -289.684E-03     38.1956E-03    -289.261E-03     578.870E-03    -289.265E-03     31.8561E-03
             310     12.8059E-03     100.111E-03    -5.49515E+06     75.8125E+06     100.397E+06    -246.668E+03    -288.774E-03     578.416E-03    -289.642E-03     32.1860E-03    -289.217E-03     578.817E-03    -289.242E-03     26.4297E-03
             311     673.585E-06     101.039E-03    -120.265E+06    -250.094E+06    -118.448E+06     340.668E+03    -289.652E-03     579.352E-03    -289.700E-03     2.95539E-03    -289.719E-03     578.447E-03    -289.755E-03     3.24422E-03
             312     1.34721E-03     101.047E-03    -117.796E+06    -241.866E+06    -111.271E+06     470.333E+03    -289.626E-03     579.315E-03    -289.689E-03     5.39043E-03    -289.702E-03     578.437E-03    -289.724E-03     5.90604E-03
             313     2.02092E-03     101.060E-03    -113.917E+06    -229.263E+06    -100.154E+06     706.565E+03    -289.583E-03     579.283E-03    -289.700E-03     7.97881E-03    -289.675E-03     578.447E-03    -289.703E-03     8.68977E-03
             314     2.69461E-03     101.079E-03    -108.762E+06    -213.106E+06    -86.0588E+06     977.207E+03    -289.549E-03     579.267E-03    -289.718E-03     10.5943E-03    -289.659E-03     578.484E-03    -289.681E-03     11.4497E-03
             315     3.36834E-03     101.102E-03    -102.748E+06    -194.290E+06    -70.3568E+06     1.26160E+06    -289.516E-03     579.255E-03    -289.738E-03     13.2118E-03    -289.647E-03     578.535E-03    -289.659E-03     14.1493E-03
             316     4.04209E-03     101.130E-03    -96.0469E+06    -173.561E+06    -54.0742E+06     1.51222E+06    -289.470E-03     579.226E-03    -289.756E-03     15.8345E-03    -289.622E-03     578.578E-03    -289.636E-03     16.7747E-03
             317     4.71588E-03     101.163E-03    -88.7192E+06    -151.115E+06    -37.7390E+06     1.72732E+06    -289.419E-03     579.187E-03    -289.768E-03     18.4569E-03    -289.593E-03     578.619E-03    -289.609E-03     19.3038E-03
             318     5.38976E-03     101.200E-03    -81.3717E+06    -126.341E+06    -21.7925E+06     2.01073E+06    -289.369E-03     579.141E-03    -289.772E-03     21.0554E-03    -289.569E-03     578.666E-03    -289.580E-03     21.7012E-03
             319     6.06364E-03     101.242E-03    -74.2202E+06    -99.1934E+06    -6.59249E+06     2.35643E+06    -289.305E-03     579.072E-03    -289.767E-03     23.6616E-03    -289.536E-03     578.706E-03    -289.548E-03     23.9950E-03
             320     6.73765E-03     101.287E-03    -67.2985E+06    -68.5260E+06     7.87580E+06     2.81265E+06    -289.237E-03     578.988E-03    -289.751E-03     26.2682E-03    -289.507E-03     578.753E-03    -289.515E-03     26.1754E-03
             321     7.41170E-03     101.337E-03    -60.6244E+06    -33.1655E+06     21.8424E+06     3.32767E+06    -289.155E-03     578.880E-03    -289.725E-03     28.8530E-03    -289.475E-03     578.804E-03    -289.480E-03     28.2015E-03
             322     8.08575E-03     101.389E-03    -53.7395E+06     4.15758E+06     34.8954E+06     3.32978E+06    -289.048E-03     578.737E-03    -289.689E-03     31.3377E-03    -289.423E-03     578.835E-03    -289.443E-03     30.0106E-03
             323     8.76001E-03     101.445E-03    -46.2931E+06     24.9605E+06     45.3453E+06     2.49045E+06    -289.023E-03     578.686E-03    -289.663E-03     33.6810E-03    -289.427E-03     578.883E-03    -289.406E-03     31.5620E-03
             324     9.43403E-03     101.503E-03    -38.7654E+06     41.7327E+06     57.0855E+06     1.95242E+06    -289.031E-03     578.685E-03    -289.654E-03     35.8487E-03    -289.465E-03     578.964E-03    -289.372E-03     32.8531E-03
             325     10.1082E-03     101.564E-03    -32.0158E+06     58.2465E+06     71.9500E+06     1.88145E+06    -289.004E-03     578.669E-03    -289.665E-03     37.5715E-03    -289.479E-03     579.028E-03    -289.343E-03     33.6796E-03
             326     10.7824E-03     101.625E-03    -25.0564E+06     63.8750E+06     86.2554E+06     1.16504E+06    -288.989E-03     578.682E-03    -289.692E-03     38.5133E-03    -289.488E-03     579.068E-03    -289.317E-03     33.7304E-03
             327     11.4564E-03     101.686E-03    -17.6200E+06     69.1340E+06     97.3525E+06     698.488E+03    -288.985E-03     578.692E-03    -289.707E-03     38.2870E-03    -289.489E-03     579.097E-03    -289.295E-03     32.8039E-03
             328     12.1307E-03     101.745E-03    -10.5823E+06     73.8146E+06     102.180E+06     1.01858E+06    -288.942E-03     578.638E-03    -289.696E-03     38.0517E-03    -289.452E-03     579.077E-03    -289.277E-03     31.7205E-03
             329     12.8040E-03     101.802E-03    -5.15541E+06     77.5108E+06     101.326E+06     883.182E+03    -288.762E-03     578.422E-03    -289.659E-03     32.1653E-03    -289.206E-03     578.829E-03    -289.258E-03     26.4348E-03
             330     673.595E-06     102.730E-03    -120.468E+06    -251.369E+06    -118.845E+06     258.812E+03    -289.681E-03     579.370E-03    -289.690E-03     2.99165E-03    -289.746E-03     578.461E-03    -289.745E-03     3.28019E-03
             331     1.34721E-03     102.738E-03    -117.930E+06    -242.962E+06    -111.409E+06     501.563E+03    -289.635E-03     579.334E-03    -289.699E-03     5.45482E-03    -289.711E-03     578.451E-03    -289.732E-03     5.96443E-03
             332     2.02087E-03     102.751E-03    -113.998E+06    -230.406E+06    -100.232E+06     724.297E+03    -289.591E-03     579.300E-03    -289.709E-03     8.02644E-03    -289.681E-03     578.458E-03    -289.711E-03     8.73589E-03
             333     2.69458E-03     102.770E-03    -108.874E+06    -214.346E+06    -86.2402E+06     948.527E+03    -289.564E-03     579.291E-03    -289.727E-03     10.6235E-03    -289.673E-03     578.502E-03    -289.690E-03     11.4811E-03
             334     3.36827E-03     102.793E-03    -102.703E+06    -195.477E+06    -70.4532E+06     1.17473E+06    -289.520E-03     579.268E-03    -289.748E-03     13.2331E-03    -289.649E-03     578.542E-03    -289.668E-03     14.1720E-03
             335     4.04205E-03     102.821E-03    -95.8836E+06    -174.555E+06    -53.9647E+06     1.35073E+06    -289.453E-03     579.216E-03    -289.763E-03     15.8406E-03    -289.603E-03     578.563E-03    -289.641E-03     16.7768E-03
             336     4.71592E-03     102.854E-03    -88.6764E+06    -152.460E+06    -37.5609E+06     1.62867E+06    -289.394E-03     579.166E-03    -289.772E-03     18.4450E-03    -289.566E-03     578.591E-03    -289.610E-03     19.2894E-03
             337     5.38978E-03     102.891E-03    -81.2763E+06    -128.201E+06    -21.7854E+06     2.13887E+06    -289.351E-03     579.124E-03    -289.773E-03     21.0391E-03    -289.548E-03     578.640E-03    -289.578E-03     21.6830E-03
             338     6.06370E-03     102.933E-03    -73.7500E+06    -100.943E+06    -6.58172E+06     2.66447E+06    -289.305E-03     579.071E-03    -289.766E-03     23.6393E-03    -289.531E-03     578.696E-03    -289.545E-03     23.9664E-03
             339     6.73766E-03     102.978E-03    -66.0366E+06    -70.7916E+06     8.11229E+06     3.30833E+06    -289.224E-03     578.974E-03    -289.750E-03     26.1864E-03    -289.485E-03     578.726E-03    -289.511E-03     26.0830E-03
             340     7.41173E-03     103.027E-03    -58.3261E+06    -35.8720E+06     22.5117E+06     4.21677E+06    -289.136E-03     578.860E-03    -289.723E-03     28.6822E-03    -289.442E-03     578.766E-03    -289.474E-03     28.0361E-03
             341     8.08587E-03     103.080E-03    -50.9385E+06     5.08705E+06     36.7973E+06     4.25457E+06    -289.059E-03     578.746E-03    -289.687E-03     31.1177E-03    -289.424E-03     578.841E-03    -289.437E-03     29.7986E-03
             342     8.75991E-03     103.136E-03    -44.2781E+06     27.9851E+06     48.0259E+06     3.00028E+06    -289.064E-03     578.730E-03    -289.666E-03     33.5430E-03    -289.466E-03     578.935E-03    -289.402E-03     31.4303E-03
             343     9.43406E-03     103.194E-03    -38.0535E+06     41.3017E+06     59.8679E+06     2.22283E+06    -289.081E-03     578.748E-03    -289.667E-03     35.7874E-03    -289.515E-03     579.020E-03    -289.372E-03     32.8009E-03
             344     10.1082E-03     103.255E-03    -31.1482E+06     58.3107E+06     74.4977E+06     2.20404E+06    -289.014E-03     578.692E-03    -289.678E-03     37.5255E-03    -289.489E-03     579.048E-03    -289.345E-03     33.6219E-03
             345     10.7823E-03     103.317E-03    -24.3120E+06     66.2928E+06     87.4433E+06     1.65229E+06    -288.975E-03     578.671E-03    -289.695E-03     38.5252E-03    -289.475E-03     579.066E-03    -289.319E-03     33.7448E-03
             346     11.4566E-03     103.377E-03    -18.4241E+06     69.8472E+06     97.2139E+06     785.659E+03    -288.976E-03     578.684E-03    -289.708E-03     38.4814E-03    -289.486E-03     579.095E-03    -289.296E-03     33.0128E-03
             347     12.1304E-03     103.436E-03    -12.1721E+06     73.6363E+06     101.722E+06     444.542E+03    -288.936E-03     578.633E-03    -289.697E-03     38.4474E-03    -289.454E-03     579.074E-03    -289.277E-03     32.1347E-03
             348     12.8053E-03     103.493E-03    -5.78825E+06     78.4220E+06     101.526E+06      755.32E+03    -288.603E-03     578.258E-03    -289.656E-03     32.5079E-03    -289.053E-03     578.672E-03    -289.253E-03     26.7727E-03
             349     673.642E-06     104.421E-03    -120.629E+06    -252.458E+06    -118.775E+06     235.269E+03    -289.676E-03     579.345E-03    -289.670E-03     2.98985E-03    -289.740E-03     578.430E-03    -289.723E-03     3.27768E-03
             350     1.34728E-03     104.429E-03    -118.074E+06    -244.125E+06    -111.607E+06     438.167E+03    -289.649E-03     579.340E-03    -289.691E-03     5.41323E-03    -289.724E-03     578.453E-03    -289.724E-03     5.91836E-03
             351     2.02091E-03     104.442E-03    -114.150E+06    -231.478E+06    -100.455E+06     655.889E+03    -289.612E-03     579.322E-03    -289.710E-03     8.02071E-03    -289.701E-03     578.476E-03    -289.711E-03     8.72934E-03
             352     2.69456E-03     104.461E-03    -109.040E+06    -215.411E+06    -86.4358E+06     861.460E+03    -289.561E-03     579.291E-03    -289.730E-03     10.6612E-03    -289.668E-03     578.498E-03    -289.692E-03     11.5174E-03
             353     3.36829E-03     104.484E-03    -102.983E+06    -196.563E+06    -70.6578E+06     1.04658E+06    -289.510E-03     579.259E-03    -289.749E-03     13.2808E-03    -289.638E-03     578.529E-03    -289.668E-03     14.2124E-03
             354     4.04207E-03     104.512E-03    -96.2835E+06    -175.549E+06    -54.1658E+06     1.27717E+06    -289.468E-03     579.233E-03    -289.765E-03     15.8674E-03    -289.618E-03     578.575E-03    -289.642E-03     16.7982E-03
             355     4.71585E-03     104.545E-03    -89.1498E+06    -153.827E+06    -37.8250E+06     1.55645E+06    -289.416E-03     579.193E-03    -289.777E-03     18.4276E-03    -289.588E-03     578.612E-03    -289.613E-03     19.2599E-03
             356     5.38976E-03     104.582E-03    -81.6710E+06    -129.849E+06    -22.1729E+06     1.80938E+06    -289.355E-03     579.133E-03    -289.778E-03     20.9922E-03    -289.551E-03     578.643E-03    -289.582E-03     21.6195E-03
             357     6.06369E-03     104.624E-03    -73.9687E+06    -102.681E+06    -7.22962E+06     2.09951E+06    -289.307E-03     579.076E-03    -289.770E-03     23.5667E-03    -289.530E-03     578.694E-03    -289.550E-03     23.8783E-03
             358     6.73764E-03     104.669E-03    -66.2213E+06    -73.0552E+06     7.33458E+06     2.43841E+06    -289.259E-03     579.014E-03    -289.755E-03     26.1111E-03    -289.516E-03     578.756E-03    -289.517E-03     25.9818E-03
             359     7.41163E-03     104.718E-03    -58.4960E+06    -38.9711E+06     21.7375E+06     3.10606E+06    -289.186E-03     578.919E-03    -289.733E-03     28.6085E-03    -289.487E-03     578.811E-03    -289.483E-03     27.9396E-03
             360     8.08569E-03     104.771E-03    -50.8359E+06     3.90733E+06     36.4874E+06     4.07794E+06    -289.081E-03     578.779E-03    -289.698E-03     31.0015E-03    -289.443E-03     578.868E-03    -289.448E-03     29.6874E-03
             361     8.75991E-03     104.827E-03    -43.7153E+06     29.7755E+06     48.4432E+06     4.53012E+06    -289.042E-03     578.716E-03    -289.675E-03     33.4017E-03    -289.444E-03     578.929E-03    -289.412E-03     31.3229E-03
             362     9.43400E-03     104.885E-03    -37.2374E+06     42.6747E+06     60.0379E+06     3.85712E+06    -289.011E-03     578.682E-03    -289.671E-03     35.6857E-03    -289.442E-03     578.959E-03    -289.379E-03     32.7367E-03
             363     10.1081E-03     104.946E-03    -30.8153E+06     58.8081E+06     74.1488E+06     2.74124E+06    -288.926E-03     578.602E-03    -289.676E-03     37.5730E-03    -289.399E-03     578.960E-03    -289.346E-03     33.7014E-03
             364     10.7823E-03     105.007E-03    -24.1725E+06     66.6475E+06     87.6786E+06     2.56081E+06    -288.849E-03     578.538E-03    -289.689E-03     38.7435E-03    -289.348E-03     578.934E-03    -289.312E-03     34.0232E-03
             365     11.4564E-03     105.069E-03    -17.5155E+06     71.5395E+06     98.7902E+06     2.54079E+06    -288.768E-03     578.464E-03    -289.696E-03     38.7711E-03    -289.277E-03     578.877E-03    -289.280E-03     33.4012E-03
             366     12.1311E-03     105.127E-03    -11.2462E+06     75.5553E+06     103.393E+06     1.57199E+06    -288.689E-03     578.361E-03    -289.672E-03     38.8189E-03    -289.208E-03     578.808E-03    -289.248E-03     32.5609E-03
             367     12.8045E-03     105.185E-03    -5.41455E+06     79.1780E+06     102.297E+06     232.680E+03    -288.521E-03     578.142E-03    -289.621E-03     32.6304E-03    -288.972E-03     578.559E-03    -289.217E-03     26.8826E-03
             368     673.592E-06     106.112E-03    -121.118E+06    -253.767E+06    -119.404E+06     368.590E+03    -289.721E-03     579.347E-03    -289.626E-03     2.98651E-03    -289.786E-03     578.427E-03    -289.680E-03     3.27863E-03
             369     1.34720E-03     106.120E-03    -118.743E+06    -245.213E+06    -112.111E+06     553.397E+03    -289.647E-03     579.339E-03    -289.692E-03     5.42949E-03    -289.723E-03     578.448E-03    -289.725E-03     5.94101E-03
             370     2.02086E-03     106.133E-03    -114.810E+06    -232.567E+06    -101.041E+06     723.818E+03    -289.612E-03     579.322E-03    -289.710E-03     8.02831E-03    -289.702E-03     578.472E-03    -289.712E-03     8.73635E-03
             371     2.69457E-03     106.152E-03    -109.753E+06    -216.506E+06    -87.0288E+06     925.391E+03    -289.553E-03     579.282E-03    -289.730E-03     10.6459E-03    -289.662E-03     578.485E-03    -289.692E-03     11.4971E-03
             372     3.36833E-03     106.175E-03    -103.774E+06    -197.612E+06    -71.2993E+06     1.18819E+06    -289.510E-03     579.258E-03    -289.748E-03     13.2589E-03    -289.640E-03     578.524E-03    -289.667E-03     14.1930E-03
             373     4.04208E-03     106.203E-03    -97.1630E+06    -176.707E+06    -54.9525E+06     1.46265E+06    -289.481E-03     579.245E-03    -289.765E-03     15.8469E-03    -289.633E-03     578.584E-03    -289.642E-03     16.7807E-03
             374     4.71588E-03     106.236E-03    -90.0896E+06    -154.861E+06    -38.6827E+06     1.64477E+06    -289.438E-03     579.217E-03    -289.778E-03     18.4284E-03    -289.612E-03     578.633E-03    -289.617E-03     19.2586E-03
             375     5.38967E-03     106.273E-03    -82.7871E+06    -130.755E+06    -22.9512E+06     1.74440E+06    -289.386E-03     579.169E-03    -289.784E-03     21.0206E-03    -289.584E-03     578.677E-03    -289.589E-03     21.6473E-03
             376     6.06356E-03     106.315E-03    -75.5343E+06    -104.007E+06    -8.08213E+06     1.91929E+06    -289.318E-03     579.096E-03    -289.778E-03     23.5910E-03    -289.547E-03     578.711E-03    -289.558E-03     23.9013E-03
             377     6.73755E-03     106.360E-03    -68.4422E+06    -74.6710E+06     6.09354E+06     2.32835E+06    -289.265E-03     579.029E-03    -289.764E-03     26.1497E-03    -289.529E-03     578.767E-03    -289.526E-03     26.0289E-03
             378     7.41153E-03     106.409E-03    -61.3110E+06    -40.7403E+06     20.0503E+06     2.57307E+06    -289.217E-03     578.958E-03    -289.742E-03     28.6872E-03    -289.527E-03     578.848E-03    -289.493E-03     28.0180E-03
             379     8.08555E-03     106.462E-03    -53.8822E+06     977.193E+03     34.2826E+06     2.93244E+06    -289.100E-03     578.808E-03    -289.708E-03     31.1133E-03    -289.470E-03     578.890E-03    -289.460E-03     29.7877E-03
             380     8.75961E-03     106.518E-03    -46.1540E+06     27.5178E+06      45.464E+06     3.94729E+06    -288.982E-03     578.659E-03    -289.677E-03     33.5051E-03    -289.389E-03     578.868E-03    -289.422E-03     31.4262E-03
             381     9.43382E-03     106.576E-03    -38.7240E+06     44.0121E+06     56.5225E+06     4.32013E+06    -288.856E-03     578.511E-03    -289.656E-03     35.7912E-03    -289.291E-03     578.802E-03    -289.381E-03     32.8601E-03
             382     10.1083E-03     106.637E-03    -32.0100E+06     60.9026E+06     71.6367E+06     3.57353E+06    -288.735E-03     578.387E-03    -289.652E-03     37.6814E-03    -289.212E-03     578.759E-03    -289.336E-03     33.8597E-03
             383     10.7827E-03     106.699E-03    -25.2531E+06     66.5553E+06     86.5242E+06     2.71982E+06    -288.644E-03     578.308E-03    -289.664E-03     38.8231E-03    -289.146E-03     578.706E-03    -289.291E-03     34.1266E-03
             384     11.4573E-03     106.759E-03    -17.9739E+06     72.7276E+06     99.0368E+06     2.23616E+06    -288.565E-03     578.228E-03    -289.663E-03     38.8951E-03    -289.079E-03     578.650E-03    -289.248E-03     33.5009E-03
             385     12.1314E-03     106.818E-03    -10.9714E+06     77.6558E+06     104.616E+06     1.61499E+06    -288.533E-03     578.168E-03    -289.634E-03     38.7464E-03    -289.057E-03     578.625E-03    -289.208E-03     32.4388E-03
             386     12.8069E-03     106.875E-03    -5.26129E+06     80.5972E+06     103.719E+06     888.542E+03    -288.648E-03     578.235E-03    -289.587E-03     32.3724E-03    -289.102E-03     578.656E-03    -289.178E-03     26.6250E-03
             387     673.634E-06     107.803E-03    -121.490E+06    -255.329E+06    -119.885E+06     292.096E+03    -289.641E-03     579.359E-03    -289.717E-03     2.89452E-03    -289.704E-03     578.432E-03    -289.770E-03     3.17900E-03
             388     1.34730E-03     107.811E-03    -119.068E+06    -246.540E+06    -112.585E+06     645.822E+03    -289.632E-03     579.324E-03    -289.692E-03     5.43299E-03    -289.706E-03     578.427E-03    -289.725E-03     5.94085E-03
             389     2.02091E-03     107.824E-03    -115.241E+06    -233.864E+06    -101.461E+06     964.450E+03    -289.599E-03     579.304E-03    -289.705E-03     8.04587E-03    -289.689E-03     578.449E-03    -289.707E-03     8.75419E-03
             390     2.69457E-03     107.843E-03    -110.250E+06    -217.749E+06    -87.4544E+06     1.26090E+06    -289.566E-03     579.291E-03    -289.726E-03     10.6661E-03    -289.675E-03     578.490E-03    -289.687E-03     11.5275E-03
             391     3.36827E-03     107.866E-03    -104.378E+06    -198.943E+06    -71.7801E+06     1.57355E+06    -289.521E-03     579.268E-03    -289.747E-03     13.2895E-03    -289.651E-03     578.530E-03    -289.666E-03     14.2380E-03
             392     4.04203E-03     107.894E-03    -97.8028E+06    -178.092E+06    -55.3881E+06     1.87181E+06    -289.463E-03     579.228E-03    -289.764E-03     15.8898E-03    -289.616E-03     578.561E-03    -289.641E-03     16.8344E-03
             393     4.71584E-03     107.927E-03    -90.8058E+06    -155.845E+06    -39.0736E+06     2.08539E+06    -289.421E-03     579.197E-03    -289.775E-03     18.4925E-03    -289.597E-03     578.610E-03    -289.613E-03     19.3387E-03
             394     5.38972E-03     107.964E-03    -83.6367E+06    -131.715E+06    -23.3669E+06     2.27136E+06    -289.381E-03     579.161E-03    -289.780E-03     21.1098E-03    -289.582E-03     578.665E-03    -289.584E-03     21.7553E-03
             395     6.06361E-03     108.006E-03    -76.3563E+06    -105.310E+06    -8.39731E+06     2.56037E+06    -289.325E-03     579.101E-03    -289.775E-03     23.7170E-03    -289.556E-03     578.710E-03    -289.554E-03     24.0461E-03
             396     6.73753E-03     108.051E-03    -69.0689E+06    -76.2340E+06     5.75606E+06     2.94113E+06    -289.258E-03     579.020E-03    -289.761E-03     26.3226E-03    -289.523E-03     578.752E-03    -289.522E-03     26.2271E-03
             397     7.41155E-03     108.100E-03    -61.8789E+06    -42.1118E+06     19.4751E+06     3.37226E+06    -289.159E-03     578.893E-03    -289.735E-03     28.9086E-03    -289.468E-03     578.777E-03    -289.486E-03     28.2686E-03
             398     8.08558E-03     108.153E-03    -55.1124E+06    -482.248E+03     33.3276E+06     3.62684E+06    -289.009E-03     578.703E-03    -289.694E-03     31.4588E-03    -289.382E-03     578.782E-03    -289.447E-03     30.1547E-03
             399     8.75978E-03     108.209E-03    -48.4081E+06     26.2372E+06     44.2317E+06     3.13995E+06    -288.907E-03     578.564E-03    -289.657E-03     33.9317E-03    -289.322E-03     578.771E-03    -289.403E-03     31.8435E-03
             400     9.43413E-03     108.267E-03    -40.9159E+06     44.1078E+06     55.5503E+06     2.51464E+06    -288.829E-03     578.462E-03    -289.632E-03     36.1139E-03    -289.275E-03     578.758E-03    -289.359E-03     33.1510E-03
             401     10.1084E-03     108.327E-03    -32.9399E+06     61.2849E+06     70.6507E+06     2.64428E+06    -288.721E-03     578.347E-03    -289.627E-03     37.7690E-03    -289.203E-03     578.725E-03    -289.314E-03     33.9239E-03
             402     10.7829E-03     108.389E-03    -25.1807E+06     67.9152E+06     85.8677E+06     2.40708E+06    -288.637E-03     578.275E-03    -289.638E-03     38.5974E-03    -289.140E-03     578.681E-03    -289.270E-03     33.8879E-03
             403     11.4573E-03     108.450E-03    -18.3057E+06     73.4866E+06     98.5436E+06     1.69168E+06    -288.503E-03     578.143E-03    -289.640E-03     38.4249E-03    -289.018E-03     578.568E-03    -289.227E-03     33.0079E-03
             404     12.1321E-03     108.508E-03    -11.7133E+06     78.3902E+06     104.608E+06     1.35719E+06    -288.471E-03     578.084E-03    -289.613E-03     38.3795E-03    -288.999E-03     578.544E-03    -289.186E-03     32.0702E-03
             405     12.8053E-03     108.565E-03    -5.55451E+06     82.9874E+06     104.308E+06     1.15271E+06    -288.511E-03     578.073E-03    -289.562E-03     32.4959E-03    -288.971E-03     578.505E-03    -289.153E-03     26.7492E-03
             406     673.565E-06     109.494E-03    -121.599E+06    -256.932E+06    -119.864E+06     385.683E+03    -289.607E-03     579.358E-03    -289.751E-03     2.98552E-03    -289.669E-03     578.423E-03    -289.801E-03     3.26406E-03
             407     1.34718E-03     109.502E-03    -119.132E+06    -248.302E+06    -112.672E+06     750.231E+03    -289.621E-03     579.311E-03    -289.690E-03     5.43675E-03    -289.694E-03     578.406E-03    -289.721E-03     5.94807E-03
             408     2.02091E-03     109.515E-03    -115.300E+06    -235.600E+06    -101.495E+06     1.15192E+06    -289.583E-03     579.283E-03    -289.700E-03     8.04204E-03    -289.671E-03     578.419E-03    -289.698E-03     8.76259E-03
             409     2.69463E-03     109.534E-03    -110.263E+06    -219.486E+06    -87.4193E+06     1.58662E+06    -289.553E-03     579.271E-03    -289.718E-03     10.6776E-03    -289.659E-03     578.460E-03    -289.677E-03     11.5572E-03
             410     3.36834E-03     109.557E-03    -104.237E+06    -200.547E+06    -71.5758E+06     1.95301E+06    -289.493E-03     579.231E-03    -289.737E-03     13.3326E-03    -289.621E-03     578.484E-03    -289.653E-03     14.2901E-03
             411     4.04213E-03     109.585E-03    -97.5067E+06    -179.710E+06    -55.0683E+06     2.27927E+06    -289.427E-03     579.178E-03    -289.751E-03     15.9804E-03    -289.576E-03     578.502E-03    -289.624E-03     16.9357E-03
             412     4.71597E-03     109.618E-03    -90.4142E+06    -157.119E+06    -38.7443E+06     2.60125E+06    -289.377E-03     579.134E-03    -289.757E-03     18.6174E-03    -289.549E-03     578.539E-03    -289.592E-03     19.4826E-03
             413     5.38981E-03     109.655E-03    -83.1177E+06    -132.980E+06    -23.0666E+06     2.84027E+06    -289.331E-03     579.087E-03    -289.757E-03     21.2571E-03    -289.527E-03     578.584E-03    -289.559E-03     21.9241E-03
             414     6.06375E-03     109.697E-03    -75.7081E+06    -106.894E+06    -8.18764E+06     3.08696E+06    -289.279E-03     579.028E-03    -289.749E-03     23.9030E-03    -289.504E-03     578.629E-03    -289.525E-03     24.2598E-03
             415     6.73774E-03     109.742E-03    -68.3108E+06    -77.8301E+06     6.09386E+06     3.38240E+06    -289.184E-03     578.915E-03    -289.731E-03     26.5666E-03    -289.443E-03     578.637E-03    -289.489E-03     26.4924E-03
             416     7.41178E-03     109.791E-03    -60.8617E+06    -43.8750E+06     20.1399E+06     3.66167E+06    -289.035E-03     578.734E-03    -289.699E-03     29.2124E-03    -289.338E-03     578.607E-03    -289.446E-03     28.5840E-03
             417     8.08609E-03     109.844E-03    -53.2300E+06    -1.98156E+06     34.7289E+06     4.06329E+06    -288.888E-03     578.540E-03    -289.652E-03     31.7312E-03    -289.251E-03     578.606E-03    -289.398E-03     30.4432E-03
             418     8.76044E-03     109.899E-03    -45.7464E+06     27.9239E+06     47.0847E+06     3.86958E+06    -288.864E-03     578.476E-03    -289.612E-03     34.1557E-03    -289.272E-03     578.684E-03    -289.351E-03     32.0927E-03
             419     9.43454E-03     109.958E-03    -39.2266E+06     45.8401E+06     58.9929E+06     2.75143E+06    -288.893E-03     578.488E-03    -289.595E-03     36.3785E-03    -289.338E-03     578.786E-03    -289.310E-03     33.4278E-03
             420     10.1088E-03     110.018E-03    -32.9649E+06     60.9724E+06     72.5785E+06     1.83799E+06    -288.851E-03     578.448E-03    -289.597E-03     38.0990E-03    -289.337E-03     578.823E-03    -289.275E-03     34.2203E-03
             421     10.7830E-03     110.079E-03    -26.2862E+06     68.2990E+06     85.6880E+06     1.71101E+06    -288.750E-03     578.358E-03    -289.608E-03     39.0200E-03    -289.261E-03     578.769E-03    -289.240E-03     34.2799E-03
             422     11.4572E-03     110.140E-03    -19.1038E+06     74.4069E+06     98.2516E+06     1.63517E+06    -288.581E-03     578.196E-03    -289.615E-03     38.7879E-03    -289.101E-03     578.628E-03    -289.204E-03     33.3740E-03
             423     12.1316E-03     110.198E-03    -12.2352E+06     79.0150E+06     104.234E+06     1.46797E+06    -288.295E-03     577.881E-03    -289.586E-03     38.7886E-03    -288.825E-03     578.346E-03    -289.162E-03     32.5286E-03
             424     12.8072E-03     110.257E-03    -5.64749E+06     84.2474E+06     103.908E+06     698.993E+03    -288.004E-03     577.521E-03    -289.517E-03     33.1034E-03    -288.468E-03     577.962E-03    -289.111E-03     27.3442E-03
             425     673.672E-06     111.185E-03    -122.009E+06    -258.789E+06    -120.146E+06     504.408E+03    -289.714E-03     579.260E-03    -289.546E-03     3.06430E-03    -289.774E-03     578.317E-03    -289.594E-03     3.34283E-03
             426     1.34733E-03     111.193E-03    -119.376E+06    -250.292E+06    -112.736E+06     818.673E+03    -289.614E-03     579.265E-03    -289.650E-03     5.51496E-03    -289.685E-03     578.350E-03    -289.678E-03     6.03752E-03
             427     2.02094E-03     111.206E-03    -115.420E+06    -237.530E+06    -101.525E+06     1.21295E+06    -289.576E-03     579.247E-03    -289.672E-03     8.14454E-03    -289.661E-03     578.374E-03    -289.667E-03     8.87709E-03
             428     2.69462E-03     111.225E-03    -110.176E+06    -221.362E+06    -87.3659E+06     1.57205E+06    -289.503E-03     579.194E-03    -289.690E-03     10.7816E-03    -289.607E-03     578.373E-03    -289.646E-03     11.6657E-03
             429     3.36842E-03     111.248E-03    -103.914E+06    -202.346E+06    -71.4730E+06     1.91266E+06    -289.425E-03     579.128E-03    -289.703E-03     13.4406E-03    -289.548E-03     578.371E-03    -289.616E-03     14.4030E-03
             430     4.04226E-03     111.276E-03    -97.0054E+06    -181.469E+06    -54.8705E+06     2.24958E+06    -289.363E-03     579.073E-03    -289.710E-03     16.1176E-03    -289.507E-03     578.388E-03    -289.581E-03     17.0823E-03
             431     4.71613E-03     111.309E-03    -89.6636E+06    -158.803E+06    -38.3849E+06     2.57832E+06    -289.303E-03     579.016E-03    -289.712E-03     18.7829E-03    -289.470E-03     578.411E-03    -289.544E-03     19.6578E-03
             432     5.39014E-03     111.346E-03    -82.0714E+06    -134.392E+06    -22.3937E+06     2.87938E+06    -289.245E-03     578.953E-03    -289.708E-03     21.4476E-03    -289.436E-03     578.440E-03    -289.506E-03     22.1270E-03
             433     6.06411E-03     111.387E-03    -74.5131E+06    -108.482E+06    -7.16488E+06     3.15639E+06    -289.171E-03     578.867E-03    -289.696E-03     24.1145E-03    -289.389E-03     578.455E-03    -289.466E-03     24.4822E-03
             434     6.73819E-03     111.433E-03    -66.9986E+06    -79.7416E+06     7.40436E+06     3.55989E+06    -289.070E-03     578.742E-03    -289.673E-03     26.7494E-03    -289.321E-03     578.451E-03    -289.423E-03     26.6810E-03
             435     7.41247E-03     111.482E-03    -59.8196E+06    -45.4661E+06     21.6403E+06     3.96961E+06    -288.973E-03     578.611E-03    -289.638E-03     29.3247E-03    -289.271E-03     578.472E-03    -289.377E-03     28.7039E-03
             436     8.08665E-03     111.534E-03    -52.7839E+06    -3.28039E+06     36.1139E+06     4.06087E+06    -288.874E-03     578.467E-03    -289.593E-03     31.7715E-03    -289.235E-03     578.524E-03    -289.331E-03     30.4936E-03
             437     8.76088E-03     111.590E-03    -45.8149E+06     27.8779E+06     47.7120E+06     4.24199E+06    -288.810E-03     578.361E-03    -289.551E-03     34.1868E-03    -289.219E-03     578.568E-03    -289.286E-03     32.1453E-03
             438     9.43532E-03     111.648E-03    -38.9213E+06     47.2279E+06     58.8382E+06     4.34444E+06    -288.779E-03     578.306E-03    -289.526E-03     36.4975E-03    -289.225E-03     578.610E-03    -289.244E-03     33.5910E-03
             439     10.1095E-03     111.709E-03    -32.6096E+06     63.0152E+06     72.7996E+06     3.50054E+06    -288.740E-03     578.265E-03    -289.525E-03     38.4672E-03    -289.227E-03     578.649E-03    -289.205E-03     34.6278E-03
             440     10.7838E-03     111.770E-03    -26.5735E+06     69.5732E+06     86.2595E+06     2.17765E+06    -288.678E-03     578.216E-03    -289.538E-03     39.6278E-03    -289.194E-03     578.634E-03    -289.169E-03     34.9040E-03
             441     11.4584E-03     111.830E-03    -19.5797E+06     74.5894E+06     97.9506E+06     1.52866E+06    -288.583E-03     578.127E-03    -289.544E-03     39.5753E-03    -289.109E-03     578.564E-03    -289.134E-03     34.1499E-03
             442     12.1327E-03     111.889E-03    -11.9643E+06     79.5842E+06     104.404E+06     950.043E+03    -288.388E-03     577.908E-03    -289.521E-03     39.2703E-03    -288.923E-03     578.381E-03    -289.097E-03     32.8997E-03
             443     12.8071E-03     111.944E-03    -4.86924E+06     85.9109E+06     105.386E+06    -271.933E+03    -288.130E-03     577.595E-03    -289.465E-03     32.9067E-03    -288.597E-03     578.044E-03    -289.055E-03     27.0334E-03
             444     673.696E-06     112.875E-03    -122.546E+06    -260.522E+06    -120.998E+06     329.445E+03    -289.606E-03     579.125E-03    -289.519E-03     2.95015E-03    -289.665E-03     578.176E-03    -289.569E-03     3.23330E-03
             445     1.34739E-03     112.884E-03    -120.089E+06    -252.118E+06    -113.499E+06     688.483E+03    -289.553E-03     579.138E-03    -289.584E-03     5.51381E-03    -289.623E-03     578.216E-03    -289.612E-03     6.04185E-03
             446     2.02110E-03     112.897E-03    -116.020E+06    -239.248E+06    -102.179E+06     986.523E+03    -289.493E-03     579.098E-03    -289.604E-03     8.21053E-03    -289.578E-03     578.218E-03    -289.600E-03     8.94027E-03
             447     2.69489E-03     112.915E-03    -110.690E+06    -222.979E+06    -87.8833E+06     1.25561E+06    -289.418E-03     579.037E-03    -289.619E-03     10.9094E-03    -289.521E-03     578.210E-03    -289.575E-03     11.7892E-03
             448     3.36870E-03     112.939E-03    -104.411E+06    -203.985E+06    -71.8926E+06     1.47912E+06    -289.350E-03     578.980E-03    -289.630E-03     13.5915E-03    -289.473E-03     578.216E-03    -289.542E-03     14.5542E-03
             449     4.04260E-03     112.967E-03    -97.4447E+06    -183.091E+06    -55.1871E+06     1.76890E+06    -289.278E-03     578.915E-03    -289.636E-03     16.2612E-03    -289.422E-03     578.222E-03    -289.506E-03     17.2265E-03
             450     4.71657E-03     112.999E-03    -90.0360E+06    -160.432E+06    -38.5026E+06     2.08800E+06    -289.208E-03     578.845E-03    -289.637E-03     18.9368E-03    -289.374E-03     578.233E-03    -289.466E-03     19.8111E-03
             451     5.39053E-03     113.037E-03    -82.4596E+06    -136.108E+06    -22.3770E+06     2.48074E+06    -289.135E-03     578.765E-03    -289.629E-03     21.6024E-03    -289.325E-03     578.244E-03    -289.424E-03     22.2790E-03
             452     6.06466E-03     113.078E-03    -74.8864E+06    -110.459E+06    -7.02084E+06     3.05255E+06    -289.064E-03     578.678E-03    -289.615E-03     24.2330E-03    -289.280E-03     578.257E-03    -289.381E-03     24.5978E-03
             453     6.73886E-03     113.123E-03    -67.3830E+06    -82.0466E+06     7.53638E+06     3.62945E+06    -289.018E-03     578.611E-03    -289.593E-03     26.8122E-03    -289.268E-03     578.308E-03    -289.338E-03     26.7451E-03
             454     7.41296E-03     113.172E-03    -59.9023E+06    -47.8952E+06     21.6192E+06     4.42252E+06    -288.967E-03     578.529E-03    -289.562E-03     29.3651E-03    -289.261E-03     578.378E-03    -289.297E-03     28.7614E-03
             455     8.08719E-03     113.225E-03    -52.7094E+06    -5.24024E+06     36.1305E+06     5.46170E+06    -288.853E-03     578.374E-03    -289.521E-03     31.8516E-03    -289.210E-03     578.421E-03    -289.256E-03     30.6063E-03
             456     8.76153E-03     113.280E-03    -46.2376E+06     27.2691E+06     47.6701E+06     5.70275E+06    -288.743E-03     578.223E-03    -289.479E-03     34.3019E-03    -289.153E-03     578.427E-03    -289.214E-03     32.2860E-03
             457     9.43582E-03     113.338E-03    -39.8948E+06     48.2550E+06     58.2640E+06     4.75870E+06    -288.648E-03     578.097E-03    -289.449E-03     36.5614E-03    -289.099E-03     578.408E-03    -289.169E-03     33.6659E-03
             458     10.1106E-03     113.399E-03    -32.5424E+06     65.1105E+06     72.1066E+06     3.71660E+06    -288.573E-03     578.012E-03    -289.439E-03     38.3204E-03    -289.061E-03     578.407E-03    -289.126E-03     34.4924E-03
             459     10.7852E-03     113.460E-03    -24.8884E+06     72.6603E+06     86.8620E+06     2.80472E+06    -288.592E-03     578.044E-03    -289.452E-03     39.2763E-03    -289.105E-03     578.474E-03    -289.087E-03     34.5441E-03
             460     11.4595E-03     113.521E-03    -18.3492E+06     77.0837E+06     99.7087E+06     1.32375E+06    -288.593E-03     578.061E-03    -289.468E-03     39.0060E-03    -289.119E-03     578.507E-03    -289.055E-03     33.5044E-03
             461     12.1342E-03     113.579E-03    -11.9653E+06     81.6687E+06     106.212E+06    -82.3511E+03    -288.615E-03     578.075E-03    -289.460E-03     38.7050E-03    -289.157E-03     578.557E-03    -289.030E-03     32.2284E-03
             462     12.8082E-03     113.636E-03    -5.62254E+06     86.5795E+06     106.157E+06    -255.395E+03    -288.566E-03     577.990E-03    -289.424E-03     32.5992E-03    -289.039E-03     578.443E-03    -289.011E-03     26.7136E-03
             463     673.743E-06     114.566E-03    -123.837E+06    -261.762E+06    -121.948E+06     195.230E+03    -289.425E-03     578.983E-03    -289.558E-03     3.09383E-03    -289.488E-03     578.031E-03    -289.609E-03     3.39246E-03
             464     1.34746E-03     114.574E-03    -121.158E+06    -253.430E+06    -114.597E+06     448.285E+03    -289.437E-03     578.941E-03    -289.504E-03     5.55885E-03    -289.509E-03     578.016E-03    -289.534E-03     6.08237E-03
             465     2.02128E-03     114.587E-03    -117.195E+06    -240.569E+06    -103.277E+06     694.189E+03    -289.363E-03     578.872E-03    -289.509E-03     8.23794E-03    -289.450E-03     577.989E-03    -289.507E-03     8.96045E-03
             466     2.69515E-03     114.606E-03    -111.929E+06    -224.274E+06    -88.8687E+06     917.525E+03    -289.306E-03     578.823E-03    -289.517E-03     10.9340E-03    -289.412E-03     577.993E-03    -289.474E-03     11.8091E-03
             467     3.36906E-03     114.629E-03    -105.661E+06    -205.228E+06    -72.6758E+06     1.13479E+06    -289.251E-03     578.779E-03    -289.528E-03     13.6332E-03    -289.377E-03     578.012E-03    -289.441E-03     14.5913E-03
             468     4.04299E-03     114.657E-03    -98.7172E+06    -184.366E+06    -55.8271E+06     1.36110E+06    -289.187E-03     578.724E-03    -289.537E-03     16.3162E-03    -289.334E-03     578.028E-03    -289.406E-03     17.2753E-03
             469     4.71700E-03     114.690E-03    -91.3440E+06    -161.979E+06    -39.1925E+06     1.67564E+06    -289.116E-03     578.655E-03    -289.539E-03     18.9833E-03    -289.285E-03     578.039E-03    -289.368E-03     19.8505E-03
             470     5.39115E-03     114.727E-03    -83.7695E+06    -138.143E+06    -23.2657E+06     2.16401E+06    -289.045E-03     578.578E-03    -289.533E-03     21.6123E-03    -289.237E-03     578.050E-03    -289.328E-03     22.2802E-03
             471     6.06529E-03     114.768E-03    -76.0768E+06    -112.683E+06    -8.16925E+06     2.72988E+06    -289.002E-03     578.522E-03    -289.520E-03     24.2366E-03    -289.220E-03     578.093E-03    -289.287E-03     24.5952E-03
             472     6.73941E-03     114.813E-03    -68.3759E+06    -84.4860E+06     6.26690E+06     3.36468E+06    -288.982E-03     578.483E-03    -289.501E-03     26.8505E-03    -289.231E-03     578.171E-03    -289.248E-03     26.7876E-03
             473     7.41366E-03     114.862E-03     -60.759E+06    -50.9836E+06     20.3883E+06     4.13437E+06    -288.924E-03     578.400E-03    -289.476E-03     29.4213E-03    -289.216E-03     578.236E-03    -289.212E-03     28.8177E-03
             474     8.08795E-03     114.915E-03    -53.0759E+06    -9.94136E+06     34.7904E+06     5.42291E+06    -288.808E-03     578.248E-03    -289.439E-03     31.8771E-03    -289.159E-03     578.273E-03    -289.174E-03     30.6287E-03
             475     8.76231E-03     114.970E-03    -45.5095E+06     25.9728E+06     47.6905E+06     6.65421E+06    -288.723E-03     578.124E-03    -289.401E-03     34.2468E-03    -289.128E-03     578.321E-03    -289.134E-03     32.2348E-03
             476     9.43681E-03     115.029E-03    -38.4426E+06     52.0101E+06     60.1795E+06     5.88894E+06    -288.686E-03     578.064E-03    -289.378E-03     36.4198E-03    -289.138E-03     578.389E-03    -289.097E-03     33.5168E-03
             477     10.1110E-03     115.089E-03    -31.8485E+06     68.3830E+06     73.5668E+06     3.66377E+06    -288.662E-03     578.040E-03    -289.378E-03     38.0936E-03    -289.155E-03     578.449E-03    -289.063E-03     34.2445E-03
             478     10.7852E-03     115.150E-03    -24.9432E+06     75.0621E+06     87.5078E+06     2.10872E+06    -288.614E-03     578.011E-03    -289.397E-03     39.0356E-03    -289.132E-03     578.453E-03    -289.032E-03     34.2605E-03
             479     11.4598E-03     115.211E-03    -17.3322E+06     79.7055E+06     101.363E+06     1.31523E+06    -288.596E-03     578.017E-03    -289.421E-03     38.8896E-03    -289.123E-03     578.472E-03    -289.005E-03     33.3897E-03
             480     12.1336E-03     115.269E-03    -11.0961E+06     84.3909E+06     108.388E+06     553.912E+03    -288.577E-03     577.994E-03    -289.418E-03     38.7816E-03    -289.120E-03     578.483E-03    -288.982E-03     32.3773E-03
             481     12.8083E-03     115.326E-03    -6.54059E+06     86.8217E+06     106.479E+06     451.194E+03    -288.520E-03     577.899E-03    -289.379E-03     32.8342E-03    -288.998E-03     578.353E-03    -288.963E-03     27.0009E-03
             482     673.776E-06     116.256E-03    -125.022E+06    -262.988E+06    -123.207E+06     367.633E+03    -289.362E-03     578.746E-03    -289.384E-03     3.12831E-03    -289.427E-03     577.790E-03    -289.437E-03     3.42316E-03
             483     1.34766E-03     116.264E-03    -122.553E+06    -254.517E+06    -115.617E+06     512.681E+03    -289.310E-03     578.695E-03    -289.385E-03     5.59761E-03    -289.386E-03     577.768E-03    -289.416E-03     6.11747E-03
             484     2.02153E-03     116.277E-03    -118.492E+06    -241.549E+06    -104.142E+06     661.156E+03    -289.261E-03     578.654E-03    -289.392E-03     8.26412E-03    -289.352E-03     577.769E-03    -289.391E-03     8.98587E-03
             485     2.69545E-03     116.296E-03    -113.203E+06    -225.163E+06    -89.7103E+06     804.045E+03    -289.199E-03     578.604E-03    -289.405E-03     10.9689E-03    -289.309E-03     577.772E-03    -289.362E-03     11.8404E-03
             486     3.36943E-03     116.319E-03    -106.955E+06    -206.225E+06    -73.5396E+06     991.624E+03    -289.145E-03     578.563E-03    -289.417E-03     13.6517E-03    -289.275E-03     577.794E-03    -289.331E-03     14.6066E-03
             487     4.04348E-03     116.347E-03    -99.9970E+06    -185.483E+06    -56.7296E+06     1.20907E+06    -289.100E-03     578.530E-03    -289.429E-03     16.3146E-03    -289.251E-03     577.831E-03    -289.299E-03     17.2679E-03
             488     4.71754E-03     116.379E-03    -92.5796E+06    -163.279E+06    -40.1363E+06     1.42864E+06    -289.052E-03     578.488E-03    -289.436E-03     18.9557E-03    -289.224E-03     577.868E-03    -289.266E-03     19.8115E-03
             489     5.39162E-03     116.416E-03    -84.8508E+06    -139.761E+06    -24.2521E+06     1.67976E+06    -289.010E-03     578.447E-03    -289.437E-03     21.5589E-03    -289.204E-03     577.914E-03    -289.232E-03     22.2171E-03
             490     6.06579E-03     116.458E-03    -76.9913E+06    -114.545E+06    -9.18255E+06     2.00053E+06    -288.976E-03     578.406E-03    -289.431E-03     24.1640E-03    -289.194E-03     577.971E-03    -289.199E-03     24.5113E-03
             491     6.74007E-03     116.503E-03    -69.0897E+06    -86.6369E+06     5.31235E+06     2.39804E+06    -288.934E-03     578.353E-03    -289.418E-03     26.7581E-03    -289.183E-03     578.033E-03    -289.166E-03     26.6809E-03
             492     7.41428E-03     116.552E-03    -61.2435E+06    -54.6423E+06     19.4299E+06     3.33362E+06    -288.890E-03     578.288E-03    -289.398E-03     29.2753E-03    -289.178E-03     578.109E-03    -289.133E-03     28.6549E-03
             493     8.08857E-03     116.605E-03    -53.9032E+06    -15.2468E+06     33.5957E+06     4.98345E+06    -288.826E-03     578.196E-03    -289.369E-03     31.6737E-03    -289.171E-03     578.198E-03    -289.101E-03     30.4094E-03
             494     8.76290E-03     116.660E-03    -46.6095E+06     23.9616E+06     46.5446E+06     5.80724E+06    -288.757E-03     578.092E-03    -289.335E-03     34.0116E-03    -289.163E-03     578.283E-03    -289.070E-03     31.9779E-03
             495     9.43713E-03     116.719E-03    -38.9393E+06     55.3785E+06     58.2715E+06     5.14648E+06    -288.702E-03     578.008E-03    -289.307E-03     36.2437E-03    -289.158E-03     578.354E-03    -289.039E-03     33.3288E-03
             496     10.1116E-03     116.779E-03    -31.3608E+06     71.9533E+06     72.4097E+06     4.08043E+06    -288.661E-03     577.974E-03    -289.313E-03     38.1088E-03    -289.155E-03     578.402E-03    -289.010E-03     34.2707E-03
             497     10.7860E-03     116.840E-03    -24.5324E+06     77.2001E+06     88.3115E+06     2.79227E+06    -288.590E-03     577.937E-03    -289.347E-03     39.1940E-03    -289.110E-03     578.387E-03    -288.982E-03     34.4426E-03
             498     11.4604E-03     116.901E-03    -18.3804E+06     80.9627E+06     101.552E+06     1.70062E+06    -288.496E-03     577.867E-03    -289.371E-03     39.1189E-03    -289.031E-03     578.329E-03    -288.954E-03     33.6512E-03
             499     12.1354E-03     116.960E-03    -11.7558E+06     84.4008E+06     108.401E+06     1.57331E+06    -288.451E-03     577.814E-03    -289.364E-03     38.8978E-03    -288.997E-03     578.305E-03    -288.927E-03     32.5060E-03
             500     12.8096E-03     117.016E-03    -5.49337E+06     88.4408E+06     108.227E+06     1.29497E+06    -288.418E-03     577.744E-03    -289.326E-03     32.9089E-03    -288.897E-03     578.203E-03    -288.905E-03     27.0404E-03
             501     673.937E-06     117.946E-03    -125.914E+06    -264.599E+06    -124.095E+06     464.679E+03    -289.184E-03     578.444E-03    -289.261E-03     3.04794E-03    -289.250E-03     577.484E-03    -289.315E-03     3.33202E-03
             502     1.34785E-03     117.954E-03    -123.259E+06    -255.573E+06    -116.321E+06     639.408E+03    -289.191E-03     578.432E-03    -289.241E-03     5.62236E-03    -289.268E-03     577.501E-03    -289.273E-03     6.14195E-03
             503     2.02179E-03     117.967E-03    -119.095E+06    -242.541E+06    -104.539E+06     802.671E+03    -289.171E-03     578.433E-03    -289.262E-03     8.28153E-03    -289.263E-03     577.544E-03    -289.261E-03     9.00426E-03
             504     2.69579E-03     117.985E-03    -113.811E+06    -226.076E+06    -90.0301E+06     976.452E+03    -289.131E-03     578.419E-03    -289.288E-03     10.9540E-03    -289.242E-03     577.584E-03    -289.245E-03     11.8270E-03
             505     3.36982E-03     118.008E-03    -107.624E+06    -207.041E+06    -73.8987E+06     1.12627E+06    -289.085E-03     578.397E-03    -289.312E-03     13.5996E-03    -289.217E-03     577.625E-03    -289.225E-03     14.5561E-03
             506     4.04385E-03     118.036E-03    -100.716E+06    -186.321E+06    -57.1247E+06     1.21355E+06    -289.043E-03     578.375E-03    -289.332E-03     16.2285E-03    -289.195E-03     577.674E-03    -289.201E-03     17.1793E-03
             507     4.71797E-03     118.069E-03    -93.3492E+06    -164.129E+06    -40.5363E+06     1.32908E+06    -289.013E-03     578.360E-03    -289.347E-03     18.8473E-03    -289.187E-03     577.737E-03    -289.176E-03     19.7001E-03
             508     5.39213E-03     118.106E-03    -85.8410E+06    -140.657E+06    -24.5901E+06     1.45088E+06    -288.994E-03     578.350E-03    -289.356E-03     21.4571E-03    -289.191E-03     577.814E-03    -289.151E-03     22.1133E-03
             509     6.06627E-03     118.147E-03    -78.2665E+06    -115.509E+06    -9.51639E+06     1.51934E+06    -288.967E-03     578.326E-03    -289.359E-03     24.0625E-03    -289.190E-03     577.888E-03    -289.126E-03     24.4035E-03
             510     6.74040E-03     118.193E-03    -70.7163E+06    -88.2253E+06     4.63176E+06     1.76201E+06    -288.929E-03     578.283E-03    -289.354E-03     26.6443E-03    -289.183E-03     577.959E-03    -289.100E-03     26.5547E-03
             511     7.41470E-03     118.242E-03    -63.1359E+06    -57.4944E+06     18.2052E+06     2.15495E+06    -288.891E-03     578.231E-03    -289.340E-03     29.1485E-03    -289.183E-03     578.042E-03    -289.074E-03     28.5182E-03
             512     8.08895E-03     118.295E-03    -54.8169E+06    -20.5920E+06     32.0515E+06     3.22091E+06    -288.835E-03     578.152E-03    -289.317E-03     31.5798E-03    -289.174E-03     578.130E-03    -289.047E-03     30.3048E-03
             513     8.76320E-03     118.350E-03    -46.3386E+06     22.0178E+06     45.9359E+06     4.45039E+06    -288.742E-03     578.026E-03    -289.285E-03     34.0052E-03    -289.142E-03     578.207E-03    -289.020E-03     31.9708E-03
             514     9.43765E-03     118.409E-03    -38.8857E+06     57.5636E+06     58.3745E+06     4.16038E+06    -288.640E-03     577.894E-03    -289.255E-03     36.2753E-03    -289.099E-03     578.250E-03    -288.990E-03     33.3705E-03
             515     10.1120E-03     118.469E-03    -32.1421E+06     72.4740E+06     71.3889E+06     3.56161E+06    -288.560E-03     577.817E-03    -289.257E-03     38.0574E-03    -289.056E-03     578.250E-03    -288.958E-03     34.2278E-03
             516     10.7866E-03     118.530E-03    -25.3859E+06     77.7550E+06     87.1509E+06     4.01359E+06    -288.494E-03     577.781E-03    -289.287E-03     39.0319E-03    -289.016E-03     578.237E-03    -288.928E-03     34.3191E-03
             517     11.4611E-03     118.591E-03    -18.8355E+06     83.6941E+06     102.201E+06     3.70223E+06    -288.415E-03     577.730E-03    -289.315E-03     39.0032E-03    -288.956E-03     578.205E-03    -288.898E-03     33.5590E-03
             518     12.1350E-03     118.649E-03    -12.4362E+06     86.1845E+06     109.401E+06     1.91806E+06    -288.370E-03     577.681E-03    -289.311E-03     38.9062E-03    -288.925E-03     578.180E-03    -288.871E-03     32.4928E-03
             519     12.8098E-03     118.706E-03    -5.73022E+06     89.7664E+06     109.358E+06     954.072E+03    -288.223E-03     577.493E-03    -289.270E-03     32.9747E-03    -288.708E-03     577.959E-03    -288.845E-03     27.0640E-03
             520     674.010E-06     119.635E-03    -125.750E+06    -266.323E+06    -123.854E+06     377.200E+03    -289.054E-03     578.208E-03    -289.154E-03     3.05546E-03    -289.117E-03     577.238E-03    -289.205E-03     3.34511E-03
             521     1.34806E-03     119.643E-03    -123.066E+06    -257.001E+06    -116.438E+06     736.624E+03    -289.099E-03     578.224E-03    -289.126E-03     5.53814E-03    -289.172E-03     577.286E-03    -289.157E-03     6.06328E-03
             522     2.02209E-03     119.656E-03    -119.154E+06    -243.910E+06    -104.763E+06     1.06245E+06    -289.089E-03     578.245E-03    -289.156E-03     8.17844E-03    -289.179E-03     577.350E-03    -289.154E-03     8.90843E-03
             523     2.69608E-03     119.675E-03    -113.924E+06    -227.286E+06    -90.0153E+06     1.33639E+06    -289.072E-03     578.263E-03    -289.192E-03     10.8485E-03    -289.181E-03     577.422E-03    -289.147E-03     11.7328E-03
             524     3.37008E-03     119.698E-03    -107.671E+06    -208.005E+06    -73.5824E+06     1.53797E+06    -289.036E-03     578.261E-03    -289.225E-03     13.5219E-03    -289.166E-03     577.484E-03    -289.135E-03     14.4891E-03
             525     4.04420E-03     119.726E-03    -100.822E+06    -187.150E+06    -56.6430E+06     1.71915E+06    -289.002E-03     578.255E-03    -289.254E-03     16.1743E-03    -289.154E-03     577.550E-03    -289.119E-03     17.1414E-03
             526     4.71829E-03     119.758E-03    -93.6856E+06    -164.868E+06    -40.0654E+06     1.83617E+06    -288.979E-03     578.254E-03    -289.275E-03     18.8122E-03    -289.154E-03     577.627E-03    -289.100E-03     19.6847E-03
             527     5.39240E-03     119.796E-03    -86.2964E+06    -141.366E+06    -24.2515E+06     1.91797E+06    -288.952E-03     578.242E-03    -289.289E-03     21.4447E-03    -289.151E-03     577.702E-03    -289.080E-03     22.1198E-03
             528     6.06659E-03     119.837E-03    -78.9265E+06    -116.238E+06    -9.40162E+06     2.09295E+06    -288.932E-03     578.227E-03    -289.295E-03     24.0920E-03    -289.157E-03     577.786E-03    -289.059E-03     24.4617E-03
             529     6.74085E-03     119.882E-03    -71.6588E+06    -89.2009E+06     4.55114E+06     2.21871E+06    -288.918E-03     578.212E-03    -289.294E-03     26.7362E-03    -289.175E-03     577.884E-03    -289.038E-03     26.6750E-03
             530     7.41500E-03     119.932E-03    -64.4602E+06    -58.3531E+06     17.9451E+06     2.22889E+06    -288.873E-03     578.156E-03    -289.284E-03     29.3076E-03    -289.169E-03     577.965E-03    -289.016E-03     28.6999E-03
             531     8.08929E-03     119.984E-03    -57.5957E+06    -22.6402E+06     30.9498E+06     1.90777E+06    -288.780E-03     578.043E-03    -289.262E-03     31.7861E-03    -289.129E-03     578.017E-03    -288.991E-03     30.5170E-03
             532     8.76374E-03     120.040E-03    -50.1664E+06     19.3988E+06     44.1327E+06     1.90463E+06    -288.660E-03     577.888E-03    -289.228E-03     34.2233E-03    -289.073E-03     578.064E-03    -288.963E-03     32.1699E-03
             533     9.43813E-03     120.098E-03    -42.2415E+06     56.6412E+06     56.5173E+06     3.04510E+06    -288.560E-03     577.753E-03    -289.194E-03     36.4546E-03    -289.032E-03     578.112E-03    -288.932E-03     33.5403E-03
             534     10.1126E-03     120.159E-03    -35.0292E+06     72.0495E+06     69.6643E+06     3.84399E+06    -288.507E-03     577.702E-03    -289.195E-03     38.2366E-03    -289.014E-03     578.139E-03    -288.900E-03     34.4200E-03
             535     10.7871E-03     120.220E-03    -27.9325E+06     77.3334E+06     85.4789E+06     3.38435E+06    -288.421E-03     577.646E-03    -289.225E-03     39.2394E-03    -288.953E-03     578.106E-03    -288.870E-03     34.5254E-03
             536     11.4616E-03     120.281E-03    -19.7968E+06     85.2984E+06     101.645E+06     2.82153E+06    -288.256E-03     577.506E-03    -289.250E-03     39.2010E-03    -288.804E-03     577.991E-03    -288.837E-03     33.7594E-03
             537     12.1368E-03     120.339E-03    -12.0287E+06     88.8252E+06     110.537E+06     2.77484E+06    -288.091E-03     577.333E-03    -289.242E-03     39.3445E-03    -288.651E-03     577.845E-03    -288.801E-03     32.9581E-03
             538     12.8110E-03     120.396E-03    -5.65905E+06     92.1960E+06     110.788E+06     1.19980E+06    -288.038E-03     577.232E-03    -289.194E-03     33.4723E-03    -288.530E-03     577.709E-03    -288.766E-03     27.5600E-03
             539     674.068E-06     121.324E-03    -125.786E+06    -268.129E+06    -124.243E+06     337.343E+03    -289.093E-03     578.100E-03    -289.007E-03     3.01346E-03    -289.153E-03     577.122E-03    -289.057E-03     3.31087E-03
             540     1.34807E-03     121.332E-03    -123.445E+06    -259.110E+06    -116.608E+06     889.783E+03    -289.027E-03     578.097E-03    -289.070E-03     5.47409E-03    -289.099E-03     577.149E-03    -289.098E-03     6.00874E-03
             541     2.02211E-03     121.345E-03    -119.359E+06    -245.572E+06    -104.823E+06     1.29598E+06    -289.000E-03     578.092E-03    -289.092E-03     8.13744E-03    -289.089E-03     577.190E-03    -289.087E-03     8.88254E-03
             542     2.69622E-03     121.364E-03    -114.019E+06    -228.827E+06    -89.9449E+06     1.62036E+06    -288.971E-03     578.092E-03    -289.121E-03     10.8283E-03    -289.079E-03     577.243E-03    -289.073E-03     11.7303E-03
             543     3.37037E-03     121.387E-03    -107.680E+06    -209.552E+06    -73.3118E+06     1.97593E+06    -288.949E-03     578.100E-03    -289.151E-03     13.5295E-03    -289.078E-03     577.315E-03    -289.057E-03     14.5195E-03
             544     4.04446E-03     121.415E-03    -100.649E+06    -188.444E+06    -56.1006E+06     2.26823E+06    -288.929E-03     578.107E-03    -289.179E-03     16.2178E-03    -289.079E-03     577.394E-03    -289.040E-03     17.2148E-03
             545     4.71865E-03     121.448E-03    -93.2792E+06    -165.973E+06    -39.3122E+06     2.48858E+06    -288.902E-03     578.103E-03    -289.201E-03     18.9073E-03    -289.074E-03     577.469E-03    -289.021E-03     19.8142E-03
             546     5.39286E-03     121.485E-03    -85.7837E+06    -142.407E+06    -23.4384E+06     2.73738E+06    -288.890E-03     578.106E-03    -289.215E-03     21.5789E-03    -289.086E-03     577.559E-03    -289.001E-03     22.2953E-03
             547     6.06711E-03     121.526E-03    -78.2749E+06    -117.347E+06    -8.50770E+06     3.03531E+06    -288.879E-03     578.102E-03    -289.223E-03     24.2252E-03    -289.100E-03     577.653E-03    -288.982E-03     24.6363E-03
             548     6.74131E-03     121.572E-03    -70.8815E+06    -90.0041E+06     5.69326E+06     3.23303E+06    -288.845E-03     578.068E-03    -289.223E-03     26.8848E-03    -289.097E-03     577.732E-03    -288.961E-03     26.8682E-03
             549     7.41567E-03     121.621E-03    -63.5840E+06    -59.0389E+06     19.3525E+06     3.35057E+06    -288.792E-03     578.005E-03    -289.213E-03     29.4946E-03    -289.085E-03     577.806E-03    -288.938E-03     28.9324E-03
             550     8.09002E-03     121.674E-03    -56.3295E+06    -21.6320E+06     33.1785E+06     3.17455E+06    -288.708E-03     577.900E-03    -289.192E-03     32.0134E-03    -289.054E-03     577.874E-03    -288.913E-03     30.7819E-03
             551     8.76434E-03     121.729E-03    -49.5476E+06     21.2672E+06     46.5838E+06     1.83133E+06    -288.593E-03     577.751E-03    -289.159E-03     34.5134E-03    -289.009E-03     577.932E-03    -288.885E-03     32.4760E-03
             552     9.43886E-03     121.788E-03    -42.5113E+06     52.3267E+06     57.6244E+06     1.49151E+06    -288.521E-03     577.650E-03    -289.129E-03     36.7662E-03    -288.990E-03     577.986E-03    -288.855E-03     33.8457E-03
             553     10.1134E-03     121.848E-03    -34.5739E+06     69.0313E+06     69.7997E+06     3.11626E+06    -288.478E-03     577.603E-03    -289.124E-03     38.4685E-03    -288.980E-03     578.024E-03    -288.825E-03     34.6465E-03
             554     10.7880E-03     121.910E-03    -26.9644E+06     79.9426E+06     85.4578E+06     3.14686E+06    -288.408E-03     577.556E-03    -289.148E-03     39.3975E-03    -288.941E-03     578.029E-03    -288.797E-03     34.6578E-03
             555     11.4626E-03     121.970E-03    -20.2278E+06     86.1867E+06     100.996E+06     1.81329E+06    -288.264E-03     577.442E-03    -289.178E-03     39.1027E-03    -288.816E-03     577.936E-03    -288.769E-03     33.5865E-03
             556     12.1370E-03     122.028E-03    -13.0999E+06     89.3727E+06     109.724E+06     1.35579E+06    -288.054E-03     577.229E-03    -289.175E-03     38.6504E-03    -288.620E-03     577.747E-03    -288.737E-03     32.1472E-03
             557     12.8127E-03     122.084E-03    -5.07557E+06     94.6727E+06     111.616E+06     731.752E+03    -288.045E-03     577.179E-03    -289.134E-03     32.5929E-03    -288.538E-03     577.666E-03    -288.706E-03     26.6110E-03
             558     674.014E-06     123.012E-03    -126.716E+06    -269.993E+06    -124.691E+06     433.186E+03    -289.080E-03     577.994E-03    -288.914E-03     3.03005E-03    -289.141E-03     577.008E-03    -288.962E-03     3.32979E-03
             559     1.34815E-03     123.021E-03    -123.802E+06    -261.247E+06    -116.604E+06     749.795E+03    -288.941E-03     577.953E-03    -289.012E-03     5.56567E-03    -289.012E-03     576.995E-03    -289.037E-03     6.10022E-03
             560     2.02230E-03     123.034E-03    -119.427E+06    -247.681E+06    -104.614E+06     1.26846E+06    -288.902E-03     577.926E-03    -289.024E-03     8.24030E-03    -288.988E-03     577.013E-03    -289.015E-03     8.99729E-03
             561     2.69645E-03     123.052E-03    -113.902E+06    -230.668E+06    -89.6682E+06     1.72963E+06    -288.868E-03     577.912E-03    -289.044E-03     10.9187E-03    -288.973E-03     577.054E-03    -288.993E-03     11.8393E-03
             562     3.37062E-03     123.076E-03    -107.396E+06    -211.260E+06    -72.9270E+06     2.04162E+06    -288.837E-03     577.905E-03    -289.068E-03     13.6238E-03    -288.962E-03     577.110E-03    -288.970E-03     14.6350E-03
             563     4.04487E-03     123.104E-03    -100.145E+06    -190.083E+06    -55.5768E+06     2.35239E+06    -288.819E-03     577.910E-03    -289.091E-03     16.3282E-03    -288.964E-03     577.186E-03    -288.948E-03     17.3514E-03
             564     4.71911E-03     123.137E-03    -92.4315E+06    -167.638E+06    -38.4623E+06     2.70794E+06    -288.817E-03     577.929E-03    -289.112E-03     18.9998E-03    -288.983E-03     577.284E-03    -288.927E-03     19.9384E-03
             565     5.39340E-03     123.174E-03    -84.6164E+06    -143.870E+06    -22.1372E+06     3.06534E+06    -288.812E-03     577.941E-03    -289.129E-03     21.6624E-03    -289.001E-03     577.383E-03    -288.908E-03     22.4104E-03
             566     6.06761E-03     123.215E-03    -76.7730E+06    -118.631E+06    -6.76601E+06     3.28031E+06    -288.792E-03     577.930E-03    -289.138E-03     24.3501E-03    -289.006E-03     577.470E-03    -288.888E-03     24.7826E-03
             567     6.74198E-03     123.261E-03    -68.8688E+06    -91.1498E+06     7.71668E+06     3.48793E+06    -288.756E-03     577.894E-03    -289.138E-03     27.0235E-03    -289.000E-03     577.547E-03    -288.867E-03     27.0296E-03
             568     7.41633E-03     123.310E-03    -61.0307E+06    -59.7483E+06     21.7035E+06     3.54496E+06    -288.692E-03     577.819E-03    -289.127E-03     29.6044E-03    -288.973E-03     577.608E-03    -288.843E-03     29.0697E-03
             569     8.09076E-03     123.363E-03    -53.2408E+06    -21.5130E+06     35.8191E+06     3.38034E+06    -288.605E-03     577.708E-03    -289.104E-03     32.1438E-03    -288.940E-03     577.674E-03    -288.816E-03     30.9361E-03
             570     8.76535E-03     123.419E-03    -45.7477E+06     24.4822E+06     50.4326E+06     2.98798E+06    -288.516E-03     577.586E-03    -289.070E-03     34.6492E-03    -288.922E-03     577.771E-03    -288.787E-03     32.6500E-03
             571     9.43986E-03     123.477E-03    -39.0392E+06     50.1413E+06     61.6805E+06     2.69705E+06    -288.512E-03     577.564E-03    -289.052E-03     36.9126E-03    -288.966E-03     577.879E-03    -288.760E-03     34.0257E-03
             572     10.1143E-03     123.538E-03    -32.7164E+06     65.3783E+06     73.2057E+06     3.01019E+06    -288.514E-03     577.569E-03    -289.055E-03     38.6402E-03    -289.006E-03     577.965E-03    -288.736E-03     34.8041E-03
             573     10.7888E-03     123.599E-03    -25.8929E+06     82.3434E+06     87.9146E+06     3.03280E+06    -288.456E-03     577.530E-03    -289.074E-03     39.5308E-03    -288.992E-03     578.011E-03    -288.716E-03     34.7614E-03
             574     11.4632E-03     123.659E-03    -18.4741E+06     88.0573E+06     102.477E+06     2.49132E+06    -288.473E-03     577.584E-03    -289.111E-03     39.2511E-03    -289.023E-03     578.084E-03    -288.699E-03     33.6924E-03
             575     12.1379E-03     123.717E-03    -11.9395E+06     92.0222E+06     111.174E+06     1.53882E+06    -288.492E-03     577.621E-03    -289.129E-03     38.8030E-03    -289.060E-03     578.151E-03    -288.689E-03     32.2384E-03
             576     12.8113E-03     123.773E-03    -6.15605E+06     96.4034E+06     111.283E+06     336.242E+03    -288.222E-03     577.325E-03    -289.103E-03     32.7218E-03    -288.724E-03     577.825E-03    -288.677E-03     26.6825E-03
             577     674.173E-06     124.701E-03    -127.227E+06    -271.623E+06    -125.294E+06     430.679E+03    -288.906E-03     577.750E-03    -288.844E-03     3.04838E-03    -288.966E-03     576.758E-03    -288.892E-03     3.35665E-03
             578     1.34831E-03     124.709E-03    -124.439E+06    -263.103E+06    -117.217E+06     665.113E+03    -288.843E-03     577.738E-03    -288.895E-03     5.64547E-03    -288.913E-03     576.773E-03    -288.919E-03     6.19060E-03
             579     2.02249E-03     124.722E-03    -120.109E+06    -249.779E+06    -105.072E+06     1.07246E+06    -288.809E-03     577.724E-03    -288.915E-03     8.33019E-03    -288.895E-03     576.802E-03    -288.904E-03     9.09839E-03
             580     2.69672E-03     124.741E-03    -114.321E+06    -232.471E+06    -89.7940E+06     1.42015E+06    -288.773E-03     577.713E-03    -288.940E-03     11.0222E-03    -288.877E-03     576.846E-03    -288.886E-03     11.9507E-03
             581     3.37099E-03     124.764E-03    -107.552E+06    -212.811E+06    -72.7596E+06     1.71202E+06    -288.741E-03     577.707E-03    -288.966E-03     13.7159E-03    -288.865E-03     576.904E-03    -288.865E-03     14.7354E-03
             582     4.04530E-03     124.792E-03    -100.176E+06    -191.641E+06    -55.2240E+06     1.99900E+06    -288.729E-03     577.721E-03    -288.992E-03     16.3939E-03    -288.873E-03     576.989E-03    -288.845E-03     17.4275E-03
             583     4.71962E-03     124.825E-03    -92.3016E+06    -169.223E+06    -37.9193E+06     2.29021E+06    -288.730E-03     577.746E-03    -289.015E-03     19.0606E-03    -288.895E-03     577.091E-03    -288.826E-03     20.0121E-03
             584     5.39387E-03     124.863E-03    -84.1887E+06    -145.402E+06    -21.4112E+06     2.54746E+06    -288.706E-03     577.739E-03    -289.032E-03     21.7337E-03    -288.892E-03     577.171E-03    -288.806E-03     22.4888E-03
             585     6.06835E-03     124.904E-03    -76.0361E+06    -120.113E+06    -5.90444E+06     2.79629E+06    -288.679E-03     577.719E-03    -289.040E-03     24.4213E-03    -288.888E-03     577.249E-03    -288.785E-03     24.8651E-03
             586     6.74271E-03     124.950E-03    -68.1378E+06    -92.5278E+06     8.62006E+06     3.10367E+06    -288.662E-03     577.702E-03    -289.039E-03     27.0804E-03    -288.901E-03     577.345E-03    -288.763E-03     27.0982E-03
             587     7.41715E-03     124.999E-03    -60.6547E+06    -60.8581E+06     22.6013E+06     3.50945E+06    -288.618E-03     577.648E-03    -289.030E-03     29.6352E-03    -288.898E-03     577.431E-03    -288.741E-03     29.1055E-03
             588     8.09170E-03     125.052E-03    -53.6577E+06    -22.5496E+06     36.5404E+06     3.98374E+06    -288.564E-03     577.574E-03    -289.011E-03     32.0935E-03    -288.900E-03     577.534E-03    -288.717E-03     30.9003E-03
             589     8.76617E-03     125.107E-03    -47.0430E+06     23.9312E+06     50.6873E+06     4.49209E+06    -288.499E-03     577.480E-03    -288.981E-03     34.4614E-03    -288.912E-03     577.664E-03    -288.694E-03     32.4856E-03
             590     9.44077E-03     125.166E-03    -40.4690E+06     50.2906E+06     61.5984E+06     4.53878E+06    -288.495E-03     577.462E-03    -288.967E-03     36.6181E-03    -288.956E-03     577.779E-03    -288.673E-03     33.7528E-03
             591     10.1154E-03     125.227E-03    -33.7725E+06     65.8768E+06     74.8805E+06     3.62748E+06    -288.510E-03     577.494E-03    -288.984E-03     38.3668E-03    -289.010E-03     577.891E-03    -288.656E-03     34.5396E-03
             592     10.7898E-03     125.288E-03    -26.5600E+06     83.7307E+06     90.3430E+06     2.63115E+06    -288.506E-03     577.518E-03    -289.012E-03     39.3084E-03    -289.050E-03     578.002E-03    -288.643E-03     34.5180E-03
             593     11.4643E-03     125.349E-03    -19.2090E+06     88.9833E+06     102.875E+06     2.07481E+06    -288.529E-03     577.577E-03    -289.048E-03     39.1570E-03    -289.084E-03     578.081E-03    -288.635E-03     33.6016E-03
             594     12.1384E-03     125.407E-03    -12.1657E+06     93.8110E+06     111.686E+06     1.64861E+06    -288.510E-03     577.581E-03    -289.070E-03     39.0288E-03    -289.084E-03     578.121E-03    -288.630E-03     32.4551E-03
             595     12.8134E-03     125.463E-03    -6.40482E+06     98.8512E+06     112.338E+06     1.37075E+06    -288.320E-03     577.372E-03    -289.052E-03     33.0444E-03    -288.831E-03     577.885E-03    -288.624E-03     27.0047E-03
             596     674.265E-06     126.389E-03    -128.460E+06    -273.337E+06    -126.534E+06     380.494E+03    -288.728E-03     577.471E-03    -288.743E-03     3.05909E-03    -288.790E-03     576.474E-03    -288.793E-03     3.37077E-03
             597     1.34854E-03     126.397E-03    -125.708E+06    -264.452E+06    -118.407E+06     662.723E+03    -288.730E-03     577.491E-03    -288.761E-03     5.61081E-03    -288.803E-03     576.523E-03    -288.787E-03     6.16392E-03
             598     2.02281E-03     126.410E-03    -121.276E+06    -251.274E+06    -105.938E+06     806.813E+03    -288.696E-03     577.487E-03    -288.791E-03     8.32488E-03    -288.784E-03     576.559E-03    -288.780E-03     9.09293E-03
             599     2.69709E-03     126.429E-03    -115.507E+06    -234.085E+06    -90.4995E+06     1.09059E+06    -288.667E-03     577.488E-03    -288.821E-03     11.0560E-03    -288.774E-03     576.616E-03    -288.766E-03     11.9890E-03
             600     3.37141E-03     126.452E-03    -108.788E+06    -214.050E+06    -73.3970E+06     1.34238E+06    -288.665E-03     577.518E-03    -288.853E-03     13.7546E-03    -288.792E-03     576.712E-03    -288.752E-03     14.7855E-03
             601     4.04571E-03     126.480E-03    -101.274E+06    -192.821E+06    -55.6603E+06     1.47101E+06    -288.648E-03     577.534E-03    -288.885E-03     16.4512E-03    -288.795E-03     576.798E-03    -288.737E-03     17.4899E-03
             602     4.72005E-03     126.513E-03    -93.4029E+06    -170.365E+06    -38.3721E+06     1.62956E+06    -288.616E-03     577.527E-03    -288.911E-03     19.1398E-03    -288.783E-03     576.869E-03    -288.720E-03     20.0908E-03
             603     5.39455E-03     126.551E-03    -85.3460E+06    -146.872E+06    -21.9886E+06     1.90776E+06    -288.614E-03     577.542E-03    -288.928E-03     21.7827E-03    -288.802E-03     576.970E-03    -288.701E-03     22.5368E-03
             604     6.06889E-03     126.592E-03    -77.3400E+06    -121.829E+06    -6.62055E+06     2.33411E+06    -288.622E-03     577.562E-03    -288.940E-03     24.4050E-03    -288.834E-03     577.086E-03    -288.684E-03     24.8504E-03
             605     6.74340E-03     126.638E-03    -69.6005E+06    -94.6268E+06     7.80633E+06     3.03899E+06    -288.607E-03     577.551E-03    -288.944E-03     26.9690E-03    -288.849E-03     577.188E-03    -288.667E-03     26.9897E-03
             606     7.41791E-03     126.688E-03    -62.0513E+06    -63.2501E+06     21.6793E+06     3.92713E+06    -288.615E-03     577.556E-03    -288.941E-03     29.4598E-03    -288.897E-03     577.330E-03    -288.651E-03     28.9323E-03
             607     8.09230E-03     126.740E-03    -54.6375E+06    -25.6158E+06     35.5789E+06     5.10582E+06    -288.623E-03     577.555E-03    -288.932E-03     31.8709E-03    -288.958E-03     577.502E-03    -288.638E-03     30.6899E-03
             608     8.76677E-03     126.796E-03    -47.3403E+06     21.3187E+06     50.1303E+06     6.37592E+06    -288.556E-03     577.470E-03    -288.914E-03     34.2161E-03    -288.965E-03     577.641E-03    -288.626E-03     32.2665E-03
             609     9.44121E-03     126.855E-03    -40.3642E+06     51.6627E+06     61.4979E+06     6.17291E+06    -288.530E-03     577.434E-03    -288.904E-03     36.3696E-03    -288.992E-03     577.758E-03    -288.613E-03     33.5335E-03
             610     10.1156E-03     126.916E-03    -33.9125E+06     69.0487E+06     73.9883E+06     4.74244E+06    -288.514E-03     577.435E-03    -288.921E-03     38.0800E-03    -289.017E-03     577.848E-03    -288.602E-03     34.2971E-03
             611     10.7902E-03     126.978E-03    -27.5083E+06     85.1126E+06     88.6632E+06     3.52418E+06    -288.463E-03     577.414E-03    -288.952E-03     39.0758E-03    -289.009E-03     577.908E-03    -288.592E-03     34.3413E-03
             612     11.4644E-03     127.038E-03    -20.7576E+06     89.5320E+06     101.507E+06     2.64623E+06    -288.365E-03     577.353E-03    -288.989E-03     39.0444E-03    -288.925E-03     577.864E-03    -288.581E-03     33.5266E-03
             613     12.1394E-03     127.096E-03    -13.1707E+06     94.9764E+06     111.764E+06      1.4846E+06    -288.261E-03     577.269E-03    -289.008E-03     39.0262E-03    -288.842E-03     577.816E-03    -288.568E-03     32.4587E-03
             614     12.8134E-03     127.153E-03    -5.26149E+06     101.417E+06     114.417E+06     613.035E+03    -288.161E-03     577.149E-03    -288.988E-03     32.8270E-03    -288.672E-03     577.670E-03    -288.555E-03     26.7644E-03
             615     674.323E-06     128.076E-03    -130.075E+06    -275.024E+06    -128.098E+06     395.758E+03    -288.606E-03     577.248E-03    -288.642E-03     3.05516E-03    -288.672E-03     576.247E-03    -288.695E-03     3.37019E-03
             616     1.34862E-03     128.085E-03    -127.198E+06    -265.631E+06    -119.701E+06     606.093E+03    -288.609E-03     577.257E-03    -288.648E-03     5.61672E-03    -288.686E-03     576.287E-03    -288.677E-03     6.17551E-03
             617     2.02297E-03     128.098E-03    -122.709E+06    -252.375E+06    -106.977E+06     805.552E+03    -288.591E-03     577.270E-03    -288.679E-03     8.29028E-03    -288.684E-03     576.341E-03    -288.670E-03     9.06255E-03
             618     2.69739E-03     128.116E-03    -116.988E+06    -235.214E+06    -91.4611E+06     968.354E+03    -288.578E-03     577.291E-03    -288.714E-03     11.0079E-03    -288.689E-03     576.417E-03    -288.660E-03     11.9493E-03
             619     3.37176E-03     128.140E-03    -110.243E+06    -215.132E+06    -74.3792E+06     1.16199E+06    -288.561E-03     577.310E-03    -288.749E-03     13.7177E-03    -288.693E-03     576.502E-03    -288.649E-03     14.7562E-03
             620     4.04616E-03     128.168E-03    -102.872E+06    -193.836E+06    -56.6550E+06     1.40366E+06    -288.544E-03     577.326E-03    -288.782E-03     16.4188E-03    -288.696E-03     576.589E-03    -288.635E-03     17.4641E-03
             621     4.72065E-03     128.201E-03    -95.1471E+06    -171.362E+06    -39.3626E+06     1.61294E+06    -288.544E-03     577.354E-03    -288.810E-03     19.0830E-03    -288.717E-03     576.695E-03    -288.621E-03     20.0375E-03
             622     5.39503E-03     128.239E-03    -87.3377E+06    -148.262E+06    -23.1175E+06     1.84312E+06    -288.567E-03     577.401E-03    -288.834E-03     21.7071E-03    -288.762E-03     576.826E-03    -288.608E-03     22.4638E-03
             623     6.06953E-03     128.281E-03    -79.5074E+06    -123.732E+06    -8.01112E+06     2.30008E+06    -288.598E-03     577.450E-03    -288.852E-03     24.3099E-03    -288.816E-03     576.970E-03    -288.598E-03     24.7571E-03
             624     6.74389E-03     128.326E-03    -71.5737E+06    -96.8242E+06     6.21853E+06     2.80578E+06    -288.619E-03     577.484E-03    -288.865E-03     26.8699E-03    -288.865E-03     577.114E-03    -288.589E-03     26.8925E-03
             625     7.41830E-03     128.376E-03    -63.5847E+06    -66.2194E+06     19.8446E+06     3.41982E+06    -288.632E-03     577.502E-03    -288.870E-03     29.4286E-03    -288.915E-03     577.266E-03    -288.582E-03     28.9099E-03
             626     8.09274E-03     128.429E-03    -55.7523E+06    -30.0318E+06     33.4021E+06     4.52305E+06    -288.629E-03     577.496E-03    -288.867E-03     31.9178E-03    -288.960E-03     577.426E-03    -288.576E-03     30.7493E-03
             627     8.76713E-03     128.485E-03    -47.6710E+06     17.2508E+06     48.0440E+06     5.77697E+06    -288.562E-03     577.414E-03    -288.852E-03     34.3242E-03    -288.963E-03     577.568E-03    -288.568E-03     32.3969E-03
             628     9.44168E-03     128.544E-03    -39.8063E+06     51.4776E+06     60.3605E+06     6.76785E+06    -288.527E-03     577.371E-03    -288.844E-03     36.5625E-03    -288.983E-03     577.693E-03    -288.559E-03     33.7695E-03
             629     10.1162E-03     128.605E-03    -32.7853E+06     71.8199E+06     73.9002E+06     6.61748E+06    -288.498E-03     577.360E-03    -288.863E-03     38.3612E-03    -288.999E-03     577.786E-03    -288.550E-03     34.6193E-03
             630     10.7906E-03     128.667E-03    -26.2475E+06     88.0287E+06     89.6850E+06     5.01686E+06    -288.377E-03     577.275E-03    -288.898E-03     39.3683E-03    -288.923E-03     577.780E-03    -288.539E-03     34.6635E-03
             631     11.4655E-03     128.727E-03    -19.4883E+06     93.1070E+06     104.121E+06     2.95168E+06    -288.289E-03     577.229E-03    -288.940E-03     39.1620E-03    -288.853E-03     577.753E-03    -288.526E-03     33.6344E-03
             632     12.1399E-03     128.785E-03    -12.4849E+06     98.1856E+06     114.364E+06     1.47160E+06    -288.198E-03     577.158E-03    -288.961E-03     38.9412E-03    -288.784E-03     577.718E-03    -288.513E-03     32.3418E-03
             633     12.8150E-03     128.842E-03    -6.60149E+06     102.823E+06     115.010E+06     556.339E+03    -288.342E-03     577.284E-03    -288.942E-03     32.5171E-03    -288.863E-03     577.813E-03    -288.507E-03     26.4192E-03
             634     674.391E-06     129.763E-03    -131.112E+06    -276.406E+06    -129.229E+06     285.394E+03    -288.535E-03     577.098E-03    -288.563E-03     3.01055E-03    -288.602E-03     576.093E-03    -288.619E-03     3.32191E-03
             635     1.34883E-03     129.772E-03    -128.322E+06    -267.266E+06    -120.856E+06     668.397E+03    -288.504E-03     577.071E-03    -288.568E-03     5.56163E-03    -288.582E-03     576.096E-03    -288.598E-03     6.12420E-03
             636     2.02324E-03     129.785E-03    -123.844E+06    -253.538E+06    -108.049E+06     984.197E+03    -288.509E-03     577.101E-03    -288.593E-03     8.25298E-03    -288.603E-03     576.170E-03    -288.586E-03     9.03906E-03
             637     2.69756E-03     129.804E-03    -118.095E+06    -236.137E+06    -92.2528E+06     1.14417E+06    -288.501E-03     577.131E-03    -288.630E-03     10.9852E-03    -288.615E-03     576.255E-03    -288.578E-03     11.9375E-03
             638     3.37201E-03     129.827E-03    -111.408E+06    -216.332E+06    -74.9174E+06     1.35862E+06    -288.481E-03     577.149E-03    -288.668E-03     13.6656E-03    -288.616E-03     576.338E-03    -288.568E-03     14.7081E-03
             639     4.04652E-03     129.856E-03    -103.976E+06    -194.932E+06    -57.2140E+06     1.61972E+06    -288.487E-03     577.191E-03    -288.704E-03     16.3005E-03    -288.643E-03     576.452E-03    -288.557E-03     17.3560E-03
             640     4.72092E-03     129.889E-03    -96.1675E+06    -172.587E+06    -40.0020E+06     1.86612E+06    -288.511E-03     577.248E-03    -288.737E-03     18.9366E-03    -288.686E-03     576.586E-03    -288.548E-03     19.9064E-03
             641     5.39542E-03     129.927E-03    -88.3494E+06    -149.510E+06    -23.7793E+06     2.12719E+06    -288.530E-03     577.296E-03    -288.766E-03     21.5838E-03    -288.727E-03     576.718E-03    -288.540E-03     22.3556E-03
             642     6.06981E-03     129.969E-03     -80.364E+06    -125.137E+06    -8.73224E+06     2.32473E+06    -288.558E-03     577.346E-03    -288.788E-03     24.2174E-03    -288.777E-03     576.861E-03    -288.534E-03     24.6824E-03
             643     6.74433E-03     130.015E-03    -72.4839E+06    -98.6630E+06     5.22065E+06     2.63656E+06    -288.594E-03     577.397E-03    -288.803E-03     26.8269E-03    -288.840E-03     577.021E-03    -288.529E-03     26.8700E-03
             644     7.41878E-03     130.064E-03    -64.9797E+06    -68.6356E+06     18.5528E+06     3.14176E+06    -288.604E-03     577.416E-03    -288.811E-03     29.4301E-03    -288.888E-03     577.171E-03    -288.525E-03     28.9315E-03
             645     8.09328E-03     130.117E-03    -57.4387E+06    -33.4984E+06     31.8461E+06     3.75915E+06    -288.585E-03     577.396E-03    -288.811E-03     31.9221E-03    -288.917E-03     577.313E-03    -288.520E-03     30.7649E-03
             646     8.76783E-03     130.174E-03    -50.1399E+06     13.2551E+06     45.9419E+06     4.75310E+06    -288.526E-03     577.323E-03    -288.797E-03     34.2873E-03    -288.931E-03     577.463E-03    -288.514E-03     32.3578E-03
             647     9.44234E-03     130.233E-03    -42.8221E+06     48.8024E+06     57.8028E+06     5.62785E+06    -288.493E-03     577.280E-03    -288.787E-03     36.4608E-03    -288.957E-03     577.598E-03    -288.507E-03     33.6485E-03
             648     10.1169E-03     130.294E-03    -34.7538E+06     72.7666E+06     70.9726E+06     5.56350E+06    -288.462E-03     577.262E-03    -288.799E-03     38.1548E-03    -288.971E-03     577.700E-03    -288.500E-03     34.3570E-03
             649     10.7916E-03     130.355E-03    -26.4876E+06     92.1690E+06     88.3244E+06     4.62249E+06    -288.428E-03     577.268E-03    -288.840E-03     38.9754E-03    -288.981E-03     577.798E-03    -288.494E-03     34.1804E-03
             650     11.4659E-03     130.416E-03    -18.9640E+06     97.2396E+06     105.074E+06     3.27621E+06    -288.448E-03     577.351E-03    -288.903E-03     38.6294E-03    -289.018E-03     577.894E-03    -288.491E-03     33.0360E-03
             651     12.1404E-03     130.475E-03    -12.8343E+06     100.740E+06     115.224E+06     1.75465E+06    -288.442E-03     577.383E-03    -288.941E-03     38.0817E-03    -289.035E-03     577.954E-03    -288.493E-03     31.4055E-03
             652     12.8147E-03     130.530E-03     -7.5411E+06     104.463E+06     115.153E+06     1.25493E+06    -288.361E-03     577.292E-03    -288.931E-03     32.1433E-03    -288.890E-03     577.831E-03    -288.496E-03     25.9969E-03
             653     674.343E-06     131.450E-03    -131.680E+06    -277.985E+06    -129.650E+06     381.958E+03    -288.529E-03     576.983E-03    -288.454E-03     3.02698E-03    -288.597E-03     575.972E-03    -288.508E-03     3.33070E-03
             654     1.34878E-03     131.458E-03    -128.705E+06    -268.806E+06    -121.125E+06     619.838E+03    -288.467E-03     576.982E-03    -288.515E-03     5.56965E-03    -288.545E-03     576.000E-03    -288.544E-03     6.13189E-03
             655     2.02324E-03     131.472E-03    -124.105E+06    -254.885E+06    -108.404E+06     888.506E+03    -288.451E-03     576.993E-03    -288.542E-03     8.21840E-03    -288.545E-03     576.055E-03    -288.534E-03     9.00811E-03
             656     2.69779E-03     131.491E-03    -118.285E+06    -237.497E+06    -92.4510E+06     1.22765E+06    -288.442E-03     577.020E-03    -288.578E-03     10.8937E-03    -288.555E-03     576.138E-03    -288.525E-03     11.8545E-03
             657     3.37225E-03     131.514E-03    -111.496E+06    -217.616E+06    -74.9054E+06     1.48709E+06    -288.455E-03     577.074E-03    -288.619E-03     13.5724E-03    -288.589E-03     576.257E-03    -288.516E-03     14.6294E-03
             658     4.04664E-03     131.543E-03    -103.879E+06    -196.061E+06    -57.1473E+06     1.69830E+06    -288.476E-03     577.136E-03    -288.660E-03     16.2205E-03    -288.629E-03     576.390E-03    -288.511E-03     17.2912E-03
             659     4.72116E-03     131.576E-03    -95.9778E+06    -173.888E+06    -39.9117E+06     1.95588E+06    -288.488E-03     577.186E-03    -288.698E-03     18.8456E-03    -288.661E-03     576.516E-03    -288.506E-03     19.8310E-03
             660     5.39561E-03     131.614E-03    -87.9293E+06    -150.723E+06    -23.5908E+06     2.21396E+06    -288.507E-03     577.235E-03    -288.729E-03     21.4640E-03    -288.700E-03     576.650E-03    -288.501E-03     22.2563E-03
             661     6.07016E-03     131.656E-03    -79.9088E+06    -126.450E+06    -8.45027E+06     2.56299E+06    -288.537E-03     577.289E-03    -288.753E-03     24.0697E-03    -288.752E-03     576.797E-03    -288.496E-03     24.5575E-03
             662     6.74460E-03     131.703E-03    -72.1696E+06    -100.223E+06     5.59329E+06     2.93173E+06    -288.573E-03     577.344E-03    -288.771E-03     26.6303E-03    -288.817E-03     576.959E-03    -288.493E-03     26.6882E-03
             663     7.41912E-03     131.752E-03    -64.5370E+06    -70.6987E+06     19.0545E+06     3.44062E+06    -288.606E-03     577.389E-03    -288.783E-03     29.1535E-03    -288.885E-03     577.132E-03    -288.491E-03     28.6584E-03
             664     8.09355E-03     131.806E-03    -57.1489E+06    -35.7896E+06     32.4315E+06     4.08222E+06    -288.603E-03     577.391E-03    -288.787E-03     31.5803E-03    -288.931E-03     577.295E-03    -288.491E-03     30.4185E-03
             665     8.76800E-03     131.862E-03    -49.8362E+06     9.67677E+06     46.2558E+06     4.87876E+06    -288.544E-03     577.322E-03    -288.778E-03     33.9017E-03    -288.943E-03     577.444E-03    -288.488E-03     31.9572E-03
             666     9.44251E-03     131.922E-03    -42.5800E+06     47.4783E+06     57.8103E+06     5.26234E+06    -288.502E-03     577.268E-03    -288.767E-03     36.0527E-03    -288.962E-03     577.579E-03    -288.485E-03     33.2169E-03
             667     10.1169E-03     131.983E-03    -35.5607E+06     74.7727E+06     70.2510E+06     4.22490E+06    -288.478E-03     577.254E-03    -288.775E-03     37.7968E-03    -288.993E-03     577.704E-03    -288.481E-03     33.9781E-03
             668     10.7912E-03     132.045E-03    -28.3501E+06     93.9087E+06     85.4196E+06     3.04589E+06    -288.462E-03     577.273E-03    -288.811E-03     38.7904E-03    -289.022E-03     577.817E-03    -288.479E-03     33.9907E-03
             669     11.4657E-03     132.106E-03    -20.8400E+06     99.1323E+06     101.527E+06     2.66841E+06    -288.403E-03     577.274E-03    -288.871E-03     38.7505E-03    -288.979E-03     577.834E-03    -288.477E-03     33.1725E-03
             670     12.1399E-03     132.164E-03    -13.2501E+06     101.667E+06     113.663E+06     2.54379E+06    -288.220E-03     577.132E-03    -288.912E-03     38.9367E-03    -288.814E-03     577.710E-03    -288.471E-03     32.3557E-03
             671     12.8138E-03     132.221E-03    -5.73588E+06     106.750E+06     116.585E+06     1.58623E+06    -287.705E-03     576.593E-03    -288.888E-03     33.5516E-03    -288.233E-03     577.142E-03    -288.451E-03     27.4284E-03
             672     674.564E-06     133.137E-03    -131.906E+06    -279.418E+06    -129.745E+06     367.394E+03    -288.479E-03     576.890E-03    -288.411E-03     3.00917E-03    -288.545E-03     575.872E-03    -288.464E-03     3.32111E-03
             673     1.34895E-03     133.145E-03    -128.911E+06    -270.126E+06    -121.269E+06     553.271E+03    -288.476E-03     576.956E-03    -288.480E-03     5.55026E-03    -288.553E-03     575.968E-03    -288.508E-03     6.11836E-03
             674     2.02336E-03     133.159E-03    -124.351E+06    -256.203E+06    -108.549E+06     808.288E+03    -288.461E-03     576.985E-03    -288.523E-03     8.18348E-03    -288.554E-03     576.041E-03    -288.514E-03     8.97741E-03
             675     2.69775E-03     133.178E-03    -118.400E+06    -238.871E+06    -92.6812E+06     1.07083E+06    -288.447E-03     577.013E-03    -288.566E-03     10.8052E-03    -288.558E-03     576.125E-03    -288.511E-03     11.7733E-03
             676     3.37223E-03     133.202E-03    -111.346E+06    -218.836E+06    -75.0679E+06     1.34412E+06    -288.444E-03     577.053E-03    -288.609E-03     13.4576E-03    -288.575E-03     576.230E-03    -288.505E-03     14.5307E-03
             677     4.04677E-03     133.230E-03    -103.800E+06    -197.254E+06    -57.1774E+06     1.56541E+06    -288.457E-03     577.106E-03    -288.650E-03     16.0999E-03    -288.608E-03     576.355E-03    -288.499E-03     17.1812E-03
             678     4.72119E-03     133.264E-03    -95.7853E+06    -175.001E+06    -39.7423E+06     1.76568E+06    -288.486E-03     577.174E-03    -288.688E-03     18.7232E-03    -288.656E-03     576.498E-03    -288.494E-03     19.7171E-03
             679     5.39570E-03     133.302E-03    -87.4769E+06    -151.947E+06    -23.2333E+06     1.99840E+06    -288.529E-03     577.252E-03    -288.722E-03     21.3163E-03    -288.719E-03     576.659E-03    -288.491E-03     22.1228E-03
             680     6.07010E-03     133.344E-03    -79.3232E+06    -127.870E+06    -7.98278E+06     2.27352E+06    -288.566E-03     577.317E-03    -288.751E-03     23.8796E-03    -288.777E-03     576.816E-03    -288.491E-03     24.3751E-03
             681     6.74460E-03     133.390E-03    -71.1879E+06    -101.630E+06     6.28277E+06     2.61282E+06    -288.594E-03     577.366E-03    -288.772E-03     26.4516E-03    -288.831E-03     576.972E-03    -288.490E-03     26.5140E-03
             682     7.41897E-03     133.441E-03    -63.1387E+06    -72.6275E+06     19.9165E+06     2.99127E+06    -288.607E-03     577.393E-03    -288.786E-03     29.0228E-03    -288.877E-03     577.124E-03    -288.490E-03     28.5322E-03
             683     8.09342E-03     133.494E-03    -55.1904E+06    -38.5272E+06     33.2990E+06     3.69898E+06    -288.582E-03     577.372E-03    -288.790E-03     31.5511E-03    -288.897E-03     577.258E-03    -288.488E-03     30.4065E-03
             684     8.76785E-03     133.551E-03    -47.4068E+06     5.38950E+06     47.1719E+06     5.04319E+06    -288.505E-03     577.284E-03    -288.779E-03     34.0244E-03    -288.886E-03     577.379E-03    -288.482E-03     32.1251E-03
             685     9.44233E-03     133.610E-03    -40.2900E+06     46.8092E+06     59.5867E+06     5.89787E+06    -288.417E-03     577.179E-03    -288.761E-03     36.3345E-03    -288.867E-03     577.479E-03    -288.473E-03     33.5613E-03
             686     10.1169E-03     133.671E-03    -33.8805E+06     78.0554E+06     73.5770E+06     5.18036E+06    -288.316E-03     577.080E-03    -288.764E-03     38.2867E-03    -288.830E-03     577.538E-03    -288.460E-03     34.5691E-03
             687     10.7916E-03     133.734E-03    -27.6938E+06     94.7719E+06     88.2186E+06     3.98947E+06    -288.166E-03     576.953E-03    -288.787E-03     39.5398E-03    -288.726E-03     577.496E-03    -288.444E-03     34.8665E-03
             688     11.4662E-03     133.795E-03    -20.8651E+06     100.231E+06     102.714E+06     3.12722E+06    -287.917E-03     576.735E-03    -288.818E-03     39.7479E-03    -288.497E-03     577.299E-03    -288.420E-03     34.2639E-03
             689     12.1413E-03     133.853E-03    -13.3666E+06     104.458E+06     115.074E+06     1.74217E+06    -287.638E-03     576.467E-03    -288.830E-03     39.8128E-03    -288.242E-03     577.061E-03    -288.386E-03     33.2287E-03
             690     12.8178E-03     133.907E-03    -6.05279E+06     109.162E+06     118.497E+06     730.538E+03    -287.590E-03     576.384E-03    -288.795E-03     33.3553E-03    -288.127E-03     576.944E-03    -288.352E-03     27.2056E-03
             691     674.375E-06     134.824E-03    -132.327E+06    -280.708E+06    -130.452E+06     214.537E+03    -288.482E-03     576.955E-03    -288.473E-03     3.00482E-03    -288.548E-03     575.932E-03    -288.526E-03     3.32598E-03
             692     1.34885E-03     134.832E-03    -129.550E+06    -271.479E+06    -122.010E+06     597.207E+03    -288.480E-03     576.986E-03    -288.506E-03     5.44030E-03    -288.557E-03     575.993E-03    -288.535E-03     6.01786E-03
             693     2.02328E-03     134.846E-03    -125.098E+06    -257.424E+06    -109.209E+06     841.346E+03    -288.477E-03     577.021E-03    -288.544E-03     8.09629E-03    -288.571E-03     576.073E-03    -288.535E-03     8.90589E-03
             694     2.69774E-03     134.865E-03    -119.138E+06    -239.813E+06    -93.2968E+06     970.053E+03    -288.475E-03     577.062E-03    -288.587E-03     10.7596E-03    -288.588E-03     576.171E-03    -288.533E-03     11.7402E-03
             695     3.37216E-03     134.889E-03    -112.134E+06    -219.757E+06    -75.6766E+06     1.07472E+06    -288.458E-03     577.088E-03    -288.630E-03     13.4101E-03    -288.591E-03     576.262E-03    -288.527E-03     14.4942E-03
             696     4.04659E-03     134.918E-03    -104.452E+06    -198.203E+06    -57.6368E+06     1.16811E+06    -288.453E-03     577.122E-03    -288.669E-03     16.0432E-03    -288.606E-03     576.367E-03    -288.519E-03     17.1398E-03
             697     4.72113E-03     134.951E-03    -96.3480E+06    -175.862E+06    -40.1301E+06     1.27565E+06    -288.485E-03     577.190E-03    -288.705E-03     18.6712E-03    -288.657E-03     576.511E-03    -288.511E-03     19.6856E-03
             698     5.39553E-03     134.990E-03    -88.0311E+06    -152.990E+06    -23.5576E+06     1.44041E+06    -288.522E-03     577.259E-03    -288.737E-03     21.3106E-03    -288.712E-03     576.662E-03    -288.506E-03     22.1386E-03
             699     6.06999E-03     135.032E-03    -79.8224E+06    -128.817E+06    -8.13195E+06     1.57560E+06    -288.534E-03     577.297E-03    -288.763E-03     23.9734E-03    -288.746E-03     576.791E-03    -288.501E-03     24.4932E-03
             700     6.74439E-03     135.078E-03    -71.8177E+06    -103.209E+06     6.13041E+06     1.84210E+06    -288.522E-03     577.300E-03    -288.778E-03     26.6780E-03    -288.759E-03     576.898E-03    -288.494E-03     26.7725E-03
             701     7.41894E-03     135.129E-03    -63.9520E+06    -74.9049E+06     19.6392E+06     2.46545E+06    -288.489E-03     577.273E-03    -288.783E-03     29.3596E-03    -288.759E-03     576.993E-03    -288.484E-03     28.9169E-03
             702     8.09349E-03     135.182E-03    -56.5390E+06    -41.8362E+06     32.7728E+06     3.40957E+06    -288.425E-03     577.201E-03    -288.776E-03     31.9535E-03    -288.740E-03     577.072E-03    -288.470E-03     30.8694E-03
             703     8.76818E-03     135.239E-03    -49.4873E+06     129.602E+03     46.3205E+06     4.87762E+06    -288.303E-03     577.057E-03    -288.754E-03     34.4786E-03    -288.684E-03     577.128E-03    -288.451E-03     32.6438E-03
             704     9.44293E-03     135.299E-03    -42.2104E+06     44.7346E+06     59.1978E+06     6.13091E+06    -288.163E-03     576.882E-03    -288.719E-03     36.8636E-03    -288.618E-03     577.174E-03    -288.426E-03     34.1569E-03
             705     10.1177E-03     135.360E-03    -34.8302E+06     79.9798E+06     72.9177E+06     6.12169E+06    -288.015E-03     576.712E-03    -288.697E-03     38.7918E-03    -288.536E-03     577.181E-03    -288.398E-03     35.1266E-03
             706     10.7926E-03     135.422E-03    -27.4287E+06     97.1130E+06     87.7382E+06     5.02191E+06    -287.845E-03     576.547E-03    -288.702E-03     39.7972E-03    -288.408E-03     577.103E-03    -288.365E-03     35.1300E-03
             707     11.4679E-03     135.482E-03    -20.2360E+06     102.996E+06     104.196E+06     3.46787E+06    -287.733E-03     576.465E-03    -288.732E-03     39.4661E-03    -288.318E-03     577.041E-03    -288.331E-03     33.9073E-03
             708     12.1432E-03     135.540E-03    -13.0334E+06     108.448E+06     118.086E+06     2.06364E+06    -287.768E-03     576.522E-03    -288.754E-03     38.9263E-03    -288.382E-03     577.133E-03    -288.302E-03     32.2148E-03
             709     12.8165E-03     135.597E-03    -6.32279E+06     111.764E+06     120.403E+06     559.228E+03    -287.799E-03     576.531E-03    -288.732E-03     32.5379E-03    -288.343E-03     577.100E-03    -288.283E-03     26.3240E-03
             710     674.400E-06     136.511E-03    -133.861E+06    -282.135E+06    -131.889E+06     343.006E+03    -288.526E-03     577.082E-03    -288.556E-03     3.03517E-03    -288.595E-03     576.056E-03    -288.612E-03     3.37151E-03
             711     1.34875E-03     136.519E-03    -131.047E+06    -272.663E+06    -123.362E+06     528.121E+03    -288.504E-03     577.066E-03    -288.562E-03     5.49673E-03    -288.585E-03     576.072E-03    -288.593E-03     6.09143E-03
             712     2.02318E-03     136.533E-03    -126.380E+06    -258.427E+06    -110.312E+06     708.559E+03    -288.488E-03     577.075E-03    -288.587E-03     8.13447E-03    -288.585E-03     576.126E-03    -288.581E-03     8.96311E-03
             713     2.69758E-03     136.552E-03    -120.363E+06    -240.510E+06    -94.1390E+06     784.703E+03    -288.472E-03     577.093E-03    -288.621E-03     10.7938E-03    -288.588E-03     576.201E-03    -288.568E-03     11.7964E-03
             714     3.37201E-03     136.576E-03    -113.352E+06    -220.391E+06    -76.4027E+06     817.220E+03    -288.456E-03     577.114E-03    -288.658E-03     13.4729E-03    -288.593E-03     576.287E-03    -288.556E-03     14.5769E-03
             715     4.04651E-03     136.605E-03    -105.669E+06    -198.775E+06    -58.2375E+06     888.582E+03    -288.447E-03     577.140E-03    -288.692E-03     16.1623E-03    -288.604E-03     576.384E-03    -288.542E-03     17.2903E-03
             716     4.72092E-03     136.639E-03    -97.6290E+06    -176.518E+06    -40.5543E+06     987.001E+03    -288.438E-03     577.160E-03    -288.722E-03     18.8412E-03    -288.614E-03     576.481E-03    -288.527E-03     19.8941E-03
             717     5.39545E-03     136.677E-03    -89.5041E+06    -153.712E+06    -23.9405E+06     1.11367E+06    -288.408E-03     577.152E-03    -288.743E-03     21.5360E-03    -288.604E-03     576.553E-03    -288.510E-03     22.4030E-03
             718     6.07000E-03     136.720E-03    -81.3666E+06    -129.858E+06    -8.51162E+06     1.35632E+06    -288.378E-03     577.131E-03    -288.754E-03     24.2641E-03    -288.594E-03     576.623E-03    -288.490E-03     24.8306E-03
             719     6.74468E-03     136.766E-03    -73.5322E+06    -104.954E+06     5.62806E+06     1.77769E+06    -288.360E-03     577.115E-03    -288.755E-03     26.9987E-03    -288.602E-03     576.707E-03    -288.468E-03     27.1364E-03
             720     7.41931E-03     136.816E-03    -65.9545E+06    -77.6650E+06     18.7089E+06     2.52192E+06    -288.339E-03     577.086E-03    -288.747E-03     29.6538E-03    -288.613E-03     576.796E-03    -288.445E-03     29.2472E-03
             721     8.09405E-03     136.870E-03    -58.4623E+06    -45.3272E+06     31.5896E+06     3.60863E+06    -288.274E-03     577.003E-03    -288.730E-03     32.1436E-03    -288.591E-03     576.861E-03    -288.421E-03     31.0858E-03
             722     8.76875E-03     136.927E-03    -50.9044E+06    -4.82756E+06     44.7748E+06     4.92849E+06    -288.144E-03     576.842E-03    -288.699E-03     34.5540E-03    -288.523E-03     576.894E-03    -288.394E-03     32.7249E-03
             723     9.44365E-03     136.986E-03    -43.3317E+06     42.6189E+06     57.7752E+06     5.67234E+06    -287.979E-03     576.630E-03    -288.651E-03     36.7781E-03    -288.435E-03     576.916E-03    -288.361E-03     34.0539E-03
             724     10.1187E-03     137.047E-03    -35.5604E+06     81.9192E+06     70.6189E+06     5.04921E+06    -287.844E-03     576.455E-03    -288.611E-03     38.5324E-03    -288.368E-03     576.940E-03    -288.326E-03     34.8040E-03
             725     10.7936E-03     137.109E-03    -27.7577E+06     99.4296E+06     85.2086E+06     4.01609E+06    -287.851E-03     576.466E-03    -288.615E-03     39.3959E-03    -288.417E-03     577.039E-03    -288.293E-03     34.6394E-03
             726     11.4683E-03     137.170E-03    -20.2492E+06     105.929E+06     103.808E+06     3.14389E+06    -287.953E-03     576.618E-03    -288.665E-03     39.0856E-03    -288.542E-03     577.211E-03    -288.271E-03     33.4699E-03
             727     12.1424E-03     137.229E-03    -13.1656E+06     110.950E+06     118.447E+06     2.12961E+06    -287.860E-03     576.565E-03    -288.705E-03     38.8788E-03    -288.479E-03     577.188E-03    -288.255E-03     32.1481E-03
             728     12.8185E-03     137.284E-03    -6.50505E+06     114.056E+06     121.460E+06     1.08833E+06    -287.719E-03     576.409E-03    -288.690E-03     32.8150E-03    -288.271E-03     576.990E-03    -288.239E-03     26.5583E-03
             729     674.312E-06     138.197E-03    -135.167E+06    -283.339E+06    -133.138E+06     238.621E+03    -288.514E-03     577.161E-03    -288.647E-03     2.98143E-03    -288.586E-03     576.133E-03    -288.706E-03     3.32364E-03
             730     1.34873E-03     138.206E-03    -132.046E+06    -273.646E+06    -124.191E+06     418.920E+03    -288.526E-03     577.126E-03    -288.600E-03     5.52136E-03    -288.609E-03     576.129E-03    -288.632E-03     6.12531E-03
             731     2.02309E-03     138.220E-03    -127.361E+06    -259.229E+06    -110.951E+06     565.393E+03    -288.487E-03     577.104E-03    -288.617E-03     8.21576E-03    -288.587E-03     576.153E-03    -288.611E-03     9.05563E-03
             732     2.69753E-03     138.239E-03    -121.290E+06    -241.268E+06    -94.5411E+06     716.253E+03    -288.451E-03     577.093E-03    -288.642E-03     10.9090E-03    -288.570E-03     576.199E-03    -288.589E-03     11.9366E-03
             733     3.37201E-03     138.263E-03    -114.154E+06    -220.880E+06    -76.4327E+06     817.914E+03    -288.427E-03     577.097E-03    -288.671E-03     13.5883E-03    -288.566E-03     576.269E-03    -288.567E-03     14.7251E-03
             734     4.04646E-03     138.292E-03    -106.424E+06    -199.378E+06    -58.0823E+06     936.138E+03    -288.389E-03     577.086E-03    -288.697E-03     16.2898E-03    -288.548E-03     576.329E-03    -288.544E-03     17.4510E-03
             735     4.72104E-03     138.326E-03    -98.3267E+06    -177.134E+06    -40.3845E+06     1.06327E+06    -288.335E-03     577.051E-03    -288.715E-03     19.0008E-03    -288.514E-03     576.368E-03    -288.518E-03     20.0853E-03
             736     5.39565E-03     138.364E-03    -90.0907E+06    -154.295E+06    -23.8689E+06     1.15773E+06    -288.296E-03     577.019E-03    -288.723E-03     21.6660E-03    -288.493E-03     576.418E-03    -288.488E-03     22.5588E-03
             737     6.07035E-03     138.407E-03    -81.9507E+06    -131.097E+06    -8.76124E+06     1.38717E+06    -288.269E-03     576.992E-03    -288.723E-03     24.2988E-03    -288.486E-03     576.478E-03    -288.458E-03     24.8808E-03
             738     6.74503E-03     138.453E-03    -73.6918E+06    -106.507E+06     5.29801E+06     1.70706E+06    -288.265E-03     576.982E-03    -288.716E-03     26.9298E-03    -288.505E-03     576.567E-03    -288.429E-03     27.0756E-03
             739     7.41976E-03     138.504E-03    -65.5133E+06    -79.9092E+06     18.4146E+06     2.14866E+06    -288.258E-03     576.963E-03    -288.705E-03     29.5015E-03    -288.526E-03     576.661E-03    -288.402E-03     29.0883E-03
             740     8.09442E-03     138.558E-03    -57.6076E+06    -48.6301E+06     31.0326E+06     2.90830E+06    -288.203E-03     576.887E-03    -288.684E-03     31.9309E-03    -288.511E-03     576.728E-03    -288.375E-03     30.8510E-03
             741     8.76927E-03     138.614E-03    -49.6630E+06    -9.10646E+06     44.2067E+06     3.98296E+06    -288.115E-03     576.768E-03    -288.653E-03     34.2942E-03    -288.481E-03     576.798E-03    -288.347E-03     32.4325E-03
             742     9.44406E-03     138.674E-03    -41.8864E+06     41.0219E+06     58.7886E+06     4.89970E+06    -287.977E-03     576.589E-03    -288.612E-03     36.4513E-03    -288.425E-03     576.863E-03    -288.317E-03     33.6905E-03
             743     10.1189E-03     138.735E-03    -34.9166E+06     83.7783E+06     72.5361E+06     4.83655E+06    -287.857E-03     576.434E-03    -288.577E-03     38.1073E-03    -288.383E-03     576.923E-03    -288.285E-03     34.3629E-03
             744     10.7939E-03     138.797E-03    -28.2945E+06     100.819E+06     86.2436E+06     4.01808E+06    -287.840E-03     576.421E-03    -288.582E-03     39.1185E-03    -288.410E-03     576.999E-03    -288.256E-03     34.3827E-03
             745     11.4686E-03     138.859E-03    -21.1332E+06     106.956E+06     103.643E+06     3.15530E+06    -287.775E-03     576.399E-03    -288.624E-03     39.1393E-03    -288.368E-03     576.997E-03    -288.231E-03     33.5629E-03
             746     12.1442E-03     138.916E-03    -13.3793E+06     113.816E+06     119.093E+06     1.94863E+06    -287.708E-03     576.366E-03    -288.658E-03     38.9437E-03    -288.334E-03     577.003E-03    -288.208E-03     32.2210E-03
             747     12.8181E-03     138.972E-03    -6.32110E+06     117.252E+06     122.858E+06     1.11106E+06    -287.703E-03     576.347E-03    -288.644E-03     32.8202E-03    -288.261E-03     576.942E-03    -288.190E-03     26.5571E-03
             748     674.338E-06     139.885E-03    -135.660E+06    -284.292E+06    -133.506E+06     189.901E+03    -288.568E-03     577.171E-03    -288.603E-03     3.08033E-03    -288.641E-03     576.139E-03    -288.661E-03     3.42112E-03
             749     1.34864E-03     139.893E-03    -132.619E+06    -274.679E+06    -124.621E+06     432.631E+03    -288.537E-03     577.142E-03    -288.606E-03     5.59297E-03    -288.621E-03     576.142E-03    -288.638E-03     6.20714E-03
             750     2.02311E-03     139.907E-03    -127.853E+06    -259.982E+06    -111.141E+06     593.571E+03    -288.493E-03     577.118E-03    -288.625E-03     8.24509E-03    -288.594E-03     576.164E-03    -288.618E-03     9.10281E-03
             751     2.69756E-03     139.926E-03    -121.699E+06    -241.962E+06    -94.5055E+06     736.864E+03    -288.448E-03     577.097E-03    -288.650E-03     10.8994E-03    -288.568E-03     576.201E-03    -288.595E-03     11.9430E-03
             752     3.37201E-03     139.950E-03    -114.523E+06    -221.610E+06    -76.3613E+06     862.209E+03    -288.392E-03     577.067E-03    -288.674E-03     13.5629E-03    -288.533E-03     576.235E-03    -288.569E-03     14.7176E-03
             753     4.04657E-03     139.979E-03    -106.638E+06    -200.018E+06    -57.9875E+06     975.057E+03    -288.330E-03     577.023E-03    -288.693E-03     16.2237E-03    -288.490E-03     576.262E-03    -288.538E-03     17.3962E-03
             754     4.72117E-03     140.013E-03    -98.4080E+06    -177.592E+06    -40.2934E+06     1.04260E+06    -288.287E-03     576.991E-03    -288.704E-03     18.8629E-03    -288.465E-03     576.306E-03    -288.505E-03     19.9514E-03
             755     5.39583E-03     140.051E-03    -90.0288E+06    -154.862E+06    -23.7523E+06     1.09319E+06    -288.268E-03     576.977E-03    -288.709E-03     21.4489E-03    -288.465E-03     576.373E-03    -288.473E-03     22.3416E-03
             756     6.07042E-03     140.094E-03    -81.6952E+06    -131.807E+06    -8.51890E+06     1.16786E+06    -288.257E-03     576.966E-03    -288.709E-03     24.0420E-03    -288.472E-03     576.448E-03    -288.442E-03     24.6171E-03
             757     6.74512E-03     140.141E-03    -73.4746E+06    -107.291E+06     5.54338E+06     1.24013E+06    -288.237E-03     576.940E-03    -288.703E-03     26.6824E-03    -288.475E-03     576.520E-03    -288.413E-03     26.8240E-03
             758     7.41979E-03     140.191E-03    -65.4571E+06    -81.1984E+06     18.6079E+06     1.25142E+06    -288.210E-03     576.900E-03    -288.690E-03     29.2412E-03    -288.476E-03     576.592E-03    -288.384E-03     28.8216E-03
             759     8.09463E-03     140.245E-03    -57.4832E+06    -50.9205E+06     31.2307E+06     1.60294E+06    -288.174E-03     576.844E-03    -288.670E-03     31.6546E-03    -288.479E-03     576.673E-03    -288.356E-03     30.5574E-03
             760     8.76934E-03     140.302E-03    -49.8477E+06    -12.9184E+06     44.2024E+06     2.52598E+06    -288.112E-03     576.753E-03    -288.641E-03     34.0177E-03    -288.473E-03     576.763E-03    -288.329E-03     32.1407E-03
             761     9.44421E-03     140.361E-03    -42.4343E+06     36.9561E+06     58.6624E+06     4.13682E+06    -287.999E-03     576.601E-03    -288.602E-03     36.1706E-03    -288.443E-03     576.856E-03    -288.301E-03     33.4151E-03
             762     10.1191E-03     140.422E-03    -34.8556E+06     83.3341E+06     73.5961E+06     5.44105E+06    -287.859E-03     576.427E-03    -288.569E-03     37.8904E-03    -288.385E-03     576.912E-03    -288.271E-03     34.1819E-03
             763     10.7939E-03     140.485E-03    -27.6738E+06     103.989E+06     87.9523E+06     4.63136E+06    -287.679E-03     576.246E-03    -288.568E-03     38.9373E-03    -288.252E-03     576.836E-03    -288.239E-03     34.2277E-03
             764     11.4692E-03     140.545E-03    -20.7524E+06     109.572E+06     104.201E+06     2.84120E+06    -287.539E-03     576.135E-03    -288.596E-03     38.8116E-03    -288.135E-03     576.744E-03    -288.203E-03     33.2213E-03
             765     12.1439E-03     140.604E-03    -13.8498E+06     114.988E+06     118.827E+06     2.42185E+06    -287.498E-03     576.116E-03    -288.618E-03     38.6844E-03    -288.126E-03     576.759E-03    -288.171E-03     31.9750E-03
             766     12.8193E-03     140.661E-03    -6.62939E+06     119.646E+06     123.852E+06     1.73210E+06    -287.470E-03     576.069E-03    -288.599E-03     32.8394E-03    -288.034E-03     576.675E-03    -288.143E-03     26.6009E-03
             767     674.374E-06     141.572E-03    -136.244E+06    -285.506E+06    -134.097E+06     346.806E+03    -288.627E-03     577.189E-03    -288.562E-03     2.94430E-03    -288.700E-03     576.154E-03    -288.621E-03     3.28916E-03
             768     1.34880E-03     141.580E-03    -133.202E+06    -275.610E+06    -125.029E+06     460.315E+03    -288.573E-03     577.194E-03    -288.621E-03     5.47041E-03    -288.658E-03     576.191E-03    -288.654E-03     6.09062E-03
             769     2.02310E-03     141.594E-03    -128.302E+06    -260.683E+06    -111.436E+06     585.079E+03    -288.531E-03     577.179E-03    -288.649E-03     8.10935E-03    -288.632E-03     576.223E-03    -288.642E-03     8.97610E-03
             770     2.69747E-03     141.613E-03    -122.065E+06    -242.675E+06    -94.6865E+06     686.796E+03    -288.465E-03     577.141E-03    -288.676E-03     10.7654E-03    -288.586E-03     576.241E-03    -288.620E-03     11.8128E-03
             771     3.37197E-03     141.637E-03    -114.777E+06    -222.301E+06    -76.3970E+06     800.516E+03    -288.395E-03     577.093E-03    -288.698E-03     13.3885E-03    -288.535E-03     576.259E-03    -288.592E-03     14.5462E-03
             772     4.04651E-03     141.666E-03    -106.818E+06    -200.426E+06    -57.8759E+06     849.635E+03    -288.351E-03     577.066E-03    -288.716E-03     15.9800E-03    -288.511E-03     576.304E-03    -288.559E-03     17.1578E-03
             773     4.72106E-03     141.700E-03    -98.4698E+06    -177.929E+06    -39.9686E+06     860.982E+03    -288.309E-03     577.038E-03    -288.728E-03     18.5759E-03    -288.488E-03     576.351E-03    -288.527E-03     19.6688E-03
             774     5.39562E-03     141.739E-03    -90.0342E+06    -155.236E+06    -23.2362E+06     858.976E+03    -288.264E-03     576.998E-03    -288.733E-03     21.1849E-03    -288.461E-03     576.391E-03    -288.494E-03     22.0856E-03
             775     6.07032E-03     141.781E-03    -81.5533E+06    -132.038E+06    -7.80768E+06     769.439E+03    -288.244E-03     576.976E-03    -288.732E-03     23.8107E-03    -288.460E-03     576.456E-03    -288.461E-03     24.3982E-03
             776     6.74499E-03     141.828E-03    -73.3447E+06    -107.651E+06     6.27844E+06     790.300E+03    -288.213E-03     576.936E-03    -288.723E-03     26.4313E-03    -288.451E-03     576.513E-03    -288.429E-03     26.5812E-03
             777     7.41980E-03     141.878E-03    -65.5146E+06    -81.5432E+06     19.3532E+06     926.106E+03    -288.172E-03     576.879E-03    -288.706E-03     28.9995E-03    -288.439E-03     576.567E-03    -288.396E-03     28.5945E-03
             778     8.09446E-03     141.932E-03    -57.8508E+06    -52.0608E+06     31.8125E+06     946.403E+03    -288.136E-03     576.820E-03    -288.683E-03     31.4549E-03    -288.441E-03     576.642E-03    -288.365E-03     30.3651E-03
             779     8.76933E-03     141.989E-03    -50.2521E+06    -16.3339E+06     44.1948E+06     1.66283E+06    -288.079E-03     576.730E-03    -288.652E-03     33.8739E-03    -288.436E-03     576.724E-03    -288.334E-03     31.9989E-03
             780     9.44411E-03     142.048E-03    -42.6839E+06     30.7794E+06     57.7286E+06     3.47440E+06    -287.943E-03     576.551E-03    -288.608E-03     36.0964E-03    -288.377E-03     576.775E-03    -288.302E-03     33.3478E-03
             781     10.1189E-03     142.110E-03    -35.1640E+06     81.2205E+06     71.8374E+06     4.69522E+06    -287.721E-03     576.279E-03    -288.558E-03     37.8800E-03    -288.243E-03     576.756E-03    -288.266E-03     34.1664E-03
             782     10.7942E-03     142.172E-03    -27.6997E+06     106.973E+06     86.4528E+06     4.53923E+06    -287.578E-03     576.122E-03    -288.543E-03     38.8966E-03    -288.154E-03     576.728E-03    -288.226E-03     34.1820E-03
             783     11.4690E-03     142.233E-03    -20.7237E+06     111.015E+06     103.595E+06     4.25680E+06    -287.479E-03     576.053E-03    -288.574E-03     38.8210E-03    -288.076E-03     576.670E-03    -288.187E-03     33.2552E-03
             784     12.1444E-03     142.291E-03    -13.7446E+06     116.906E+06     119.820E+06     3.30043E+06    -287.251E-03     575.848E-03    -288.596E-03     38.5974E-03    -287.883E-03     576.498E-03    -288.147E-03     31.8903E-03
             785     12.8197E-03     142.346E-03    -6.66452E+06     123.219E+06     125.864E+06     1.43747E+06    -287.113E-03     575.679E-03    -288.566E-03     32.6527E-03    -287.685E-03     576.300E-03    -288.106E-03     26.3923E-03
             786     674.281E-06     143.259E-03    -136.562E+06    -286.645E+06    -134.347E+06     229.644E+03    -288.677E-03     577.385E-03    -288.709E-03     2.89300E-03    -288.749E-03     576.345E-03    -288.767E-03     3.24116E-03
             787     1.34849E-03     143.267E-03    -133.280E+06    -276.363E+06    -125.190E+06     371.397E+03    -288.650E-03     577.365E-03    -288.715E-03     5.33308E-03    -288.734E-03     576.358E-03    -288.747E-03     5.95360E-03
             788     2.02290E-03     143.281E-03    -128.420E+06    -261.483E+06    -111.459E+06     519.153E+03    -288.582E-03     577.316E-03    -288.734E-03     7.92699E-03    -288.683E-03     576.356E-03    -288.726E-03     8.79528E-03
             789     2.69732E-03     143.300E-03    -122.154E+06    -243.307E+06    -94.4975E+06     635.905E+03    -288.512E-03     577.266E-03    -288.754E-03     10.5205E-03    -288.633E-03     576.363E-03    -288.696E-03     11.5778E-03
             790     3.37175E-03     143.325E-03    -114.774E+06    -222.727E+06    -75.9547E+06     690.700E+03    -288.455E-03     577.228E-03    -288.773E-03     13.1142E-03    -288.596E-03     576.391E-03    -288.663E-03     14.2850E-03
             791     4.04620E-03     143.354E-03    -106.716E+06    -200.653E+06    -57.2352E+06     710.080E+03    -288.393E-03     577.181E-03    -288.788E-03     15.7146E-03    -288.553E-03     576.416E-03    -288.629E-03     16.9092E-03
             792     4.72071E-03     143.387E-03    -98.4135E+06    -178.309E+06    -39.3732E+06     740.274E+03    -288.323E-03     577.118E-03    -288.795E-03     18.3203E-03    -288.502E-03     576.429E-03    -288.591E-03     19.4352E-03
             793     5.39538E-03     143.426E-03    -89.9742E+06    -155.422E+06    -22.6842E+06     769.839E+03    -288.270E-03     577.064E-03    -288.794E-03     20.9307E-03    -288.467E-03     576.456E-03    -288.552E-03     21.8562E-03
             794     6.07001E-03     143.468E-03    -81.7374E+06    -132.187E+06    -7.37896E+06     787.439E+03    -288.228E-03     577.013E-03    -288.786E-03     23.5316E-03    -288.444E-03     576.492E-03    -288.512E-03     24.1493E-03
             795     6.74472E-03     143.515E-03    -73.6986E+06    -107.942E+06     6.64867E+06     769.868E+03    -288.173E-03     576.942E-03    -288.770E-03     26.1409E-03    -288.412E-03     576.518E-03    -288.473E-03     26.3191E-03
             796     7.41939E-03     143.565E-03    -65.9539E+06    -82.1626E+06     19.6127E+06     1.01017E+06    -288.102E-03     576.848E-03    -288.745E-03     28.7667E-03    -288.370E-03     576.533E-03    -288.432E-03     28.3968E-03
             797     8.09432E-03     143.619E-03    -58.4580E+06    -52.8082E+06     31.9721E+06     1.30461E+06    -288.032E-03     576.744E-03    -288.712E-03     31.2995E-03    -288.338E-03     576.563E-03    -288.391E-03     30.2589E-03
             798     8.76909E-03     143.676E-03    -51.2872E+06    -18.3731E+06     44.1610E+06     1.60727E+06    -287.929E-03     576.600E-03    -288.671E-03     33.8234E-03    -288.288E-03     576.583E-03    -288.349E-03     31.9820E-03
             799     9.44406E-03     143.736E-03    -44.1042E+06     25.3455E+06     56.8466E+06     2.60239E+06    -287.740E-03     576.354E-03    -288.615E-03     36.1741E-03    -288.172E-03     576.555E-03    -288.303E-03     33.4333E-03
             800     10.1193E-03     143.797E-03    -36.8943E+06     77.8937E+06     70.0182E+06     4.13516E+06    -287.539E-03     576.083E-03    -288.544E-03     38.0354E-03    -288.062E-03     576.548E-03    -288.254E-03     34.3273E-03
             801     10.7942E-03     143.859E-03    -30.1839E+06     107.450E+06     83.7834E+06     4.88224E+06    -287.420E-03     575.930E-03    -288.511E-03     39.1444E-03    -288.005E-03     576.547E-03    -288.204E-03     34.4507E-03
             802     11.4695E-03     143.920E-03    -22.7155E+06     112.524E+06     101.633E+06     4.01857E+06    -287.283E-03     575.817E-03    -288.534E-03     39.1600E-03    -287.892E-03     576.449E-03    -288.156E-03     33.5719E-03
             803     12.1446E-03     143.978E-03    -14.5218E+06     119.711E+06     119.521E+06     2.87549E+06    -287.055E-03     575.607E-03    -288.551E-03     39.0506E-03    -287.698E-03     576.276E-03    -288.106E-03     32.3099E-03
             804     12.8197E-03     144.034E-03    -6.30332E+06     126.773E+06     127.178E+06     1.19349E+06    -286.859E-03     575.376E-03    -288.516E-03     33.3230E-03    -287.439E-03     576.014E-03    -288.055E-03     27.0752E-03
             805     674.160E-06     144.947E-03    -136.745E+06    -287.427E+06    -134.501E+06     103.225E+03    -288.843E-03     577.648E-03    -288.804E-03     2.96166E-03    -288.915E-03     576.604E-03    -288.862E-03     3.31290E-03
             806     1.34843E-03     144.955E-03    -133.650E+06    -277.236E+06    -125.411E+06     365.828E+03    -288.771E-03     577.616E-03    -288.844E-03     5.31488E-03    -288.855E-03     576.605E-03    -288.876E-03     5.94686E-03
             807     2.02262E-03     144.969E-03    -128.718E+06    -262.412E+06    -111.440E+06     597.012E+03    -288.699E-03     577.560E-03    -288.861E-03     7.82512E-03    -288.800E-03     576.596E-03    -288.851E-03     8.71048E-03
             808     2.69691E-03     144.988E-03    -122.359E+06    -243.857E+06    -94.3047E+06     728.555E+03    -288.611E-03     577.489E-03    -288.877E-03     10.3631E-03    -288.733E-03     576.583E-03    -288.818E-03     11.4467E-03
             809     3.37127E-03     145.012E-03    -115.021E+06    -223.100E+06    -75.7182E+06     761.728E+03    -288.523E-03     577.412E-03    -288.890E-03     12.9493E-03    -288.665E-03     576.574E-03    -288.778E-03     14.1495E-03
             810     4.04573E-03     145.041E-03    -107.029E+06    -201.118E+06    -57.0494E+06     803.400E+03    -288.433E-03     577.329E-03    -288.895E-03     15.5169E-03    -288.595E-03     576.562E-03    -288.734E-03     16.7413E-03
             811     4.72031E-03     145.075E-03    -98.6975E+06    -178.744E+06    -39.1451E+06     900.947E+03    -288.358E-03     577.252E-03    -288.894E-03     18.0724E-03    -288.538E-03     576.560E-03    -288.687E-03     19.2210E-03
             812     5.39483E-03     145.113E-03    -90.3470E+06    -155.740E+06    -22.4790E+06     982.728E+03    -288.285E-03     577.169E-03    -288.884E-03     20.6637E-03    -288.484E-03     576.559E-03    -288.640E-03     21.6301E-03
             813     6.06947E-03     145.156E-03    -82.0940E+06    -132.451E+06    -7.15769E+06     1.06569E+06    -288.189E-03     577.055E-03    -288.865E-03     23.2850E-03    -288.408E-03     576.532E-03    -288.590E-03     23.9454E-03
             814     6.74419E-03     145.202E-03    -74.0861E+06    -108.298E+06     6.80588E+06     1.17513E+06    -288.094E-03     576.930E-03    -288.836E-03     25.9378E-03    -288.335E-03     576.504E-03    -288.538E-03     26.1664E-03
             815     7.41911E-03     145.252E-03    -66.3135E+06    -83.0801E+06     19.6441E+06     1.37829E+06    -287.997E-03     576.795E-03    -288.798E-03     28.5726E-03    -288.265E-03     576.476E-03    -288.483E-03     28.2480E-03
             816     8.09392E-03     145.306E-03    -58.8320E+06    -53.8808E+06     31.8543E+06     1.71212E+06    -287.853E-03     576.602E-03    -288.749E-03     31.1408E-03    -288.159E-03     576.415E-03    -288.426E-03     30.1554E-03
             817     8.76902E-03     145.363E-03    -51.4837E+06    -20.1722E+06     43.9784E+06     2.26554E+06    -287.684E-03     576.373E-03    -288.689E-03     33.6888E-03    -288.040E-03     576.347E-03    -288.365E-03     31.9049E-03
             818     9.44421E-03     145.422E-03    -44.3143E+06     23.8394E+06     56.8838E+06     2.28791E+06    -287.509E-03     576.125E-03    -288.615E-03     36.0499E-03    -287.939E-03     576.317E-03    -288.301E-03     33.3447E-03
             819     10.1194E-03     145.484E-03    -36.7411E+06     72.7206E+06     69.5227E+06     3.07186E+06    -287.332E-03     575.865E-03    -288.532E-03     37.9518E-03    -287.845E-03     576.304E-03    -288.237E-03     34.2691E-03
             820     10.7948E-03     145.546E-03    -28.5731E+06     105.213E+06     83.0310E+06     4.75433E+06    -287.160E-03     575.637E-03    -288.477E-03     39.0700E-03    -287.732E-03     576.241E-03    -288.173E-03     34.3939E-03
             821     11.4701E-03     145.606E-03    -21.1923E+06     117.364E+06     101.162E+06     3.89839E+06    -287.009E-03     575.486E-03    -288.477E-03     39.0974E-03    -287.615E-03     576.140E-03    -288.111E-03     33.5208E-03
             822     12.1457E-03     145.665E-03    -14.0260E+06     123.470E+06     119.557E+06     1.75363E+06    -286.919E-03     575.411E-03    -288.492E-03     38.8994E-03    -287.565E-03     576.098E-03    -288.053E-03     32.1152E-03
             823     12.8217E-03     145.719E-03    -6.32814E+06     129.211E+06     127.567E+06     619.927E+03    -286.869E-03     575.330E-03    -288.461E-03     32.7160E-03    -287.452E-03     575.980E-03    -288.001E-03     26.4359E-03
             824     674.125E-06     146.635E-03    -137.499E+06    -288.321E+06    -135.250E+06     335.349E+03    -288.955E-03     577.915E-03    -288.961E-03     2.84772E-03    -289.028E-03     576.869E-03    -289.020E-03     3.20397E-03
             825     1.34817E-03     146.643E-03    -134.246E+06    -278.317E+06    -125.690E+06     437.829E+03    -288.907E-03     577.888E-03    -288.981E-03     5.24128E-03    -288.992E-03     576.873E-03    -289.012E-03     5.88813E-03
             826     2.02235E-03     146.657E-03    -129.257E+06    -263.332E+06    -111.628E+06     647.709E+03    -288.829E-03     577.827E-03    -288.998E-03     7.75481E-03    -288.931E-03     576.859E-03    -288.987E-03     8.66199E-03
             827     2.69657E-03     146.676E-03    -122.755E+06    -244.509E+06    -94.4032E+06     751.466E+03    -288.732E-03     577.744E-03    -289.012E-03     10.3067E-03    -288.854E-03     576.836E-03    -288.951E-03     11.4162E-03
             828     3.37088E-03     146.700E-03    -115.229E+06    -223.678E+06    -75.6195E+06     878.245E+03    -288.624E-03     577.645E-03    -289.021E-03     12.8348E-03    -288.767E-03     576.804E-03    -288.907E-03     14.0681E-03
             829     4.04527E-03     146.729E-03    -107.081E+06    -201.544E+06    -56.7165E+06     955.348E+03    -288.514E-03     577.536E-03    -289.021E-03     15.3500E-03    -288.676E-03     576.766E-03    -288.857E-03     16.6137E-03
             830     4.71965E-03     146.762E-03    -98.5119E+06    -179.181E+06    -38.6141E+06     925.049E+03    -288.402E-03     577.414E-03    -289.012E-03     17.9120E-03    -288.582E-03     576.720E-03    -288.802E-03     19.1031E-03
             831     5.39425E-03     146.801E-03    -89.8505E+06    -156.241E+06    -21.8513E+06     1.01899E+06    -288.272E-03     577.263E-03    -288.990E-03     20.5148E-03    -288.469E-03     576.649E-03    -288.743E-03     21.5297E-03
             832     6.06893E-03     146.843E-03    -81.2604E+06    -132.892E+06    -6.43954E+06     1.07167E+06    -288.138E-03     577.094E-03    -288.956E-03     23.1273E-03    -288.352E-03     576.567E-03    -288.678E-03     23.8364E-03
             833     6.74376E-03     146.889E-03    -72.8663E+06    -108.805E+06     7.67622E+06     1.16373E+06    -288.015E-03     576.927E-03    -288.912E-03     25.7806E-03    -288.250E-03     576.494E-03    -288.610E-03     26.0597E-03
             834     7.41855E-03     146.939E-03    -64.5848E+06    -83.9193E+06     20.7736E+06     1.27835E+06    -287.880E-03     576.739E-03    -288.859E-03     28.4057E-03    -288.139E-03     576.411E-03    -288.540E-03     28.1247E-03
             835     8.09365E-03     146.993E-03    -56.6365E+06    -55.2228E+06     33.2089E+06      1.5858E+06    -287.702E-03     576.496E-03    -288.794E-03     30.9242E-03    -287.996E-03     576.297E-03    -288.466E-03     29.9744E-03
             836     8.76883E-03     147.049E-03    -48.7652E+06    -22.0249E+06     45.5423E+06     1.91811E+06    -287.522E-03     576.242E-03    -288.720E-03     33.3959E-03    -287.863E-03     576.200E-03    -288.389E-03     31.6500E-03
             837     9.44408E-03     147.109E-03    -41.0814E+06     22.8887E+06     59.0630E+06     2.64332E+06    -287.334E-03     575.967E-03    -288.633E-03     35.7196E-03    -287.747E-03     576.144E-03    -288.311E-03     33.0669E-03
             838     10.1195E-03     147.170E-03    -34.6218E+06     68.7267E+06     71.0630E+06     3.70882E+06    -287.134E-03     575.673E-03    -288.539E-03     37.6000E-03    -287.631E-03     576.085E-03    -288.233E-03     33.9579E-03
             839     10.7949E-03     147.232E-03    -28.3901E+06     103.276E+06     82.6708E+06     3.81537E+06    -286.966E-03     575.428E-03    -288.462E-03     38.6502E-03    -287.532E-03     576.021E-03    -288.158E-03     33.9704E-03
             840     11.4705E-03     147.293E-03    -21.0488E+06     121.799E+06     100.861E+06     3.12029E+06    -286.874E-03     575.319E-03    -288.445E-03     38.4856E-03    -287.483E-03     575.994E-03    -288.087E-03     32.9082E-03
             841     12.1461E-03     147.350E-03    -13.8069E+06     126.666E+06     119.769E+06     1.98850E+06    -286.883E-03     575.345E-03    -288.462E-03     38.3169E-03    -287.530E-03     576.046E-03    -288.027E-03     31.5253E-03
             842     12.8205E-03     147.407E-03    -6.94457E+06     131.138E+06     127.714E+06     1.02258E+06    -286.697E-03     575.128E-03    -288.431E-03     32.3858E-03    -287.286E-03     575.787E-03    -287.973E-03     26.0777E-03
             843     673.959E-06     148.323E-03    -137.610E+06    -289.418E+06    -135.418E+06     301.037E+03    -289.051E-03     578.206E-03    -289.155E-03     2.91476E-03    -289.123E-03     577.155E-03    -289.213E-03     3.27949E-03
             844     1.34801E-03     148.332E-03    -134.318E+06    -279.338E+06    -125.750E+06     467.008E+03    -289.040E-03     578.164E-03    -289.124E-03     5.21097E-03    -289.124E-03     577.145E-03    -289.153E-03     5.87870E-03
             845     2.02207E-03     148.346E-03    -129.191E+06    -264.066E+06    -111.532E+06     514.355E+03    -288.961E-03     578.099E-03    -289.138E-03     7.67400E-03    -289.062E-03     577.127E-03    -289.125E-03     8.60544E-03
             846     2.69622E-03     148.364E-03    -122.614E+06    -245.176E+06    -94.1185E+06     640.357E+03    -288.860E-03     578.010E-03    -289.150E-03     10.1733E-03    -288.981E-03     577.098E-03    -289.087E-03     11.3104E-03
             847     3.37038E-03     148.388E-03    -115.018E+06    -224.220E+06    -75.1633E+06     741.839E+03    -288.733E-03     577.889E-03    -289.156E-03     12.6970E-03    -288.874E-03     577.044E-03    -289.040E-03     13.9654E-03
             848     4.04466E-03     148.417E-03    -106.636E+06    -201.833E+06    -56.0645E+06     697.937E+03    -288.581E-03     577.731E-03    -289.149E-03     15.2447E-03    -288.742E-03     576.959E-03    -288.983E-03     16.5458E-03
             849     4.71917E-03     148.450E-03    -97.8965E+06    -179.378E+06    -37.8329E+06     628.138E+03    -288.426E-03     577.555E-03    -289.129E-03     17.8085E-03    -288.603E-03     576.858E-03    -288.916E-03     19.0422E-03
             850     5.39371E-03     148.488E-03    -89.1932E+06    -156.518E+06    -21.0128E+06     557.185E+03    -288.267E-03     577.361E-03    -289.095E-03     20.3668E-03    -288.460E-03     576.743E-03    -288.843E-03     21.4163E-03
             851     6.06841E-03     148.530E-03    -80.5268E+06    -133.119E+06    -5.54982E+06     531.932E+03    -288.107E-03     577.154E-03    -289.047E-03     22.9574E-03    -288.318E-03     576.623E-03    -288.765E-03     23.7031E-03
             852     6.74318E-03     148.576E-03    -72.0008E+06    -109.320E+06     8.62187E+06     554.857E+03    -287.949E-03     576.939E-03    -288.990E-03     25.5976E-03    -288.180E-03     576.501E-03    -288.684E-03     25.9096E-03
             853     7.41825E-03     148.626E-03    -63.8460E+06    -84.4797E+06     21.7030E+06     630.287E+03    -287.777E-03     576.700E-03    -288.923E-03     28.1728E-03    -288.032E-03     576.366E-03    -288.599E-03     27.9259E-03
             854     8.09328E-03     148.679E-03    -55.9060E+06    -56.5500E+06     34.0507E+06     881.191E+03    -287.615E-03     576.461E-03    -288.846E-03     30.6573E-03    -287.904E-03     576.252E-03    -288.513E-03     29.7394E-03
             855     8.76845E-03     148.736E-03    -48.5138E+06    -23.7118E+06     46.2431E+06     1.51957E+06    -287.433E-03     576.195E-03    -288.762E-03     33.1263E-03    -287.770E-03     576.142E-03    -288.426E-03     31.4135E-03
             856     9.44379E-03     148.795E-03    -41.8966E+06     17.2706E+06     58.4977E+06     3.42538E+06    -287.187E-03     575.852E-03    -288.665E-03     35.4249E-03    -287.594E-03     576.002E-03    -288.337E-03     32.8182E-03
             857     10.1193E-03     148.856E-03    -35.1752E+06     65.1889E+06     70.5621E+06     5.54327E+06    -286.943E-03     575.498E-03    -288.556E-03     37.3381E-03    -287.435E-03     575.893E-03    -288.246E-03     33.7420E-03
             858     10.7949E-03     148.918E-03    -28.6082E+06     106.700E+06     83.3866E+06     4.99334E+06    -286.785E-03     575.247E-03    -288.462E-03     38.5616E-03    -287.358E-03     575.855E-03    -288.158E-03     33.9138E-03
             859     11.4703E-03     148.978E-03    -22.2396E+06     125.043E+06     100.096E+06     2.74740E+06    -286.698E-03     575.127E-03    -288.429E-03     38.7257E-03    -287.317E-03     575.821E-03    -288.078E-03     33.1619E-03
             860     12.1455E-03     149.037E-03    -15.0581E+06     128.527E+06     118.281E+06     1.25513E+06    -286.465E-03     574.893E-03    -288.428E-03     38.9393E-03    -287.121E-03     575.609E-03    -288.001E-03     32.1571E-03
             861     12.8222E-03     149.092E-03    -7.15236E+06     132.956E+06     128.428E+06     983.233E+03    -286.354E-03     574.741E-03    -288.387E-03     33.0294E-03    -286.950E-03     575.411E-03    -287.928E-03     26.7305E-03
             862     673.923E-06     150.012E-03    -138.444E+06    -290.594E+06    -135.793E+06     196.840E+03    -289.253E-03     578.536E-03    -289.283E-03     2.79270E-03    -289.327E-03     577.481E-03    -289.340E-03     3.16427E-03
             863     1.34783E-03     150.021E-03    -134.835E+06    -280.014E+06    -126.288E+06     351.110E+03    -289.172E-03     578.455E-03    -289.283E-03     5.07556E-03    -289.257E-03     577.433E-03    -289.313E-03     5.76083E-03
             864     2.02178E-03     150.035E-03    -129.716E+06    -264.586E+06    -111.921E+06     419.290E+03    -289.078E-03     578.363E-03    -289.285E-03     7.55390E-03    -289.180E-03     577.390E-03    -289.273E-03     8.51210E-03
             865     2.69578E-03     150.053E-03    -123.139E+06    -245.682E+06    -94.3321E+06     440.802E+03    -288.948E-03     578.236E-03    -289.288E-03     10.0872E-03    -289.071E-03     577.323E-03    -289.225E-03     11.2570E-03
             866     3.36996E-03     150.077E-03    -115.377E+06    -224.388E+06    -75.2106E+06     408.163E+03    -288.792E-03     578.074E-03    -289.282E-03     12.6225E-03    -288.935E-03     577.228E-03    -289.165E-03     13.9243E-03
             867     4.04428E-03     150.105E-03    -107.036E+06    -201.955E+06    -56.0720E+06     365.520E+03    -288.629E-03     577.892E-03    -289.264E-03     15.1411E-03    -288.791E-03     577.120E-03    -289.096E-03     16.4823E-03
             868     4.71863E-03     150.138E-03    -98.4091E+06    -179.350E+06    -37.8078E+06     291.667E+03    -288.460E-03     577.694E-03    -289.233E-03     17.6665E-03    -288.640E-03     576.997E-03    -289.020E-03     18.9421E-03
             869     5.39319E-03     150.176E-03    -89.6977E+06    -156.354E+06    -20.8276E+06     139.649E+03    -288.278E-03     577.468E-03    -289.190E-03     20.2010E-03    -288.474E-03     576.851E-03    -288.937E-03     21.2878E-03
             870     6.06786E-03     150.218E-03    -81.1542E+06    -133.207E+06    -5.40665E+06     121.987E+03    -288.090E-03     577.223E-03    -289.133E-03     22.7826E-03    -288.304E-03     576.692E-03    -288.849E-03     23.5653E-03
             871     6.74276E-03     150.264E-03    -72.8048E+06    -109.732E+06     8.61716E+06     239.459E+03    -287.907E-03     576.972E-03    -289.065E-03     25.3903E-03    -288.141E-03     576.533E-03    -288.757E-03     25.7397E-03
             872     7.41764E-03     150.313E-03    -64.8443E+06    -85.0856E+06     21.4872E+06     407.446E+03    -287.721E-03     576.708E-03    -288.987E-03     27.9237E-03    -287.980E-03     576.372E-03    -288.662E-03     27.7142E-03
             873     8.09283E-03     150.366E-03    -57.3123E+06    -58.1212E+06     33.4610E+06     923.814E+03    -287.522E-03     576.422E-03    -288.900E-03     30.4284E-03    -287.814E-03     576.207E-03    -288.565E-03     29.5557E-03
             874     8.76810E-03     150.422E-03    -50.1548E+06    -26.9525E+06     45.0775E+06     2.06406E+06    -287.307E-03     576.111E-03    -288.803E-03     32.9247E-03    -287.646E-03     576.044E-03    -288.466E-03     31.2624E-03
             875     9.44350E-03     150.481E-03    -42.9818E+06     10.5432E+06     56.7027E+06     3.90090E+06    -287.065E-03     575.761E-03    -288.696E-03     35.2733E-03    -287.464E-03     575.881E-03    -288.366E-03     32.7090E-03
             876     10.1190E-03     150.541E-03    -35.6088E+06     61.8648E+06     69.6270E+06     5.31601E+06    -286.761E-03     575.334E-03    -288.573E-03     37.2380E-03    -287.249E-03     575.713E-03    -288.263E-03     33.6837E-03
             877     10.7949E-03     150.603E-03    -28.0846E+06     109.704E+06     82.9827E+06     5.23900E+06    -286.480E-03     574.935E-03    -288.455E-03     38.5497E-03    -287.053E-03     575.557E-03    -288.158E-03     33.9552E-03
             878     11.4708E-03     150.664E-03    -21.0138E+06     128.641E+06     99.6017E+06     4.15488E+06    -286.267E-03     574.665E-03    -288.398E-03     38.7675E-03    -286.884E-03     575.376E-03    -288.056E-03     33.2336E-03
             879     12.1472E-03     150.721E-03    -13.7904E+06     133.419E+06     120.294E+06     1.78154E+06    -286.179E-03     574.568E-03    -288.389E-03     38.6317E-03    -286.839E-03     575.304E-03    -287.961E-03     31.8328E-03
             880     12.8227E-03     150.776E-03    -7.70625E+06     135.302E+06     129.728E+06     97.9554E+03    -286.372E-03     574.719E-03    -288.347E-03     32.5409E-03    -286.974E-03     575.397E-03    -287.883E-03     26.2640E-03
             881     673.677E-06     151.702E-03    -138.853E+06    -291.469E+06    -136.757E+06     164.123E+03    -289.434E-03     578.857E-03    -289.423E-03     2.76469E-03    -289.507E-03     577.799E-03    -289.483E-03     3.14187E-03
             882     1.34750E-03     151.710E-03    -135.778E+06    -280.773E+06    -127.146E+06     344.609E+03    -289.302E-03     578.739E-03    -289.437E-03     5.07058E-03    -289.389E-03     577.716E-03    -289.468E-03     5.77030E-03
             883     2.02144E-03     151.724E-03    -130.545E+06    -265.018E+06    -112.566E+06     449.326E+03    -289.173E-03     578.599E-03    -289.426E-03     7.49774E-03    -289.278E-03     577.626E-03    -289.415E-03     8.48375E-03
             884     2.69551E-03     151.742E-03    -123.899E+06    -245.732E+06    -94.7389E+06     393.145E+03    -289.022E-03     578.438E-03    -289.415E-03     9.95239E-03    -289.148E-03     577.526E-03    -289.353E-03     11.1559E-03
             885     3.36961E-03     151.766E-03    -116.213E+06    -224.336E+06    -75.5238E+06     248.863E+03    -288.852E-03     578.250E-03    -289.398E-03     12.4244E-03    -288.998E-03     577.407E-03    -289.282E-03     13.7601E-03
             886     4.04382E-03     151.794E-03    -107.859E+06    -201.932E+06    -56.2770E+06     195.147E+03    -288.669E-03     578.040E-03    -289.371E-03     14.9214E-03    -288.835E-03     577.269E-03    -289.203E-03     16.3044E-03
             887     4.71822E-03     151.827E-03    -99.2012E+06    -179.203E+06    -37.9242E+06     189.762E+03    -288.473E-03     577.803E-03    -289.330E-03     17.4532E-03    -288.657E-03     577.109E-03    -289.116E-03     18.7739E-03
             888     5.39274E-03     151.864E-03    -90.4926E+06    -156.268E+06    -20.9751E+06     159.711E+03    -288.273E-03     577.549E-03    -289.276E-03     20.0073E-03    -288.474E-03     576.935E-03    -289.023E-03     21.1440E-03
             889     6.06743E-03     151.905E-03    -81.9816E+06    -133.572E+06    -5.62201E+06     231.405E+03    -288.077E-03     577.287E-03    -289.210E-03     22.5921E-03    -288.295E-03     576.755E-03    -288.925E-03     23.4251E-03
             890     6.74221E-03     151.951E-03    -73.7948E+06    -110.071E+06     8.25913E+06     357.219E+03    -287.874E-03     577.006E-03    -289.132E-03     25.2137E-03    -288.112E-03     576.567E-03    -288.824E-03     25.6196E-03
             891     7.41729E-03     152.000E-03    -65.8567E+06    -85.9602E+06     20.9506E+06     584.583E+03    -287.670E-03     576.715E-03    -289.044E-03     27.7747E-03    -287.931E-03     576.376E-03    -288.719E-03     27.6248E-03
             892     8.09239E-03     152.052E-03    -58.1374E+06    -59.9550E+06     32.7807E+06     1.12239E+06    -287.446E-03     576.394E-03    -288.948E-03     30.2633E-03    -287.738E-03     576.171E-03    -288.613E-03     29.4427E-03
             893     8.76777E-03     152.108E-03    -50.6537E+06    -30.4326E+06     44.1471E+06     1.97290E+06    -287.204E-03     576.046E-03    -288.842E-03     32.7203E-03    -287.537E-03     575.963E-03    -288.503E-03     31.1034E-03
             894     9.44330E-03     152.166E-03    -43.0621E+06     6.09007E+06     55.7982E+06     2.90842E+06    -286.963E-03     575.688E-03    -288.725E-03     35.0352E-03    -287.354E-03     575.786E-03    -288.393E-03     32.4959E-03
             895     10.1190E-03     152.227E-03    -35.3955E+06     58.6840E+06     69.2864E+06     3.99805E+06    -286.653E-03     575.246E-03    -288.594E-03     36.9370E-03    -287.133E-03     575.608E-03    -288.281E-03     33.3910E-03
             896     10.7948E-03     152.288E-03    -28.5021E+06     109.884E+06     82.4442E+06     4.77367E+06    -286.292E-03     574.754E-03    -288.461E-03     38.0694E-03    -286.865E-03     575.376E-03    -288.167E-03     33.4776E-03
             897     11.4710E-03     152.348E-03    -21.3576E+06     132.234E+06     99.3519E+06     3.86697E+06    -286.069E-03     574.459E-03    -288.390E-03     38.0172E-03    -286.692E-03     575.187E-03    -288.054E-03     32.4385E-03
             898     12.1467E-03     152.406E-03    -14.2943E+06     136.892E+06     119.779E+06     2.46941E+06    -286.033E-03     574.405E-03    -288.372E-03     38.0683E-03    -286.698E-03     575.158E-03    -287.951E-03     31.2632E-03
             899     12.8224E-03     152.463E-03    -7.31299E+06     137.858E+06     130.132E+06     1.05554E+06    -285.971E-03     574.292E-03    -288.321E-03     32.6726E-03    -286.574E-03     574.981E-03    -287.860E-03     26.4232E-03
             900     673.761E-06     153.392E-03    -139.897E+06    -292.218E+06    -137.758E+06     197.515E+03    -289.499E-03     579.041E-03    -289.542E-03     2.76013E-03    -289.575E-03     577.982E-03    -289.604E-03     3.14717E-03
             901     1.34748E-03     153.400E-03    -136.682E+06    -281.381E+06    -127.911E+06     269.155E+03    -289.440E-03     578.979E-03    -289.539E-03     5.04315E-03    -289.530E-03     577.955E-03    -289.572E-03     5.75656E-03
             902     2.02126E-03     153.414E-03    -131.436E+06    -265.409E+06    -113.243E+06     337.066E+03    -289.297E-03     578.837E-03    -289.540E-03     7.41746E-03    -289.405E-03     577.865E-03    -289.530E-03     8.42501E-03
             903     2.69510E-03     153.432E-03    -124.610E+06    -245.777E+06    -95.1359E+06     341.918E+03    -289.117E-03     578.646E-03    -289.530E-03     9.83918E-03    -289.246E-03     577.736E-03    -289.468E-03     11.0739E-03
             904     3.36916E-03     153.455E-03    -116.900E+06    -224.293E+06    -75.6390E+06     300.598E+03    -288.924E-03     578.433E-03    -289.508E-03     12.2896E-03    -289.074E-03     577.591E-03    -289.392E-03     13.6678E-03
             905     4.04337E-03     153.483E-03    -108.465E+06    -201.930E+06    -56.2222E+06     252.483E+03    -288.710E-03     578.184E-03    -289.474E-03     14.7429E-03    -288.879E-03     577.414E-03    -289.305E-03     16.1689E-03
             906     4.71774E-03     153.515E-03    -99.6685E+06    -179.181E+06    -37.9167E+06     261.727E+03    -288.487E-03     577.910E-03    -289.423E-03     17.2134E-03    -288.673E-03     577.216E-03    -289.208E-03     18.5858E-03
             907     5.39231E-03     153.552E-03    -90.8931E+06    -156.351E+06    -21.0715E+06     280.811E+03    -288.273E-03     577.632E-03    -289.358E-03     19.7186E-03    -288.475E-03     577.017E-03    -289.105E-03     20.9136E-03
             908     6.06700E-03     153.593E-03    -82.2669E+06    -133.949E+06    -5.77642E+06     333.032E+03    -288.054E-03     577.336E-03    -289.282E-03     22.2753E-03    -288.272E-03     576.803E-03    -288.998E-03     23.1656E-03
             909     6.74192E-03     153.638E-03    -73.9655E+06    -110.402E+06     8.11579E+06     456.857E+03    -287.824E-03     577.017E-03    -289.194E-03     24.8965E-03    -288.060E-03     576.576E-03    -288.886E-03     25.3598E-03
             910     7.41690E-03     153.687E-03    -65.8814E+06    -86.8141E+06     20.7887E+06     634.812E+03    -287.604E-03     576.700E-03    -289.096E-03     27.4693E-03    -287.863E-03     576.357E-03    -288.771E-03     27.3791E-03
             911     8.09216E-03     153.739E-03    -58.0459E+06    -61.3230E+06     32.4927E+06     869.971E+03    -287.383E-03     576.374E-03    -288.990E-03     29.9679E-03    -287.671E-03     576.143E-03    -288.655E-03     29.1933E-03
             912     8.76747E-03     153.794E-03    -50.3127E+06    -32.3292E+06     43.8907E+06     1.19799E+06    -287.151E-03     576.029E-03    -288.877E-03     32.4764E-03    -287.479E-03     575.935E-03    -288.538E-03     30.8863E-03
             913     9.44298E-03     153.852E-03    -42.7940E+06     3.25525E+06     55.4583E+06     1.85792E+06    -286.896E-03     575.651E-03    -288.755E-03     34.8303E-03    -287.280E-03     575.734E-03    -288.420E-03     32.3111E-03
             914     10.1186E-03     153.912E-03    -35.6528E+06     54.0848E+06     68.5739E+06     3.15055E+06    -286.591E-03     575.210E-03    -288.619E-03     36.7724E-03    -287.064E-03     575.549E-03    -288.302E-03     33.2361E-03
             915     10.7945E-03     153.973E-03    -28.3354E+06     107.998E+06     81.5448E+06     4.52806E+06    -286.268E-03     574.744E-03    -288.476E-03     37.9244E-03    -286.835E-03     575.357E-03    -288.184E-03     33.3361E-03
             916     11.4703E-03     154.033E-03    -21.2058E+06     134.931E+06     97.7991E+06     4.48522E+06    -285.973E-03     574.363E-03    -288.391E-03     38.1196E-03    -286.596E-03     575.107E-03    -288.067E-03     32.5792E-03
             917     12.1465E-03     154.091E-03    -13.8026E+06     139.412E+06     118.569E+06     3.13894E+06    -285.629E-03     573.988E-03    -288.359E-03     38.3748E-03    -286.295E-03     574.756E-03    -287.949E-03     31.5907E-03
             918     12.8234E-03     154.146E-03    -5.65004E+06     141.273E+06     132.253E+06     1.04541E+06    -285.379E-03     573.675E-03    -288.296E-03     32.7754E-03    -285.985E-03     574.379E-03    -287.831E-03     26.4458E-03
             919     673.639E-06     155.083E-03    -141.420E+06    -292.663E+06    -138.729E+06     74.8544E+03    -289.535E-03     579.199E-03    -289.664E-03     2.71395E-03    -289.617E-03     578.142E-03    -289.728E-03     3.11093E-03
             920     1.34729E-03     155.091E-03    -137.554E+06    -281.716E+06    -128.570E+06     103.953E+03    -289.526E-03     579.148E-03    -289.622E-03     4.96147E-03    -289.619E-03     578.125E-03    -289.656E-03     5.69655E-03
             921     2.02100E-03     155.104E-03    -132.241E+06    -265.805E+06    -113.747E+06     197.280E+03    -289.395E-03     579.022E-03    -289.627E-03     7.33726E-03    -289.506E-03     578.049E-03    -289.618E-03     8.36591E-03
             922     2.69494E-03     155.122E-03    -125.481E+06    -246.056E+06    -95.7062E+06     310.293E+03    -289.205E-03     578.823E-03    -289.619E-03     9.73790E-03    -289.337E-03     577.914E-03    -289.559E-03     11.0038E-03
             923     3.36893E-03     155.145E-03    -117.672E+06    -224.349E+06    -76.0324E+06     318.625E+03    -288.989E-03     578.585E-03    -289.596E-03     12.1536E-03    -289.142E-03     577.745E-03    -289.480E-03     13.5745E-03
             924     4.04306E-03     155.172E-03    -109.114E+06    -201.898E+06    -56.5443E+06     258.120E+03    -288.774E-03     578.332E-03    -289.558E-03     14.5714E-03    -288.946E-03     577.564E-03    -289.390E-03     16.0452E-03
             925     4.71737E-03     155.204E-03    -100.234E+06    -179.187E+06    -38.2287E+06     212.252E+03    -288.549E-03     578.054E-03    -289.505E-03     16.9956E-03    -288.737E-03     577.361E-03    -289.291E-03     18.4185E-03
             926     5.39184E-03     155.241E-03    -91.4065E+06    -156.395E+06    -21.3639E+06     200.265E+03    -288.303E-03     577.740E-03    -289.437E-03     19.4510E-03    -288.507E-03     577.126E-03    -289.184E-03     20.7059E-03
             927     6.06651E-03     155.281E-03    -82.6845E+06    -133.991E+06    -5.99043E+06     157.398E+03    -288.046E-03     577.400E-03    -289.354E-03     21.9527E-03    -288.265E-03     576.867E-03    -289.070E-03     22.9042E-03
             928     6.74137E-03     155.325E-03    -74.1342E+06    -110.623E+06     8.06277E+06     163.560E+03    -287.780E-03     577.037E-03    -289.257E-03     24.5486E-03    -288.017E-03     576.595E-03    -288.949E-03     25.0727E-03
             929     7.41650E-03     155.374E-03    -65.8943E+06    -87.4165E+06     20.8322E+06     326.322E+03    -287.522E-03     576.672E-03    -289.150E-03     27.1391E-03    -287.780E-03     576.325E-03    -288.823E-03     27.1118E-03
             930     8.09171E-03     155.425E-03    -57.9857E+06    -61.9920E+06     32.6271E+06     468.053E+03    -287.266E-03     576.298E-03    -289.032E-03     29.6880E-03    -287.551E-03     576.062E-03    -288.695E-03     28.9800E-03
             931     8.76719E-03     155.480E-03    -50.3330E+06    -33.5499E+06     43.9546E+06     743.017E+03    -287.008E-03     575.914E-03    -288.906E-03     32.3177E-03    -287.332E-03     575.813E-03    -288.565E-03     30.7991E-03
             932     9.44276E-03     155.537E-03    -43.1889E+06     398.955E+03     54.9602E+06     1.53634E+06    -286.733E-03     575.504E-03    -288.771E-03     34.8463E-03    -287.112E-03     575.572E-03    -288.434E-03     32.3995E-03
             933     10.1186E-03     155.597E-03    -36.3069E+06     49.2334E+06     67.5831E+06     3.01888E+06    -286.414E-03     575.036E-03    -288.622E-03     37.0215E-03    -286.879E-03     575.352E-03    -288.303E-03     33.5550E-03
             934     10.7945E-03     155.658E-03    -29.5565E+06     106.430E+06     80.3295E+06     3.72953E+06    -286.056E-03     574.518E-03    -288.462E-03     38.4516E-03    -286.625E-03     575.127E-03    -288.172E-03     33.8911E-03
             935     11.4707E-03     155.717E-03    -22.1497E+06     137.463E+06     96.2520E+06     3.00862E+06    -285.749E-03     574.104E-03    -288.355E-03     38.7413E-03    -286.380E-03     574.865E-03    -288.041E-03     33.1800E-03
             936     12.1472E-03     155.774E-03    -14.0175E+06     141.422E+06     118.214E+06     2.61911E+06    -285.493E-03     573.813E-03    -288.321E-03     38.7085E-03    -286.166E-03     574.596E-03    -287.914E-03     31.8477E-03
             937     12.8233E-03     155.829E-03    -6.59879E+06     144.249E+06     133.747E+06     1.82792E+06    -285.449E-03     573.716E-03    -288.266E-03     32.8825E-03    -286.069E-03     574.436E-03    -287.797E-03     26.5178E-03
             938     673.571E-06     156.773E-03    -141.609E+06    -292.645E+06    -139.075E+06    -30.4132E+03    -289.669E-03     579.362E-03    -289.693E-03     2.75005E-03    -289.751E-03     578.306E-03    -289.759E-03     3.16688E-03
             939     1.34725E-03     156.781E-03    -138.225E+06    -282.339E+06    -129.165E+06     238.266E+03    -289.574E-03     579.270E-03    -289.696E-03     4.91140E-03    -289.668E-03     578.246E-03    -289.732E-03     5.66964E-03
             940     2.02099E-03     156.794E-03    -132.862E+06    -266.130E+06    -114.146E+06     326.029E+03    -289.445E-03     579.137E-03    -289.693E-03     7.23273E-03    -289.557E-03     578.165E-03    -289.685E-03     8.29017E-03
             941     2.69469E-03     156.812E-03    -126.050E+06    -246.238E+06    -96.0168E+06     303.182E+03    -289.272E-03     578.955E-03    -289.683E-03     9.60282E-03    -289.406E-03     578.046E-03    -289.623E-03     10.9036E-03
             942     3.36863E-03     156.834E-03    -118.034E+06    -224.376E+06    -76.2774E+06     292.118E+03    -289.051E-03     578.712E-03    -289.661E-03     11.9936E-03    -289.205E-03     577.872E-03    -289.546E-03     13.4561E-03
             943     4.04278E-03     156.862E-03    -109.471E+06    -201.836E+06    -56.6823E+06     254.303E+03    -288.822E-03     578.445E-03    -289.622E-03     14.4171E-03    -288.996E-03     577.678E-03    -289.454E-03     15.9462E-03
             944     4.71702E-03     156.893E-03    -100.633E+06    -179.086E+06    -38.2172E+06     164.128E+03    -288.591E-03     578.158E-03    -289.568E-03     16.8535E-03    -288.781E-03     577.466E-03    -289.353E-03     18.3314E-03
             945     5.39148E-03     156.929E-03    -91.7719E+06    -156.149E+06    -21.2029E+06     90.7399E+03    -288.324E-03     577.820E-03    -289.496E-03     19.3206E-03    -288.530E-03     577.207E-03    -289.243E-03     20.6337E-03
             946     6.06615E-03     156.969E-03    -83.0342E+06    -133.655E+06    -5.77343E+06    -87.0356E+03    -288.047E-03     577.456E-03    -289.409E-03     21.8365E-03    -288.268E-03     576.924E-03    -289.124E-03     22.8548E-03
             947     6.74104E-03     157.013E-03    -74.4688E+06    -110.685E+06     8.16692E+06    -212.367E+03    -287.758E-03     577.064E-03    -289.306E-03     24.4117E-03    -287.995E-03     576.620E-03    -288.997E-03     25.0069E-03
             948     7.41611E-03     157.060E-03    -66.2367E+06    -87.8178E+06     20.8207E+06    -155.067E+03    -287.448E-03     576.638E-03    -289.190E-03     26.9814E-03    -287.706E-03     576.288E-03    -288.862E-03     27.0262E-03
             949     8.09153E-03     157.112E-03    -58.3324E+06    -62.4187E+06     32.6489E+06     19.6422E+03    -287.140E-03     576.201E-03    -289.061E-03     29.4989E-03    -287.424E-03     575.962E-03    -288.723E-03     28.8735E-03
             950     8.76709E-03     157.165E-03    -50.8303E+06    -35.0901E+06     43.7305E+06     450.699E+03    -286.822E-03     575.744E-03    -288.922E-03     32.0542E-03    -287.144E-03     575.634E-03    -288.579E-03     30.6217E-03
             951     9.44299E-03     157.222E-03    -43.5379E+06    -2.43056E+06     54.6141E+06     1.31279E+06    -286.496E-03     575.268E-03    -288.772E-03     34.5626E-03    -286.869E-03     575.320E-03    -288.432E-03     32.1888E-03
             952     10.1189E-03     157.282E-03    -36.2147E+06     44.9887E+06     67.1388E+06     2.46426E+06    -286.137E-03     574.744E-03    -288.607E-03     36.7476E-03    -286.593E-03     575.036E-03    -288.284E-03     33.3312E-03
             953     10.7954E-03     157.342E-03    -28.4243E+06     105.690E+06     81.2522E+06     3.21844E+06    -285.784E-03     574.214E-03    -288.431E-03     38.1403E-03    -286.346E-03     574.815E-03    -288.136E-03     33.5996E-03
             954     11.4717E-03     157.401E-03    -22.1000E+06     140.629E+06     97.4630E+06     2.55467E+06    -285.603E-03     573.915E-03    -288.312E-03     38.3722E-03    -286.239E-03     574.689E-03    -287.996E-03     32.8007E-03
             955     12.1478E-03     157.458E-03    -15.6593E+06     143.651E+06     117.938E+06     1.56420E+06    -285.583E-03     573.858E-03    -288.275E-03     38.3941E-03    -286.266E-03     574.653E-03    -287.871E-03     31.4941E-03
             956     12.8245E-03     157.513E-03    -8.26904E+06     146.137E+06     133.071E+06     1.78955E+06    -285.521E-03     573.748E-03    -288.227E-03     32.8295E-03    -286.149E-03     574.479E-03    -287.761E-03     26.5246E-03
             957     673.577E-06     158.464E-03    -142.495E+06    -293.347E+06    -140.051E+06     293.314E+03    -289.722E-03     579.438E-03    -289.716E-03     2.65621E-03    -289.806E-03     578.381E-03    -289.784E-03     3.10794E-03
             958     1.34711E-03     158.472E-03    -138.982E+06    -282.702E+06    -129.641E+06     280.843E+03    -289.602E-03     579.336E-03    -289.734E-03     4.87675E-03    -289.699E-03     578.312E-03    -289.770E-03     5.65465E-03
             959     2.02076E-03     158.485E-03    -133.434E+06    -266.339E+06    -114.546E+06     233.201E+03    -289.454E-03     579.179E-03    -289.725E-03     7.22012E-03    -289.569E-03     578.207E-03    -289.718E-03     8.30716E-03
             960     2.69465E-03     158.502E-03    -126.366E+06    -246.283E+06    -96.0086E+06     232.716E+03    -289.282E-03     578.994E-03    -289.711E-03     9.59065E-03    -289.418E-03     578.085E-03    -289.651E-03     10.9301E-03
             961     3.36856E-03     158.525E-03    -118.242E+06    -224.386E+06    -76.0584E+06     231.327E+03    -289.084E-03     578.773E-03    -289.689E-03     11.9776E-03    -289.240E-03     577.933E-03    -289.572E-03     13.4854E-03
             962     4.04261E-03     158.551E-03    -109.489E+06    -201.663E+06    -56.2079E+06     209.415E+03    -288.845E-03     578.496E-03    -289.651E-03     14.3918E-03    -289.019E-03     577.729E-03    -289.481E-03     15.9724E-03
             963     4.71692E-03     158.582E-03    -100.585E+06    -178.772E+06    -37.6185E+06     81.1201E+03    -288.582E-03     578.176E-03    -289.594E-03     16.8101E-03    -288.773E-03     577.485E-03    -289.377E-03     18.3472E-03
             964     5.39138E-03     158.618E-03    -91.5612E+06    -155.745E+06    -20.5947E+06    -107.652E+03    -288.316E-03     577.835E-03    -289.519E-03     19.2536E-03    -288.522E-03     577.223E-03    -289.263E-03     20.6271E-03
             965     6.06607E-03     158.657E-03    -82.6657E+06    -133.225E+06    -5.17747E+06    -238.764E+03    -288.041E-03     577.469E-03    -289.428E-03     21.7470E-03    -288.261E-03     576.938E-03    -289.141E-03     22.8360E-03
             966     6.74094E-03     158.700E-03    -74.1358E+06    -110.526E+06     8.65990E+06    -332.061E+03    -287.738E-03     577.060E-03    -289.322E-03     24.2809E-03    -287.974E-03     576.615E-03    -289.011E-03     24.9431E-03
             967     7.41610E-03     158.747E-03    -65.9557E+06    -87.8576E+06     21.2120E+06    -410.376E+03    -287.419E-03     576.621E-03    -289.202E-03     26.8398E-03    -287.674E-03     576.269E-03    -288.873E-03     26.9446E-03
             968     8.09142E-03     158.798E-03    -58.0889E+06    -62.8839E+06     32.8113E+06    -358.758E+03    -287.094E-03     576.162E-03    -289.069E-03     29.3081E-03    -287.375E-03     575.919E-03    -288.729E-03     28.7421E-03
             969     8.76704E-03     158.851E-03    -50.4356E+06    -36.2621E+06     43.8754E+06    -49.9141E+03    -286.757E-03     575.683E-03    -288.926E-03     31.7560E-03    -287.073E-03     575.564E-03    -288.581E-03     30.3812E-03
             970     9.44281E-03     158.907E-03    -42.8494E+06    -4.24419E+06     54.8185E+06     318.291E+03    -286.382E-03     575.152E-03    -288.770E-03     34.1650E-03    -286.747E-03     575.191E-03    -288.428E-03     31.8379E-03
             971     10.1190E-03     158.966E-03    -35.3430E+06     41.3483E+06     67.1018E+06     1.22923E+06    -285.977E-03     574.575E-03    -288.598E-03     36.2662E-03    -286.421E-03     574.845E-03    -288.271E-03     32.8883E-03
             972     10.7952E-03     159.025E-03    -28.7387E+06     102.455E+06     80.6652E+06     2.74833E+06    -285.619E-03     574.029E-03    -288.411E-03     37.7239E-03    -286.173E-03     574.611E-03    -288.114E-03     33.2509E-03
             973     11.4716E-03     159.085E-03    -21.9371E+06     141.321E+06     97.1068E+06     4.10255E+06    -285.452E-03     573.731E-03    -288.279E-03     38.0881E-03    -286.084E-03     574.505E-03    -287.966E-03     32.6178E-03
             974     12.1482E-03     159.142E-03    -15.2356E+06     147.366E+06     117.232E+06     3.39250E+06    -285.427E-03     573.655E-03    -288.229E-03     38.4451E-03    -286.110E-03     574.468E-03    -287.834E-03     31.6307E-03
             975     12.8238E-03     159.197E-03    -8.01998E+06     149.208E+06     132.801E+06     740.851E+03    -285.300E-03     573.476E-03    -288.176E-03     32.9464E-03    -285.930E-03     574.222E-03    -287.716E-03     26.6598E-03
             976     673.524E-06     160.155E-03    -143.256E+06    -293.785E+06    -140.544E+06    -12.9314E+03    -289.643E-03     579.392E-03    -289.750E-03     2.67635E-03    -289.729E-03     578.335E-03    -289.819E-03     3.12571E-03
             977     1.34721E-03     160.163E-03    -139.182E+06    -282.774E+06    -130.050E+06    -75.0349E+03    -289.546E-03     579.250E-03    -289.704E-03     4.91294E-03    -289.643E-03     578.227E-03    -289.742E-03     5.70022E-03
             978     2.02095E-03     160.176E-03    -133.712E+06    -266.668E+06    -114.651E+06     110.701E+03    -289.413E-03     579.102E-03    -289.689E-03     7.29189E-03    -289.528E-03     578.129E-03    -289.682E-03     8.40658E-03
             979     2.69469E-03     160.193E-03    -126.684E+06    -246.334E+06    -95.9625E+06     195.577E+03    -289.245E-03     578.920E-03    -289.675E-03     9.65713E-03    -289.382E-03     578.011E-03    -289.614E-03     11.0300E-03
             980     3.36866E-03     160.215E-03    -118.627E+06    -224.159E+06    -75.8659E+06     94.9001E+03    -289.054E-03     578.708E-03    -289.654E-03     12.0490E-03    -289.212E-03     577.869E-03    -289.536E-03     13.6000E-03
             981     4.04276E-03     160.241E-03    -109.807E+06    -201.414E+06    -55.9753E+06    -47.9852E+03    -288.834E-03     578.453E-03    -289.619E-03     14.4456E-03    -289.010E-03     577.687E-03    -289.448E-03     16.0719E-03
             982     4.71700E-03     160.272E-03    -100.600E+06    -178.331E+06    -37.2646E+06    -150.900E+03    -288.573E-03     578.138E-03    -289.565E-03     16.8355E-03    -288.765E-03     577.448E-03    -289.347E-03     18.4252E-03
             983     5.39152E-03     160.306E-03    -91.5198E+06    -155.302E+06    -20.1472E+06    -261.704E+03    -288.311E-03     577.804E-03    -289.493E-03     19.2487E-03    -288.518E-03     577.193E-03    -289.236E-03     20.6801E-03
             984     6.06617E-03     160.345E-03    -82.7429E+06    -132.813E+06    -4.76905E+06    -364.822E+03    -288.040E-03     577.444E-03    -289.405E-03     21.6943E-03    -288.261E-03     576.914E-03    -289.116E-03     22.8407E-03
             985     6.74108E-03     160.388E-03    -74.2279E+06    -110.109E+06     9.08990E+06    -481.440E+03    -287.741E-03     577.042E-03    -289.302E-03     24.1689E-03    -287.978E-03     576.599E-03    -288.989E-03     24.8887E-03
             986     7.41620E-03     160.434E-03    -65.9678E+06    -87.3760E+06     21.7466E+06    -606.697E+03    -287.423E-03     576.608E-03    -289.185E-03     26.6649E-03    -287.679E-03     576.256E-03    -288.854E-03     26.8332E-03
             987     8.09159E-03     160.484E-03    -58.1905E+06    -62.7753E+06     33.2767E+06    -639.929E+03    -287.084E-03     576.137E-03    -289.053E-03     29.1334E-03    -287.366E-03     575.893E-03    -288.712E-03     28.6271E-03
             988     8.76716E-03     160.536E-03    -50.7318E+06    -36.7601E+06     44.0560E+06    -571.066E+03    -286.746E-03     575.657E-03    -288.911E-03     31.6064E-03    -287.061E-03     575.534E-03    -288.564E-03     30.2848E-03
             989     9.44306E-03     160.592E-03    -43.4614E+06    -5.05009E+06     54.6880E+06    -434.716E+03    -286.385E-03     575.141E-03    -288.756E-03     33.9960E-03    -286.750E-03     575.176E-03    -288.412E-03     31.7181E-03
             990     10.1190E-03     160.650E-03    -36.4215E+06     38.7701E+06     66.3069E+06    -109.290E+03    -285.975E-03     574.559E-03    -288.585E-03     36.0920E-03    -286.417E-03     574.817E-03    -288.257E-03     32.7431E-03
             991     10.7956E-03     160.709E-03    -28.7667E+06     96.2347E+06     79.1314E+06     1.80250E+06    -285.566E-03     573.962E-03    -288.397E-03     37.5435E-03    -286.107E-03     574.514E-03    -288.099E-03     33.0932E-03
             992     11.4723E-03     160.768E-03    -20.8688E+06     138.740E+06     94.5656E+06     3.83028E+06    -285.299E-03     573.546E-03    -288.247E-03     37.9445E-03    -285.918E-03     574.309E-03    -287.945E-03     32.4716E-03
             993     12.1486E-03     160.825E-03    -13.4008E+06     151.749E+06     116.601E+06     2.90674E+06    -285.150E-03     573.335E-03    -288.185E-03     38.2346E-03    -285.831E-03     574.169E-03    -287.802E-03     31.3588E-03
             994     12.8262E-03     160.880E-03    -6.84107E+06     153.418E+06     134.954E+06     1.43721E+06    -285.258E-03     573.399E-03    -288.141E-03     32.5178E-03    -285.892E-03     574.161E-03    -287.678E-03     26.1725E-03
             995     673.628E-06     161.846E-03    -143.314E+06    -293.378E+06    -141.065E+06    -130.276E+03    -289.535E-03     579.105E-03    -289.570E-03     2.76002E-03    -289.621E-03     578.050E-03    -289.642E-03     3.20657E-03
             996     1.34731E-03     161.853E-03    -140.180E+06    -282.814E+06    -130.772E+06    -30.8280E+03    -289.437E-03     579.003E-03    -289.567E-03     5.00642E-03    -289.538E-03     577.982E-03    -289.607E-03     5.80383E-03
             997     2.02110E-03     161.866E-03    -134.485E+06    -266.747E+06    -115.038E+06    -86.5846E+03    -289.305E-03     578.869E-03    -289.564E-03     7.39799E-03    -289.424E-03     577.897E-03    -289.557E-03     8.53069E-03
             998     2.69504E-03     161.883E-03    -127.185E+06    -246.297E+06    -96.2235E+06    -120.766E+03    -289.156E-03     578.713E-03    -289.557E-03     9.79680E-03    -289.295E-03     577.805E-03    -289.496E-03     11.1952E-03
             999     3.36904E-03     161.904E-03    -118.886E+06    -223.618E+06    -75.9211E+06    -201.925E+03    -288.983E-03     578.525E-03    -289.543E-03     12.1860E-03    -289.143E-03     577.690E-03    -289.426E-03     13.7689E-03
            1000     4.04318E-03     161.930E-03    -109.958E+06    -200.916E+06    -55.8284E+06    -347.350E+03    -288.781E-03     578.298E-03    -289.517E-03     14.5460E-03    -288.959E-03     577.534E-03    -289.345E-03     16.2082E-03
            1001     4.71750E-03     161.961E-03    -100.745E+06    -177.997E+06    -37.0078E+06    -405.791E+03    -288.562E-03     578.035E-03    -289.474E-03     16.9171E-03    -288.755E-03     577.347E-03    -289.255E-03     18.5493E-03
            1002     5.39194E-03     161.995E-03    -91.5702E+06    -155.029E+06    -19.7549E+06    -403.769E+03    -288.309E-03     577.722E-03    -289.413E-03     19.3116E-03    -288.517E-03     577.111E-03    -289.154E-03     20.7941E-03
            1003     6.06664E-03     162.033E-03    -82.5993E+06    -132.260E+06     -4.2479E+06    -485.170E+03    -288.038E-03     577.372E-03    -289.333E-03     21.7331E-03    -288.260E-03     576.843E-03    -289.043E-03     22.9305E-03
            1004     6.74150E-03     162.075E-03    -74.0464E+06    -109.576E+06     9.51058E+06    -619.794E+03    -287.774E-03     577.012E-03    -289.238E-03     24.1938E-03    -288.010E-03     576.569E-03    -288.925E-03     24.9715E-03
            1005     7.41657E-03     162.121E-03    -65.9040E+06    -87.0372E+06     21.9955E+06    -656.529E+03    -287.476E-03     576.607E-03    -289.131E-03     26.6103E-03    -287.731E-03     576.255E-03    -288.799E-03     26.8419E-03
            1006     8.09191E-03     162.170E-03    -58.0313E+06    -62.6472E+06     33.5861E+06    -611.856E+03    -287.136E-03     576.144E-03    -289.009E-03     28.9905E-03    -287.416E-03     575.899E-03    -288.666E-03     28.5443E-03
            1007     8.76756E-03     162.222E-03    -50.5675E+06    -36.7468E+06     44.4208E+06    -579.582E+03    -286.793E-03     575.667E-03    -288.875E-03     31.3749E-03    -287.107E-03     575.542E-03    -288.526E-03     30.0981E-03
            1008     9.44334E-03     162.276E-03    -43.4885E+06    -5.73944E+06     54.8005E+06    -351.041E+03    -286.445E-03     575.171E-03    -288.726E-03     33.6891E-03    -286.807E-03     575.200E-03    -288.381E-03     31.4518E-03
            1009     10.1195E-03     162.334E-03    -36.9006E+06     37.3654E+06     66.2329E+06     308.741E+03    -286.086E-03     574.650E-03    -288.564E-03     35.7644E-03    -286.526E-03     574.899E-03    -288.233E-03     32.4540E-03
            1010     10.7955E-03     162.392E-03    -30.5798E+06     91.4858E+06     77.9315E+06     828.948E+03    -285.686E-03     574.073E-03    -288.386E-03     37.2022E-03    -286.226E-03     574.603E-03    -288.085E-03     32.7446E-03
            1011     11.4719E-03     162.451E-03    -23.0234E+06     135.816E+06     92.0159E+06     1.21607E+06    -285.260E-03     573.492E-03    -288.232E-03     37.5763E-03    -285.880E-03     574.246E-03    -287.935E-03     32.0329E-03
            1012     12.1488E-03     162.508E-03    -15.0411E+06     154.319E+06     115.393E+06     1.89496E+06    -285.056E-03     573.221E-03    -288.166E-03     37.8969E-03    -285.745E-03     574.070E-03    -287.791E-03     31.0000E-03
            1013     12.8244E-03     162.563E-03    -8.00522E+06     156.499E+06     135.407E+06     1.96003E+06    -285.111E-03     573.234E-03    -288.123E-03     32.5502E-03    -285.755E-03     574.012E-03    -287.661E-03     26.2370E-03
            1014     673.904E-06     163.536E-03    -144.571E+06    -293.423E+06    -142.284E+06     197.767E+03    -289.277E-03     578.549E-03    -289.272E-03     2.78740E-03    -289.368E-03     577.498E-03    -289.348E-03     3.25483E-03
            1015     1.34773E-03     163.544E-03    -141.102E+06    -282.148E+06    -131.384E+06    -145.585E+03    -289.250E-03     578.558E-03    -289.308E-03     5.16103E-03    -289.355E-03     577.542E-03    -289.352E-03     5.97355E-03
            1016     2.02161E-03     163.556E-03    -135.225E+06    -266.064E+06    -115.605E+06    -400.583E+03    -289.155E-03     578.492E-03    -289.336E-03     7.57239E-03    -289.278E-03     577.525E-03    -289.333E-03     8.71663E-03
            1017     2.69559E-03     163.572E-03    -127.931E+06    -245.759E+06    -96.6333E+06    -631.315E+03    -289.024E-03     578.376E-03    -289.352E-03     9.96977E-03    -289.167E-03     577.472E-03    -289.293E-03     11.3830E-03
            1018     3.36966E-03     163.594E-03    -119.280E+06    -223.096E+06    -76.1168E+06    -691.042E+03    -288.870E-03     578.225E-03    -289.355E-03     12.3449E-03    -289.032E-03     577.392E-03    -289.239E-03     13.9424E-03
            1019     4.04387E-03     163.620E-03    -110.193E+06    -200.195E+06    -55.7533E+06    -772.000E+03    -288.697E-03     578.042E-03    -289.345E-03     14.7126E-03    -288.877E-03     577.282E-03    -289.174E-03     16.3968E-03
            1020     4.71819E-03     163.649E-03    -100.983E+06    -177.398E+06    -36.8239E+06    -957.909E+03    -288.516E-03     577.833E-03    -289.318E-03     17.0701E-03    -288.711E-03     577.147E-03    -289.098E-03     18.7308E-03
            1021     5.39270E-03     163.683E-03    -91.5211E+06    -154.630E+06    -19.6107E+06    -1.11964E+06    -288.297E-03     577.569E-03    -289.272E-03     19.4138E-03    -288.504E-03     576.959E-03    -289.013E-03     20.9303E-03
            1022     6.06738E-03     163.721E-03    -82.2057E+06    -131.969E+06    -4.08778E+06    -1.13307E+06    -288.054E-03     577.262E-03    -289.208E-03     21.8008E-03    -288.273E-03     576.733E-03    -288.918E-03     23.0456E-03
            1023     6.74228E-03     163.763E-03    -73.2775E+06    -109.240E+06     9.89203E+06    -1.04981E+06    -287.814E-03     576.942E-03    -289.128E-03     24.2227E-03    -288.047E-03     576.498E-03    -288.814E-03     25.0565E-03
            1024     7.41735E-03     163.808E-03    -64.8089E+06    -86.8854E+06     22.5176E+06    -988.441E+03    -287.561E-03     576.597E-03    -289.036E-03     26.5863E-03    -287.810E-03     576.243E-03    -288.704E-03     26.8691E-03
            1025     8.09257E-03     163.856E-03    -56.7239E+06    -62.6962E+06     34.1242E+06    -881.295E+03    -287.257E-03     576.188E-03    -288.931E-03     28.9395E-03    -287.530E-03     575.938E-03    -288.587E-03     28.5425E-03
            1026     8.76798E-03     163.907E-03    -48.9984E+06    -37.3646E+06     45.0274E+06    -571.601E+03    -286.919E-03     575.731E-03    -288.812E-03     31.3296E-03    -287.223E-03     575.598E-03    -288.462E-03     30.1086E-03
            1027     9.44372E-03     163.961E-03    -41.8281E+06     -6.7035E+06     55.4592E+06    -44.6757E+03    -286.581E-03     575.259E-03    -288.678E-03     33.6453E-03    -286.933E-03     575.278E-03    -288.330E-03     31.4740E-03
            1028     10.1196E-03     164.018E-03    -34.9949E+06     33.8476E+06     66.6771E+06     1.29269E+06    -286.212E-03     574.741E-03    -288.529E-03     35.7660E-03    -286.636E-03     574.967E-03    -288.194E-03     32.5344E-03
            1029     10.7959E-03     164.077E-03    -28.8322E+06     90.4419E+06     79.4861E+06     2.72545E+06    -285.751E-03     574.112E-03    -288.361E-03     37.3742E-03    -286.282E-03     574.631E-03    -288.053E-03     32.9968E-03
            1030     11.4723E-03     164.134E-03    -23.8572E+06     137.923E+06     92.9358E+06     1.85602E+06    -285.348E-03     573.557E-03    -288.208E-03     37.9354E-03    -285.977E-03     574.320E-03    -287.909E-03     32.4506E-03
            1031     12.1486E-03     164.191E-03    -17.1609E+06     153.687E+06     111.900E+06     413.192E+03    -284.995E-03     573.122E-03    -288.127E-03     38.4598E-03    -285.690E-03     573.977E-03    -287.766E-03     31.5810E-03
            1032     12.8262E-03     164.246E-03    -6.90524E+06     157.564E+06     134.297E+06     98.5425E+03    -284.745E-03     572.824E-03    -288.079E-03     33.3116E-03    -285.386E-03     573.610E-03    -287.626E-03     26.9699E-03
            1033     674.070E-06     165.225E-03    -145.960E+06    -292.722E+06    -143.350E+06    -292.150E+03    -288.910E-03     577.907E-03    -288.997E-03     2.81981E-03    -289.007E-03     576.863E-03    -289.078E-03     3.27994E-03
            1034     1.34819E-03     165.233E-03    -142.012E+06    -281.225E+06    -132.581E+06    -457.554E+03    -288.928E-03     577.914E-03    -288.986E-03     5.21714E-03    -289.037E-03     576.905E-03    -289.035E-03     6.03359E-03
            1035     2.02225E-03     165.245E-03    -136.326E+06    -264.844E+06    -116.546E+06    -680.454E+03    -288.893E-03     577.917E-03    -289.023E-03     7.71930E-03    -289.021E-03     576.959E-03    -289.024E-03     8.86596E-03
            1036     2.69632E-03     165.261E-03    -128.928E+06    -244.312E+06    -97.1742E+06    -1.04999E+06    -288.806E-03     577.864E-03    -289.058E-03     10.2343E-03    -288.954E-03     576.970E-03    -289.003E-03     11.6521E-03
            1037     3.37055E-03     165.283E-03    -120.348E+06    -222.052E+06    -76.5811E+06    -1.43753E+06    -288.696E-03     577.778E-03    -289.082E-03     12.6670E-03    -288.864E-03     576.952E-03    -288.968E-03     14.2699E-03
            1038     4.04486E-03     165.308E-03    -111.061E+06    -199.144E+06    -56.2835E+06    -1.73609E+06    -288.581E-03     577.672E-03    -289.092E-03     15.0400E-03    -288.765E-03     576.919E-03    -288.924E-03     16.7336E-03
            1039     4.71928E-03     165.338E-03    -101.304E+06    -176.145E+06    -37.2064E+06    -2.07518E+06    -288.442E-03     577.528E-03    -289.086E-03     17.3777E-03    -288.639E-03     576.848E-03    -288.870E-03     19.0530E-03
            1040     5.39380E-03     165.371E-03    -91.6178E+06    -153.636E+06    -19.9447E+06    -2.31646E+06    -288.287E-03     577.351E-03    -289.064E-03     19.6707E-03    -288.496E-03     576.747E-03    -288.808E-03     21.2074E-03
            1041     6.06847E-03     165.409E-03    -82.3478E+06    -131.371E+06    -4.46876E+06    -2.39353E+06    -288.103E-03     577.128E-03    -289.025E-03     21.9893E-03    -288.322E-03     576.601E-03    -288.737E-03     23.2641E-03
            1042     6.74328E-03     165.450E-03    -73.2201E+06    -109.025E+06     9.55292E+06    -2.42581E+06    -287.870E-03     576.839E-03    -288.968E-03     24.3506E-03    -288.102E-03     576.395E-03    -288.656E-03     25.2231E-03
            1043     7.41828E-03     165.494E-03    -64.3445E+06    -86.7458E+06     22.3707E+06    -2.33736E+06    -287.619E-03     576.515E-03    -288.896E-03     26.6974E-03    -287.865E-03     576.160E-03    -288.565E-03     27.0338E-03
            1044     8.09349E-03     165.542E-03    -55.8742E+06    -63.0536E+06     34.1275E+06    -2.05429E+06    -287.337E-03     576.145E-03    -288.808E-03     29.0276E-03    -287.603E-03     575.890E-03    -288.465E-03     28.6959E-03
            1045     8.76899E-03     165.593E-03    -47.9047E+06    -38.5578E+06     45.0011E+06    -1.50364E+06    -287.020E-03     575.725E-03    -288.705E-03     31.4408E-03    -287.314E-03     575.582E-03    -288.355E-03     30.3044E-03
            1046     9.44461E-03     165.646E-03    -40.3997E+06    -8.94579E+06     55.3638E+06    -459.627E+03    -286.667E-03     575.252E-03    -288.585E-03     33.8574E-03    -287.006E-03     575.255E-03    -288.236E-03     31.7804E-03
            1047     10.1205E-03     165.703E-03    -33.0024E+06     29.7327E+06     66.4748E+06     778.550E+03    -286.229E-03     574.675E-03    -288.445E-03     36.1025E-03    -286.635E-03     574.876E-03    -288.108E-03     32.9359E-03
            1048     10.7966E-03     165.760E-03    -25.5052E+06     85.1907E+06     79.6138E+06     2.97467E+06    -285.763E-03     574.046E-03    -288.283E-03     37.7808E-03    -286.268E-03     574.532E-03    -287.971E-03     33.4595E-03
            1049     11.4732E-03     165.818E-03    -18.1615E+06     140.427E+06     94.2960E+06     4.87114E+06    -285.421E-03     573.548E-03    -288.127E-03     38.4155E-03    -286.026E-03     574.314E-03    -287.833E-03     33.0007E-03
            1050     12.1497E-03     165.874E-03    -12.9051E+06     161.001E+06     114.489E+06     1.92048E+06    -285.165E-03     573.222E-03    -288.057E-03     38.7597E-03    -285.857E-03     574.107E-03    -287.699E-03     31.8244E-03
            1051     12.8261E-03     165.927E-03    -8.76181E+06     158.498E+06     133.741E+06    -865.984E+03    -285.223E-03     573.254E-03    -288.032E-03     33.1029E-03    -285.876E-03     574.051E-03    -287.580E-03     26.6538E-03
            1052     674.273E-06     166.913E-03    -147.903E+06    -290.997E+06    -145.642E+06    -515.442E+03    -288.547E-03     577.127E-03    -288.580E-03     3.01229E-03    -288.654E-03     576.098E-03    -288.671E-03     3.45640E-03
            1053     1.34860E-03     166.920E-03    -144.340E+06    -279.835E+06    -134.682E+06    -716.527E+03    -288.497E-03     577.085E-03    -288.589E-03     5.47688E-03    -288.617E-03     576.090E-03    -288.647E-03     6.28952E-03
            1054     2.02299E-03     166.933E-03    -138.382E+06    -262.684E+06    -118.342E+06    -1.30740E+06    -288.465E-03     577.078E-03    -288.614E-03     8.09118E-03    -288.603E-03     576.136E-03    -288.624E-03     9.23443E-03
            1055     2.69744E-03     166.949E-03    -130.675E+06    -242.173E+06    -98.7927E+06    -1.83855E+06    -288.457E-03     577.109E-03    -288.653E-03     10.6717E-03    -288.615E-03     576.230E-03    -288.606E-03     12.0884E-03
            1056     3.37183E-03     166.971E-03    -122.092E+06    -219.921E+06    -78.0095E+06    -2.36500E+06    -288.443E-03     577.139E-03    -288.696E-03     13.1808E-03    -288.620E-03     576.329E-03    -288.591E-03     14.7850E-03
            1057     4.04625E-03     166.996E-03    -112.683E+06    -196.941E+06    -57.7027E+06    -2.96590E+06    -288.409E-03     577.143E-03    -288.734E-03     15.5929E-03    -288.602E-03     576.404E-03    -288.573E-03     17.2879E-03
            1058     4.72073E-03     167.026E-03    -102.977E+06    -174.280E+06    -38.7662E+06    -3.35979E+06    -288.346E-03     577.105E-03    -288.759E-03     17.9175E-03    -288.551E-03     576.438E-03    -288.551E-03     19.6013E-03
            1059     5.39532E-03     167.059E-03    -93.4667E+06    -152.002E+06    -21.4099E+06    -3.69542E+06    -288.262E-03     577.032E-03    -288.770E-03     20.1973E-03    -288.479E-03     576.439E-03    -288.521E-03     21.7530E-03
            1060     6.06994E-03     167.096E-03    -84.0078E+06    -130.033E+06    -5.85241E+06    -3.98555E+06    -288.135E-03     576.898E-03    -288.763E-03     22.4788E-03    -288.361E-03     576.381E-03    -288.482E-03     23.7761E-03
            1061     6.74473E-03     167.137E-03    -75.0641E+06    -108.154E+06     7.93906E+06    -4.13049E+06    -287.939E-03     576.676E-03    -288.737E-03     24.7855E-03    -288.177E-03     576.240E-03    -288.432E-03     25.6900E-03
            1062     7.41975E-03     167.181E-03    -66.5822E+06    -86.5172E+06     20.4362E+06    -3.97424E+06    -287.697E-03     576.388E-03    -288.692E-03     27.0451E-03    -287.949E-03     576.038E-03    -288.367E-03     27.4310E-03
            1063     8.09495E-03     167.228E-03    -58.3154E+06    -63.4580E+06     31.9970E+06    -3.70059E+06    -287.439E-03     576.066E-03    -288.627E-03     29.2341E-03    -287.711E-03     575.814E-03    -288.291E-03     28.9638E-03
            1064     8.77028E-03     167.278E-03    -50.4096E+06    -39.6401E+06     42.8245E+06    -3.22331E+06    -287.140E-03     575.688E-03    -288.548E-03     31.4788E-03    -287.440E-03     575.544E-03    -288.203E-03     30.4080E-03
            1065     9.44594E-03     167.331E-03    -42.7290E+06    -11.4431E+06     52.9302E+06    -2.41201E+06    -286.739E-03     575.185E-03    -288.446E-03     33.7266E-03    -287.079E-03     575.180E-03    -288.103E-03     31.6957E-03
            1066     10.1219E-03     167.386E-03    -35.2473E+06     25.8727E+06     63.6525E+06    -1.04392E+06    -286.347E-03     574.669E-03    -288.322E-03     35.7893E-03    -286.751E-03     574.855E-03    -287.990E-03     32.6481E-03
            1067     10.7983E-03     167.444E-03    -28.1140E+06     78.9236E+06     76.1436E+06     819.835E+03    -286.019E-03     574.199E-03    -288.180E-03     37.2800E-03    -286.520E-03     574.660E-03    -287.873E-03     32.9434E-03
            1068     11.4745E-03     167.501E-03    -20.4138E+06     137.961E+06     91.4845E+06     2.07835E+06    -285.724E-03     573.768E-03    -288.045E-03     37.6184E-03    -286.331E-03     574.528E-03    -287.758E-03     32.1090E-03
            1069     12.1511E-03     167.557E-03    -12.5992E+06     166.173E+06     115.818E+06     3.47919E+06    -285.718E-03     573.728E-03    -288.010E-03     37.6475E-03    -286.415E-03     574.634E-03    -287.654E-03     30.6482E-03
            1070     12.8273E-03     167.611E-03    -10.0272E+06     162.464E+06     134.298E+06     2.91985E+06    -285.828E-03     573.848E-03    -288.020E-03     32.4249E-03    -286.491E-03     574.663E-03    -287.570E-03     26.0075E-03
            1071     674.702E-06     168.599E-03    -151.209E+06    -288.604E+06    -148.174E+06    -564.220E+03    -287.975E-03     575.931E-03    -287.956E-03     3.25779E-03    -288.097E-03     574.922E-03    -288.059E-03     3.68681E-03
            1072     1.34939E-03     168.606E-03    -146.968E+06    -276.736E+06    -137.091E+06    -1.36928E+06    -287.968E-03     575.972E-03    -288.005E-03     5.90948E-03    -288.102E-03     575.000E-03    -288.076E-03     6.70657E-03
            1073     2.02415E-03     168.619E-03    -140.761E+06    -259.589E+06    -120.863E+06    -2.07415E+06    -287.982E-03     576.036E-03    -288.054E-03     8.60751E-03    -288.133E-03     575.117E-03    -288.078E-03     9.74211E-03
            1074     2.69882E-03     168.636E-03    -133.203E+06    -239.288E+06    -101.182E+06    -2.70243E+06    -288.019E-03     576.137E-03    -288.118E-03     11.2395E-03    -288.189E-03     575.278E-03    -288.083E-03     12.6500E-03
            1075     3.37351E-03     168.657E-03    -124.284E+06    -216.974E+06    -79.9996E+06    -3.31272E+06    -288.072E-03     576.259E-03    -288.187E-03     13.8327E-03    -288.260E-03     575.468E-03    -288.093E-03     15.4349E-03
            1076     4.04817E-03     168.683E-03    -114.806E+06    -193.907E+06    -59.3141E+06    -3.93574E+06    -288.130E-03     576.386E-03    -288.255E-03     16.3288E-03    -288.335E-03     575.666E-03    -288.104E-03     18.0272E-03
            1077     4.72280E-03     168.713E-03    -105.299E+06    -171.459E+06    -40.2859E+06    -4.59328E+06    -288.174E-03     576.490E-03    -288.316E-03     18.7267E-03    -288.391E-03     575.842E-03    -288.116E-03     20.4129E-03
            1078     5.39740E-03     168.746E-03    -95.7064E+06    -149.583E+06    -23.0178E+06    -5.08653E+06    -288.183E-03     576.548E-03    -288.365E-03     21.0483E-03    -288.410E-03     575.971E-03    -288.125E-03     22.6108E-03
            1079     6.07211E-03     168.783E-03    -86.3782E+06    -128.172E+06    -7.72057E+06    -5.39106E+06    -288.155E-03     576.554E-03    -288.398E-03     23.2709E-03    -288.392E-03     576.051E-03    -288.126E-03     24.5800E-03
            1080     6.74689E-03     168.824E-03    -77.3076E+06    -106.746E+06     5.98493E+06    -5.47458E+06    -288.078E-03     576.493E-03    -288.415E-03     25.4215E-03    -288.325E-03     576.070E-03    -288.119E-03     26.3447E-03
            1081     7.42173E-03     168.867E-03    -68.5736E+06    -85.7726E+06     18.3601E+06    -5.44956E+06    -287.925E-03     576.340E-03    -288.415E-03     27.4686E-03    -288.184E-03     575.998E-03    -288.099E-03     27.8744E-03
            1082     8.09676E-03     168.914E-03    -60.4691E+06    -63.3693E+06     29.5104E+06    -5.13620E+06    -287.705E-03     576.098E-03    -288.393E-03     29.4522E-03    -287.983E-03     575.851E-03    -288.066E-03     29.2155E-03
            1083     8.77198E-03     168.964E-03    -52.6959E+06    -40.3655E+06     39.9566E+06    -4.66869E+06    -287.426E-03     575.777E-03    -288.352E-03     31.4512E-03    -287.730E-03     575.635E-03    -288.017E-03     30.4070E-03
            1084     9.44738E-03     169.016E-03    -45.1509E+06    -12.9059E+06     49.8556E+06    -4.19296E+06    -287.105E-03     575.392E-03    -288.287E-03     33.4042E-03    -287.448E-03     575.385E-03    -287.954E-03     31.3964E-03
            1085     10.1230E-03     169.071E-03    -38.2309E+06     21.7368E+06     59.8118E+06    -2.83428E+06    -286.789E-03     574.991E-03    -288.202E-03     35.2706E-03    -287.192E-03     575.162E-03    -287.879E-03     32.1724E-03
            1086     10.7985E-03     169.128E-03    -31.2110E+06     73.5948E+06     72.3660E+06    -602.398E+03    -286.442E-03     574.539E-03    -288.097E-03     36.7842E-03    -286.942E-03     574.979E-03    -287.797E-03     32.4778E-03
            1087     11.4744E-03     169.185E-03    -25.4961E+06     135.275E+06     87.5577E+06     1.44411E+06    -286.141E-03     574.131E-03    -287.990E-03     37.4632E-03    -286.761E-03     574.887E-03    -287.711E-03     32.0082E-03
            1088     12.1498E-03     169.241E-03    -18.7890E+06     163.500E+06     107.143E+06     2.23164E+06    -285.912E-03     573.865E-03    -287.953E-03     38.2989E-03    -286.622E-03     574.779E-03    -287.628E-03     31.3682E-03
            1089     12.8253E-03     169.296E-03    -5.52451E+06     164.920E+06     134.407E+06     1.62832E+06    -285.478E-03     573.458E-03    -287.980E-03     33.5314E-03    -286.125E-03     574.282E-03    -287.540E-03     27.1216E-03
            1090     675.272E-06     170.283E-03    -152.952E+06    -284.585E+06    -149.989E+06    -1.04465E+06    -287.216E-03     574.430E-03    -287.215E-03     3.42409E-03    -287.350E-03     573.446E-03    -287.330E-03     3.85051E-03
            1091     1.35049E-03     170.291E-03    -148.713E+06    -272.603E+06    -138.990E+06    -1.89887E+06    -287.302E-03     574.572E-03    -287.270E-03     6.19837E-03    -287.448E-03     573.625E-03    -287.354E-03     6.98920E-03
            1092     2.02552E-03     170.303E-03    -142.755E+06    -255.654E+06    -122.588E+06    -2.69546E+06    -287.387E-03     574.742E-03    -287.355E-03     9.10842E-03    -287.551E-03     573.846E-03    -287.390E-03     10.2306E-03
            1093     2.70060E-03     170.321E-03    -135.016E+06    -235.242E+06    -102.622E+06    -3.56017E+06    -287.483E-03     574.935E-03    -287.452E-03     11.9341E-03    -287.666E-03     574.101E-03    -287.428E-03     13.3221E-03
            1094     3.37562E-03     170.342E-03    -126.004E+06    -213.043E+06    -81.3450E+06    -4.44722E+06    -287.604E-03     575.157E-03    -287.553E-03     14.6269E-03    -287.803E-03     574.389E-03    -287.468E-03     16.2076E-03
            1095     4.05057E-03     170.369E-03    -116.329E+06    -190.229E+06    -60.4955E+06    -5.22622E+06    -287.743E-03     575.398E-03    -287.655E-03     17.1887E-03    -287.958E-03     574.700E-03    -287.513E-03     18.8711E-03
            1096     4.72546E-03     170.399E-03    -106.370E+06    -167.815E+06    -41.1686E+06    -5.94685E+06    -287.908E-03     575.661E-03    -287.753E-03     19.6311E-03    -288.133E-03     575.032E-03    -287.562E-03     21.3072E-03
            1097     5.40029E-03     170.432E-03    -96.5678E+06    -146.396E+06    -24.0403E+06    -6.58959E+06    -288.070E-03     575.916E-03    -287.846E-03     21.9366E-03    -288.304E-03     575.357E-03    -287.614E-03     23.4864E-03
            1098     6.07500E-03     170.469E-03    -86.9882E+06    -125.517E+06    -8.86683E+06    -7.03255E+06    -288.192E-03     576.122E-03    -287.930E-03     24.1087E-03    -288.432E-03     575.634E-03    -287.667E-03     25.4082E-03
            1099     6.74961E-03     170.510E-03    -77.6167E+06    -104.871E+06     4.68687E+06    -7.28004E+06    -288.256E-03     576.258E-03    -288.002E-03     26.2129E-03    -288.504E-03     575.845E-03    -287.714E-03     27.1361E-03
            1100     7.42427E-03     170.554E-03    -68.5872E+06    -84.5547E+06     16.9531E+06    -7.35831E+06    -288.247E-03     576.307E-03    -288.059E-03     28.1925E-03    -288.505E-03     575.971E-03    -287.753E-03     28.6135E-03
            1101     8.09895E-03     170.600E-03    -59.9160E+06    -62.8509E+06     28.2423E+06    -7.20083E+06    -288.111E-03     576.207E-03    -288.096E-03     30.0537E-03    -288.384E-03     575.962E-03    -287.777E-03     29.8445E-03
            1102     8.77382E-03     170.650E-03    -51.6097E+06    -41.0730E+06     38.7041E+06    -6.60743E+06    -287.880E-03     575.990E-03    -288.110E-03     31.9081E-03    -288.174E-03     575.842E-03    -287.782E-03     30.9153E-03
            1103     9.44889E-03     170.702E-03    -44.0350E+06    -15.1238E+06     48.3474E+06    -5.24623E+06    -287.608E-03     575.703E-03    -288.095E-03     33.8547E-03    -287.937E-03     575.682E-03    -287.768E-03     31.9518E-03
            1104     10.1239E-03     170.756E-03    -36.9779E+06     17.9024E+06     58.3696E+06    -3.59605E+06    -287.220E-03     575.274E-03    -288.054E-03     35.8976E-03    -287.606E-03     575.423E-03    -287.734E-03     32.9253E-03
            1105     10.7997E-03     170.812E-03    -30.5968E+06     65.4686E+06     69.7417E+06    -713.219E+03    -286.705E-03     574.683E-03    -287.978E-03     37.7477E-03    -287.183E-03     575.083E-03    -287.680E-03     33.5967E-03
            1106     11.4754E-03     170.869E-03    -23.8054E+06     132.153E+06     84.5956E+06     1.86898E+06    -286.167E-03     574.040E-03    -287.873E-03     38.8954E-03    -286.768E-03     574.780E-03    -287.607E-03     33.6082E-03
            1107     12.1520E-03     170.925E-03    -15.6814E+06     168.068E+06     106.962E+06     742.943E+03    -285.801E-03     573.638E-03    -287.837E-03     39.8412E-03    -286.505E-03     574.573E-03    -287.523E-03     32.9589E-03
            1108     12.8292E-03     170.979E-03    -6.15454E+06     166.103E+06     134.517E+06    -2.15845E+06    -285.957E-03     573.846E-03    -287.889E-03     34.1129E-03    -286.613E-03     574.680E-03    -287.449E-03     27.6179E-03
            1109     675.749E-06     171.964E-03    -153.269E+06    -279.082E+06    -151.136E+06    -1.35978E+06    -286.448E-03     572.792E-03    -286.344E-03     3.68432E-03    -286.591E-03     571.838E-03    -286.473E-03     4.12890E-03
            1110     1.35143E-03     171.972E-03    -149.672E+06    -267.539E+06    -139.959E+06    -2.37239E+06    -286.501E-03     572.954E-03    -286.453E-03     6.57495E-03    -286.657E-03     572.035E-03    -286.548E-03     7.35395E-03
            1111     2.02721E-03     171.985E-03    -143.672E+06    -250.324E+06    -123.404E+06    -3.52527E+06    -286.626E-03     573.174E-03    -286.548E-03     9.64120E-03    -286.800E-03     572.307E-03    -286.594E-03     10.7417E-03
            1112     2.70276E-03     172.003E-03    -135.788E+06    -229.842E+06    -103.437E+06    -4.75825E+06    -286.811E-03     573.476E-03    -286.665E-03     12.6381E-03    -287.004E-03     572.671E-03    -286.652E-03     13.9941E-03
            1113     3.37817E-03     172.025E-03    -126.756E+06    -207.790E+06    -82.3038E+06    -5.92201E+06    -287.031E-03     573.828E-03    -286.796E-03     15.4900E-03    -287.240E-03     573.087E-03    -286.723E-03     17.0339E-03
            1114     4.05347E-03     172.052E-03    -116.969E+06    -185.342E+06    -61.5324E+06    -6.96583E+06    -287.295E-03     574.231E-03    -286.936E-03     18.1669E-03    -287.517E-03     573.558E-03    -286.805E-03     19.8165E-03
            1115     4.72862E-03     172.083E-03    -107.013E+06    -163.368E+06    -42.3149E+06    -7.82655E+06    -287.597E-03     574.676E-03    -287.080E-03     20.6454E-03    -287.828E-03     574.071E-03    -286.899E-03     22.3004E-03
            1116     5.40352E-03     172.117E-03    -96.9744E+06    -142.319E+06    -24.9797E+06    -8.64854E+06    -287.887E-03     575.111E-03    -287.224E-03     22.9843E-03    -288.125E-03     574.572E-03    -287.002E-03     24.5181E-03
            1117     6.07827E-03     172.155E-03    -87.0970E+06    -122.040E+06    -9.68145E+06    -9.36530E+06    -288.141E-03     575.503E-03    -287.362E-03     25.2260E-03    -288.385E-03     575.032E-03    -287.107E-03     26.5204E-03
            1118     6.75298E-03     172.196E-03    -77.7449E+06    -102.132E+06     3.78739E+06    -9.76976E+06    -288.350E-03     575.841E-03    -287.490E-03     27.3573E-03    -288.600E-03     575.441E-03    -287.211E-03     28.2964E-03
            1119     7.42755E-03     172.240E-03    -68.7873E+06    -82.4652E+06     16.0218E+06    -9.98135E+06    -288.468E-03     576.075E-03    -287.606E-03     29.3267E-03    -288.726E-03     575.749E-03    -287.307E-03     29.7807E-03
            1120     8.10210E-03     172.287E-03    -60.2184E+06    -61.7807E+06     27.1987E+06    -9.94169E+06    -288.462E-03     576.165E-03    -287.702E-03     31.1743E-03    -288.734E-03     575.925E-03    -287.389E-03     31.0072E-03
            1121     8.77670E-03     172.336E-03    -52.1675E+06    -41.5648E+06     37.4026E+06    -9.45591E+06    -288.336E-03     576.111E-03    -287.776E-03     33.0145E-03    -288.627E-03     575.961E-03    -287.453E-03     32.0895E-03
            1122     9.45144E-03     172.387E-03    -44.0774E+06    -18.0103E+06     46.8218E+06    -8.31005E+06    -288.049E-03     575.865E-03    -287.816E-03     34.8645E-03    -288.369E-03     575.829E-03    -287.492E-03     33.0306E-03
            1123     10.1268E-03     172.441E-03    -36.1375E+06     12.5818E+06     56.6742E+06    -5.97807E+06    -287.628E-03     575.449E-03    -287.821E-03     36.6490E-03    -287.998E-03     575.570E-03    -287.503E-03     33.7299E-03
            1124     10.8020E-03     172.497E-03    -28.2604E+06     57.1186E+06     67.9939E+06    -2.92221E+06    -287.133E-03     574.918E-03    -287.785E-03     38.0879E-03    -287.582E-03     575.273E-03    -287.487E-03     33.9540E-03
            1125     11.4781E-03     172.553E-03    -19.8835E+06     130.150E+06     85.0904E+06    -1.35427E+06    -286.598E-03     574.313E-03    -287.715E-03     38.5745E-03    -287.177E-03     575.036E-03    -287.449E-03     33.2030E-03
            1126     12.1540E-03     172.608E-03    -12.7265E+06     174.173E+06     111.456E+06    -1.69663E+06    -286.458E-03     574.187E-03    -287.728E-03     38.7487E-03    -287.162E-03     575.140E-03    -287.405E-03     31.7353E-03
            1127     12.8288E-03     172.663E-03    -6.60200E+06     165.689E+06     134.644E+06    -1.19099E+06    -286.987E-03     574.812E-03    -287.825E-03     33.3539E-03    -287.641E-03     575.639E-03    -287.382E-03     26.8965E-03
            1128     676.436E-06     173.643E-03    -154.326E+06    -272.289E+06    -151.904E+06    -1.66559E+06    -285.513E-03     570.975E-03    -285.462E-03     3.83726E-03    -285.669E-03     570.058E-03    -285.603E-03     4.27422E-03
            1129     1.35280E-03     173.651E-03    -150.438E+06    -260.667E+06    -140.515E+06    -3.14734E+06    -285.582E-03     571.125E-03    -285.543E-03     6.99525E-03    -285.751E-03     570.242E-03    -285.650E-03     7.75174E-03
            1130     2.02895E-03     173.664E-03    -144.146E+06    -243.487E+06    -123.958E+06    -4.65091E+06    -285.758E-03     571.399E-03    -285.641E-03     10.2700E-03    -285.944E-03     570.568E-03    -285.699E-03     11.3416E-03
            1131     2.70509E-03     173.683E-03    -136.198E+06    -222.963E+06    -103.935E+06    -6.11818E+06    -286.010E-03     571.783E-03    -285.773E-03     13.4458E-03    -286.213E-03     571.012E-03    -285.772E-03     14.7804E-03
            1132     3.38108E-03     173.706E-03    -127.097E+06    -201.096E+06    -82.6931E+06    -7.58565E+06    -286.353E-03     572.285E-03    -285.932E-03     16.4422E-03    -286.571E-03     571.578E-03    -285.870E-03     17.9629E-03
            1133     4.05681E-03     173.734E-03    -117.312E+06    -179.065E+06    -61.9119E+06    -8.93865E+06    -286.750E-03     572.861E-03    -286.111E-03     19.2613E-03    -286.981E-03     572.219E-03    -285.991E-03     20.8893E-03
            1134     4.73221E-03     173.765E-03    -107.200E+06    -157.571E+06    -42.6269E+06    -10.1330E+06    -287.156E-03     573.456E-03    -286.300E-03     21.9103E-03    -287.396E-03     572.879E-03    -286.129E-03     23.5418E-03
            1135     5.40744E-03     173.801E-03    -97.1057E+06    -137.189E+06    -25.2805E+06    -11.1127E+06    -287.574E-03     574.065E-03    -286.492E-03     24.3811E-03    -287.818E-03     573.551E-03    -286.278E-03     25.9007E-03
            1136     6.08249E-03     173.839E-03    -87.3701E+06    -117.514E+06    -10.0312E+06    -11.8615E+06    -288.000E-03     574.683E-03    -286.683E-03     26.6402E-03    -288.249E-03     574.234E-03    -286.436E-03     27.9343E-03
            1137     6.75718E-03     173.881E-03    -77.9577E+06    -98.2484E+06     3.41344E+06    -12.4547E+06    -288.366E-03     575.236E-03    -286.870E-03     28.7077E-03    -288.620E-03     574.854E-03    -286.597E-03     29.6515E-03
            1138     7.43173E-03     173.926E-03    -68.9738E+06    -79.4996E+06     15.3876E+06    -12.7694E+06    -288.628E-03     575.675E-03    -287.047E-03     30.5590E-03    -288.889E-03     575.364E-03    -286.755E-03     31.0174E-03
            1139     8.10623E-03     173.973E-03    -60.5096E+06    -59.9921E+06     26.2068E+06    -12.6964E+06    -288.791E-03     575.998E-03    -287.207E-03     32.2027E-03    -289.064E-03     575.767E-03    -286.901E-03     32.0473E-03
            1140     8.78065E-03     174.022E-03    -52.3725E+06    -40.9796E+06     36.1341E+06    -12.2999E+06    -288.819E-03     576.166E-03    -287.347E-03     33.7522E-03    -289.108E-03     576.020E-03    -287.031E-03     32.8283E-03
            1141     9.45515E-03     174.074E-03    -44.7030E+06    -18.9177E+06     45.0612E+06    -11.6985E+06    -288.673E-03     576.129E-03    -287.457E-03     35.2385E-03    -288.991E-03     576.091E-03    -287.139E-03     33.3731E-03
            1142     10.1296E-03     174.127E-03    -37.0403E+06     7.76181E+06     53.7974E+06    -10.3325E+06    -288.411E-03     575.942E-03    -287.531E-03     36.6317E-03    -288.772E-03     576.044E-03    -287.220E-03     33.6529E-03
            1143     10.8045E-03     174.182E-03    -29.3139E+06     49.7013E+06     64.6692E+06    -7.84761E+06    -288.089E-03     575.659E-03    -287.569E-03     37.7477E-03    -288.527E-03     575.981E-03    -287.276E-03     33.5182E-03
            1144     11.4790E-03     174.238E-03    -22.1441E+06     125.646E+06     82.1268E+06    -4.63495E+06    -287.675E-03     575.246E-03    -287.571E-03     38.1531E-03    -288.252E-03     575.952E-03    -287.310E-03     32.7039E-03
            1145     12.1538E-03     174.294E-03    -14.8950E+06     173.077E+06     107.572E+06    -1.60617E+06    -287.370E-03     575.008E-03    -287.638E-03     38.8364E-03    -288.074E-03     575.961E-03    -287.330E-03     31.8875E-03
            1146     12.8292E-03     174.350E-03    -7.84600E+06     164.111E+06     131.186E+06    -271.712E+03    -287.386E-03     575.160E-03    -287.774E-03     34.0894E-03    -288.036E-03     575.985E-03    -287.345E-03     27.7628E-03
            1147     676.950E-06     175.318E-03    -154.437E+06    -263.701E+06    -151.535E+06    -2.22146E+06    -284.450E-03     568.922E-03    -284.472E-03     4.13020E-03    -284.620E-03     568.047E-03    -284.623E-03     4.52509E-03
            1148     1.35403E-03     175.326E-03    -150.003E+06    -251.989E+06    -139.976E+06    -3.93689E+06    -284.565E-03     569.083E-03    -284.518E-03     7.52670E-03    -284.745E-03     568.242E-03    -284.635E-03     8.27314E-03
            1149     2.03105E-03     175.340E-03    -143.680E+06    -234.944E+06    -123.124E+06    -5.74625E+06    -284.817E-03     569.447E-03    -284.630E-03     10.9754E-03    -285.013E-03     568.656E-03    -284.696E-03     12.0328E-03
            1150     2.70783E-03     175.360E-03    -135.677E+06    -214.414E+06    -103.013E+06    -7.58891E+06    -285.156E-03     569.945E-03    -284.788E-03     14.2917E-03    -285.369E-03     569.214E-03    -284.796E-03     15.6124E-03
            1151     3.38432E-03     175.384E-03    -126.426E+06    -192.914E+06    -81.6371E+06    -9.36980E+06    -285.586E-03     570.566E-03    -284.981E-03     17.4475E-03    -285.813E-03     569.897E-03    -284.926E-03     18.9534E-03
            1152     4.06049E-03     175.413E-03    -116.551E+06    -171.193E+06    -60.8408E+06    -10.9697E+06    -286.074E-03     571.270E-03    -285.195E-03     20.4130E-03    -286.313E-03     570.663E-03    -285.082E-03     22.0184E-03
            1153     4.73647E-03     175.446E-03    -106.383E+06    -150.286E+06    -41.6372E+06    -12.4715E+06    -286.613E-03     572.037E-03    -285.425E-03     23.1428E-03    -286.858E-03     571.492E-03    -285.261E-03     24.7417E-03
            1154     5.41209E-03     175.482E-03    -96.2026E+06    -130.635E+06    -24.4820E+06    -13.7500E+06    -287.219E-03     572.885E-03    -285.666E-03     25.6306E-03    -287.468E-03     572.399E-03    -285.459E-03     27.1178E-03
            1155     6.08720E-03     175.522E-03    -86.2378E+06    -111.797E+06    -9.42403E+06    -14.7597E+06    -287.833E-03     573.749E-03    -285.916E-03     27.8653E-03    -288.084E-03     573.324E-03    -285.676E-03     29.1241E-03
            1156     6.76203E-03     175.565E-03    -76.6761E+06    -93.5102E+06     3.82500E+06    -15.4059E+06    -288.378E-03     574.546E-03    -286.168E-03     29.8325E-03    -288.632E-03     574.185E-03    -285.902E-03     30.7366E-03
            1157     7.43657E-03     175.611E-03    -67.6623E+06    -75.7411E+06     15.5399E+06    -15.7213E+06    -288.850E-03     575.266E-03    -286.416E-03     31.5385E-03    -289.109E-03     574.971E-03    -286.131E-03     31.9672E-03
            1158     8.11073E-03     175.659E-03    -58.9851E+06    -57.8751E+06     26.0931E+06    -15.6605E+06    -289.212E-03     575.865E-03    -286.653E-03     32.9879E-03    -289.479E-03     575.642E-03    -286.353E-03     32.8108E-03
            1159     8.78472E-03     175.709E-03    -50.6963E+06    -39.9132E+06     35.8527E+06    -15.1423E+06    -289.425E-03     576.299E-03    -286.874E-03     34.3064E-03    -289.707E-03     576.155E-03    -286.563E-03     33.3709E-03
            1160     9.45859E-03     175.760E-03    -43.0184E+06    -19.3075E+06     44.4883E+06    -14.0711E+06    -289.484E-03     576.550E-03    -287.066E-03     35.5722E-03    -289.791E-03     576.506E-03    -286.753E-03     33.7156E-03
            1161     10.1326E-03     175.814E-03    -36.2065E+06     5.88000E+06     52.7982E+06    -12.7758E+06    -289.364E-03     576.589E-03    -287.225E-03     36.8801E-03    -289.714E-03     576.679E-03    -286.917E-03     33.9328E-03
            1162     10.8064E-03     175.869E-03    -30.0208E+06     43.1209E+06     61.9586E+06    -10.5149E+06    -289.050E-03     576.391E-03    -287.341E-03     38.1938E-03    -289.475E-03     576.683E-03    -287.050E-03     34.0125E-03
            1163     11.4808E-03     175.925E-03    -23.8201E+06     116.508E+06     77.4903E+06    -6.47556E+06    -288.543E-03     575.946E-03    -287.403E-03     39.0294E-03    -289.108E-03     576.615E-03    -287.150E-03     33.6371E-03
            1164     12.1555E-03     175.980E-03    -16.7799E+06     168.142E+06     103.257E+06    -4.20106E+06    -288.120E-03     575.639E-03    -287.518E-03     39.8027E-03    -288.821E-03     576.577E-03    -287.221E-03     32.8717E-03
            1165     12.8303E-03     176.036E-03    -7.65739E+06     161.508E+06     130.957E+06    -2.45181E+06    -288.019E-03     575.728E-03    -287.709E-03     34.8325E-03    -288.667E-03     576.542E-03    -287.277E-03     28.4550E-03
            1166     677.953E-06     176.989E-03    -151.872E+06    -253.108E+06    -149.012E+06    -2.58828E+06    -283.397E-03     566.691E-03    -283.294E-03     4.30424E-03    -283.573E-03     565.861E-03    -283.452E-03     4.68525E-03
            1167     1.35573E-03     176.998E-03    -147.640E+06    -241.549E+06    -137.633E+06    -4.66479E+06    -283.551E-03     566.972E-03    -283.422E-03     7.88655E-03    -283.737E-03     566.176E-03    -283.546E-03     8.62916E-03
            1168     2.03329E-03     177.013E-03    -141.318E+06    -224.621E+06    -120.725E+06    -6.91492E+06    -283.860E-03     567.430E-03    -283.570E-03     11.4820E-03    -284.063E-03     566.683E-03    -283.643E-03     12.5399E-03
            1169     2.71062E-03     177.033E-03    -133.182E+06    -204.243E+06    -100.415E+06    -9.02335E+06    -284.275E-03     568.037E-03    -283.762E-03     14.9451E-03    -284.494E-03     567.349E-03    -283.775E-03     16.2590E-03
            1170     3.38773E-03     177.059E-03    -123.875E+06    -182.904E+06    -78.9737E+06    -11.1167E+06    -284.769E-03     568.757E-03    -283.988E-03     18.2413E-03    -285.001E-03     568.129E-03    -283.938E-03     19.7352E-03
            1171     4.06458E-03     177.089E-03    -113.906E+06    -161.825E+06    -58.2968E+06    -13.1186E+06    -285.374E-03     569.613E-03    -284.239E-03     21.2857E-03    -285.615E-03     569.044E-03    -284.131E-03     22.8644E-03
            1172     4.74089E-03     177.123E-03    -103.581E+06    -141.379E+06    -39.2126E+06    -14.9416E+06    -286.085E-03     570.598E-03    -284.513E-03     24.0765E-03    -286.332E-03     570.089E-03    -284.354E-03     25.6447E-03
            1173     5.41669E-03     177.162E-03    -93.3765E+06    -122.592E+06    -22.3369E+06    -16.5573E+06    -286.841E-03     571.649E-03    -284.808E-03     26.6473E-03    -287.090E-03     571.196E-03    -284.606E-03     28.1003E-03
            1174     6.09214E-03     177.204E-03    -83.4936E+06    -105.040E+06    -7.60716E+06    -17.7576E+06    -287.605E-03     572.721E-03    -285.116E-03     28.9532E-03    -287.853E-03     572.322E-03    -284.881E-03     30.1743E-03
            1175     6.76700E-03     177.248E-03    -73.9818E+06    -87.9395E+06     5.33917E+06    -18.5845E+06    -288.361E-03     573.794E-03    -285.432E-03     30.9436E-03    -288.611E-03     573.453E-03    -285.171E-03     31.8197E-03
            1176     7.44137E-03     177.295E-03    -64.8626E+06    -71.3002E+06     16.8686E+06    -18.9873E+06    -289.045E-03     574.796E-03    -285.752E-03     32.6492E-03    -289.296E-03     574.516E-03    -285.470E-03     33.0692E-03
            1177     8.11543E-03     177.345E-03    -56.1843E+06    -55.0583E+06     27.1647E+06    -18.9888E+06    -289.596E-03     575.661E-03    -286.065E-03     34.0582E-03    -289.853E-03     575.445E-03    -285.768E-03     33.8866E-03
            1178     8.78916E-03     177.396E-03    -48.0407E+06    -38.6351E+06     36.5144E+06    -18.4103E+06    -289.994E-03     576.358E-03    -286.364E-03     35.3121E-03    -290.262E-03     576.213E-03    -286.056E-03     34.4205E-03
            1179     9.46269E-03     177.448E-03    -40.2414E+06    -20.2854E+06     44.8316E+06    -17.2782E+06    -290.207E-03     576.844E-03    -286.637E-03     36.5182E-03    -290.496E-03     576.788E-03    -286.325E-03     34.7530E-03
            1180     10.1359E-03     177.502E-03    -32.7715E+06     2.64374E+06     53.0108E+06    -15.1664E+06    -290.183E-03     577.057E-03    -286.874E-03     37.7417E-03    -290.508E-03     577.121E-03    -286.565E-03     34.9174E-03
            1181     10.8097E-03     177.557E-03    -25.9189E+06     36.8998E+06     62.0219E+06    -11.9528E+06    -289.922E-03     576.985E-03    -287.064E-03     38.8963E-03    -290.314E-03     577.236E-03    -286.769E-03     34.8326E-03
            1182     11.4834E-03     177.612E-03    -18.9905E+06     106.953E+06     76.9040E+06    -8.08211E+06    -289.452E-03     576.644E-03    -287.192E-03     39.4758E-03    -289.975E-03     577.256E-03    -286.935E-03     34.1418E-03
            1183     12.1575E-03     177.668E-03    -12.4240E+06     165.277E+06     104.165E+06    -4.84279E+06    -289.133E-03     576.501E-03    -287.368E-03     40.1760E-03    -289.807E-03     577.416E-03    -287.069E-03     33.2853E-03
            1184     12.8311E-03     177.724E-03    -8.28883E+06     158.281E+06     128.795E+06    -2.88423E+06    -289.220E-03     576.836E-03    -287.616E-03     35.0327E-03    -289.862E-03     577.637E-03    -287.189E-03     28.6800E-03
            1185     678.557E-06     178.657E-03    -147.544E+06    -240.849E+06    -145.005E+06    -2.78885E+06    -282.431E-03     564.680E-03    -282.249E-03     4.31937E-03    -282.608E-03     563.899E-03    -282.411E-03     4.72507E-03
            1186     1.35699E-03     178.667E-03    -143.614E+06    -229.313E+06    -133.670E+06    -5.42373E+06    -282.604E-03     565.031E-03    -282.427E-03     7.93778E-03    -282.794E-03     564.285E-03    -282.554E-03     8.69124E-03
            1187     2.03531E-03     178.683E-03    -137.343E+06    -212.500E+06    -116.904E+06    -7.99485E+06    -282.922E-03     565.514E-03    -282.592E-03     11.6689E-03    -283.128E-03     564.816E-03    -282.669E-03     12.7443E-03
            1188     2.71339E-03     178.704E-03    -129.268E+06    -192.490E+06    -96.7824E+06    -10.5315E+06    -283.374E-03     566.171E-03    -282.797E-03     15.2541E-03    -283.596E-03     565.531E-03    -282.814E-03     16.5837E-03
            1189     3.39106E-03     178.731E-03    -119.978E+06    -171.369E+06    -75.5378E+06    -12.9138E+06    -283.965E-03     567.007E-03    -283.042E-03     18.6632E-03    -284.199E-03     566.426E-03    -282.997E-03     20.1762E-03
            1190     4.06827E-03     178.763E-03    -110.013E+06    -150.834E+06    -54.8783E+06    -15.2129E+06    -284.665E-03     567.988E-03    -283.322E-03     21.8590E-03    -284.908E-03     567.463E-03    -283.218E-03     23.4579E-03
            1191     4.74506E-03     178.799E-03    -99.9614E+06    -131.186E+06    -36.0236E+06    -17.2580E+06    -285.450E-03     569.078E-03    -283.629E-03     24.8696E-03    -285.697E-03     568.609E-03    -283.474E-03     26.4634E-03
            1192     5.42135E-03     178.839E-03    -90.0656E+06    -113.083E+06    -19.3330E+06    -19.0359E+06    -286.311E-03     570.269E-03    -283.958E-03     27.6756E-03    -286.560E-03     569.852E-03    -283.760E-03     29.1564E-03
            1193     6.09700E-03     178.883E-03    -80.3698E+06    -96.9296E+06    -4.86341E+06    -20.5747E+06    -287.220E-03     571.526E-03    -284.306E-03     30.1958E-03    -287.467E-03     571.157E-03    -284.073E-03     31.4465E-03
            1194     6.77213E-03     178.930E-03    -71.1098E+06    -81.2189E+06     7.68947E+06    -21.5232E+06    -288.145E-03     572.813E-03    -284.669E-03     32.3997E-03    -288.390E-03     572.496E-03    -284.409E-03     33.3266E-03
            1195     7.44666E-03     178.979E-03    -62.4810E+06    -66.2305E+06     18.6555E+06    -22.0454E+06    -289.020E-03     574.061E-03    -285.042E-03     34.2496E-03    -289.267E-03     573.797E-03    -284.762E-03     34.7328E-03
            1196     8.12061E-03     179.030E-03    -54.2890E+06    -51.5523E+06     28.4234E+06    -21.9924E+06    -289.784E-03     575.201E-03    -285.416E-03     35.7515E-03    -290.036E-03     574.994E-03    -285.121E-03     35.6727E-03
            1197     8.79409E-03     179.082E-03    -46.7591E+06    -36.5411E+06     37.2249E+06    -21.5007E+06    -290.403E-03     576.186E-03    -285.783E-03     36.9803E-03    -290.666E-03     576.045E-03    -285.476E-03     36.2133E-03
            1198     9.46730E-03     179.136E-03    -39.7306E+06    -20.6857E+06     44.7447E+06    -20.3286E+06    -290.815E-03     576.945E-03    -286.130E-03     38.0101E-03    -291.097E-03     576.882E-03    -285.818E-03     36.3985E-03
            1199     10.1405E-03     179.190E-03    -32.7276E+06    -753.672E+03     52.0682E+06    -18.3980E+06    -291.003E-03     577.448E-03    -286.445E-03     38.9169E-03    -291.317E-03     577.492E-03    -286.136E-03     36.2540E-03
            1200     10.8133E-03     179.245E-03    -25.8504E+06     30.2045E+06     60.5226E+06    -15.5614E+06    -290.997E-03     577.716E-03    -286.719E-03     39.7651E-03    -291.371E-03     577.930E-03    -286.423E-03     35.8490E-03
            1201     11.4862E-03     179.302E-03    -19.4288E+06     95.7689E+06     74.7848E+06    -10.7095E+06    -290.783E-03     577.723E-03    -286.940E-03     40.1059E-03    -291.284E-03     578.277E-03    -286.676E-03     34.8993E-03
            1202     12.1593E-03     179.357E-03    -13.5817E+06     158.138E+06     102.672E+06    -5.10111E+06    -290.532E-03     577.734E-03    -287.202E-03     40.5341E-03    -291.196E-03     578.613E-03    -286.898E-03     33.7167E-03
            1203     12.8330E-03     179.414E-03    -10.2073E+06     153.834E+06     127.184E+06    -1.22273E+06    -290.509E-03     578.034E-03    -287.525E-03     35.2474E-03    -291.151E-03     578.817E-03    -287.098E-03     28.9413E-03
            1204     679.135E-06     180.322E-03    -141.619E+06    -226.941E+06    -139.457E+06    -3.40922E+06    -281.627E-03     563.117E-03    -281.490E-03     4.39561E-03    -281.803E-03     562.389E-03    -281.653E-03     4.82579E-03
            1205     1.35814E-03     180.333E-03    -137.949E+06    -215.127E+06    -128.311E+06    -6.15117E+06    -281.798E-03     563.436E-03    -281.638E-03     7.95526E-03    -281.988E-03     562.745E-03    -281.768E-03     8.75261E-03
            1206     2.03695E-03     180.349E-03    -131.567E+06    -198.558E+06    -111.728E+06    -9.19466E+06    -282.094E-03     563.886E-03    -281.791E-03     11.6613E-03    -282.298E-03     563.242E-03    -281.871E-03     12.7867E-03
            1207     2.71553E-03     180.372E-03    -123.652E+06    -179.368E+06    -92.0686E+06    -11.9614E+06    -282.520E-03     564.504E-03    -281.984E-03     15.3166E-03    -282.739E-03     563.914E-03    -282.005E-03     16.7161E-03
            1208     3.39381E-03     180.400E-03    -114.838E+06    -158.910E+06    -71.2644E+06    -14.3266E+06    -283.100E-03     565.316E-03    -282.217E-03     18.9088E-03    -283.331E-03     564.783E-03    -282.176E-03     20.5166E-03
            1209     4.07166E-03     180.434E-03    -105.455E+06    -138.947E+06    -50.8417E+06    -16.5419E+06    -283.800E-03     566.288E-03    -282.487E-03     22.3728E-03    -284.042E-03     565.809E-03    -282.387E-03     24.0878E-03
            1210     4.74902E-03     180.472E-03    -96.0079E+06    -120.109E+06    -32.0988E+06    -18.5233E+06    -284.601E-03     567.390E-03    -282.788E-03     25.6707E-03    -284.848E-03     566.962E-03    -282.636E-03     27.3937E-03
            1211     5.42585E-03     180.514E-03    -86.7552E+06    -102.507E+06    -15.5724E+06    -20.3095E+06    -285.508E-03     568.624E-03    -283.116E-03     28.8025E-03    -285.758E-03     568.247E-03    -282.919E-03     30.4334E-03
            1212     6.10209E-03     180.560E-03    -77.8966E+06    -87.1851E+06    -1.50156E+06    -22.0490E+06    -286.524E-03     569.994E-03    -283.470E-03     31.6889E-03    -286.773E-03     569.661E-03    -283.238E-03     33.1132E-03
            1213     6.77761E-03     180.609E-03    -69.3855E+06    -73.5351E+06     10.2937E+06    -23.3829E+06    -287.569E-03     571.416E-03    -283.847E-03     34.2453E-03    -287.816E-03     571.126E-03    -283.589E-03     35.3549E-03
            1214     7.45246E-03     180.661E-03     -61.148E+06    -60.6281E+06     20.4282E+06    -23.8274E+06    -288.606E-03     572.849E-03    -284.243E-03     36.4343E-03    -288.852E-03     572.603E-03    -283.964E-03     37.1239E-03
            1215     8.12668E-03     180.714E-03    -53.7780E+06    -47.9910E+06     29.2027E+06    -23.5020E+06    -289.641E-03     574.294E-03    -284.653E-03     38.2305E-03    -289.890E-03     574.097E-03    -284.359E-03     38.4005E-03
            1216     8.80028E-03     180.769E-03    -46.9527E+06    -34.0738E+06     37.3633E+06    -22.7011E+06    -290.598E-03     575.670E-03    -285.073E-03     39.5977E-03    -290.859E-03     575.535E-03    -284.768E-03     39.1109E-03
            1217     9.47322E-03     180.824E-03    -40.6678E+06    -20.4803E+06     44.2480E+06    -21.5194E+06    -291.383E-03     576.874E-03    -285.491E-03     40.5617E-03    -291.662E-03     576.807E-03    -285.181E-03     39.2485E-03
            1218     10.1456E-03     180.879E-03    -35.1130E+06    -2.87050E+06     50.5571E+06    -19.5897E+06    -291.937E-03     577.830E-03    -285.893E-03     41.2693E-03    -292.250E-03     577.861E-03    -285.585E-03     38.9466E-03
            1219     10.8179E-03     180.936E-03    -29.7757E+06     24.9897E+06     57.8996E+06    -17.0176E+06    -292.250E-03     578.515E-03    -286.265E-03     41.8794E-03    -292.623E-03     578.704E-03    -285.969E-03     38.3285E-03
            1220     11.4900E-03     180.992E-03    -24.3418E+06     82.2352E+06     70.7806E+06    -12.4571E+06    -292.293E-03     578.888E-03    -286.595E-03     42.1410E-03    -292.785E-03     579.380E-03    -286.325E-03     37.2739E-03
            1221     12.1618E-03     181.049E-03    -17.4209E+06     144.531E+06     95.5436E+06    -6.66260E+06    -292.061E-03     579.001E-03    -286.939E-03     42.8024E-03    -292.713E-03     579.826E-03    -286.646E-03     36.2122E-03
            1222     12.8329E-03     181.106E-03    -5.70475E+06     148.038E+06     127.142E+06    -3.13255E+06    -292.015E-03     579.378E-03    -287.363E-03     37.7082E-03    -292.628E-03     580.128E-03    -286.933E-03     31.5078E-03
            1223     679.466E-06     181.985E-03    -132.693E+06    -211.887E+06    -129.954E+06    -3.45328E+06    -281.062E-03     561.992E-03    -280.930E-03     4.36467E-03    -281.229E-03     561.312E-03    -281.080E-03     4.86242E-03
            1224     1.35886E-03     181.996E-03    -129.064E+06    -200.070E+06    -120.320E+06    -6.30644E+06    -281.152E-03     562.204E-03    -281.053E-03     7.90102E-03    -281.331E-03     561.564E-03    -281.177E-03     8.78770E-03
            1225     2.03813E-03     182.013E-03    -124.069E+06    -183.615E+06    -105.163E+06    -9.29913E+06    -281.375E-03     562.542E-03    -281.167E-03     11.6447E-03    -281.572E-03     561.952E-03    -281.247E-03     12.8937E-03
            1226     2.71726E-03     182.037E-03    -117.383E+06    -165.672E+06    -86.2603E+06    -12.0593E+06    -281.697E-03     563.018E-03    -281.321E-03     15.4247E-03    -281.912E-03     562.478E-03    -281.342E-03     16.9916E-03
            1227     3.39613E-03     182.066E-03    -109.407E+06    -146.335E+06    -66.0639E+06    -14.3826E+06    -282.127E-03     563.632E-03    -281.505E-03     19.1695E-03    -282.356E-03     563.145E-03    -281.464E-03     20.9808E-03
            1228     4.07472E-03     182.101E-03    -100.875E+06    -127.167E+06    -46.2531E+06    -16.3404E+06    -282.707E-03     564.426E-03    -281.719E-03     22.8877E-03    -282.947E-03     563.990E-03    -281.619E-03     24.8553E-03
            1229     4.75285E-03     182.142E-03     -92.146E+06    -108.874E+06    -27.8972E+06    -18.1616E+06    -283.452E-03     565.418E-03    -281.965E-03     26.5561E-03    -283.698E-03     565.031E-03    -281.813E-03     28.5734E-03
            1230     5.43047E-03     182.186E-03    -83.5481E+06    -91.8599E+06    -11.6458E+06    -19.8231E+06    -284.333E-03     566.579E-03    -282.246E-03     30.1504E-03    -284.582E-03     566.239E-03    -282.050E-03     32.1175E-03
            1231     6.10751E-03     182.234E-03    -75.3466E+06    -77.0170E+06     2.20472E+06    -21.3058E+06    -285.351E-03     567.911E-03    -282.560E-03     33.5616E-03    -285.600E-03     567.613E-03    -282.328E-03     35.3761E-03
            1232     6.78380E-03     182.286E-03    -67.7004E+06    -64.6641E+06     13.5250E+06    -22.7777E+06    -286.487E-03     569.396E-03    -282.909E-03     36.6645E-03    -286.734E-03     569.133E-03    -282.649E-03     38.1958E-03
            1233     7.45946E-03     182.340E-03    -60.5120E+06    -54.0766E+06     22.6967E+06    -23.8014E+06    -287.731E-03     571.023E-03    -283.292E-03     39.3834E-03    -287.976E-03     570.795E-03    -283.012E-03     40.5288E-03
            1234     8.13428E-03     182.396E-03    -53.3780E+06    -43.6503E+06     30.7635E+06    -23.9795E+06    -289.070E-03     572.780E-03    -283.710E-03     41.6033E-03    -289.314E-03     572.590E-03    -283.416E-03     42.2662E-03
            1235     8.80810E-03     182.453E-03    -46.2581E+06    -32.4093E+06     38.3652E+06    -23.2228E+06    -290.431E-03     574.595E-03    -284.164E-03     43.3062E-03    -290.680E-03     574.453E-03    -283.858E-03     43.3496E-03
            1236     9.48112E-03     182.511E-03    -39.7436E+06    -21.1139E+06     45.1985E+06    -21.3267E+06    -291.751E-03     576.396E-03    -284.645E-03     44.4643E-03    -292.012E-03     576.310E-03    -284.331E-03     43.7318E-03
            1237     10.1534E-03     182.569E-03    -33.8867E+06    -3.66123E+06     51.9105E+06    -19.6308E+06    -292.900E-03     578.037E-03    -285.138E-03     45.1183E-03    -293.193E-03     578.047E-03    -284.824E-03     43.4019E-03
            1238     10.8249E-03     182.627E-03    -27.7860E+06     20.1030E+06     59.2723E+06    -17.3107E+06    -293.725E-03     579.353E-03    -285.628E-03     45.3892E-03    -294.070E-03     579.499E-03    -285.321E-03     42.4375E-03
            1239     11.4959E-03     182.685E-03    -21.1897E+06     72.0272E+06     72.2807E+06    -13.7236E+06    -294.061E-03     580.149E-03    -286.088E-03     45.2132E-03    -294.512E-03     580.572E-03    -285.800E-03     40.8749E-03
            1240     12.1671E-03     182.743E-03    -13.4481E+06     135.645E+06     97.0654E+06    -10.1369E+06    -294.216E-03     580.775E-03    -286.559E-03     44.9803E-03    -294.826E-03     581.538E-03    -286.251E-03     38.7676E-03
            1241     12.8396E-03     182.800E-03    -4.10132E+06     138.129E+06     124.103E+06    -6.02477E+06    -295.036E-03     582.151E-03    -287.115E-03     38.6837E-03    -295.617E-03     582.848E-03    -286.689E-03     32.6665E-03
            1242     679.718E-06     183.647E-03    -126.107E+06    -198.609E+06    -123.827E+06    -2.61090E+06    -280.595E-03     561.114E-03    -280.519E-03     4.23118E-03    -280.757E-03     560.483E-03    -280.667E-03     4.81319E-03
            1243     1.35946E-03     183.658E-03    -123.561E+06    -187.082E+06    -113.982E+06    -4.76553E+06    -280.530E-03     561.108E-03    -280.579E-03     7.88773E-03    -280.708E-03     560.515E-03    -280.698E-03     8.92340E-03
            1244     2.03920E-03     183.675E-03    -119.119E+06    -170.712E+06    -99.2422E+06    -6.78938E+06    -280.607E-03     561.227E-03    -280.620E-03     11.7230E-03    -280.807E-03     560.685E-03    -280.695E-03     13.2106E-03
            1245     2.71879E-03     183.700E-03    -113.625E+06    -153.018E+06    -81.0307E+06    -8.91350E+06    -280.758E-03     561.454E-03    -280.696E-03     15.6727E-03    -280.978E-03     560.963E-03    -280.715E-03     17.5544E-03
            1246     3.39833E-03     183.730E-03    -107.226E+06    -134.196E+06    -61.8748E+06    -11.3198E+06    -280.993E-03     561.788E-03    -280.795E-03     19.6874E-03    -281.231E-03     561.349E-03    -280.755E-03     21.8762E-03
            1247     4.07770E-03     183.766E-03    -99.9174E+06    -115.910E+06    -43.2313E+06    -13.6071E+06    -281.360E-03     562.277E-03    -280.916E-03     23.7499E-03    -281.611E-03     561.887E-03    -280.820E-03     26.1679E-03
            1248     4.75687E-03     183.808E-03    -92.2472E+06    -98.5175E+06    -25.8181E+06    -15.4137E+06    -281.912E-03     562.977E-03    -281.066E-03     27.8410E-03    -282.169E-03     562.633E-03    -280.918E-03     30.3920E-03
            1249     5.43563E-03     183.854E-03    -84.7612E+06    -81.9524E+06    -10.1397E+06    -16.9088E+06    -282.688E-03     563.941E-03    -281.253E-03     31.9611E-03    -282.950E-03     563.640E-03    -281.062E-03     34.5398E-03
            1250     6.11383E-03     183.904E-03    -77.5015E+06    -67.0801E+06     3.54091E+06    -18.4991E+06    -283.671E-03     565.156E-03    -281.485E-03     35.9249E-03    -283.934E-03     564.896E-03    -281.258E-03     38.4157E-03
            1251     6.79153E-03     183.959E-03    -70.3550E+06    -54.6736E+06     15.0312E+06    -20.3626E+06    -284.910E-03     566.680E-03    -281.771E-03     39.5549E-03    -285.171E-03     566.454E-03    -281.514E-03     41.8298E-03
            1252     7.46822E-03     184.016E-03    -63.2984E+06    -45.1828E+06     24.2754E+06    -22.3183E+06    -286.436E-03     568.553E-03    -282.117E-03     42.7814E-03    -286.691E-03     568.353E-03    -281.839E-03     44.7085E-03
            1253     8.14390E-03     184.075E-03    -56.6034E+06    -37.6042E+06     31.5030E+06    -23.5863E+06    -288.170E-03     570.701E-03    -282.531E-03     45.4045E-03    -288.420E-03     570.525E-03    -282.237E-03     46.8556E-03
            1254     8.81860E-03     184.136E-03    -50.1899E+06    -29.5595E+06     37.8385E+06    -23.9278E+06    -290.078E-03     573.091E-03    -283.013E-03     47.2564E-03    -290.329E-03     572.949E-03    -282.708E-03     48.0894E-03
            1255     9.49199E-03     184.197E-03    -42.8947E+06    -19.8830E+06     44.4457E+06    -24.0395E+06    -292.104E-03     575.667E-03    -283.563E-03     48.2564E-03    -292.362E-03     575.573E-03    -283.250E-03     48.2858E-03
            1256     10.1639E-03     184.259E-03    -34.3656E+06    -3.31190E+06     51.9988E+06    -23.3086E+06    -294.056E-03     578.224E-03    -284.167E-03     48.4294E-03    -294.334E-03     578.217E-03    -283.853E-03     47.4228E-03
            1257     10.8347E-03     184.320E-03    -26.8829E+06     14.0818E+06     58.9186E+06    -20.4505E+06    -295.713E-03     580.524E-03    -284.810E-03     47.8405E-03    -296.028E-03     580.622E-03    -284.497E-03     45.5088E-03
            1258     11.5046E-03     184.380E-03    -20.5041E+06     65.2031E+06     72.9571E+06    -16.1612E+06    -296.911E-03     582.369E-03    -285.459E-03     46.3386E-03    -297.335E-03     582.740E-03    -285.159E-03     42.4698E-03
            1259     12.1737E-03     184.440E-03    -14.8554E+06     128.996E+06     99.0660E+06    -12.2479E+06    -297.860E-03     584.009E-03    -286.149E-03     44.8513E-03    -298.453E-03     584.720E-03    -285.819E-03     38.9997E-03
            1260     12.8395E-03     184.501E-03    -9.61363E+06     122.834E+06     120.230E+06    -7.54233E+06    -298.805E-03     585.713E-03    -286.908E-03     38.6425E-03    -299.374E-03     586.335E-03    -286.471E-03     32.8281E-03
            1261     679.944E-06     185.307E-03    -133.843E+06    -190.390E+06    -130.534E+06    -1.13203E+06    -279.831E-03     559.839E-03    -280.008E-03     4.41632E-03    -280.034E-03     559.270E-03    -280.191E-03     5.10943E-03
            1262     1.36009E-03     185.318E-03    -130.457E+06    -178.971E+06    -119.849E+06    -2.06735E+06    -279.787E-03     559.712E-03    -279.926E-03     8.17986E-03    -280.003E-03     559.177E-03    -280.076E-03     9.43339E-03
            1263     2.04033E-03     185.336E-03    -125.829E+06    -163.249E+06    -104.171E+06    -2.86881E+06    -279.648E-03     559.556E-03    -279.909E-03     12.1294E-03    -279.882E-03     559.067E-03    -280.010E-03     13.9560E-03
            1264     2.72073E-03     185.360E-03    -120.079E+06    -144.789E+06    -85.4089E+06    -3.75802E+06    -279.548E-03     559.441E-03    -279.894E-03     16.2585E-03    -279.803E-03     559.004E-03    -279.937E-03     18.5975E-03
            1265     3.40118E-03     185.391E-03    -113.669E+06    -124.623E+06    -65.3034E+06    -5.10644E+06    -279.549E-03     559.439E-03    -279.889E-03     20.5599E-03    -279.824E-03     559.057E-03    -279.870E-03     23.3319E-03
            1266     4.08162E-03     185.427E-03    -107.293E+06    -105.475E+06    -45.9219E+06    -7.18688E+06    -279.713E-03     559.618E-03    -279.905E-03     24.9645E-03    -280.005E-03     559.288E-03    -279.826E-03     28.0791E-03
            1267     4.76199E-03     185.469E-03    -100.518E+06    -88.3984E+06    -28.3025E+06    -9.84289E+06    -280.119E-03     560.071E-03    -279.952E-03     29.3962E-03    -280.419E-03     559.782E-03    -279.820E-03     32.7445E-03
            1268     5.44217E-03     185.517E-03    -93.0298E+06    -72.3636E+06    -12.5915E+06    -12.3179E+06    -280.810E-03     560.854E-03    -280.045E-03     33.7357E-03    -281.110E-03     560.604E-03    -279.868E-03     37.1951E-03
            1269     6.12195E-03     185.569E-03    -85.2117E+06    -56.5887E+06     1.47721E+06    -14.7244E+06    -281.838E-03     562.036E-03    -280.198E-03     37.8555E-03    -282.135E-03     561.826E-03    -279.985E-03     41.3002E-03
            1270     6.80087E-03     185.626E-03    -77.3893E+06    -42.8026E+06     13.6258E+06    -17.6917E+06    -283.264E-03     563.694E-03    -280.430E-03     41.6419E-03    -283.557E-03     563.520E-03    -280.188E-03     44.9281E-03
            1271     7.47896E-03     185.687E-03    -69.5918E+06    -33.7348E+06     23.1673E+06    -21.0006E+06    -285.121E-03     565.876E-03    -280.755E-03     44.9468E-03    -285.401E-03     565.723E-03    -280.490E-03     47.9024E-03
            1272     8.15573E-03     185.750E-03    -61.2194E+06    -27.5557E+06     30.4697E+06    -24.3616E+06    -287.405E-03     568.589E-03    -281.184E-03     47.5432E-03    -287.668E-03     568.449E-03    -280.903E-03     49.9833E-03
            1273     8.83071E-03     185.815E-03    -52.0889E+06    -21.6181E+06     36.8178E+06    -27.2261E+06    -290.036E-03     571.762E-03    -281.726E-03     49.2796E-03    -290.284E-03     571.641E-03    -281.435E-03     51.0368E-03
            1274     9.50382E-03     185.882E-03    -43.4750E+06    -14.6647E+06     43.0099E+06    -28.5985E+06    -292.873E-03     575.254E-03    -282.381E-03     50.0380E-03    -293.117E-03     575.167E-03    -282.082E-03     50.9218E-03
            1275     10.1750E-03     185.949E-03    -36.5529E+06    -3.11164E+06     48.8832E+06    -28.0294E+06    -295.700E-03     578.834E-03    -283.134E-03     49.7381E-03    -295.963E-03     578.814E-03    -282.832E-03     49.4989E-03
            1276     10.8443E-03     186.016E-03    -29.9514E+06     6.99034E+06     54.4259E+06    -25.0010E+06    -298.351E-03     582.320E-03    -283.969E-03     48.4492E-03    -298.642E-03     582.373E-03    -283.664E-03     46.8054E-03
            1277     11.5114E-03     186.080E-03    -23.0292E+06     54.1776E+06     68.0193E+06     -19.524E+06    -300.397E-03     585.237E-03    -284.840E-03     46.6086E-03    -300.788E-03     585.542E-03    -284.545E-03     43.3824E-03
            1278     12.1766E-03     186.145E-03    -15.3337E+06     121.281E+06     94.1762E+06    -14.3684E+06    -301.469E-03     587.216E-03    -285.747E-03     45.5190E-03    -302.025E-03     587.875E-03    -285.429E-03     40.2415E-03
            1279     12.8437E-03     186.208E-03    -5.45913E+06     107.793E+06     116.322E+06    -9.65662E+06    -302.072E-03     588.781E-03    -286.709E-03     39.8607E-03    -302.582E-03     589.317E-03    -286.275E-03     34.4023E-03
            1280     680.841E-06     186.965E-03    -172.729E+06    -182.712E+06    -170.629E+06    -2.34068E+06    -278.654E-03     557.493E-03    -278.839E-03     4.77348E-03    -279.004E-03     557.076E-03    -279.177E-03     5.59238E-03
            1281     1.36152E-03     186.975E-03    -167.427E+06    -172.515E+06    -157.555E+06    -3.80308E+06    -278.609E-03     557.363E-03    -278.754E-03     8.65962E-03    -278.963E-03     556.967E-03    -279.049E-03     10.1418E-03
            1282     2.04246E-03     186.992E-03    -158.870E+06    -157.256E+06    -137.764E+06    -5.25372E+06    -278.365E-03     557.093E-03    -278.729E-03     12.7888E-03    -278.723E-03     556.728E-03    -278.959E-03     14.9448E-03
            1283     2.72370E-03     187.016E-03    -147.547E+06    -138.527E+06    -113.356E+06    -6.74268E+06    -278.140E-03     556.826E-03    -278.686E-03     16.9898E-03    -278.498E-03     556.497E-03    -278.838E-03     19.7696E-03
            1284     3.40522E-03     187.047E-03    -134.197E+06    -118.186E+06    -86.9888E+06    -7.99022E+06    -278.038E-03     556.683E-03    -278.645E-03     21.1848E-03    -278.389E-03     556.390E-03    -278.714E-03     24.5206E-03
            1285     4.08696E-03     187.083E-03    -119.841E+06    -97.3907E+06    -60.6818E+06    -9.05990E+06    -278.164E-03     556.790E-03    -278.626E-03     25.3732E-03    -278.503E-03     556.533E-03    -278.614E-03     29.1896E-03
            1286     4.76862E-03     187.126E-03    -105.968E+06    -79.1324E+06    -36.8657E+06    -10.5155E+06    -278.608E-03     557.255E-03    -278.647E-03     29.4989E-03    -278.928E-03     557.025E-03    -278.563E-03     33.6818E-03
            1287     5.44991E-03     187.175E-03    -93.2818E+06    -62.9761E+06    -16.7021E+06    -12.5543E+06    -279.392E-03     558.118E-03    -278.726E-03     33.4579E-03    -279.692E-03     557.912E-03    -278.583E-03     37.8597E-03
            1288     6.13066E-03     187.229E-03    -81.7819E+06    -46.9599E+06     116.826E+03    -14.5987E+06    -280.581E-03     559.459E-03    -278.878E-03     37.1655E-03    -280.864E-03     559.284E-03    -278.691E-03     41.6538E-03
            1289     6.81070E-03     187.289E-03    -71.8653E+06    -32.5867E+06     14.0456E+06    -16.1771E+06    -282.260E-03     561.386E-03    -279.126E-03     40.5128E-03    -282.528E-03     561.243E-03    -278.904E-03     44.9343E-03
            1290     7.48934E-03     187.353E-03    -63.7314E+06    -20.1683E+06     25.3439E+06    -18.7357E+06    -284.452E-03     563.943E-03    -279.491E-03     43.4311E-03    -284.712E-03     563.832E-03    -279.242E-03     47.5794E-03
            1291     8.16633E-03     187.422E-03    -57.0575E+06    -10.5075E+06     33.7506E+06    -23.9078E+06    -287.141E-03     567.125E-03    -279.984E-03     45.8610E-03    -287.397E-03     567.043E-03    -279.717E-03     49.4909E-03
            1292     8.84138E-03     187.493E-03    -50.6980E+06    -6.56542E+06     39.5946E+06    -29.6569E+06    -290.267E-03     570.883E-03    -280.616E-03     47.7111E-03    -290.515E-03     570.813E-03    -280.335E-03     50.5917E-03
            1293     9.51415E-03     187.566E-03    -43.2092E+06    -6.49328E+06     43.9388E+06    -33.2114E+06    -293.662E-03     575.047E-03    -281.384E-03     48.8259E-03    -293.896E-03     574.977E-03    -281.092E-03     50.7445E-03
            1294     10.1843E-03     187.641E-03    -34.1516E+06    -1.25839E+06     48.8696E+06    -33.7901E+06    -297.141E-03     579.413E-03    -282.271E-03     49.1438E-03    -297.371E-03     579.375E-03    -281.976E-03     49.8786E-03
            1295     10.8520E-03     187.714E-03    -24.5734E+06     1.15810E+06     53.9449E+06    -32.0535E+06    -300.467E-03     583.733E-03    -283.266E-03     48.7481E-03    -300.695E-03     583.722E-03    -282.962E-03     48.0336E-03
            1296     11.5175E-03     187.786E-03    -15.6201E+06     37.8258E+06     65.4145E+06    -26.1575E+06    -302.967E-03     587.273E-03    -284.305E-03     47.5285E-03    -303.267E-03     587.462E-03    -284.010E-03     45.1517E-03
            1297     12.1827E-03     187.853E-03    -8.23648E+06     108.230E+06     92.4978E+06    -17.3905E+06    -304.346E-03     589.727E-03    -285.381E-03     46.2905E-03    -304.823E-03     590.290E-03    -285.063E-03     41.6620E-03
            1298     12.8451E-03     187.919E-03    -5.14033E+06     90.8232E+06     112.627E+06    -8.84335E+06    -305.181E-03     591.698E-03    -286.517E-03     40.2217E-03    -305.646E-03     592.141E-03    -286.078E-03     35.1417E-03
            1299     681.640E-06     188.618E-03    -219.498E+06    -162.972E+06    -216.871E+06    -6.95567E+06    -277.415E-03     554.820E-03    -277.405E-03     4.42595E-03    -277.960E-03     554.637E-03    -277.935E-03     5.30455E-03
            1300     1.36355E-03     188.628E-03    -212.572E+06    -153.952E+06    -202.699E+06    -12.4077E+06    -277.239E-03     554.657E-03    -277.418E-03     7.96938E-03    -277.781E-03     554.486E-03    -277.900E-03     9.54789E-03
            1301     2.04557E-03     188.645E-03    -201.158E+06    -139.973E+06    -180.588E+06    -17.8264E+06    -277.101E-03     554.507E-03    -277.406E-03     11.7634E-03    -277.634E-03     554.353E-03    -277.814E-03     14.0608E-03
            1302     2.72773E-03     188.668E-03    -186.469E+06    -122.896E+06    -153.323E+06    -22.6444E+06    -277.040E-03     554.450E-03    -277.410E-03     15.4775E-03    -277.559E-03     554.315E-03    -277.728E-03     18.4589E-03
            1303     3.40999E-03     188.698E-03    -169.308E+06    -104.796E+06    -123.453E+06    -26.6780E+06    -277.125E-03     554.565E-03    -277.440E-03     18.9557E-03    -277.621E-03     554.446E-03    -277.660E-03     22.5686E-03
            1304     4.09219E-03     188.735E-03    -150.071E+06    -87.2610E+06    -93.3505E+06    -29.2480E+06    -277.429E-03     554.935E-03    -277.505E-03     22.2355E-03    -277.892E-03     554.826E-03    -277.628E-03     26.4222E-03
            1305     4.77424E-03     188.779E-03    -129.618E+06    -70.5584E+06    -64.2150E+06    -30.1960E+06    -278.013E-03     555.632E-03    -277.619E-03     25.3240E-03    -278.434E-03     555.528E-03    -277.649E-03     29.9978E-03
            1306     5.45596E-03     188.829E-03    -109.140E+06    -54.3784E+06    -36.8703E+06    -30.6514E+06    -278.976E-03     556.772E-03    -277.797E-03     28.2310E-03    -279.350E-03     556.673E-03    -277.744E-03     33.2707E-03
            1307     6.13697E-03     188.886E-03    -89.4970E+06    -40.5578E+06    -12.6676E+06    -30.5533E+06    -280.362E-03     558.418E-03    -278.056E-03     30.9357E-03    -280.687E-03     558.319E-03    -277.931E-03     36.2063E-03
            1308     6.81682E-03     188.948E-03    -70.6855E+06    -28.8071E+06     7.95145E+06    -29.3403E+06    -282.175E-03     560.584E-03    -278.409E-03     33.4744E-03    -282.448E-03     560.481E-03    -278.225E-03     38.8259E-03
            1309     7.49540E-03     189.017E-03    -53.3712E+06    -13.1396E+06     26.2382E+06    -27.6637E+06    -284.399E-03     563.264E-03    -278.864E-03     35.9397E-03    -284.631E-03     563.183E-03    -278.636E-03     41.1805E-03
            1310     8.17227E-03     189.091E-03    -39.2375E+06     2.49261E+06     42.0710E+06    -26.8552E+06    -287.033E-03     566.467E-03    -279.434E-03     38.4022E-03    -287.238E-03     566.419E-03    -279.170E-03     43.3009E-03
            1311     8.84709E-03     189.169E-03    -29.5544E+06     7.65095E+06     52.1471E+06    -27.8467E+06    -290.065E-03     570.188E-03    -280.122E-03     40.8700E-03    -290.245E-03     570.138E-03    -279.830E-03     45.1395E-03
            1312     9.51956E-03     189.250E-03    -24.1207E+06     7.47551E+06     56.2155E+06    -30.8590E+06    -293.421E-03     574.341E-03    -280.920E-03     43.2516E-03    -293.586E-03     574.284E-03    -280.615E-03     46.5831E-03
            1313     10.1898E-03     189.332E-03    -21.3718E+06     4.78596E+06     57.6386E+06    -33.4424E+06    -297.021E-03     578.854E-03    -281.833E-03     45.2898E-03    -297.187E-03     578.794E-03    -281.520E-03     47.4157E-03
            1314     10.8577E-03     189.414E-03    -19.5609E+06     1.03525E+06     59.7778E+06    -33.0560E+06    -300.695E-03     583.558E-03    -282.863E-03     46.4979E-03    -300.878E-03     583.503E-03    -282.537E-03     47.0856E-03
            1315     11.5232E-03     189.492E-03    -16.7344E+06     27.0622E+06     66.0780E+06    -30.6718E+06    -303.958E-03     587.916E-03    -283.958E-03     46.2599E-03    -304.218E-03     588.022E-03    -283.642E-03     44.9331E-03
            1316     12.1855E-03     189.566E-03    -10.9549E+06     76.9891E+06     88.0168E+06    -20.2523E+06    -306.178E-03     591.311E-03    -285.132E-03     45.5666E-03    -306.586E-03     591.698E-03    -284.788E-03     41.8137E-03
            1317     12.8483E-03     189.636E-03    -3.92227E+06     65.6313E+06     110.437E+06    -5.36908E+06    -307.343E-03     593.720E-03    -286.377E-03     40.3619E-03    -307.743E-03     594.019E-03    -285.915E-03     35.8994E-03
            1318     682.184E-06     190.267E-03    -191.792E+06    -125.624E+06    -188.841E+06    -10.1098E+06    -277.789E-03     555.317E-03    -277.527E-03     2.22001E-03    -278.293E-03     555.241E-03    -278.011E-03     3.01253E-03
            1319     1.36436E-03     190.277E-03    -186.768E+06    -116.661E+06    -175.953E+06    -19.0018E+06    -277.602E-03     555.304E-03    -277.702E-03     3.54652E-03    -278.113E-03     555.248E-03    -278.142E-03     4.97279E-03
            1320     2.04667E-03     190.294E-03    -178.682E+06    -105.131E+06    -157.213E+06    -27.8543E+06    -277.600E-03     555.355E-03    -277.755E-03     5.12519E-03    -278.115E-03     555.318E-03    -278.130E-03     7.22120E-03
            1321     2.72887E-03     190.317E-03    -168.068E+06    -91.9529E+06    -134.499E+06    -35.4982E+06    -277.746E-03     555.590E-03    -277.844E-03     6.62380E-03    -278.261E-03     555.572E-03    -278.140E-03     9.37118E-03
            1322     3.41088E-03     190.348E-03    -155.634E+06    -77.6787E+06    -109.566E+06    -41.6706E+06    -278.031E-03     556.010E-03    -277.979E-03     7.99331E-03    -278.544E-03     556.012E-03    -278.189E-03     11.3740E-03
            1323     4.09256E-03     190.385E-03    -142.202E+06    -65.2763E+06    -85.0525E+06    -46.8517E+06    -278.442E-03     556.597E-03    -278.155E-03     9.28747E-03    -278.944E-03     556.608E-03    -278.279E-03     13.2471E-03
            1324     4.77386E-03     190.430E-03    -127.569E+06    -53.5071E+06    -61.9181E+06    -50.9189E+06    -279.019E-03     557.386E-03    -278.366E-03     10.6067E-03    -279.501E-03     557.404E-03    -278.413E-03     15.1039E-03
            1325     5.45451E-03     190.482E-03    -111.657E+06    -41.4740E+06    -39.4109E+06    -53.1556E+06    -279.833E-03     558.457E-03    -278.624E-03     12.0206E-03    -280.289E-03     558.483E-03    -278.599E-03     17.0166E-03
            1326     6.13434E-03     190.542E-03    -95.3261E+06    -32.4952E+06    -18.1689E+06    -53.5184E+06    -280.921E-03     559.861E-03    -278.940E-03     13.7064E-03    -281.340E-03     559.879E-03    -278.846E-03     19.1213E-03
            1327     6.81324E-03     190.608E-03    -79.1053E+06    -24.9688E+06     968.827E+03    -52.6065E+06    -282.264E-03     561.579E-03    -279.315E-03     15.8448E-03    -282.639E-03     561.581E-03    -279.159E-03     21.5665E-03
            1328     7.49098E-03     190.681E-03    -63.2866E+06    -14.1863E+06     19.0268E+06    -49.7273E+06    -283.850E-03     563.599E-03    -279.749E-03     18.5165E-03    -284.182E-03     563.601E-03    -279.542E-03     24.4105E-03
            1329     8.16753E-03     190.760E-03    -48.0954E+06    -1.53962E+06     36.8475E+06    -43.8803E+06    -285.744E-03     565.995E-03    -280.251E-03     21.7571E-03    -286.035E-03     566.004E-03    -279.995E-03     27.6667E-03
            1330     8.84275E-03     190.843E-03    -34.6102E+06     7.36711E+06     52.5948E+06    -36.9761E+06    -288.079E-03     568.910E-03    -280.831E-03     25.5143E-03    -288.328E-03     568.910E-03    -280.528E-03     31.1801E-03
            1331     9.51655E-03     190.931E-03    -24.5632E+06     11.7977E+06     64.1908E+06    -31.0861E+06    -290.972E-03     572.470E-03    -281.498E-03     29.5287E-03    -291.183E-03     572.450E-03    -281.158E-03     34.5686E-03
            1332     10.1881E-03     191.020E-03    -18.6990E+06     7.05607E+06     70.8694E+06    -26.3914E+06    -294.363E-03     576.635E-03    -282.271E-03     33.4436E-03    -294.543E-03     576.568E-03    -281.900E-03     37.4033E-03
            1333     10.8573E-03     191.110E-03    -15.7297E+06     3.06721E+06     73.4748E+06    -23.9596E+06    -297.999E-03     581.142E-03    -283.143E-03     37.0837E-03    -298.170E-03     581.056E-03    -282.757E-03     39.4556E-03
            1334     11.5233E-03     191.198E-03    -14.0835E+06     27.7176E+06     76.9435E+06    -23.4004E+06    -301.527E-03     585.610E-03    -284.082E-03     40.1836E-03    -301.760E-03     585.668E-03    -283.717E-03     40.4664E-03
            1335     12.1876E-03     191.279E-03    -12.5684E+06     45.3157E+06     88.6943E+06    -18.0571E+06    -304.691E-03     589.843E-03    -285.152E-03     42.6206E-03    -305.016E-03     590.028E-03    -284.756E-03     40.3826E-03
            1336     12.8489E-03     191.353E-03    -7.95159E+06     34.4159E+06     105.435E+06    -7.54894E+06    -306.980E-03     593.302E-03    -286.322E-03     39.6452E-03    -307.311E-03     593.421E-03    -285.833E-03     36.3328E-03
            1337     679.841E-06     191.922E-03    -103.729E+06    -79.0788E+06    -100.646E+06    -10.6864E+06    -282.817E-03     565.237E-03    -282.420E-03    -3.83859E-03    -283.081E-03     565.137E-03    -282.658E-03    -3.30518E-03
            1338     1.35946E-03     191.932E-03    -99.4538E+06    -70.5577E+06    -89.1165E+06    -19.7477E+06    -282.613E-03     565.326E-03    -282.713E-03    -7.19150E-03    -282.889E-03     565.250E-03    -282.912E-03    -6.26660E-03
            1339     2.03890E-03     191.949E-03    -93.1411E+06    -61.3248E+06    -72.2427E+06    -28.7851E+06    -282.644E-03     565.479E-03    -282.834E-03    -10.5287E-03    -282.933E-03     565.422E-03    -282.972E-03    -9.19287E-03
            1340     2.71821E-03     191.973E-03    -85.5777E+06    -54.1022E+06    -53.6246E+06    -36.1153E+06    -282.629E-03     565.610E-03    -282.982E-03    -13.7832E-03    -282.927E-03     565.562E-03    -283.047E-03    -12.0034E-03
            1341     3.39722E-03     192.004E-03    -77.7022E+06    -44.6600E+06    -35.8470E+06    -41.7634E+06    -282.601E-03     565.732E-03    -283.131E-03    -16.8185E-03    -282.912E-03     565.707E-03    -283.133E-03    -14.5640E-03
            1342     4.07598E-03     192.043E-03    -70.0026E+06    -35.5042E+06    -19.2281E+06    -46.4016E+06    -282.552E-03     565.836E-03    -283.284E-03    -19.5103E-03    -282.876E-03     565.836E-03    -283.228E-03    -16.7747E-03
            1343     4.75440E-03     192.089E-03    -63.6394E+06    -28.5351E+06    -4.33548E+06    -49.8680E+06    -282.461E-03     565.901E-03    -283.440E-03    -21.6250E-03    -282.802E-03     565.923E-03    -283.328E-03    -18.3682E-03
            1344     5.43260E-03     192.142E-03    -59.0636E+06    -22.2848E+06     8.05082E+06    -51.9221E+06    -282.299E-03     565.885E-03    -283.586E-03    -23.0207E-03    -282.662E-03     565.932E-03    -283.428E-03    -19.2117E-03
            1345     6.11065E-03     192.203E-03    -55.6210E+06    -18.5094E+06     18.4605E+06    -52.7293E+06    -282.092E-03     565.810E-03    -283.719E-03    -23.4802E-03    -282.475E-03     565.874E-03    -283.519E-03    -19.1275E-03
            1346     6.78851E-03     192.271E-03    -53.1912E+06    -15.1449E+06     27.7379E+06    -52.3694E+06    -281.908E-03     565.745E-03    -283.837E-03    -22.7725E-03    -282.311E-03     565.823E-03    -283.599E-03    -17.9116E-03
            1347     7.46622E-03     192.346E-03    -51.1957E+06    -11.9282E+06     36.6872E+06    -50.4903E+06    -281.863E-03     565.810E-03    -283.947E-03    -20.7354E-03    -282.281E-03     565.897E-03    -283.672E-03    -15.4174E-03
            1348     8.14366E-03     192.427E-03    -48.9148E+06    -6.88678E+06     46.0161E+06    -47.0383E+06    -282.081E-03     566.139E-03    -284.059E-03    -17.3647E-03    -282.509E-03     566.236E-03    -283.748E-03    -11.6812E-03
            1349     8.82065E-03     192.514E-03    -45.1642E+06    -1.57988E+06     55.7900E+06    -41.7118E+06    -282.696E-03     566.883E-03    -284.187E-03    -12.5203E-03    -283.118E-03     566.979E-03    -283.841E-03    -6.61789E-03
            1350     9.49630E-03     192.607E-03    -38.5869E+06     1.91048E+06     66.0564E+06    -35.2322E+06    -283.841E-03     568.191E-03    -284.351E-03    -5.79494E-03    -284.229E-03     568.261E-03    -283.967E-03     85.0223E-06
            1351     10.1705E-03     192.703E-03    -29.3449E+06    -956.300E+03     74.8336E+06    -28.5655E+06    -285.685E-03     570.250E-03    -284.564E-03     3.01585E-03    -286.005E-03     570.248E-03    -284.146E-03     8.48601E-03
            1352     10.8428E-03     192.800E-03    -19.7066E+06     374.107E+03     81.9664E+06    -22.8460E+06    -288.377E-03     573.219E-03    -284.842E-03     13.3440E-03    -288.625E-03     573.164E-03    -284.404E-03     17.8847E-03
            1353     11.5142E-03     192.895E-03    -10.5448E+06     28.3726E+06     93.6125E+06    -20.0326E+06    -292.063E-03     577.285E-03    -285.222E-03     23.5677E-03    -292.300E-03     577.316E-03    -284.780E-03     26.4918E-03
            1354     12.1831E-03     192.985E-03    -2.76634E+06     20.9175E+06     101.091E+06    -13.5146E+06    -296.802E-03     582.596E-03    -285.795E-03     32.3889E-03    -297.011E-03     582.578E-03    -285.315E-03     32.8708E-03
            1355     12.8494E-03     193.068E-03     2.42708E+06     9.23764E+06     106.461E+06    -3.36983E+06    -300.683E-03     587.202E-03    -286.518E-03     35.1237E-03    -300.874E-03     587.125E-03    -286.003E-03     33.9337E-03
            1356     671.147E-06     193.604E-03    -9.11828E+06    -35.9652E+06    -6.58036E+06    -8.76877E+06    -295.663E-03     590.958E-03    -295.294E-03    -12.1226E-03    -295.661E-03     590.788E-03    -295.262E-03    -12.0842E-03
            1357     1.34269E-03     193.615E-03    -8.29527E+06    -29.4053E+06    -1.16300E+06    -15.0960E+06    -295.145E-03     590.707E-03    -295.562E-03    -22.0839E-03    -295.159E-03     590.564E-03    -295.513E-03    -21.9448E-03
            1358     2.01390E-03     193.632E-03    -7.63172E+06    -23.6707E+06     9.16272E+06    -20.5711E+06    -294.801E-03     590.409E-03    -295.608E-03    -32.4241E-03    -294.838E-03     590.283E-03    -295.517E-03    -32.1782E-03
            1359     2.68505E-03     193.656E-03    -6.85052E+06    -22.3781E+06     21.9008E+06    -24.8502E+06    -294.145E-03     589.812E-03    -295.666E-03    -42.4866E-03    -294.206E-03     589.680E-03    -295.514E-03    -42.0767E-03
            1360     3.35643E-03     193.687E-03    -6.22120E+06    -17.3918E+06     33.6951E+06    -28.1163E+06    -293.145E-03     588.817E-03    -295.673E-03    -52.0556E-03    -293.237E-03     588.704E-03    -295.470E-03    -51.4251E-03
            1361     4.02802E-03     193.724E-03    -6.17083E+06    -12.8617E+06     44.7112E+06    -29.8669E+06    -291.909E-03     587.535E-03    -295.627E-03    -60.9912E-03    -292.037E-03     587.445E-03    -295.376E-03    -60.0676E-03
            1362     4.70001E-03     193.769E-03    -6.62194E+06    -9.89401E+06     55.2067E+06    -30.2772E+06    -290.373E-03     585.902E-03    -295.530E-03    -69.1600E-03    -290.541E-03     585.831E-03    -295.230E-03    -67.8958E-03
            1363     5.37256E-03     193.821E-03    -7.45289E+06    -7.29131E+06     64.4039E+06    -29.8563E+06    -288.448E-03     583.808E-03    -295.360E-03    -76.3607E-03    -288.657E-03     583.760E-03    -295.017E-03    -74.7264E-03
            1364     6.04587E-03     193.879E-03    -8.54392E+06    -6.13077E+06     71.8239E+06    -29.0185E+06    -286.179E-03     581.283E-03    -295.104E-03    -82.4312E-03    -286.429E-03     581.257E-03    -294.724E-03    -80.4033E-03
            1365     6.72035E-03     193.945E-03    -9.89844E+06    -5.85695E+06     77.4203E+06    -27.8710E+06    -283.651E-03     578.404E-03    -294.754E-03    -87.2358E-03    -283.939E-03     578.398E-03    -294.344E-03    -84.8058E-03
            1366     7.39612E-03     194.017E-03    -11.4026E+06    -5.93126E+06     81.4138E+06    -26.5662E+06    -280.930E-03     575.239E-03    -294.309E-03    -90.5307E-03    -281.253E-03     575.253E-03    -293.877E-03    -87.7078E-03
            1367     8.07320E-03     194.096E-03    -12.4507E+06    -4.17175E+06     84.9617E+06    -25.2103E+06    -278.056E-03     571.826E-03    -293.770E-03    -91.8355E-03    -278.408E-03     571.865E-03    -293.321E-03    -88.6550E-03
            1368     8.75153E-03     194.182E-03    -13.2782E+06    -3.35038E+06     87.3054E+06    -23.8209E+06    -275.049E-03     568.180E-03    -293.131E-03    -90.5784E-03    -275.416E-03     568.232E-03    -292.671E-03    -87.0995E-03
            1369     9.43220E-03     194.272E-03    -14.4516E+06    -2.71017E+06     88.3317E+06    -22.1503E+06    -272.027E-03     564.412E-03    -292.384E-03    -86.2390E-03    -272.398E-03     564.465E-03    -291.918E-03    -82.5192E-03
            1370     10.1153E-03     194.368E-03    -15.7962E+06    -4.12561E+06     88.3632E+06    -21.0014E+06    -269.489E-03     561.035E-03    -291.546E-03    -78.4586E-03    -269.844E-03     561.066E-03    -291.075E-03    -74.6306E-03
            1371     10.8004E-03     194.467E-03    -15.7034E+06    -5.72673E+06     89.6170E+06    -19.1742E+06    -268.139E-03     558.804E-03    -290.664E-03    -66.8737E-03    -268.457E-03     558.794E-03    -290.185E-03    -63.1744E-03
            1372     11.4839E-03     194.570E-03    -12.8245E+06     20.5565E+06     100.391E+06    -15.1959E+06    -268.099E-03     557.885E-03    -289.786E-03    -50.4180E-03    -268.412E-03     557.950E-03    -289.296E-03    -47.2288E-03
            1373     12.1642E-03     194.671E-03    -8.44461E+06     1.25482E+06     96.8190E+06    -8.26996E+06    -269.089E-03     558.010E-03    -288.921E-03    -26.8080E-03    -269.304E-03     557.939E-03    -288.426E-03    -24.9849E-03
            1374     12.8398E-03     194.765E-03     29.8054E+03    -5.70753E+06     85.0611E+06    -1.36244E+06    -270.488E-03     558.500E-03    -288.013E-03     228.154E-06    -270.610E-03     558.371E-03    -287.579E-03     805.798E-06
            1375     12.8055E-03     96.7293E-03    -4.65678E+06     75.1003E+06     100.170E+06     174.893E+03    -288.724E-03     578.368E-03    -289.644E-03     32.2682E-03    -289.161E-03     578.764E-03    -289.245E-03     26.4975E-03
            1376     12.1304E-03     96.6722E-03    -10.8764E+06     70.2247E+06     100.055E+06     655.075E+03    -288.764E-03     578.449E-03    -289.685E-03     38.1737E-03    -289.267E-03     578.873E-03    -289.271E-03     31.8746E-03
            1377     11.4566E-03     96.6131E-03    -17.8636E+06     65.8756E+06     95.4880E+06     618.162E+03    -288.788E-03     578.497E-03    -289.708E-03     38.3432E-03    -289.285E-03     578.887E-03    -289.301E-03     32.9186E-03
            1378     10.7822E-03     96.5526E-03    -25.2736E+06     60.2690E+06     84.9368E+06     607.838E+03    -288.864E-03     578.572E-03    -289.707E-03     38.4866E-03    -289.355E-03     578.940E-03    -289.333E-03     33.7478E-03
            1379     10.1079E-03     96.4906E-03    -32.2597E+06     54.2419E+06     71.4234E+06     1.61290E+06    -288.995E-03     578.685E-03    -289.690E-03     37.4019E-03    -289.464E-03     579.025E-03    -289.365E-03     33.5268E-03
            1380     9.43382E-03     96.4300E-03    -39.0764E+06     43.3751E+06     57.2434E+06     2.16989E+06    -289.077E-03     578.751E-03    -289.674E-03     35.5790E-03    -289.514E-03     579.038E-03    -289.394E-03     32.6017E-03
            1381     8.75963E-03     96.3713E-03    -46.7268E+06     27.6142E+06     44.9606E+06     1.78554E+06    -289.115E-03     578.791E-03    -289.675E-03     33.4335E-03    -289.525E-03     579.002E-03    -289.423E-03     31.3099E-03
            1382     8.08569E-03     96.3158E-03    -54.5397E+06     3.61623E+06     33.8595E+06     2.43525E+06    -289.162E-03     578.857E-03    -289.695E-03     31.0865E-03    -289.538E-03     578.954E-03    -289.452E-03     29.7396E-03
            1383     7.41159E-03     96.2631E-03    -61.2526E+06    -30.7748E+06     21.5076E+06     2.65732E+06    -289.234E-03     578.955E-03    -289.721E-03     28.6344E-03    -289.560E-03     578.892E-03    -289.480E-03     27.9595E-03
            1384     6.73769E-03     96.2139E-03    -67.6595E+06    -65.3558E+06     7.87384E+06     1.87790E+06    -289.309E-03     579.047E-03    -289.738E-03     26.0712E-03    -289.585E-03     578.828E-03    -289.506E-03     25.9377E-03
            1385     6.06382E-03     96.1685E-03    -74.4714E+06    -95.9247E+06    -6.48796E+06     1.60455E+06    -289.351E-03     579.096E-03    -289.745E-03     23.4996E-03    -289.588E-03     578.748E-03    -289.530E-03     23.7985E-03
            1386     5.38990E-03     96.1271E-03    -81.4795E+06    -123.014E+06    -21.6032E+06     1.35076E+06    -289.363E-03     579.108E-03    -289.745E-03     20.9547E-03    -289.569E-03     578.650E-03    -289.556E-03     21.5704E-03
            1387     4.71600E-03     96.0900E-03    -88.7128E+06    -147.563E+06    -37.2849E+06     1.01074E+06    -289.391E-03     579.130E-03    -289.739E-03     18.3949E-03    -289.571E-03     578.579E-03    -289.583E-03     19.2086E-03
            1388     4.04216E-03     96.0573E-03    -95.7674E+06    -169.949E+06    -53.3654E+06     910.224E+03    -289.442E-03     579.170E-03    -289.728E-03     15.8062E-03    -289.599E-03     578.539E-03    -289.609E-03     16.7189E-03
            1389     3.36845E-03     96.0291E-03    -102.448E+06    -190.762E+06    -69.7702E+06     916.550E+03    -289.485E-03     579.194E-03    -289.709E-03     13.2113E-03    -289.620E-03     578.491E-03    -289.633E-03     14.1363E-03
            1390     2.69471E-03     96.0058E-03    -108.390E+06    -209.699E+06    -85.5467E+06     802.179E+03    -289.523E-03     579.211E-03    -289.688E-03     10.6167E-03    -289.637E-03     578.444E-03    -289.654E-03     11.4677E-03
            1391     2.02098E-03     95.9875E-03    -113.389E+06    -226.006E+06    -99.6096E+06     584.849E+03    -289.557E-03     579.225E-03    -289.668E-03     8.02155E-03    -289.652E-03     578.404E-03    -289.674E-03     8.72333E-03
            1392     1.34728E-03     95.9742E-03    -117.260E+06    -238.597E+06    -110.788E+06     328.770E+03    -289.586E-03     579.245E-03    -289.659E-03     5.42320E-03    -289.666E-03     578.383E-03    -289.697E-03     5.92269E-03
            1393     673.564E-06     95.9660E-03    -119.902E+06    -247.127E+06    -118.084E+06     145.274E+03    -289.723E-03     579.296E-03    -289.573E-03     2.93020E-03    -289.793E-03     578.405E-03    -289.631E-03     3.20484E-03
            1394     12.8046E-03     95.0387E-03    -5.54062E+06     74.2300E+06     98.8877E+06     316.713E+03    -288.778E-03     578.424E-03    -289.646E-03     32.3805E-03    -289.216E-03     578.820E-03    -289.251E-03     26.6270E-03
            1395     12.1312E-03     94.9810E-03    -11.4943E+06     69.6683E+06     99.4465E+06     832.762E+03    -288.797E-03     578.485E-03    -289.688E-03     38.5357E-03    -289.303E-03     578.909E-03    -289.275E-03     32.2509E-03
            1396     11.4564E-03     94.9227E-03    -17.7724E+06     65.5291E+06     95.4369E+06     1.28837E+06    -288.893E-03     578.602E-03    -289.709E-03     38.4964E-03    -289.389E-03     578.991E-03    -289.301E-03     33.0824E-03
            1397     10.7822E-03     94.8614E-03    -24.6079E+06     59.8434E+06     85.3988E+06     1.85632E+06    -289.013E-03     578.715E-03    -289.702E-03     38.4955E-03    -289.501E-03     579.080E-03    -289.326E-03     33.7661E-03
            1398     10.1082E-03     94.7994E-03    -31.9690E+06     53.3944E+06     71.9571E+06     1.51082E+06    -289.073E-03     578.752E-03    -289.679E-03     37.4071E-03    -289.540E-03     579.087E-03    -289.350E-03     33.5211E-03
            1399     9.43407E-03     94.7390E-03    -38.9380E+06     42.4678E+06     57.3070E+06     1.68783E+06    -289.071E-03     578.728E-03    -289.657E-03     35.5982E-03    -289.506E-03     579.010E-03    -289.376E-03     32.6074E-03
            1400     8.75995E-03     94.6804E-03    -45.2932E+06     27.9102E+06     45.8378E+06     2.66488E+06    -289.081E-03     578.740E-03    -289.660E-03     33.3622E-03    -289.484E-03     578.949E-03    -289.405E-03     31.2562E-03
            1401     8.08572E-03     94.6247E-03    -51.6799E+06     5.24327E+06     35.8928E+06     1.60247E+06    -289.133E-03     578.815E-03    -289.682E-03     30.9799E-03    -289.500E-03     578.914E-03    -289.436E-03     29.6208E-03
            1402     7.41181E-03     94.5720E-03    -58.3733E+06    -29.7103E+06     23.2085E+06     468.619E+03    -289.212E-03     578.921E-03    -289.709E-03     28.6062E-03    -289.528E-03     578.857E-03    -289.465E-03     27.8951E-03
            1403     6.73781E-03     94.5228E-03    -65.4881E+06    -65.0179E+06     8.77553E+06     837.947E+03    -289.266E-03     578.993E-03    -289.727E-03     26.1235E-03    -289.533E-03     578.772E-03    -289.494E-03     25.9762E-03
            1404     6.06383E-03     94.4775E-03    -72.9642E+06    -95.4551E+06    -5.86202E+06     1.03199E+06    -289.306E-03     579.044E-03    -289.738E-03     23.5920E-03    -289.537E-03     578.695E-03    -289.523E-03     23.8793E-03
            1405     5.38993E-03     94.4362E-03    -80.5296E+06    -122.239E+06    -20.9101E+06     1.06931E+06    -289.350E-03     579.092E-03    -289.742E-03     21.0323E-03    -289.553E-03     578.635E-03    -289.552E-03     21.6398E-03
            1406     4.71607E-03     94.3991E-03    -87.9500E+06    -146.634E+06    -36.7025E+06     1.05546E+06    -289.390E-03     579.127E-03    -289.737E-03     18.4557E-03    -289.568E-03     578.579E-03    -289.580E-03     19.2743E-03
            1407     4.04227E-03     94.3663E-03    -95.2337E+06    -169.325E+06    -53.1131E+06     835.985E+03    -289.426E-03     579.152E-03    -289.726E-03     15.8761E-03    -289.582E-03     578.522E-03    -289.608E-03     16.7928E-03
            1408     3.36841E-03     94.3382E-03    -101.998E+06    -190.149E+06    -69.5454E+06     634.778E+03    -289.472E-03     579.183E-03    -289.710E-03     13.2852E-03    -289.607E-03     578.482E-03    -289.634E-03     14.2054E-03
            1409     2.69465E-03     94.3150E-03    -108.055E+06    -208.988E+06    -85.3048E+06     552.249E+03    -289.522E-03     579.213E-03    -289.691E-03     10.6674E-03    -289.636E-03     578.449E-03    -289.658E-03     11.5131E-03
            1410     2.02095E-03     94.2966E-03    -113.185E+06    -225.122E+06    -99.3475E+06     459.837E+03    -289.565E-03     579.237E-03    -289.672E-03     8.03505E-03    -289.660E-03     578.419E-03    -289.678E-03     8.73493E-03
            1411     1.34728E-03     94.2834E-03    -117.104E+06    -237.731E+06    -110.580E+06     332.994E+03    -289.604E-03     579.261E-03    -289.656E-03     5.41686E-03    -289.685E-03     578.402E-03    -289.695E-03     5.92128E-03
            1412     673.664E-06     94.2750E-03    -119.739E+06    -246.290E+06    -118.015E+06     199.592E+03    -289.634E-03     579.279E-03    -289.645E-03     2.98128E-03    -289.705E-03     578.393E-03    -289.704E-03     3.26747E-03
            1413     12.8051E-03     93.3476E-03    -5.71372E+06     73.8004E+06     98.9350E+06     695.063E+03    -288.836E-03     578.496E-03    -289.660E-03     32.2900E-03    -289.274E-03     578.889E-03    -289.264E-03     26.5547E-03
            1414     12.1299E-03     93.2902E-03    -11.3560E+06     69.4488E+06     99.4622E+06     371.866E+03    -288.990E-03     578.684E-03    -289.694E-03     38.3233E-03    -289.495E-03     579.107E-03    -289.281E-03     32.0110E-03
            1415     11.4564E-03     93.2311E-03    -17.2727E+06     63.8336E+06     94.7690E+06     444.217E+03    -289.077E-03     578.780E-03    -289.703E-03     38.2052E-03    -289.567E-03     579.160E-03    -289.296E-03     32.7585E-03
            1416     10.7825E-03     93.1701E-03    -23.0840E+06     59.1359E+06     84.4919E+06     860.818E+03    -289.064E-03     578.748E-03    -289.684E-03     38.3903E-03    -289.542E-03     579.109E-03    -289.314E-03     33.6338E-03
            1417     10.1083E-03     93.1082E-03    -28.3516E+06     55.4468E+06     72.8664E+06     726.776E+03    -289.038E-03     578.700E-03    -289.662E-03     37.4578E-03    -289.492E-03     579.039E-03    -289.337E-03     33.5565E-03
            1418     9.43409E-03     93.0479E-03    -34.0656E+06     40.4508E+06     60.4567E+06     569.778E+03    -289.109E-03     578.765E-03    -289.656E-03     35.7045E-03    -289.522E-03     579.026E-03    -289.363E-03     32.7019E-03
            1419     8.76004E-03     92.9892E-03    -40.1571E+06     26.4892E+06     49.7332E+06     1.10419E+06    -289.125E-03     578.784E-03    -289.659E-03     33.4886E-03    -289.507E-03     578.973E-03    -289.390E-03     31.3608E-03
            1420     8.08607E-03     92.9336E-03    -47.0206E+06     7.50265E+06     38.5913E+06     2.04267E+06    -289.092E-03     578.764E-03    -289.671E-03     31.1071E-03    -289.444E-03     578.863E-03    -289.421E-03     29.7612E-03
            1421     7.41185E-03     92.8810E-03    -55.6413E+06    -29.3499E+06     24.1993E+06     2.41171E+06    -289.138E-03     578.839E-03    -289.701E-03     28.7031E-03    -289.443E-03     578.771E-03    -289.456E-03     28.0255E-03
            1422     6.73780E-03     92.8319E-03    -64.4627E+06    -64.5345E+06     9.29068E+06     2.10632E+06    -289.199E-03     578.925E-03    -289.726E-03     26.2019E-03    -289.463E-03     578.704E-03    -289.492E-03     26.0755E-03
            1423     6.06380E-03     92.7865E-03    -72.5768E+06    -94.7268E+06    -5.49754E+06     1.75408E+06    -289.267E-03     579.010E-03    -289.743E-03     23.6546E-03    -289.498E-03     578.663E-03    -289.528E-03     23.9576E-03
            1424     5.38985E-03     92.7452E-03    -80.2923E+06    -121.447E+06    -20.6466E+06     1.43518E+06    -289.333E-03     579.083E-03    -289.750E-03     21.0984E-03    -289.536E-03     578.630E-03    -289.561E-03     21.7175E-03
            1425     4.71599E-03     92.7081E-03    -87.7343E+06    -145.713E+06    -36.4622E+06     1.13916E+06    -289.382E-03     579.131E-03    -289.748E-03     18.5447E-03    -289.561E-03     578.586E-03    -289.592E-03     19.3693E-03
            1426     4.04212E-03     92.6755E-03    -94.9971E+06    -168.461E+06    -52.9433E+06     935.732E+03    -289.437E-03     579.175E-03    -289.739E-03     15.9478E-03    -289.593E-03     578.550E-03    -289.622E-03     16.8728E-03
            1427     3.36836E-03     92.6473E-03    -101.792E+06    -189.430E+06    -69.4570E+06     759.319E+03    -289.493E-03     579.216E-03    -289.723E-03     13.3085E-03    -289.627E-03     578.518E-03    -289.648E-03     14.2345E-03
            1428     2.69465E-03     92.6240E-03    -107.845E+06    -208.290E+06    -85.2008E+06     592.022E+03    -289.540E-03     579.242E-03    -289.702E-03     10.6687E-03    -289.654E-03     578.481E-03    -289.670E-03     11.5120E-03
            1429     2.02094E-03     92.6057E-03    -113.030E+06    -224.396E+06    -99.2664E+06     438.677E+03    -289.583E-03     579.264E-03    -289.681E-03     8.04441E-03    -289.679E-03     578.450E-03    -289.688E-03     8.74396E-03
            1430     1.34729E-03     92.5923E-03    -117.039E+06    -237.117E+06    -110.456E+06     303.378E+03    -289.615E-03     579.278E-03    -289.663E-03     5.45072E-03    -289.696E-03     578.422E-03    -289.701E-03     5.95405E-03
            1431     673.641E-06     92.5842E-03    -119.448E+06    -245.359E+06    -117.741E+06     260.592E+03    -289.594E-03     579.290E-03    -289.696E-03     2.97291E-03    -289.665E-03     578.407E-03    -289.756E-03     3.25402E-03
            1432     12.8041E-03     91.6565E-03    -5.07401E+06     73.9094E+06     99.1864E+06     237.686E+03    -289.020E-03     578.677E-03    -289.657E-03     31.9699E-03    -289.456E-03     579.069E-03    -289.261E-03     26.1986E-03
            1433     12.1313E-03     91.5982E-03    -10.4742E+06     69.4372E+06     99.5425E+06     128.615E+03    -289.121E-03     578.802E-03    -289.681E-03     38.0334E-03    -289.621E-03     579.223E-03    -289.269E-03     31.6872E-03
            1434     11.4568E-03     91.5400E-03    -16.7927E+06     63.7162E+06     94.7131E+06    -186.619E+03    -289.032E-03     578.718E-03    -289.687E-03     38.1563E-03    -289.518E-03     579.096E-03    -289.281E-03     32.7127E-03
            1435     10.7825E-03     91.4789E-03    -23.3429E+06     58.9987E+06     84.6982E+06    -778.348E+03    -289.016E-03     578.689E-03    -289.672E-03     38.4106E-03    -289.495E-03     579.049E-03    -289.301E-03     33.6410E-03
            1436     10.1084E-03     91.4175E-03    -30.7707E+06     53.3085E+06     71.3265E+06     135.660E+03    -289.017E-03     578.665E-03    -289.649E-03     37.4005E-03    -289.477E-03     578.999E-03    -289.325E-03     33.4960E-03
            1437     9.43421E-03     91.3566E-03    -38.4309E+06     41.2673E+06     56.5886E+06     933.808E+03    -289.008E-03     578.640E-03    -289.632E-03     35.6736E-03    -289.439E-03     578.917E-03    -289.354E-03     32.6694E-03
            1438     8.76012E-03     91.2982E-03    -46.4078E+06     25.0209E+06     44.2100E+06     763.588E+03    -289.001E-03     578.640E-03    -289.639E-03     33.5944E-03    -289.404E-03     578.839E-03    -289.387E-03     31.4553E-03
            1439     8.08585E-03     91.2427E-03    -53.9985E+06     4.24412E+06     34.1325E+06     1.88931E+06    -289.024E-03     578.691E-03    -289.667E-03     31.2807E-03    -289.399E-03     578.791E-03    -289.424E-03     29.9374E-03
            1440     7.41181E-03     91.1902E-03    -60.4586E+06    -27.6577E+06     22.4601E+06     2.61315E+06    -289.090E-03     578.793E-03    -289.703E-03     28.8216E-03    -289.418E-03     578.743E-03    -289.463E-03     28.1524E-03
            1441     6.73773E-03     91.1410E-03    -66.8340E+06    -62.8549E+06     8.73316E+06     2.05682E+06    -289.179E-03     578.912E-03    -289.733E-03     26.2805E-03    -289.456E-03     578.704E-03    -289.502E-03     26.1602E-03
            1442     6.06372E-03     91.0957E-03    -73.6736E+06    -93.3106E+06    -5.60375E+06     1.51872E+06    -289.260E-03     579.013E-03    -289.753E-03     23.6950E-03    -289.498E-03     578.674E-03    -289.539E-03     24.0050E-03
            1443     5.38979E-03     91.0542E-03    -80.7900E+06    -120.330E+06    -20.7542E+06     1.11637E+06    -289.321E-03     579.082E-03    -289.762E-03     21.0870E-03    -289.528E-03     578.636E-03    -289.574E-03     21.7063E-03
            1444     4.71585E-03     91.0172E-03    -88.0190E+06    -145.053E+06    -36.5801E+06     991.107E+03    -289.385E-03     579.147E-03    -289.762E-03     18.4910E-03    -289.566E-03     578.607E-03    -289.607E-03     19.3145E-03
            1445     4.04208E-03     90.9843E-03    -95.0853E+06    -167.608E+06    -52.8855E+06     923.636E+03    -289.445E-03     579.199E-03    -289.754E-03     15.8957E-03    -289.603E-03     578.578E-03    -289.637E-03     16.8220E-03
            1446     3.36832E-03     90.9563E-03    -101.832E+06    -188.578E+06    -69.3407E+06     739.373E+03    -289.495E-03     579.235E-03    -289.740E-03     13.3141E-03    -289.631E-03     578.541E-03    -289.665E-03     14.2418E-03
            1447     2.69458E-03     90.9330E-03    -107.922E+06    -207.621E+06    -85.1189E+06     534.023E+03    -289.549E-03     579.271E-03    -289.722E-03     10.7165E-03    -289.664E-03     578.513E-03    -289.690E-03     11.5615E-03
            1448     2.02091E-03     90.9147E-03    -112.991E+06    -223.707E+06    -99.1710E+06     396.544E+03    -289.593E-03     579.297E-03    -289.704E-03     8.09670E-03    -289.690E-03     578.486E-03    -289.712E-03     8.79860E-03
            1449     1.34724E-03     90.9014E-03    -116.886E+06    -236.414E+06    -110.285E+06     288.577E+03    -289.624E-03     579.318E-03    -289.694E-03     5.48501E-03    -289.705E-03     578.465E-03    -289.734E-03     5.98971E-03
            1450     673.570E-06     90.8932E-03    -119.475E+06    -244.708E+06    -117.629E+06     141.294E+03    -289.721E-03     579.365E-03    -289.644E-03     3.03585E-03    -289.792E-03     578.485E-03    -289.704E-03     3.31768E-03
            1451     12.8055E-03     89.9639E-03    -5.16624E+06      73.707E+06     98.4773E+06    -393.005E+03    -288.946E-03     578.586E-03    -289.640E-03     32.1866E-03    -289.381E-03     578.979E-03    -289.247E-03     26.4124E-03
            1452     12.1305E-03     89.9072E-03    -10.5664E+06     69.0618E+06     99.0850E+06    -137.427E+03    -288.986E-03     578.657E-03    -289.671E-03     38.2730E-03    -289.486E-03     579.077E-03    -289.260E-03     31.9268E-03
            1453     11.4567E-03     89.8488E-03    -17.2205E+06     64.3957E+06     94.5348E+06     213.987E+03    -289.001E-03     578.682E-03    -289.681E-03     38.4085E-03    -289.492E-03     579.066E-03    -289.277E-03     32.9637E-03
            1454     10.7826E-03     89.7879E-03    -24.6499E+06     58.2851E+06     84.1280E+06     818.527E+03    -289.010E-03     578.680E-03    -289.669E-03     38.5199E-03    -289.494E-03     579.039E-03    -289.298E-03     33.7732E-03
            1455     10.1086E-03     89.7262E-03    -31.9697E+06     51.3413E+06     70.7467E+06     1.09911E+06    -288.968E-03     578.617E-03    -289.649E-03     37.6334E-03    -289.430E-03     578.943E-03    -289.324E-03     33.7506E-03
            1456     9.43439E-03     89.6660E-03    -38.6591E+06     40.5865E+06     56.4381E+06     1.57781E+06    -288.946E-03     578.583E-03    -289.636E-03     35.9524E-03    -289.377E-03     578.857E-03    -289.357E-03     32.9640E-03
            1457     8.75993E-03     89.6076E-03    -45.2141E+06     25.2370E+06     44.6661E+06     2.27466E+06    -288.968E-03     578.615E-03    -289.647E-03     33.6896E-03    -289.366E-03     578.813E-03    -289.395E-03     31.5840E-03
            1458     8.08582E-03     89.5518E-03    -52.0266E+06     4.99589E+06     35.1168E+06     1.06640E+06    -289.016E-03     578.695E-03    -289.679E-03     31.2722E-03    -289.384E-03     578.794E-03    -289.435E-03     29.9210E-03
            1459     7.41165E-03     89.4992E-03    -58.9416E+06    -27.3400E+06     23.0765E+06     23.2484E+03    -289.109E-03     578.825E-03    -289.715E-03     28.8254E-03    -289.431E-03     578.773E-03    -289.475E-03     28.1181E-03
            1460     6.73761E-03     89.4502E-03    -65.8621E+06    -62.3836E+06     9.11116E+06     374.383E+03    -289.210E-03     578.954E-03    -289.744E-03     26.2805E-03    -289.484E-03     578.746E-03    -289.513E-03     26.1360E-03
            1461     6.06365E-03     89.4046E-03    -73.0082E+06    -92.4390E+06    -5.22490E+06     509.422E+03    -289.277E-03     579.039E-03    -289.762E-03     23.6713E-03    -289.514E-03     578.704E-03    -289.548E-03     23.9630E-03
            1462     5.38972E-03     89.3634E-03    -80.3243E+06    -120.092E+06    -20.2447E+06     607.931E+03    -289.336E-03     579.108E-03    -289.772E-03     21.0725E-03    -289.542E-03     578.661E-03    -289.583E-03     21.6825E-03
            1463     4.71591E-03     89.3261E-03    -87.6956E+06    -144.944E+06    -36.1277E+06     824.063E+03    -289.392E-03     579.164E-03    -289.772E-03     18.5004E-03    -289.572E-03     578.623E-03    -289.616E-03     19.3218E-03
            1464     4.04206E-03     89.2934E-03    -94.8884E+06    -166.746E+06    -52.5314E+06     744.009E+03    -289.432E-03     579.197E-03    -289.765E-03     15.9046E-03    -289.590E-03     578.579E-03    -289.648E-03     16.8264E-03
            1465     3.36822E-03     89.2653E-03    -101.508E+06    -187.901E+06    -68.8948E+06     511.137E+03    -289.483E-03     579.239E-03    -289.756E-03     13.3036E-03    -289.619E-03     578.547E-03    -289.681E-03     14.2272E-03
            1466     2.69450E-03     89.2419E-03    -107.518E+06    -207.012E+06    -84.7028E+06     392.564E+03    -289.547E-03     579.291E-03    -289.744E-03     10.6880E-03    -289.662E-03     578.535E-03    -289.711E-03     11.5310E-03
            1467     2.02080E-03     89.2236E-03    -112.678E+06    -223.212E+06    -98.8222E+06     290.067E+03    -289.613E-03     579.342E-03    -289.730E-03     8.05597E-03    -289.709E-03     578.533E-03    -289.737E-03     8.75500E-03
            1468     1.34716E-03     89.2103E-03    -116.542E+06    -235.901E+06    -109.976E+06     204.726E+03    -289.676E-03     579.388E-03    -289.712E-03     5.42281E-03    -289.757E-03     578.537E-03    -289.751E-03     5.92790E-03
            1469     673.598E-06     89.2021E-03    -118.892E+06    -243.971E+06    -117.271E+06     57.7981E+03    -289.706E-03     579.383E-03    -289.677E-03     3.01072E-03    -289.777E-03     578.505E-03    -289.737E-03     3.29404E-03
            1470     12.8046E-03     88.2735E-03    -5.47736E+06     73.2919E+06     97.9779E+06    -207.555E+03    -288.830E-03     578.469E-03    -289.639E-03     32.5413E-03    -289.266E-03     578.862E-03    -289.247E-03     26.7874E-03
            1471     12.1310E-03     88.2160E-03    -11.6260E+06     68.6542E+06     98.2140E+06    -181.583E+03    -288.904E-03     578.578E-03    -289.674E-03     38.3019E-03    -289.408E-03     579.000E-03    -289.266E-03     31.9458E-03
            1472     11.4567E-03     88.1574E-03    -17.6410E+06     63.5045E+06     93.7648E+06     247.567E+03    -288.921E-03     578.611E-03    -289.690E-03     38.5478E-03    -289.412E-03     578.993E-03    -289.288E-03     33.0793E-03
            1473     10.7825E-03     88.0968E-03    -23.6038E+06     57.3997E+06     82.9859E+06     547.502E+03    -288.938E-03     578.618E-03    -289.681E-03     38.7985E-03    -289.414E-03     578.974E-03    -289.315E-03     34.0349E-03
            1474     10.1081E-03     88.0356E-03    -29.0857E+06     52.6037E+06     71.0732E+06     218.878E+03    -288.951E-03     578.618E-03    -289.667E-03     37.8984E-03    -289.402E-03     578.947E-03    -289.346E-03     34.0013E-03
            1475     9.43376E-03     87.9750E-03    -34.7182E+06     38.2341E+06     59.1315E+06     151.738E+03    -289.056E-03     578.726E-03    -289.669E-03     36.0906E-03    -289.468E-03     578.978E-03    -289.379E-03     33.0964E-03
            1476     8.75994E-03     87.9165E-03    -40.4390E+06     23.9813E+06     48.8667E+06     894.083E+03    -289.109E-03     578.788E-03    -289.679E-03     33.7623E-03    -289.487E-03     578.966E-03    -289.411E-03     31.6337E-03
            1477     8.08574E-03     87.8609E-03    -47.2051E+06     7.90171E+06     38.5128E+06     1.70032E+06    -289.086E-03     578.780E-03    -289.694E-03     31.2827E-03    -289.439E-03     578.882E-03    -289.445E-03     29.9310E-03
            1478     7.41164E-03     87.8083E-03    -55.4265E+06    -26.3958E+06     24.7597E+06     1.41164E+06    -289.149E-03     578.874E-03    -289.724E-03     28.7888E-03    -289.458E-03     578.820E-03    -289.482E-03     28.0960E-03
            1479     6.73763E-03     87.7590E-03    -63.8371E+06    -62.3595E+06     9.97694E+06     787.971E+03    -289.230E-03     578.982E-03    -289.751E-03     26.2461E-03    -289.495E-03     578.770E-03    -289.518E-03     26.0986E-03
            1480     6.06365E-03     87.7137E-03    -71.7726E+06    -92.2195E+06    -4.66136E+06     653.942E+03    -289.276E-03     579.045E-03    -289.769E-03     23.6689E-03    -289.508E-03     578.708E-03    -289.554E-03     23.9568E-03
            1481     5.38972E-03     87.6723E-03    -79.4986E+06    -120.384E+06    -19.6286E+06     706.301E+03    -289.334E-03     579.116E-03    -289.782E-03     21.1053E-03    -289.536E-03     578.666E-03    -289.590E-03     21.7187E-03
            1482     4.71579E-03     87.6351E-03    -86.9967E+06    -144.801E+06    -35.3719E+06     717.321E+03    -289.396E-03     579.180E-03    -289.784E-03     18.5232E-03    -289.574E-03     578.638E-03    -289.625E-03     19.3426E-03
            1483     4.04196E-03     87.6023E-03    -94.0948E+06    -165.824E+06    -51.8429E+06     542.309E+03    -289.451E-03     579.225E-03    -289.775E-03     15.8948E-03    -289.608E-03     578.610E-03    -289.657E-03     16.8102E-03
            1484     3.36826E-03     87.5742E-03    -100.847E+06    -187.512E+06    -68.3656E+06     399.100E+03    -289.507E-03     579.271E-03    -289.764E-03     13.2717E-03    -289.641E-03     578.580E-03    -289.687E-03     14.1912E-03
            1485     2.69450E-03     87.5509E-03    -106.978E+06    -206.573E+06    -84.2023E+06     368.955E+03    -289.563E-03     579.312E-03    -289.749E-03     10.6332E-03    -289.677E-03     578.556E-03    -289.715E-03     11.4796E-03
            1486     2.02083E-03     87.5324E-03    -112.107E+06    -222.696E+06    -98.2929E+06     269.089E+03    -289.625E-03     579.356E-03    -289.731E-03     8.00459E-03    -289.720E-03     578.547E-03    -289.737E-03     8.70461E-03
            1487     1.34724E-03     87.5191E-03    -116.126E+06    -235.526E+06    -109.535E+06     118.999E+03    -289.678E-03     579.388E-03    -289.710E-03     5.43521E-03    -289.758E-03     578.538E-03    -289.748E-03     5.93448E-03
            1488     673.669E-06     87.5109E-03    -118.724E+06    -243.655E+06    -116.840E+06     44.5196E+03    -289.680E-03     579.377E-03    -289.697E-03     2.94049E-03    -289.751E-03     578.500E-03    -289.756E-03     3.21201E-03
            1489     12.8050E-03     86.5813E-03    -4.72698E+06     73.5172E+06     98.3004E+06     140.385E+03    -288.719E-03     578.365E-03    -289.646E-03     32.3937E-03    -289.152E-03     578.758E-03    -289.254E-03     26.6134E-03
            1490     12.1306E-03     86.5251E-03    -10.7986E+06      68.924E+06     98.0173E+06     51.5849E+03    -288.709E-03     578.397E-03    -289.688E-03     38.5095E-03    -289.209E-03     578.819E-03    -289.282E-03     32.1724E-03
            1491     11.4563E-03     86.4666E-03    -17.0251E+06     63.3089E+06     93.2434E+06    -478.322E+03    -288.820E-03     578.534E-03    -289.714E-03     38.8905E-03    -289.307E-03     578.915E-03    -289.315E-03     33.4449E-03
            1492     10.7819E-03     86.4059E-03    -23.3715E+06     57.6224E+06     83.5225E+06    -956.327E+03    -288.994E-03     578.707E-03    -289.713E-03     38.8593E-03    -289.471E-03     579.063E-03    -289.345E-03     34.0837E-03
            1493     10.1078E-03     86.3445E-03    -30.6913E+06     51.1884E+06     70.7477E+06    -210.611E+03    -289.127E-03     578.821E-03    -289.694E-03     37.6894E-03    -289.584E-03     579.146E-03    -289.370E-03     33.7752E-03
            1494     9.43391E-03     86.2838E-03    -38.6928E+06     38.6948E+06     56.2722E+06     225.685E+03    -289.130E-03     578.806E-03    -289.676E-03     35.8276E-03    -289.559E-03     579.071E-03    -289.394E-03     32.8117E-03
            1495     8.75960E-03     86.2253E-03    -46.3387E+06     23.0109E+06     44.3093E+06    -394.521E+03    -289.100E-03     578.778E-03    -289.678E-03     33.6422E-03    -289.500E-03     578.967E-03    -289.423E-03     31.4698E-03
            1496     8.08565E-03     86.1698E-03    -52.9169E+06     5.43500E+06     35.1840E+06     43.4143E+03    -289.107E-03     578.807E-03    -289.700E-03     31.2942E-03    -289.480E-03     578.910E-03    -289.455E-03     29.9018E-03
            1497     7.41161E-03     86.1172E-03    -58.8990E+06    -25.2271E+06     23.7242E+06     920.438E+03    -289.151E-03     578.883E-03    -289.731E-03     28.8650E-03    -289.477E-03     578.841E-03    -289.491E-03     28.1599E-03
            1498     6.73757E-03     86.0681E-03    -65.2870E+06    -61.5751E+06     9.62204E+06     886.321E+03    -289.215E-03     578.974E-03    -289.760E-03     26.3343E-03    -289.487E-03     578.769E-03    -289.528E-03     26.1868E-03
            1499     6.06358E-03     86.0227E-03    -72.4028E+06    -92.1210E+06    -4.84705E+06     771.392E+03    -289.283E-03     579.062E-03    -289.779E-03     23.7449E-03    -289.518E-03     578.727E-03    -289.565E-03     24.0357E-03
            1500     5.38962E-03     85.9813E-03    -79.8004E+06    -119.979E+06    -19.9108E+06     741.139E+03    -289.361E-03     579.151E-03    -289.790E-03     21.1314E-03    -289.565E-03     578.704E-03    -289.600E-03     21.7459E-03
            1501     4.71580E-03     85.9440E-03    -87.1053E+06    -144.119E+06    -35.5767E+06     456.850E+03    -289.422E-03     579.211E-03    -289.789E-03     18.5032E-03    -289.602E-03     578.673E-03    -289.632E-03     19.3160E-03
            1502     4.04201E-03     85.9112E-03    -94.2264E+06    -165.622E+06    -51.9114E+06     379.646E+03    -289.468E-03     579.247E-03    -289.779E-03     15.8774E-03    -289.626E-03     578.633E-03    -289.661E-03     16.7882E-03
            1503     3.36820E-03     85.8831E-03    -100.985E+06    -187.108E+06    -68.4136E+06     445.106E+03    -289.524E-03     579.288E-03    -289.764E-03     13.2767E-03    -289.659E-03     578.599E-03    -289.689E-03     14.1972E-03
            1504     2.69454E-03     85.8597E-03    -107.138E+06    -206.211E+06    -84.2949E+06     359.174E+03    -289.583E-03     579.327E-03    -289.744E-03     10.6627E-03    -289.698E-03     578.574E-03    -289.711E-03     11.5147E-03
            1505     2.02088E-03     85.8413E-03    -112.332E+06    -222.327E+06    -98.4470E+06     269.536E+03    -289.621E-03     579.343E-03    -289.723E-03     8.03349E-03    -289.717E-03     578.537E-03    -289.730E-03     8.73522E-03
            1506     1.34718E-03     85.8280E-03    -116.229E+06    -234.992E+06    -109.589E+06     184.467E+03    -289.637E-03     579.349E-03    -289.712E-03     5.43984E-03    -289.718E-03     578.502E-03    -289.751E-03     5.94129E-03
            1507     673.503E-06     85.8198E-03    -118.988E+06    -243.564E+06    -117.171E+06     106.173E+03    -289.736E-03     579.402E-03    -289.666E-03     2.95114E-03    -289.807E-03     578.526E-03    -289.726E-03     3.23453E-03
            1508     12.8049E-03     84.8919E-03    -4.96333E+06     73.1919E+06     97.7200E+06    -32.5057E+03    -288.483E-03     578.142E-03    -289.659E-03     32.6380E-03    -288.916E-03     578.534E-03    -289.270E-03     26.9003E-03
            1509     12.1302E-03     84.8344E-03    -10.4686E+06     69.5734E+06     98.4887E+06     171.132E+03    -288.696E-03     578.409E-03    -289.713E-03     38.5882E-03    -289.193E-03     578.830E-03    -289.306E-03     32.3455E-03
            1510     11.4557E-03     84.7756E-03    -16.9747E+06     64.3204E+06     93.9308E+06    -139.575E+03    -288.970E-03     578.706E-03    -289.736E-03     38.4692E-03    -289.458E-03     579.090E-03    -289.335E-03     33.0311E-03
            1511     10.7818E-03     84.7145E-03    -24.7199E+06     57.0438E+06     82.9806E+06     216.089E+03    -289.102E-03     578.828E-03    -289.726E-03     38.4619E-03    -289.583E-03     579.183E-03    -289.358E-03     33.6902E-03
            1512     10.1079E-03     84.6527E-03    -31.9201E+06     49.7811E+06     70.0009E+06     409.120E+03    -289.153E-03     578.856E-03    -289.703E-03     37.5207E-03    -289.613E-03     579.176E-03    -289.378E-03     33.5982E-03
            1513     9.43381E-03     84.5927E-03    -37.8873E+06     38.9915E+06     56.9978E+06     449.903E+03    -289.132E-03     578.818E-03    -289.686E-03     35.8446E-03    -289.558E-03     579.083E-03    -289.402E-03     32.8112E-03
            1514     8.75981E-03     84.5344E-03    -44.1353E+06     24.9521E+06     45.7779E+06     153.859E+03    -289.091E-03     578.779E-03    -289.689E-03     33.6834E-03    -289.485E-03     578.973E-03    -289.432E-03     31.5174E-03
            1515     8.08556E-03     84.4787E-03    -51.3199E+06     5.08181E+06     35.3761E+06    -1.07721E+06    -289.089E-03     578.800E-03    -289.711E-03     31.3352E-03    -289.454E-03     578.899E-03    -289.467E-03     29.9263E-03
            1516     7.41145E-03     84.4262E-03    -58.6951E+06    -27.1186E+06     22.9699E+06    -1.23491E+06    -289.157E-03     578.901E-03    -289.744E-03     28.9055E-03    -289.478E-03     578.851E-03    -289.505E-03     28.1662E-03
            1517     6.73742E-03     84.3770E-03    -65.9867E+06    -62.1853E+06     8.86012E+06    -304.247E+03    -289.241E-03     579.013E-03    -289.772E-03     26.3322E-03    -289.515E-03     578.806E-03    -289.542E-03     26.1676E-03
            1518     6.06344E-03     84.3316E-03    -73.2038E+06    -92.6045E+06    -5.60315E+06     259.239E+03    -289.324E-03     579.113E-03    -289.789E-03     23.7214E-03    -289.562E-03     578.778E-03    -289.576E-03     24.0054E-03
            1519     5.38962E-03     84.2901E-03    -80.5279E+06    -119.373E+06    -20.6588E+06     395.024E+03    -289.390E-03     579.184E-03    -289.794E-03     21.1186E-03    -289.597E-03     578.742E-03    -289.608E-03     21.7257E-03
            1520     4.71578E-03     84.2529E-03    -87.8437E+06    -143.555E+06    -36.3737E+06     255.760E+03    -289.425E-03     579.216E-03    -289.792E-03     18.5337E-03    -289.607E-03     578.683E-03    -289.638E-03     19.3423E-03
            1521     4.04195E-03     84.2201E-03    -95.0151E+06    -165.944E+06    -52.6914E+06     245.332E+03    -289.473E-03     579.256E-03    -289.783E-03     15.9395E-03    -289.633E-03     578.642E-03    -289.668E-03     16.8501E-03
            1522     3.36825E-03     84.1920E-03    -101.834E+06    -186.937E+06    -69.2253E+06     350.290E+03    -289.539E-03     579.305E-03    -289.767E-03     13.3183E-03    -289.677E-03     578.620E-03    -289.694E-03     14.2418E-03
            1523     2.69449E-03     84.1686E-03    -107.846E+06    -205.805E+06    -85.0214E+06     331.570E+03    -289.587E-03     579.332E-03    -289.745E-03     10.6820E-03    -289.705E-03     578.583E-03    -289.715E-03     11.5296E-03
            1524     2.02084E-03     84.1502E-03    -112.913E+06    -221.933E+06    -99.1089E+06     227.899E+03    -289.618E-03     579.342E-03    -289.724E-03     8.04267E-03    -289.717E-03     578.539E-03    -289.734E-03     8.73968E-03
            1525     1.34724E-03     84.1370E-03    -116.924E+06    -234.688E+06    -110.405E+06     204.409E+03    -289.652E-03     579.361E-03    -289.709E-03     5.44195E-03    -289.736E-03     578.517E-03    -289.752E-03     5.94543E-03
            1526     673.636E-06     84.1286E-03    -119.403E+06    -242.974E+06    -117.687E+06     189.500E+03    -289.673E-03     579.389E-03    -289.716E-03     3.00958E-03    -289.747E-03     578.518E-03    -289.779E-03     3.30447E-03
            1527     12.8038E-03     83.2012E-03    -5.36552E+06     73.7639E+06     98.3148E+06     75.7527E+03    -288.757E-03     578.426E-03    -289.669E-03     32.0995E-03    -289.191E-03     578.818E-03    -289.277E-03     26.3773E-03
            1528     12.1300E-03     83.1430E-03    -11.7169E+06     69.1638E+06     98.4593E+06    -207.650E+03    -288.944E-03     578.650E-03    -289.706E-03     37.7957E-03    -289.446E-03     579.070E-03    -289.297E-03     31.4815E-03
            1529     11.4563E-03     83.0841E-03    -18.2110E+06     63.0554E+06     93.4418E+06     267.017E+03    -288.915E-03     578.636E-03    -289.721E-03     37.9609E-03    -289.405E-03     579.015E-03    -289.319E-03     32.5009E-03
            1530     10.7821E-03     83.0232E-03    -24.0419E+06     56.8770E+06     82.9098E+06     440.055E+03    -288.928E-03     578.642E-03    -289.714E-03     38.3120E-03    -289.405E-03     578.995E-03    -289.347E-03     33.5358E-03
            1531     10.1078E-03     82.9617E-03    -30.0106E+06     50.5039E+06     70.0638E+06     20.8572E+03    -288.950E-03     578.651E-03    -289.701E-03     37.5118E-03    -289.402E-03     578.972E-03    -289.380E-03     33.5806E-03
            1532     9.43356E-03     82.9014E-03    -36.6764E+06     39.7963E+06     57.4367E+06    -649.841E+03    -289.040E-03     578.737E-03    -289.697E-03     35.8745E-03    -289.462E-03     579.004E-03    -289.415E-03     32.8390E-03
            1533     8.75944E-03     82.8431E-03    -43.2549E+06     25.7312E+06     46.6647E+06    -1.15082E+06    -289.109E-03     578.816E-03    -289.707E-03     33.7562E-03    -289.501E-03     579.011E-03    -289.449E-03     31.5784E-03
            1534     8.08544E-03     82.7878E-03    -49.9562E+06     5.35701E+06     36.0651E+06    -460.628E+03    -289.133E-03     578.861E-03    -289.728E-03     31.3756E-03    -289.493E-03     578.958E-03    -289.483E-03     29.9786E-03
            1535     7.41136E-03     82.7350E-03    -57.7440E+06    -28.0815E+06     22.7969E+06     12.5153E+03    -289.211E-03     578.968E-03    -289.757E-03     28.8642E-03    -289.526E-03     578.911E-03    -289.518E-03     28.1463E-03
            1536     6.73739E-03     82.6860E-03    -65.8647E+06    -63.4415E+06     8.20132E+06    -44.0228E+03    -289.303E-03     579.082E-03    -289.780E-03     26.2758E-03    -289.574E-03     578.871E-03    -289.551E-03     26.1191E-03
            1537     6.06350E-03     82.6404E-03    -73.6476E+06    -93.1360E+06    -6.35107E+06     79.7030E+03    -289.350E-03     579.142E-03    -289.792E-03     23.6978E-03    -289.587E-03     578.806E-03    -289.582E-03     23.9772E-03
            1538     5.38957E-03     82.5990E-03    -81.0908E+06    -119.338E+06    -21.3752E+06     88.7525E+03    -289.376E-03     579.173E-03    -289.797E-03     21.1168E-03    -289.585E-03     578.733E-03    -289.613E-03     21.7115E-03
            1539     4.71570E-03     82.5618E-03    -88.4083E+06    -143.485E+06    -37.1006E+06     152.582E+03    -289.423E-03     579.219E-03    -289.796E-03     18.5191E-03    -289.607E-03     578.688E-03    -289.645E-03     19.3223E-03
            1540     4.04191E-03     82.5290E-03    -95.6694E+06    -166.077E+06    -53.5537E+06     249.770E+03    -289.489E-03     579.276E-03    -289.786E-03     15.9100E-03    -289.651E-03     578.664E-03    -289.675E-03     16.8202E-03
            1541     3.36814E-03     82.5007E-03    -102.403E+06    -186.839E+06    -70.0150E+06     253.726E+03    -289.547E-03     579.316E-03    -289.768E-03     13.2864E-03    -289.688E-03     578.632E-03    -289.699E-03     14.2061E-03
            1542     2.69452E-03     82.4774E-03    -108.351E+06    -205.561E+06    -85.6573E+06     168.782E+03    -289.581E-03     579.329E-03    -289.748E-03     10.6617E-03    -289.701E-03     578.583E-03    -289.721E-03     11.4988E-03
            1543     2.02083E-03     82.4591E-03    -113.400E+06    -221.765E+06    -99.5374E+06     141.758E+03    -289.621E-03     579.350E-03    -289.729E-03     8.04472E-03    -289.722E-03     578.550E-03    -289.741E-03     8.73665E-03
            1544     1.34715E-03     82.4458E-03    -117.385E+06    -234.458E+06    -110.717E+06     174.394E+03    -289.681E-03     579.389E-03    -289.708E-03     5.45593E-03    -289.767E-03     578.547E-03    -289.751E-03     5.95581E-03
            1545     673.592E-06     82.4375E-03    -119.789E+06    -242.377E+06    -118.075E+06     125.897E+03    -289.677E-03     579.368E-03    -289.691E-03     2.92215E-03    -289.754E-03     578.501E-03    -289.756E-03     3.19739E-03
            1546     12.8054E-03     81.5089E-03    -5.44692E+06     73.5673E+06     98.9275E+06     209.311E+03    -289.041E-03     578.690E-03    -289.649E-03     31.7647E-03    -289.478E-03     579.081E-03    -289.253E-03     25.9709E-03
            1547     12.1314E-03     81.4520E-03    -10.5096E+06     69.1861E+06     99.1839E+06     382.766E+03    -288.761E-03     578.442E-03    -289.681E-03     38.0283E-03    -289.260E-03     578.861E-03    -289.270E-03     31.6934E-03
            1548     11.4566E-03     81.3935E-03    -16.9897E+06     63.1824E+06     93.9008E+06     110.358E+03    -288.691E-03     578.397E-03    -289.705E-03     38.4568E-03    -289.177E-03     578.774E-03    -289.303E-03     33.0461E-03
            1549     10.7821E-03     81.3324E-03    -23.7751E+06     56.5432E+06     83.3696E+06    -224.547E+03    -288.764E-03     578.476E-03    -289.712E-03     38.6302E-03    -289.239E-03     578.826E-03    -289.343E-03     33.8818E-03
            1550     10.1078E-03     81.2710E-03    -31.0285E+06     49.5777E+06       70.25E+06     455.436E+03    -288.885E-03     578.593E-03    -289.708E-03     37.6107E-03    -289.340E-03     578.910E-03    -289.384E-03     33.7213E-03
            1551     9.43356E-03     81.2104E-03    -38.6229E+06     42.8216E+06     56.3946E+06     389.708E+03    -288.980E-03     578.679E-03    -289.699E-03     35.7879E-03    -289.414E-03     578.964E-03    -289.423E-03     32.7850E-03
            1552     8.75936E-03     81.1520E-03    -46.4838E+06     27.3900E+06     43.8114E+06    -947.213E+03    -289.071E-03     578.778E-03    -289.706E-03     33.5716E-03    -289.478E-03     578.989E-03    -289.459E-03     31.4015E-03
            1553     8.08525E-03     81.0964E-03    -54.0603E+06     2.48736E+06     32.8594E+06    -1.29955E+06    -289.172E-03     578.904E-03    -289.732E-03     31.2164E-03    -289.543E-03     578.997E-03    -289.493E-03     29.8080E-03
            1554     7.41129E-03     81.0439E-03    -60.6742E+06    -29.0064E+06     21.0757E+06    -384.331E+03    -289.253E-03     579.013E-03    -289.760E-03     28.7635E-03    -289.579E-03     578.959E-03    -289.524E-03     28.0388E-03
            1555     6.73734E-03     80.9946E-03    -67.3155E+06    -63.5272E+06     7.23830E+06     15.9441E+03    -289.317E-03     579.097E-03    -289.780E-03     26.2089E-03    -289.594E-03     578.888E-03    -289.554E-03     26.0461E-03
            1556     6.06342E-03     80.9493E-03    -74.4362E+06    -93.1597E+06    -7.06660E+06    -149.742E+03    -289.351E-03     579.142E-03    -289.791E-03     23.6522E-03    -289.591E-03     578.808E-03    -289.584E-03     23.9170E-03
            1557     5.38954E-03     80.9079E-03    -81.7543E+06    -119.561E+06    -22.0815E+06    -175.893E+03    -289.391E-03     579.186E-03    -289.795E-03     21.0612E-03    -289.603E-03     578.747E-03    -289.614E-03     21.6426E-03
            1558     4.71572E-03     80.8706E-03    -89.1284E+06    -143.853E+06    -37.8662E+06     7.19509E+03    -289.448E-03     579.239E-03    -289.791E-03     18.4426E-03    -289.635E-03     578.708E-03    -289.642E-03     19.2384E-03
            1559     4.04195E-03     80.8378E-03    -96.1061E+06    -166.066E+06    -53.9794E+06     80.8381E+03    -289.495E-03     579.273E-03    -289.778E-03     15.8340E-03    -289.659E-03     578.663E-03    -289.668E-03     16.7354E-03
            1560     3.36825E-03     80.8096E-03    -102.632E+06    -186.655E+06    -70.1821E+06    -11.9493E+03    -289.526E-03     579.287E-03    -289.761E-03     13.2252E-03    -289.668E-03     578.605E-03    -289.692E-03     14.1278E-03
            1561     2.69446E-03     80.7863E-03    -108.707E+06    -205.500E+06    -85.9378E+06    -33.5650E+03    -289.566E-03     579.308E-03    -289.742E-03     10.6023E-03    -289.688E-03     578.563E-03    -289.716E-03     11.4287E-03
            1562     2.02080E-03     80.7680E-03    -113.911E+06    -221.877E+06    -100.011E+06     6.76034E+03    -289.631E-03     579.352E-03    -289.721E-03     8.00448E-03    -289.734E-03     578.553E-03    -289.734E-03     8.69522E-03
            1563     1.34725E-03     80.7545E-03    -117.760E+06    -234.395E+06    -111.072E+06     30.0388E+03    -289.672E-03     579.367E-03    -289.695E-03     5.39311E-03    -289.760E-03     578.527E-03    -289.740E-03     5.89200E-03
            1564     673.637E-06     80.7464E-03    -120.209E+06    -242.096E+06    -118.402E+06        -671.305    -289.758E-03     579.338E-03    -289.581E-03     2.88896E-03    -289.836E-03     578.474E-03    -289.647E-03     3.15177E-03
            1565     12.8051E-03     79.8183E-03    -5.55998E+06     72.5452E+06     97.6907E+06    -430.733E+03    -288.599E-03     578.248E-03    -289.649E-03     32.7735E-03    -289.035E-03     578.638E-03    -289.258E-03     27.0084E-03
            1566     12.1302E-03     79.7617E-03    -11.2149E+06     68.6392E+06     98.6316E+06     466.630E+03    -288.769E-03     578.467E-03    -289.698E-03     38.9234E-03    -289.269E-03     578.886E-03    -289.288E-03     32.6889E-03
            1567     11.4562E-03     79.7026E-03    -16.6200E+06     64.0164E+06     95.0551E+06     788.530E+03    -288.865E-03     578.590E-03    -289.725E-03     38.7531E-03    -289.352E-03     578.969E-03    -289.318E-03     33.3722E-03
            1568     10.7819E-03     79.6419E-03    -23.9788E+06     56.2969E+06     83.6940E+06     960.250E+03    -288.917E-03     578.638E-03    -289.721E-03     38.6074E-03    -289.393E-03     578.986E-03    -289.350E-03     33.8841E-03
            1569     10.1077E-03     79.5798E-03    -30.9581E+06     49.2631E+06     70.1639E+06     726.606E+03    -288.981E-03     578.687E-03    -289.707E-03     37.4645E-03    -289.434E-03     579.002E-03    -289.382E-03     33.5753E-03
            1570     9.43355E-03     79.5194E-03    -37.1377E+06     43.6255E+06     57.6479E+06     618.912E+03    -289.015E-03     578.711E-03    -289.695E-03     35.6393E-03    -289.445E-03     578.996E-03    -289.416E-03     32.6227E-03
            1571     8.75943E-03     79.4608E-03    -43.6384E+06     29.5254E+06     45.9308E+06     832.023E+03    -289.075E-03     578.776E-03    -289.702E-03     33.4098E-03    -289.473E-03     578.991E-03    -289.451E-03     31.2615E-03
            1572     8.08539E-03     79.4052E-03    -51.1553E+06     3.28382E+06     34.0910E+06    -8.01125E+03    -289.160E-03     578.885E-03    -289.725E-03     31.0339E-03    -289.520E-03     578.976E-03    -289.485E-03     29.6428E-03
            1573     7.41137E-03     79.3526E-03    -59.2376E+06    -30.2199E+06     21.2498E+06    -926.280E+03    -289.238E-03     578.992E-03    -289.753E-03     28.6402E-03    -289.555E-03     578.929E-03    -289.517E-03     27.8967E-03
            1574     6.73742E-03     79.3035E-03    -66.7701E+06    -64.0522E+06     7.33283E+06    -839.853E+03    -289.303E-03     579.078E-03    -289.774E-03     26.1333E-03    -289.577E-03     578.866E-03    -289.548E-03     25.9412E-03
            1575     6.06348E-03     79.2581E-03    -73.9864E+06    -93.3282E+06    -6.91248E+06    -545.256E+03    -289.364E-03     579.149E-03    -289.785E-03     23.5673E-03    -289.602E-03     578.813E-03    -289.577E-03     23.8155E-03
            1576     5.38962E-03     79.2167E-03    -81.3611E+06    -120.176E+06    -21.7449E+06    -314.393E+03    -289.417E-03     579.204E-03    -289.787E-03     20.9922E-03    -289.626E-03     578.761E-03    -289.604E-03     21.5677E-03
            1577     4.71582E-03     79.1795E-03    -88.6546E+06    -144.226E+06    -37.3357E+06    -164.142E+03    -289.449E-03     579.229E-03    -289.780E-03     18.4235E-03    -289.633E-03     578.695E-03    -289.629E-03     19.2107E-03
            1578     4.04204E-03     79.1466E-03    -95.7691E+06    -165.994E+06    -53.6524E+06    -199.978E+03    -289.474E-03     579.240E-03    -289.766E-03     15.8538E-03    -289.637E-03     578.629E-03    -289.655E-03     16.7443E-03
            1579     3.36824E-03     79.1185E-03    -102.525E+06    -186.891E+06    -70.1667E+06    -183.840E+03    -289.517E-03     579.265E-03    -289.748E-03     13.2439E-03    -289.657E-03     578.582E-03    -289.680E-03     14.1386E-03
            1580     2.69458E-03     79.0952E-03    -108.565E+06    -205.633E+06    -85.9412E+06    -75.7004E+03    -289.571E-03     579.298E-03    -289.727E-03     10.6074E-03    -289.691E-03     578.552E-03    -289.701E-03     11.4318E-03
            1581     2.02091E-03     79.0768E-03    -113.635E+06    -221.887E+06    -99.9211E+06    -15.8890E+03    -289.613E-03     579.317E-03    -289.704E-03     8.01294E-03    -289.715E-03     578.517E-03    -289.717E-03     8.70429E-03
            1582     1.34724E-03     79.0634E-03    -117.616E+06    -234.488E+06    -111.087E+06    -40.1977E+03    -289.634E-03     579.320E-03    -289.685E-03     5.41805E-03    -289.721E-03     578.479E-03    -289.730E-03     5.91379E-03
            1583     673.598E-06     79.0555E-03    -120.360E+06    -242.255E+06    -118.455E+06    -10.3185E+03    -289.723E-03     579.334E-03    -289.611E-03     2.95709E-03    -289.802E-03     578.469E-03    -289.678E-03     3.22227E-03
            1584     12.8036E-03     78.1279E-03    -4.81975E+06     73.4194E+06     98.5482E+06     308.377E+03    -288.632E-03     578.303E-03    -289.671E-03     32.1895E-03    -289.063E-03     578.692E-03    -289.278E-03     26.4763E-03
            1585     12.1301E-03     78.0697E-03    -11.5905E+06     68.1687E+06     98.0455E+06    -740.705E+03    -288.931E-03     578.642E-03    -289.711E-03     37.9313E-03    -289.431E-03     579.058E-03    -289.302E-03     31.5984E-03
            1586     11.4560E-03     78.0116E-03    -18.3835E+06     61.7757E+06     93.0555E+06    -269.823E+03    -289.022E-03     578.747E-03    -289.724E-03     38.1223E-03    -289.513E-03     579.121E-03    -289.322E-03     32.6410E-03
            1587     10.7821E-03     77.9504E-03    -23.6726E+06     56.2751E+06     83.7659E+06     442.802E+03    -289.053E-03     578.768E-03    -289.715E-03     38.3070E-03    -289.529E-03     579.116E-03    -289.343E-03     33.5354E-03
            1588     10.1081E-03     77.8889E-03    -29.7354E+06     50.2656E+06     70.8779E+06     373.985E+03    -289.031E-03     578.725E-03    -289.693E-03     37.3584E-03    -289.482E-03     579.042E-03    -289.369E-03     33.4401E-03
            1589     9.43383E-03     77.8283E-03    -36.7679E+06     43.2775E+06     57.7393E+06     293.086E+03    -289.025E-03     578.704E-03    -289.679E-03     35.6302E-03    -289.452E-03     578.987E-03    -289.400E-03     32.5992E-03
            1590     8.75968E-03     77.7698E-03    -43.6238E+06     29.1090E+06     46.4865E+06     439.107E+03    -289.055E-03     578.743E-03    -289.688E-03     33.4401E-03    -289.454E-03     578.955E-03    -289.434E-03     31.2826E-03
            1591     8.08555E-03     77.7140E-03    -50.1122E+06     4.87233E+06     35.6486E+06     743.624E+03    -289.110E-03     578.824E-03    -289.713E-03     31.0719E-03    -289.469E-03     578.919E-03    -289.470E-03     29.6945E-03
            1592     7.41149E-03     77.6615E-03    -57.1576E+06    -28.7738E+06     22.8768E+06     427.684E+03    -289.198E-03     578.941E-03    -289.744E-03     28.6463E-03    -289.509E-03     578.881E-03    -289.505E-03     27.9221E-03
            1593     6.73746E-03     77.6123E-03    -65.0258E+06    -64.3796E+06     8.44871E+06    -155.366E+03    -289.292E-03     579.059E-03    -289.767E-03     26.1375E-03    -289.559E-03     578.842E-03    -289.537E-03     25.9538E-03
            1594     6.06358E-03     77.5669E-03    -72.9804E+06    -93.7786E+06     -6.1015E+06    -200.074E+03    -289.359E-03     579.137E-03    -289.778E-03     23.5995E-03    -289.593E-03     578.796E-03    -289.567E-03     23.8526E-03
            1595     5.38972E-03     77.5256E-03    -80.6872E+06    -120.494E+06    -21.2281E+06    -158.549E+03    -289.398E-03     579.178E-03    -289.780E-03     21.0501E-03    -289.604E-03     578.732E-03    -289.594E-03     21.6255E-03
            1596     4.71587E-03     77.4883E-03    -88.2165E+06    -144.478E+06    -37.0849E+06    -137.035E+03    -289.424E-03     579.198E-03    -289.774E-03     18.4950E-03    -289.607E-03     578.662E-03    -289.622E-03     19.2782E-03
            1597     4.04202E-03     77.4557E-03    -95.4890E+06    -166.108E+06     -53.553E+06    -32.4695E+03    -289.457E-03     579.218E-03    -289.762E-03     15.9076E-03    -289.618E-03     578.606E-03    -289.650E-03     16.7988E-03
            1598     3.36830E-03     77.4274E-03    -102.271E+06    -187.039E+06    -70.0190E+06    -41.3672E+03    -289.506E-03     579.253E-03    -289.747E-03     13.3107E-03    -289.646E-03     578.569E-03    -289.678E-03     14.2121E-03
            1599     2.69456E-03     77.4042E-03    -108.400E+06    -205.832E+06    -85.7979E+06    -56.2284E+03    -289.568E-03     579.295E-03    -289.727E-03     10.7141E-03    -289.688E-03     578.548E-03    -289.701E-03     11.5413E-03
            1600     2.02090E-03     77.3857E-03    -113.606E+06    -222.089E+06    -99.7558E+06         152.475    -289.603E-03     579.310E-03    -289.707E-03     8.07786E-03    -289.705E-03     578.509E-03    -289.719E-03     8.76442E-03
            1601     1.34721E-03     77.3726E-03    -117.573E+06    -234.511E+06    -110.839E+06     72.6719E+03    -289.627E-03     579.322E-03    -289.695E-03     5.44209E-03    -289.714E-03     578.480E-03    -289.739E-03     5.94032E-03
            1602     673.593E-06     77.3642E-03    -120.001E+06    -242.262E+06    -118.314E+06    -23.7922E+03    -289.730E-03     579.362E-03    -289.632E-03     2.89408E-03    -289.807E-03     578.496E-03    -289.698E-03     3.17114E-03
            1603     12.8057E-03     76.4360E-03    -5.12785E+06     73.4387E+06     98.9878E+06     399.463E+03    -289.038E-03     578.694E-03    -289.657E-03     31.8102E-03    -289.472E-03     579.084E-03    -289.261E-03     26.0462E-03
            1604     12.1309E-03     76.3793E-03    -9.71693E+06     68.9965E+06     99.3887E+06     478.724E+03    -288.845E-03     578.532E-03    -289.687E-03     37.8371E-03    -289.339E-03     578.948E-03    -289.276E-03     31.5048E-03
            1605     11.4566E-03     76.3200E-03    -16.9472E+06     61.9855E+06     93.1654E+06    -158.987E+03    -288.846E-03     578.548E-03    -289.703E-03     38.1484E-03    -289.328E-03     578.921E-03    -289.302E-03     32.6987E-03
            1606     10.7823E-03     76.2594E-03    -24.5456E+06     55.5584E+06     82.3213E+06    -595.985E+03    -288.943E-03     578.641E-03    -289.698E-03     38.4675E-03    -289.419E-03     578.989E-03    -289.331E-03     33.7041E-03
            1607     10.1080E-03     76.1977E-03    -31.0556E+06     49.4904E+06     70.2435E+06    -326.910E+03    -289.026E-03     578.711E-03    -289.685E-03     37.5722E-03    -289.481E-03     579.028E-03    -289.360E-03     33.6621E-03
            1608     9.43393E-03     76.1373E-03    -37.1915E+06     43.0655E+06     58.0245E+06     73.6345E+03    -289.058E-03     578.729E-03    -289.672E-03     35.8189E-03    -289.487E-03     579.012E-03    -289.390E-03     32.7991E-03
            1609     8.75975E-03     76.0787E-03    -43.9248E+06     28.9640E+06     46.4116E+06     166.643E+03    -289.065E-03     578.741E-03    -289.676E-03     33.5637E-03    -289.465E-03     578.953E-03    -289.422E-03     31.4041E-03
            1610     8.08562E-03     76.0231E-03    -51.2299E+06     4.48383E+06     35.0077E+06     96.9497E+03    -289.091E-03     578.791E-03    -289.700E-03     31.1228E-03    -289.454E-03     578.887E-03    -289.457E-03     29.7326E-03
            1611     7.41152E-03     75.9703E-03    -58.4825E+06    -28.2774E+06     22.4136E+06     361.744E+03    -289.154E-03     578.885E-03    -289.731E-03     28.6633E-03    -289.472E-03     578.830E-03    -289.493E-03     27.9344E-03
            1612     6.73757E-03     75.9213E-03    -65.6636E+06    -63.8846E+06     8.22688E+06     606.371E+03    -289.235E-03     578.994E-03    -289.758E-03     26.1762E-03    -289.505E-03     578.780E-03    -289.530E-03     26.0053E-03
            1613     6.06357E-03     75.8758E-03    -73.0717E+06    -93.5302E+06    -6.19382E+06     401.698E+03    -289.301E-03     579.076E-03    -289.775E-03     23.6796E-03    -289.536E-03     578.737E-03    -289.564E-03     23.9478E-03
            1614     5.38967E-03     75.8344E-03    -80.6158E+06    -120.363E+06    -21.2333E+06     200.160E+03    -289.360E-03     579.143E-03    -289.783E-03     21.1351E-03    -289.566E-03     578.697E-03    -289.598E-03     21.7172E-03
            1615     4.71580E-03     75.7973E-03    -88.0982E+06    -144.644E+06    -37.0564E+06     206.393E+03    -289.411E-03     579.193E-03    -289.782E-03     18.5777E-03    -289.592E-03     578.656E-03    -289.630E-03     19.3699E-03
            1616     4.04204E-03     75.7645E-03    -95.2996E+06    -166.029E+06    -53.2865E+06     134.060E+03    -289.455E-03     579.229E-03    -289.774E-03     15.9905E-03    -289.616E-03     578.617E-03    -289.661E-03     16.8878E-03
            1617     3.36821E-03     75.7365E-03    -102.104E+06    -186.970E+06    -69.6634E+06     101.777E+03    -289.502E-03     579.265E-03    -289.763E-03     13.3824E-03    -289.642E-03     578.580E-03    -289.692E-03     14.2905E-03
            1618     2.69449E-03     75.7129E-03    -108.256E+06    -205.951E+06    -85.4382E+06     128.753E+03    -289.560E-03     579.309E-03    -289.749E-03     10.7554E-03    -289.679E-03     578.560E-03    -289.721E-03     11.5928E-03
            1619     2.02081E-03     75.6947E-03    -113.502E+06     -222.13E+06    -99.6430E+06     110.773E+03    -289.630E-03     579.361E-03    -289.731E-03     8.09184E-03    -289.731E-03     578.559E-03    -289.742E-03     8.78027E-03
            1620     1.34723E-03     75.6814E-03    -117.425E+06    -234.305E+06    -110.899E+06    -2.59898E+03    -289.670E-03     579.380E-03    -289.710E-03     5.45537E-03    -289.756E-03     578.539E-03    -289.755E-03     5.95351E-03
            1621     673.597E-06     75.6732E-03    -120.000E+06    -242.295E+06    -118.237E+06    -9.08788E+03    -289.711E-03     579.381E-03    -289.670E-03     2.97835E-03    -289.788E-03     578.515E-03    -289.736E-03     3.26960E-03
            1622     12.8044E-03     74.7452E-03    -5.86917E+06     72.7260E+06     97.3761E+06    -580.828E+03    -288.748E-03     578.396E-03    -289.648E-03     32.4880E-03    -289.184E-03     578.787E-03    -289.258E-03     26.7342E-03
            1623     12.1308E-03     74.6878E-03    -11.9942E+06     67.8376E+06     97.9241E+06     266.528E+03    -288.884E-03     578.573E-03    -289.689E-03     38.6877E-03    -289.386E-03     578.990E-03    -289.281E-03     32.4334E-03
            1624     11.4565E-03     74.6298E-03    -16.7151E+06     62.8720E+06     94.6182E+06     964.150E+03    -288.945E-03     578.655E-03    -289.710E-03     38.6671E-03    -289.430E-03     579.029E-03    -289.304E-03     33.2946E-03
            1625     10.7821E-03     74.5683E-03    -23.1255E+06     57.0881E+06     84.0005E+06     478.117E+03    -289.003E-03     578.703E-03    -289.700E-03     38.5405E-03    -289.477E-03     579.053E-03    -289.329E-03     33.8101E-03
            1626     10.1080E-03     74.5068E-03    -30.5320E+06     49.3122E+06     70.1201E+06    -334.512E+03    -289.050E-03     578.729E-03    -289.679E-03     37.4329E-03    -289.502E-03     579.044E-03    -289.355E-03     33.5151E-03
            1627     9.43383E-03     74.4460E-03    -37.5632E+06     41.9646E+06     57.1631E+06    -403.632E+03    -289.059E-03     578.722E-03    -289.663E-03     35.6974E-03    -289.488E-03     579.001E-03    -289.383E-03     32.6582E-03
            1628     8.75979E-03     74.3876E-03    -44.2421E+06     28.4842E+06     45.8796E+06    -40.9717E+03    -289.053E-03     578.720E-03    -289.667E-03     33.5382E-03    -289.453E-03     578.931E-03    -289.415E-03     31.3581E-03
            1629     8.08575E-03     74.3319E-03    -51.1722E+06     4.30368E+06     34.8047E+06     352.604E+03    -289.055E-03     578.749E-03    -289.694E-03     31.2167E-03    -289.418E-03     578.844E-03    -289.452E-03     29.8187E-03
            1630     7.41169E-03     74.2794E-03    -58.6299E+06    -28.7167E+06      22.058E+06     413.798E+03    -289.100E-03     578.830E-03    -289.729E-03     28.8395E-03    -289.418E-03     578.773E-03    -289.492E-03     28.1131E-03
            1631     6.73752E-03     74.2303E-03    -66.1183E+06    -63.7252E+06     7.80327E+06     339.803E+03    -289.184E-03     578.945E-03    -289.761E-03     26.3449E-03    -289.455E-03     578.733E-03    -289.534E-03     26.1794E-03
            1632     6.06354E-03     74.1848E-03    -73.3955E+06    -92.8977E+06    -6.50104E+06     303.719E+03    -289.254E-03     579.038E-03    -289.783E-03     23.7912E-03    -289.491E-03     578.703E-03    -289.575E-03     24.0677E-03
            1633     5.38957E-03     74.1434E-03    -80.6976E+06    -120.480E+06    -21.2302E+06     286.204E+03    -289.334E-03     579.134E-03    -289.800E-03     21.2182E-03    -289.540E-03     578.687E-03    -289.614E-03     21.8136E-03
            1634     4.71572E-03     74.1062E-03    -87.9902E+06    -144.516E+06    -36.7252E+06     265.246E+03    -289.413E-03     579.217E-03    -289.804E-03     18.6325E-03    -289.594E-03     578.679E-03    -289.651E-03     19.4330E-03
            1635     4.04184E-03     74.0735E-03    -95.1281E+06    -165.805E+06    -53.0896E+06     224.495E+03    -289.474E-03     579.271E-03    -289.797E-03     16.0178E-03    -289.635E-03     578.659E-03    -289.684E-03     16.9189E-03
            1636     3.36815E-03     74.0452E-03    -101.948E+06    -186.890E+06    -69.6960E+06     239.852E+03    -289.533E-03     579.317E-03    -289.784E-03     13.3752E-03    -289.671E-03     578.632E-03    -289.714E-03     14.2856E-03
            1637     2.69443E-03     74.0220E-03    -108.052E+06    -205.931E+06    -85.4391E+06     239.465E+03    -289.578E-03     579.348E-03    -289.770E-03     10.7406E-03    -289.696E-03     578.599E-03    -289.742E-03     11.5839E-03
            1638     2.02076E-03     74.0034E-03    -113.152E+06    -221.793E+06    -99.4512E+06     174.340E+03    -289.634E-03     579.391E-03    -289.757E-03     8.10688E-03    -289.734E-03     578.590E-03    -289.769E-03     8.80044E-03
            1639     1.34715E-03     73.9902E-03    -117.251E+06    -234.167E+06    -110.714E+06     85.4707E+03    -289.696E-03     579.439E-03    -289.742E-03     5.48332E-03    -289.782E-03     578.598E-03    -289.786E-03     5.97230E-03
            1640     673.592E-06     73.9820E-03    -119.569E+06    -242.149E+06    -117.923E+06     73.0222E+03    -289.687E-03     579.449E-03    -289.762E-03     2.96896E-03    -289.762E-03     578.583E-03    -289.827E-03     3.25569E-03
            1641     12.8047E-03     73.0539E-03    -5.52048E+06     73.2925E+06     97.8324E+06     730.837E+03    -288.746E-03     578.407E-03    -289.661E-03     32.2454E-03    -289.180E-03     578.798E-03    -289.270E-03     26.5485E-03
            1642     12.1299E-03     72.9970E-03    -11.6085E+06     68.5684E+06     97.9582E+06    -923.866E+03    -288.993E-03     578.690E-03    -289.697E-03     38.0012E-03    -289.494E-03     579.109E-03    -289.290E-03     31.6788E-03
            1643     11.4560E-03     72.9378E-03    -17.9510E+06     61.7632E+06     93.3889E+06    -1.43957E+06    -289.131E-03     578.838E-03    -289.707E-03     38.1134E-03    -289.619E-03     579.211E-03    -289.304E-03     32.6214E-03
            1644     10.7824E-03     72.8772E-03    -23.5003E+06     56.5910E+06     84.1723E+06    -432.482E+03    -289.089E-03     578.781E-03    -289.692E-03     38.2567E-03    -289.565E-03     579.131E-03    -289.319E-03     33.4454E-03
            1645     10.1082E-03     72.8155E-03    -29.7699E+06     49.6678E+06        70.8E+06     641.825E+03    -288.997E-03     578.666E-03    -289.668E-03     37.3708E-03    -289.448E-03     578.981E-03    -289.343E-03     33.4419E-03
            1646     9.43418E-03     72.7552E-03    -36.9229E+06     42.0744E+06     57.0254E+06     733.445E+03    -288.939E-03     578.594E-03    -289.655E-03     35.7851E-03    -289.365E-03     578.873E-03    -289.377E-03     32.7661E-03
            1647     8.75989E-03     72.6966E-03    -44.4359E+06     28.1467E+06     45.3200E+06     371.974E+03    -288.929E-03     578.598E-03    -289.669E-03     33.7437E-03    -289.329E-03     578.809E-03    -289.418E-03     31.5838E-03
            1648     8.08563E-03     72.6411E-03    -51.8556E+06     3.66036E+06     34.2199E+06     300.106E+03    -288.986E-03     578.690E-03    -289.705E-03     31.4460E-03    -289.350E-03     578.784E-03    -289.464E-03     30.0610E-03
            1649     7.41136E-03     72.5885E-03    -58.8043E+06    -28.6109E+06     22.0408E+06     404.676E+03    -289.090E-03     578.836E-03    -289.746E-03     29.0100E-03    -289.409E-03     578.780E-03    -289.509E-03     28.2980E-03
            1650     6.73739E-03     72.5393E-03    -65.9913E+06    -63.1357E+06     8.05107E+06     253.609E+03    -289.191E-03     578.971E-03    -289.780E-03     26.4526E-03    -289.463E-03     578.761E-03    -289.553E-03     26.2930E-03
            1651     6.06337E-03     72.4938E-03    -73.6085E+06    -92.8893E+06    -6.51364E+06     202.690E+03    -289.266E-03     579.070E-03    -289.804E-03     23.8646E-03    -289.503E-03     578.735E-03    -289.595E-03     24.1428E-03
            1652     5.38944E-03     72.4524E-03    -81.1665E+06    -120.295E+06    -21.6987E+06     194.278E+03    -289.351E-03     579.170E-03    -289.819E-03     21.2566E-03    -289.558E-03     578.725E-03    -289.635E-03     21.8580E-03
            1653     4.71555E-03     72.4150E-03    -88.4806E+06    -144.416E+06    -37.4048E+06     61.1988E+03    -289.432E-03     579.255E-03    -289.823E-03     18.6256E-03    -289.615E-03     578.720E-03    -289.672E-03     19.4246E-03
            1654     4.04184E-03     72.3822E-03      -95.57E+06    -166.009E+06    -53.6526E+06     171.361E+03    -289.495E-03     579.311E-03    -289.816E-03     16.0054E-03    -289.656E-03     578.700E-03    -289.705E-03     16.9040E-03
            1655     3.36807E-03     72.3540E-03    -102.211E+06    -186.883E+06     -70.019E+06     273.199E+03    -289.556E-03     579.360E-03    -289.804E-03     13.3858E-03    -289.696E-03     578.677E-03    -289.735E-03     14.2964E-03
            1656     2.69440E-03     72.3307E-03    -108.194E+06    -205.681E+06    -85.6363E+06     263.782E+03    -289.609E-03     579.397E-03    -289.788E-03     10.7480E-03    -289.728E-03     578.650E-03    -289.761E-03     11.5833E-03
            1657     2.02074E-03     72.3123E-03    -113.335E+06    -221.496E+06    -99.5970E+06     219.139E+03    -289.639E-03     579.415E-03    -289.776E-03     8.10624E-03    -289.740E-03     578.616E-03    -289.789E-03     8.80005E-03
            1658     1.34708E-03     72.2988E-03    -117.252E+06    -233.864E+06    -110.710E+06     159.101E+03    -289.690E-03     579.464E-03    -289.774E-03     5.47828E-03    -289.777E-03     578.625E-03    -289.818E-03     5.97466E-03
            1659     673.530E-06     72.2907E-03    -119.660E+06    -241.826E+06    -117.987E+06     16.6759E+03    -289.813E-03     579.530E-03    -289.718E-03     2.93406E-03    -289.889E-03     578.666E-03    -289.783E-03     3.21031E-03
            1660     12.8046E-03     71.3632E-03    -5.15869E+06     73.4536E+06     98.8389E+06     176.084E+03    -289.095E-03     578.744E-03    -289.649E-03     31.7255E-03    -289.528E-03     579.133E-03    -289.254E-03     25.9692E-03
            1661     12.1313E-03     71.3052E-03    -9.31229E+06     70.2902E+06     99.9445E+06     146.166E+03    -288.992E-03     578.666E-03    -289.674E-03     37.7100E-03    -289.486E-03     579.087E-03    -289.263E-03     31.3547E-03
            1662     11.4571E-03     71.2466E-03    -16.3278E+06     62.3638E+06     93.3489E+06    -386.651E+03    -288.847E-03     578.531E-03    -289.684E-03     38.1066E-03    -289.328E-03     578.905E-03    -289.284E-03     32.6208E-03
            1663     10.7825E-03     71.1859E-03    -24.6138E+06     54.0034E+06     81.3226E+06    -764.178E+03    -288.834E-03     578.514E-03    -289.680E-03     38.6023E-03    -289.309E-03     578.857E-03    -289.316E-03     33.8026E-03
            1664     10.1083E-03     71.1248E-03    -31.3143E+06     47.7400E+06     69.1612E+06    -51.4580E+03    -288.871E-03     578.546E-03    -289.675E-03     37.8633E-03    -289.324E-03     578.856E-03    -289.353E-03     33.9575E-03
            1665     9.43385E-03     71.0644E-03    -37.3584E+06     41.8749E+06     57.1329E+06     729.336E+03    -288.895E-03     578.568E-03    -289.673E-03     36.1634E-03    -289.323E-03     578.846E-03    -289.394E-03     33.1733E-03
            1666     8.75953E-03     71.0060E-03    -43.7091E+06     28.6975E+06     45.9059E+06     1.03108E+06    -288.931E-03     578.622E-03    -289.690E-03     33.8894E-03    -289.329E-03     578.833E-03    -289.439E-03     31.7592E-03
            1667     8.08530E-03     70.9503E-03    -50.7863E+06     4.23989E+06     34.7222E+06     820.790E+03    -289.016E-03     578.742E-03    -289.726E-03     31.4334E-03    -289.376E-03     578.837E-03    -289.485E-03     30.0696E-03
            1668     7.41132E-03     70.8975E-03    -58.4124E+06    -28.2324E+06     22.1092E+06     385.229E+03    -289.118E-03     578.884E-03    -289.766E-03     28.9574E-03    -289.435E-03     578.829E-03    -289.530E-03     28.2444E-03
            1669     6.73719E-03     70.8483E-03    -65.9426E+06    -63.0214E+06     7.94301E+06     327.898E+03    -289.217E-03     579.017E-03    -289.800E-03     26.4125E-03    -289.489E-03     578.808E-03    -289.573E-03     26.2476E-03
            1670     6.06325E-03     70.8028E-03    -73.3055E+06    -92.7394E+06    -6.46865E+06     343.039E+03    -289.310E-03     579.132E-03    -289.822E-03     23.8273E-03    -289.546E-03     578.798E-03    -289.614E-03     24.1010E-03
            1671     5.38934E-03     70.7612E-03    -80.6972E+06    -119.989E+06    -21.5155E+06     253.974E+03    -289.384E-03     579.219E-03    -289.835E-03     21.2290E-03    -289.590E-03     578.775E-03    -289.652E-03     21.8226E-03
            1672     4.71557E-03     70.7238E-03    -88.1219E+06    -144.488E+06    -37.3557E+06     280.866E+03    -289.442E-03     579.281E-03    -289.839E-03     18.6247E-03    -289.623E-03     578.745E-03    -289.688E-03     19.4218E-03
            1673     4.04170E-03     70.6910E-03    -95.4455E+06    -166.129E+06    -53.7065E+06     273.112E+03    -289.502E-03     579.336E-03    -289.833E-03     16.0100E-03    -289.663E-03     578.724E-03    -289.723E-03     16.9061E-03
            1674     3.36800E-03     70.6628E-03    -102.255E+06    -186.876E+06    -69.9456E+06     275.102E+03    -289.573E-03     579.396E-03    -289.823E-03     13.3915E-03    -289.713E-03     578.712E-03    -289.753E-03     14.2967E-03
            1675     2.69432E-03     70.6393E-03    -108.325E+06    -205.400E+06    -85.5800E+06     229.879E+03    -289.638E-03     579.444E-03    -289.805E-03     10.7335E-03    -289.758E-03     578.698E-03    -289.778E-03     11.5595E-03
            1676     2.02071E-03     70.6210E-03    -113.372E+06    -221.215E+06    -99.5586E+06     159.874E+03    -289.679E-03     579.465E-03    -289.786E-03     8.07889E-03    -289.781E-03     578.667E-03    -289.798E-03     8.76465E-03
            1677     1.34712E-03     70.6076E-03    -117.182E+06    -233.455E+06    -110.636E+06     140.775E+03    -289.705E-03     579.479E-03    -289.775E-03     5.45168E-03    -289.791E-03     578.642E-03    -289.819E-03     5.95333E-03
            1678     673.502E-06     70.5992E-03    -120.033E+06    -241.715E+06    -118.127E+06     106.225E+03    -289.838E-03     579.524E-03    -289.685E-03     2.97115E-03    -289.916E-03     578.660E-03    -289.752E-03     3.25667E-03
            1679     12.8055E-03     69.6704E-03    -4.57878E+06     73.6384E+06     98.4117E+06    -961.166E+03    -288.777E-03     578.402E-03    -289.626E-03     32.0501E-03    -289.209E-03     578.794E-03    -289.234E-03     26.2549E-03
            1680     12.1311E-03     69.6144E-03    -11.2385E+06     68.5762E+06     98.0486E+06    -151.065E+03    -288.645E-03     578.312E-03    -289.668E-03     38.5182E-03    -289.146E-03     578.733E-03    -289.261E-03     32.2002E-03
            1681     11.4564E-03     69.5563E-03    -17.1849E+06     61.8558E+06     93.0989E+06     1.09297E+06    -288.649E-03     578.349E-03    -289.700E-03     38.8991E-03    -289.134E-03     578.722E-03    -289.299E-03     33.5133E-03
            1682     10.7821E-03     69.4955E-03    -23.2566E+06     54.9447E+06     82.3933E+06     1.20819E+06    -288.763E-03     578.470E-03    -289.707E-03     38.9269E-03    -289.233E-03     578.813E-03    -289.341E-03     34.2161E-03
            1683     10.1075E-03     69.4340E-03    -30.6239E+06     47.9747E+06     69.1298E+06     180.240E+03    -288.907E-03     578.610E-03    -289.702E-03     37.8389E-03    -289.357E-03     578.920E-03    -289.382E-03     33.9511E-03
            1684     9.43347E-03     69.3734E-03    -37.8424E+06     40.8937E+06     56.3950E+06    -281.589E+03    -288.996E-03     578.694E-03    -289.698E-03     36.0082E-03    -289.424E-03     578.969E-03    -289.420E-03     32.9875E-03
            1685     8.75941E-03     69.3150E-03    -44.5198E+06     27.5791E+06     45.3691E+06     282.734E+03    -289.038E-03     578.748E-03    -289.710E-03     33.7523E-03    -289.437E-03     578.955E-03    -289.459E-03     31.5942E-03
            1686     8.08535E-03     69.2592E-03    -51.1270E+06     4.92068E+06     34.9034E+06     833.618E+03    -289.066E-03     578.807E-03    -289.741E-03     31.3511E-03    -289.430E-03     578.905E-03    -289.499E-03     29.9767E-03
            1687     7.41113E-03     69.2065E-03    -58.1984E+06    -27.4564E+06     22.2802E+06     841.412E+03    -289.134E-03     578.912E-03    -289.778E-03     28.8959E-03    -289.451E-03     578.860E-03    -289.542E-03     28.1804E-03
            1688     6.73715E-03     69.1572E-03    -65.6663E+06    -62.9240E+06     7.86496E+06     631.043E+03    -289.242E-03     579.053E-03    -289.810E-03     26.3627E-03    -289.513E-03     578.844E-03    -289.584E-03     26.1976E-03
            1689     6.06320E-03     69.1115E-03    -73.1426E+06    -92.2884E+06    -6.48667E+06     405.928E+03    -289.326E-03     579.157E-03    -289.831E-03     23.7995E-03    -289.562E-03     578.825E-03    -289.624E-03     24.0669E-03
            1690     5.38934E-03     69.0700E-03    -80.5484E+06    -120.057E+06    -21.2879E+06     348.634E+03    -289.388E-03     579.234E-03    -289.846E-03     21.2263E-03    -289.594E-03     578.790E-03    -289.662E-03     21.8071E-03
            1691     4.71542E-03     69.0326E-03    -87.9516E+06    -144.595E+06    -36.9158E+06     485.563E+03    -289.446E-03     579.297E-03    -289.851E-03     18.6219E-03    -289.627E-03     578.760E-03    -289.699E-03     19.4101E-03
            1692     4.04170E-03     68.9997E-03    -95.0620E+06    -165.748E+06    -53.1222E+06     509.769E+03    -289.513E-03     579.359E-03    -289.846E-03     15.9955E-03    -289.673E-03     578.748E-03    -289.734E-03     16.8894E-03
            1693     3.36797E-03     68.9714E-03    -101.764E+06    -186.477E+06    -69.4885E+06     328.067E+03    -289.584E-03     579.420E-03    -289.835E-03     13.3838E-03    -289.723E-03     578.737E-03    -289.765E-03     14.2820E-03
            1694     2.69432E-03     68.9480E-03    -107.849E+06    -205.051E+06    -85.2023E+06     133.072E+03    -289.648E-03     579.466E-03    -289.818E-03     10.7410E-03    -289.766E-03     578.721E-03    -289.790E-03     11.5612E-03
            1695     2.02070E-03     68.9296E-03    -112.995E+06    -221.126E+06    -99.0876E+06     57.6325E+03    -289.714E-03     579.510E-03    -289.796E-03     8.10091E-03    -289.815E-03     578.712E-03    -289.807E-03     8.77875E-03
            1696     1.34714E-03     68.9163E-03    -117.010E+06    -233.383E+06    -110.281E+06     126.024E+03    -289.754E-03     579.519E-03    -289.765E-03     5.47352E-03    -289.840E-03     578.681E-03    -289.808E-03     5.96627E-03
            1697     673.615E-06     68.9079E-03    -119.495E+06    -241.274E+06    -117.614E+06     127.087E+03    -289.715E-03     579.474E-03    -289.759E-03     2.98001E-03    -289.792E-03     578.611E-03    -289.824E-03     3.26713E-03
            1698     12.8051E-03     67.9813E-03    -4.92120E+06     73.2276E+06     97.5824E+06    -6.08260E+03    -288.432E-03     578.078E-03    -289.647E-03     32.8397E-03    -288.864E-03     578.470E-03    -289.258E-03     27.1062E-03
            1699     12.1301E-03     67.9240E-03    -11.3396E+06     68.0310E+06     97.3729E+06     281.187E+03    -288.625E-03     578.327E-03    -289.701E-03     38.6777E-03    -289.123E-03     578.744E-03    -289.297E-03     32.4244E-03
            1700     11.4559E-03     67.8654E-03    -18.0396E+06     61.1598E+06     92.6052E+06    -196.592E+03    -288.840E-03     578.573E-03    -289.732E-03     38.5681E-03    -289.327E-03     578.944E-03    -289.332E-03     33.1344E-03
            1701     10.7817E-03     67.8046E-03    -24.3074E+06     55.0800E+06     82.9058E+06     296.483E+03    -288.968E-03     578.700E-03    -289.732E-03     38.5643E-03    -289.443E-03     579.044E-03    -289.362E-03     33.8228E-03
            1702     10.1078E-03     67.7428E-03    -30.2133E+06     49.0704E+06     70.2745E+06     840.043E+03    -289.020E-03     578.737E-03    -289.717E-03     37.5004E-03    -289.470E-03     579.051E-03    -289.393E-03     33.5925E-03
            1703     9.43354E-03     67.6824E-03    -37.1291E+06     41.1858E+06     56.8044E+06     817.816E+03    -289.010E-03     578.716E-03    -289.705E-03     35.7899E-03    -289.436E-03     578.991E-03    -289.427E-03     32.7591E-03
            1704     8.75934E-03     67.6237E-03    -44.4582E+06     27.2944E+06     45.1608E+06     400.485E+03    -289.029E-03     578.745E-03    -289.717E-03     33.6930E-03    -289.428E-03     578.952E-03    -289.466E-03     31.5232E-03
            1705     8.08518E-03     67.5682E-03    -51.7099E+06     4.45396E+06     34.3722E+06     177.492E+03    -289.084E-03     578.831E-03    -289.747E-03     31.3529E-03    -289.449E-03     578.929E-03    -289.507E-03     29.9513E-03
            1706     7.41119E-03     67.5154E-03    -58.8097E+06    -27.5021E+06     22.1036E+06     364.910E+03    -289.166E-03     578.949E-03    -289.783E-03     28.8947E-03    -289.486E-03     578.899E-03    -289.548E-03     28.1638E-03
            1707     6.73713E-03     67.4660E-03    -65.8282E+06    -62.2859E+06     8.08635E+06     443.752E+03    -289.252E-03     579.066E-03    -289.814E-03     26.3576E-03    -289.525E-03     578.861E-03    -289.588E-03     26.1828E-03
            1708     6.06318E-03     67.4204E-03    -73.1018E+06    -92.0809E+06    -6.33849E+06     409.027E+03    -289.311E-03     579.147E-03    -289.836E-03     23.7970E-03    -289.548E-03     578.816E-03    -289.628E-03     24.0540E-03
            1709     5.38924E-03     67.3788E-03    -80.5005E+06    -120.053E+06    -21.1097E+06     409.984E+03    -289.372E-03     579.225E-03    -289.854E-03     21.2300E-03    -289.578E-03     578.781E-03    -289.668E-03     21.8030E-03
            1710     4.71549E-03     67.3413E-03    -87.8315E+06    -144.613E+06    -36.5517E+06     393.736E+03    -289.439E-03     579.301E-03    -289.862E-03     18.6700E-03    -289.620E-03     578.763E-03    -289.708E-03     19.4544E-03
            1711     4.04165E-03     67.3084E-03    -94.9083E+06    -165.394E+06    -52.8233E+06     357.060E+03    -289.511E-03     579.370E-03    -289.859E-03     16.0830E-03    -289.671E-03     578.759E-03    -289.746E-03     16.9760E-03
            1712     3.36795E-03     67.2800E-03    -101.550E+06    -185.945E+06    -69.2746E+06     243.142E+03    -289.582E-03     579.432E-03    -289.850E-03     13.4646E-03    -289.720E-03     578.751E-03    -289.780E-03     14.3618E-03
            1713     2.69426E-03     67.2566E-03    -107.603E+06    -204.824E+06    -85.0319E+06     217.340E+03    -289.651E-03     579.488E-03    -289.837E-03     10.8190E-03    -289.769E-03     578.744E-03    -289.809E-03     11.6420E-03
            1714     2.02065E-03     67.2381E-03    -112.793E+06    -220.982E+06    -99.0830E+06     200.408E+03    -289.724E-03     579.543E-03    -289.819E-03     8.16665E-03    -289.824E-03     578.745E-03    -289.830E-03     8.85124E-03
            1715     1.34711E-03     67.2247E-03    -116.713E+06    -233.181E+06    -110.234E+06     42.8459E+03    -289.765E-03     579.561E-03    -289.796E-03     5.53906E-03    -289.850E-03     578.724E-03    -289.840E-03     6.02607E-03
            1716     673.577E-06     67.2166E-03    -119.084E+06    -241.054E+06    -117.518E+06    -8.83729E+03    -289.761E-03     579.548E-03    -289.787E-03     3.00111E-03    -289.837E-03     578.686E-03    -289.853E-03     3.26118E-03
            1717     12.8035E-03     66.2902E-03    -4.97290E+06     73.2870E+06     98.1423E+06     161.172E+03    -288.696E-03     578.372E-03    -289.676E-03     32.1135E-03    -289.128E-03     578.761E-03    -289.284E-03     26.3709E-03
            1718     12.1302E-03     66.2327E-03    -11.0285E+06     67.8372E+06     97.9441E+06     201.797E+03    -288.907E-03     578.622E-03    -289.716E-03     37.9149E-03    -289.403E-03     579.036E-03    -289.308E-03     31.6080E-03
            1719     11.4560E-03     66.1744E-03    -17.4198E+06     61.3777E+06     92.6741E+06     423.423E+03    -288.947E-03     578.678E-03    -289.731E-03     38.0997E-03    -289.431E-03     579.050E-03    -289.332E-03     32.6427E-03
            1720     10.7820E-03     66.1132E-03    -24.2132E+06     54.9210E+06     82.2074E+06    -36.0143E+03    -288.971E-03     578.696E-03    -289.725E-03     38.3542E-03    -289.445E-03     579.040E-03    -289.358E-03     33.5748E-03
            1721     10.1077E-03     66.0517E-03    -31.0640E+06     47.5146E+06     69.4059E+06    -109.446E+03    -288.962E-03     578.676E-03    -289.714E-03     37.5278E-03    -289.414E-03     578.985E-03    -289.390E-03     33.5924E-03
            1722     9.43355E-03     65.9914E-03    -37.1079E+06     40.9380E+06     57.2110E+06     513.582E+03    -288.986E-03     578.694E-03    -289.708E-03     35.8655E-03    -289.411E-03     578.967E-03    -289.427E-03     32.8284E-03
            1723     8.75933E-03     65.9328E-03    -43.3744E+06     28.2528E+06     46.1741E+06     787.418E+03    -289.017E-03     578.737E-03    -289.720E-03     33.6759E-03    -289.413E-03     578.946E-03    -289.467E-03     31.5060E-03
            1724     8.08520E-03     65.8769E-03    -50.4396E+06     4.91956E+06     35.1471E+06     583.199E+03    -289.076E-03     578.827E-03    -289.751E-03     31.3137E-03    -289.437E-03     578.924E-03    -289.509E-03     29.9100E-03
            1725     7.41110E-03     65.8242E-03    -57.9284E+06    -27.4556E+06     22.6042E+06     266.352E+03    -289.157E-03     578.945E-03    -289.788E-03     28.9275E-03    -289.474E-03     578.894E-03    -289.552E-03     28.1828E-03
            1726     6.73714E-03     65.7748E-03    -65.5396E+06    -62.4199E+06     8.38817E+06     279.740E+03    -289.229E-03     579.051E-03    -289.822E-03     26.4554E-03    -289.501E-03     578.844E-03    -289.594E-03     26.2713E-03
            1727     6.06317E-03     65.7292E-03    -73.0458E+06    -92.1131E+06    -6.09220E+06     447.762E+03    -289.292E-03     579.139E-03    -289.847E-03     23.9260E-03    -289.529E-03     578.807E-03    -289.638E-03     24.1835E-03
            1728     5.38929E-03     65.6876E-03    -80.5221E+06    -119.691E+06    -21.1969E+06     399.176E+03    -289.364E-03     579.230E-03    -289.866E-03     21.3571E-03    -289.571E-03     578.787E-03    -289.681E-03     21.9356E-03
            1729     4.71531E-03     65.6501E-03    -87.8460E+06    -144.387E+06    -36.8091E+06     235.369E+03    -289.438E-03     579.315E-03    -289.876E-03     18.7669E-03    -289.619E-03     578.778E-03    -289.724E-03     19.5537E-03
            1730     4.04156E-03     65.6170E-03    -94.9729E+06    -165.322E+06    -53.0617E+06     201.480E+03    -289.508E-03     579.384E-03    -289.877E-03     16.1468E-03    -289.668E-03     578.775E-03    -289.765E-03     17.0371E-03
            1731     3.36781E-03     65.5887E-03    -101.720E+06    -185.719E+06    -69.4795E+06     232.282E+03    -289.581E-03     579.453E-03    -289.872E-03     13.4995E-03    -289.720E-03     578.773E-03    -289.803E-03     14.3954E-03
            1732     2.69417E-03     65.5651E-03    -107.756E+06    -204.811E+06    -85.1324E+06     268.494E+03    -289.655E-03     579.520E-03    -289.865E-03     10.8585E-03    -289.773E-03     578.776E-03    -289.838E-03     11.6838E-03
            1733     2.02058E-03     65.5466E-03    -112.845E+06    -220.501E+06    -99.2057E+06     267.540E+03    -289.716E-03     579.573E-03    -289.857E-03     8.20680E-03    -289.816E-03     578.778E-03    -289.870E-03     8.89525E-03
            1734     1.34699E-03     65.5333E-03    -116.702E+06    -232.812E+06    -110.281E+06     114.467E+03    -289.771E-03     579.627E-03    -289.857E-03     5.54723E-03    -289.857E-03     578.792E-03    -289.901E-03     6.03725E-03
            1735     673.405E-06     65.5251E-03    -119.363E+06    -241.058E+06    -117.512E+06     47.1454E+03    -289.946E-03     579.699E-03    -289.753E-03     2.99394E-03    -290.022E-03     578.837E-03    -289.818E-03     3.25700E-03
            1736     12.8054E-03     64.5984E-03    -5.14759E+06     72.9070E+06     98.2147E+06     360.123E+03    -288.917E-03     578.583E-03    -289.665E-03     31.8107E-03    -289.349E-03     578.970E-03    -289.273E-03     26.0550E-03
            1737     12.1306E-03     64.5419E-03    -10.7140E+06     67.8023E+06     98.2231E+06     326.251E+03    -288.834E-03     578.534E-03    -289.701E-03     37.9236E-03    -289.329E-03     578.948E-03    -289.292E-03     31.6017E-03
            1738     11.4564E-03     64.4830E-03    -17.3113E+06     61.6491E+06     93.0227E+06     256.731E+03    -288.838E-03     578.559E-03    -289.721E-03     38.2757E-03    -289.322E-03     578.930E-03    -289.320E-03     32.8411E-03
            1739     10.7820E-03     64.4224E-03    -23.4207E+06     55.4721E+06     82.7687E+06     256.160E+03    -288.864E-03     578.585E-03    -289.721E-03     38.5131E-03    -289.336E-03     578.931E-03    -289.353E-03     33.7387E-03
            1740     10.1078E-03     64.3610E-03    -30.0785E+06     47.8744E+06     69.7000E+06    -3.55624E+03    -288.918E-03     578.631E-03    -289.713E-03     37.5880E-03    -289.365E-03     578.940E-03    -289.391E-03     33.6589E-03
            1741     9.43344E-03     64.3002E-03    -37.1961E+06     40.1770E+06     56.8184E+06    -346.009E+03    -288.973E-03     578.682E-03    -289.710E-03     35.8987E-03    -289.397E-03     578.953E-03    -289.430E-03     32.8541E-03
            1742     8.75938E-03     64.2417E-03    -44.0607E+06     27.1654E+06     45.7121E+06     149.525E+03    -289.006E-03     578.730E-03    -289.724E-03     33.7770E-03    -289.404E-03     578.936E-03    -289.471E-03     31.5971E-03
            1743     8.08523E-03     64.1859E-03    -50.8821E+06     5.27192E+06     35.0407E+06     668.421E+03    -289.023E-03     578.780E-03    -289.757E-03     31.4705E-03    -289.386E-03     578.880E-03    -289.516E-03     30.0739E-03
            1744     7.41111E-03     64.1331E-03    -58.1902E+06    -27.0811E+06     22.4195E+06     788.266E+03    -289.093E-03     578.894E-03    -289.800E-03     29.0901E-03    -289.412E-03     578.845E-03    -289.565E-03     28.3613E-03
            1745     6.73698E-03     64.0837E-03    -65.6827E+06    -62.4225E+06     8.15473E+06     712.301E+03    -289.205E-03     579.045E-03    -289.840E-03     26.5989E-03    -289.477E-03     578.838E-03    -289.613E-03     26.4237E-03
            1746     6.06296E-03     64.0380E-03    -73.1063E+06    -91.8475E+06    -6.22054E+06     476.777E+03    -289.303E-03     579.171E-03    -289.868E-03     24.0366E-03    -289.541E-03     578.841E-03    -289.660E-03     24.2980E-03
            1747     5.38900E-03     63.9963E-03    -80.4263E+06    -119.344E+06    -21.1558E+06     327.758E+03    -289.406E-03     579.293E-03    -289.887E-03     21.4145E-03    -289.613E-03     578.852E-03    -289.703E-03     21.9899E-03
            1748     4.71530E-03     63.9588E-03    -87.8094E+06    -143.993E+06    -36.8791E+06     301.844E+03    -289.479E-03     579.373E-03    -289.894E-03     18.7760E-03    -289.661E-03     578.839E-03    -289.743E-03     19.5529E-03
            1749     4.04149E-03     63.9257E-03    -95.0147E+06    -165.180E+06    -53.1280E+06     220.995E+03    -289.524E-03     579.417E-03    -289.893E-03     16.1442E-03    -289.685E-03     578.809E-03    -289.782E-03     17.0264E-03
            1750     3.36778E-03     63.8972E-03    -101.704E+06    -185.746E+06    -69.4340E+06     198.634E+03    -289.588E-03     579.479E-03    -289.891E-03     13.4955E-03    -289.728E-03     578.800E-03    -289.821E-03     14.3861E-03
            1751     2.69411E-03     63.8736E-03    -107.723E+06    -204.706E+06    -84.9872E+06     192.636E+03    -289.663E-03     579.550E-03    -289.887E-03     10.8383E-03    -289.782E-03     578.806E-03    -289.859E-03     11.6572E-03
            1752     2.02047E-03     63.8551E-03    -112.789E+06    -220.174E+06    -98.9154E+06     126.386E+03    -289.730E-03     579.612E-03    -289.882E-03     8.15028E-03    -289.832E-03     578.818E-03    -289.894E-03     8.82779E-03
            1753     1.34692E-03     63.8416E-03    -116.763E+06    -232.445E+06    -110.124E+06     110.896E+03    -289.806E-03     579.684E-03    -289.878E-03     5.48080E-03    -289.893E-03     578.851E-03    -289.922E-03     5.97058E-03
            1754     673.522E-06     63.8332E-03    -119.394E+06    -240.805E+06    -117.487E+06     100.381E+03    -289.975E-03     579.732E-03    -289.757E-03     2.96660E-03    -290.052E-03     578.872E-03    -289.823E-03     3.24345E-03
            1755     12.8042E-03     62.9078E-03    -5.67413E+06     71.7330E+06     96.9485E+06    -79.5722E+03    -288.748E-03     578.407E-03    -289.659E-03     32.2845E-03    -289.179E-03     578.791E-03    -289.270E-03     26.5484E-03
            1756     12.1305E-03     62.8506E-03    -10.4393E+06     68.2674E+06     98.4342E+06     481.484E+03    -288.818E-03     578.522E-03    -289.703E-03     38.3714E-03    -289.314E-03     578.937E-03    -289.295E-03     32.0945E-03
            1757     11.4562E-03     62.7925E-03    -16.1939E+06     62.4423E+06     94.1651E+06     318.778E+03    -288.817E-03     578.546E-03    -289.729E-03     38.4907E-03    -289.299E-03     578.919E-03    -289.325E-03     33.0552E-03
            1758     10.7818E-03     62.7315E-03    -23.3968E+06      55.072E+06     83.1158E+06     235.413E+03    -288.867E-03     578.596E-03    -289.729E-03     38.6165E-03    -289.339E-03     578.939E-03    -289.360E-03     33.8619E-03
            1759     10.1077E-03     62.6699E-03    -30.1918E+06     48.3477E+06     69.9144E+06     494.606E+03    -288.924E-03     578.645E-03    -289.720E-03     37.6877E-03    -289.374E-03     578.956E-03    -289.397E-03     33.7714E-03
            1760     9.43354E-03     62.6094E-03    -37.1412E+06     40.2423E+06     56.5159E+06     777.441E+03    -288.915E-03     578.632E-03    -289.717E-03     36.0497E-03    -289.339E-03     578.903E-03    -289.439E-03     33.0287E-03
            1761     8.75918E-03     62.5506E-03    -44.4331E+06     26.5456E+06     44.8882E+06     564.120E+03    -288.933E-03     578.670E-03    -289.737E-03     33.9579E-03    -289.330E-03     578.874E-03    -289.486E-03     31.7960E-03
            1762     8.08498E-03     62.4950E-03    -51.7413E+06     4.86858E+06     34.3317E+06     452.653E+03    -289.002E-03     578.778E-03    -289.777E-03     31.6213E-03    -289.368E-03     578.879E-03    -289.537E-03     30.2229E-03
            1763     7.41077E-03     62.4421E-03    -58.8812E+06    -26.9588E+06     22.1184E+06     573.009E+03    -289.107E-03     578.930E-03    -289.823E-03     29.1707E-03    -289.429E-03     578.883E-03    -289.588E-03     28.4413E-03
            1764     6.73676E-03     62.3926E-03    -65.9126E+06    -61.7903E+06     8.20412E+06     409.375E+03    -289.242E-03     579.105E-03    -289.862E-03     26.6019E-03    -289.517E-03     578.902E-03    -289.636E-03     26.4175E-03
            1765     6.06283E-03     62.3468E-03    -73.0969E+06    -91.2894E+06    -6.09624E+06     217.888E+03    -289.355E-03     579.243E-03    -289.888E-03     23.9949E-03    -289.594E-03     578.915E-03    -289.680E-03     24.2393E-03
            1766     5.38905E-03     62.3049E-03    -80.4605E+06    -119.491E+06    -20.9805E+06     220.552E+03    -289.437E-03     579.342E-03    -289.905E-03     21.3942E-03    -289.644E-03     578.900E-03    -289.720E-03     21.9521E-03
            1767     4.71517E-03     62.2673E-03    -87.6991E+06    -143.898E+06    -36.5177E+06     283.408E+03    -289.508E-03     579.418E-03    -289.911E-03     18.7919E-03    -289.689E-03     578.884E-03    -289.758E-03     19.5523E-03
            1768     4.04146E-03     62.2343E-03    -94.7918E+06    -164.726E+06    -52.7674E+06     249.378E+03    -289.568E-03     579.473E-03    -289.906E-03     16.1540E-03    -289.729E-03     578.866E-03    -289.793E-03     17.0209E-03
            1769     3.36773E-03     62.2057E-03    -101.565E+06    -185.686E+06    -69.1239E+06     172.085E+03    -289.624E-03     579.522E-03    -289.898E-03     13.4817E-03    -289.763E-03     578.842E-03    -289.827E-03     14.3593E-03
            1770     2.69409E-03     62.1821E-03    -107.711E+06    -204.383E+06    -84.9048E+06     102.389E+03    -289.691E-03     579.576E-03    -289.886E-03     10.8006E-03    -289.810E-03     578.834E-03    -289.858E-03     11.6083E-03
            1771     2.02056E-03     62.1634E-03    -112.969E+06    -220.094E+06    -99.0704E+06     34.1230E+03    -289.760E-03     579.629E-03    -289.869E-03     8.11687E-03    -289.862E-03     578.836E-03    -289.882E-03     8.78585E-03
            1772     1.34705E-03     62.1499E-03    -116.856E+06    -232.326E+06    -110.247E+06     68.2097E+03    -289.803E-03     579.656E-03    -289.853E-03     5.47546E-03    -289.890E-03     578.823E-03    -289.898E-03     5.96036E-03
            1773     673.456E-06     62.1415E-03    -119.117E+06    -240.555E+06    -117.580E+06    -47.3884E+03    -289.862E-03     579.672E-03    -289.810E-03     2.98848E-03    -289.939E-03     578.813E-03    -289.876E-03     3.25854E-03
            1774     12.8047E-03     61.2166E-03    -4.84396E+06     72.6934E+06     97.8019E+06    -206.352E+03    -288.685E-03     578.354E-03    -289.669E-03     32.0714E-03    -289.115E-03     578.741E-03    -289.278E-03     26.3231E-03
            1775     12.1301E-03     61.1595E-03    -11.4843E+06     67.3017E+06     97.1265E+06    -834.427E+03    -288.754E-03     578.465E-03    -289.712E-03     38.1419E-03    -289.251E-03     578.879E-03    -289.307E-03     31.8237E-03
            1776     11.4560E-03     61.1014E-03    -17.8068E+06     60.8042E+06     92.3437E+06    -57.6948E+03    -288.833E-03     578.571E-03    -289.738E-03     38.4768E-03    -289.319E-03     578.942E-03    -289.339E-03     33.0242E-03
            1777     10.7819E-03     61.0405E-03    -23.8251E+06     54.7647E+06     82.5839E+06     733.152E+03    -288.862E-03     578.604E-03    -289.742E-03     38.7079E-03    -289.335E-03     578.947E-03    -289.374E-03     33.9552E-03
            1778     10.1075E-03     60.9789E-03    -30.5115E+06     47.5764E+06     69.5205E+06     879.542E+03    -288.859E-03     578.596E-03    -289.737E-03     37.8446E-03    -289.308E-03     578.905E-03    -289.415E-03     33.9417E-03
            1779     9.43316E-03     60.9185E-03    -37.1180E+06     40.0262E+06     56.9095E+06     1.10377E+06    -288.908E-03     578.649E-03    -289.741E-03     36.1929E-03    -289.333E-03     578.919E-03    -289.461E-03     33.1743E-03
            1780     8.75896E-03     60.8599E-03    -43.7998E+06     27.4233E+06     46.0318E+06     1.17964E+06    -288.970E-03     578.732E-03    -289.763E-03     33.9925E-03    -289.367E-03     578.938E-03    -289.509E-03     31.8343E-03
            1781     8.08473E-03     60.8038E-03    -50.7749E+06     5.60606E+06     35.3590E+06     670.778E+03    -289.059E-03     578.859E-03    -289.800E-03     31.5466E-03    -289.423E-03     578.960E-03    -289.557E-03     30.1398E-03
            1782     7.41075E-03     60.7509E-03    -57.8518E+06    -26.3562E+06     23.0133E+06     166.000E+03    -289.177E-03     579.019E-03    -289.841E-03     29.0860E-03    -289.497E-03     578.972E-03    -289.604E-03     28.3274E-03
            1783     6.73672E-03     60.7013E-03    -65.3085E+06    -61.4297E+06     8.75121E+06     77.6224E+03    -289.287E-03     579.163E-03    -289.876E-03     26.5680E-03    -289.560E-03     578.960E-03    -289.648E-03     26.3624E-03
            1784     6.06283E-03     60.6553E-03    -72.8766E+06    -91.2156E+06    -5.78978E+06     96.3146E+03    -289.368E-03     579.267E-03    -289.899E-03     24.0111E-03    -289.606E-03     578.940E-03    -289.690E-03     24.2341E-03
            1785     5.38889E-03     60.6135E-03    -80.3290E+06    -119.606E+06    -20.8153E+06     109.177E+03    -289.443E-03     579.360E-03    -289.916E-03     21.4298E-03    -289.650E-03     578.917E-03    -289.731E-03     21.9655E-03
            1786     4.71514E-03     60.5759E-03    -87.7295E+06    -143.952E+06    -36.4575E+06     132.208E+03    -289.516E-03     579.439E-03    -289.922E-03     18.8191E-03    -289.698E-03     578.904E-03    -289.769E-03     19.5626E-03
            1787     4.04140E-03     60.5426E-03    -94.8663E+06    -164.588E+06    -52.6625E+06     190.481E+03    -289.589E-03     579.505E-03    -289.916E-03     16.1990E-03    -289.751E-03     578.899E-03    -289.803E-03     17.0479E-03
            1788     3.36780E-03     60.5142E-03    -101.583E+06    -185.467E+06    -69.0543E+06     197.478E+03    -289.664E-03     579.568E-03    -289.904E-03     13.5694E-03    -289.804E-03     578.889E-03    -289.833E-03     14.4340E-03
            1789     2.69419E-03     60.4905E-03    -107.626E+06    -204.118E+06    -84.8472E+06     117.735E+03    -289.718E-03     579.603E-03    -289.885E-03     10.9028E-03    -289.838E-03     578.862E-03    -289.857E-03     11.7020E-03
            1790     2.02058E-03     60.4718E-03    -112.746E+06    -219.980E+06    -98.9915E+06     89.8444E+03    -289.757E-03     579.622E-03    -289.865E-03     8.23827E-03    -289.859E-03     578.829E-03    -289.877E-03     8.90233E-03
            1791     1.34703E-03     60.4583E-03    -116.726E+06    -232.282E+06    -110.330E+06     13.0971E+03    -289.806E-03     579.652E-03    -289.846E-03     5.57880E-03    -289.893E-03     578.820E-03    -289.891E-03     6.05663E-03
            1792     673.544E-06     60.4501E-03    -119.111E+06    -240.544E+06    -117.497E+06    -55.8279E+03    -289.753E-03     579.655E-03    -289.902E-03     3.02256E-03    -289.830E-03     578.796E-03    -289.968E-03     3.28536E-03
            1793     12.8045E-03     59.5256E-03    -5.04299E+06     72.6924E+06     97.7772E+06     151.817E+03    -288.675E-03     578.349E-03    -289.674E-03     32.1675E-03    -289.106E-03     578.737E-03    -289.283E-03     26.4120E-03
            1794     12.1304E-03     59.4692E-03    -10.9434E+06     67.3301E+06     97.3152E+06     706.860E+03    -288.696E-03     578.415E-03    -289.719E-03     38.2284E-03    -289.190E-03     578.828E-03    -289.315E-03     31.9481E-03
            1795     11.4558E-03     59.4102E-03    -17.6514E+06     60.5177E+06     91.8166E+06     200.446E+03    -288.723E-03     578.472E-03    -289.749E-03     38.4797E-03    -289.206E-03     578.841E-03    -289.352E-03     33.0480E-03
            1796     10.7815E-03     59.3496E-03    -24.4753E+06     54.1398E+06     81.6078E+06    -132.167E+03    -288.789E-03     578.548E-03    -289.758E-03     38.7605E-03    -289.264E-03     578.891E-03    -289.393E-03     33.9869E-03
            1797     10.1072E-03     59.2882E-03    -30.8310E+06     46.9363E+06     69.4840E+06     323.280E+03    -288.902E-03     578.662E-03    -289.761E-03     37.8469E-03    -289.352E-03     578.968E-03    -289.437E-03     33.9332E-03
            1798     9.43295E-03     59.2275E-03    -36.9975E+06     39.6749E+06     57.4187E+06     369.936E+03    -288.997E-03     578.760E-03    -289.762E-03     36.0754E-03    -289.422E-03     579.027E-03    -289.479E-03     33.0291E-03
            1799     8.75881E-03     59.1686E-03    -43.3625E+06     27.9062E+06     46.8523E+06     292.943E+03    -289.055E-03     578.833E-03    -289.778E-03     33.8771E-03    -289.453E-03     579.040E-03    -289.522E-03     31.6741E-03
            1800     8.08480E-03     59.1126E-03    -50.0879E+06     6.57051E+06     36.2134E+06     355.773E+03    -289.101E-03     578.911E-03    -289.810E-03     31.5147E-03    -289.465E-03     579.015E-03    -289.566E-03     30.0833E-03
            1801     7.41065E-03     59.0596E-03    -57.4031E+06    -25.9592E+06     23.4016E+06     347.399E+03    -289.189E-03     579.038E-03    -289.849E-03     29.1155E-03    -289.508E-03     578.993E-03    -289.611E-03     28.3413E-03
            1802     6.73672E-03     59.0099E-03    -64.8273E+06    -61.4189E+06     9.09317E+06     334.284E+03    -289.281E-03     579.165E-03    -289.884E-03     26.6363E-03    -289.553E-03     578.962E-03    -289.656E-03     26.4076E-03
            1803     6.06272E-03     58.9640E-03    -72.2369E+06    -91.1021E+06    -5.34482E+06     259.938E+03    -289.353E-03     579.263E-03    -289.910E-03     24.0919E-03    -289.589E-03     578.935E-03    -289.700E-03     24.2949E-03
            1804     5.38892E-03     58.9220E-03    -79.8157E+06    -119.531E+06    -20.3309E+06     237.604E+03    -289.442E-03     579.373E-03    -289.930E-03     21.5162E-03    -289.648E-03     578.929E-03    -289.743E-03     22.0352E-03
            1805     4.71511E-03     58.8844E-03    -87.3139E+06    -143.955E+06    -36.1091E+06     274.659E+03    -289.511E-03     579.450E-03    -289.939E-03     18.9360E-03    -289.692E-03     578.914E-03    -289.784E-03     19.6648E-03
            1806     4.04136E-03     58.8511E-03    -94.5354E+06    -164.560E+06    -52.5447E+06     223.959E+03    -289.572E-03     579.509E-03    -289.937E-03     16.3386E-03    -289.732E-03     578.902E-03    -289.824E-03     17.1791E-03
            1807     3.36763E-03     58.8225E-03    -101.288E+06    -185.205E+06    -68.9849E+06     155.787E+03    -289.655E-03     579.586E-03    -289.931E-03     13.7271E-03    -289.794E-03     578.908E-03    -289.860E-03     14.5849E-03
            1808     2.69405E-03     58.7988E-03    -107.350E+06    -204.015E+06    -84.6327E+06     131.677E+03    -289.732E-03     579.652E-03    -289.920E-03     11.0706E-03    -289.851E-03     578.910E-03    -289.891E-03     11.8597E-03
            1809     2.02050E-03     58.7802E-03    -112.465E+06    -219.833E+06    -98.6329E+06     129.887E+03    -289.789E-03     579.694E-03    -289.905E-03     8.36580E-03    -289.889E-03     578.901E-03    -289.916E-03     9.02203E-03
            1810     1.34695E-03     58.7667E-03    -116.455E+06    -231.982E+06    -109.939E+06     86.7500E+03    -289.827E-03     579.722E-03    -289.895E-03     5.67780E-03    -289.914E-03     578.890E-03    -289.939E-03     6.15362E-03
            1811     673.497E-06     58.7582E-03    -118.945E+06    -240.428E+06    -117.306E+06     7.15518E+03    -289.797E-03     579.765E-03    -289.968E-03     3.05627E-03    -289.873E-03     578.906E-03    -290.034E-03     3.31578E-03
            1812     12.8042E-03     57.8349E-03    -5.79254E+06     71.6326E+06     96.4525E+06     32.7606E+03    -288.601E-03     578.279E-03    -289.679E-03     32.1481E-03    -289.031E-03     578.664E-03    -289.292E-03     26.4322E-03
            1813     12.1299E-03     57.7778E-03    -10.7082E+06     67.7081E+06     97.8448E+06     284.966E+03    -288.689E-03     578.422E-03    -289.732E-03     38.1875E-03    -289.185E-03     578.836E-03    -289.326E-03     31.8816E-03
            1814     11.4558E-03     57.7198E-03    -16.4024E+06     61.5686E+06     93.3379E+06     761.639E+03    -288.720E-03     578.486E-03    -289.765E-03     38.4638E-03    -289.201E-03     578.856E-03    -289.364E-03     33.0438E-03
            1815     10.7813E-03     57.6589E-03    -23.1976E+06     54.6116E+06     82.5058E+06     536.609E+03    -288.872E-03     578.643E-03    -289.771E-03     38.5493E-03    -289.341E-03     578.984E-03    -289.404E-03     33.7879E-03
            1816     10.1071E-03     57.5970E-03    -30.1441E+06     47.0497E+06     69.2635E+06    -90.0506E+03    -288.992E-03     578.755E-03    -289.764E-03     37.5644E-03    -289.439E-03     579.062E-03    -289.442E-03     33.6139E-03
            1817     9.43304E-03     57.5363E-03    -36.7626E+06     39.9319E+06     56.8945E+06    -288.184E+03    -289.016E-03     578.776E-03    -289.760E-03     35.9413E-03    -289.440E-03     579.046E-03    -289.480E-03     32.8576E-03
            1818     8.75890E-03     57.4774E-03    -43.3848E+06     27.8186E+06     46.3328E+06    -346.222E+03    -289.021E-03     578.799E-03    -289.778E-03     33.8790E-03    -289.419E-03     579.008E-03    -289.523E-03     31.6397E-03
            1819     8.08468E-03     57.4214E-03    -50.5207E+06     5.88262E+06     35.7278E+06    -132.775E+03    -289.057E-03     578.871E-03    -289.814E-03     31.5965E-03    -289.422E-03     578.975E-03    -289.571E-03     30.1320E-03
            1820     7.41067E-03     57.3683E-03    -57.7678E+06    -26.3689E+06     23.2647E+06     255.165E+03    -289.135E-03     578.995E-03    -289.859E-03     29.2495E-03    -289.456E-03     578.949E-03    -289.621E-03     28.4551E-03
            1821     6.73658E-03     57.3186E-03    -65.0462E+06    -61.3482E+06     9.11323E+06     356.863E+03    -289.243E-03     579.143E-03    -289.900E-03     26.8023E-03    -289.516E-03     578.941E-03    -289.672E-03     26.5541E-03
            1822     6.06270E-03     57.2726E-03    -72.4365E+06    -90.9189E+06    -5.33306E+06     398.910E+03    -289.333E-03     579.264E-03    -289.931E-03     24.2890E-03    -289.570E-03     578.937E-03    -289.721E-03     24.4777E-03
            1823     5.38875E-03     57.2306E-03    -79.8721E+06    -119.324E+06    -20.3923E+06     375.255E+03    -289.411E-03     579.369E-03    -289.957E-03     21.7331E-03    -289.617E-03     578.927E-03    -289.771E-03     22.2438E-03
            1824     4.71493E-03     57.1929E-03    -87.1981E+06    -143.857E+06    -36.0658E+06     304.378E+03    -289.499E-03     579.472E-03    -289.974E-03     19.1480E-03    -289.679E-03     578.937E-03    -289.819E-03     19.8671E-03
            1825     4.04118E-03     57.1596E-03    -94.3322E+06    -164.261E+06    -52.4133E+06     313.522E+03    -289.584E-03     579.562E-03    -289.978E-03     16.5152E-03    -289.744E-03     578.956E-03    -289.865E-03     17.3481E-03
            1826     3.36752E-03     57.1309E-03    -101.125E+06    -184.968E+06    -68.9143E+06     273.097E+03    -289.659E-03     579.639E-03    -289.980E-03     13.8354E-03    -289.797E-03     578.961E-03    -289.910E-03     14.6850E-03
            1827     2.69385E-03     57.1071E-03    -107.256E+06    -203.833E+06    -84.6076E+06     204.505E+03    -289.742E-03     579.721E-03    -289.980E-03     11.1422E-03    -289.860E-03     578.981E-03    -289.952E-03     11.9238E-03
            1828     2.02032E-03     57.0883E-03    -112.417E+06    -219.627E+06    -98.5831E+06     95.4980E+03    -289.834E-03     579.810E-03    -289.976E-03     8.44750E-03    -289.935E-03     579.018E-03    -289.987E-03     9.09573E-03
            1829     1.34690E-03     57.0748E-03    -116.245E+06    -231.770E+06    -109.623E+06     77.6343E+03    -289.888E-03     579.864E-03    -289.976E-03     5.72396E-03    -289.974E-03     579.033E-03    -290.019E-03     6.19467E-03
            1830     673.293E-06     57.0665E-03    -119.013E+06    -240.144E+06    -117.108E+06     159.921E+03    -290.007E-03     579.936E-03    -289.929E-03     3.08001E-03    -290.084E-03     579.077E-03    -289.994E-03     3.35950E-03
            1831     12.8044E-03     56.1435E-03    -5.54774E+06     71.9498E+06     96.8904E+06     354.595E+03    -288.526E-03     578.206E-03    -289.681E-03     31.9313E-03    -288.955E-03     578.590E-03    -289.293E-03     26.2566E-03
            1832     12.1301E-03     56.0875E-03    -11.4246E+06     67.2725E+06     97.1547E+06    -631.463E+03    -288.682E-03     578.415E-03    -289.733E-03     37.9864E-03    -289.179E-03     578.828E-03    -289.328E-03     31.6704E-03
            1833     11.4554E-03     56.0288E-03    -17.6676E+06     60.6416E+06     92.5884E+06    -554.789E+03    -288.881E-03     578.643E-03    -289.762E-03     38.1699E-03    -289.365E-03     579.011E-03    -289.361E-03     32.7046E-03
            1834     10.7816E-03     55.9675E-03    -23.2421E+06      54.661E+06     82.7734E+06     62.0975E+03    -288.921E-03     578.683E-03    -289.762E-03     38.3305E-03    -289.391E-03     579.025E-03    -289.394E-03     33.5258E-03
            1835     10.1074E-03     55.9059E-03    -29.3453E+06     47.8359E+06     69.2560E+06     345.343E+03    -288.896E-03     578.648E-03    -289.752E-03     37.5765E-03    -289.341E-03     578.957E-03    -289.432E-03     33.6164E-03
            1836     9.43309E-03     55.8452E-03    -36.2349E+06     40.3027E+06     56.5867E+06     107.347E+03    -288.900E-03     578.656E-03    -289.755E-03     36.0798E-03    -289.322E-03     578.928E-03    -289.478E-03     32.9878E-03
            1837     8.75882E-03     55.7864E-03    -43.4102E+06     27.6209E+06     46.1927E+06     38.9092E+03    -288.917E-03     578.701E-03    -289.784E-03     34.0655E-03    -289.316E-03     578.910E-03    -289.530E-03     31.8181E-03
            1838     8.08469E-03     55.7302E-03    -50.5007E+06     5.37068E+06     35.3880E+06     70.2049E+03    -288.971E-03     578.800E-03    -289.829E-03     31.8208E-03    -289.336E-03     578.902E-03    -289.586E-03     30.3462E-03
            1839     7.41044E-03     55.6772E-03    -57.8032E+06    -26.8708E+06     22.8227E+06     98.1272E+03    -289.070E-03     578.952E-03    -289.882E-03     29.4902E-03    -289.389E-03     578.905E-03    -289.645E-03     28.6790E-03
            1840     6.73640E-03     55.6273E-03    -65.1380E+06    -61.4675E+06     8.74635E+06     236.799E+03    -289.189E-03     579.121E-03    -289.932E-03     27.0538E-03    -289.462E-03     578.919E-03    -289.705E-03     26.7987E-03
            1841     6.06236E-03     55.5812E-03    -72.5079E+06    -90.8807E+06    -5.66621E+06     277.450E+03    -289.301E-03     579.274E-03    -289.972E-03     24.5331E-03    -289.539E-03     578.948E-03    -289.764E-03     24.7107E-03
            1842     5.38849E-03     55.5392E-03    -79.8568E+06    -119.203E+06    -20.4952E+06     294.605E+03    -289.410E-03     579.417E-03    -290.007E-03     21.9472E-03    -289.616E-03     578.976E-03    -289.821E-03     22.4427E-03
            1843     4.71464E-03     55.5013E-03    -87.2177E+06    -143.665E+06    -36.0710E+06     343.749E+03    -289.510E-03     579.542E-03    -290.031E-03     19.3310E-03    -289.691E-03     579.007E-03    -289.877E-03     20.0423E-03
            1844     4.04092E-03     55.4678E-03    -94.4693E+06    -164.077E+06    -52.3756E+06     325.421E+03    -289.609E-03     579.652E-03    -290.043E-03     16.6933E-03    -289.770E-03     579.047E-03    -289.930E-03     17.5162E-03
            1845     3.36726E-03     55.4391E-03    -101.200E+06    -184.736E+06    -68.7879E+06     336.761E+03    -289.718E-03     579.767E-03    -290.049E-03     14.0073E-03    -289.858E-03     579.091E-03    -289.979E-03     14.8483E-03
            1846     2.69373E-03     55.4152E-03    -107.264E+06    -203.383E+06    -84.6126E+06     250.146E+03    -289.811E-03     579.860E-03    -290.049E-03     11.2523E-03    -289.930E-03     579.122E-03    -290.022E-03     12.0312E-03
            1847     2.02016E-03     55.3963E-03    -112.365E+06    -219.289E+06    -98.6196E+06     106.897E+03    -289.890E-03     579.938E-03    -290.049E-03     8.47521E-03    -289.990E-03     579.148E-03    -290.061E-03     9.12231E-03
            1848     1.34666E-03     55.3827E-03    -116.390E+06    -231.813E+06    -109.825E+06     86.8445E+03    -289.984E-03     580.030E-03    -290.045E-03     5.71208E-03    -290.071E-03     579.198E-03    -290.089E-03     6.18110E-03
            1849     673.478E-06     55.3742E-03    -118.894E+06    -239.897E+06    -117.127E+06     68.6767E+03    -290.108E-03     580.062E-03    -289.955E-03     3.17232E-03    -290.184E-03     579.205E-03    -290.020E-03     3.44993E-03
            1850     12.8044E-03     54.4538E-03    -5.17875E+06     72.3433E+06     97.6670E+06     644.449E+03    -288.679E-03     578.351E-03    -289.673E-03     31.8417E-03    -289.107E-03     578.735E-03    -289.282E-03     26.1558E-03
            1851     12.1298E-03     54.3962E-03    -10.7533E+06     67.7944E+06     97.7955E+06     75.0960E+03    -288.768E-03     578.485E-03    -289.716E-03     37.7142E-03    -289.262E-03     578.897E-03    -289.310E-03     31.4180E-03
            1852     11.4563E-03     54.3373E-03    -17.0275E+06     60.6109E+06      92.249E+06    -756.771E+03    -288.750E-03     578.492E-03    -289.742E-03     38.1357E-03    -289.231E-03     578.860E-03    -289.344E-03     32.6422E-03
            1853     10.7818E-03     54.2768E-03    -23.9781E+06     53.3290E+06     81.0550E+06    -962.041E+03    -288.709E-03     578.458E-03    -289.749E-03     38.6316E-03    -289.180E-03     578.798E-03    -289.386E-03     33.8040E-03
            1854     10.1073E-03     54.2152E-03    -30.4654E+06     46.9229E+06     68.3239E+06    -407.653E+03    -288.743E-03     578.498E-03    -289.755E-03     37.9404E-03    -289.191E-03     578.806E-03    -289.437E-03     33.9844E-03
            1855     9.43297E-03     54.1544E-03    -36.7290E+06     39.8863E+06     56.3599E+06     190.687E+03    -288.779E-03     578.550E-03    -289.771E-03     36.3906E-03    -289.203E-03     578.822E-03    -289.493E-03     33.3060E-03
            1856     8.75867E-03     54.0955E-03    -43.4420E+06     27.5972E+06     45.8990E+06     400.209E+03    -288.811E-03     578.619E-03    -289.808E-03     34.3681E-03    -289.210E-03     578.829E-03    -289.556E-03     32.1238E-03
            1857     8.08428E-03     54.0393E-03    -50.4905E+06     5.62129E+06     35.0589E+06     419.082E+03    -288.900E-03     578.763E-03    -289.863E-03     32.1253E-03    -289.264E-03     578.866E-03    -289.622E-03     30.6582E-03
            1858     7.41016E-03     53.9860E-03    -57.7023E+06    -26.7630E+06     22.4757E+06     308.411E+03    -289.040E-03     578.965E-03    -289.925E-03     29.7549E-03    -289.359E-03     578.919E-03    -289.690E-03     28.9377E-03
            1859     6.73600E-03     53.9361E-03    -65.1061E+06    -61.6049E+06     8.39425E+06     205.757E+03    -289.172E-03     579.155E-03    -289.983E-03     27.2726E-03    -289.445E-03     578.954E-03    -289.757E-03     27.0022E-03
            1860     6.06201E-03     53.8898E-03    -72.5007E+06    -90.8087E+06    -5.86508E+06     240.597E+03    -289.289E-03     579.320E-03    -290.031E-03     24.7173E-03    -289.527E-03     578.995E-03    -289.824E-03     24.8830E-03
            1861     5.38808E-03     53.8476E-03    -79.9626E+06    -119.294E+06    -20.6590E+06     283.024E+03    -289.427E-03     579.501E-03    -290.074E-03     22.1342E-03    -289.633E-03     579.060E-03    -289.889E-03     22.6159E-03
            1862     4.71432E-03     53.8095E-03    -87.3744E+06    -143.593E+06    -36.1767E+06     321.126E+03    -289.554E-03     579.658E-03    -290.104E-03     19.5101E-03    -289.736E-03     579.125E-03    -289.950E-03     20.2082E-03
            1863     4.04057E-03     53.7760E-03    -94.4903E+06    -163.904E+06    -52.3595E+06     310.110E+03    -289.665E-03     579.785E-03    -290.120E-03     16.8149E-03    -289.826E-03     579.181E-03    -290.007E-03     17.6263E-03
            1864     3.36694E-03     53.7470E-03    -101.176E+06    -184.504E+06    -68.7381E+06     211.381E+03    -289.787E-03     579.917E-03    -290.130E-03     14.0924E-03    -289.927E-03     579.242E-03    -290.059E-03     14.9219E-03
            1865     2.69342E-03     53.7229E-03    -107.227E+06    -203.028E+06    -84.5354E+06     174.691E+03    -289.904E-03     580.033E-03    -290.129E-03     11.3320E-03    -290.023E-03     579.296E-03    -290.102E-03     12.0990E-03
            1866     2.02007E-03     53.7041E-03    -112.385E+06    -219.067E+06    -98.6206E+06     238.811E+03    -289.994E-03     580.117E-03    -290.122E-03     8.56262E-03    -290.096E-03     579.327E-03    -290.135E-03     9.20952E-03
            1867     1.34674E-03     53.6902E-03    -116.396E+06    -231.498E+06    -109.871E+06     201.554E+03    -290.062E-03     580.172E-03    -290.110E-03     5.78906E-03    -290.149E-03     579.343E-03    -290.155E-03     6.26216E-03
            1868     673.243E-06     53.6818E-03    -118.828E+06    -239.633E+06    -117.147E+06    -12.5548E+03    -290.121E-03     580.186E-03    -290.066E-03     3.13385E-03    -290.198E-03     579.330E-03    -290.132E-03     3.39264E-03
            1869     12.8047E-03     52.7620E-03    -4.88523E+06     72.6683E+06     98.0071E+06    -459.780E+03    -288.756E-03     578.416E-03    -289.659E-03     31.7909E-03    -289.186E-03     578.801E-03    -289.267E-03     26.0416E-03
            1870     12.1312E-03     52.7052E-03    -10.3117E+06     67.8227E+06     98.0379E+06     249.674E+03    -288.560E-03     578.266E-03    -289.706E-03     38.1350E-03    -289.053E-03     578.679E-03    -289.299E-03     31.8380E-03
            1871     11.4559E-03     52.6472E-03    -16.5095E+06     60.6859E+06     92.3842E+06     627.814E+03    -288.468E-03     578.213E-03    -289.745E-03     38.6857E-03    -288.947E-03     578.581E-03    -289.347E-03     33.2574E-03
            1872     10.7814E-03     52.5862E-03    -23.3129E+06     53.9139E+06     81.1792E+06     312.214E+03    -288.568E-03     578.333E-03    -289.766E-03     38.9893E-03    -289.037E-03     578.676E-03    -289.404E-03     34.2106E-03
            1873     10.1070E-03     52.5246E-03    -30.5125E+06     46.4116E+06     67.5338E+06    -199.125E+03    -288.648E-03     578.428E-03    -289.780E-03     38.2220E-03    -289.096E-03     578.736E-03    -289.465E-03     34.2775E-03
            1874     9.43259E-03     52.4636E-03    -37.3508E+06     38.9611E+06     55.2234E+06    -265.287E+03    -288.699E-03     578.504E-03    -289.804E-03     36.6895E-03    -289.124E-03     578.774E-03    -289.531E-03     33.6011E-03
            1875     8.75815E-03     52.4048E-03    -43.9048E+06     27.0774E+06     45.1164E+06     62.0997E+03    -288.775E-03     578.626E-03    -289.851E-03     34.6193E-03    -289.175E-03     578.835E-03    -289.601E-03     32.3672E-03
            1876     8.08390E-03     52.3483E-03    -50.7661E+06     5.49676E+06     34.7623E+06     382.825E+03    -288.872E-03     578.786E-03    -289.914E-03     32.3189E-03    -289.238E-03     578.891E-03    -289.674E-03     30.8394E-03
            1877     7.40961E-03     52.2948E-03    -58.0036E+06    -26.3669E+06     22.4300E+06     406.120E+03    -289.011E-03     578.995E-03    -289.984E-03     29.9588E-03    -289.333E-03     578.953E-03    -289.750E-03     29.1295E-03
            1878     6.73559E-03     52.2447E-03    -65.4216E+06    -61.3800E+06     8.28164E+06     316.272E+03    -289.180E-03     579.229E-03    -290.049E-03     27.5012E-03    -289.455E-03     579.030E-03    -289.824E-03     27.2116E-03
            1879     6.06159E-03     52.1983E-03    -72.9017E+06    -90.8843E+06    -6.13093E+06     294.176E+03    -289.320E-03     579.423E-03    -290.103E-03     24.9424E-03    -289.560E-03     579.099E-03    -289.896E-03     25.0922E-03
            1880     5.38767E-03     52.1558E-03    -80.2864E+06    -119.180E+06    -21.0199E+06     245.685E+03    -289.469E-03     579.619E-03    -290.150E-03     22.3122E-03    -289.677E-03     579.180E-03    -289.966E-03     22.7830E-03
            1881     4.71386E-03     52.1175E-03    -87.5623E+06    -143.453E+06    -36.5221E+06     156.415E+03    -289.623E-03     579.805E-03    -290.183E-03     19.6433E-03    -289.805E-03     579.273E-03    -290.030E-03     20.3211E-03
            1882     4.04027E-03     52.0838E-03    -94.6118E+06    -163.695E+06    -52.6836E+06     106.299E+03    -289.757E-03     579.956E-03    -290.199E-03     16.9358E-03    -289.919E-03     579.354E-03    -290.088E-03     17.7264E-03
            1883     3.36675E-03     52.0547E-03    -101.308E+06    -184.327E+06    -69.0558E+06     110.483E+03    -289.870E-03     580.077E-03    -290.207E-03     14.1875E-03    -290.010E-03     579.404E-03    -290.139E-03     15.0014E-03
            1884     2.69326E-03     52.0305E-03    -107.343E+06    -203.151E+06    -84.6563E+06     167.110E+03    -289.975E-03     580.185E-03    -290.210E-03     11.3994E-03    -290.095E-03     579.448E-03    -290.183E-03     12.1559E-03
            1885     2.01982E-03     52.0114E-03    -112.434E+06    -218.931E+06    -98.6438E+06     233.621E+03    -290.078E-03     580.281E-03    -290.203E-03     8.61039E-03    -290.180E-03     579.493E-03    -290.216E-03     9.24482E-03
            1886     1.34648E-03     51.9976E-03    -116.313E+06    -230.913E+06    -109.828E+06     179.410E+03    -290.139E-03     580.330E-03    -290.190E-03     5.83625E-03    -290.227E-03     579.503E-03    -290.236E-03     6.29606E-03
            1887     673.351E-06     51.9891E-03    -118.902E+06    -239.283E+06    -117.119E+06     128.830E+03    -290.239E-03     580.350E-03    -290.110E-03     3.11031E-03    -290.317E-03     579.495E-03    -290.177E-03     3.35576E-03
            1888     12.8051E-03     51.0711E-03    -5.31351E+06     71.9893E+06     96.3785E+06    -712.436E+03    -288.347E-03     578.007E-03    -289.660E-03     32.3536E-03    -288.777E-03     578.394E-03    -289.275E-03     26.6148E-03
            1889     12.1295E-03     51.0155E-03    -11.2338E+06     66.7418E+06     96.7301E+06    -27.4571E+03    -288.396E-03     578.122E-03    -289.726E-03     38.5592E-03    -288.892E-03     578.535E-03    -289.323E-03     32.2659E-03
            1890     11.4556E-03     50.9567E-03    -17.0888E+06     60.6459E+06     92.5133E+06     464.662E+03    -288.471E-03     578.248E-03    -289.777E-03     38.8288E-03    -288.954E-03     578.617E-03    -289.378E-03     33.3997E-03
            1891     10.7812E-03     50.8958E-03    -23.4352E+06     54.4951E+06     82.0532E+06     739.572E+03    -288.514E-03     578.318E-03    -289.804E-03     39.0958E-03    -288.986E-03     578.662E-03    -289.438E-03     34.3291E-03
            1892     10.1065E-03     50.8340E-03    -29.9366E+06     47.1867E+06     68.6156E+06     790.805E+03    -288.590E-03     578.413E-03    -289.823E-03     38.3307E-03    -289.038E-03     578.724E-03    -289.505E-03     34.3857E-03
            1893     9.43204E-03     50.7731E-03    -36.9275E+06      39.494E+06     55.7429E+06     412.967E+03    -288.662E-03     578.515E-03    -289.852E-03     36.7814E-03    -289.087E-03     578.787E-03    -289.577E-03     33.6843E-03
            1894     8.75773E-03     50.7137E-03    -44.1466E+06     26.7597E+06     44.9414E+06     98.2375E+03    -288.752E-03     578.656E-03    -289.904E-03     34.7574E-03    -289.153E-03     578.865E-03    -289.654E-03     32.4888E-03
            1895     8.08341E-03     50.6573E-03    -51.2666E+06     5.14435E+06     34.4946E+06     120.652E+03    -288.857E-03     578.830E-03    -289.973E-03     32.4997E-03    -289.225E-03     578.934E-03    -289.733E-03     30.9847E-03
            1896     7.40920E-03     50.6036E-03    -58.3906E+06    -26.2898E+06     22.2224E+06     241.601E+03    -288.992E-03     579.042E-03    -290.050E-03     30.1443E-03    -289.316E-03     579.001E-03    -289.816E-03     29.2901E-03
            1897     6.73499E-03     50.5532E-03    -65.5729E+06    -61.1363E+06     8.15650E+06     192.439E+03    -289.179E-03     579.302E-03    -290.123E-03     27.6695E-03    -289.456E-03     579.105E-03    -289.898E-03     27.3587E-03
            1898     6.06102E-03     50.5066E-03    -72.8793E+06    -90.7642E+06    -6.21248E+06     132.924E+03    -289.376E-03     579.558E-03    -290.182E-03     25.1062E-03    -289.616E-03     579.235E-03    -289.976E-03     25.2289E-03
            1899     5.38722E-03     50.4638E-03    -80.2530E+06    -118.996E+06    -21.1205E+06     127.301E+03    -289.549E-03     579.779E-03    -290.230E-03     22.4745E-03    -289.757E-03     579.341E-03    -290.047E-03     22.9189E-03
            1900     4.71356E-03     50.4253E-03    -87.5190E+06    -143.212E+06    -36.6852E+06     60.1144E+03    -289.687E-03     579.951E-03    -290.265E-03     19.8098E-03    -289.869E-03     579.421E-03    -290.113E-03     20.4661E-03
            1901     4.03990E-03     50.3913E-03    -94.6440E+06    -163.651E+06    -52.8888E+06    -2.16787E+03    -289.818E-03     580.103E-03    -290.285E-03     17.1169E-03    -289.980E-03     579.502E-03    -290.175E-03     17.8901E-03
            1902     3.36640E-03     50.3620E-03    -101.367E+06    -184.437E+06    -69.1738E+06     47.2362E+03    -289.952E-03     580.249E-03    -290.298E-03     14.3694E-03    -290.092E-03     579.576E-03    -290.229E-03     15.1677E-03
            1903     2.69302E-03     50.3378E-03    -107.373E+06    -203.231E+06    -84.6895E+06     111.613E+03    -290.063E-03     580.365E-03    -290.302E-03     11.5829E-03    -290.183E-03     579.628E-03    -290.275E-03     12.3302E-03
            1904     2.01975E-03     50.3185E-03    -112.458E+06    -218.873E+06    -98.5664E+06     107.788E+03    -290.150E-03     580.451E-03    -290.301E-03     8.75711E-03    -290.252E-03     579.663E-03    -290.314E-03     9.38231E-03
            1905     1.34650E-03     50.3047E-03    -116.311E+06    -230.632E+06    -109.789E+06     111.596E+03    -290.215E-03     580.516E-03    -290.302E-03     5.94245E-03    -290.302E-03     579.691E-03    -290.348E-03     6.39531E-03
            1906     673.125E-06     50.2961E-03    -118.649E+06    -238.847E+06    -117.057E+06     23.0263E+03    -290.328E-03     580.592E-03    -290.263E-03     3.28334E-03    -290.405E-03     579.739E-03    -290.330E-03     3.52666E-03
            1907     12.8037E-03     49.3819E-03    -4.95791E+06     72.2054E+06     96.7444E+06     222.817E+03    -288.236E-03     577.920E-03    -289.684E-03     32.1590E-03    -288.664E-03     578.306E-03    -289.298E-03     26.4391E-03
            1908     12.1300E-03     49.3242E-03    -11.2208E+06     66.8631E+06     96.6032E+06    -81.7908E+03    -288.359E-03     578.113E-03    -289.754E-03     38.2396E-03    -288.854E-03     578.525E-03    -289.352E-03     31.9334E-03
            1909     11.4552E-03     49.2664E-03    -17.7896E+06     60.1077E+06     91.6225E+06    -307.141E+03    -288.416E-03     578.223E-03    -289.807E-03     38.7977E-03    -288.902E-03     578.593E-03    -289.410E-03     33.3227E-03
            1910     10.7805E-03     49.2054E-03    -24.2825E+06     53.5651E+06     81.6642E+06     80.8977E+03    -288.488E-03     578.329E-03    -289.841E-03     39.1799E-03    -288.964E-03     578.671E-03    -289.475E-03     34.3856E-03
            1911     10.1062E-03     49.1434E-03    -30.5003E+06     46.8209E+06     69.3991E+06     435.844E+03    -288.553E-03     578.423E-03    -289.870E-03     38.3857E-03    -289.006E-03     578.732E-03    -289.546E-03     34.4069E-03
            1912     9.43174E-03     49.0822E-03    -36.7729E+06     40.0645E+06     56.8357E+06     772.037E+03    -288.607E-03     578.511E-03    -289.904E-03     36.9014E-03    -289.035E-03     578.785E-03    -289.624E-03     33.7834E-03
            1913     8.75723E-03     49.0229E-03    -43.4176E+06     27.3689E+06     45.4786E+06     698.314E+03    -288.688E-03     578.648E-03    -289.960E-03     34.9408E-03    -289.088E-03     578.859E-03    -289.709E-03     32.6602E-03
            1914     8.08286E-03     48.9660E-03    -50.5646E+06     5.48733E+06     34.7973E+06     272.963E+03    -288.830E-03     578.868E-03    -290.037E-03     32.7073E-03    -289.197E-03     578.974E-03    -289.798E-03     31.1658E-03
            1915     7.40862E-03     48.9123E-03    -57.9301E+06    -26.2007E+06     22.4018E+06     32.6836E+03    -289.015E-03     579.136E-03    -290.121E-03     30.3582E-03    -289.338E-03     579.095E-03    -289.887E-03     29.4662E-03
            1916     6.73458E-03     48.8616E-03    -65.3042E+06    -61.1508E+06     8.19722E+06     61.3916E+03    -289.211E-03     579.409E-03    -290.198E-03     27.8827E-03    -289.487E-03     579.212E-03    -289.974E-03     27.5498E-03
            1917     6.06061E-03     48.8145E-03    -72.6579E+06    -90.7928E+06    -6.21687E+06     106.343E+03    -289.401E-03     579.664E-03    -290.264E-03     25.3236E-03    -289.640E-03     579.341E-03    -290.058E-03     25.4271E-03
            1918     5.38679E-03     48.7715E-03    -79.9940E+06    -118.985E+06    -21.0322E+06     92.1455E+03    -289.585E-03     579.904E-03    -290.320E-03     22.7282E-03    -289.792E-03     579.466E-03    -290.136E-03     23.1478E-03
            1919     4.71307E-03     48.7329E-03    -87.3584E+06    -143.157E+06    -36.5856E+06     110.869E+03    -289.752E-03     580.112E-03    -290.360E-03     20.0722E-03    -289.934E-03     579.582E-03    -290.209E-03     20.7107E-03
            1920     4.03952E-03     48.6986E-03    -94.5283E+06    -163.589E+06    -52.7822E+06     133.261E+03    -289.891E-03     580.277E-03    -290.386E-03     17.3232E-03    -290.053E-03     579.676E-03    -290.275E-03     18.0817E-03
            1921     3.36605E-03     48.6691E-03    -101.249E+06    -184.548E+06    -69.0365E+06     83.2378E+03    -290.021E-03     580.427E-03    -290.405E-03     14.5294E-03    -290.161E-03     579.752E-03    -290.336E-03     15.3123E-03
            1922     2.69269E-03     48.6446E-03    -107.331E+06    -203.136E+06    -84.7204E+06     78.4705E+03    -290.144E-03     580.561E-03    -290.417E-03     11.7236E-03    -290.264E-03     579.824E-03    -290.391E-03     12.4571E-03
            1923     2.01936E-03     48.6254E-03    -112.497E+06    -218.713E+06    -98.7660E+06     33.8721E+03    -290.252E-03     580.676E-03    -290.424E-03     8.87763E-03    -290.355E-03     579.889E-03    -290.437E-03     9.49297E-03
            1924     1.34613E-03     48.6114E-03    -116.476E+06    -230.633E+06    -109.960E+06    -20.7176E+03    -290.346E-03     580.773E-03    -290.427E-03     5.98798E-03    -290.435E-03     579.949E-03    -290.474E-03     6.43042E-03
            1925     673.093E-06     48.6028E-03    -118.940E+06    -238.733E+06    -117.298E+06     68.5731E+03    -290.361E-03     580.839E-03    -290.477E-03     3.25205E-03    -290.440E-03     579.987E-03    -290.545E-03     3.50375E-03
            1926     12.8048E-03     47.6905E-03    -4.93154E+06     71.6301E+06     97.1876E+06     293.201E+03    -288.202E-03     577.898E-03    -289.696E-03     31.8916E-03    -288.629E-03     578.280E-03    -289.306E-03     26.1529E-03
            1927     12.1294E-03     47.6348E-03    -10.7614E+06     67.2439E+06     97.0191E+06     526.135E+03    -288.180E-03     577.950E-03    -289.770E-03     38.2428E-03    -288.674E-03     578.362E-03    -289.366E-03     31.9578E-03
            1928     11.4547E-03     47.5760E-03    -17.1306E+06     60.8303E+06     92.0509E+06     254.741E+03    -288.277E-03     578.109E-03    -289.832E-03     38.7625E-03    -288.761E-03     578.482E-03    -289.435E-03     33.2936E-03
            1929     10.7804E-03     47.5148E-03    -23.8052E+06     53.5012E+06     81.8006E+06    -173.600E+03    -288.385E-03     578.260E-03    -289.875E-03     39.2047E-03    -288.860E-03     578.603E-03    -289.509E-03     34.3768E-03
            1930     10.1058E-03     47.4529E-03    -30.5103E+06     46.2129E+06     69.3079E+06    -259.614E+03    -288.459E-03     578.373E-03    -289.913E-03     38.6037E-03    -288.912E-03     578.681E-03    -289.590E-03     34.5919E-03
            1931     9.43114E-03     47.3916E-03    -37.0031E+06     39.2760E+06     56.7200E+06    -111.898E+03    -288.541E-03     578.498E-03    -289.957E-03     37.1639E-03    -288.970E-03     578.771E-03    -289.677E-03     34.0091E-03
            1932     8.75671E-03     47.3320E-03    -43.4308E+06     27.2642E+06     45.7116E+06     305.715E+03    -288.646E-03     578.668E-03    -290.023E-03     35.1946E-03    -289.047E-03     578.880E-03    -289.771E-03     32.8844E-03
            1933     8.08232E-03     47.2749E-03    -50.1495E+06     5.91207E+06     35.2039E+06     511.188E+03    -288.796E-03     578.905E-03    -290.108E-03     32.9717E-03    -289.163E-03     579.013E-03    -289.868E-03     31.4103E-03
            1934     7.40808E-03     47.2207E-03    -57.4467E+06    -25.7842E+06     22.7330E+06     463.172E+03    -289.013E-03     579.213E-03    -290.200E-03     30.6531E-03    -289.335E-03     579.174E-03    -289.966E-03     29.7417E-03
            1935     6.73396E-03     47.1698E-03    -65.1345E+06    -61.1364E+06     8.32773E+06     436.425E+03    -289.241E-03     579.526E-03    -290.285E-03     28.2171E-03    -289.517E-03     579.329E-03    -290.060E-03     27.8636E-03
            1936     6.06003E-03     47.1224E-03    -72.7037E+06    -90.8148E+06    -6.24559E+06     367.879E+03    -289.426E-03     579.783E-03    -290.357E-03     25.6540E-03    -289.666E-03     579.461E-03    -290.151E-03     25.7402E-03
            1937     5.38616E-03     47.0792E-03    -80.2156E+06    -118.961E+06    -21.2462E+06     270.246E+03    -289.625E-03     580.046E-03    -290.421E-03     23.0037E-03    -289.833E-03     579.609E-03    -290.238E-03     23.4076E-03
            1938     4.71254E-03     47.0400E-03    -87.5890E+06    -143.093E+06    -36.8149E+06     205.655E+03    -289.816E-03     580.285E-03    -290.469E-03     20.2998E-03    -289.999E-03     579.756E-03    -290.319E-03     20.9152E-03
            1939     4.03904E-03     47.0055E-03    -94.6668E+06    -163.497E+06    -52.9856E+06     163.696E+03    -289.979E-03     580.480E-03    -290.501E-03     17.5480E-03    -290.142E-03     579.880E-03    -290.391E-03     18.2841E-03
            1940     3.36566E-03     46.9759E-03    -101.378E+06    -184.376E+06    -69.2919E+06     134.606E+03    -290.132E-03     580.655E-03    -290.524E-03     14.7205E-03    -290.272E-03     579.982E-03    -290.456E-03     15.4853E-03
            1941     2.69234E-03     46.9512E-03    -107.414E+06    -203.109E+06    -84.8656E+06     110.676E+03    -290.265E-03     580.803E-03    -290.537E-03     11.8255E-03    -290.386E-03     580.067E-03    -290.511E-03     12.5423E-03
            1942     2.01920E-03     46.9317E-03    -112.521E+06    -218.486E+06    -98.8314E+06     87.1142E+03    -290.381E-03     580.924E-03    -290.542E-03     8.90991E-03    -290.484E-03     580.138E-03    -290.557E-03     9.51037E-03
            1943     1.34615E-03     46.9176E-03    -116.434E+06    -230.550E+06    -109.915E+06     40.5562E+03    -290.471E-03     581.013E-03    -290.543E-03     6.03393E-03    -290.559E-03     580.189E-03    -290.589E-03     6.46703E-03
            1944     673.081E-06     46.9088E-03    -118.973E+06    -238.678E+06    -117.289E+06     78.8700E+03    -290.498E-03     581.064E-03    -290.567E-03     3.28562E-03    -290.576E-03     580.213E-03    -290.634E-03     3.52616E-03
            1945     12.8037E-03     46.0016E-03    -5.20234E+06     70.8047E+06     96.4368E+06     202.528E+03    -288.037E-03     577.742E-03    -289.705E-03     32.2013E-03    -288.463E-03     578.121E-03    -289.318E-03     26.4882E-03
            1946     12.1294E-03     45.9445E-03    -10.5586E+06     67.4055E+06     97.5811E+06     423.469E+03    -288.109E-03     577.900E-03    -289.791E-03     38.3922E-03    -288.603E-03     578.312E-03    -289.386E-03     32.1213E-03
            1947     11.4549E-03     45.8858E-03    -16.6089E+06     61.6579E+06     93.0711E+06     323.019E+03    -288.144E-03     578.006E-03    -289.862E-03     38.9846E-03    -288.629E-03     578.381E-03    -289.462E-03     33.5293E-03
            1948     10.7799E-03     45.8248E-03    -23.1479E+06     53.9732E+06     82.2530E+06     156.038E+03    -288.236E-03     578.149E-03    -289.914E-03     39.4479E-03    -288.709E-03     578.494E-03    -289.547E-03     34.6168E-03
            1949     10.1051E-03     45.7624E-03    -29.9590E+06     46.5475E+06     69.2083E+06    -82.3260E+03    -288.352E-03     578.313E-03    -289.961E-03     38.7743E-03    -288.804E-03     578.623E-03    -289.639E-03     34.7400E-03
            1950     9.43065E-03     45.7010E-03    -36.9209E+06     38.8916E+06     56.5175E+06    -119.897E+03    -288.464E-03     578.480E-03    -290.017E-03     37.3731E-03    -288.893E-03     578.753E-03    -289.737E-03     34.1877E-03
            1951     8.75608E-03     45.6411E-03    -43.9892E+06     26.3353E+06     45.2064E+06     53.6530E+03    -288.589E-03     578.681E-03    -290.092E-03     35.4923E-03    -288.992E-03     578.891E-03    -289.841E-03     33.1453E-03
            1952     8.08168E-03     45.5836E-03    -51.0659E+06     5.47702E+06     34.5775E+06     367.705E+03    -288.756E-03     578.943E-03    -290.187E-03     33.3268E-03    -289.127E-03     579.053E-03    -289.948E-03     31.7397E-03
            1953     7.40736E-03     45.5291E-03    -58.2701E+06    -25.7229E+06     22.2929E+06     612.336E+03    -289.000E-03     579.290E-03    -290.290E-03     31.0069E-03    -289.327E-03     579.254E-03    -290.056E-03     30.0811E-03
            1954     6.73328E-03     45.4777E-03    -65.4513E+06    -60.8188E+06     8.23276E+06     585.986E+03    -289.263E-03     579.647E-03    -290.384E-03     28.5145E-03    -289.542E-03     579.454E-03    -290.160E-03     28.1274E-03
            1955     6.05934E-03     45.4301E-03    -72.7961E+06    -90.4930E+06    -6.12469E+06     511.060E+03    -289.487E-03     579.951E-03    -290.464E-03     25.9214E-03    -289.729E-03     579.631E-03    -290.258E-03     25.9695E-03
            1956     5.38562E-03     45.3863E-03    -80.2349E+06    -118.511E+06    -21.1219E+06     430.647E+03    -289.694E-03     580.227E-03    -290.533E-03     23.2713E-03    -289.903E-03     579.792E-03    -290.350E-03     23.6463E-03
            1957     4.71201E-03     45.3470E-03    -87.6023E+06    -142.818E+06    -36.8032E+06     250.157E+03    -289.881E-03     580.469E-03    -290.588E-03     20.5552E-03    -290.065E-03     579.941E-03    -290.438E-03     21.1412E-03
            1958     4.03850E-03     45.3122E-03      -94.75E+06    -163.410E+06    -53.0608E+06     158.711E+03    -290.065E-03     580.692E-03    -290.627E-03     17.7707E-03    -290.228E-03     580.093E-03    -290.518E-03     18.4811E-03
            1959     3.36517E-03     45.2822E-03    -101.444E+06    -184.244E+06    -69.3460E+06     150.260E+03    -290.254E-03     580.909E-03    -290.655E-03     14.9158E-03    -290.396E-03     580.238E-03    -290.588E-03     15.6587E-03
            1960     2.69205E-03     45.2573E-03    -107.515E+06    -203.020E+06    -84.8726E+06     108.435E+03    -290.406E-03     581.075E-03    -290.669E-03     12.0288E-03    -290.526E-03     580.340E-03    -290.643E-03     12.7231E-03
            1961     2.01895E-03     45.2377E-03    -112.587E+06    -218.379E+06    -98.7597E+06     69.1106E+03    -290.506E-03     581.181E-03    -290.675E-03     9.12354E-03    -290.609E-03     580.396E-03    -290.689E-03     9.70934E-03
            1962     1.34587E-03     45.2235E-03    -116.431E+06    -230.499E+06    -109.866E+06     52.6450E+03    -290.591E-03     581.273E-03    -290.682E-03     6.19570E-03    -290.679E-03     580.448E-03    -290.728E-03     6.62499E-03
            1963     672.841E-06     45.2147E-03    -118.877E+06    -238.590E+06    -117.146E+06    -18.6020E+03    -290.712E-03     581.354E-03    -290.643E-03     3.35785E-03    -290.790E-03     580.503E-03    -290.710E-03     3.59283E-03
            1964     12.8039E-03     44.3108E-03    -5.32797E+06     71.1653E+06     96.9704E+06     64.6960E+03    -287.907E-03     577.630E-03    -289.723E-03     32.0177E-03    -288.335E-03     578.010E-03    -289.334E-03     26.3177E-03
            1965     12.1291E-03     44.2547E-03    -10.8184E+06     67.0516E+06     97.4537E+06    -411.602E+03    -287.969E-03     577.784E-03    -289.815E-03     38.4627E-03    -288.464E-03     578.196E-03    -289.410E-03     32.1708E-03
            1966     11.4539E-03     44.1961E-03    -16.9089E+06     60.9257E+06     92.6895E+06    -89.4331E+03    -288.040E-03     577.935E-03    -289.894E-03     39.1080E-03    -288.526E-03     578.308E-03    -289.495E-03     33.6228E-03
            1967     10.7794E-03     44.1344E-03    -23.3207E+06     53.9785E+06     82.2418E+06     173.618E+03    -288.120E-03     578.075E-03    -289.956E-03     39.5396E-03    -288.596E-03     578.422E-03    -289.589E-03     34.6754E-03
            1968     10.1048E-03     44.0722E-03    -30.0953E+06     46.4685E+06     69.0666E+06     441.811E+03    -288.204E-03     578.218E-03    -290.014E-03     38.9985E-03    -288.658E-03     578.530E-03    -289.692E-03     34.9454E-03
            1969     9.42997E-03     44.0104E-03    -36.9569E+06     38.8405E+06     56.1209E+06     669.652E+03    -288.335E-03     578.418E-03    -290.083E-03     37.7220E-03    -288.766E-03     578.692E-03    -289.805E-03     34.5285E-03
            1970     8.75541E-03     43.9502E-03    -43.8969E+06     26.2426E+06     44.9301E+06     623.019E+03    -288.525E-03     578.697E-03    -290.172E-03     35.8741E-03    -288.930E-03     578.909E-03    -289.922E-03     33.5064E-03
            1971     8.08089E-03     43.8924E-03    -51.0880E+06     5.27271E+06     34.3980E+06     545.922E+03    -288.764E-03     579.042E-03    -290.278E-03     33.6878E-03    -289.136E-03     579.152E-03    -290.040E-03     32.0726E-03
            1972     7.40665E-03     43.8372E-03    -58.3407E+06    -25.6666E+06     22.2256E+06     414.239E+03    -289.021E-03     579.410E-03    -290.388E-03     31.3276E-03    -289.350E-03     579.376E-03    -290.155E-03     30.3588E-03
            1973     6.73255E-03     43.7855E-03    -65.6560E+06    -60.6718E+06     8.14367E+06     317.405E+03    -289.281E-03     579.772E-03    -290.491E-03     28.8516E-03    -289.562E-03     579.581E-03    -290.267E-03     28.4193E-03
            1974     6.05870E-03     43.7374E-03    -72.9990E+06    -90.2364E+06    -6.14458E+06     287.637E+03    -289.532E-03     580.112E-03    -290.580E-03     26.2958E-03    -289.776E-03     579.795E-03    -290.374E-03     26.2982E-03
            1975     5.38494E-03     43.6933E-03    -80.3282E+06    -118.214E+06    -20.9442E+06     255.293E+03    -289.766E-03     580.424E-03    -290.658E-03     23.6334E-03    -289.978E-03     579.992E-03    -290.475E-03     23.9607E-03
            1976     4.71134E-03     43.6536E-03    -87.6304E+06    -142.546E+06    -36.5397E+06     269.494E+03    -289.982E-03     580.701E-03    -290.719E-03     20.8641E-03    -290.168E-03     580.176E-03    -290.568E-03     21.4147E-03
            1977     4.03799E-03     43.6184E-03    -94.7890E+06    -163.207E+06    -52.8305E+06     213.168E+03    -290.172E-03     580.936E-03    -290.763E-03     18.0267E-03    -290.337E-03     580.337E-03    -290.653E-03     18.7058E-03
            1978     3.36474E-03     43.5881E-03    -101.535E+06    -184.237E+06    -69.1757E+06     151.835E+03    -290.348E-03     581.147E-03    -290.799E-03     15.1533E-03    -290.490E-03     580.476E-03    -290.731E-03     15.8728E-03
            1979     2.69156E-03     43.5629E-03    -107.529E+06    -202.754E+06    -84.8237E+06     60.9030E+03    -290.513E-03     581.336E-03    -290.824E-03     12.2220E-03    -290.634E-03     580.602E-03    -290.798E-03     12.8923E-03
            1980     2.01856E-03     43.5433E-03    -112.573E+06    -218.241E+06    -98.7990E+06    -40.4336E+03    -290.654E-03     581.492E-03    -290.838E-03     9.25924E-03    -290.757E-03     580.708E-03    -290.852E-03     9.82331E-03
            1981     1.34566E-03     43.5287E-03    -116.529E+06    -230.544E+06    -110.040E+06    -56.0380E+03    -290.774E-03     581.615E-03    -290.842E-03     6.27024E-03    -290.862E-03     580.791E-03    -290.889E-03     6.68475E-03
            1982     672.919E-06     43.5198E-03    -119.153E+06    -238.834E+06    -117.357E+06    -124.847E+03    -290.883E-03     581.662E-03    -290.779E-03     3.39034E-03    -290.963E-03     580.811E-03    -290.847E-03     3.61573E-03
            1983     12.8038E-03     42.6221E-03    -4.67029E+06     71.7507E+06     97.4836E+06     83.7771E+03    -287.771E-03     577.501E-03    -289.730E-03     31.9319E-03    -288.198E-03     577.883E-03    -289.340E-03     26.2019E-03
            1984     12.1286E-03     42.5650E-03    -10.4882E+06     66.7531E+06     97.2774E+06    -81.9645E+03    -287.750E-03     577.580E-03    -289.830E-03     38.2666E-03    -288.244E-03     577.992E-03    -289.425E-03     31.9378E-03
            1985     11.4542E-03     42.5060E-03    -17.4880E+06     59.8308E+06     91.6971E+06     20.9249E+03    -287.770E-03     577.693E-03    -289.923E-03     39.1343E-03    -288.258E-03     578.065E-03    -289.526E-03     33.6185E-03
            1986     10.7791E-03     42.4447E-03    -24.1213E+06     53.3833E+06     81.3479E+06     380.832E+03    -287.871E-03     577.873E-03    -290.002E-03     39.9145E-03    -288.350E-03     578.221E-03    -289.638E-03     35.0479E-03
            1987     10.1040E-03     42.3821E-03    -30.6259E+06     46.1040E+06     68.8016E+06     491.926E+03    -288.069E-03     578.149E-03    -290.080E-03     39.4435E-03    -288.527E-03     578.462E-03    -289.759E-03     35.3851E-03
            1988     9.42924E-03     42.3199E-03    -37.1891E+06     38.5784E+06     56.3048E+06     595.542E+03    -288.282E-03     578.444E-03    -290.162E-03     38.0744E-03    -288.715E-03     578.719E-03    -289.883E-03     34.8522E-03
            1989     8.75449E-03     42.2592E-03    -43.8869E+06     26.5323E+06     45.3591E+06     747.368E+03    -288.503E-03     578.765E-03    -290.261E-03     36.1809E-03    -288.910E-03     578.979E-03    -290.009E-03     33.7735E-03
            1990     8.08014E-03     42.2007E-03    -50.9228E+06     5.87594E+06     34.8733E+06     611.978E+03    -288.745E-03     579.122E-03    -290.376E-03     34.0432E-03    -289.120E-03     579.236E-03    -290.137E-03     32.3731E-03
            1991     7.40589E-03     42.1452E-03    -58.1568E+06    -25.3385E+06     22.6183E+06     370.234E+03    -289.001E-03     579.499E-03    -290.498E-03     31.7632E-03    -289.331E-03     579.467E-03    -290.264E-03     30.7350E-03
            1992     6.73179E-03     42.0931E-03     -65.482E+06    -60.4955E+06     8.38599E+06     200.966E+03    -289.285E-03     579.898E-03    -290.613E-03     29.3385E-03    -289.567E-03     579.709E-03    -290.389E-03     28.8589E-03
            1993     6.05782E-03     42.0444E-03    -72.8589E+06    -90.1266E+06    -6.05476E+06     100.716E+03    -289.573E-03     580.287E-03    -290.714E-03     26.7580E-03    -289.818E-03     579.970E-03    -290.508E-03     26.7136E-03
            1994     5.38416E-03     42.0000E-03    -80.2616E+06    -118.352E+06    -20.9071E+06     133.878E+03    -289.849E-03     580.651E-03    -290.802E-03     24.0585E-03    -290.061E-03     580.218E-03    -290.618E-03     24.3351E-03
            1995     4.71073E-03     41.9597E-03    -87.6050E+06    -142.547E+06    -36.4506E+06     184.503E+03    -290.083E-03     580.955E-03    -290.872E-03     21.2952E-03    -290.269E-03     580.429E-03    -290.720E-03     21.8053E-03
            1996     4.03737E-03     41.9242E-03    -94.6277E+06    -163.062E+06    -52.6146E+06     147.862E+03    -290.291E-03     581.216E-03    -290.924E-03     18.4479E-03    -290.456E-03     580.618E-03    -290.814E-03     19.0928E-03
            1997     3.36418E-03     41.8936E-03    -101.282E+06    -184.054E+06    -68.9550E+06     78.3519E+03    -290.488E-03     581.455E-03    -290.967E-03     15.5066E-03    -290.629E-03     580.784E-03    -290.898E-03     16.1933E-03
            1998     2.69115E-03     41.8682E-03    -107.346E+06    -202.590E+06    -84.7531E+06     12.5851E+03    -290.668E-03     581.665E-03    -290.997E-03     12.4760E-03    -290.789E-03     580.931E-03    -290.972E-03     13.1224E-03
            1999     2.01824E-03     41.8481E-03    -112.517E+06     -218.26E+06    -98.8547E+06    -7.36547E+03    -290.834E-03     581.848E-03    -291.014E-03     9.43842E-03    -290.937E-03     581.064E-03    -291.029E-03     9.98498E-03
            2000     1.34547E-03     41.8335E-03    -116.440E+06    -230.564E+06    -109.939E+06    -7.46014E+03    -290.936E-03     581.960E-03    -291.023E-03     6.41861E-03    -291.025E-03     581.135E-03    -291.070E-03     6.81863E-03
            2001     672.639E-06     41.8245E-03    -119.025E+06    -238.902E+06    -117.231E+06     28.4273E+03    -291.065E-03     582.036E-03    -290.972E-03     3.48921E-03    -291.143E-03     581.184E-03    -291.039E-03     3.70779E-03
            2002     12.8037E-03     40.9319E-03    -5.06523E+06     70.9160E+06     96.4826E+06    -484.288E+03    -287.488E-03     577.224E-03    -289.737E-03     32.1211E-03    -287.915E-03     577.606E-03    -289.350E-03     26.3626E-03
            2003     12.1292E-03     40.8759E-03    -10.8690E+06     66.1193E+06     96.6918E+06     992.859E+03    -287.445E-03     577.301E-03    -289.857E-03     38.8706E-03    -287.940E-03     577.712E-03    -289.453E-03     32.5922E-03
            2004     11.4533E-03     40.8172E-03    -17.0954E+06     60.1432E+06     91.9856E+06     1.16989E+06    -287.536E-03     577.505E-03    -289.970E-03     39.7587E-03    -288.023E-03     577.879E-03    -289.572E-03     34.2897E-03
            2005     10.7780E-03     40.7552E-03    -23.7664E+06     53.6429E+06     81.7579E+06     629.731E+03    -287.764E-03     577.828E-03    -290.065E-03     40.2290E-03    -288.244E-03     578.178E-03    -289.699E-03     35.3586E-03
            2006     10.1032E-03     40.6919E-03    -30.3976E+06     46.3433E+06     69.2314E+06     373.838E+03    -288.009E-03     578.161E-03    -290.153E-03     39.6317E-03    -288.468E-03     578.476E-03    -289.830E-03     35.5352E-03
            2007     9.42841E-03     40.6293E-03    -37.0924E+06     38.2887E+06     56.7424E+06     321.519E+03    -288.216E-03     578.462E-03    -290.246E-03     38.3615E-03    -288.652E-03     578.737E-03    -289.964E-03     35.0765E-03
            2008     8.75393E-03     40.5680E-03    -43.8673E+06     26.5599E+06     45.7765E+06     379.420E+03    -288.410E-03     578.767E-03    -290.357E-03     36.6697E-03    -288.820E-03     578.984E-03    -290.103E-03     34.2003E-03
            2009     8.07932E-03     40.5092E-03    -50.6532E+06     6.50019E+06     35.3839E+06     235.768E+03    -288.645E-03     579.134E-03    -290.489E-03     34.6406E-03    -289.023E-03     579.252E-03    -290.248E-03     32.9052E-03
            2010     7.40490E-03     40.4532E-03    -57.7290E+06    -25.2137E+06     22.9813E+06     148.560E+03    -288.961E-03     579.589E-03    -290.628E-03     32.3618E-03    -289.292E-03     579.559E-03    -290.393E-03     31.2707E-03
            2011     6.73076E-03     40.4004E-03    -64.9886E+06    -60.3876E+06     8.76460E+06     213.606E+03    -289.307E-03     580.065E-03    -290.758E-03     29.9121E-03    -289.589E-03     579.877E-03    -290.532E-03     29.3731E-03
            2012     6.05696E-03     40.3512E-03    -72.4679E+06    -90.1360E+06    -5.81125E+06     285.277E+03    -289.613E-03     580.486E-03    -290.872E-03     27.3295E-03    -289.857E-03     580.169E-03    -290.666E-03     27.2309E-03
            2013     5.38329E-03     40.3061E-03    -79.9853E+06    -118.326E+06    -20.9082E+06     222.423E+03    -289.904E-03     580.879E-03    -290.975E-03     24.6468E-03    -290.115E-03     580.447E-03    -290.792E-03     24.8758E-03
            2014     4.70977E-03     40.2655E-03    -87.2952E+06    -142.385E+06    -36.4586E+06     99.0583E+03    -290.186E-03     581.246E-03    -291.060E-03     21.8508E-03    -290.372E-03     580.722E-03    -290.909E-03     22.3130E-03
            2015     4.03651E-03     40.2295E-03    -94.4517E+06    -163.035E+06    -52.6974E+06     55.3615E+03    -290.443E-03     581.568E-03    -291.124E-03     18.9222E-03    -290.607E-03     580.970E-03    -291.014E-03     19.5238E-03
            2016     3.36348E-03     40.1984E-03    -101.161E+06    -183.866E+06    -69.0456E+06     41.9674E+03    -290.668E-03     581.843E-03    -291.175E-03     15.9151E-03    -290.809E-03     581.173E-03    -291.107E-03     16.5620E-03
            2017     2.69057E-03     40.1728E-03    -107.195E+06    -202.618E+06    -84.6815E+06     46.8626E+03    -290.864E-03     582.076E-03    -291.213E-03     12.8698E-03    -290.984E-03     581.343E-03    -291.187E-03     13.4928E-03
            2018     2.01782E-03     40.1523E-03    -112.385E+06    -218.251E+06    -98.7932E+06     68.2053E+03    -291.024E-03     582.263E-03    -291.239E-03     9.76844E-03    -291.127E-03     581.479E-03    -291.254E-03     10.2993E-03
            2019     1.34512E-03     40.1377E-03    -116.309E+06    -230.670E+06    -109.783E+06     68.0113E+03    -291.148E-03     582.410E-03    -291.262E-03     6.62743E-03    -291.236E-03     581.585E-03    -291.308E-03     7.01425E-03
            2020     672.550E-06     40.1285E-03    -118.698E+06    -238.655E+06    -116.958E+06     160.315E+03    -291.263E-03     582.528E-03    -291.265E-03     3.63391E-03    -291.341E-03     581.676E-03    -291.331E-03     3.85328E-03
            2021     12.8035E-03     39.2439E-03    -5.99600E+06     69.8753E+06     95.2669E+06     182.674E+03    -287.076E-03     576.838E-03    -289.762E-03     32.4731E-03    -287.504E-03     577.216E-03    -289.378E-03     26.8043E-03
            2022     12.1272E-03     39.1873E-03    -11.7393E+06     65.4758E+06     95.8929E+06    -28.7405E+03    -287.333E-03     577.233E-03    -289.899E-03     38.9152E-03    -287.831E-03     577.643E-03    -289.498E-03     32.6181E-03
            2023     11.4526E-03     39.1278E-03    -16.7057E+06     60.7612E+06     92.7790E+06     91.4288E+03    -287.514E-03     577.537E-03    -290.023E-03     39.6226E-03    -288.004E-03     577.915E-03    -289.623E-03     34.0678E-03
            2024     10.7778E-03     39.0655E-03    -22.9722E+06     54.0282E+06     82.7315E+06     445.849E+03    -287.665E-03     577.790E-03    -290.125E-03     40.3613E-03    -288.146E-03     578.142E-03    -289.756E-03     35.4297E-03
            2025     10.1027E-03     39.0019E-03    -29.6885E+06     46.2703E+06     69.5783E+06     630.186E+03    -287.827E-03     578.052E-03    -290.225E-03     40.0463E-03    -288.287E-03     578.369E-03    -289.901E-03     35.8970E-03
            2026     9.42776E-03     38.9388E-03    -36.2968E+06     38.5334E+06     56.8454E+06     504.700E+03    -288.001E-03     578.338E-03    -290.336E-03     38.9684E-03    -288.437E-03     578.617E-03    -290.055E-03     35.6302E-03
            2027     8.75273E-03     38.8772E-03    -42.9901E+06     26.9613E+06     46.0113E+06     139.622E+03    -288.241E-03     578.712E-03    -290.472E-03     37.3736E-03    -288.651E-03     578.932E-03    -290.218E-03     34.8345E-03
            2028     8.07811E-03     38.8176E-03    -49.9391E+06     6.27046E+06     35.4784E+06     109.934E+03    -288.552E-03     579.178E-03    -290.626E-03     35.3557E-03    -288.929E-03     579.297E-03    -290.385E-03     33.5521E-03
            2029     7.40377E-03     38.7609E-03    -57.3328E+06    -25.4628E+06     22.9604E+06     369.026E+03    -288.921E-03     579.706E-03    -290.785E-03     33.0971E-03    -289.252E-03     579.677E-03    -290.550E-03     31.9431E-03
            2030     6.72969E-03     38.7074E-03    -65.0092E+06     -60.447E+06     8.59336E+06     507.758E+03    -289.295E-03     580.230E-03    -290.935E-03     30.6970E-03    -289.578E-03     580.043E-03    -290.711E-03     30.0943E-03
            2031     6.05575E-03     38.6577E-03    -72.4652E+06    -90.0193E+06    -5.83611E+06     426.271E+03    -289.640E-03     580.711E-03    -291.071E-03     28.1283E-03    -289.886E-03     580.397E-03    -290.865E-03     27.9647E-03
            2032     5.38206E-03     38.6120E-03    -79.8637E+06    -117.956E+06    -20.8573E+06     333.438E+03    -289.993E-03     581.186E-03    -291.193E-03     25.3882E-03    -290.205E-03     580.756E-03    -291.011E-03     25.5634E-03
            2033     4.70871E-03     38.5707E-03    -87.2707E+06    -142.204E+06    -36.6481E+06     238.060E+03    -290.330E-03     581.623E-03    -291.294E-03     22.5073E-03    -290.515E-03     581.101E-03    -291.144E-03     22.9198E-03
            2034     4.03560E-03     38.5341E-03    -94.4211E+06    -162.949E+06    -52.9152E+06     149.073E+03    -290.615E-03     581.989E-03    -291.373E-03     19.5270E-03    -290.779E-03     581.392E-03    -291.265E-03     20.0797E-03
            2035     3.36261E-03     38.5027E-03    -101.115E+06    -183.793E+06    -69.1336E+06     88.1996E+03    -290.874E-03     582.313E-03    -291.439E-03     16.4574E-03    -291.016E-03     581.644E-03    -291.371E-03     17.0637E-03
            2036     2.68983E-03     38.4765E-03    -107.202E+06    -202.651E+06    -84.7100E+06     77.2619E+03    -291.093E-03     582.583E-03    -291.490E-03     13.3008E-03    -291.213E-03     581.849E-03    -291.464E-03     13.8865E-03
            2037     2.01718E-03     38.4559E-03    -112.238E+06    -218.258E+06    -98.5844E+06     121.848E+03    -291.276E-03     582.807E-03    -291.531E-03     10.0942E-03    -291.378E-03     582.022E-03    -291.545E-03     10.6005E-03
            2038     1.34470E-03     38.4408E-03    -116.131E+06    -230.569E+06    -109.700E+06     115.535E+03    -291.447E-03     583.008E-03    -291.561E-03     6.86022E-03    -291.534E-03     582.183E-03    -291.607E-03     7.23785E-03
            2039     672.343E-06     38.4315E-03    -118.560E+06    -238.323E+06    -116.883E+06    -35.4018E+03    -291.558E-03     583.127E-03    -291.569E-03     3.73155E-03    -291.636E-03     582.277E-03    -291.636E-03     3.93906E-03
            2040     12.8023E-03     37.5555E-03    -5.11311E+06     70.9495E+06     96.7371E+06     741.856E+03    -287.056E-03     576.835E-03    -289.779E-03     31.8470E-03    -287.482E-03     577.214E-03    -289.391E-03     26.1913E-03
            2041     12.1283E-03     37.4978E-03    -10.5985E+06     66.2918E+06     96.9692E+06    -611.669E+03    -287.108E-03     577.030E-03    -289.922E-03     38.4950E-03    -287.605E-03     577.443E-03    -289.517E-03     32.1121E-03
            2042     11.4526E-03     37.4389E-03    -17.4041E+06     59.4611E+06     91.6609E+06    -795.696E+03    -287.152E-03     577.210E-03    -290.058E-03     39.9110E-03    -287.645E-03     577.587E-03    -289.661E-03     34.2989E-03
            2043     10.7769E-03     37.3761E-03    -23.8007E+06     52.6543E+06     81.6069E+06    -182.744E+03    -287.323E-03     577.509E-03    -290.186E-03     40.9699E-03    -287.809E-03     577.861E-03    -289.820E-03     35.9813E-03
            2044     10.1017E-03     37.3122E-03    -30.0373E+06     45.8584E+06     69.1193E+06     254.334E+03    -287.508E-03     577.822E-03    -290.314E-03     40.7428E-03    -287.972E-03     578.142E-03    -289.991E-03     36.5236E-03
            2045     9.42643E-03     37.2487E-03    -36.3361E+06     39.1926E+06     56.7788E+06     255.092E+03    -287.750E-03     578.204E-03    -290.454E-03     39.7452E-03    -288.190E-03     578.490E-03    -290.174E-03     36.3412E-03
            2046     8.75163E-03     37.1862E-03    -43.0370E+06     26.8468E+06     45.6213E+06     351.833E+03    -288.067E-03     578.683E-03    -290.616E-03     38.2056E-03    -288.481E-03     578.907E-03    -290.364E-03     35.5970E-03
            2047     8.07687E-03     37.1259E-03    -50.5393E+06     5.58816E+06     34.7183E+06     791.813E+03    -288.424E-03     579.220E-03    -290.796E-03     36.2623E-03    -288.805E-03     579.341E-03    -290.558E-03     34.3942E-03
            2048     7.40234E-03     37.0684E-03    -58.0639E+06    -25.3237E+06     22.4685E+06     791.434E+03    -288.823E-03     579.807E-03    -290.984E-03     34.0824E-03    -289.160E-03     579.783E-03    -290.751E-03     32.8623E-03
            2049     6.72806E-03     37.0142E-03    -65.3247E+06    -60.0978E+06     8.38676E+06     498.586E+03    -289.266E-03     580.429E-03    -291.164E-03     31.6936E-03    -289.553E-03     580.247E-03    -290.940E-03     31.0170E-03
            2050     6.05418E-03     36.9636E-03    -72.6492E+06    -89.8443E+06    -6.09624E+06     390.265E+03    -289.710E-03     581.035E-03    -291.325E-03     29.0725E-03    -289.958E-03     580.724E-03    -291.120E-03     28.8365E-03
            2051     5.38064E-03     36.9172E-03    -80.0530E+06    -117.817E+06    -21.0530E+06     366.241E+03    -290.126E-03     581.595E-03    -291.469E-03     26.2836E-03    -290.341E-03     581.169E-03    -291.287E-03     26.3904E-03
            2052     4.70734E-03     36.8750E-03    -87.3888E+06    -142.094E+06    -36.7417E+06     362.432E+03    -290.485E-03     582.076E-03    -291.591E-03     23.3604E-03    -290.672E-03     581.555E-03    -291.442E-03     23.7100E-03
            2053     4.03423E-03     36.8380E-03    -94.5022E+06    -162.740E+06    -53.0753E+06     326.641E+03    -290.824E-03     582.515E-03    -291.692E-03     20.3056E-03    -290.989E-03     581.921E-03    -291.584E-03     20.8035E-03
            2054     3.36146E-03     36.8058E-03    -101.255E+06    -183.666E+06    -69.4192E+06     258.322E+03    -291.145E-03     582.920E-03    -291.775E-03     17.1181E-03    -291.287E-03     582.252E-03    -291.709E-03     17.6745E-03
            2055     2.68891E-03     36.7794E-03    -107.301E+06    -202.525E+06    -84.9374E+06     204.533E+03    -291.420E-03     583.257E-03    -291.837E-03     13.8290E-03    -291.541E-03     582.524E-03    -291.813E-03     14.3697E-03
            2056     2.01651E-03     36.7583E-03    -112.422E+06    -218.334E+06    -98.7585E+06     167.985E+03    -291.649E-03     583.527E-03    -291.879E-03     10.4647E-03    -291.751E-03     582.742E-03    -291.893E-03     10.9373E-03
            2057     1.34425E-03     36.7429E-03    -116.278E+06    -230.194E+06    -109.722E+06     96.5799E+03    -291.798E-03     583.701E-03    -291.903E-03     7.06210E-03    -291.887E-03     582.878E-03    -291.949E-03     7.41016E-03
            2058     672.070E-06     36.7334E-03    -118.670E+06    -238.085E+06    -117.115E+06     8.88731E+03    -291.962E-03     583.806E-03    -291.845E-03     3.82733E-03    -292.040E-03     582.958E-03    -291.913E-03     4.02555E-03
            2059     12.8044E-03     35.8665E-03    -4.81846E+06     70.9510E+06     97.0088E+06         338.219    -286.695E-03     576.473E-03    -289.778E-03     32.1632E-03    -287.122E-03     576.853E-03    -289.389E-03     26.4456E-03
            2060     12.1274E-03     35.8108E-03    -9.94933E+06     66.3243E+06     97.2314E+06     556.484E+03    -286.547E-03     576.493E-03    -289.947E-03     39.3384E-03    -287.044E-03     576.908E-03    -289.542E-03     32.9986E-03
            2061     11.4515E-03     35.7505E-03    -16.4948E+06     59.4909E+06     91.9271E+06     429.663E+03    -286.713E-03     576.828E-03    -290.115E-03     40.6530E-03    -287.205E-03     577.207E-03    -289.718E-03     35.0559E-03
            2062     10.7762E-03     35.6873E-03    -23.3218E+06     52.2569E+06     81.3800E+06    -71.6742E+03    -286.891E-03     577.165E-03    -290.274E-03     41.6759E-03    -287.379E-03     577.520E-03    -289.909E-03     36.6289E-03
            2063     10.1005E-03     35.6230E-03    -30.3587E+06     45.6865E+06     68.6642E+06    -110.258E+03    -287.134E-03     577.571E-03    -290.436E-03     41.6389E-03    -287.605E-03     577.896E-03    -290.115E-03     37.3622E-03
            2064     9.42522E-03     35.5586E-03    -37.3016E+06     38.7155E+06     56.1128E+06     312.168E+03    -287.470E-03     578.080E-03    -290.611E-03     40.8012E-03    -287.918E-03     578.371E-03    -290.332E-03     37.3454E-03
            2065     8.74989E-03     35.4954E-03    -44.3747E+06     25.6812E+06     44.8017E+06     796.632E+03    -287.851E-03     578.658E-03    -290.807E-03     39.3822E-03    -288.273E-03     578.883E-03    -290.556E-03     36.7162E-03
            2066     8.07500E-03     35.4341E-03    -51.3069E+06     5.79353E+06     34.4697E+06     780.377E+03    -288.274E-03     579.295E-03    -291.021E-03     37.4784E-03    -288.663E-03     579.423E-03    -290.783E-03     35.5338E-03
            2067     7.40039E-03     35.3759E-03    -58.1598E+06    -24.4891E+06     22.4266E+06     420.317E+03    -288.765E-03     580.006E-03    -291.240E-03     35.2580E-03    -289.108E-03     579.990E-03    -291.009E-03     33.9472E-03
            2068     6.72617E-03     35.3205E-03    -65.4111E+06    -60.1108E+06     8.08429E+06     377.748E+03    -289.294E-03     580.744E-03    -291.450E-03     32.8008E-03    -289.584E-03     580.565E-03    -291.228E-03     32.0311E-03
            2069     6.05229E-03     35.2690E-03    -72.8716E+06    -89.8442E+06    -6.49875E+06     488.399E+03    -289.792E-03     581.432E-03    -291.640E-03     30.1565E-03    -290.043E-03     581.124E-03    -291.436E-03     29.8315E-03
            2070     5.37876E-03     35.2215E-03    -80.3283E+06    -117.735E+06    -21.4832E+06     458.858E+03    -290.265E-03     582.077E-03    -291.812E-03     27.3277E-03    -290.482E-03     581.653E-03    -291.632E-03     27.3445E-03
            2071     4.70553E-03     35.1789E-03    -87.7419E+06    -141.925E+06    -37.0551E+06     445.168E+03    -290.710E-03     582.670E-03    -291.961E-03     24.2984E-03    -290.900E-03     582.153E-03    -291.813E-03     24.5615E-03
            2072     4.03268E-03     35.1407E-03    -94.9708E+06    -162.577E+06    -53.3643E+06     461.726E+03    -291.112E-03     583.194E-03    -292.083E-03     21.1103E-03    -291.280E-03     582.603E-03    -291.976E-03     21.5312E-03
            2073     3.36008E-03     35.1081E-03    -101.692E+06    -183.395E+06    -69.7958E+06     405.986E+03    -291.478E-03     583.662E-03    -292.183E-03     17.7982E-03    -291.623E-03     582.997E-03    -292.119E-03     18.2854E-03
            2074     2.68770E-03     35.0808E-03    -107.611E+06    -202.181E+06    -85.2326E+06     258.766E+03    -291.813E-03     584.072E-03    -292.259E-03     14.4066E-03    -291.936E-03     583.342E-03    -292.236E-03     14.8919E-03
            2075     2.01566E-03     35.0593E-03    -112.676E+06    -218.040E+06    -98.9814E+06     152.669E+03    -292.068E-03     584.375E-03    -292.307E-03     10.9515E-03    -292.173E-03     583.593E-03    -292.322E-03     11.3734E-03
            2076     1.34376E-03     35.0438E-03    -116.560E+06    -229.995E+06    -110.031E+06     46.3055E+03    -292.229E-03     584.563E-03    -292.334E-03     7.45729E-03    -292.319E-03     583.742E-03    -292.381E-03     7.76709E-03
            2077     671.883E-06     35.0342E-03    -119.109E+06    -238.048E+06    -117.223E+06     82.9139E+03    -292.324E-03     584.670E-03    -292.347E-03     4.12477E-03    -292.404E-03     583.823E-03    -292.415E-03     4.30703E-03
            2078     12.8020E-03     34.1809E-03    -5.43497E+06     70.1734E+06     95.8182E+06    -605.096E+03    -286.048E-03     575.849E-03    -289.801E-03     32.7186E-03    -286.478E-03     576.231E-03    -289.416E-03     26.9768E-03
            2079     12.1268E-03     34.1229E-03    -11.1469E+06     65.5644E+06     96.3504E+06     99.4483E+03    -286.153E-03     576.156E-03    -290.002E-03     39.7508E-03    -286.657E-03     576.573E-03    -289.600E-03     33.3799E-03
            2080     11.4511E-03     34.0627E-03    -16.8437E+06     59.7520E+06     91.9872E+06     635.875E+03    -286.167E-03     576.372E-03    -290.205E-03     41.3395E-03    -286.666E-03     576.757E-03    -289.807E-03     35.6990E-03
            2081     10.7747E-03     33.9994E-03    -23.2387E+06     52.5147E+06     81.3178E+06     871.638E+03    -286.383E-03     576.786E-03    -290.403E-03     42.7649E-03    -286.875E-03     577.146E-03    -290.039E-03     37.7113E-03
            2082     10.0988E-03     33.9341E-03    -29.9602E+06     45.5716E+06     68.5609E+06     897.785E+03    -286.778E-03     577.383E-03    -290.605E-03     42.8327E-03    -287.251E-03     577.712E-03    -290.284E-03     38.5401E-03
            2083     9.42299E-03     33.8688E-03    -37.1065E+06     37.9209E+06     56.1364E+06     941.763E+03    -287.197E-03     578.016E-03    -290.818E-03     41.9894E-03    -287.650E-03     578.308E-03    -290.539E-03     38.4764E-03
            2084     8.74775E-03     33.8045E-03    -43.7700E+06     26.1054E+06     45.3413E+06     638.154E+03    -287.647E-03     578.698E-03    -291.052E-03     40.5669E-03    -288.073E-03     578.930E-03    -290.799E-03     37.8052E-03
            2085     8.07268E-03     33.7423E-03    -50.4372E+06     6.34215E+06     34.8343E+06     220.680E+03    -288.160E-03     579.461E-03    -291.301E-03     38.6836E-03    -288.552E-03     579.595E-03    -291.063E-03     36.6252E-03
            2086     7.39805E-03     33.6826E-03    -57.8013E+06    -25.1127E+06     22.2506E+06     545.238E+03    -288.745E-03     580.300E-03    -291.555E-03     36.4948E-03    -289.089E-03     580.285E-03    -291.323E-03     35.0708E-03
            2087     6.72381E-03     33.6263E-03    -65.4798E+06    -60.2499E+06     7.86140E+06     917.367E+03    -289.345E-03     581.142E-03    -291.797E-03     34.0592E-03    -289.639E-03     580.967E-03    -291.576E-03     33.1799E-03
            2088     6.04998E-03     33.5736E-03    -73.1101E+06    -89.6284E+06    -6.62713E+06     806.951E+03    -289.910E-03     581.930E-03    -292.020E-03     31.3550E-03    -290.165E-03     581.627E-03    -291.817E-03     30.9156E-03
            2089     5.37649E-03     33.5252E-03    -80.6792E+06    -117.404E+06    -21.6376E+06     724.520E+03    -290.462E-03     582.685E-03    -292.223E-03     28.4128E-03    -290.683E-03     582.266E-03    -292.044E-03     28.3217E-03
            2090     4.70348E-03     33.4811E-03    -88.1710E+06    -141.621E+06    -37.3801E+06     624.165E+03    -290.986E-03     583.385E-03    -292.399E-03     25.3047E-03    -291.180E-03     582.872E-03    -292.252E-03     25.4680E-03
            2091     4.03082E-03     33.4424E-03    -95.3025E+06    -162.318E+06    -53.5608E+06     472.552E+03    -291.451E-03     583.997E-03    -292.546E-03     22.0429E-03    -291.623E-03     583.409E-03    -292.440E-03     22.3673E-03
            2092     3.35844E-03     33.4088E-03    -101.900E+06    -183.015E+06    -69.7663E+06     331.808E+03    -291.872E-03     584.541E-03    -292.669E-03     18.6395E-03    -292.019E-03     583.879E-03    -292.605E-03     19.0451E-03
            2093     2.68647E-03     33.3808E-03    -107.925E+06    -201.810E+06    -85.4605E+06     211.174E+03    -292.230E-03     584.996E-03    -292.766E-03     15.1279E-03    -292.355E-03     584.269E-03    -292.744E-03     15.5438E-03
            2094     2.01457E-03     33.3588E-03    -112.966E+06    -217.714E+06    -99.3683E+06     76.5451E+03    -292.517E-03     585.358E-03    -292.841E-03     11.5137E-03    -292.623E-03     584.578E-03    -292.859E-03     11.8771E-03
            2095     1.34285E-03     33.3429E-03    -116.821E+06    -229.918E+06    -110.469E+06     32.8522E+03    -292.743E-03     585.639E-03    -292.896E-03     7.84064E-03    -292.834E-03     584.820E-03    -292.946E-03     8.11154E-03
            2096     671.384E-06     33.3330E-03    -119.194E+06    -238.010E+06    -117.689E+06    -14.8947E+03    -292.866E-03     585.824E-03    -292.957E-03     4.26794E-03    -292.947E-03     584.977E-03    -293.028E-03     4.41752E-03
            2097     12.8028E-03     32.4930E-03    -4.92531E+06     70.3236E+06     96.4835E+06      74.441E+03    -285.433E-03     575.274E-03    -289.841E-03     32.6283E-03    -285.863E-03     575.656E-03    -289.453E-03     26.8757E-03
            2098     12.1262E-03     32.4365E-03    -11.6392E+06     65.0246E+06     95.6354E+06    -160.150E+03    -285.352E-03     575.432E-03    -290.080E-03     40.3878E-03    -285.861E-03     575.853E-03    -289.679E-03     33.9859E-03
            2099     11.4491E-03     32.3765E-03    -18.1773E+06     59.0294E+06     90.8206E+06     150.428E+03    -285.584E-03     575.913E-03    -290.329E-03     42.3978E-03    -286.093E-03     576.303E-03    -289.934E-03     36.7378E-03
            2100     10.7727E-03     32.3118E-03    -24.5004E+06     52.0473E+06     80.8251E+06     377.703E+03    -286.019E-03     576.587E-03    -290.568E-03     43.6411E-03    -286.522E-03     576.954E-03    -290.204E-03     38.5295E-03
            2101     10.0965E-03     32.2454E-03    -30.5907E+06     44.9109E+06     68.6374E+06     670.918E+03    -286.450E-03     577.258E-03    -290.808E-03     43.6390E-03    -286.932E-03     577.592E-03    -290.485E-03     39.2390E-03
            2102     9.42085E-03     32.1790E-03    -36.6616E+06     38.3578E+06     56.5379E+06     663.576E+03    -286.901E-03     577.959E-03    -291.058E-03     42.9249E-03    -287.359E-03     578.260E-03    -290.778E-03     39.2788E-03
            2103     8.74521E-03     32.1136E-03    -43.4222E+06     27.0329E+06     45.3807E+06     520.147E+03    -287.414E-03     578.744E-03    -291.330E-03     41.6679E-03    -287.847E-03     578.987E-03    -291.079E-03     38.7717E-03
            2104     8.07009E-03     32.0500E-03    -50.8878E+06     5.61115E+06     34.3870E+06     968.107E+03    -288.003E-03     579.626E-03    -291.623E-03     39.9071E-03    -288.401E-03     579.764E-03    -291.385E-03     37.7263E-03
            2105     7.39532E-03     31.9891E-03    -58.6824E+06    -26.0301E+06     21.7734E+06     1.38554E+06    -288.674E-03     580.594E-03    -291.920E-03     37.7862E-03    -289.026E-03     580.582E-03    -291.688E-03     36.2433E-03
            2106     6.72103E-03     31.9313E-03    -66.2056E+06    -59.7278E+06     7.73575E+06     1.25087E+06    -289.376E-03     581.580E-03    -292.204E-03     35.3600E-03    -289.679E-03     581.413E-03    -291.982E-03     34.3528E-03
            2107     6.04725E-03     31.8773E-03    -73.6814E+06    -88.9676E+06    -6.67718E+06     1.01835E+06    -290.054E-03     582.519E-03    -292.464E-03     32.6491E-03    -290.317E-03     582.224E-03    -292.262E-03     32.0880E-03
            2108     5.37401E-03     31.8275E-03    -81.1233E+06    -116.964E+06    -21.6579E+06     788.569E+03    -290.694E-03     583.397E-03    -292.703E-03     29.6920E-03    -290.921E-03     582.984E-03    -292.524E-03     29.4870E-03
            2109     4.70109E-03     31.7824E-03    -88.3402E+06    -141.110E+06    -37.3235E+06     574.667E+03    -291.274E-03     584.188E-03    -292.914E-03     26.5196E-03    -291.472E-03     583.679E-03    -292.768E-03     26.5787E-03
            2110     4.02858E-03     31.7424E-03    -95.2967E+06    -161.822E+06    -53.6283E+06     325.933E+03    -291.820E-03     584.915E-03    -293.095E-03     23.1591E-03    -291.993E-03     584.331E-03    -292.990E-03     23.3901E-03
            2111     3.35655E-03     31.7079E-03    -101.847E+06    -182.725E+06    -69.9106E+06     138.057E+03    -292.316E-03     585.565E-03    -293.250E-03     19.6345E-03    -292.464E-03     584.906E-03    -293.187E-03     19.9554E-03
            2112     2.68469E-03     31.6792E-03    -107.733E+06    -201.543E+06    -85.4504E+06     98.0370E+03    -292.736E-03     586.113E-03    -293.377E-03     15.9424E-03    -292.861E-03     585.389E-03    -293.356E-03     16.2891E-03
            2113     2.01325E-03     31.6565E-03    -112.829E+06    -217.637E+06    -99.3586E+06     61.4801E+03    -293.101E-03     586.579E-03    -293.477E-03     12.1147E-03    -293.207E-03     585.799E-03    -293.495E-03     12.4332E-03
            2114     1.34211E-03     31.6400E-03    -116.653E+06    -229.910E+06    -110.165E+06     106.591E+03    -293.382E-03     586.929E-03    -293.547E-03     8.20133E-03    -293.473E-03     586.109E-03    -293.596E-03     8.43939E-03
            2115     670.975E-06     31.6299E-03    -119.077E+06    -237.845E+06    -117.424E+06     120.418E+03    -293.557E-03     587.133E-03    -293.575E-03     4.46037E-03    -293.638E-03     586.286E-03    -293.645E-03     4.59361E-03
            2116     12.8019E-03     30.8092E-03    -4.94369E+06     69.5632E+06     95.8119E+06     733.014E+03    -284.552E-03     574.450E-03    -289.898E-03     33.5540E-03    -284.982E-03     574.831E-03    -289.513E-03     27.8656E-03
            2117     12.1240E-03     30.7520E-03    -10.3693E+06     65.5302E+06     96.4421E+06     1.20968E+06    -284.842E-03     575.027E-03    -290.185E-03     41.0271E-03    -285.348E-03     575.449E-03    -289.782E-03     34.6732E-03
            2118     11.4475E-03     30.6898E-03    -16.7017E+06     59.8629E+06     92.0912E+06     360.049E+03    -285.253E-03     575.719E-03    -290.466E-03     42.6097E-03    -285.763E-03     576.115E-03    -290.068E-03     36.8545E-03
            2119     10.7710E-03     30.6244E-03    -23.5579E+06     52.2951E+06     81.7586E+06    -169.295E+03    -285.585E-03     576.324E-03    -290.739E-03     44.1185E-03    -286.093E-03     576.697E-03    -290.372E-03     38.8603E-03
            2120     10.0947E-03     30.5570E-03    -30.3219E+06     44.0707E+06     68.4572E+06    -194.899E+03    -285.984E-03     577.001E-03    -291.018E-03     44.5473E-03    -286.471E-03     577.339E-03    -290.695E-03     39.9984E-03
            2121     9.41835E-03     30.4896E-03    -37.0727E+06     37.2944E+06     55.3951E+06     537.966E+03    -286.491E-03     577.804E-03    -291.313E-03     44.0829E-03    -286.956E-03     578.110E-03    -291.037E-03     40.3080E-03
            2122     8.74261E-03     30.4226E-03    -44.2120E+06     25.9700E+06     44.4160E+06     1.63976E+06    -287.102E-03     578.739E-03    -291.637E-03     42.9441E-03    -287.543E-03     578.986E-03    -291.389E-03     39.9449E-03
            2123     8.06717E-03     30.3577E-03    -51.7355E+06     5.20205E+06     34.1519E+06     2.03568E+06    -287.810E-03     579.793E-03    -291.983E-03     41.2504E-03    -288.218E-03     579.936E-03    -291.744E-03     38.9627E-03
            2124     7.39228E-03     30.2950E-03    -59.0742E+06    -24.9403E+06     22.1235E+06     1.60689E+06    -288.589E-03     580.917E-03    -292.329E-03     39.1564E-03    -288.950E-03     580.916E-03    -292.096E-03     37.4964E-03
            2125     6.71798E-03     30.2356E-03    -66.3094E+06    -58.6933E+06     8.03442E+06     943.824E+03    -289.390E-03     582.049E-03    -292.659E-03     36.7330E-03    -289.699E-03     581.892E-03    -292.438E-03     35.6082E-03
            2126     6.04420E-03     30.1799E-03    -73.4692E+06    -88.4283E+06    -6.42474E+06     574.803E+03    -290.169E-03     583.136E-03    -292.968E-03     34.0107E-03    -290.435E-03     582.847E-03    -292.765E-03     33.3394E-03
            2127     5.37090E-03     30.1286E-03    -80.5442E+06    -116.497E+06    -21.3270E+06     393.593E+03    -290.923E-03     584.176E-03    -293.252E-03     30.9940E-03    -291.151E-03     583.766E-03    -293.073E-03     30.6828E-03
            2128     4.69821E-03     30.0822E-03    -87.6171E+06    -140.620E+06    -36.8861E+06     191.763E+03    -291.623E-03     585.128E-03    -293.505E-03     27.7121E-03    -291.820E-03     584.622E-03    -293.358E-03     27.6702E-03
            2129     4.02600E-03     30.0408E-03    -94.5503E+06    -161.618E+06    -53.1302E+06     114.610E+03    -292.248E-03     585.972E-03    -293.724E-03     24.2077E-03    -292.420E-03     585.388E-03    -293.618E-03     24.3538E-03
            2130     3.35415E-03     30.0052E-03    -101.119E+06    -182.587E+06    -69.4526E+06     106.331E+03    -292.830E-03     586.744E-03    -293.915E-03     20.5129E-03    -292.976E-03     586.085E-03    -293.850E-03     20.7652E-03
            2131     2.68286E-03     29.9754E-03    -107.062E+06    -201.528E+06    -84.8653E+06     76.4719E+03    -293.359E-03     587.429E-03    -294.070E-03     16.6446E-03    -293.483E-03     586.703E-03    -294.047E-03     16.9402E-03
            2132     2.01181E-03     29.9519E-03    -112.089E+06    -217.628E+06    -98.5606E+06     118.595E+03    -293.781E-03     587.968E-03    -294.187E-03     12.6404E-03    -293.884E-03     587.186E-03    -294.201E-03     12.9192E-03
            2133     1.34099E-03     29.9347E-03    -116.017E+06    -229.895E+06    -109.592E+06     65.9851E+03    -294.086E-03     588.352E-03    -294.266E-03     8.59194E-03    -294.175E-03     587.530E-03    -294.312E-03     8.80472E-03
            2134     670.535E-06     29.9243E-03    -118.308E+06    -237.617E+06    -116.672E+06    -29.2543E+03    -294.212E-03     588.580E-03    -294.369E-03     4.70509E-03    -294.289E-03     587.733E-03    -294.436E-03     4.81076E-03
            2135     12.7997E-03     29.1252E-03    -5.36123E+06     69.4237E+06     95.6859E+06     327.645E+03    -284.134E-03     574.086E-03    -289.952E-03     32.9282E-03    -284.564E-03     574.466E-03    -289.567E-03     27.2381E-03
            2136     12.1237E-03     29.0660E-03    -10.8034E+06     65.3276E+06     96.6061E+06    -198.804E+03    -284.405E-03     574.671E-03    -290.266E-03     40.6350E-03    -284.917E-03     575.097E-03    -289.862E-03     34.1413E-03
            2137     11.4466E-03     29.0042E-03    -16.6213E+06     59.7198E+06     92.1985E+06     346.869E+03    -284.506E-03     575.092E-03    -290.586E-03     43.1710E-03    -285.022E-03     575.494E-03    -290.188E-03     37.3055E-03
            2138     10.7693E-03     28.9379E-03    -22.8206E+06     52.8493E+06     81.8247E+06     552.907E+03    -284.847E-03     575.759E-03    -290.912E-03     45.2343E-03    -285.361E-03     576.142E-03    -290.546E-03     39.8993E-03
            2139     10.0921E-03     28.8695E-03    -29.7062E+06     44.2808E+06     68.2059E+06     328.541E+03    -285.407E-03     576.655E-03    -291.248E-03     45.8655E-03    -285.899E-03     577.002E-03    -290.929E-03     41.2471E-03
            2140     9.41573E-03     28.8003E-03    -36.4284E+06     34.1698E+06     55.2373E+06     857.646E+03    -286.092E-03     577.697E-03    -291.604E-03     45.4586E-03    -286.557E-03     577.993E-03    -291.325E-03     41.6070E-03
            2141     8.73949E-03     28.7319E-03    -43.0129E+06     23.2266E+06     45.1477E+06     2.35350E+06    -286.850E-03     578.833E-03    -291.982E-03     44.2992E-03    -287.288E-03     579.069E-03    -291.728E-03     41.2304E-03
            2142     8.06396E-03     28.6648E-03    -49.9165E+06     7.16384E+06     35.8902E+06     2.61652E+06    -287.663E-03     580.037E-03    -292.374E-03     42.5684E-03    -288.073E-03     580.191E-03    -292.133E-03     40.1990E-03
            2143     7.38900E-03     28.6004E-03    -57.2099E+06    -22.3905E+06     23.6909E+06     1.49445E+06    -288.537E-03     581.304E-03    -292.767E-03     40.4358E-03    -288.899E-03     581.315E-03    -292.533E-03     38.6820E-03
            2144     6.71457E-03     28.5390E-03    -64.5615E+06    -57.4569E+06     9.16586E+06     694.838E+03    -289.454E-03     582.599E-03    -293.145E-03     37.9287E-03    -289.762E-03     582.447E-03    -292.922E-03     36.7240E-03
            2145     6.04082E-03     28.4816E-03    -71.9480E+06    -88.1267E+06    -5.54456E+06     385.348E+03    -290.359E-03     583.857E-03    -293.498E-03     35.0416E-03    -290.622E-03     583.568E-03    -293.294E-03     34.2905E-03
            2146     5.36773E-03     28.4284E-03    -79.4044E+06    -116.067E+06    -20.6622E+06     210.578E+03    -291.216E-03     585.038E-03    -293.821E-03     31.8442E-03    -291.442E-03     584.630E-03    -293.641E-03     31.4560E-03
            2147     4.69521E-03     28.3801E-03    -86.7458E+06    -140.370E+06    -36.3304E+06     33.7879E+03    -292.011E-03     586.121E-03    -294.110E-03     28.4136E-03    -292.206E-03     585.615E-03    -293.962E-03     28.2964E-03
            2148     4.02327E-03     28.3374E-03    -93.8560E+06    -161.768E+06    -52.4858E+06     49.3766E+03    -292.743E-03     587.103E-03    -294.360E-03     24.7762E-03    -292.913E-03     586.518E-03    -294.252E-03     24.8588E-03
            2149     3.35187E-03     28.3003E-03    -100.613E+06    -182.623E+06    -68.8436E+06     164.288E+03    -293.407E-03     587.980E-03    -294.573E-03     20.9304E-03    -293.552E-03     587.319E-03    -294.506E-03     21.1387E-03
            2150     2.68083E-03     28.2693E-03    -106.637E+06    -201.552E+06    -84.4448E+06     202.373E+03    -293.972E-03     588.717E-03    -294.744E-03     16.9493E-03    -294.095E-03     587.990E-03    -294.720E-03     17.2096E-03
            2151     2.01033E-03     28.2448E-03    -111.607E+06    -217.639E+06    -98.0816E+06     136.446E+03    -294.428E-03     589.305E-03    -294.877E-03     12.8786E-03    -294.530E-03     588.523E-03    -294.890E-03     13.1250E-03
            2152     1.34009E-03     28.2271E-03    -115.410E+06    -229.655E+06    -109.053E+06     82.1504E+03    -294.756E-03     589.730E-03    -294.974E-03     8.74390E-03    -294.843E-03     588.908E-03    -295.019E-03     8.93510E-03
            2153     669.886E-06     28.2160E-03    -117.718E+06    -237.508E+06    -116.289E+06    -45.5835E+03    -294.921E-03     590.017E-03    -295.096E-03     4.72180E-03    -294.996E-03     589.169E-03    -295.163E-03     4.81607E-03
            2154     12.8020E-03     27.4408E-03    -5.30212E+06     69.4355E+06     95.9495E+06     332.092E+03    -283.502E-03     573.475E-03    -289.973E-03     33.1455E-03    -283.936E-03     573.858E-03    -289.586E-03     27.4002E-03
            2155     12.1231E-03     27.3832E-03    -10.3986E+06     65.2096E+06     96.1006E+06     81.8421E+03    -283.257E-03     573.591E-03    -290.334E-03     41.6913E-03    -283.773E-03     574.023E-03    -289.933E-03     35.1582E-03
            2156     11.4447E-03     27.3199E-03    -17.0412E+06     59.1405E+06     90.7412E+06    -147.405E+03    -283.583E-03     574.302E-03    -290.719E-03     44.4462E-03    -284.105E-03     574.711E-03    -290.326E-03     38.5657E-03
            2157     10.7668E-03     27.2526E-03    -23.3629E+06     52.2296E+06     80.4365E+06     104.683E+03    -284.217E-03     575.322E-03    -291.105E-03     46.3473E-03    -284.736E-03     575.710E-03    -290.745E-03     40.9743E-03
            2158     10.0896E-03     27.1822E-03    -29.6798E+06     44.4928E+06     68.2777E+06     608.333E+03    -284.944E-03     576.444E-03    -291.499E-03     46.8748E-03    -285.443E-03     576.796E-03    -291.179E-03     42.2158E-03
            2159     9.41255E-03     27.1113E-03    -36.2792E+06     31.8961E+06     55.6342E+06     915.992E+03    -285.802E-03     577.709E-03    -291.907E-03     46.4382E-03    -286.268E-03     577.998E-03    -291.623E-03     42.5471E-03
            2160     8.73641E-03     27.0406E-03    -42.8282E+06     20.4067E+06     45.2900E+06     1.56965E+06    -286.717E-03     579.044E-03    -292.328E-03     45.2162E-03    -287.154E-03     579.271E-03    -292.069E-03     42.0925E-03
            2161     8.06073E-03     26.9716E-03    -49.2129E+06     8.92449E+06     36.5936E+06     1.91075E+06    -287.630E-03     580.383E-03    -292.753E-03     43.3683E-03    -288.042E-03     580.546E-03    -292.512E-03     40.9455E-03
            2162     7.38565E-03     26.9050E-03    -56.0994E+06    -19.8137E+06     24.6943E+06     1.45581E+06    -288.634E-03     581.813E-03    -293.179E-03     41.0242E-03    -288.998E-03     581.836E-03    -292.946E-03     39.2259E-03
            2163     6.71136E-03     26.8416E-03    -63.6412E+06    -56.5954E+06     10.0283E+06     1.05671E+06    -289.661E-03     583.249E-03    -293.588E-03     38.2841E-03    -289.968E-03     583.100E-03    -293.363E-03     37.0439E-03
            2164     6.03780E-03     26.7818E-03    -71.3004E+06    -87.5499E+06    -4.82851E+06     835.342E+03    -290.634E-03     584.599E-03    -293.964E-03     35.2374E-03    -290.897E-03     584.311E-03    -293.758E-03     34.4609E-03
            2165     5.36493E-03     26.7267E-03    -78.8585E+06    -115.590E+06    -20.0701E+06     562.615E+03    -291.551E-03     585.860E-03    -294.308E-03     31.9403E-03    -291.776E-03     585.453E-03    -294.127E-03     31.5283E-03
            2166     4.69269E-03     26.6766E-03    -86.2879E+06    -140.122E+06    -35.9213E+06     427.452E+03    -292.407E-03     587.021E-03    -294.614E-03     28.4195E-03    -292.601E-03     586.516E-03    -294.465E-03     28.2905E-03
            2167     4.02105E-03     26.6320E-03    -93.5982E+06    -161.735E+06    -52.4054E+06     359.996E+03    -293.206E-03     588.082E-03    -294.876E-03     24.7168E-03    -293.375E-03     587.497E-03    -294.768E-03     24.7931E-03
            2168     3.35000E-03     26.5933E-03    -100.340E+06    -182.697E+06    -68.7419E+06     322.627E+03    -293.910E-03     589.005E-03    -295.095E-03     20.8613E-03    -294.054E-03     588.344E-03    -295.029E-03     21.0575E-03
            2169     2.67951E-03     26.5612E-03    -106.283E+06    -201.353E+06    -84.2512E+06     284.164E+03    -294.483E-03     589.754E-03    -295.271E-03     16.8628E-03    -294.604E-03     589.027E-03    -295.247E-03     17.1050E-03
            2170     2.00917E-03     26.5356E-03      -111.3E+06    -217.366E+06    -97.9569E+06     188.425E+03    -294.938E-03     590.349E-03    -295.410E-03     12.7735E-03    -295.039E-03     589.567E-03    -295.423E-03     13.0074E-03
            2171     1.33923E-03     26.5170E-03    -115.057E+06    -229.457E+06    -108.686E+06     113.014E+03    -295.291E-03     590.804E-03    -295.513E-03     8.65604E-03    -295.376E-03     589.981E-03    -295.557E-03     8.83878E-03
            2172     669.633E-06     26.5058E-03    -117.580E+06    -237.401E+06    -115.822E+06     208.310E+03    -295.534E-03     591.097E-03    -295.563E-03     4.68923E-03    -295.610E-03     590.248E-03    -295.627E-03     4.80108E-03
            2173     12.7994E-03     25.7605E-03    -4.76207E+06     68.5717E+06     94.4854E+06    -514.169E+03    -282.241E-03     572.258E-03    -290.017E-03     34.3237E-03    -282.674E-03     572.644E-03    -289.637E-03     28.5342E-03
            2174     12.1211E-03     25.7013E-03    -10.1965E+06     64.9382E+06     95.1983E+06     485.515E+03    -282.579E-03     573.019E-03    -290.440E-03     42.7134E-03    -283.098E-03     573.456E-03    -290.043E-03     36.1894E-03
            2175     11.4428E-03     25.6371E-03    -15.8232E+06     59.7446E+06     90.9736E+06     810.362E+03    -283.102E-03     573.972E-03    -290.870E-03     45.1120E-03    -283.624E-03     574.386E-03    -290.479E-03     39.2151E-03
            2176     10.7648E-03     25.5673E-03    -22.8278E+06     51.8780E+06     80.2136E+06     721.113E+03    -283.824E-03     575.119E-03    -291.295E-03     46.9724E-03    -284.344E-03     575.509E-03    -290.936E-03     41.5903E-03
            2177     10.0871E-03     25.4956E-03    -29.9542E+06     43.5945E+06     67.6846E+06     832.671E+03    -284.751E-03     576.474E-03    -291.723E-03     47.4142E-03    -285.252E-03     576.827E-03    -291.404E-03     42.7349E-03
            2178     9.41018E-03     25.4221E-03    -36.8832E+06     31.4992E+06     55.0287E+06     1.02221E+06    -285.750E-03     577.907E-03    -292.157E-03     46.7533E-03    -286.219E-03     578.197E-03    -291.874E-03     42.8389E-03
            2179     8.73374E-03     25.3493E-03    -43.5159E+06     20.0823E+06     44.5552E+06     731.243E+03    -286.759E-03     579.356E-03    -292.596E-03     45.2902E-03    -287.200E-03     579.584E-03    -292.340E-03     42.1266E-03
            2180     8.05812E-03     25.2778E-03    -50.3042E+06     8.73476E+06     35.8754E+06     601.073E+03    -287.788E-03     580.825E-03    -293.036E-03     43.2288E-03    -288.205E-03     580.990E-03    -292.797E-03     40.7664E-03
            2181     7.38335E-03     25.2087E-03    -57.2541E+06    -19.4498E+06     24.2486E+06     883.356E+03    -288.869E-03     582.340E-03    -293.471E-03     40.7148E-03    -289.239E-03     582.367E-03    -293.238E-03     38.8922E-03
            2182     6.70932E-03     25.1430E-03    -64.3241E+06     -56.115E+06     9.83332E+06     1.02865E+06    -289.931E-03     583.813E-03    -293.882E-03     37.8841E-03    -290.241E-03     583.667E-03    -293.658E-03     36.6284E-03
            2183     6.03597E-03     25.0811E-03    -71.6041E+06    -86.8672E+06    -4.88018E+06     982.051E+03    -290.908E-03     585.168E-03    -294.259E-03     34.7874E-03    -291.173E-03     584.884E-03    -294.054E-03     34.0094E-03
            2184     5.36326E-03     25.0237E-03    -79.0693E+06    -115.072E+06    -20.1954E+06     904.104E+03    -291.842E-03     586.445E-03    -294.603E-03     31.4450E-03    -292.068E-03     586.040E-03    -294.423E-03     31.0399E-03
            2185     4.69125E-03     24.9717E-03    -86.3705E+06    -139.678E+06    -36.0680E+06     815.718E+03    -292.730E-03     587.636E-03    -294.906E-03     27.9235E-03    -292.925E-03     587.133E-03    -294.758E-03     27.8100E-03
            2186     4.01988E-03     24.9252E-03    -93.4238E+06    -161.318E+06    -52.3586E+06     659.087E+03    -293.514E-03     588.677E-03    -295.163E-03     24.2369E-03    -293.682E-03     588.093E-03    -295.056E-03     24.3175E-03
            2187     3.34900E-03     24.8850E-03    -100.144E+06    -182.335E+06    -68.5836E+06     506.955E+03    -294.184E-03     589.565E-03    -295.381E-03     20.4398E-03    -294.328E-03     588.905E-03    -295.314E-03     20.6328E-03
            2188     2.67853E-03     24.8514E-03    -106.108E+06    -201.000E+06    -84.0488E+06     383.089E+03    -294.768E-03     590.325E-03    -295.558E-03     16.5516E-03    -294.889E-03     589.600E-03    -295.532E-03     16.7883E-03
            2189     2.00869E-03     24.8250E-03    -111.105E+06    -216.875E+06    -97.7930E+06     245.595E+03    -295.238E-03     590.930E-03    -295.692E-03     12.5612E-03    -295.339E-03     590.150E-03    -295.706E-03     12.7899E-03
            2190     1.33894E-03     24.8057E-03    -114.909E+06    -229.180E+06    -108.624E+06     119.924E+03    -295.579E-03     591.367E-03    -295.788E-03     8.51572E-03    -295.665E-03     590.546E-03    -295.832E-03     8.69846E-03
            2191     669.369E-06     24.7936E-03    -117.318E+06    -236.991E+06    -115.644E+06     71.8551E+03    -295.792E-03     591.641E-03    -295.849E-03     4.64995E-03    -295.867E-03     590.794E-03    -295.914E-03     4.75424E-03
            2192     12.7992E-03     24.0801E-03    -4.21184E+06     69.0158E+06     94.4820E+06    -316.374E+03    -281.532E-03     571.601E-03    -290.070E-03     33.9832E-03    -281.964E-03     571.990E-03    -289.691E-03     28.1534E-03
            2193     12.1201E-03     24.0198E-03    -11.0741E+06     64.3275E+06     94.0499E+06    -611.812E+03    -282.020E-03     572.548E-03    -290.528E-03     42.5980E-03    -282.543E-03     572.987E-03    -290.135E-03     36.0100E-03
            2194     11.4415E-03     23.9540E-03    -17.6129E+06      57.942E+06     89.8003E+06     275.783E+03    -282.841E-03     573.832E-03    -290.991E-03     45.5347E-03    -283.370E-03     574.244E-03    -290.600E-03     39.6131E-03
            2195     10.7630E-03     23.8831E-03    -23.6698E+06     51.1388E+06     80.5050E+06     1.22388E+06    -283.881E-03     575.315E-03    -291.434E-03     47.1675E-03    -284.406E-03     575.705E-03    -291.072E-03     41.7630E-03
            2196     10.0855E-03     23.8081E-03    -29.7944E+06     43.8254E+06     67.9496E+06     1.30210E+06    -284.917E-03     576.777E-03    -291.861E-03     47.1631E-03    -285.418E-03     577.132E-03    -291.541E-03     42.4437E-03
            2197     9.40862E-03     23.7328E-03    -36.1315E+06     32.4730E+06     55.1062E+06     986.663E+03    -285.971E-03     578.258E-03    -292.287E-03     46.2609E-03    -286.439E-03     578.553E-03    -292.006E-03     42.3049E-03
            2198     8.73261E-03     23.6572E-03    -42.7613E+06     21.1794E+06     44.9563E+06     660.794E+03    -287.033E-03     579.750E-03    -292.717E-03     44.6248E-03    -287.471E-03     579.981E-03    -292.461E-03     41.4401E-03
            2199     8.05730E-03     23.5833E-03    -49.8092E+06     8.56150E+06     35.7995E+06     445.330E+03    -288.062E-03     581.204E-03    -293.142E-03     42.4373E-03    -288.474E-03     581.366E-03    -292.903E-03     39.9672E-03
            2200     7.38263E-03     23.5118E-03    -57.2915E+06    -20.2009E+06     23.5286E+06     506.350E+03    -289.116E-03     582.675E-03    -293.559E-03     39.8813E-03    -289.482E-03     582.697E-03    -293.329E-03     38.0659E-03
            2201     6.70869E-03     23.4437E-03    -64.7455E+06    -56.1447E+06     9.05497E+06     704.990E+03    -290.171E-03     584.121E-03    -293.951E-03     36.9954E-03    -290.480E-03     583.976E-03    -293.730E-03     35.7459E-03
            2202     6.03551E-03     23.3796E-03    -72.0729E+06    -86.6536E+06    -5.38038E+06     818.851E+03    -291.154E-03     585.461E-03    -294.307E-03     33.8410E-03    -291.419E-03     585.178E-03    -294.104E-03     33.0651E-03
            2203     5.36301E-03     23.3202E-03    -79.3990E+06    -114.547E+06    -20.3279E+06     848.351E+03    -292.068E-03     586.693E-03    -294.625E-03     30.4535E-03    -292.296E-03     586.291E-03    -294.445E-03     30.0577E-03
            2204     4.69115E-03     23.2660E-03    -86.8347E+06    -139.080E+06    -36.0600E+06     774.076E+03    -292.880E-03     587.780E-03    -294.900E-03     26.9160E-03    -293.077E-03     587.280E-03    -294.753E-03     26.8039E-03
            2205     4.01985E-03     23.2179E-03    -93.7165E+06    -160.718E+06    -52.1337E+06     599.462E+03    -293.587E-03     588.721E-03    -295.134E-03     23.2804E-03    -293.758E-03     588.140E-03    -295.026E-03     23.3554E-03
            2206     3.34905E-03     23.1763E-03    -100.117E+06    -181.637E+06    -68.3318E+06     438.292E+03    -294.210E-03     589.542E-03    -295.332E-03     19.5517E-03    -294.355E-03     588.884E-03    -295.265E-03     19.7429E-03
            2207     2.67872E-03     23.1414E-03    -106.107E+06    -200.490E+06    -83.9436E+06     286.152E+03    -294.741E-03     590.232E-03    -295.491E-03     15.7425E-03    -294.862E-03     589.509E-03    -295.467E-03     15.9848E-03
            2208     2.00854E-03     23.1138E-03    -111.109E+06    -216.379E+06    -97.7183E+06     186.343E+03    -295.185E-03     590.799E-03    -295.613E-03     11.8991E-03    -295.287E-03     590.021E-03    -295.627E-03     12.1303E-03
            2209     1.33892E-03     23.0937E-03    -114.948E+06    -228.787E+06    -108.608E+06     137.871E+03    -295.508E-03     591.205E-03    -295.697E-03     8.06083E-03    -295.594E-03     590.386E-03    -295.742E-03     8.24177E-03
            2210     669.432E-06     23.0815E-03    -117.382E+06    -236.786E+06    -115.693E+06    -70.6261E+03    -295.644E-03     591.445E-03    -295.802E-03     4.38354E-03    -295.720E-03     590.600E-03    -295.867E-03     4.48152E-03
            2211     12.7994E-03     22.4013E-03    -5.36794E+06     68.5239E+06     94.5567E+06     348.337E+03    -281.244E-03     571.346E-03    -290.102E-03     34.7406E-03    -281.684E-03     571.736E-03    -289.721E-03     28.9475E-03
            2212     12.1196E-03     22.3402E-03    -10.8845E+06     64.5656E+06     94.9144E+06     1.05966E+06    -281.994E-03     572.567E-03    -290.573E-03     43.1169E-03    -282.519E-03     573.007E-03    -290.176E-03     36.5925E-03
            2213     11.4402E-03     22.2716E-03    -17.6581E+06     57.9316E+06     89.6526E+06     408.714E+03    -283.114E-03     574.139E-03    -291.026E-03     45.1240E-03    -283.645E-03     574.554E-03    -290.636E-03     39.1379E-03
            2214     10.7627E-03     22.1970E-03    -24.1181E+06     50.6803E+06     80.0753E+06    -309.140E+03    -284.214E-03     575.665E-03    -291.450E-03     46.4143E-03    -284.743E-03     576.055E-03    -291.088E-03     40.8919E-03
            2215     10.0857E-03     22.1208E-03    -30.0019E+06     43.3636E+06     69.5064E+06    -161.893E+03    -285.291E-03     577.152E-03    -291.861E-03     46.4313E-03    -285.796E-03     577.503E-03    -291.533E-03     41.6313E-03
            2216     9.40908E-03     22.0426E-03    -36.1502E+06     32.2884E+06     57.0488E+06     455.903E+03    -286.388E-03     578.644E-03    -292.256E-03     45.4018E-03    -286.856E-03     578.933E-03    -291.965E-03     41.4202E-03
            2217     8.73328E-03     21.9647E-03    -42.7390E+06     21.4153E+06     45.1895E+06     832.059E+03    -287.439E-03     580.079E-03    -292.639E-03     43.5886E-03    -287.875E-03     580.308E-03    -292.383E-03     40.4081E-03
            2218     8.05812E-03     21.8884E-03    -49.9067E+06     8.81748E+06     35.3463E+06     1.03588E+06    -288.430E-03     581.448E-03    -293.018E-03     41.2152E-03    -288.840E-03     581.610E-03    -292.782E-03     38.7716E-03
            2219     7.38370E-03     21.8147E-03    -57.4100E+06    -19.8306E+06     23.4934E+06     989.964E+03    -289.441E-03     582.830E-03    -293.389E-03     38.4338E-03    -289.806E-03     582.852E-03    -293.160E-03     36.6444E-03
            2220     6.71004E-03     21.7442E-03    -64.9095E+06    -55.7817E+06     9.23653E+06     653.584E+03    -290.431E-03     584.161E-03    -293.730E-03     35.3660E-03    -290.740E-03     584.015E-03    -293.509E-03     34.1254E-03
            2221     6.03703E-03     21.6780E-03    -72.3311E+06    -86.4797E+06    -5.25108E+06     527.681E+03    -291.339E-03     585.369E-03    -294.030E-03     32.1170E-03    -291.605E-03     585.086E-03    -293.826E-03     31.3414E-03
            2222     5.36470E-03     21.6165E-03    -79.6610E+06    -114.136E+06    -20.1812E+06     490.052E+03    -292.144E-03     586.433E-03    -294.289E-03     28.7380E-03    -292.373E-03     586.032E-03    -294.108E-03     28.3359E-03
            2223     4.69295E-03     21.5608E-03    -86.7100E+06    -138.381E+06    -35.6498E+06     296.203E+03    -292.827E-03     587.333E-03    -294.506E-03     25.2498E-03    -293.025E-03     586.835E-03    -294.358E-03     25.1204E-03
            2224     4.02157E-03     21.5111E-03    -93.6128E+06    -160.300E+06    -51.8992E+06     188.786E+03    -293.422E-03     588.107E-03    -294.685E-03     21.6777E-03    -293.593E-03     587.527E-03    -294.576E-03     21.7465E-03
            2225     3.35065E-03     21.4680E-03    -100.056E+06    -181.224E+06      -68.21E+06     156.486E+03    -293.946E-03     588.772E-03    -294.827E-03     18.0490E-03    -294.091E-03     588.117E-03    -294.760E-03     18.2324E-03
            2226     2.68006E-03     21.4322E-03    -105.840E+06    -200.003E+06    -83.6132E+06     96.0918E+03    -294.367E-03     589.300E-03    -294.933E-03     14.4201E-03    -294.488E-03     588.578E-03    -294.908E-03     14.6543E-03
            2227     2.00994E-03     21.4036E-03    -110.962E+06    -216.036E+06    -97.4778E+06     78.8495E+03    -294.679E-03     589.689E-03    -295.010E-03     10.8108E-03    -294.781E-03     588.913E-03    -295.023E-03     11.0359E-03
            2228     1.33977E-03     21.3830E-03    -114.732E+06    -228.519E+06    -108.423E+06     19.2958E+03    -294.909E-03     589.973E-03    -295.064E-03     7.26744E-03    -294.995E-03     589.155E-03    -295.108E-03     7.43434E-03
            2229     669.840E-06     21.3701E-03    -117.186E+06    -236.771E+06    -115.480E+06    -33.3161E+03    -295.039E-03     590.156E-03    -295.117E-03     3.91906E-03    -295.114E-03     589.309E-03    -295.181E-03     4.01152E-03
            2230     12.7977E-03     20.7232E-03    -5.75069E+06     67.8414E+06     94.7379E+06     414.247E+03    -281.726E-03     571.825E-03    -290.099E-03     34.5290E-03    -282.168E-03     572.213E-03    -289.716E-03     28.6969E-03
            2231     12.1192E-03     20.6582E-03    -11.2431E+06     63.9595E+06     95.5618E+06    -61.3616E+03    -282.811E-03     573.344E-03    -290.534E-03     42.4635E-03    -283.342E-03     573.786E-03    -290.132E-03     35.7652E-03
            2232     11.4424E-03     20.5876E-03    -16.1451E+06     58.5709E+06     91.3213E+06     389.383E+03    -283.694E-03     574.636E-03    -290.942E-03     44.6764E-03    -284.227E-03     575.055E-03    -290.547E-03     38.5310E-03
            2233     10.7644E-03     20.5119E-03    -22.4129E+06     51.3870E+06     80.2325E+06     612.808E+03    -284.699E-03     576.017E-03    -291.318E-03     45.9865E-03    -285.222E-03     576.410E-03    -290.959E-03     40.4114E-03
            2234     10.0872E-03     20.4323E-03    -30.0284E+06     43.3961E+06     67.4466E+06     233.463E+03    -285.898E-03     577.572E-03    -291.674E-03     45.6523E-03    -286.399E-03     577.924E-03    -291.356E-03     40.8592E-03
            2235     9.41120E-03     20.3520E-03    -37.2655E+06     31.3796E+06     55.1353E+06    -63.8890E+03    -287.085E-03     579.095E-03    -292.010E-03     44.2189E-03    -287.552E-03     579.382E-03    -291.726E-03     40.2301E-03
            2236     8.73582E-03     20.2719E-03    -43.9827E+06     20.0364E+06     44.6795E+06     431.563E+03    -288.113E-03     580.437E-03    -292.324E-03     41.9618E-03    -288.550E-03     580.660E-03    -292.066E-03     38.7625E-03
            2237     8.06120E-03     20.1934E-03    -50.6328E+06     8.91355E+06     36.1028E+06     863.130E+03    -289.029E-03     581.648E-03    -292.619E-03     39.1902E-03    -289.442E-03     581.809E-03    -292.378E-03     36.7200E-03
            2238     7.38727E-03     20.1174E-03    -57.4680E+06    -18.4965E+06     24.5205E+06     621.450E+03    -289.907E-03     582.801E-03    -292.894E-03     36.1580E-03    -290.274E-03     582.827E-03    -292.661E-03     34.3239E-03
            2239     6.71393E-03     20.0451E-03    -64.5355E+06    -54.9801E+06     9.97034E+06     322.549E+03    -290.731E-03     583.866E-03    -293.135E-03     32.9491E-03    -291.040E-03     583.722E-03    -292.912E-03     31.6629E-03
            2240     6.04117E-03     19.9770E-03    -71.7532E+06    -86.0026E+06    -4.57263E+06     165.883E+03    -291.437E-03     584.772E-03    -293.335E-03     29.6188E-03    -291.701E-03     584.490E-03    -293.129E-03     28.7897E-03
            2241     5.36886E-03     19.9141E-03    -78.9736E+06    -113.413E+06    -19.6021E+06    -22.6257E+03    -292.027E-03     585.522E-03    -293.495E-03     26.2186E-03    -292.254E-03     585.123E-03    -293.314E-03     25.7507E-03
            2242     4.69690E-03     19.8568E-03    -85.9315E+06    -137.856E+06    -35.1246E+06    -239.179E+03    -292.534E-03     586.150E-03    -293.616E-03     22.7814E-03    -292.730E-03     585.654E-03    -293.468E-03     22.5831E-03
            2243     4.02543E-03     19.8060E-03    -92.8655E+06    -160.206E+06    -51.2888E+06    -294.295E+03    -292.940E-03     586.640E-03    -293.700E-03     19.3548E-03    -293.109E-03     586.059E-03    -293.589E-03     19.3505E-03
            2244     3.35421E-03     19.7620E-03    -99.5393E+06    -181.193E+06    -67.5367E+06    -251.847E+03    -293.236E-03     586.989E-03    -293.753E-03     15.9957E-03    -293.380E-03     586.332E-03    -293.684E-03     16.1138E-03
            2245     2.68323E-03     19.7253E-03    -105.459E+06    -200.002E+06    -83.0736E+06    -112.683E+03    -293.462E-03     587.244E-03    -293.782E-03     12.7273E-03    -293.583E-03     586.521E-03    -293.755E-03     12.9040E-03
            2246     2.01222E-03     19.6964E-03    -110.347E+06    -215.936E+06    -96.8940E+06    -82.6306E+03    -293.623E-03     587.416E-03    -293.793E-03     9.53113E-03    -293.723E-03     586.639E-03    -293.804E-03     9.70910E-03
            2247     1.34151E-03     19.6753E-03    -114.202E+06    -228.445E+06    -107.838E+06    -82.5335E+03    -293.721E-03     587.515E-03    -293.794E-03     6.38884E-03    -293.805E-03     586.695E-03    -293.836E-03     6.52417E-03
            2248     670.722E-06     19.6623E-03    -116.700E+06    -236.710E+06    -114.881E+06    -21.8866E+03    -293.779E-03     587.566E-03    -293.787E-03     3.44589E-03    -293.853E-03     586.718E-03    -293.849E-03     3.51799E-03
            2249     12.8005E-03     19.0412E-03    -4.72408E+06     68.5134E+06     95.5166E+06     293.022E+03    -282.710E-03     572.732E-03    -290.022E-03     34.4581E-03    -283.156E-03     573.127E-03    -289.637E-03     28.4627E-03
            2250     12.1227E-03     18.9762E-03    -9.84433E+06     64.4509E+06     95.7571E+06     73.7851E+03    -283.310E-03     573.718E-03    -290.408E-03     43.1562E-03    -283.844E-03     574.168E-03    -290.008E-03     36.3540E-03
            2251     11.4435E-03     18.9038E-03    -16.8885E+06     56.8884E+06     90.5933E+06    -218.705E+03    -284.566E-03     575.337E-03    -290.770E-03     45.4314E-03    -285.104E-03     575.754E-03    -290.375E-03     39.2635E-03
            2252     10.7668E-03     18.8254E-03    -23.3436E+06     50.0865E+06     80.7951E+06     572.326E+03    -286.050E-03     577.122E-03    -291.071E-03     45.7972E-03    -286.579E-03     577.511E-03    -290.706E-03     40.1866E-03
            2253     10.0909E-03     18.7436E-03    -29.3475E+06     43.8276E+06     68.1986E+06     1.43426E+06    -287.263E-03     578.576E-03    -291.312E-03     44.3329E-03    -287.762E-03     578.928E-03    -290.992E-03     39.4947E-03
            2254     9.41547E-03     18.6606E-03    -35.8533E+06     32.4969E+06     55.5175E+06       1.305E+06    -288.264E-03     579.785E-03    -291.521E-03     42.0401E-03    -288.725E-03     580.074E-03    -291.239E-03     37.9867E-03
            2255     8.74108E-03     18.5784E-03    -42.9144E+06     20.7647E+06     45.5131E+06     307.409E+03    -289.133E-03     580.840E-03    -291.707E-03     39.3185E-03    -289.566E-03     581.063E-03    -291.447E-03     36.0142E-03
            2256     8.06724E-03     18.4981E-03    -49.7689E+06     9.27356E+06     36.6995E+06    -417.387E+03    -289.844E-03     581.706E-03    -291.862E-03     36.2845E-03    -290.254E-03     581.866E-03    -291.620E-03     33.6794E-03
            2257     7.39381E-03     18.4206E-03    -56.6583E+06    -17.8892E+06     25.1213E+06    -374.815E+03    -290.489E-03     582.480E-03    -291.991E-03     33.0147E-03    -290.854E-03     582.508E-03    -291.757E-03     31.0387E-03
            2258     6.72088E-03     18.3469E-03    -63.6969E+06    -54.2431E+06     10.9231E+06    -420.614E+03    -291.050E-03     583.133E-03    -292.083E-03     29.6087E-03    -291.358E-03     582.991E-03    -291.857E-03     28.1716E-03
            2259     6.04829E-03     18.2776E-03    -70.6429E+06    -85.5849E+06    -3.52540E+06    -599.904E+03    -291.459E-03     583.589E-03    -292.131E-03     26.1475E-03    -291.721E-03     583.307E-03    -291.922E-03     25.1527E-03
            2260     5.37599E-03     18.2138E-03    -77.6398E+06    -112.922E+06    -18.4566E+06    -606.798E+03    -291.740E-03     583.879E-03    -292.139E-03     22.7105E-03    -291.965E-03     583.481E-03    -291.955E-03     22.0785E-03
            2261     4.70398E-03     18.1557E-03    -84.9998E+06    -137.664E+06    -34.1988E+06    -523.898E+03    -291.906E-03     584.020E-03    -292.114E-03     19.3831E-03    -292.100E-03     583.523E-03    -291.962E-03     19.0319E-03
            2262     4.03198E-03     18.1043E-03    -92.1012E+06    -160.303E+06    -50.5176E+06    -397.065E+03    -291.973E-03     584.035E-03    -292.063E-03     16.2105E-03    -292.140E-03     583.453E-03    -291.949E-03     16.0555E-03
            2263     3.36003E-03     18.0601E-03    -98.5703E+06    -181.284E+06    -66.8654E+06    -271.829E+03    -291.970E-03     583.964E-03    -291.995E-03     13.2001E-03    -292.111E-03     583.306E-03    -291.923E-03     13.1813E-03
            2264     2.68799E-03     18.0232E-03    -104.558E+06    -200.210E+06    -82.4970E+06    -221.012E+03    -291.919E-03     583.841E-03    -291.921E-03     10.3374E-03    -292.037E-03     583.115E-03    -291.892E-03     10.3950E-03
            2265     2.01613E-03     17.9941E-03    -109.462E+06    -215.984E+06    -96.1907E+06    -108.305E+03    -291.857E-03     583.709E-03    -291.853E-03     7.63563E-03    -291.954E-03     582.930E-03    -291.862E-03     7.71964E-03
            2266     1.34405E-03     17.9730E-03    -113.292E+06    -228.452E+06    -107.184E+06    -80.3884E+03    -291.802E-03     583.598E-03    -291.796E-03     5.09088E-03    -291.883E-03     582.776E-03    -291.836E-03     5.16166E-03
            2267     672.089E-06     17.9600E-03    -116.215E+06    -236.864E+06    -114.381E+06    -84.3933E+03    -291.735E-03     583.519E-03    -291.784E-03     2.76279E-03    -291.807E-03     582.669E-03    -291.844E-03     2.80412E-03
            2268     12.8013E-03     17.3611E-03    -5.50955E+06     67.4079E+06     93.7352E+06    -461.764E+03    -283.612E-03     573.555E-03    -289.943E-03     36.5729E-03    -284.068E-03     573.959E-03    -289.565E-03     30.4922E-03
            2269     12.1222E-03     17.2939E-03    -10.9658E+06     63.6696E+06     94.4160E+06     977.554E+03    -285.080E-03     575.335E-03    -290.254E-03     44.2150E-03    -285.626E-03     575.794E-03    -289.859E-03     37.3530E-03
            2270     11.4464E-03     17.2178E-03    -16.4768E+06     58.4664E+06     90.4888E+06     825.990E+03    -286.729E-03     577.219E-03    -290.490E-03     44.5918E-03    -287.273E-03     577.650E-03    -290.099E-03     38.2611E-03
            2271     10.7709E-03     17.1358E-03    -23.0221E+06     51.4629E+06     81.1113E+06    -910.604E+03    -288.120E-03     578.758E-03    -290.639E-03     43.9255E-03    -288.653E-03     579.157E-03    -290.274E-03     38.0798E-03
            2272     10.0966E-03     17.0522E-03    -28.3411E+06     40.8482E+06     71.3423E+06    -1.31996E+06    -289.208E-03     579.935E-03    -290.728E-03     41.9936E-03    -289.705E-03     580.270E-03    -290.389E-03     36.8771E-03
            2273     9.42313E-03     16.9681E-03    -33.4778E+06     30.4884E+06     60.2644E+06     572.404E+03    -289.986E-03     580.743E-03    -290.757E-03     39.2576E-03    -290.442E-03     581.013E-03    -290.451E-03     34.9765E-03
            2274     8.74967E-03     16.8844E-03    -39.5769E+06     23.9680E+06     48.8833E+06     1.25003E+06    -290.537E-03     581.271E-03    -290.734E-03     35.9652E-03    -290.965E-03     581.502E-03    -290.467E-03     32.4423E-03
            2275     8.07660E-03     16.8031E-03    -46.9646E+06     11.6276E+06     38.6924E+06     95.4840E+03    -290.942E-03     581.625E-03    -290.683E-03     32.3993E-03    -291.347E-03     581.792E-03    -290.438E-03     29.5433E-03
            2276     7.40395E-03     16.7247E-03    -54.3653E+06    -17.0793E+06     26.8935E+06    -913.421E+03    -291.249E-03     581.852E-03    -290.603E-03     28.7253E-03    -291.609E-03     581.880E-03    -290.365E-03     26.4702E-03
            2277     6.73153E-03     16.6504E-03    -61.4328E+06    -53.7905E+06     12.5434E+06    -1.11431E+06    -291.421E-03     581.900E-03    -290.479E-03     25.0266E-03    -291.723E-03     581.756E-03    -290.249E-03     23.2900E-03
            2278     6.05922E-03     16.5809E-03    -68.7955E+06    -85.7949E+06    -2.41829E+06    -795.639E+03    -291.407E-03     581.714E-03    -290.307E-03     21.4041E-03    -291.663E-03     581.428E-03    -290.095E-03     20.1121E-03
            2279     5.38690E-03     16.5170E-03    -76.3693E+06    -113.109E+06    -17.8747E+06    -411.341E+03    -291.218E-03     581.316E-03    -290.098E-03     17.9636E-03    -291.439E-03     580.916E-03    -289.912E-03     17.0405E-03
            2280     4.71434E-03     16.4592E-03    -83.7522E+06    -137.516E+06    -33.8906E+06    -201.136E+03    -290.886E-03     580.751E-03    -289.866E-03     14.7720E-03    -291.077E-03     580.255E-03    -289.714E-03     14.1365E-03
            2281     4.04160E-03     16.4083E-03    -90.8351E+06    -160.326E+06    -50.2291E+06    -98.6779E+03    -290.484E-03     580.110E-03    -289.626E-03     11.8644E-03    -290.647E-03     579.526E-03    -289.513E-03     11.4468E-03
            2282     3.36861E-03     16.3644E-03    -97.5411E+06    -181.269E+06    -66.5748E+06     32.7765E+03    -290.063E-03     579.452E-03    -289.389E-03     9.26444E-03    -290.201E-03     578.792E-03    -289.317E-03     9.00246E-03
            2283     2.69545E-03     16.3281E-03    -103.473E+06    -200.075E+06    -81.9932E+06     70.4759E+03    -289.640E-03     578.809E-03    -289.169E-03     6.98297E-03    -289.754E-03     578.082E-03    -289.139E-03     6.82865E-03
            2284     2.02177E-03     16.2995E-03    -108.499E+06    -215.924E+06    -95.4360E+06     95.8141E+03    -289.254E-03     578.236E-03    -288.982E-03     4.97947E-03    -289.348E-03     577.455E-03    -288.989E-03     4.89813E-03
            2285     1.34803E-03     16.2788E-03    -112.461E+06    -228.229E+06    -106.191E+06     219.150E+03    -288.960E-03     577.801E-03    -288.841E-03     3.19775E-03    -289.039E-03     576.978E-03    -288.878E-03     3.15630E-03
            2286     673.972E-06     16.2661E-03    -114.634E+06    -236.350E+06    -113.364E+06     289.205E+03    -288.713E-03     577.535E-03    -288.823E-03     1.67735E-03    -288.780E-03     576.684E-03    -288.881E-03     1.66080E-03
            2287     12.8000E-03     15.6774E-03    -5.22959E+06     67.5282E+06     94.2228E+06     245.690E+03    -286.296E-03     576.137E-03    -289.841E-03     35.8890E-03    -286.757E-03     576.546E-03    -289.460E-03     29.6176E-03
            2288     12.1263E-03     15.6053E-03    -11.3256E+06     63.8186E+06      94.614E+06    -1.46362E+06    -288.138E-03     578.119E-03    -289.981E-03     42.5567E-03    -288.698E-03     578.591E-03    -289.584E-03     35.2326E-03
            2289     11.4520E-03     15.5276E-03    -16.3480E+06     59.2960E+06     91.0020E+06    -1.49087E+06    -289.534E-03     579.555E-03    -290.021E-03     42.9612E-03    -290.091E-03     580.001E-03    -289.628E-03     36.1855E-03
            2290     10.7789E-03     15.4443E-03    -21.4612E+06     52.8606E+06     81.5534E+06     -973.57E+03    -290.616E-03     580.580E-03    -289.963E-03     41.8546E-03    -291.153E-03     580.992E-03    -289.601E-03     35.6567E-03
            2291     10.1058E-03     15.3590E-03    -28.8879E+06     41.0195E+06     67.5780E+06    -1.24069E+06    -291.490E-03     581.312E-03    -289.822E-03     39.1693E-03    -291.990E-03     581.659E-03    -289.502E-03     33.7285E-03
            2292     9.43329E-03     15.2737E-03    -36.0165E+06     28.5783E+06     55.6060E+06    -2.33153E+06    -292.158E-03     581.775E-03    -289.617E-03     35.7681E-03    -292.622E-03     582.052E-03    -289.328E-03     31.0884E-03
            2293     8.76161E-03     15.1898E-03    -41.1496E+06     22.3106E+06     48.2647E+06    -2.03425E+06    -292.491E-03     581.842E-03    -289.351E-03     31.8175E-03    -292.928E-03     582.072E-03    -289.082E-03     27.8604E-03
            2294     8.09007E-03     15.1082E-03    -45.9978E+06     12.8677E+06     40.2803E+06    -910.411E+03    -292.524E-03     581.545E-03    -289.020E-03     27.5421E-03    -292.932E-03     581.718E-03    -288.771E-03     24.2405E-03
            2295     7.41846E-03     15.0302E-03    -52.6581E+06    -15.8239E+06     27.4148E+06    -512.227E+03    -292.344E-03     580.982E-03    -288.638E-03     23.2390E-03    -292.701E-03     581.017E-03    -288.402E-03     20.5275E-03
            2296     6.74670E-03     14.9565E-03    -60.5265E+06    -53.8093E+06     11.8391E+06    -234.793E+03    -291.948E-03     580.155E-03    -288.207E-03     19.0556E-03    -292.248E-03     580.015E-03    -287.982E-03     16.8491E-03
            2297     6.07466E-03     14.8881E-03    -68.4053E+06    -85.9542E+06    -3.29831E+06     92.2243E+03    -291.298E-03     579.030E-03    -287.732E-03     15.1487E-03    -291.553E-03     578.748E-03    -287.525E-03     13.3658E-03
            2298     5.40215E-03     14.8254E-03    -75.9437E+06    -113.124E+06    -18.7127E+06     340.138E+03    -290.434E-03     577.662E-03    -287.228E-03     11.6521E-03    -290.654E-03     577.265E-03    -287.048E-03     10.2261E-03
            2299     4.72912E-03     14.7694E-03    -83.2855E+06    -137.013E+06    -34.5516E+06     505.695E+03    -289.442E-03     576.158E-03    -286.716E-03     8.63743E-03    -289.632E-03     575.665E-03    -286.569E-03     7.51028E-03
            2300     4.05537E-03     14.7200E-03    -90.3290E+06    -159.822E+06    -50.5700E+06     558.019E+03    -288.394E-03     574.613E-03    -286.218E-03     6.15183E-03    -288.557E-03     574.033E-03    -286.108E-03     5.27428E-03
            2301     3.38089E-03     14.6779E-03    -96.8898E+06    -180.731E+06    -66.4799E+06     551.307E+03    -287.362E-03     573.117E-03    -285.755E-03     4.19723E-03    -287.499E-03     572.460E-03    -285.685E-03     3.52426E-03
            2302     2.70560E-03     14.6431E-03    -102.909E+06    -199.379E+06    -81.7484E+06     528.255E+03    -286.430E-03     571.773E-03    -285.343E-03     2.72547E-03    -286.543E-03     571.049E-03    -285.313E-03     2.22069E-03
            2303     2.02993E-03     14.6159E-03    -108.066E+06    -215.367E+06    -95.3289E+06     508.793E+03    -285.643E-03     570.641E-03    -284.999E-03     1.66071E-03    -285.737E-03     569.862E-03    -285.006E-03     1.30275E-03
            2304     1.35356E-03     14.5962E-03    -111.822E+06    -227.518E+06    -105.762E+06     437.494E+03    -285.037E-03     569.775E-03    -284.738E-03     923.340E-06    -285.115E-03     568.953E-03    -284.775E-03     696.104E-06
            2305     676.990E-06     14.5841E-03    -113.910E+06    -235.135E+06    -112.406E+06     281.700E+03    -284.579E-03     569.220E-03    -284.641E-03     410.758E-06    -284.646E-03     568.372E-03    -284.697E-03     291.668E-06
            2306     12.8063E-03     13.9862E-03    -4.98408E+06     68.6018E+06     95.7614E+06    -132.599E+03    -289.916E-03     579.544E-03    -289.628E-03     35.9875E-03    -290.392E-03     579.969E-03    -289.242E-03     29.4023E-03
            2307     12.1319E-03     13.9144E-03    -9.33995E+06     66.2362E+06     96.6285E+06    -709.433E+03    -291.242E-03     580.808E-03    -289.566E-03     43.0157E-03    -291.816E-03     581.304E-03    -289.165E-03     35.3684E-03
            2308     11.4594E-03     13.8334E-03    -16.5523E+06     59.4246E+06     90.8468E+06    -1.60636E+06    -292.739E-03     582.129E-03    -289.390E-03     42.5973E-03    -293.312E-03     582.591E-03    -288.998E-03     35.4965E-03
            2309     10.7879E-03     13.7492E-03    -23.9745E+06     50.9359E+06     80.4059E+06    -1.52061E+06    -293.987E-03     583.070E-03    -289.083E-03     40.2037E-03    -294.543E-03     583.489E-03    -288.720E-03     33.6218E-03
            2310     10.1175E-03     13.6632E-03    -29.6729E+06     41.3855E+06     68.1844E+06    -848.717E+03    -294.790E-03     583.444E-03    -288.654E-03     36.1618E-03    -295.303E-03     583.802E-03    -288.330E-03     30.2953E-03
            2311     9.44756E-03     13.5777E-03    -35.7776E+06     32.6428E+06     55.1857E+06    -1.63697E+06    -295.131E-03     583.246E-03    -288.115E-03     31.4293E-03    -295.607E-03     583.551E-03    -287.835E-03     26.2306E-03
            2312     8.77764E-03     13.4939E-03    -43.3904E+06     23.2664E+06     43.7209E+06    -4.03241E+06    -295.070E-03     582.558E-03    -287.488E-03     26.4842E-03    -295.519E-03     582.810E-03    -287.241E-03     21.9026E-03
            2313     8.10778E-03     13.4135E-03    -50.6403E+06     8.17451E+06     33.6589E+06    -4.12658E+06    -294.639E-03     581.425E-03    -286.787E-03     21.4260E-03    -295.058E-03     581.597E-03    -286.557E-03     17.4261E-03
            2314     7.43767E-03     13.3372E-03    -57.1158E+06    -18.5234E+06     22.2129E+06    -1.44968E+06    -293.828E-03     579.845E-03    -286.016E-03     16.4214E-03    -294.200E-03     579.884E-03    -285.796E-03     12.9757E-03
            2315     6.76702E-03     13.2660E-03    -63.4813E+06    -53.4742E+06     8.32307E+06     14.4716E+03    -292.630E-03     577.819E-03    -285.189E-03     11.7952E-03    -292.942E-03     577.692E-03    -284.977E-03     8.83147E-03
            2316     6.09549E-03     13.2003E-03    -70.2329E+06    -85.7240E+06    -5.91153E+06     299.422E+03    -291.095E-03     575.419E-03    -284.325E-03     7.75630E-03    -291.357E-03     575.146E-03    -284.128E-03     5.19411E-03
            2317     5.42287E-03     13.1411E-03    -77.4043E+06    -112.850E+06    -20.7382E+06     643.740E+03    -289.333E-03     572.782E-03    -283.449E-03     4.41217E-03    -289.558E-03     572.391E-03    -283.276E-03     2.21228E-03
            2318     4.74891E-03     13.0883E-03    -84.4171E+06    -136.224E+06    -36.1269E+06     852.345E+03    -287.453E-03     570.042E-03    -282.589E-03     1.81838E-03    -287.647E-03     569.557E-03    -282.450E-03    -53.7841E-06
            2319     4.07367E-03     13.0425E-03    -91.1306E+06    -158.891E+06    -51.8193E+06     955.913E+03    -285.571E-03     567.350E-03    -281.779E-03    -29.4663E-06    -285.737E-03     566.777E-03    -281.676E-03    -1.60285E-03
            2320     3.39708E-03     13.0037E-03    -97.5806E+06    -179.718E+06    -67.4963E+06     1.06560E+06    -283.798E-03     564.842E-03    -281.044E-03    -1.19042E-03    -283.937E-03     564.191E-03    -280.980E-03    -2.47863E-03
            2321     2.71939E-03     12.9718E-03    -103.364E+06    -198.232E+06    -82.4975E+06     1.15944E+06    -282.228E-03     562.635E-03    -280.407E-03    -1.74321E-03    -282.345E-03     561.918E-03    -280.382E-03    -2.76070E-03
            2322     2.04044E-03     12.9470E-03    -108.199E+06    -213.906E+06    -95.8457E+06     1.02054E+06    -280.941E-03     560.828E-03    -279.887E-03    -1.76987E-03    -281.037E-03     560.056E-03    -279.899E-03    -2.52687E-03
            2323     1.36083E-03     12.9292E-03    -111.792E+06    -225.968E+06    -106.265E+06     595.681E+03    -279.983E-03     559.484E-03    -279.500E-03    -1.40937E-03    -280.063E-03     558.670E-03    -279.542E-03    -1.91457E-03
            2324     680.450E-06     12.9183E-03    -114.280E+06    -233.734E+06    -112.895E+06     299.255E+03    -279.347E-03     558.641E-03    -279.293E-03    -845.658E-06    -279.418E-03     557.800E-03    -279.353E-03    -1.11160E-03
            2325     12.8067E-03     12.2929E-03    -5.09177E+06     69.5017E+06     95.7857E+06    -1.14978E+06    -293.601E-03     582.995E-03    -289.394E-03     38.0053E-03    -294.098E-03     583.444E-03    -289.009E-03     31.0895E-03
            2326     12.1368E-03     12.2167E-03    -11.1515E+06     65.4119E+06     95.7988E+06    -510.921E+03    -295.587E-03     584.684E-03    -289.097E-03     43.7188E-03    -296.189E-03     585.201E-03    -288.697E-03     35.7221E-03
            2327     11.4676E-03     12.1350E-03    -16.7271E+06     59.8019E+06     90.8296E+06     71.9533E+03    -297.358E-03     585.985E-03    -288.627E-03     41.2681E-03    -297.948E-03     586.465E-03    -288.235E-03     33.7190E-03
            2328     10.7995E-03     12.0486E-03    -23.1721E+06     52.7689E+06     80.0636E+06    -645.822E+03    -298.495E-03     586.470E-03    -287.975E-03     37.1642E-03    -299.062E-03     586.910E-03    -287.618E-03     30.0177E-03
            2329     10.1322E-03     11.9627E-03    -29.8118E+06     41.9069E+06     67.5762E+06    -2.31293E+06    -299.071E-03     586.241E-03    -287.170E-03     31.9597E-03    -299.597E-03     586.614E-03    -286.850E-03     25.3971E-03
            2330     9.46527E-03     11.8781E-03    -35.5230E+06     33.3409E+06     55.0039E+06    -2.47358E+06    -299.075E-03     585.293E-03    -286.217E-03     26.2033E-03    -299.559E-03     585.610E-03    -285.939E-03     20.2375E-03
            2331     8.79826E-03     11.7968E-03    -41.6284E+06     25.1515E+06     42.4432E+06    -1.12989E+06    -298.438E-03     583.574E-03    -285.136E-03     20.1039E-03    -298.885E-03     583.841E-03    -284.900E-03     14.7107E-03
            2332     8.13073E-03     11.7189E-03    -49.8705E+06     7.17874E+06     30.4401E+06    -1.09562E+06    -297.175E-03     581.143E-03    -283.968E-03     14.2054E-03    -297.588E-03     581.318E-03    -283.754E-03     9.32215E-03
            2333     7.46242E-03     11.6464E-03    -58.1668E+06    -21.0193E+06     18.3663E+06    -1.87015E+06    -295.367E-03     578.103E-03    -282.737E-03     8.93863E-03    -295.737E-03     578.140E-03    -282.530E-03     4.50187E-03
            2334     6.79279E-03     11.5797E-03    -65.4008E+06    -54.5394E+06     5.01727E+06    -1.10095E+06    -293.092E-03     574.553E-03    -281.461E-03     4.46343E-03    -293.409E-03     574.430E-03    -281.262E-03     466.214E-06
            2335     6.12148E-03     11.5196E-03    -72.1015E+06    -85.7156E+06    -8.63108E+06    -18.0781E+03    -290.460E-03     570.634E-03    -280.174E-03     866.864E-06    -290.728E-03     570.367E-03    -279.988E-03    -2.70683E-03
            2336     5.44825E-03     11.4658E-03    -78.7687E+06    -112.356E+06    -22.9248E+06     425.720E+03    -287.630E-03     566.539E-03    -278.910E-03    -1.79703E-03    -287.859E-03     566.156E-03    -278.747E-03    -4.97078E-03
            2337     4.77308E-03     11.4189E-03    -85.6304E+06    -135.743E+06    -37.9770E+06     760.780E+03    -284.757E-03     562.461E-03    -277.704E-03    -3.56775E-03    -284.955E-03     561.983E-03    -277.573E-03    -6.35103E-03
            2338     4.09576E-03     11.3786E-03    -92.5270E+06    -158.041E+06    -53.5934E+06     1.14232E+06    -282.005E-03     558.597E-03    -276.593E-03    -4.53904E-03    -282.175E-03     558.032E-03    -276.498E-03    -6.92906E-03
            2339     3.41656E-03     11.3448E-03    -98.9871E+06    -178.666E+06    -69.2033E+06     1.35698E+06    -279.493E-03     555.095E-03    -275.602E-03    -4.82105E-03    -279.638E-03     554.453E-03    -275.545E-03    -6.81493E-03
            2340     2.73547E-03     11.3174E-03    -104.511E+06    -196.752E+06    -83.7396E+06     1.34508E+06    -277.314E-03     552.069E-03    -274.755E-03    -4.54811E-03    -277.436E-03     551.362E-03    -274.737E-03    -6.14513E-03
            2341     2.05307E-03     11.2963E-03    -109.086E+06    -211.916E+06    -96.4208E+06     1.13624E+06    -275.546E-03     549.618E-03    -274.072E-03    -3.85215E-03    -275.648E-03     548.857E-03    -274.088E-03    -5.05515E-03
            2342     1.36931E-03     11.2811E-03    -112.898E+06    -223.855E+06    -106.720E+06     941.572E+03    -274.243E-03     547.806E-03    -273.563E-03    -2.83122E-03    -274.331E-03     547.005E-03    -273.608E-03    -3.64101E-03
            2343     684.998E-06     11.2718E-03    -114.967E+06    -231.680E+06    -113.565E+06     747.318E+03    -273.384E-03     546.659E-03    -273.275E-03    -1.63366E-03    -273.460E-03     545.831E-03    -273.340E-03    -2.06712E-03
            2344     12.8109E-03     10.5901E-03    -4.74753E+06     70.6738E+06     96.8946E+06    -356.814E+03    -299.127E-03     588.280E-03    -289.153E-03     38.2884E-03    -299.643E-03     588.750E-03    -288.764E-03     30.9736E-03
            2345     12.1435E-03     10.5122E-03    -11.2037E+06     65.3815E+06     96.0355E+06    -961.902E+03    -301.448E-03     589.970E-03    -288.523E-03     42.5316E-03    -302.071E-03     590.508E-03    -288.121E-03     33.9078E-03
            2346     11.4786E-03     10.4274E-03    -17.3872E+06     58.9881E+06     90.7209E+06    -1.39452E+06    -303.132E-03     590.805E-03    -287.673E-03     38.7645E-03    -303.743E-03     591.301E-03    -287.279E-03     30.4936E-03
            2347     10.8147E-03     10.3422E-03    -22.7004E+06     53.6016E+06     80.2543E+06    -957.601E+03    -304.075E-03     590.671E-03    -286.596E-03     33.3758E-03    -304.656E-03     591.130E-03    -286.240E-03     25.4415E-03
            2348     10.1509E-03     10.2572E-03    -29.1586E+06     45.9708E+06     64.5695E+06    -953.699E+03    -304.251E-03     589.561E-03    -285.309E-03     26.6795E-03    -304.787E-03     589.970E-03    -285.011E-03     19.2309E-03
            2349     9.48727E-03     10.1750E-03    -36.7704E+06     32.3702E+06     49.2532E+06    -1.67348E+06    -303.559E-03     587.422E-03    -283.863E-03     19.6801E-03    -304.046E-03     587.752E-03    -283.611E-03     12.7166E-03
            2350     8.82345E-03     10.0968E-03    -43.6036E+06     19.9216E+06     39.4524E+06    -738.588E+03    -301.899E-03     584.203E-03    -282.304E-03     13.1266E-03    -302.349E-03     584.455E-03    -282.072E-03     6.65655E-03
            2351     8.15850E-03     10.0249E-03     -49.136E+06     9.28524E+06     31.5161E+06     869.704E+03    -299.330E-03     579.989E-03    -280.659E-03     7.43741E-03    -299.747E-03     580.175E-03    -280.444E-03     1.46514E-03
            2352     7.49146E-03     9.95891E-03    -55.6874E+06    -18.1271E+06     19.4314E+06     732.153E+03    -296.132E-03     575.113E-03    -278.981E-03     2.84959E-03    -296.497E-03     575.161E-03    -278.777E-03    -2.65328E-03
            2353     6.82218E-03     9.89990E-03    -63.6634E+06    -55.1172E+06     4.68190E+06     372.618E+03    -292.548E-03     569.863E-03    -277.316E-03    -556.914E-06    -292.856E-03     569.737E-03    -277.120E-03    -5.59270E-03
            2354     6.15035E-03     9.84757E-03    -71.6736E+06    -85.3646E+06    -9.38727E+06     752.695E+03    -288.730E-03     564.426E-03    -275.696E-03    -2.82912E-03    -288.998E-03     564.164E-03    -275.515E-03    -7.37194E-03
            2355     5.47576E-03     9.80215E-03    -79.2993E+06    -111.510E+06    -23.6316E+06     1.06216E+06    -284.888E-03     559.049E-03    -274.161E-03    -4.12958E-03    -285.123E-03     558.675E-03    -274.002E-03    -8.16735E-03
            2356     4.79828E-03     9.76306E-03    -86.7203E+06    -135.254E+06    -38.4957E+06     1.28429E+06    -281.218E-03     553.959E-03    -272.742E-03    -4.67727E-03    -281.425E-03     553.489E-03    -272.612E-03    -8.20151E-03
            2357     4.11827E-03     9.73015E-03    -93.7789E+06    -157.109E+06    -53.8573E+06     1.46927E+06    -277.848E-03     549.310E-03    -271.462E-03    -4.67927E-03    -278.029E-03     548.755E-03    -271.368E-03    -7.68570E-03
            2358     3.43579E-03     9.70293E-03    -100.229E+06    -176.988E+06    -68.9485E+06     1.30391E+06    -274.869E-03     545.212E-03    -270.343E-03    -4.30352E-03    -275.026E-03     544.583E-03    -270.286E-03    -6.79790E-03
            2359     2.75137E-03     9.68113E-03    -106.042E+06    -194.948E+06    -83.4134E+06     860.066E+03    -272.351E-03     541.749E-03    -269.398E-03    -3.67210E-03    -272.486E-03     541.056E-03    -269.379E-03    -5.66184E-03
            2360     2.06507E-03     9.66442E-03    -110.994E+06    -210.392E+06    -96.7034E+06     517.938E+03    -270.337E-03     538.974E-03    -268.638E-03    -2.87542E-03    -270.451E-03     538.227E-03    -268.655E-03    -4.36593E-03
            2361     1.37761E-03     9.65265E-03    -114.436E+06    -222.318E+06    -107.434E+06     291.061E+03    -268.855E-03     536.927E-03    -268.073E-03    -1.98625E-03    -268.951E-03     536.138E-03    -268.122E-03    -2.98580E-03
            2362     688.953E-06     9.64548E-03    -116.746E+06    -230.060E+06    -114.494E+06     10.8085E+03    -267.888E-03     535.636E-03    -267.748E-03    -1.10526E-03    -267.974E-03     534.821E-03    -267.818E-03    -1.65057E-03
            2363     12.8140E-03     8.87789E-03    -5.42801E+06     71.0970E+06     96.3553E+06    -476.744E+03    -306.018E-03     594.851E-03    -288.833E-03     38.6312E-03    -306.555E-03     595.342E-03    -288.447E-03     30.8723E-03
            2364     12.1528E-03     8.79656E-03    -10.5069E+06     66.8303E+06     96.6695E+06    -390.177E+03    -308.432E-03     596.236E-03    -287.805E-03     41.8971E-03    -309.082E-03     596.807E-03    -287.403E-03     32.5847E-03
            2365     11.4920E-03     8.71260E-03    -16.4674E+06     60.8572E+06     91.2456E+06    -1.30956E+06    -310.116E-03     596.616E-03    -286.500E-03     36.1016E-03    -310.747E-03     597.141E-03    -286.108E-03     27.0009E-03
            2366     10.8322E-03     8.62706E-03    -22.9190E+06     53.0101E+06     80.1109E+06    -2.50483E+06    -310.716E-03     595.639E-03    -284.924E-03     28.6346E-03    -311.311E-03     596.110E-03    -284.567E-03     19.7254E-03
            2367     10.1734E-03     8.54484E-03    -28.0048E+06     42.2674E+06     66.9102E+06    -1.19839E+06    -309.903E-03     593.028E-03    -283.125E-03     20.5608E-03    -310.439E-03     593.423E-03    -282.811E-03     12.0136E-03
            2368     9.51407E-03     8.46765E-03    -33.4421E+06     30.7536E+06     53.7128E+06     1.80510E+06    -307.560E-03     588.738E-03    -281.178E-03     13.2911E-03    -308.039E-03     589.053E-03    -280.905E-03     5.24875E-03
            2369     8.85263E-03     8.39711E-03    -40.7904E+06     21.0653E+06     41.6718E+06     1.84902E+06    -304.002E-03     583.163E-03    -279.161E-03     7.51497E-03    -304.445E-03     583.416E-03    -278.924E-03    -1.69949E-06
            2370     8.18854E-03     8.33350E-03    -48.7984E+06     8.94719E+06     31.2008E+06     760.394E+03    -299.650E-03     576.801E-03    -277.151E-03     3.42744E-03    -300.069E-03     576.989E-03    -276.937E-03    -3.53866E-03
            2371     7.52157E-03     8.27776E-03    -55.9859E+06    -17.2442E+06     20.2926E+06     1.97851E+06    -294.909E-03     570.123E-03    -275.214E-03     885.596E-06    -295.285E-03     570.181E-03    -275.006E-03    -5.44584E-03
            2372     6.85107E-03     8.22900E-03    -63.2235E+06    -53.0828E+06     6.78863E+06     3.04779E+06    -290.086E-03     563.465E-03    -273.379E-03    -396.115E-06    -290.408E-03     563.354E-03    -273.176E-03    -6.05905E-03
            2373     6.17699E-03     8.18723E-03    -71.1787E+06    -83.5732E+06    -6.96512E+06     2.80994E+06    -285.394E-03     557.066E-03    -271.672E-03    -776.045E-06    -285.677E-03     556.819E-03    -271.482E-03    -5.77831E-03
            2374     5.49948E-03     8.15157E-03    -79.1411E+06    -109.366E+06    -20.5863E+06     2.31315E+06    -281.019E-03     551.137E-03    -270.117E-03    -622.710E-06    -281.272E-03     550.780E-03    -269.947E-03    -4.96924E-03
            2375     4.81900E-03     8.12161E-03    -86.6690E+06    -133.597E+06    -34.5127E+06     1.77208E+06    -277.074E-03     545.804E-03    -268.730E-03    -217.217E-06    -277.299E-03     545.347E-03    -268.583E-03    -3.92594E-03
            2376     4.13567E-03     8.09671E-03    -93.7939E+06    -155.161E+06    -49.0676E+06     1.07839E+06    -273.616E-03     541.130E-03    -267.514E-03     254.183E-06    -273.816E-03     540.587E-03    -267.398E-03    -2.84482E-03
            2377     3.45009E-03     8.07648E-03    -100.519E+06    -174.617E+06    -64.3445E+06     165.982E+03    -270.681E-03     537.153E-03    -266.472E-03     662.865E-06    -270.856E-03     536.537E-03    -266.395E-03    -1.85831E-03
            2378     2.76239E-03     8.06049E-03    -106.578E+06    -193.407E+06    -80.0101E+06    -630.541E+03    -268.284E-03     533.893E-03    -265.609E-03     910.237E-06    -268.433E-03     533.209E-03    -265.574E-03    -1.06592E-03
            2379     2.07324E-03     8.04844E-03    -111.588E+06    -209.802E+06    -94.9396E+06    -1.17351E+06    -266.426E-03     531.353E-03    -264.927E-03     947.377E-06    -266.550E-03     530.610E-03    -264.935E-03    -514.613E-06
            2380     1.38273E-03     8.03999E-03    -115.539E+06    -222.997E+06    -107.385E+06    -1.33549E+06    -265.103E-03     529.532E-03    -264.429E-03     776.549E-06    -265.205E-03     528.743E-03    -264.475E-03    -199.557E-06
            2381     691.673E-06     8.03497E-03    -118.323E+06    -231.746E+06    -115.639E+06    -867.961E+03    -264.248E-03     528.414E-03    -264.166E-03     466.406E-06    -264.337E-03     527.595E-03    -264.236E-03    -59.4680E-06
            2382     12.8196E-03     7.15329E-03    -5.46003E+06     72.7094E+06     95.7867E+06    -263.950E+03    -314.190E-03     602.650E-03    -288.459E-03     39.5483E-03    -314.751E-03     603.171E-03    -288.078E-03     31.3179E-03
            2383     12.1620E-03     7.07005E-03    -11.0525E+06     68.0674E+06     95.4867E+06    -1.58613E+06    -317.209E-03     604.154E-03    -286.945E-03     40.4670E-03    -317.890E-03     604.761E-03    -286.550E-03     30.3060E-03
            2384     11.5076E-03     6.98503E-03    -16.0919E+06     61.9707E+06     91.2634E+06    -2.41455E+06    -318.532E-03     603.625E-03    -285.093E-03     31.6995E-03    -319.183E-03     604.176E-03    -284.704E-03     21.4793E-03
            2385     10.8545E-03     6.90248E-03    -21.2728E+06     53.7784E+06     81.8702E+06    -2.57043E+06    -317.290E-03     600.261E-03    -282.970E-03     22.6521E-03    -317.888E-03     600.739E-03    -282.608E-03     12.6069E-03
            2386     10.1997E-03     6.82664E-03    -27.6386E+06     36.1712E+06     67.4797E+06    -1.88566E+06    -313.877E-03     594.578E-03    -280.701E-03     14.9790E-03    -314.403E-03     594.941E-03    -280.376E-03     5.41956E-03
            2387     9.54229E-03     6.75930E-03    -33.3363E+06     24.1964E+06     55.6866E+06     370.993E+03    -308.948E-03     587.354E-03    -278.407E-03     9.66023E-03    -309.420E-03     587.634E-03    -278.115E-03     793.862E-06
            2388     8.88146E-03     6.70033E-03    -38.4757E+06     21.8930E+06     46.6878E+06     3.52090E+06    -303.097E-03     579.273E-03    -276.176E-03     6.59248E-03    -303.542E-03     579.525E-03    -275.919E-03    -1.44040E-03
            2389     8.21629E-03     6.64988E-03    -45.6876E+06     10.9219E+06     36.3570E+06     5.03183E+06    -296.998E-03     571.086E-03    -274.089E-03     5.34412E-03    -297.420E-03     571.280E-03    -273.856E-03    -1.80423E-03
            2390     7.54639E-03     6.60664E-03    -54.9168E+06    -16.0907E+06     24.8531E+06     4.47354E+06    -291.162E-03     563.357E-03    -272.194E-03     5.29816E-03    -291.553E-03     563.423E-03    -271.967E-03    -971.674E-06
            2391     6.87239E-03     6.57028E-03    -63.3501E+06    -50.3831E+06     12.6399E+06     3.71946E+06    -285.824E-03     556.320E-03    -270.496E-03     5.81926E-03    -286.171E-03     556.227E-03    -270.268E-03     398.365E-06
            2392     6.19466E-03     6.53949E-03    -70.4038E+06    -79.7392E+06     784.229E+03     2.72488E+06    -281.042E-03     550.027E-03    -268.985E-03     6.48372E-03    -281.349E-03     549.799E-03    -268.763E-03     1.85706E-03
            2393     5.51375E-03     6.51377E-03    -77.1815E+06    -105.754E+06    -11.9134E+06     1.22334E+06    -276.863E-03     544.521E-03    -267.658E-03     7.04998E-03    -277.134E-03     544.177E-03    -267.452E-03     3.14826E-03
            2394     4.82993E-03     6.49237E-03    -83.8506E+06    -130.377E+06    -25.7126E+06    -394.735E+03    -273.296E-03     539.807E-03    -266.511E-03     7.35918E-03    -273.532E-03     539.357E-03    -266.329E-03     4.11282E-03
            2395     4.14387E-03     6.47485E-03    -90.1191E+06    -152.722E+06    -41.1717E+06    -1.90840E+06    -270.320E-03     535.851E-03    -265.532E-03     7.31009E-03    -270.521E-03     535.310E-03    -265.385E-03     4.65414E-03
            2396     3.45577E-03     6.46068E-03    -95.8627E+06    -173.394E+06    -58.1041E+06    -2.89567E+06    -267.906E-03     532.618E-03    -264.711E-03     6.85656E-03    -268.072E-03     531.996E-03    -264.611E-03     4.73356E-03
            2397     2.76629E-03     6.44957E-03    -101.195E+06    -193.858E+06    -75.0715E+06    -3.25887E+06    -266.024E-03     530.073E-03    -264.049E-03     6.01054E-03    -266.155E-03     529.374E-03    -263.997E-03     4.36969E-03
            2398     2.07556E-03     6.44120E-03    -106.040E+06    -211.776E+06    -90.3844E+06    -2.98997E+06    -264.621E-03     528.159E-03    -263.539E-03     4.82555E-03    -264.721E-03     527.394E-03    -263.530E-03     3.62642E-03
            2399     1.38422E-03     6.43538E-03    -109.995E+06    -226.731E+06    -102.583E+06    -2.20767E+06    -263.654E-03     526.829E-03    -263.175E-03     3.38942E-03    -263.731E-03     526.008E-03    -263.200E-03     2.59865E-03
            2400     692.141E-06     6.43188E-03    -112.843E+06    -236.451E+06    -110.524E+06    -1.19408E+06    -262.998E-03     526.027E-03    -263.029E-03     1.88021E-03    -263.060E-03     525.170E-03    -263.075E-03     1.45850E-03
            2401     12.8233E-03     5.41417E-03    -5.04481E+06     74.3496E+06     95.7018E+06     310.179E+03    -325.262E-03     613.343E-03    -288.081E-03     41.7905E-03    -325.853E-03     613.902E-03    -287.703E-03     33.0922E-03
            2402     12.1751E-03     5.32639E-03    -10.6550E+06     69.9874E+06     94.6813E+06    -1.67689E+06    -328.062E-03     614.013E-03    -285.952E-03     38.5474E-03    -328.776E-03     614.666E-03    -285.564E-03     27.3468E-03
            2403     11.5280E-03     5.24367E-03    -16.4265E+06     61.5774E+06     89.5884E+06    -2.64768E+06    -326.222E-03     609.735E-03    -283.514E-03     27.1445E-03    -326.881E-03     610.298E-03    -283.131E-03     15.9002E-03
            2404     10.8787E-03     5.17075E-03    -23.1936E+06     51.7428E+06     80.1121E+06    -1.33985E+06    -320.821E-03     601.784E-03    -280.963E-03     18.9418E-03    -321.416E-03     602.250E-03    -280.604E-03     8.31504E-03
            2405     10.2254E-03     5.10856E-03    -30.6050E+06     36.7129E+06     65.5720E+06    -227.833E+03    -313.705E-03     592.170E-03    -278.465E-03     14.1992E-03    -314.232E-03     592.531E-03    -278.146E-03     4.64091E-03
            2406     9.56696E-03     5.05640E-03    -38.0429E+06     22.1766E+06     51.5937E+06    -754.217E+03    -306.125E-03     582.264E-03    -276.139E-03     12.4379E-03    -306.604E-03     582.538E-03    -275.858E-03     4.01994E-03
            2407     8.90253E-03     5.01341E-03    -44.5776E+06     14.7644E+06     43.8571E+06     284.027E+03    -298.830E-03     572.882E-03    -274.052E-03     12.3595E-03    -299.287E-03     573.107E-03    -273.789E-03     5.12212E-03
            2408     8.23280E-03     4.97765E-03      -49.49E+06     9.10471E+06     40.0906E+06     3.21975E+06    -292.216E-03     564.431E-03    -272.215E-03     12.8853E-03    -292.657E-03     564.613E-03    -271.956E-03     6.78516E-03
            2409     7.55875E-03     4.94793E-03    -54.1131E+06    -10.8342E+06     33.5007E+06     3.78790E+06    -286.453E-03     557.067E-03    -270.614E-03     13.4567E-03    -286.856E-03     557.143E-03    -270.352E-03     8.34799E-03
            2410     6.88091E-03     4.92288E-03    -59.6917E+06    -44.4979E+06     21.3614E+06     1.15758E+06    -281.556E-03     550.779E-03    -269.223E-03     13.8467E-03    -281.901E-03     550.693E-03    -268.965E-03     9.56453E-03
            2411     6.19996E-03     4.90207E-03    -65.3188E+06    -74.7892E+06     7.45584E+06    -1.86936E+06    -277.422E-03     545.439E-03    -268.016E-03     13.9021E-03    -277.715E-03     545.213E-03    -267.776E-03     10.3238E-03
            2412     5.51630E-03     4.88467E-03    -70.0199E+06    -101.965E+06    -7.55159E+06    -4.23009E+06    -273.980E-03     540.958E-03    -266.978E-03     13.5296E-03    -274.220E-03     540.610E-03    -266.767E-03     10.5568E-03
            2413     4.83062E-03     4.87026E-03    -74.1643E+06    -128.216E+06    -23.6603E+06    -5.90025E+06    -271.164E-03     537.260E-03    -266.097E-03     12.7226E-03    -271.351E-03     536.798E-03    -265.921E-03     10.2711E-03
            2414     4.14315E-03     4.85837E-03    -78.3618E+06    -153.157E+06    -40.0245E+06    -6.46099E+06    -268.897E-03     534.255E-03    -265.359E-03     11.5214E-03    -269.035E-03     533.688E-03    -265.223E-03     9.52757E-03
            2415     3.45448E-03     4.84875E-03    -82.8022E+06    -176.419E+06    -55.7291E+06    -5.83540E+06    -267.105E-03     531.860E-03    -264.755E-03     9.99173E-03    -267.201E-03     531.197E-03    -264.658E-03     8.40844E-03
            2416     2.76466E-03     4.84112E-03    -87.2385E+06    -198.097E+06    -69.9325E+06    -4.44229E+06    -265.728E-03     530.003E-03    -264.275E-03     8.21635E-03    -265.787E-03     529.252E-03    -264.211E-03     7.00413E-03
            2417     2.07421E-03     4.83536E-03    -91.2106E+06    -216.603E+06    -81.6552E+06    -2.97157E+06    -264.711E-03     528.623E-03    -263.912E-03     6.28324E-03    -264.741E-03     527.797E-03    -263.874E-03     5.40540E-03
            2418     1.38303E-03     4.83132E-03    -94.3277E+06    -231.598E+06    -90.0101E+06    -1.70555E+06    -264.014E-03     527.672E-03    -263.658E-03     4.27086E-03    -264.022E-03     526.784E-03    -263.636E-03     3.69705E-03
            2419     691.706E-06     4.82892E-03    -96.2934E+06    -240.903E+06    -95.2425E+06    -831.807E+03    -263.489E-03     527.099E-03    -263.611E-03     2.32543E-03    -263.483E-03     526.174E-03    -263.598E-03     2.01990E-03
            2420     12.8279E-03     3.64910E-03    -6.15090E+06     73.6084E+06     95.9160E+06    -775.392E+03    -340.111E-03     628.054E-03    -287.944E-03     50.0086E-03    -340.759E-03     628.664E-03    -287.562E-03     40.8489E-03
            2421     12.1886E-03     3.56190E-03    -8.83255E+06     70.3152E+06     95.7368E+06    -484.944E+03    -338.653E-03     623.797E-03    -285.145E-03     40.4135E-03    -339.379E-03     624.467E-03    -284.755E-03     28.8607E-03
            2422     11.5466E-03     3.49414E-03    -15.2110E+06     61.7085E+06     88.5971E+06     1.52884E+06    -330.284E-03     612.542E-03    -282.258E-03     27.4522E-03    -330.901E-03     613.071E-03    -281.883E-03     16.8777E-03
            2423     10.8977E-03     3.44057E-03    -23.7139E+06     51.1864E+06     77.7446E+06     2.80460E+06    -319.702E-03     599.269E-03    -279.567E-03     21.7967E-03    -320.243E-03     599.684E-03    -279.218E-03     12.8298E-03
            2424     10.2409E-03     3.39880E-03    -32.0317E+06     41.0206E+06     64.6090E+06     2.13863E+06    -309.918E-03     587.087E-03    -277.170E-03     19.7202E-03    -310.407E-03     587.423E-03    -276.860E-03     12.3448E-03
            2425     9.57705E-03     3.36557E-03    -39.0974E+06     26.8326E+06     51.1074E+06     87.9485E+03    -301.461E-03     576.540E-03    -275.079E-03     19.0597E-03    -301.906E-03     576.794E-03    -274.806E-03     12.9812E-03
            2426     8.90797E-03     3.33841E-03    -45.1223E+06     13.6056E+06     40.2707E+06    -2.20174E+06    -294.309E-03     567.586E-03    -273.277E-03     18.6089E-03    -294.720E-03     567.769E-03    -273.030E-03     13.5916E-03
            2427     8.23477E-03     3.31600E-03    -49.9451E+06     6.92807E+06     30.5149E+06    -4.01386E+06    -288.295E-03     560.010E-03    -271.715E-03     18.1244E-03    -288.683E-03     560.158E-03    -271.500E-03     13.9822E-03
            2428     7.55793E-03     3.29742E-03    -53.0066E+06    -8.67678E+06     19.5373E+06    -4.85113E+06    -283.329E-03     553.704E-03    -270.376E-03     17.4741E-03    -283.675E-03     553.775E-03    -270.188E-03     14.0619E-03
            2429     6.87813E-03     3.28208E-03    -54.9468E+06    -38.0777E+06     6.45904E+06    -6.27088E+06    -279.267E-03     548.500E-03    -269.232E-03     16.5593E-03    -279.547E-03     548.431E-03    -269.065E-03     13.7336E-03
            2430     6.19585E-03     3.26907E-03    -56.8240E+06    -70.5939E+06    -7.95207E+06    -8.86269E+06    -275.929E-03     544.180E-03    -268.251E-03     15.3703E-03    -276.138E-03     543.960E-03    -268.106E-03     13.0001E-03
            2431     5.51170E-03     3.25820E-03    -59.2925E+06    -102.148E+06    -22.2798E+06    -10.0899E+06    -273.189E-03     540.603E-03    -267.414E-03     13.9442E-03    -273.334E-03     540.240E-03    -267.291E-03     11.9593E-03
            2432     4.82584E-03     3.24906E-03    -62.6086E+06    -131.676E+06    -35.9106E+06    -9.22777E+06    -270.948E-03     537.654E-03    -266.706E-03     12.3411E-03    -271.040E-03     537.160E-03    -266.603E-03     10.7045E-03
            2433     4.13876E-03     3.24149E-03    -66.4976E+06    -158.837E+06    -47.9625E+06    -7.32774E+06    -269.129E-03     535.246E-03    -266.117E-03     10.6294E-03    -269.177E-03     534.633E-03    -266.030E-03     9.30519E-03
            2434     3.45047E-03     3.23529E-03    -70.4157E+06    -183.402E+06    -57.9841E+06    -5.03315E+06    -267.672E-03     533.310E-03    -265.638E-03     8.86366E-03    -267.685E-03     532.589E-03    -265.559E-03     7.82013E-03
            2435     2.76144E-03     3.23037E-03    -73.8547E+06    -204.375E+06    -66.0343E+06    -2.90177E+06    -266.531E-03     531.788E-03    -265.257E-03     7.08189E-03    -266.515E-03     530.976E-03    -265.184E-03     6.28975E-03
            2436     2.07159E-03     3.22665E-03    -76.5239E+06    -221.471E+06    -72.2145E+06    -1.29222E+06    -265.674E-03     530.642E-03    -264.968E-03     5.30598E-03    -265.635E-03     529.754E-03    -264.897E-03     4.73810E-03
            2437     1.38141E-03     3.22404E-03    -78.5595E+06    -234.640E+06    -76.5254E+06    -359.850E+03    -265.079E-03     529.844E-03    -264.765E-03     3.55623E-03    -265.023E-03     528.897E-03    -264.693E-03     3.18760E-03
            2438     690.695E-06     3.22248E-03    -79.7537E+06    -242.856E+06    -79.2498E+06    -30.4742E+03    -264.589E-03     529.363E-03    -264.775E-03     1.91921E-03    -264.521E-03     528.380E-03    -264.703E-03     1.72352E-03
            2439     12.8230E-03     1.85310E-03    -4.03718E+06     73.2009E+06     98.5143E+06    -1.14922E+06    -364.547E-03     653.076E-03    -288.529E-03     54.5420E-03    -365.154E-03     653.646E-03    -288.137E-03     46.3568E-03
            2440     12.1917E-03     1.77990E-03    -8.92579E+06     66.5874E+06     95.2308E+06     835.942E+03    -346.599E-03     631.530E-03    -284.931E-03     33.3638E-03    -347.137E-03     632.002E-03    -284.538E-03     25.8105E-03
            2441     11.5509E-03     1.74478E-03    -15.2647E+06     59.5197E+06     88.4923E+06     3.24421E+06    -330.089E-03     611.928E-03    -281.839E-03     22.4183E-03    -330.538E-03     612.281E-03    -281.460E-03     16.4387E-03
            2442     10.8983E-03     1.71893E-03    -21.1703E+06     52.3068E+06     77.7465E+06     4.14225E+06    -317.092E-03     596.312E-03    -279.220E-03     19.4444E-03    -317.494E-03     596.601E-03    -278.876E-03     14.8278E-03
            2443     10.2380E-03     1.69861E-03    -26.1185E+06     45.6099E+06     61.8203E+06     3.48110E+06    -306.881E-03     583.858E-03    -276.977E-03     17.3722E-03    -307.243E-03     584.112E-03    -276.697E-03     13.7714E-03
            2444     9.57274E-03     1.68209E-03    -31.3281E+06     34.5521E+06     40.7664E+06     1.01942E+06    -298.824E-03     573.866E-03    -275.042E-03     15.8198E-03    -299.145E-03     574.081E-03    -274.843E-03     12.9116E-03
            2445     8.90293E-03     1.66895E-03    -36.1639E+06     20.9301E+06     19.3174E+06    -2.93317E+06    -292.322E-03     565.694E-03    -273.372E-03     14.5503E-03    -292.602E-03     565.865E-03    -273.254E-03     12.1383E-03
            2446     8.22896E-03     1.65833E-03    -40.5177E+06     8.95548E+06     789.077E+03    -5.72615E+06    -286.981E-03     558.917E-03    -271.936E-03     13.3313E-03    -287.228E-03     559.051E-03    -271.887E-03     11.3228E-03
            2447     7.55176E-03     1.64938E-03    -44.8970E+06    -6.78160E+06    -16.2507E+06    -7.73214E+06    -282.601E-03     553.304E-03    -270.703E-03     12.0695E-03    -282.815E-03     553.382E-03    -270.709E-03     10.3885E-03
            2448     6.87202E-03     1.64175E-03    -48.4581E+06    -34.9412E+06    -29.4951E+06    -10.1051E+06    -279.024E-03     548.691E-03    -269.667E-03     10.8290E-03    -279.191E-03     548.647E-03    -269.693E-03     9.38850E-03
            2449     6.19022E-03     1.63541E-03    -51.5628E+06    -72.4545E+06    -38.1634E+06    -10.3276E+06    -276.074E-03     544.879E-03    -268.804E-03     9.60737E-03    -276.185E-03     544.660E-03    -268.815E-03     8.38412E-03
            2450     5.50648E-03     1.63004E-03    -55.3769E+06    -108.153E+06    -45.2702E+06    -8.35673E+06    -273.612E-03     541.682E-03    -268.071E-03     8.39660E-03    -273.676E-03     541.297E-03    -268.060E-03     7.38469E-03
            2451     4.82129E-03     1.62554E-03    -59.3986E+06    -139.146E+06    -51.2643E+06    -6.02041E+06    -271.558E-03     539.003E-03    -267.446E-03     7.22138E-03    -271.585E-03     538.475E-03    -267.414E-03     6.39817E-03
            2452     4.13471E-03     1.62178E-03    -62.8329E+06    -166.211E+06    -56.3782E+06    -3.79662E+06    -269.860E-03     536.780E-03    -266.920E-03     6.09057E-03    -269.856E-03     536.127E-03    -266.870E-03     5.43419E-03
            2453     3.44719E-03     1.61871E-03    -65.4679E+06    -189.574E+06    -60.5286E+06    -2.05132E+06    -268.481E-03     534.968E-03    -266.487E-03     5.00462E-03    -268.449E-03     534.206E-03    -266.420E-03     4.49246E-03
            2454     2.75867E-03     1.61627E-03    -67.3214E+06    -208.880E+06    -63.8484E+06    -820.254E+03    -267.390E-03     533.531E-03    -266.140E-03     3.95858E-03    -267.334E-03     532.679E-03    -266.059E-03     3.57195E-03
            2455     2.06964E-03     1.61441E-03    -68.6169E+06    -224.153E+06    -66.4162E+06    -25.4564E+03    -266.567E-03     532.443E-03    -265.875E-03     2.94637E-03    -266.490E-03     531.519E-03    -265.783E-03     2.67066E-03
            2456     1.37995E-03     1.61312E-03    -69.3084E+06    -235.317E+06    -68.2835E+06     299.487E+03    -265.994E-03     531.682E-03    -265.687E-03     1.96771E-03    -265.901E-03     530.705E-03    -265.587E-03     1.78942E-03
            2457     690.151E-06     1.61236E-03    -69.8653E+06    -242.382E+06    -69.5247E+06     202.350E+03    -265.501E-03     531.225E-03    -265.725E-03     1.06146E-03    -265.398E-03     530.216E-03    -265.620E-03     965.724E-06


