********************************************************************************
Field Output Report, written Tue May 28 19:35:27 2024

Source 1
---------

   ODB: G:/Abaqus_calc_2019/1740/Vel_20/odb/zeides_2a_40_red_1000_cal_10_vel_20_fric_0100.odb
   Step: Step-1
   Frame: Increment   4813549: Step Time =   0.5277

Loc 1 : Nodal values from source 1

Output sorted by column "Nodal Label".

Field Output reported at nodes for region: DIE_2A_40_D0_36-1.Region_1
   Computation algorithm: EXTRAPOLATE_COMPUTE_AVERAGE
   Averaged at nodes
   Averaging regions: ODB_REGIONS

      Node Label     COORD.COOR1     COORD.COOR2
                          @Loc 1          @Loc 1
-------------------------------------------------
               1     21.7407E-03     134.213E-03


Field Output reported at nodes for region: DIE_2A_40_D0_36-1.Region_2
   Computation algorithm: EXTRAPOLATE_COMPUTE_AVERAGE
   Averaged at nodes
   Averaging regions: ODB_REGIONS

      Node Label     COORD.COOR1     COORD.COOR2
                          @Loc 1          @Loc 1
-------------------------------------------------
               1     21.7407E-03     134.213E-03


Field Output reported at nodes for part: WIRE-1
   Computation algorithm: EXTRAPOLATE_COMPUTE_AVERAGE
   Averaged at nodes
   Averaging regions: ODB_REGIONS

      Node Label     COORD.COOR1     COORD.COOR2           S.S11           S.S22           S.S33           S.S12         PE.PE11         PE.PE22         PE.PE33         PE.PE12         LE.LE11         LE.LE22         LE.LE33         LE.LE12
                          @Loc 1          @Loc 1          @Loc 1          @Loc 1          @Loc 1          @Loc 1          @Loc 1          @Loc 1          @Loc 1          @Loc 1          @Loc 1          @Loc 1          @Loc 1          @Loc 1
-------------------------------------------------------------------------------------------------------------------------------------------------------------------------------------------------------------------------------------------------
               1     151.317E-09     67.6065E-03    -90.5067E+06    -248.811E+06    -90.5701E+06    -31.5010E+03    -113.920E-03     227.637E-03    -113.717E-03     8.82288E-03    -113.884E-03     226.660E-03    -113.678E-03     8.61095E-03
               2     16.0686E-03     70.8339E-03    -2.01693E+06     112.062E+06     94.8241E+06     1.15220E+06    -113.550E-03     227.369E-03    -113.819E-03     164.910E-03    -119.987E-03     233.922E-03    -113.505E-03     162.289E-03
               3     14.9531E-03     140.647E-03    -10.6389E+06    -20.6509E+06    -12.2280E+06    -29.7894E+06     89.3798E-03     81.8268E-03    -171.207E-03     2.12901E-03     89.6344E-03     82.0168E-03    -171.222E-03     1.74476E-03
               4    -4.18588E-06     134.840E-03     46.7305E+06    -6.06242E+06     42.5627E+06    -2.54186E+06    -104.314E-03     213.352E-03    -109.038E-03    -12.5215E-03    -104.183E-03     213.140E-03    -108.884E-03    -12.6106E-03
               5     514.171E-09     1.65146E-15    -48.3243E+06    -203.917E+06    -48.1515E+06     1.33416E+06    -110.186E-03     220.167E-03    -109.981E-03     1.68249E-03    -110.062E-03     219.287E-03    -109.856E-03     1.69348E-03
               6     15.6520E-03     1.65146E-15     8.36892E+06     85.2512E+06     97.8188E+06     6.05532E+06    -321.085E-03     449.608E-03    -128.523E-03     286.682E-03    -326.100E-03     454.598E-03    -128.169E-03     268.654E-03
               7     803.206E-06     67.6164E-03    -89.7423E+06    -247.263E+06    -88.1330E+06    -14.8968E+03    -113.930E-03     227.706E-03    -113.776E-03     14.7629E-03    -113.905E-03     226.741E-03    -113.728E-03     14.4069E-03
               8     1.60643E-03     67.6398E-03    -87.4116E+06    -242.894E+06    -81.4490E+06     48.7853E+03    -114.020E-03     227.873E-03    -113.853E-03     27.1009E-03    -114.027E-03     226.944E-03    -113.781E-03     26.4357E-03
               9     2.40966E-03     67.6773E-03    -83.8800E+06    -236.564E+06    -71.9192E+06     115.817E+03    -114.207E-03     228.094E-03    -113.887E-03     39.9389E-03    -114.267E-03     227.225E-03    -113.782E-03     38.9283E-03
              10     3.21272E-03     67.7294E-03    -79.6779E+06    -229.147E+06    -61.0234E+06     59.4243E+03    -114.435E-03     228.352E-03    -113.917E-03     52.8056E-03    -114.572E-03     227.569E-03    -113.774E-03     51.4183E-03
              11     4.01638E-03     67.7957E-03    -74.8032E+06    -215.277E+06    -50.4036E+06     1.39889E+03    -114.720E-03     228.647E-03    -113.926E-03     65.5060E-03    -114.968E-03     228.010E-03    -113.758E-03     63.7057E-03
              12     4.81913E-03     67.8760E-03    -69.6933E+06    -199.173E+06    -39.4069E+06    -9.61316E+03    -115.075E-03     229.007E-03    -113.932E-03     78.0026E-03    -115.470E-03     228.562E-03    -113.739E-03     75.7440E-03
              13     5.62310E-03     67.9703E-03    -64.8919E+06    -186.495E+06    -29.5148E+06    -22.9189E+03    -115.502E-03     229.442E-03    -113.940E-03     90.3805E-03    -116.082E-03     229.216E-03    -113.724E-03     87.6074E-03
              14     6.42599E-03     68.0782E-03    -59.9931E+06    -169.896E+06    -21.2299E+06     133.102E+03    -115.967E-03     229.907E-03    -113.939E-03     102.597E-03    -116.791E-03     229.976E-03    -113.712E-03     99.2435E-03
              15     7.22948E-03     68.1993E-03    -55.0172E+06    -144.338E+06    -14.7264E+06    -28.2055E+03    -116.366E-03     230.283E-03    -113.917E-03     114.889E-03    -117.514E-03     230.765E-03    -113.701E-03     110.881E-03
              16     8.03296E-03     68.3344E-03    -50.5817E+06    -119.465E+06    -8.70918E+06    -232.809E+03    -116.734E-03     230.623E-03    -113.888E-03     127.293E-03    -118.301E-03     231.611E-03    -113.685E-03     122.535E-03
              17     8.83598E-03     68.4825E-03    -46.4577E+06    -88.6009E+06    -3.42474E+06    -96.3395E+03    -117.097E-03     230.941E-03    -113.845E-03     139.887E-03    -119.210E-03     232.585E-03    -113.666E-03     134.292E-03
              18     9.64003E-03     68.6449E-03    -42.7586E+06    -38.6537E+06     1.45086E+06     -262.34E+03    -117.260E-03     231.025E-03    -113.765E-03     152.954E-03    -120.109E-03     233.581E-03    -113.639E-03     146.423E-03
              19     10.4437E-03     68.8210E-03    -39.0886E+06     10.2059E+06     10.6198E+06    -713.087E+03    -117.636E-03     231.334E-03    -113.697E-03     170.388E-03    -121.565E-03     235.129E-03    -113.603E-03     162.703E-03
              20     11.2472E-03     69.0210E-03    -35.0388E+06     43.8847E+06     28.3178E+06    -309.981E+03    -118.813E-03     232.498E-03    -113.685E-03     199.233E-03    -124.509E-03     238.143E-03    -113.556E-03     190.047E-03
              21     12.0518E-03     69.2622E-03    -30.2272E+06     65.6147E+06     55.8475E+06     670.385E+03    -121.332E-03     235.063E-03    -113.731E-03     241.661E-03    -129.963E-03     243.657E-03    -113.503E-03     230.535E-03
              22     12.8555E-03     69.5574E-03    -23.5737E+06     81.7732E+06     81.2531E+06     558.444E+03    -124.037E-03     237.816E-03    -113.780E-03     283.197E-03    -136.608E-03     250.359E-03    -113.458E-03     270.225E-03
              23     13.6605E-03     69.8978E-03    -16.5593E+06     96.8391E+06     94.1281E+06    -222.300E+03    -125.776E-03     239.577E-03    -113.801E-03     309.423E-03    -142.188E-03     256.000E-03    -113.446E-03     296.055E-03
              24     14.4614E-03     70.2579E-03    -11.8848E+06     111.676E+06     97.7898E+06    -446.938E+03    -126.827E-03     240.656E-03    -113.829E-03     327.776E-03    -147.295E-03     261.194E-03    -113.484E-03     316.025E-03
              25     15.2642E-03     70.6497E-03    -6.20773E+06     115.609E+06     96.6466E+06     408.570E+03    -120.338E-03     234.173E-03    -113.835E-03     250.990E-03    -134.957E-03     248.900E-03    -113.511E-03     244.433E-03
              26     16.0714E-03     72.0210E-03    -1.99750E+06     113.299E+06     95.6594E+06    -191.969E+03    -114.538E-03     228.310E-03    -113.772E-03     163.459E-03    -120.979E-03     234.868E-03    -113.455E-03     160.802E-03
              27     16.0674E-03     73.2146E-03    -2.07209E+06     113.994E+06     95.9523E+06     657.371E+03    -115.275E-03     229.008E-03    -113.734E-03     164.968E-03    -121.751E-03     235.604E-03    -113.416E-03     162.223E-03
              28     16.0741E-03     74.4063E-03    -961.589E+03     113.989E+06     95.5368E+06    -442.763E+03    -113.319E-03     227.037E-03    -113.718E-03     165.913E-03    -119.829E-03     233.671E-03    -113.404E-03     163.271E-03
              29     16.0686E-03     75.5861E-03    -3.56412E+06     112.128E+06     93.9839E+06    -1.01985E+06    -115.216E-03     228.939E-03    -113.723E-03     163.220E-03    -121.725E-03     235.562E-03    -113.411E-03     160.517E-03
              30     16.0689E-03     76.7876E-03    -3.73726E+06     112.160E+06     94.2622E+06     743.683E+03    -115.633E-03     229.393E-03    -113.761E-03     164.741E-03    -122.157E-03     236.030E-03    -113.447E-03     161.993E-03
              31     16.0711E-03     77.9701E-03    -2.14658E+06     113.183E+06     95.3820E+06    -123.056E+03    -113.683E-03     227.464E-03    -113.781E-03     165.480E-03    -120.209E-03     234.108E-03    -113.465E-03     162.840E-03
              32     16.0685E-03     79.1607E-03    -1.93948E+06     113.528E+06     95.7624E+06     229.168E+03    -114.498E-03     228.265E-03    -113.767E-03     164.756E-03    -121.013E-03     234.898E-03    -113.450E-03     162.103E-03
              33     16.0711E-03     80.3501E-03    -1.10129E+06     113.951E+06     95.7656E+06     339.032E+03    -115.333E-03     229.080E-03    -113.747E-03     165.306E-03    -121.823E-03     235.692E-03    -113.432E-03     162.520E-03
              34     16.0685E-03     81.5421E-03    -2.71650E+06     112.355E+06     94.7285E+06    -880.995E+03    -115.459E-03     229.220E-03    -113.761E-03     162.709E-03    -121.878E-03     235.754E-03    -113.447E-03     159.912E-03
              35     16.0696E-03     82.7262E-03    -4.24629E+06     110.652E+06     94.2814E+06    -165.156E+03    -114.898E-03     228.679E-03    -113.781E-03     161.351E-03    -121.272E-03     235.157E-03    -113.464E-03     158.698E-03
              36     16.0697E-03     83.9222E-03    -2.72817E+06     111.985E+06     94.1486E+06     490.458E+03    -114.090E-03     227.851E-03    -113.760E-03     164.961E-03    -120.594E-03     234.469E-03    -113.448E-03     162.335E-03
              37     16.0710E-03     85.1113E-03    -449.257E+03     113.790E+06     95.2659E+06    -491.657E+03    -112.779E-03     226.504E-03    -113.725E-03     166.092E-03    -119.337E-03     233.188E-03    -113.413E-03     163.494E-03
              38     16.0726E-03     86.2907E-03    -2.38179E+06     112.635E+06     95.7170E+06    -1.84252E+06    -114.999E-03     228.687E-03    -113.688E-03     162.186E-03    -121.463E-03     235.265E-03    -113.369E-03     159.453E-03
              39     16.0668E-03     87.4898E-03    -3.78880E+06     111.798E+06     94.4510E+06     732.615E+03    -117.380E-03     231.077E-03    -113.697E-03     161.669E-03    -123.796E-03     237.603E-03    -113.382E-03     158.798E-03
              40     16.0723E-03     88.6820E-03    -1.69989E+06     113.905E+06     95.5880E+06     987.535E+03    -115.445E-03     229.189E-03    -113.744E-03     164.322E-03    -121.896E-03     235.761E-03    -113.428E-03     161.544E-03
              41     16.0678E-03     89.8682E-03    -2.73674E+06     114.019E+06     96.1987E+06    -377.278E+03    -115.501E-03     229.264E-03    -113.763E-03     163.787E-03    -121.962E-03     235.842E-03    -113.443E-03     161.012E-03
              42     16.0702E-03     91.0634E-03    -2.33974E+06     114.703E+06     96.1850E+06     538.120E+03    -114.668E-03     228.437E-03    -113.770E-03     165.127E-03    -121.170E-03     235.059E-03    -113.452E-03     162.452E-03
              43     16.0708E-03     92.2500E-03    -978.100E+03     115.890E+06     96.1487E+06    -144.573E+03    -112.740E-03     226.497E-03    -113.757E-03     165.986E-03    -119.279E-03     233.165E-03    -113.443E-03     163.430E-03
              44     16.0709E-03     93.4345E-03    -1.69453E+06     115.178E+06     95.3602E+06    -926.547E+03    -113.776E-03     227.468E-03    -113.692E-03     162.610E-03    -120.202E-03     234.020E-03    -113.380E-03     159.982E-03
              45     16.0720E-03     94.6210E-03    -3.43911E+06     113.893E+06     94.4023E+06    -1.05530E+06    -117.207E-03     230.857E-03    -113.650E-03     161.764E-03    -123.620E-03     237.388E-03    -113.338E-03     158.873E-03
              46     16.0667E-03     95.8299E-03    -2.31426E+06     115.013E+06     95.8532E+06     1.90813E+06    -116.665E-03     230.399E-03    -113.734E-03     166.451E-03    -123.227E-03     237.084E-03    -113.418E-03     163.607E-03
              47     16.0725E-03     97.0094E-03    -1.68713E+06     118.148E+06     97.5771E+06     1.71501E+06    -112.782E-03     226.576E-03    -113.794E-03     167.002E-03    -119.349E-03     233.273E-03    -113.475E-03     164.457E-03
              48     16.0689E-03     98.1908E-03    -3.78516E+06     119.306E+06     97.3263E+06    -240.116E+03    -114.900E-03     228.634E-03    -113.735E-03     163.200E-03    -121.347E-03     235.210E-03    -113.416E-03     160.539E-03
              49     16.0702E-03     99.3936E-03    -1.95376E+06     120.925E+06     98.1390E+06     1.35898E+06    -115.725E-03     229.447E-03    -113.723E-03     165.641E-03    -122.213E-03     236.073E-03    -113.405E-03     162.866E-03
              50     16.0709E-03     100.579E-03    -2.42509E+06     120.656E+06     96.1061E+06     436.315E+03    -112.753E-03     226.505E-03    -113.752E-03     164.433E-03    -119.223E-03     233.116E-03    -113.443E-03     161.855E-03
              51     16.0704E-03     101.755E-03    -3.34874E+06     119.804E+06     96.0951E+06    -1.51264E+06    -113.909E-03     227.608E-03    -113.699E-03     160.159E-03    -120.292E-03     234.126E-03    -113.387E-03     157.566E-03
              52     16.0719E-03     102.956E-03    -3.01788E+06     119.035E+06     98.0537E+06    -1.03011E+06    -116.032E-03     229.653E-03    -113.621E-03     164.606E-03    -122.573E-03     236.321E-03    -113.299E-03     161.766E-03
              53     16.0720E-03     104.154E-03    -195.244E+03     121.516E+06     100.861E+06     1.24510E+06    -113.169E-03     226.783E-03    -113.614E-03     170.217E-03    -119.869E-03     233.622E-03    -113.286E-03     167.575E-03
              54     16.0763E-03     105.328E-03    -2.39753E+06     122.335E+06     100.215E+06     888.696E+03    -112.945E-03     226.479E-03    -113.534E-03     164.832E-03    -119.460E-03     233.130E-03    -113.207E-03     162.254E-03
              55     16.0724E-03     106.511E-03    -6.45858E+06     121.630E+06     98.7368E+06     313.889E+03    -117.621E-03     231.025E-03    -113.404E-03     156.456E-03    -123.834E-03     237.362E-03    -113.078E-03     153.522E-03
              56     16.0757E-03     107.720E-03    -4.82140E+06     126.982E+06     101.710E+06     1.82920E+06    -115.938E-03     229.287E-03    -113.349E-03     163.082E-03    -122.361E-03     235.850E-03    -113.018E-03     160.265E-03
              57     16.0802E-03     108.903E-03    -393.101E+03     133.100E+06     105.486E+06     1.11360E+06    -110.937E-03     224.168E-03    -113.231E-03     170.717E-03    -117.671E-03     231.067E-03    -112.896E-03     168.262E-03
              58     16.0843E-03     110.089E-03    -1.10943E+06     133.152E+06     105.656E+06    -318.240E+03    -110.649E-03     223.605E-03    -112.956E-03     171.938E-03    -117.425E-03     230.543E-03    -112.619E-03     169.470E-03
              59     16.0896E-03     111.270E-03    -1.37946E+06     132.069E+06     105.489E+06     1.68421E+06    -111.912E-03     224.466E-03    -112.554E-03     172.021E-03    -118.565E-03     231.278E-03    -112.216E-03     169.422E-03
              60     16.0983E-03     112.459E-03    -1.80306E+06     132.271E+06     106.193E+06     1.07187E+06    -111.746E-03     223.821E-03    -112.075E-03     170.284E-03    -118.307E-03     230.538E-03    -111.733E-03     167.646E-03
              61     16.1059E-03     113.635E-03    -4.33299E+06     132.026E+06     106.355E+06     1.63274E+06    -113.074E-03     224.556E-03    -111.482E-03     170.690E-03    -119.693E-03     231.320E-03    -111.136E-03     167.985E-03
              62     16.1173E-03     114.832E-03    -2.36107E+06     137.599E+06     110.961E+06     3.24578E+06    -113.202E-03     223.978E-03    -110.776E-03     174.054E-03    -119.965E-03     230.899E-03    -110.417E-03     171.336E-03
              63     16.1322E-03     116.013E-03    -3.63747E+06     138.607E+06     111.555E+06     428.858E+03    -115.617E-03     225.515E-03    -109.899E-03     178.614E-03    -122.624E-03     232.679E-03    -109.536E-03     175.596E-03
              64     16.1428E-03     117.205E-03    -3.77597E+06     137.984E+06     112.105E+06     1.32040E+06    -123.258E-03     232.147E-03    -108.889E-03     178.711E-03    -130.319E-03     239.360E-03    -108.523E-03     175.035E-03
              65     16.1582E-03     118.412E-03    -1.16699E+06     138.721E+06     114.421E+06     2.14824E+06    -129.768E-03     237.678E-03    -107.910E-03     181.107E-03    -136.961E-03     245.028E-03    -107.537E-03     176.752E-03
              66     16.1689E-03     119.614E-03    -2.49551E+06     136.467E+06     112.865E+06     8.02806E+03    -139.749E-03     246.680E-03    -106.931E-03     183.449E-03    -147.135E-03     254.216E-03    -106.561E-03     178.086E-03
              67     16.1781E-03     120.843E-03    -2.99276E+06     135.576E+06     112.622E+06     1.52802E+06    -154.667E-03     260.683E-03    -106.016E-03     187.694E-03    -162.342E-03     268.506E-03    -105.645E-03     180.841E-03
              68     16.1840E-03     122.093E-03    -4.72627E+06     133.765E+06     112.251E+06     505.224E+03    -167.244E-03     272.545E-03    -105.301E-03     194.522E-03    -175.366E-03     280.802E-03    -104.927E-03     186.094E-03
              69     16.1897E-03     123.340E-03    -2.91553E+06     128.969E+06     111.377E+06    -1.12986E+06    -179.888E-03     284.557E-03    -104.669E-03     200.006E-03    -188.305E-03     293.101E-03    -104.295E-03     190.065E-03
              70     16.1938E-03     124.613E-03    -2.40605E+06     122.896E+06     110.127E+06    -2.18779E+06    -196.731E-03     300.784E-03    -104.052E-03     208.086E-03    -205.492E-03     309.663E-03    -103.676E-03     195.985E-03
              71     16.1951E-03     125.920E-03    -864.176E+03     115.492E+06     109.982E+06    -494.634E+03    -213.870E-03     317.434E-03    -103.564E-03     218.517E-03    -223.168E-03     326.826E-03    -103.181E-03     203.733E-03
              72     16.1961E-03     127.221E-03    -4.37615E+06     106.569E+06     108.925E+06    -2.89636E+06    -230.847E-03     333.948E-03    -103.101E-03     225.597E-03    -240.425E-03     343.577E-03    -102.705E-03     208.265E-03
              73     16.1995E-03     128.560E-03    -2.32165E+06     95.8821E+06     110.668E+06    -2.56317E+06    -250.648E-03     353.183E-03    -102.535E-03     237.061E-03    -260.463E-03     363.025E-03    -102.118E-03     217.087E-03
              74     16.2031E-03     129.935E-03    -3.27751E+06     83.1105E+06     118.206E+06    -1.93949E+06    -266.674E-03     368.788E-03    -102.114E-03     249.399E-03    -277.213E-03     379.281E-03    -101.639E-03     226.196E-03
              75     16.2023E-03     131.305E-03    -3.93826E+06     74.8405E+06     123.812E+06    -1.76731E+06    -279.560E-03     381.409E-03    -101.849E-03     261.952E-03    -291.158E-03     392.909E-03    -101.333E-03     235.121E-03
              76     16.2035E-03     132.699E-03    -4.88910E+06     57.1729E+06     137.192E+06    -9.48568E+06    -294.723E-03     396.346E-03    -101.623E-03     283.422E-03    -307.592E-03     409.030E-03    -101.013E-03     252.868E-03
              77     16.2054E-03     134.138E-03    -6.16733E+06     24.4131E+06     128.827E+06    -11.7928E+06    -296.824E-03     398.450E-03    -101.626E-03     313.536E-03    -311.401E-03     412.752E-03    -101.009E-03     280.799E-03
              78     16.2040E-03     135.536E-03     1.56185E+06     40.3111E+06     154.379E+06     10.6376E+06    -270.700E-03     373.167E-03    -102.467E-03     358.637E-03    -287.975E-03     390.167E-03    -101.756E-03     326.470E-03
              79     16.2034E-03     136.864E-03    -5.65819E+06     58.1019E+06     140.229E+06    -235.404E+03    -210.347E-03     314.285E-03    -103.938E-03     431.770E-03    -229.100E-03     332.842E-03    -103.313E-03     406.067E-03
              80     16.2188E-03     138.072E-03    -15.9349E+06     2.50177E+06     42.0919E+06    -29.7158E+06    -84.2852E-03     193.364E-03    -109.079E-03     425.901E-03    -95.4717E-03     204.480E-03    -108.849E-03     415.758E-03
              81     16.0201E-03     138.917E-03     8.99790E+06    -951.894E+03     66.6480E+06     12.7973E+06     37.5495E-03     87.8557E-03    -125.405E-03     228.333E-03     35.4675E-03     89.5910E-03    -125.084E-03     228.625E-03
              82     15.4512E-03     139.731E-03     17.1068E+06     8.58933E+06     60.1101E+06     17.0569E+06     81.1932E-03     73.0628E-03    -154.256E-03     42.5278E-03     81.1762E-03     72.9897E-03    -153.993E-03     42.7478E-03
              83     14.0616E-03     140.065E-03    -23.9659E+06    -9.83713E+06    -4.97981E+06     7.19639E+06     85.7676E-03     87.3041E-03    -173.072E-03     15.4744E-03     85.7527E-03     87.3833E-03    -173.048E-03     15.5674E-03
              84     13.2920E-03     139.475E-03    -14.3020E+06     32.8179E+06     66.7915E+06    -9.76315E+06     60.6451E-03     114.715E-03    -175.360E-03     6.63487E-03     60.4063E-03     114.793E-03    -175.053E-03     6.46616E-03
              85     12.5270E-03     138.864E-03    -26.7645E+06    -12.8259E+06     97.1083E+06    -20.9904E+06     27.8249E-03     146.032E-03    -173.857E-03    -65.0614E-03     27.5825E-03     145.794E-03    -173.314E-03    -65.5885E-03
              86     11.8513E-03     138.285E-03    -24.9052E+06    -20.4788E+06     72.8760E+06    -26.2014E+06     7.49524E-03     161.254E-03    -168.749E-03    -135.965E-03     7.32776E-03     160.807E-03    -168.319E-03    -136.861E-03
              87     11.1777E-03     137.750E-03    -2.32430E+06    -24.9128E+06     71.5012E+06    -28.8909E+06    -12.7419E-03     174.975E-03    -162.233E-03    -178.589E-03    -12.6738E-03     174.316E-03    -161.836E-03    -179.820E-03
              88     10.5057E-03     137.273E-03    -783.426E+03    -27.6909E+06     87.1774E+06    -8.73558E+06    -35.5610E-03     190.860E-03    -155.299E-03    -212.579E-03    -35.4146E-03     190.016E-03    -154.821E-03    -213.806E-03
              89     9.83373E-03     136.848E-03     16.1882E+06    -3.95028E+06     101.501E+06    -15.6031E+06    -57.5314E-03     205.728E-03    -148.197E-03    -229.443E-03    -57.3224E-03     204.902E-03    -147.707E-03    -230.894E-03
              90     9.14863E-03     136.486E-03     22.2623E+06     -18.034E+06     102.501E+06    -1.37413E+06    -76.5594E-03     218.096E-03    -141.537E-03    -227.381E-03    -76.3296E-03     217.224E-03    -141.030E-03    -228.661E-03
              91     8.45106E-03     136.172E-03     30.0178E+06    -1.82735E+06     108.652E+06     25.0278E+03    -91.7715E-03     227.353E-03    -135.582E-03    -210.645E-03    -91.5888E-03     226.644E-03    -135.079E-03    -211.824E-03
              92     7.73235E-03     135.909E-03     34.4696E+06    -4.63076E+06     101.970E+06     3.37523E+06    -103.026E-03     233.320E-03    -130.294E-03    -188.539E-03    -102.853E-03     232.705E-03    -129.827E-03    -189.562E-03
              93     7.00133E-03     135.681E-03     37.2648E+06     732.032E+03     98.6917E+06     2.36727E+06    -110.090E-03     235.663E-03    -125.573E-03    -164.329E-03    -109.954E-03     235.164E-03    -125.135E-03    -165.228E-03
              94     6.25660E-03     135.489E-03     38.2174E+06    -979.270E+03     92.6108E+06     2.49243E+06    -113.387E-03     234.760E-03    -121.372E-03    -139.512E-03    -113.275E-03     234.333E-03    -120.963E-03    -140.268E-03
              95     5.50033E-03     135.327E-03     38.1725E+06     2.42622E+06     84.4256E+06     1.55600E+06    -114.129E-03     231.821E-03    -117.692E-03    -116.006E-03    -114.039E-03     231.482E-03    -117.329E-03    -116.635E-03
              96     4.73322E-03     135.192E-03     37.8163E+06     1.84292E+06     75.7301E+06     47.2506E+03    -113.226E-03     227.781E-03    -114.555E-03    -94.6394E-03    -113.147E-03     227.498E-03    -114.234E-03    -95.1581E-03
              97     3.95691E-03     135.082E-03     38.5352E+06     1.63764E+06      68.563E+06    -2.13213E+06    -111.586E-03     223.538E-03    -111.952E-03    -75.7502E-03    -111.507E-03     223.295E-03    -111.667E-03    -76.1862E-03
              98     3.17346E-03     134.995E-03     40.7925E+06    -289.218E+03     60.1342E+06    -3.26571E+06    -109.690E-03     219.551E-03    -109.861E-03    -59.0118E-03    -109.596E-03     219.329E-03    -109.619E-03    -59.3677E-03
              99     2.38399E-03     134.928E-03     43.6826E+06    -878.461E+03     53.6416E+06    -3.35376E+06    -107.982E-03     216.280E-03    -108.298E-03    -44.0648E-03    -107.871E-03     216.075E-03    -108.092E-03    -44.3372E-03
             100     1.59074E-03     134.880E-03     46.1773E+06    -1.01723E+06     49.2924E+06    -2.70524E+06    -106.678E-03     213.987E-03    -107.309E-03    -30.3734E-03    -106.554E-03     213.793E-03    -107.128E-03    -30.5593E-03
             101     794.350E-06     134.851E-03     46.9842E+06    -2.38003E+06     45.1463E+06    -2.47024E+06    -105.216E-03     213.218E-03    -108.001E-03    -18.1475E-03    -105.088E-03     213.023E-03    -107.840E-03    -18.2643E-03
             102     588.653E-09     133.663E-03     32.0560E+06    -8.66835E+06     29.9247E+06    -1.98321E+06    -91.2376E-03     184.199E-03    -92.9615E-03    -7.11452E-03    -91.1433E-03     184.030E-03    -92.8458E-03    -7.18884E-03
             103     573.502E-09     132.559E-03    -4.01557E+06    -19.5831E+06    -2.60348E+06    -3.20156E+06    -68.2853E-03     135.807E-03    -67.5212E-03    -408.637E-06    -68.2885E-03     135.703E-03    -67.5000E-03    -485.621E-06
             104    -294.181E-09     131.494E-03    -43.8901E+06    -35.5030E+06    -42.6600E+06    -5.01903E+06    -51.9201E-03     103.700E-03    -51.7802E-03     2.53621E-03    -52.0335E-03     103.641E-03    -51.8784E-03     2.44908E-03
             105     332.112E-09     130.456E-03    -86.0753E+06    -55.8914E+06    -84.6567E+06    -6.51147E+06    -41.5390E-03     83.0873E-03    -41.5483E-03     5.55250E-03    -41.7683E-03     83.0532E-03    -41.7657E-03     5.45882E-03
             106    -358.686E-09     129.434E-03    -131.554E+06    -80.8624E+06    -130.410E+06    -7.30120E+06    -35.9311E-03     71.9228E-03    -35.9917E-03     7.91857E-03    -36.2832E-03     71.8979E-03    -36.3358E-03     7.82252E-03
             107     269.872E-09     128.419E-03    -173.562E+06    -104.366E+06    -173.296E+06    -6.22458E+06    -34.5778E-03     69.1552E-03    -34.5773E-03     9.70467E-03    -35.0429E-03     69.1361E-03    -35.0408E-03     9.62747E-03
             108    -219.403E-09     127.403E-03    -176.390E+06    -112.452E+06    -179.037E+06     1.64334E+06    -37.4201E-03     74.6457E-03    -37.2256E-03     11.1086E-03    -37.8801E-03     74.5975E-03    -37.7020E-03     11.1363E-03
             109     428.129E-09     126.377E-03    -127.532E+06    -94.6225E+06    -126.545E+06     8.27092E+06    -44.1180E-03     87.8682E-03    -43.7501E-03     12.1833E-03    -44.4374E-03     87.7605E-03    -44.0607E-03     12.2967E-03
             110    -36.7061E-09     125.333E-03    -83.9224E+06    -77.5133E+06    -80.6903E+06     1.97365E+06    -53.0424E-03     105.722E-03    -52.6795E-03     12.6621E-03    -53.2362E-03     105.569E-03    -52.8489E-03     12.6878E-03
             111     261.160E-09     124.269E-03    -69.8881E+06    -81.6178E+06    -70.0921E+06    -3.79233E+06    -62.3301E-03     124.390E-03    -62.0596E-03     12.6774E-03    -62.4634E-03     124.182E-03    -62.1904E-03     12.6173E-03
             112    -71.8498E-09     123.185E-03    -63.5040E+06    -95.8125E+06    -63.7049E+06    -3.75321E+06    -71.2458E-03     142.292E-03    -71.0466E-03     12.5354E-03    -71.3359E-03     141.996E-03    -71.1341E-03     12.4604E-03
             113     171.112E-09     122.082E-03    -60.3347E+06    -110.158E+06    -60.7686E+06    -3.66383E+06    -79.5939E-03     158.976E-03    -79.3821E-03     12.3771E-03    -79.6517E-03     158.600E-03    -79.4388E-03     12.2840E-03
             114     30.1256E-09     120.962E-03    -61.6119E+06    -125.916E+06    -61.7217E+06    -4.11531E+06    -87.0475E-03     173.821E-03    -86.7734E-03     12.1537E-03    -87.0872E-03     173.370E-03    -86.8100E-03     12.0324E-03
             115     169.962E-09     119.826E-03    -63.9118E+06    -142.559E+06    -64.4242E+06    -3.69069E+06    -93.4178E-03     186.496E-03    -93.0783E-03     11.8213E-03    -93.4408E-03     185.970E-03    -93.1010E-03     11.6837E-03
             116     129.734E-09     118.677E-03    -67.7557E+06    -157.300E+06    -67.9253E+06    -3.08420E+06    -98.7196E-03     197.135E-03    -98.4158E-03     11.1909E-03    -98.7353E-03     196.547E-03    -98.4291E-03     11.0352E-03
             117     17.0629E-09     117.518E-03    -71.7198E+06    -170.172E+06    -72.1381E+06    -3.04639E+06    -103.024E-03     205.834E-03    -102.809E-03     10.3825E-03    -103.035E-03     205.194E-03    -102.819E-03     10.1998E-03
             118     139.348E-09     116.348E-03    -75.2004E+06    -182.555E+06    -75.4434E+06    -2.93531E+06    -106.413E-03     212.595E-03    -106.182E-03     10.0839E-03    -106.418E-03     211.904E-03    -106.186E-03     9.88567E-03
             119     33.7970E-09     115.173E-03    -78.6126E+06    -194.342E+06    -78.9072E+06    -2.45200E+06    -108.951E-03     217.696E-03    -108.745E-03     9.99587E-03    -108.951E-03     216.956E-03    -108.744E-03     9.79085E-03
             120     80.5697E-09     113.992E-03    -83.2350E+06    -205.107E+06    -83.3607E+06    -2.26305E+06    -110.770E-03     221.394E-03    -110.624E-03     9.67737E-03    -110.772E-03     220.614E-03    -110.623E-03     9.46178E-03
             121     149.186E-12     112.808E-03    -86.9605E+06    -215.803E+06    -87.1313E+06    -2.41601E+06    -112.003E-03     223.803E-03    -111.800E-03     9.37890E-03    -112.003E-03     222.980E-03    -111.796E-03     9.15244E-03
             122     208.695E-09     111.622E-03    -87.7042E+06    -224.466E+06    -88.1605E+06    -1.24269E+06    -112.845E-03     225.369E-03    -112.524E-03     9.13386E-03    -112.833E-03     224.505E-03    -112.512E-03     8.91507E-03
             123     58.5348E-09     110.434E-03    -89.6949E+06    -228.216E+06    -89.7186E+06    -582.608E+03    -113.376E-03     226.460E-03    -113.083E-03     8.92890E-03    -113.368E-03     225.583E-03    -113.071E-03     8.71044E-03
             124     112.989E-09     109.246E-03    -94.3208E+06    -232.692E+06    -94.4156E+06    -1.70720E+06    -113.714E-03     227.194E-03    -113.480E-03     8.98027E-03    -113.716E-03     226.308E-03    -113.477E-03     8.74713E-03
             125     58.9089E-09     108.056E-03    -95.8812E+06    -241.029E+06    -95.8922E+06    -1.85180E+06    -113.828E-03     227.535E-03    -113.707E-03     9.12215E-03    -113.823E-03     226.612E-03    -113.698E-03     8.88878E-03
             126    -71.1646E-09     106.867E-03    -94.5856E+06    -246.572E+06    -94.7566E+06    -329.805E+03    -113.947E-03     227.697E-03    -113.750E-03     9.03597E-03    -113.928E-03     226.743E-03    -113.730E-03     8.82197E-03
             127     363.024E-09     105.677E-03    -94.0138E+06    -248.231E+06    -93.9636E+06    -370.193E+03    -114.088E-03     227.894E-03    -113.806E-03     8.89353E-03    -114.066E-03     226.929E-03    -113.779E-03     8.67491E-03
             128    -233.116E-09     104.487E-03    -94.0546E+06    -249.637E+06    -94.2568E+06    -331.953E+03    -114.045E-03     227.926E-03    -113.881E-03     8.80814E-03    -114.020E-03     226.955E-03    -113.854E-03     8.58781E-03
             129     332.802E-09     103.297E-03    -94.2017E+06    -250.668E+06    -94.1376E+06    -165.027E+03    -114.080E-03     227.863E-03    -113.783E-03     8.91122E-03    -114.055E-03     226.887E-03    -113.754E-03     8.69488E-03
             130     12.6337E-09     102.108E-03    -93.5985E+06    -250.891E+06    -93.6509E+06    -141.218E+03    -114.075E-03     227.837E-03    -113.762E-03     8.95167E-03    -114.047E-03     226.858E-03    -113.731E-03     8.73435E-03
             131     110.996E-09     100.917E-03    -93.0289E+06    -250.827E+06    -93.0157E+06     106.579E+03    -114.031E-03     227.787E-03    -113.757E-03     8.78378E-03    -114.001E-03     226.807E-03    -113.723E-03     8.57083E-03
             132     174.378E-09     99.7285E-03    -92.9098E+06    -250.998E+06    -93.2498E+06    -14.3331E+03    -113.973E-03     227.722E-03    -113.749E-03     8.88641E-03    -113.942E-03     226.741E-03    -113.716E-03     8.67409E-03
             133    -135.236E-09     98.5380E-03    -92.2660E+06    -250.221E+06    -92.1675E+06     534.052E+03    -113.981E-03     227.742E-03    -113.761E-03     8.95912E-03    -113.950E-03     226.763E-03    -113.726E-03     8.75538E-03
             134     417.038E-09     97.3490E-03    -90.7451E+06    -248.617E+06    -90.7267E+06     192.062E+03    -114.085E-03     227.831E-03    -113.745E-03     8.99803E-03    -114.051E-03     226.855E-03    -113.707E-03     8.78707E-03
             135    -185.810E-09     96.1590E-03    -90.3347E+06    -247.959E+06    -90.3143E+06     164.573E+03    -114.022E-03     227.788E-03    -113.766E-03     8.91064E-03    -113.987E-03     226.814E-03    -113.727E-03     8.69738E-03
             136     334.811E-09     94.9693E-03    -90.3110E+06    -247.803E+06    -90.0580E+06    -14.2287E+03    -113.990E-03     227.745E-03    -113.755E-03     8.97788E-03    -113.955E-03     226.772E-03    -113.716E-03     8.76389E-03
             137    -137.803E-09     93.7800E-03    -89.7002E+06    -247.522E+06    -90.0813E+06     160.133E+03    -113.998E-03     227.745E-03    -113.748E-03     8.92713E-03    -113.961E-03     226.772E-03    -113.709E-03     8.71719E-03
             138     305.818E-09     92.5899E-03    -89.4764E+06    -246.927E+06    -89.1373E+06     400.193E+03    -114.045E-03     227.695E-03    -113.649E-03     9.02124E-03    -114.009E-03     226.723E-03    -113.607E-03     8.81671E-03
             139     132.041E-09     91.4006E-03    -88.1275E+06    -245.889E+06    -88.4760E+06     43.3227E+03    -113.992E-03     227.728E-03    -113.736E-03     9.11729E-03    -113.952E-03     226.759E-03    -113.695E-03     8.90419E-03
             140    -197.371E-09     90.2111E-03    -88.9312E+06    -246.245E+06    -88.7481E+06    -69.1892E+03    -113.881E-03     227.699E-03    -113.819E-03     8.93195E-03    -113.843E-03     226.730E-03    -113.777E-03     8.71596E-03
             141     331.000E-09     89.0209E-03    -89.7028E+06    -247.415E+06    -90.0077E+06    -219.783E+03    -113.938E-03     227.645E-03    -113.707E-03     9.03996E-03    -113.901E-03     226.673E-03    -113.668E-03     8.82398E-03
             142    -130.113E-09     87.8326E-03    -89.1098E+06    -246.694E+06    -89.0646E+06     337.812E+03    -113.969E-03     227.702E-03    -113.732E-03     8.83677E-03    -113.932E-03     226.731E-03    -113.691E-03     8.62473E-03
             143     278.944E-09     86.6420E-03    -88.8313E+06    -246.402E+06    -88.7346E+06    -270.562E+03    -114.007E-03     227.855E-03    -113.848E-03     8.88721E-03    -113.969E-03     226.885E-03    -113.805E-03     8.66823E-03
             144    -202.999E-09     85.4529E-03    -88.6876E+06    -246.429E+06    -89.0046E+06     65.4758E+03    -114.040E-03     227.923E-03    -113.884E-03     8.83441E-03    -114.001E-03     226.953E-03    -113.843E-03     8.62193E-03
             145     342.675E-09     84.2623E-03    -89.8152E+06    -247.155E+06    -89.4455E+06    -100.777E+03    -114.037E-03     227.786E-03    -113.749E-03     8.83006E-03    -114.001E-03     226.814E-03    -113.708E-03     8.61711E-03
             146    -48.2198E-09     83.0734E-03    -89.4717E+06    -247.318E+06    -89.7777E+06     26.9729E+03    -114.068E-03     227.823E-03    -113.755E-03     8.87389E-03    -114.030E-03     226.850E-03    -113.715E-03     8.65988E-03
             147     221.338E-09     81.8834E-03    -90.0552E+06    -247.435E+06    -89.6175E+06    -204.214E+03    -114.054E-03     227.947E-03    -113.894E-03     8.77647E-03    -114.019E-03     226.975E-03    -113.852E-03     8.55786E-03
             148    -163.879E-09     80.6932E-03    -90.5610E+06    -248.446E+06    -91.0517E+06    -272.446E+03    -113.971E-03     227.831E-03    -113.859E-03     8.89134E-03    -113.936E-03     226.856E-03    -113.823E-03     8.67572E-03
             149     248.687E-09     79.5038E-03    -91.0094E+06    -248.549E+06    -90.8119E+06     271.654E+03    -114.039E-03     227.805E-03    -113.766E-03     8.94233E-03    -114.006E-03     226.830E-03    -113.728E-03     8.73293E-03
             150     74.3860E-09     78.3141E-03    -90.9379E+06    -248.684E+06    -91.0811E+06    -270.028E+03    -114.150E-03     227.913E-03    -113.762E-03     8.90541E-03    -114.116E-03     226.937E-03    -113.725E-03     8.68788E-03
             151     191.953E-09     77.1240E-03    -91.2217E+06    -249.026E+06    -91.3619E+06     99.1420E+03    -114.089E-03     227.916E-03    -113.827E-03     8.92486E-03    -114.055E-03     226.939E-03    -113.790E-03     8.71291E-03
             152    -72.1972E-09     75.9345E-03    -91.2929E+06    -249.046E+06    -91.1287E+06     15.4187E+03    -114.052E-03     227.936E-03    -113.884E-03     8.93940E-03    -114.019E-03     226.960E-03    -113.846E-03     8.72784E-03
             153     191.180E-09     74.7443E-03    -91.0105E+06    -249.098E+06    -91.1903E+06     129.774E+03    -114.064E-03     227.880E-03    -113.816E-03     8.88650E-03    -114.030E-03     226.903E-03    -113.779E-03     8.67601E-03
             154     54.8295E-09     73.5548E-03    -90.7675E+06    -248.671E+06    -90.5952E+06     145.289E+03    -114.036E-03     227.802E-03    -113.766E-03     8.96565E-03    -114.002E-03     226.826E-03    -113.727E-03     8.75520E-03
             155     102.636E-09     72.3651E-03    -89.7239E+06    -247.927E+06    -89.9794E+06     164.739E+03    -114.038E-03     227.865E-03    -113.826E-03     8.93241E-03    -114.001E-03     226.890E-03    -113.787E-03     8.72018E-03
             156     45.4404E-09     71.1752E-03    -90.0847E+06    -247.961E+06    -89.9067E+06    -94.6499E+03    -114.073E-03     227.856E-03    -113.782E-03     8.90219E-03    -114.037E-03     226.881E-03    -113.742E-03     8.68640E-03
             157     242.807E-09     69.9855E-03    -90.3104E+06    -248.416E+06    -90.4850E+06    -113.759E+03    -114.045E-03     227.759E-03    -113.714E-03     8.99256E-03    -114.009E-03     226.783E-03    -113.676E-03     8.77982E-03
             158    -35.1204E-09     68.7959E-03    -90.5152E+06    -248.666E+06    -90.4383E+06     142.684E+03    -113.957E-03     227.693E-03    -113.736E-03     8.96450E-03    -113.922E-03     226.716E-03    -113.696E-03     8.75431E-03
             159     25.2160E-09     66.4171E-03    -90.3663E+06    -248.758E+06    -90.4871E+06    -45.1628E+03    -113.923E-03     227.675E-03    -113.752E-03     8.85820E-03    -113.886E-03     226.697E-03    -113.713E-03     8.64389E-03
             160     39.0411E-09     65.2274E-03    -90.4377E+06    -248.572E+06    -90.3211E+06    -139.404E+03    -113.999E-03     227.762E-03    -113.763E-03     8.84035E-03    -113.963E-03     226.785E-03    -113.723E-03     8.62232E-03
             161     245.187E-09     64.0376E-03    -90.5523E+06    -248.762E+06    -90.6581E+06    -41.3527E+03    -113.985E-03     227.708E-03    -113.723E-03     8.87614E-03    -113.950E-03     226.731E-03    -113.684E-03     8.66002E-03
             162    -141.379E-09     62.8484E-03    -90.7217E+06    -248.750E+06    -90.6384E+06     184.489E+03    -113.925E-03     227.661E-03    -113.736E-03     8.83982E-03    -113.890E-03     226.684E-03    -113.697E-03     8.62823E-03
             163     309.922E-09     61.6586E-03    -90.6402E+06    -248.599E+06    -90.5730E+06    -19.4224E+03    -113.985E-03     227.712E-03    -113.727E-03     8.89345E-03    -113.950E-03     226.736E-03    -113.688E-03     8.68159E-03
             164    -96.7411E-09     60.4691E-03    -90.6126E+06    -248.815E+06    -90.6305E+06     106.258E+03    -114.004E-03     227.774E-03    -113.771E-03     8.92575E-03    -113.968E-03     226.797E-03    -113.732E-03     8.71566E-03
             165     225.209E-09     59.2794E-03    -90.2865E+06    -248.581E+06    -90.2332E+06     21.3516E+03    -114.015E-03     227.817E-03    -113.802E-03     8.79356E-03    -113.979E-03     226.840E-03    -113.762E-03     8.58169E-03
             166    -42.3852E-09     58.0898E-03    -90.0171E+06    -248.422E+06    -90.2182E+06    -146.210E+03    -113.935E-03     227.694E-03    -113.759E-03     8.72476E-03    -113.898E-03     226.717E-03    -113.720E-03     8.50941E-03
             167     109.044E-09     56.9003E-03    -90.8063E+06    -249.188E+06    -90.7372E+06    -16.3060E+03    -113.922E-03     227.537E-03    -113.615E-03     8.75278E-03    -113.887E-03     226.558E-03    -113.576E-03     8.53946E-03
             168     286.162E-09     55.7108E-03    -90.3999E+06    -248.838E+06    -90.3926E+06     169.107E+03    -113.986E-03     227.566E-03    -113.580E-03     8.85573E-03    -113.950E-03     226.588E-03    -113.540E-03     8.64814E-03
             169    -60.6826E-09     54.5218E-03    -89.6203E+06    -248.086E+06    -89.7543E+06     109.625E+03    -113.843E-03     227.551E-03    -113.708E-03     8.72795E-03    -113.805E-03     226.574E-03    -113.667E-03     8.51813E-03
             170     20.5868E-09     53.3320E-03    -89.6374E+06    -248.238E+06    -89.7478E+06     104.860E+03    -113.769E-03     227.410E-03    -113.641E-03     8.78274E-03    -113.730E-03     226.432E-03    -113.600E-03     8.57430E-03
             171     191.799E-09     52.1430E-03    -89.4459E+06    -247.848E+06    -89.3385E+06     8.10990E+03    -113.837E-03     227.382E-03    -113.545E-03     8.97134E-03    -113.799E-03     226.406E-03    -113.503E-03     8.76173E-03
             172     33.2795E-09     50.9537E-03    -90.1919E+06    -248.476E+06    -90.2917E+06    -140.436E+03    -113.718E-03     227.169E-03    -113.451E-03     8.74659E-03    -113.682E-03     226.192E-03    -113.411E-03     8.53307E-03
             173     139.808E-09     49.7652E-03    -90.6061E+06    -248.872E+06    -90.5417E+06     117.484E+03    -113.647E-03     226.957E-03    -113.311E-03     8.63028E-03    -113.611E-03     225.980E-03    -113.271E-03     8.42167E-03
             174     198.099E-09     48.5771E-03    -89.8482E+06    -248.130E+06    -89.7400E+06    -211.149E+03    -113.631E-03     227.061E-03    -113.430E-03     8.63668E-03    -113.594E-03     226.085E-03    -113.389E-03     8.42097E-03
             175    -241.993E-09     47.3872E-03    -90.0006E+06    -248.439E+06    -90.2604E+06     75.0157E+03    -113.510E-03     226.945E-03    -113.435E-03     8.75878E-03    -113.473E-03     225.968E-03    -113.395E-03     8.54977E-03
             176     373.195E-09     46.1989E-03    -89.5306E+06    -247.736E+06    -89.3198E+06     175.138E+03    -113.429E-03     226.603E-03    -113.174E-03     8.87080E-03    -113.391E-03     225.627E-03    -113.132E-03     8.66655E-03
             177    -125.334E-09     45.0113E-03    -90.2351E+06    -248.513E+06    -90.3903E+06    -431.253E+03    -113.189E-03     226.206E-03    -113.017E-03     8.41201E-03    -113.153E-03     225.230E-03    -112.978E-03     8.19821E-03
             178     124.663E-09     43.8243E-03    -90.9738E+06    -249.432E+06    -91.1816E+06     186.055E+03    -112.972E-03     225.866E-03    -112.894E-03     8.33020E-03    -112.936E-03     224.886E-03    -112.857E-03     8.12899E-03
             179    -29.9417E-09     42.6357E-03    -90.9006E+06    -249.233E+06    -90.7639E+06    -45.5446E+03    -112.852E-03     225.507E-03    -112.655E-03     8.66634E-03    -112.818E-03     224.528E-03    -112.615E-03     8.46362E-03
             180     224.119E-09     41.4499E-03    -91.3944E+06    -249.764E+06    -91.6338E+06     124.526E+03    -112.598E-03     224.933E-03    -112.335E-03     8.70003E-03    -112.564E-03     223.953E-03    -112.298E-03     8.49900E-03
             181    -27.3388E-09     40.2635E-03    -90.9279E+06    -249.118E+06    -90.5924E+06     176.940E+03    -112.330E-03     224.382E-03    -112.052E-03     8.51561E-03    -112.295E-03     223.403E-03    -112.012E-03     8.31924E-03
             182     250.472E-09     39.0790E-03    -90.4941E+06    -248.925E+06    -90.8084E+06        90.2E+03    -111.981E-03     223.745E-03    -111.764E-03     8.22200E-03    -111.944E-03     222.767E-03    -111.725E-03     8.02354E-03
             183    -153.835E-09     37.8940E-03    -91.1770E+06    -249.162E+06    -90.8865E+06     10.1331E+03    -111.540E-03     222.894E-03    -111.354E-03     8.07257E-03    -111.506E-03     221.916E-03    -111.315E-03     7.87419E-03
             184     333.721E-09     36.7113E-03    -90.3048E+06    -248.447E+06    -90.7172E+06     90.3876E+03    -111.151E-03     222.029E-03    -110.878E-03     8.04259E-03    -111.114E-03     221.052E-03    -110.840E-03     7.84709E-03
             185    -103.377E-09     35.5285E-03    -90.3906E+06    -247.706E+06    -90.2327E+06     146.900E+03    -110.555E-03     220.936E-03    -110.382E-03     7.74810E-03    -110.520E-03     219.963E-03    -110.343E-03     7.55548E-03
             186     130.001E-09     34.3487E-03    -90.3735E+06    -247.196E+06    -90.5474E+06    -92.1292E+03    -109.931E-03     219.821E-03    -109.890E-03     7.70422E-03    -109.897E-03     218.851E-03    -109.853E-03     7.51185E-03
             187    -115.528E-09     33.1680E-03    -90.3637E+06    -246.354E+06    -90.3406E+06     73.8204E+03    -109.545E-03     218.853E-03    -109.308E-03     7.66519E-03    -109.512E-03     217.887E-03    -109.271E-03     7.47428E-03
             188     461.507E-09     31.9903E-03    -91.2559E+06    -246.795E+06    -91.1733E+06    -162.622E+03    -108.979E-03     217.584E-03    -108.605E-03     7.67385E-03    -108.949E-03     216.618E-03    -108.571E-03     7.48431E-03
             189    -225.808E-09     30.8127E-03    -90.5193E+06    -245.958E+06    -90.7352E+06     433.223E+03    -108.071E-03     216.086E-03    -108.016E-03     7.59327E-03    -108.038E-03     215.123E-03    -107.981E-03     7.41742E-03
             190     53.9046E-09     29.6390E-03    -90.4286E+06    -245.352E+06    -90.1980E+06     56.7963E+03    -107.269E-03     214.530E-03    -107.260E-03     7.17907E-03    -107.238E-03     213.568E-03    -107.224E-03     7.00163E-03
             191     115.471E-09     28.4650E-03     -90.413E+06    -245.616E+06    -90.7082E+06    -205.861E+03    -106.654E-03     213.043E-03    -106.389E-03     7.13312E-03    -106.621E-03     212.081E-03    -106.356E-03     6.95428E-03
             192     119.994E-09     27.2946E-03    -89.9839E+06    -244.712E+06    -90.0781E+06     429.844E+03    -105.919E-03     211.540E-03    -105.621E-03     7.12868E-03    -105.886E-03     210.581E-03    -105.587E-03     6.95887E-03
             193     105.862E-09     26.1236E-03    -89.4189E+06    -243.362E+06    -89.3045E+06     285.840E+03    -104.920E-03     209.598E-03    -104.678E-03     6.99465E-03    -104.887E-03     208.643E-03    -104.642E-03     6.83047E-03
             194     42.9404E-09     24.9584E-03    -88.8219E+06    -242.591E+06    -89.1076E+06     303.461E+03    -103.825E-03     207.545E-03    -103.720E-03     6.71612E-03    -103.791E-03     206.593E-03    -103.685E-03     6.55543E-03
             195    -41.5213E-09     23.7928E-03    -87.6113E+06    -240.630E+06    -87.6587E+06     502.008E+03    -102.999E-03     205.870E-03    -102.871E-03     6.29809E-03    -102.964E-03     204.924E-03    -102.833E-03     6.14089E-03
             196     233.705E-09     22.6310E-03    -87.3691E+06    -239.598E+06    -87.2384E+06    -1.26263E+03    -102.198E-03     204.245E-03    -102.047E-03     6.09870E-03    -102.163E-03     203.302E-03    -102.009E-03     5.93967E-03
             197    -192.257E-09     21.4689E-03    -87.9560E+06    -239.026E+06    -88.1213E+06     207.801E+03    -101.272E-03     202.450E-03    -101.177E-03     5.98031E-03    -101.240E-03     201.512E-03    -101.144E-03     5.83132E-03
             198     290.420E-09     20.3111E-03    -88.0732E+06    -237.484E+06    -88.2053E+06     589.129E+03    -100.364E-03     200.332E-03    -99.9679E-03     5.43501E-03    -100.334E-03     199.402E-03    -99.9369E-03     5.30040E-03
             199     244.457E-09     19.1547E-03    -87.1825E+06    -235.470E+06    -87.2120E+06     798.000E+03    -99.2588E-03     198.050E-03    -98.7916E-03     5.16070E-03    -99.2288E-03     197.128E-03    -98.7598E-03     5.03208E-03
             200    -27.1472E-09     18.0020E-03    -86.8889E+06    -233.878E+06    -86.5397E+06    -297.538E+03    -97.7489E-03     195.355E-03    -97.6063E-03     4.27213E-03    -97.7205E-03     194.439E-03    -97.5738E-03     4.13660E-03
             201     41.2558E-09     16.8522E-03    -88.1384E+06    -233.900E+06    -88.9989E+06     223.822E+03    -95.8246E-03     191.469E-03    -95.6444E-03     3.27149E-03    -95.7985E-03     190.558E-03    -95.6225E-03     3.15633E-03
             202     229.797E-09     15.7078E-03    -87.8804E+06    -230.700E+06    -87.6538E+06     1.12129E+06    -93.2460E-03     186.461E-03    -93.2152E-03     2.87456E-03    -93.2252E-03     185.563E-03    -93.1916E-03     2.78480E-03
             203    -448.070E-09     14.5692E-03    -85.7855E+06    -226.427E+06    -86.2121E+06     934.753E+03    -90.0821E-03     180.204E-03    -90.1219E-03     1.95513E-03    -90.0589E-03     179.322E-03    -90.1002E-03     1.87621E-03
             204     601.503E-09     13.4393E-03    -84.5954E+06    -222.520E+06    -84.5785E+06     1.17642E+06    -86.4771E-03     172.652E-03    -86.1747E-03     1.22548E-03    -86.4559E-03     171.785E-03    -86.1523E-03     1.15905E-03
             205    -248.310E-09     12.3179E-03    -82.6339E+06    -217.860E+06    -82.7567E+06     943.589E+03    -82.0128E-03     163.987E-03    -81.9746E-03     559.785E-06    -81.9914E-03     163.138E-03    -81.9526E-03     501.415E-06
             206    -35.7582E-09     11.2074E-03    -80.4004E+06    -212.942E+06    -80.6486E+06     1.27952E+06    -77.5036E-03     154.884E-03    -77.3800E-03    -70.2933E-06    -77.4810E-03     154.052E-03    -77.3579E-03    -115.033E-06
             207     534.156E-09     10.1061E-03    -77.4370E+06    -207.483E+06    -77.0253E+06     1.28904E+06    -73.3679E-03     146.236E-03    -72.8683E-03     137.766E-06    -73.3436E-03     145.423E-03    -72.8403E-03     96.6254E-06
             208    -184.973E-09     9.01377E-03    -73.2988E+06    -202.373E+06    -73.2206E+06     1.01318E+06    -69.6077E-03     139.167E-03    -69.5595E-03     966.792E-06    -69.5754E-03     138.368E-03    -69.5259E-03     924.666E-06
             209    -79.6555E-09     7.92847E-03    -70.5799E+06    -199.817E+06    -70.0222E+06     633.146E+03    -68.1621E-03     136.463E-03    -68.3006E-03     2.18432E-03    -68.1245E-03     135.668E-03    -68.2587E-03     2.13885E-03
             210     117.512E-09     6.84283E-03    -68.0534E+06    -199.240E+06    -67.3842E+06    -124.519E+03    -70.2387E-03     140.506E-03    -70.2672E-03     3.71882E-03    -70.1939E-03     139.706E-03    -70.2166E-03     3.66387E-03
             211    -193.856E-09     5.74869E-03    -66.6607E+06    -201.998E+06    -66.0807E+06    -925.590E+03    -75.9506E-03     151.926E-03    -75.9750E-03     5.32049E-03    -75.8986E-03     151.107E-03    -75.9158E-03     5.25569E-03
             212     247.192E-09     4.63760E-03    -65.7916E+06    -206.806E+06    -66.1052E+06    -1.10501E+06    -84.2650E-03     168.602E-03    -84.3369E-03     5.84683E-03    -84.2026E-03     167.757E-03    -84.2722E-03     5.77862E-03
             213    -403.466E-09     3.50623E-03    -63.3591E+06    -209.459E+06    -63.6204E+06    -201.186E+03    -93.6207E-03     187.323E-03    -93.7022E-03     5.80168E-03    -93.5462E-03     186.457E-03    -93.6248E-03     5.74778E-03
             214     443.492E-09     2.35233E-03    -58.0257E+06    -209.113E+06    -58.3485E+06     572.524E+03    -102.333E-03     204.590E-03    -102.257E-03     4.61013E-03    -102.239E-03     203.711E-03    -102.161E-03     4.57016E-03
             215    -348.040E-09     1.18081E-03    -51.5623E+06    -206.071E+06    -51.5118E+06     725.302E+03    -108.182E-03     216.205E-03    -108.023E-03     2.40803E-03    -108.067E-03     215.324E-03    -107.907E-03     2.39026E-03
             216     804.956E-06     1.65146E-15    -48.8509E+06    -204.136E+06    -48.1518E+06     1.14886E+06    -110.175E-03     220.223E-03    -110.048E-03     2.40187E-03    -110.053E-03     219.343E-03    -109.922E-03     2.39892E-03
             217     1.61123E-03     1.65146E-15    -49.6211E+06    -204.007E+06    -47.7500E+06     1.14030E+06    -110.149E-03     220.276E-03    -110.127E-03     3.93279E-03    -110.032E-03     219.397E-03    -109.998E-03     3.90419E-03
             218     2.41594E-03     1.65146E-15    -49.7905E+06    -203.718E+06    -47.3007E+06      437.99E+03    -110.043E-03     220.172E-03    -110.128E-03     6.05492E-03    -109.929E-03     219.294E-03    -109.997E-03     5.98978E-03
             219     3.22154E-03     1.65146E-15    -49.1298E+06    -203.075E+06    -46.4544E+06    -510.374E+03    -109.857E-03     219.952E-03    -110.095E-03     8.17877E-03    -109.742E-03     219.077E-03    -109.962E-03     8.07701E-03
             220     4.02740E-03     1.65146E-15    -47.0340E+06    -201.044E+06    -45.3045E+06    -1.54429E+06    -109.777E-03     219.823E-03    -110.046E-03     10.2672E-03    -109.657E-03     218.953E-03    -109.913E-03     10.1330E-03
             221     4.83263E-03     1.65146E-15    -43.7340E+06    -191.880E+06    -46.5826E+06    -3.25244E+06    -109.700E-03     219.676E-03    -109.976E-03     11.9890E-03    -109.576E-03     218.851E-03    -109.867E-03     11.8050E-03
             222     5.63940E-03     1.65146E-15    -38.4465E+06    -172.987E+06    -50.5554E+06    -6.18213E+06    -109.564E-03     219.438E-03    -109.875E-03     14.3000E-03    -109.436E-03     218.707E-03    -109.821E-03     14.0497E-03
             223     6.44333E-03     1.65146E-15    -30.3838E+06    -143.015E+06    -55.5341E+06    -9.26446E+06    -109.681E-03     219.440E-03    -109.759E-03     16.8883E-03    -109.551E-03     218.855E-03    -109.785E-03     16.5672E-03
             224     7.25125E-03     1.65146E-15    -20.4329E+06     -99.737E+06    -57.0655E+06    -10.2698E+06    -110.031E-03     219.704E-03    -109.673E-03     18.5462E-03    -109.913E-03     219.325E-03    -109.784E-03     18.1812E-03
             225     8.05451E-03     1.65146E-15    -13.5077E+06    -48.7024E+06    -52.3925E+06    -5.93587E+06    -110.780E-03     220.451E-03    -109.671E-03     21.8469E-03    -110.713E-03     220.314E-03    -109.842E-03     21.4891E-03
             226     8.85898E-03     1.65146E-15    -12.4027E+06    -9.60808E+06    -30.9337E+06    -79.3227E+03    -112.091E-03     221.959E-03    -109.867E-03     24.5909E-03    -112.110E-03     221.988E-03    -109.990E-03     24.2523E-03
             227     9.66261E-03     1.65146E-15    -13.2771E+06     10.6928E+06     1.82863E+06     591.525E+03    -113.977E-03     224.245E-03    -110.268E-03     27.9377E-03    -114.084E-03     224.336E-03    -110.255E-03     27.5199E-03
             228     10.4608E-03     1.65146E-15    -11.4357E+06     24.1448E+06     28.7611E+06     162.546E+03    -116.654E-03     227.439E-03    -110.785E-03     32.4174E-03    -116.818E-03     227.565E-03    -110.660E-03     31.8947E-03
             229     11.2612E-03     1.65146E-15    -9.28686E+06     39.5162E+06     54.2098E+06     904.539E+03    -120.955E-03     232.442E-03    -111.487E-03     37.8153E-03    -121.187E-03     232.623E-03    -111.260E-03     37.1102E-03
             230     12.0516E-03     1.65146E-15    -7.49467E+06     46.0557E+06     72.3816E+06     2.45539E+06    -128.315E-03     240.787E-03    -112.471E-03     45.0558E-03    -128.599E-03     240.997E-03    -112.165E-03     44.1252E-03
             231     12.8391E-03     1.65146E-15    -5.04995E+06      46.412E+06     78.2875E+06     2.10968E+06    -141.101E-03     255.007E-03    -113.907E-03     60.6432E-03    -141.442E-03     255.266E-03    -113.575E-03     59.3041E-03
             232     13.6008E-03     1.65146E-15    -2.25771E+06     58.4329E+06     82.6486E+06     930.078E+03    -162.312E-03     278.436E-03    -116.123E-03     91.2566E-03    -162.862E-03     278.941E-03    -115.791E-03     88.7940E-03
             233     14.3438E-03     1.65146E-15    -1.49771E+06     70.6890E+06     85.4835E+06     4.10993E+06    -196.360E-03     315.904E-03    -119.545E-03     113.488E-03    -197.219E-03     316.783E-03    -119.218E-03     109.144E-03
             234     15.0858E-03     1.65146E-15     2.67973E+06     79.8951E+06     91.4498E+06     6.52822E+06    -269.234E-03     394.300E-03    -125.066E-03     202.012E-03    -272.249E-03     397.330E-03    -124.729E-03     190.276E-03
             235     15.8827E-03     1.63455E-03    -4.04644E+06     82.6900E+06     81.6884E+06     3.48761E+06    -281.487E-03     406.053E-03    -124.566E-03     296.885E-03    -288.392E-03     412.975E-03    -124.272E-03     278.223E-03
             236     15.9533E-03     2.96872E-03    -6.50619E+06     83.2203E+06     69.6643E+06     3.18953E+06    -241.605E-03     360.197E-03    -118.592E-03     238.480E-03    -248.050E-03     366.715E-03    -118.355E-03     221.508E-03
             237     16.0023E-03     4.31515E-03     790.116E+03     84.4917E+06     73.1418E+06     2.38418E+06    -232.158E-03     347.897E-03    -115.739E-03     166.883E-03    -236.508E-03     352.329E-03    -115.497E-03     152.455E-03
             238     16.0178E-03     5.63801E-03    -3.72624E+06     82.0066E+06     73.7573E+06     641.518E+03    -223.756E-03     338.187E-03    -114.432E-03     152.713E-03    -228.153E-03     342.656E-03    -114.176E-03     138.603E-03
             239     16.0305E-03     6.98922E-03    -4.56405E+06     82.2214E+06     77.1237E+06     1.43416E+06    -215.922E-03     329.841E-03    -113.919E-03     150.027E-03    -220.481E-03     334.458E-03    -113.646E-03     136.299E-03
             240     16.0340E-03     8.28997E-03    -130.767E+03     87.7257E+06     83.6653E+06     2.15133E+06    -199.619E-03     313.594E-03    -113.975E-03     157.459E-03    -204.564E-03     318.608E-03    -113.683E-03     144.798E-03
             241     16.0362E-03     9.58428E-03    -396.197E+03     89.4823E+06     84.4625E+06     3.06722E+06    -183.538E-03     297.713E-03    -114.175E-03     154.187E-03    -188.445E-03     302.688E-03    -113.882E-03     143.128E-03
             242     16.0393E-03     10.8194E-03    -1.80327E+06     89.0267E+06     83.4061E+06     992.206E+03    -171.270E-03     285.538E-03    -114.269E-03     140.552E-03    -175.802E-03     290.133E-03    -113.978E-03     131.014E-03
             243     16.0421E-03     12.0739E-03    -717.558E+03     90.8013E+06     86.5775E+06    -1.17416E+06    -164.621E-03     278.867E-03    -114.245E-03     130.381E-03    -168.910E-03     283.225E-03    -113.943E-03     121.881E-03
             244     16.0447E-03     13.3290E-03    -2.83598E+06     89.5109E+06     86.5676E+06    -627.337E+03    -157.127E-03     271.387E-03    -114.260E-03     134.768E-03    -161.611E-03     275.928E-03    -113.952E-03     127.116E-03
             245     16.0478E-03     14.5685E-03    -491.939E+03     89.9617E+06     86.6171E+06     1.53586E+06    -147.209E-03     261.463E-03    -114.254E-03     141.985E-03    -151.944E-03     266.265E-03    -113.951E-03     135.242E-03
             246     16.0550E-03     15.7904E-03    -1.49361E+06     89.9254E+06     85.3211E+06     162.457E+03    -140.980E-03     255.088E-03    -114.108E-03     143.307E-03    -145.898E-03     260.072E-03    -113.810E-03     137.104E-03
             247     16.0559E-03     17.0085E-03    -1.66603E+06     93.2797E+06     88.4893E+06    -231.293E+03    -141.674E-03     255.599E-03    -113.925E-03     146.309E-03    -146.844E-03     260.840E-03    -113.615E-03     140.210E-03
             248     16.0582E-03     18.2531E-03    -1.09598E+06     96.7657E+06     90.8103E+06     2.08791E+06    -140.446E-03     254.314E-03    -113.868E-03     154.604E-03    -145.950E-03     259.896E-03    -113.553E-03     148.612E-03
             249     16.0593E-03     19.4622E-03    -3.32764E+06     96.7222E+06     88.4460E+06     744.620E+03    -135.860E-03     249.739E-03    -113.880E-03     153.242E-03    -141.415E-03     255.369E-03    -113.573E-03     147.676E-03
             250     16.0604E-03     20.6650E-03    -3.30582E+06     98.3106E+06     89.2713E+06     76.8176E+03    -135.333E-03     249.120E-03    -113.787E-03     149.676E-03    -140.819E-03     254.685E-03    -113.479E-03     144.389E-03
             251     16.0634E-03     21.8967E-03    -2.05125E+06     101.609E+06     91.3756E+06     1.21403E+06    -134.929E-03     248.625E-03    -113.697E-03     154.772E-03    -140.624E-03     254.410E-03    -113.384E-03     149.500E-03
             252     16.0634E-03     23.1090E-03    -2.23124E+06     104.279E+06     91.0543E+06     1.66300E+06    -131.552E-03     245.254E-03    -113.702E-03     158.631E-03    -137.442E-03     251.242E-03    -113.395E-03     153.658E-03
             253     16.0653E-03     24.3097E-03    -2.00234E+06     107.517E+06     92.0232E+06     994.968E+03    -129.373E-03     243.058E-03    -113.686E-03     156.883E-03    -135.234E-03     249.027E-03    -113.378E-03     152.237E-03
             254     16.0656E-03     25.5221E-03    -3.77311E+06     107.112E+06     91.8275E+06     49.3439E+03    -128.947E-03     242.619E-03    -113.672E-03     156.505E-03    -134.858E-03     248.631E-03    -113.363E-03     151.970E-03
             255     16.0646E-03     26.7280E-03    -2.01370E+06     106.487E+06     92.9121E+06     568.515E+03    -125.937E-03     239.599E-03    -113.662E-03     159.573E-03    -131.956E-03     245.720E-03    -113.349E-03     155.365E-03
             256     16.0723E-03     27.9264E-03     583.410E+03     108.775E+06     94.6102E+06     321.001E+03    -124.289E-03     237.888E-03    -113.599E-03     160.411E-03    -130.376E-03     244.089E-03    -113.285E-03     156.354E-03
             257     16.0646E-03     29.1333E-03    -2.08448E+06     109.466E+06     93.2226E+06    -106.268E+03    -124.517E-03     238.129E-03    -113.612E-03     159.476E-03    -130.675E-03     244.398E-03    -113.301E-03     155.464E-03
             258     16.0707E-03     30.3309E-03    -3.92014E+06     108.385E+06     92.2437E+06     7.21106E+03    -122.692E-03     236.351E-03    -113.659E-03     160.769E-03    -128.932E-03     242.695E-03    -113.349E-03     157.010E-03
             259     16.0662E-03     31.5270E-03    -3.07870E+06     108.949E+06     93.8853E+06    -44.1999E+03    -122.346E-03     236.018E-03    -113.672E-03     160.797E-03    -128.614E-03     242.390E-03    -113.356E-03     157.144E-03
             260     16.0692E-03     32.7345E-03    -2.54580E+06     109.527E+06     93.7198E+06     950.365E+03    -121.126E-03     234.824E-03    -113.698E-03     163.162E-03    -127.482E-03     241.288E-03    -113.384E-03     159.640E-03
             261     16.0681E-03     33.9206E-03    -1.40455E+06     111.115E+06     94.2155E+06    -198.345E+03    -119.269E-03     232.980E-03    -113.711E-03     162.325E-03    -125.606E-03     239.433E-03    -113.399E-03     158.949E-03
             262     16.0692E-03     35.1210E-03    -2.58044E+06     110.273E+06     94.2136E+06    -1.08641E+06    -119.417E-03     233.125E-03    -113.707E-03     160.483E-03    -125.713E-03     239.530E-03    -113.392E-03     157.189E-03
             263     16.0681E-03     36.3109E-03    -1.96461E+06     111.569E+06     95.0623E+06     601.597E+03    -117.532E-03     231.203E-03    -113.670E-03     162.435E-03    -123.853E-03     237.637E-03    -113.354E-03     159.369E-03
             264     16.0750E-03     37.5094E-03    -1.26506E+06     112.506E+06     95.4874E+06    -89.8119E+03    -118.461E-03     232.073E-03    -113.612E-03     165.967E-03    -124.925E-03     238.655E-03    -113.296E-03     162.754E-03
             265     16.0648E-03     38.7058E-03    -3.40584E+06     109.997E+06     93.8207E+06     502.660E+03    -118.661E-03     232.375E-03    -113.714E-03     163.819E-03    -125.102E-03     238.924E-03    -113.400E-03     160.646E-03
             266     16.0711E-03     39.8966E-03    -3.78290E+06     109.485E+06     93.2813E+06     565.664E+03    -114.141E-03     227.962E-03    -113.822E-03     164.449E-03    -120.614E-03     234.542E-03    -113.508E-03     161.756E-03
             267     16.0691E-03     41.0718E-03    -2.57087E+06     111.423E+06     95.1103E+06    -533.307E+03    -116.085E-03     229.817E-03    -113.733E-03     165.198E-03    -122.596E-03     236.441E-03    -113.415E-03     162.359E-03
             268     16.0696E-03     42.2897E-03    -1.92595E+06     111.965E+06     95.1117E+06     704.352E+03    -117.375E-03     231.086E-03    -113.711E-03     167.600E-03    -123.978E-03     237.804E-03    -113.395E-03     164.575E-03
             269     16.0701E-03     43.4623E-03    -2.70408E+06     110.863E+06     93.3508E+06     561.094E+03    -113.917E-03     227.675E-03    -113.758E-03     166.137E-03    -120.449E-03     234.321E-03    -113.448E-03     163.419E-03
             270     16.0707E-03     44.6514E-03    -2.17619E+06     111.820E+06     95.4752E+06    -674.679E+03    -115.311E-03     229.048E-03    -113.737E-03     162.015E-03    -121.732E-03     235.581E-03    -113.419E-03     159.259E-03
             271     16.0682E-03     45.8478E-03    -1.74693E+06     112.246E+06     96.1678E+06    -308.703E+03    -116.378E-03     230.105E-03    -113.727E-03     163.530E-03    -122.843E-03     236.684E-03    -113.407E-03     160.636E-03
             272     16.0718E-03     47.0377E-03    -1.74492E+06     111.921E+06     94.9755E+06    -696.862E+03    -114.764E-03     228.484E-03    -113.720E-03     161.883E-03    -121.147E-03     234.984E-03    -113.405E-03     159.121E-03
             273     16.0696E-03     48.2172E-03    -3.65119E+06     110.707E+06     93.9726E+06    -1.20663E+06    -116.762E-03     230.418E-03    -113.656E-03     160.238E-03    -123.111E-03     236.876E-03    -113.342E-03     157.366E-03
             274     16.0710E-03     49.4279E-03    -1.14976E+06     113.295E+06     96.0459E+06     111.702E+03    -115.948E-03     229.620E-03    -113.672E-03     165.837E-03    -122.495E-03     236.287E-03    -113.354E-03     163.013E-03
             275     16.0715E-03     50.6139E-03    -2.58638E+06     111.957E+06     94.6085E+06    -104.179E+03    -113.488E-03     227.230E-03    -113.742E-03     169.962E-03    -120.225E-03     234.081E-03    -113.428E-03     167.322E-03
             276     16.0687E-03     51.7927E-03    -4.16805E+06     110.581E+06     93.8828E+06     640.367E+03    -115.833E-03     229.597E-03    -113.763E-03     164.183E-03    -122.332E-03     236.201E-03    -113.448E-03     161.446E-03
             277     16.0682E-03     52.9927E-03    -3.33775E+06     110.552E+06     93.2978E+06     647.690E+03    -115.708E-03     229.479E-03    -113.771E-03     164.205E-03    -122.133E-03     236.014E-03    -113.460E-03     161.416E-03
             278     16.0717E-03     54.1771E-03    -1.31057E+06     109.173E+06     94.0679E+06    -660.689E+03    -114.034E-03     227.784E-03    -113.750E-03     165.306E-03    -120.506E-03     234.366E-03    -113.436E-03     162.609E-03
             279     16.0695E-03     55.3662E-03    -1.47827E+06     109.351E+06     95.1759E+06     139.093E+03    -115.001E-03     228.717E-03    -113.716E-03     164.538E-03    -121.481E-03     235.303E-03    -113.396E-03     161.826E-03
             280     16.0711E-03     56.5617E-03    -2.31833E+06     110.958E+06     94.8160E+06     930.614E+03    -115.167E-03     228.888E-03    -113.721E-03     165.419E-03    -121.664E-03     235.496E-03    -113.405E-03     162.680E-03
             281     16.0694E-03     57.7452E-03    -1.63159E+06     111.937E+06     95.2001E+06     675.154E+03    -114.271E-03     228.006E-03    -113.735E-03     164.103E-03    -120.715E-03     234.566E-03    -113.419E-03     161.440E-03
             282     16.0717E-03     58.9356E-03    -2.58183E+06     111.654E+06     95.2139E+06    -279.594E+03    -114.369E-03     228.089E-03    -113.720E-03     162.691E-03    -120.775E-03     234.606E-03    -113.402E-03     160.050E-03
             283     16.0696E-03     60.1239E-03    -2.44152E+06     112.059E+06     95.6247E+06     124.976E+03    -116.215E-03     229.924E-03    -113.708E-03     164.911E-03    -122.715E-03     236.535E-03    -113.389E-03     162.097E-03
             284     16.0695E-03     61.3251E-03    -2.30953E+06     112.755E+06     95.1179E+06     750.377E+03    -114.457E-03     228.203E-03    -113.746E-03     166.283E-03    -120.998E-03     234.860E-03    -113.431E-03     163.579E-03
             285     16.0722E-03     62.5001E-03    -3.72123E+06     111.832E+06     93.7966E+06    -1.06024E+06    -112.809E-03     226.561E-03    -113.752E-03     165.030E-03    -119.353E-03     233.217E-03    -113.440E-03     162.511E-03
             286     16.0688E-03     63.6927E-03    -2.28334E+06     111.099E+06     95.3189E+06    -955.096E+03    -115.769E-03     229.504E-03    -113.735E-03     163.661E-03    -122.283E-03     236.128E-03    -113.416E-03     160.894E-03
             287     16.0694E-03     64.8900E-03    -2.86437E+06     110.046E+06     95.0206E+06     670.341E+03    -115.435E-03     229.211E-03    -113.776E-03     165.477E-03    -121.959E-03     235.840E-03    -113.456E-03     162.717E-03
             288     16.0699E-03     66.0709E-03    -1.29352E+06     111.122E+06     95.0665E+06      63.812E+03    -112.664E-03     226.414E-03    -113.750E-03     164.764E-03    -119.125E-03     232.989E-03    -113.434E-03     162.227E-03
             289     16.0741E-03     67.2572E-03    -840.505E+03     111.420E+06     94.9661E+06    -1.50104E+06    -114.119E-03     227.770E-03    -113.651E-03     161.584E-03    -120.510E-03     234.278E-03    -113.337E-03     158.897E-03
             290     16.0685E-03     68.4515E-03    -4.34865E+06     110.448E+06     94.3827E+06    -752.976E+03    -117.643E-03     231.313E-03    -113.670E-03     161.791E-03    -124.110E-03     237.883E-03    -113.352E-03     158.876E-03
             291     16.0688E-03     69.6505E-03    -4.66747E+06     109.949E+06     94.0751E+06     1.65939E+06    -116.777E-03     230.559E-03    -113.782E-03     164.995E-03    -123.293E-03     237.176E-03    -113.464E-03     162.147E-03
             292     803.206E-06     68.8060E-03    -89.6544E+06    -247.048E+06    -87.9896E+06     57.5830E+03    -113.947E-03     227.741E-03    -113.794E-03     14.8234E-03    -113.922E-03     226.776E-03    -113.746E-03     14.4686E-03
             293     1.60639E-03     68.8293E-03    -87.3303E+06    -242.771E+06    -81.4322E+06    -76.8799E+03    -114.008E-03     227.872E-03    -113.864E-03     27.1123E-03    -114.015E-03     226.943E-03    -113.792E-03     26.4457E-03
             294     2.40956E-03     68.8670E-03    -83.8552E+06    -236.687E+06    -72.1915E+06    -54.2423E+03    -114.186E-03     228.073E-03    -113.887E-03     39.9499E-03    -114.245E-03     227.204E-03    -113.784E-03     38.9362E-03
             295     3.21299E-03     68.9189E-03    -79.4435E+06    -228.965E+06    -60.9424E+06     70.4109E+03    -114.424E-03     228.337E-03    -113.913E-03     52.7521E-03    -114.560E-03     227.555E-03    -113.770E-03     51.3640E-03
             296     4.01593E-03     68.9853E-03    -74.6371E+06    -215.052E+06    -50.0684E+06    -14.2898E+03    -114.728E-03     228.652E-03    -113.924E-03     65.4762E-03    -114.975E-03     228.016E-03    -113.755E-03     63.6755E-03
             297     4.81976E-03     69.0657E-03    -69.8778E+06    -199.351E+06    -39.5298E+06     82.4517E+03    -115.130E-03     229.064E-03    -113.935E-03     77.9975E-03    -115.525E-03     228.619E-03    -113.742E-03     75.7387E-03
             298     5.62245E-03     69.1599E-03    -64.9798E+06    -186.286E+06    -29.3084E+06     44.9519E+03    -115.568E-03     229.520E-03    -113.953E-03     90.3017E-03    -116.150E-03     229.295E-03    -113.735E-03     87.5243E-03
             299     6.42620E-03     69.2679E-03    -59.7890E+06    -169.827E+06    -21.2110E+06    -219.340E+03    -115.944E-03     229.897E-03    -113.953E-03     102.492E-03    -116.767E-03     229.966E-03    -113.726E-03     99.1318E-03
             300     7.22931E-03     69.3892E-03    -55.0537E+06    -144.204E+06    -15.0767E+06    -96.3837E+03    -116.319E-03     230.242E-03    -113.924E-03     114.841E-03    -117.466E-03     230.726E-03    -113.710E-03     110.832E-03
             301     8.03267E-03     69.5238E-03    -50.8926E+06    -119.179E+06    -8.80786E+06    -127.022E+03    -116.704E-03     230.596E-03    -113.892E-03     127.303E-03    -118.272E-03     231.586E-03    -113.690E-03     122.549E-03
             302     8.83659E-03     69.6725E-03    -46.9934E+06    -88.5208E+06    -3.78032E+06    -230.762E+03    -116.998E-03     230.840E-03    -113.842E-03     139.855E-03    -119.113E-03     232.484E-03    -113.664E-03     134.265E-03
             303     9.63974E-03     69.8342E-03    -43.0049E+06    -38.1504E+06     1.41149E+06    -317.692E+03    -117.223E-03     230.981E-03    -113.758E-03     152.710E-03    -120.073E-03     233.539E-03    -113.633E-03     146.178E-03
             304     10.4437E-03     70.0104E-03    -39.5707E+06     10.3664E+06     10.4894E+06    -171.965E+03    -117.668E-03     231.362E-03    -113.694E-03     170.028E-03    -121.598E-03     235.157E-03    -113.599E-03     162.346E-03
             305     11.2476E-03     70.2110E-03    -36.2076E+06     43.2922E+06     27.4630E+06     134.518E+03    -118.931E-03     232.621E-03    -113.690E-03     198.437E-03    -124.627E-03     238.263E-03    -113.563E-03     189.242E-03
             306     12.0515E-03     70.4499E-03    -30.7413E+06     65.3203E+06     55.2085E+06    -71.7598E+03    -121.743E-03     235.503E-03    -113.760E-03     240.834E-03    -130.384E-03     244.106E-03    -113.534E-03     229.638E-03
             307     12.8548E-03     70.7495E-03    -23.6506E+06     82.0414E+06     81.1746E+06    -759.768E+03    -124.760E-03     238.610E-03    -113.850E-03     282.770E-03    -137.362E-03     251.184E-03    -113.529E-03     269.673E-03
             308     13.6567E-03     71.0844E-03    -16.5645E+06     96.8399E+06     93.6688E+06     258.946E+03    -126.091E-03     239.988E-03    -113.896E-03     309.905E-03    -142.503E-03     256.413E-03    -113.544E-03     296.499E-03
             309     14.4610E-03     71.4527E-03    -10.4112E+06     111.521E+06     97.7364E+06     1.56175E+06    -125.532E-03     239.408E-03    -113.877E-03     329.946E-03    -145.923E-03     259.875E-03    -113.535E-03     318.444E-03
             310     15.2641E-03     71.8371E-03    -4.81367E+06     116.198E+06     97.5209E+06     601.707E+03    -119.656E-03     233.467E-03    -113.811E-03     251.718E-03    -134.221E-03     248.144E-03    -113.485E-03     245.360E-03
             311     803.164E-06     69.9956E-03    -89.4631E+06    -246.812E+06    -87.9374E+06    -75.7878E+03    -113.995E-03     227.791E-03    -113.796E-03     14.8211E-03    -113.970E-03     226.827E-03    -113.748E-03     14.4637E-03
             312     1.60637E-03     70.0189E-03    -87.1733E+06    -242.533E+06    -81.2337E+06    -113.954E+03    -114.000E-03     227.883E-03    -113.883E-03     27.0726E-03    -114.006E-03     226.954E-03    -113.811E-03     26.4038E-03
             313     2.40968E-03     70.0565E-03    -83.7169E+06    -236.600E+06    -72.2497E+06    -219.917E+03    -114.176E-03     228.072E-03    -113.896E-03     39.9168E-03    -114.234E-03     227.203E-03    -113.793E-03     38.9007E-03
             314     3.21274E-03     70.1086E-03    -79.4994E+06    -229.164E+06    -61.4087E+06    -96.6887E+03    -114.448E-03     228.367E-03    -113.919E-03     52.7052E-03    -114.583E-03     227.585E-03    -113.778E-03     51.3134E-03
             315     4.01633E-03     70.1748E-03    -75.0055E+06    -214.795E+06    -50.2609E+06     127.508E+03    -114.776E-03     228.714E-03    -113.937E-03     65.4044E-03    -115.025E-03     228.080E-03    -113.769E-03     63.6034E-03
             316     4.81914E-03     70.2553E-03    -69.9611E+06    -199.131E+06    -39.6935E+06     1.72283E+03    -115.174E-03     229.128E-03    -113.954E-03     77.9445E-03    -115.571E-03     228.684E-03    -113.762E-03     75.6808E-03
             317     5.62284E-03     70.3499E-03    -64.5409E+06    -185.848E+06    -29.5531E+06    -33.1451E+03    -115.563E-03     229.534E-03    -113.971E-03     90.2820E-03    -116.143E-03     229.311E-03    -113.756E-03     87.5034E-03
             318     6.42560E-03     70.4575E-03    -59.7849E+06    -169.706E+06    -21.2742E+06    -69.8787E+03    -115.911E-03     229.879E-03    -113.968E-03     102.523E-03    -116.735E-03     229.950E-03    -113.742E-03     99.1639E-03
             319     7.22940E-03     70.5786E-03    -55.4641E+06    -144.750E+06    -15.5032E+06     1.49065E+03    -116.274E-03     230.207E-03    -113.933E-03     114.857E-03    -117.422E-03     230.689E-03    -113.720E-03     110.850E-03
             320     8.03290E-03     70.7138E-03    -51.2367E+06    -119.049E+06    -9.14169E+06     54.0710E+03    -116.687E-03     230.584E-03    -113.896E-03     127.264E-03    -118.256E-03     231.575E-03    -113.695E-03     122.514E-03
             321     8.83600E-03     70.8617E-03    -47.1180E+06    -87.8824E+06    -3.68630E+06    -284.142E+03    -117.088E-03     230.939E-03    -113.851E-03     139.590E-03    -119.204E-03     232.586E-03    -113.674E-03     133.992E-03
             322     9.64015E-03     71.0240E-03    -43.5547E+06    -38.0672E+06     1.10297E+06    -183.843E+03    -117.361E-03     231.139E-03    -113.778E-03     152.283E-03    -120.214E-03     233.699E-03    -113.654E-03     145.739E-03
             323     10.4433E-03     71.2003E-03    -40.0102E+06     9.81649E+06     9.53795E+06     335.865E+03    -117.771E-03     231.494E-03    -113.723E-03     169.330E-03    -121.692E-03     235.280E-03    -113.632E-03     161.650E-03
             324     11.2471E-03     71.3997E-03    -35.3635E+06     43.7343E+06     27.1389E+06     254.429E+03    -119.272E-03     233.008E-03    -113.736E-03     198.037E-03    -124.967E-03     238.654E-03    -113.613E-03     188.806E-03
             325     12.0498E-03     71.6413E-03    -29.5496E+06     66.6154E+06     56.6458E+06    -892.509E+03    -122.070E-03     235.904E-03    -113.834E-03     240.645E-03    -130.700E-03     244.502E-03    -113.605E-03     229.407E-03
             326     12.8536E-03     71.9372E-03    -23.4484E+06     81.2849E+06     81.5187E+06    -741.920E+03    -124.885E-03     238.813E-03    -113.927E-03     283.810E-03    -137.475E-03     251.372E-03    -113.604E-03     270.724E-03
             327     13.6568E-03     72.2797E-03    -17.5065E+06     94.9376E+06     91.7723E+06     240.355E+03    -125.578E-03     239.516E-03    -113.938E-03     310.926E-03    -141.975E-03     255.922E-03    -113.592E-03     297.630E-03
             328     14.4604E-03     72.6368E-03    -10.6197E+06     111.531E+06     97.0117E+06     625.233E+03    -124.289E-03     238.159E-03    -113.870E-03     328.959E-03    -144.662E-03     258.608E-03    -113.531E-03     317.634E-03
             329     15.2700E-03     73.0279E-03    -4.45797E+06     117.005E+06     97.9885E+06     801.261E+03    -119.395E-03     233.171E-03    -113.776E-03     251.806E-03    -133.983E-03     247.875E-03    -113.449E-03     245.482E-03
             330     803.141E-06     71.1853E-03    -89.2527E+06    -246.502E+06    -87.6177E+06    -158.579E+03    -114.010E-03     227.856E-03    -113.846E-03     14.7397E-03    -113.984E-03     226.893E-03    -113.797E-03     14.3788E-03
             331     1.60631E-03     71.2085E-03    -86.9199E+06    -242.338E+06    -81.1896E+06    -116.500E+03    -114.016E-03     227.927E-03    -113.911E-03     27.0120E-03    -114.022E-03     227.000E-03    -113.840E-03     26.3423E-03
             332     2.40948E-03     71.2461E-03    -83.6480E+06    -236.350E+06    -71.9949E+06    -52.4632E+03    -114.203E-03     228.126E-03    -113.923E-03     39.8731E-03    -114.262E-03     227.258E-03    -113.819E-03     38.8583E-03
             333     3.21290E-03     71.2982E-03    -79.6779E+06    -229.178E+06    -61.3476E+06    -127.700E+03    -114.500E-03     228.449E-03    -113.949E-03     52.6546E-03    -114.636E-03     227.667E-03    -113.808E-03     51.2604E-03
             334     4.01578E-03     71.3645E-03    -74.7501E+06    -214.909E+06    -50.4839E+06    -30.3870E+03    -114.838E-03     228.809E-03    -113.972E-03     65.3544E-03    -115.086E-03     228.175E-03    -113.804E-03     63.5475E-03
             335     4.81933E-03     71.4452E-03    -69.5995E+06    -198.737E+06    -39.4054E+06    -30.8359E+03    -115.139E-03     229.126E-03    -113.987E-03     77.9538E-03    -115.535E-03     228.683E-03    -113.795E-03     75.6908E-03
             336     5.62219E-03     71.5394E-03    -64.7934E+06    -186.080E+06    -29.5962E+06     56.4794E+03    -115.469E-03     229.458E-03    -113.990E-03     90.2884E-03    -116.049E-03     229.235E-03    -113.774E-03     87.5135E-03
             337     6.42620E-03     71.6472E-03    -60.0015E+06    -169.488E+06    -21.3459E+06     256.392E+03    -115.902E-03     229.879E-03    -113.977E-03     102.528E-03    -116.727E-03     229.951E-03    -113.751E-03     99.1748E-03
             338     7.22909E-03     71.7685E-03    -55.3947E+06    -144.552E+06    -15.3428E+06    -10.6860E+03    -116.341E-03     230.286E-03    -113.945E-03     114.766E-03    -117.491E-03     230.771E-03    -113.732E-03     110.751E-03
             339     8.03264E-03     71.9030E-03    -50.9203E+06    -119.056E+06    -9.22488E+06    -32.9488E+03    -116.777E-03     230.692E-03    -113.915E-03     127.102E-03    -118.344E-03     231.682E-03    -113.715E-03     122.346E-03
             340     8.83635E-03     72.0521E-03    -47.0494E+06    -87.5499E+06    -3.67917E+06     135.125E+03    -117.251E-03     231.132E-03    -113.880E-03     139.493E-03    -119.368E-03     232.781E-03    -113.704E-03     133.892E-03
             341     9.63880E-03     72.2135E-03    -43.4634E+06    -38.4785E+06     993.119E+03     183.447E+03    -117.531E-03     231.351E-03    -113.820E-03     152.172E-03    -120.385E-03     233.912E-03    -113.696E-03     145.618E-03
             342     10.4427E-03     72.3900E-03    -39.3078E+06     10.0471E+06     9.88023E+06    -31.6993E+03    -118.005E-03     231.783E-03    -113.778E-03     169.336E-03    -121.927E-03     235.572E-03    -113.686E-03     161.631E-03
             343     11.2458E-03     72.5897E-03    -34.3718E+06     44.7445E+06     28.5301E+06    -831.748E+03    -119.349E-03     233.149E-03    -113.800E-03     198.483E-03    -125.043E-03     238.798E-03    -113.673E-03     189.236E-03
             344     12.0498E-03     72.8316E-03    -29.1601E+06     66.7187E+06     57.3870E+06    -591.192E+03    -121.954E-03     235.840E-03    -113.886E-03     241.494E-03    -130.585E-03     244.438E-03    -113.654E-03     230.284E-03
             345     12.8526E-03     73.1278E-03    -23.8399E+06     80.7245E+06     81.0364E+06     162.665E+03    -124.390E-03     238.334E-03    -113.943E-03     285.098E-03    -137.000E-03     250.910E-03    -113.621E-03     272.088E-03
             346     13.6571E-03     73.4684E-03    -18.1317E+06     94.9087E+06     91.7925E+06     71.2681E+03    -124.854E-03     238.765E-03    -113.910E-03     311.456E-03    -141.240E-03     255.157E-03    -113.563E-03     298.289E-03
             347     14.4624E-03     73.8270E-03    -12.6815E+06     111.230E+06     96.1304E+06    -8.41503E+03    -125.012E-03     238.850E-03    -113.838E-03     328.911E-03    -145.410E-03     259.319E-03    -113.500E-03     317.515E-03
             348     15.2617E-03     74.2123E-03    -5.51086E+06     116.704E+06     96.6468E+06    -202.216E+03    -119.388E-03     233.149E-03    -113.761E-03     252.522E-03    -134.043E-03     247.918E-03    -113.439E-03     246.106E-03
             349     803.076E-06     72.3751E-03    -89.1430E+06    -246.412E+06    -87.4902E+06     178.419E+03    -114.016E-03     227.894E-03    -113.878E-03     14.7422E-03    -113.990E-03     226.931E-03    -113.829E-03     14.3856E-03
             350     1.60629E-03     72.3981E-03    -87.1457E+06    -242.219E+06    -80.8179E+06     131.632E+03    -114.071E-03     228.011E-03    -113.940E-03     27.0129E-03    -114.079E-03     227.084E-03    -113.866E-03     26.3459E-03
             351     2.40950E-03     72.4358E-03    -83.7282E+06    -236.252E+06    -71.7513E+06     95.0029E+03    -114.274E-03     228.237E-03    -113.964E-03     39.8689E-03    -114.334E-03     227.369E-03    -113.858E-03     38.8551E-03
             352     3.21249E-03     72.4878E-03    -79.5225E+06    -228.901E+06    -60.9815E+06     105.701E+03    -114.543E-03     228.538E-03    -113.995E-03     52.6949E-03    -114.679E-03     227.756E-03    -113.853E-03     51.3036E-03
             353     4.01588E-03     72.5545E-03    -74.9468E+06    -214.959E+06    -50.4257E+06    -71.6621E+03    -114.807E-03     228.816E-03    -114.009E-03     65.4252E-03    -115.056E-03     228.183E-03    -113.841E-03     63.6174E-03
             354     4.81883E-03     72.6347E-03    -69.9708E+06    -198.941E+06    -39.5381E+06    -5.13605E+03    -115.082E-03     229.092E-03    -114.010E-03     77.9564E-03    -115.478E-03     228.649E-03    -113.818E-03     75.6951E-03
             355     5.62273E-03     72.7292E-03    -64.7816E+06    -186.014E+06    -29.1857E+06     149.820E+03    -115.479E-03     229.487E-03    -114.008E-03     90.2771E-03    -116.060E-03     229.263E-03    -113.791E-03     87.5033E-03
             356     6.42546E-03     72.8368E-03    -59.6846E+06    -169.305E+06    -21.3836E+06     131.607E+03    -115.942E-03     229.936E-03    -113.994E-03     102.448E-03    -116.765E-03     230.008E-03    -113.769E-03     99.0910E-03
             357     7.22931E-03     72.9583E-03    -54.9753E+06    -143.974E+06    -15.2472E+06     12.7423E+03    -116.431E-03     230.398E-03    -113.967E-03     114.698E-03    -117.580E-03     230.885E-03    -113.755E-03     110.682E-03
             358     8.03230E-03     73.0931E-03    -50.8623E+06    -119.083E+06    -9.16122E+06    -8.30366E+03    -116.938E-03     230.887E-03    -113.949E-03     127.094E-03    -118.507E-03     231.879E-03    -113.748E-03     122.328E-03
             359     8.83530E-03     73.2416E-03    -46.6199E+06    -87.8321E+06    -3.68372E+06     135.231E+03    -117.261E-03     231.180E-03    -113.918E-03     139.565E-03    -119.374E-03     232.826E-03    -113.742E-03     133.965E-03
             360     9.63936E-03     73.4042E-03    -42.2528E+06    -38.4777E+06     1.66320E+06     30.9989E+03    -117.507E-03     231.361E-03    -113.854E-03     152.470E-03    -120.355E-03     233.918E-03    -113.729E-03     145.923E-03
             361     10.4421E-03     73.5798E-03    -38.0969E+06     10.8917E+06     11.1605E+06    -456.201E+03    -118.020E-03     231.827E-03    -113.807E-03     170.097E-03    -121.951E-03     235.630E-03    -113.712E-03     162.380E-03
             362     11.2457E-03     73.7805E-03    -34.4383E+06     45.3495E+06     29.5906E+06    -525.176E+03    -119.131E-03     232.947E-03    -113.816E-03     199.265E-03    -124.829E-03     238.598E-03    -113.684E-03     190.050E-03
             363     12.0493E-03     74.0204E-03    -30.6661E+06     65.4989E+06     56.3471E+06     270.194E+03    -121.654E-03     235.524E-03    -113.870E-03     242.619E-03    -130.310E-03     244.140E-03    -113.639E-03     231.454E-03
             364     12.8541E-03     74.3188E-03    -24.9724E+06     81.1926E+06     80.4374E+06     398.366E+03    -123.982E-03     237.883E-03    -113.901E-03     285.133E-03    -136.587E-03     250.454E-03    -113.580E-03     272.191E-03
             365     13.6587E-03     74.6564E-03    -17.8561E+06     95.4372E+06     92.3241E+06     174.037E+03    -124.751E-03     238.611E-03    -113.860E-03     311.088E-03    -141.103E-03     254.971E-03    -113.511E-03     297.952E-03
             366     14.4627E-03     75.0170E-03    -10.6027E+06     111.937E+06     97.2970E+06     205.736E+03    -125.191E-03     238.980E-03    -113.789E-03     329.520E-03    -145.558E-03     259.425E-03    -113.450E-03     318.050E-03
             367     15.2700E-03     75.4077E-03    -5.28225E+06     117.269E+06     97.0604E+06    -449.714E+03    -120.321E-03     234.062E-03    -113.741E-03     251.290E-03    -134.942E-03     248.799E-03    -113.418E-03     244.802E-03
             368     803.216E-06     73.5648E-03    -89.7783E+06    -247.039E+06    -88.1304E+06     264.050E+03    -114.050E-03     227.898E-03    -113.848E-03     14.7860E-03    -114.025E-03     226.934E-03    -113.801E-03     14.4322E-03
             369     1.60623E-03     73.5879E-03    -87.3253E+06    -242.454E+06    -81.0576E+06     492.737E+03    -114.132E-03     228.086E-03    -113.954E-03     27.0471E-03    -114.140E-03     227.158E-03    -113.881E-03     26.3852E-03
             370     2.40928E-03     73.6256E-03    -84.0337E+06    -236.181E+06    -71.4201E+06     529.340E+03    -114.310E-03     228.302E-03    -113.993E-03     39.9798E-03    -114.372E-03     227.435E-03    -113.886E-03     38.9729E-03
             371     3.21252E-03     73.6778E-03    -79.7941E+06    -228.714E+06    -60.5568E+06     338.442E+03    -114.540E-03     228.562E-03    -114.022E-03     52.8384E-03    -114.679E-03     227.782E-03    -113.877E-03     51.4510E-03
             372     4.01558E-03     73.7441E-03    -75.0384E+06    -214.514E+06    -50.0440E+06     140.159E+03    -114.793E-03     228.822E-03    -114.029E-03     65.4540E-03    -115.044E-03     228.190E-03    -113.859E-03     63.6498E-03
             373     4.81923E-03     73.8246E-03    -70.1722E+06    -199.002E+06    -39.6840E+06    -28.9463E+03    -115.110E-03     229.136E-03    -114.026E-03     77.8953E-03    -115.507E-03     228.693E-03    -113.834E-03     75.6307E-03
             374     5.62201E-03     73.9187E-03    -65.0141E+06    -186.255E+06    -29.7339E+06    -76.8298E+03    -115.530E-03     229.556E-03    -114.026E-03     90.3118E-03    -116.112E-03     229.332E-03    -113.810E-03     87.5347E-03
             375     6.42584E-03     74.0269E-03    -59.8896E+06    -169.274E+06    -21.6206E+06    -40.9244E+03    -116.009E-03     230.026E-03    -114.017E-03     102.538E-03    -116.834E-03     230.100E-03    -113.793E-03     99.1768E-03
             376     7.22862E-03     74.1479E-03    -55.1891E+06    -143.703E+06    -15.3858E+06    -6.51139E+03    -116.503E-03     230.498E-03    -113.995E-03     114.853E-03    -117.652E-03     230.986E-03    -113.783E-03     110.837E-03
             377     8.03215E-03     74.2834E-03    -50.6827E+06    -118.740E+06    -8.92034E+06    -180.596E+03    -116.927E-03     230.904E-03    -113.977E-03     127.308E-03    -118.496E-03     231.898E-03    -113.776E-03     122.542E-03
             378     8.83544E-03     74.4318E-03    -46.4743E+06    -87.9847E+06    -3.64367E+06    -347.595E+03    -117.160E-03     231.097E-03    -113.937E-03     139.821E-03    -119.273E-03     232.743E-03    -113.760E-03     134.222E-03
             379     9.63849E-03     74.5934E-03    -42.5075E+06    -37.8257E+06     1.86984E+06    -553.409E+03    -117.324E-03     231.181E-03    -113.857E-03     153.016E-03    -120.172E-03     233.738E-03    -113.731E-03     146.482E-03
             380     10.4426E-03     74.7705E-03    -38.9626E+06     11.0550E+06     10.8877E+06    -399.482E+03    -117.696E-03     231.482E-03    -113.786E-03     170.563E-03    -121.628E-03     235.283E-03    -113.691E-03     162.879E-03
             381     11.2464E-03     74.9698E-03    -35.2199E+06     44.4894E+06     27.8265E+06     347.050E+03    -118.985E-03     232.756E-03    -113.771E-03     199.433E-03    -124.685E-03     238.408E-03    -113.645E-03     190.241E-03
             382     12.0510E-03     75.2103E-03    -29.2839E+06     65.3634E+06     56.3490E+06     563.725E+03    -121.598E-03     235.424E-03    -113.825E-03     242.407E-03    -130.240E-03     244.030E-03    -113.596E-03     231.249E-03
             383     12.8542E-03     75.5083E-03    -22.3245E+06     81.0298E+06     81.4785E+06     1.05051E+06    -123.898E-03     237.760E-03    -113.862E-03     284.238E-03    -136.441E-03     250.275E-03    -113.539E-03     271.334E-03
             384     13.6586E-03     75.8445E-03    -16.0531E+06       95.85E+06     92.5855E+06     816.593E+03    -125.078E-03     238.909E-03    -113.832E-03     310.668E-03    -141.450E-03     255.297E-03    -113.485E-03     297.452E-03
             385     14.4628E-03     76.2075E-03    -9.88567E+06     112.895E+06     97.9352E+06    -537.263E+03    -125.401E-03     239.193E-03    -113.792E-03     328.137E-03    -145.818E-03     259.692E-03    -113.452E-03     316.563E-03
             386     15.2649E-03     76.5917E-03    -5.22631E+06     117.556E+06     97.6402E+06    -151.362E+03    -120.442E-03     234.212E-03    -113.770E-03     250.460E-03    -135.057E-03     248.943E-03    -113.445E-03     243.951E-03
             387     803.096E-06     74.7545E-03    -90.2525E+06    -247.490E+06    -88.6588E+06     117.786E+03    -114.048E-03     227.929E-03    -113.881E-03     14.7847E-03    -114.024E-03     226.964E-03    -113.835E-03     14.4300E-03
             388     1.60625E-03     74.7778E-03    -87.7896E+06    -243.111E+06    -81.9966E+06     272.126E+03    -114.115E-03     228.075E-03    -113.960E-03     27.1044E-03    -114.123E-03     227.146E-03    -113.890E-03     26.4405E-03
             389     2.40940E-03     74.8154E-03    -84.1139E+06    -236.548E+06    -72.0616E+06     681.722E+03    -114.300E-03     228.291E-03    -113.991E-03     40.0342E-03    -114.361E-03     227.422E-03    -113.886E-03     39.0294E-03
             390     3.21252E-03     74.8676E-03    -79.9281E+06    -228.590E+06    -60.2958E+06     754.792E+03    -114.536E-03     228.557E-03    -114.021E-03     52.8581E-03    -114.676E-03     227.777E-03    -113.876E-03     51.4769E-03
             391     4.01582E-03     74.9340E-03    -75.1018E+06    -214.012E+06    -49.4941E+06     420.259E+03    -114.816E-03     228.847E-03    -114.031E-03     65.4825E-03    -115.068E-03     228.217E-03    -113.859E-03     63.6837E-03
             392     4.81867E-03     75.0143E-03    -69.9304E+06    -198.329E+06    -39.1022E+06    -31.4009E+03    -115.186E-03     229.221E-03    -114.036E-03     78.0117E-03    -115.584E-03     228.781E-03    -113.842E-03     75.7469E-03
             393     5.62244E-03     75.1086E-03    -64.7995E+06    -186.158E+06    -29.4245E+06    -258.606E+03    -115.595E-03     229.638E-03    -114.043E-03     90.3725E-03    -116.176E-03     229.414E-03    -113.827E-03     87.5889E-03
             394     6.42524E-03     75.2166E-03    -59.7175E+06    -169.275E+06    -21.3999E+06    -134.638E+03    -116.033E-03     230.071E-03    -114.037E-03     102.672E-03    -116.858E-03     230.144E-03    -113.812E-03     99.3109E-03
             395     7.22891E-03     75.3381E-03    -55.0532E+06    -143.787E+06    -15.4022E+06    -138.618E+03    -116.443E-03     230.451E-03    -114.008E-03     115.085E-03    -117.592E-03     230.939E-03    -113.797E-03     111.070E-03
             396     8.03183E-03     75.4733E-03    -50.8858E+06    -118.730E+06    -9.06357E+06    -231.058E+03    -116.727E-03     230.702E-03    -113.974E-03     127.640E-03    -118.297E-03     231.695E-03    -113.773E-03     122.886E-03
             397     8.83549E-03     75.6214E-03    -46.9730E+06    -87.3493E+06    -3.50859E+06    -343.109E+03    -117.053E-03     230.972E-03    -113.919E-03     140.159E-03    -119.170E-03     232.622E-03    -113.742E-03     134.569E-03
             398     9.63950E-03     75.7835E-03    -43.6045E+06    -37.2945E+06     1.51425E+06    -331.597E+03    -117.199E-03     231.027E-03    -113.828E-03     153.115E-03    -120.054E-03     233.591E-03    -113.703E-03     146.589E-03
             399     10.4430E-03     75.9597E-03    -40.1828E+06     10.7250E+06     9.88086E+06    -271.865E+03    -117.564E-03     231.312E-03    -113.748E-03     170.412E-03    -121.492E-03     235.106E-03    -113.656E-03     162.746E-03
             400     11.2472E-03     76.1593E-03    -35.3040E+06     44.3553E+06     27.6669E+06    -628.528E+03    -118.993E-03     232.727E-03    -113.735E-03     199.169E-03    -124.696E-03     238.382E-03    -113.609E-03     189.956E-03
             401     12.0499E-03     76.4007E-03    -29.5925E+06     64.6347E+06     55.9023E+06    -682.731E+03    -121.558E-03     235.352E-03    -113.794E-03     241.992E-03    -130.193E-03     243.949E-03    -113.565E-03     230.823E-03
             402     12.8549E-03     76.6964E-03    -23.4683E+06     79.4626E+06     80.3432E+06     104.523E+03    -124.054E-03     237.892E-03    -113.838E-03     284.059E-03    -136.627E-03     250.431E-03    -113.517E-03     271.097E-03
             403     13.6590E-03     77.0353E-03    -16.7124E+06     96.9821E+06     93.1476E+06     516.074E+03    -125.658E-03     239.497E-03    -113.839E-03     310.798E-03    -142.127E-03     255.980E-03    -113.489E-03     297.438E-03
             404     14.4620E-03     77.3967E-03    -10.8548E+06     113.639E+06     98.1565E+06     429.396E+03    -126.144E-03     239.980E-03    -113.836E-03     328.195E-03    -146.547E-03     260.462E-03    -113.494E-03     316.568E-03
             405     15.2650E-03     77.7858E-03    -5.27981E+06     117.173E+06     97.5376E+06     166.061E+03    -119.827E-03     233.636E-03    -113.810E-03     250.888E-03    -134.379E-03     248.303E-03    -113.484E-03     244.451E-03
             406     803.067E-06     75.9443E-03    -90.4086E+06    -247.485E+06    -88.6997E+06     93.0845E+03    -114.036E-03     227.958E-03    -113.923E-03     14.8308E-03    -114.013E-03     226.993E-03    -113.876E-03     14.4753E-03
             407     1.60624E-03     75.9676E-03    -88.1584E+06    -243.316E+06    -82.2185E+06     64.0179E+03    -114.104E-03     228.074E-03    -113.970E-03     27.1125E-03    -114.113E-03     227.144E-03    -113.900E-03     26.4451E-03
             408     2.40936E-03     76.0053E-03    -84.6006E+06    -237.362E+06    -73.2748E+06     216.065E+03    -114.279E-03     228.267E-03    -113.988E-03     39.9637E-03    -114.340E-03     227.397E-03    -113.888E-03     38.9519E-03
             409     3.21254E-03     76.0575E-03    -79.7231E+06    -228.940E+06    -61.1585E+06     667.677E+03    -114.494E-03     228.505E-03    -114.011E-03     52.8474E-03    -114.631E-03     227.724E-03    -113.869E-03     51.4667E-03
             410     4.01565E-03     76.1238E-03    -74.5822E+06    -213.184E+06    -49.1800E+06     488.514E+03    -114.807E-03     228.827E-03    -114.019E-03     65.5588E-03    -115.059E-03     228.199E-03    -113.848E-03     63.7624E-03
             411     4.81928E-03     76.2042E-03    -69.5405E+06    -197.600E+06    -38.6618E+06    -10.7422E+03    -115.231E-03     229.259E-03    -114.028E-03     78.1600E-03    -115.629E-03     228.821E-03    -113.834E-03     75.8970E-03
             412     5.62186E-03     76.2987E-03    -64.5177E+06    -185.584E+06    -28.8810E+06    -157.124E+03    -115.664E-03     229.709E-03    -114.045E-03     90.4972E-03    -116.247E-03     229.488E-03    -113.827E-03     87.7117E-03
             413     6.42557E-03     76.4063E-03    -59.8329E+06    -169.296E+06    -21.3412E+06    -254.731E+03    -115.993E-03     230.033E-03    -114.039E-03     102.858E-03    -116.819E-03     230.107E-03    -113.814E-03     99.4958E-03
             414     7.22848E-03     76.5283E-03    -55.2862E+06    -144.055E+06    -15.5174E+06    -147.116E+03    -116.257E-03     230.254E-03    -113.997E-03     115.250E-03    -117.407E-03     230.741E-03    -113.785E-03     111.244E-03
             415     8.03261E-03     76.6625E-03    -50.9283E+06    -118.530E+06    -8.95366E+06    -55.1884E+03    -116.642E-03     230.591E-03    -113.949E-03     127.637E-03    -118.212E-03     231.586E-03    -113.748E-03     122.888E-03
             416     8.83615E-03     76.8116E-03    -46.9260E+06    -87.2191E+06    -3.49625E+06    -38.3459E+03    -117.006E-03     230.896E-03    -113.890E-03     140.031E-03    -119.122E-03     232.547E-03    -113.713E-03     134.444E-03
             417     9.63919E-03     76.9731E-03    -43.0952E+06    -37.2695E+06     1.57102E+06     194.663E+03    -117.201E-03     231.003E-03    -113.802E-03     152.652E-03    -120.052E-03     233.564E-03    -113.677E-03     146.130E-03
             418     10.4435E-03     77.1488E-03    -39.1552E+06     11.6136E+06     10.8991E+06    -253.683E+03    -117.631E-03     231.362E-03    -113.731E-03     170.157E-03    -121.557E-03     235.158E-03    -113.637E-03     162.484E-03
             419     11.2465E-03     77.3497E-03    -35.5269E+06     44.8955E+06     28.4569E+06    -692.853E+03    -118.899E-03     232.619E-03    -113.721E-03     199.175E-03    -124.603E-03     238.275E-03    -113.592E-03     189.972E-03
             420     12.0518E-03     77.5893E-03    -31.7551E+06     64.4259E+06     55.1717E+06    -487.601E+03    -121.579E-03     235.355E-03    -113.776E-03     241.679E-03    -130.219E-03     243.951E-03    -113.548E-03     230.513E-03
             421     12.8549E-03     77.8870E-03    -25.9642E+06     79.7642E+06     79.4993E+06    -1.34106E+06    -124.580E-03     238.422E-03    -113.843E-03     283.631E-03    -137.194E-03     250.998E-03    -113.523E-03     270.560E-03
             422     13.6583E-03     78.2241E-03    -18.3829E+06     95.8481E+06     92.0811E+06    -1.44310E+06    -126.040E-03     239.914E-03    -113.874E-03     310.509E-03    -142.483E-03     256.365E-03    -113.526E-03     297.082E-03
             423     14.4608E-03     78.5899E-03    -11.3243E+06     112.428E+06     97.0721E+06    -33.1773E+03    -125.425E-03     239.282E-03    -113.857E-03     328.308E-03    -145.737E-03     259.671E-03    -113.518E-03     316.789E-03
             424     15.2654E-03     78.9720E-03    -5.09535E+06     117.378E+06     97.4797E+06     390.200E+03    -119.544E-03     233.346E-03    -113.801E-03     250.753E-03    -134.061E-03     247.978E-03    -113.477E-03     244.390E-03
             425     803.154E-06     77.1342E-03    -90.4616E+06    -247.493E+06    -88.8957E+06     53.9934E+03    -114.070E-03     227.966E-03    -113.896E-03     14.8161E-03    -114.047E-03     227.001E-03    -113.850E-03     14.4594E-03
             426     1.60618E-03     77.1574E-03    -88.1240E+06    -243.249E+06    -82.2439E+06     106.586E+03    -114.108E-03     228.081E-03    -113.974E-03     27.1479E-03    -114.117E-03     227.152E-03    -113.904E-03     26.4810E-03
             427     2.40930E-03     77.1952E-03    -84.7667E+06    -237.407E+06    -73.4046E+06     26.0586E+03    -114.244E-03     228.230E-03    -113.986E-03     39.9965E-03    -114.305E-03     227.361E-03    -113.886E-03     38.9822E-03
             428     3.21257E-03     77.2470E-03    -80.3802E+06    -229.134E+06    -61.5841E+06    -240.379E+03    -114.464E-03     228.464E-03    -114.000E-03     52.8616E-03    -114.603E-03     227.683E-03    -113.859E-03     51.4694E-03
             429     4.01601E-03     77.3136E-03    -74.9889E+06    -213.170E+06    -49.2624E+06    -15.7486E+03    -114.805E-03     228.814E-03    -114.008E-03     65.6103E-03    -115.059E-03     228.187E-03    -113.837E-03     63.8082E-03
             430     4.81876E-03     77.3941E-03    -69.7316E+06    -197.378E+06    -38.1846E+06     305.863E+03    -115.198E-03     229.216E-03    -114.019E-03     78.1841E-03    -115.598E-03     228.779E-03    -113.822E-03     75.9259E-03
             431     5.62262E-03     77.4886E-03    -64.7703E+06    -185.231E+06    -28.4572E+06     132.932E+03    -115.594E-03     229.624E-03    -114.030E-03     90.6184E-03    -116.179E-03     229.404E-03    -113.809E-03     87.8411E-03
             432     6.42526E-03     77.5964E-03    -59.9836E+06    -168.947E+06    -20.9751E+06    -93.9453E+03    -115.936E-03     229.953E-03    -114.017E-03     102.858E-03    -116.765E-03     230.030E-03    -113.790E-03     99.4956E-03
             433     7.22939E-03     77.7173E-03    -55.2982E+06    -144.143E+06    -15.2786E+06    -130.637E+03    -116.276E-03     230.251E-03    -113.975E-03     115.117E-03    -117.425E-03     230.737E-03    -113.763E-03     111.107E-03
             434     8.03236E-03     77.8526E-03    -50.9999E+06    -118.501E+06    -9.15822E+06    -48.5155E+03    -116.693E-03     230.626E-03    -113.933E-03     127.473E-03    -118.264E-03     231.621E-03    -113.733E-03     122.721E-03
             435     8.83568E-03     78.0009E-03    -47.0754E+06    -87.0949E+06    -3.53537E+06     26.8529E+03    -116.979E-03     230.857E-03    -113.879E-03     139.762E-03    -119.094E-03     232.507E-03    -113.702E-03     134.177E-03
             436     9.64002E-03     78.1627E-03    -43.0653E+06    -37.3206E+06     1.65321E+06    -119.452E+03    -117.219E-03     231.011E-03    -113.792E-03     152.632E-03    -120.071E-03     233.573E-03    -113.667E-03     146.102E-03
             437     10.4428E-03     78.3390E-03    -39.4824E+06     12.1152E+06     10.6687E+06     128.614E+03    -117.680E-03     231.405E-03    -113.724E-03     169.980E-03    -121.609E-03     235.206E-03    -113.631E-03     162.304E-03
             438     11.2478E-03     78.5381E-03    -35.9563E+06     44.9566E+06     27.9269E+06     683.280E+03    -118.997E-03     232.718E-03    -113.721E-03     198.668E-03    -124.692E-03     238.364E-03    -113.595E-03     189.479E-03
             439     12.0503E-03     78.7798E-03    -30.6017E+06     65.5835E+06     56.1027E+06     345.089E+03    -121.848E-03     235.644E-03    -113.796E-03     241.038E-03    -130.476E-03     244.234E-03    -113.567E-03     229.851E-03
             440     12.8544E-03     79.0757E-03    -24.0202E+06     81.9383E+06     81.1943E+06    -696.331E+03    -124.881E-03     238.761E-03    -113.880E-03     284.009E-03    -137.490E-03     251.340E-03    -113.558E-03     270.914E-03
             441     13.6564E-03     79.4174E-03    -18.2067E+06     95.1917E+06     91.5378E+06    -1.50989E+06    -125.617E-03     239.512E-03    -113.895E-03     311.212E-03    -142.043E-03     255.946E-03    -113.549E-03     297.874E-03
             442     14.4615E-03     79.7758E-03    -12.1530E+06     110.378E+06     95.6234E+06    -1.50843E+06    -124.690E-03     238.530E-03    -113.841E-03     328.604E-03    -145.094E-03     259.006E-03    -113.505E-03     317.193E-03
             443     15.2668E-03     80.1635E-03    -4.92382E+06     116.856E+06     96.9785E+06    -449.507E+03    -119.782E-03     233.557E-03    -113.774E-03     251.401E-03    -134.392E-03     248.282E-03    -113.452E-03     244.993E-03
             444     803.041E-06     78.3239E-03    -90.2518E+06    -247.274E+06    -88.7940E+06    -133.860E+03    -114.077E-03     227.932E-03    -113.855E-03     14.8395E-03    -114.054E-03     226.968E-03    -113.809E-03     14.4801E-03
             445     1.60623E-03     78.3473E-03    -88.0353E+06    -243.175E+06    -82.4588E+06    -166.214E+03    -114.067E-03     228.016E-03    -113.950E-03     27.1890E-03    -114.075E-03     227.088E-03    -113.882E-03     26.5192E-03
             446     2.40948E-03     78.3848E-03    -84.2802E+06    -236.932E+06    -73.1753E+06    -336.892E+03    -114.256E-03     228.220E-03    -113.964E-03     40.0027E-03    -114.316E-03     227.352E-03    -113.864E-03     38.9830E-03
             447     3.21264E-03     78.4369E-03    -79.9028E+06    -228.690E+06    -61.1023E+06    -386.708E+03    -114.514E-03     228.506E-03    -113.992E-03     52.8241E-03    -114.653E-03     227.727E-03    -113.850E-03     51.4273E-03
             448     4.01565E-03     78.5033E-03    -75.0078E+06    -213.858E+06    -49.6670E+06    -303.291E+03    -114.793E-03     228.797E-03    -114.005E-03     65.6329E-03    -115.045E-03     228.168E-03    -113.834E-03     63.8260E-03
             449     4.81936E-03     78.5841E-03    -69.6983E+06    -197.861E+06    -38.4630E+06     237.479E+03    -115.124E-03     229.133E-03    -114.009E-03     78.2025E-03    -115.523E-03     228.693E-03    -113.813E-03     75.9447E-03
             450     5.62208E-03     78.6782E-03    -64.5916E+06    -185.010E+06    -28.0000E+06     402.978E+03    -115.495E-03     229.506E-03    -114.011E-03     90.5478E-03    -116.080E-03     229.286E-03    -113.789E-03     87.7760E-03
             451     6.42620E-03     78.7862E-03    -59.5483E+06    -168.519E+06    -20.4387E+06     176.809E+03    -115.952E-03     229.948E-03    -113.996E-03     102.685E-03    -116.780E-03     230.025E-03    -113.768E-03     99.3240E-03
             452     7.22874E-03     78.9072E-03    -55.1605E+06    -143.820E+06    -15.0129E+06     60.6227E+03    -116.387E-03     230.351E-03    -113.964E-03     114.936E-03    -117.539E-03     230.840E-03    -113.751E-03     110.918E-03
             453     8.03255E-03     79.0423E-03    -50.9970E+06    -118.566E+06    -9.02683E+06     111.332E+03    -116.682E-03     230.610E-03    -113.929E-03     127.422E-03    -118.252E-03     231.605E-03    -113.728E-03     122.670E-03
             454     8.83630E-03     79.1906E-03    -46.8929E+06    -86.6831E+06    -3.20127E+06     173.789E+03    -116.994E-03     230.869E-03    -113.876E-03     139.740E-03    -119.109E-03     232.520E-03    -113.698E-03     134.157E-03
             455     9.63917E-03     79.3522E-03    -43.5776E+06    -37.1721E+06     1.66710E+06     127.943E+03    -117.270E-03     231.063E-03    -113.793E-03     152.532E-03    -120.126E-03     233.627E-03    -113.667E-03     146.000E-03
             456     10.4439E-03     79.5286E-03    -40.0533E+06     11.2338E+06     9.90093E+06     480.095E+03    -117.807E-03     231.538E-03    -113.731E-03     169.709E-03    -121.736E-03     235.335E-03    -113.639E-03     162.026E-03
             457     11.2460E-03     79.7282E-03    -35.2223E+06     45.0094E+06     27.0172E+06     491.420E+03    -119.263E-03     233.001E-03    -113.738E-03     198.614E-03    -124.963E-03     238.657E-03    -113.617E-03     189.390E-03
             458     12.0506E-03     79.9691E-03    -29.4599E+06     66.5622E+06     55.8945E+06    -28.0589E+03    -121.943E-03     235.767E-03    -113.824E-03     241.678E-03    -130.588E-03     244.382E-03    -113.598E-03     230.465E-03
             459     12.8532E-03     80.2670E-03    -23.3324E+06     82.6825E+06     81.5985E+06    -18.1057E+03    -124.422E-03     238.313E-03    -113.891E-03     285.133E-03    -137.053E-03     250.918E-03    -113.569E-03     272.101E-03
             460     13.6588E-03     80.6065E-03    -16.7554E+06     96.5355E+06     92.9397E+06    -282.003E+03    -124.744E-03     238.606E-03    -113.863E-03     311.418E-03    -141.149E-03     255.025E-03    -113.514E-03     298.250E-03
             461     14.4626E-03     80.9661E-03    -10.5443E+06     111.264E+06     97.4465E+06    -895.425E+03    -125.208E-03     239.005E-03    -113.797E-03     329.179E-03    -145.646E-03     259.518E-03    -113.456E-03     317.716E-03
             462     15.2660E-03     81.3515E-03    -5.23203E+06     116.053E+06     97.1786E+06    -930.362E+03    -120.810E-03     234.576E-03    -113.766E-03     251.083E-03    -135.451E-03     249.329E-03    -113.441E-03     244.511E-03
             463     803.186E-06     79.5138E-03    -90.1079E+06    -246.905E+06    -88.3214E+06    -52.2042E+03    -114.015E-03     227.852E-03    -113.837E-03     14.8239E-03    -113.992E-03     226.889E-03    -113.790E-03     14.4655E-03
             464     1.60635E-03     79.5369E-03    -87.7251E+06    -242.532E+06    -81.6702E+06    -412.640E+03    -114.073E-03     227.995E-03    -113.922E-03     27.1330E-03    -114.081E-03     227.068E-03    -113.852E-03     26.4593E-03
             465     2.40946E-03     79.5746E-03    -84.3716E+06    -236.558E+06    -72.5546E+06    -546.259E+03    -114.276E-03     228.227E-03    -113.952E-03     39.9844E-03    -114.338E-03     227.360E-03    -113.849E-03     38.9616E-03
             466     3.21256E-03     79.6267E-03    -79.7373E+06    -228.395E+06    -60.7759E+06    -616.547E+03    -114.532E-03     228.519E-03    -113.987E-03     52.8438E-03    -114.671E-03     227.740E-03    -113.844E-03     51.4429E-03
             467     4.01595E-03     79.6931E-03    -74.7879E+06    -213.990E+06    -49.9350E+06    -362.197E+03    -114.788E-03     228.788E-03    -114.000E-03     65.6141E-03    -115.039E-03     228.159E-03    -113.831E-03     63.8048E-03
             468     4.81888E-03     79.7736E-03    -69.9459E+06    -198.776E+06    -39.6307E+06     56.1265E+03    -115.087E-03     229.085E-03    -113.999E-03     78.1465E-03    -115.484E-03     228.644E-03    -113.807E-03     75.8859E-03
             469     5.62283E-03     79.8680E-03    -64.7093E+06    -185.300E+06    -28.7890E+06     359.998E+03    -115.509E-03     229.510E-03    -114.001E-03     90.4492E-03    -116.093E-03     229.290E-03    -113.782E-03     87.6755E-03
             470     6.42543E-03     79.9758E-03    -59.7861E+06    -168.340E+06    -20.5818E+06     378.062E+03    -115.954E-03     229.945E-03    -113.991E-03     102.648E-03    -116.782E-03     230.023E-03    -113.764E-03     99.2919E-03
             471     7.22940E-03     80.0974E-03    -55.0997E+06    -143.190E+06    -14.5775E+06     290.700E+03    -116.347E-03     230.307E-03    -113.960E-03     114.929E-03    -117.501E-03     230.799E-03    -113.745E-03     110.916E-03
             472     8.03242E-03     80.2316E-03    -50.7312E+06    -118.070E+06    -8.45432E+06     284.121E+03    -116.727E-03     230.654E-03    -113.927E-03     127.302E-03    -118.299E-03     231.651E-03    -113.724E-03     122.549E-03
             473     8.83585E-03     80.3803E-03    -46.8141E+06    -87.1634E+06    -3.33703E+06     414.042E+03    -117.061E-03     230.939E-03    -113.878E-03     139.639E-03    -119.175E-03     232.587E-03    -113.700E-03     134.055E-03
             474     9.63993E-03     80.5421E-03    -42.8137E+06    -37.3317E+06     1.85308E+06     620.777E+03    -117.369E-03     231.171E-03    -113.802E-03     152.501E-03    -120.221E-03     233.733E-03    -113.676E-03     145.970E-03
             475     10.4423E-03     80.7182E-03    -38.6455E+06     11.3735E+06     10.9483E+06     341.422E+03    -117.878E-03     231.625E-03    -113.748E-03     169.931E-03    -121.807E-03     235.426E-03    -113.653E-03     162.239E-03
             476     11.2473E-03     80.9184E-03    -34.4291E+06     45.3193E+06     28.0001E+06     19.9342E+03    -119.193E-03     232.946E-03    -113.752E-03     199.070E-03    -124.898E-03     238.607E-03    -113.628E-03     189.847E-03
             477     12.0496E-03     81.1593E-03    -29.3727E+06     67.0957E+06     55.9068E+06    -256.064E+03    -121.756E-03     235.577E-03    -113.821E-03     242.156E-03    -130.412E-03     244.204E-03    -113.596E-03     230.958E-03
             478     12.8550E-03     81.4562E-03    -22.9780E+06     82.7166E+06     81.3460E+06    -291.741E+03    -123.952E-03     237.818E-03    -113.866E-03     284.856E-03    -136.554E-03     250.396E-03    -113.546E-03     271.903E-03
             479     13.6581E-03     81.7958E-03    -15.6506E+06     97.3180E+06     93.8902E+06    -71.8465E+03    -124.857E-03     238.695E-03    -113.838E-03     310.098E-03    -141.203E-03     255.059E-03    -113.487E-03     296.919E-03
             480     14.4644E-03     82.1529E-03    -9.29588E+06     112.665E+06     99.0212E+06    -297.422E+03    -125.838E-03     239.643E-03    -113.805E-03     328.312E-03    -146.194E-03     260.078E-03    -113.459E-03     316.716E-03
             481     15.2658E-03     82.5493E-03    -5.51086E+06     115.626E+06     97.6114E+06    -323.670E+03    -120.706E-03     234.496E-03    -113.789E-03     250.336E-03    -135.263E-03     249.160E-03    -113.461E-03     243.786E-03
             482     803.183E-06     80.7035E-03    -89.6504E+06    -246.562E+06    -88.1201E+06    -111.879E+03    -113.980E-03     227.869E-03    -113.889E-03     14.7314E-03    -113.956E-03     226.907E-03    -113.842E-03     14.3724E-03
             483     1.60628E-03     80.7267E-03    -87.3300E+06    -242.016E+06    -80.9214E+06    -94.7592E+03    -114.067E-03     227.997E-03    -113.930E-03     27.0788E-03    -114.076E-03     227.071E-03    -113.857E-03     26.4092E-03
             484     2.40945E-03     80.7644E-03    -83.8564E+06    -235.971E+06    -71.7880E+06    -412.412E+03    -114.253E-03     228.206E-03    -113.953E-03     40.0021E-03    -114.314E-03     227.340E-03    -113.848E-03     38.9818E-03
             485     3.21272E-03     80.8164E-03    -79.8544E+06    -228.135E+06    -60.4490E+06    -520.627E+03    -114.507E-03     228.488E-03    -113.982E-03     52.8562E-03    -114.647E-03     227.711E-03    -113.838E-03     51.4572E-03
             486     4.01572E-03     80.8829E-03    -75.2731E+06    -214.281E+06    -49.8629E+06    -303.115E+03    -114.808E-03     228.803E-03    -113.995E-03     65.5727E-03    -115.060E-03     228.172E-03    -113.825E-03     63.7632E-03
             487     4.81934E-03     80.9633E-03    -70.0708E+06    -199.051E+06    -39.7033E+06    -107.368E+03    -115.143E-03     229.143E-03    -114.000E-03     78.0718E-03    -115.540E-03     228.701E-03    -113.809E-03     75.8051E-03
             488     5.62212E-03     81.0577E-03    -64.7085E+06    -185.694E+06    -29.1115E+06     99.5019E+03    -115.510E-03     229.516E-03    -114.006E-03     90.4440E-03    -116.092E-03     229.294E-03    -113.789E-03     87.6673E-03
             489     6.42601E-03     81.1659E-03    -59.4085E+06    -168.300E+06    -20.4682E+06     362.402E+03    -115.901E-03     229.895E-03    -113.993E-03     102.663E-03    -116.727E-03     229.972E-03    -113.766E-03     99.3102E-03
             490     7.22895E-03     81.2866E-03    -54.6815E+06    -143.096E+06    -14.3613E+06     363.408E+03    -116.329E-03     230.287E-03    -113.958E-03     114.882E-03    -117.479E-03     230.777E-03    -113.743E-03     110.874E-03
             491     8.03272E-03     81.4220E-03    -50.3165E+06    -118.116E+06    -8.27316E+06     397.458E+03    -116.778E-03     230.704E-03    -113.926E-03     127.244E-03    -118.347E-03     231.699E-03    -113.723E-03     122.492E-03
             492     8.83599E-03     81.5698E-03    -45.9200E+06    -87.0916E+06    -2.79123E+06     347.745E+03    -117.149E-03     231.033E-03    -113.885E-03     139.695E-03    -119.262E-03     232.682E-03    -113.706E-03     134.103E-03
             493     9.63901E-03     81.7319E-03    -41.6717E+06    -37.5687E+06     2.29235E+06     216.978E+03    -117.358E-03     231.168E-03    -113.810E-03     152.638E-03    -120.205E-03     233.727E-03    -113.684E-03     146.104E-03
             494     10.4436E-03     81.9084E-03    -37.8934E+06     11.6067E+06     11.4809E+06     391.037E+03    -117.777E-03     231.527E-03    -113.750E-03     170.133E-03    -121.703E-03     235.326E-03    -113.654E-03     162.453E-03
             495     11.2460E-03     82.1079E-03    -33.8752E+06     45.9643E+06     29.3631E+06     440.239E+03    -119.111E-03     232.861E-03    -113.750E-03     199.140E-03    -124.813E-03     238.521E-03    -113.621E-03     189.931E-03
             496     12.0513E-03     82.3490E-03    -28.8181E+06     67.7765E+06     57.4029E+06    -12.0145E+03    -121.631E-03     235.445E-03    -113.814E-03     241.787E-03    -130.270E-03     244.056E-03    -113.583E-03     230.619E-03
             497     12.8537E-03     82.6461E-03    -22.8408E+06     83.4937E+06     82.0831E+06    -718.425E+03    -124.155E-03     238.020E-03    -113.865E-03     283.712E-03    -136.722E-03     250.565E-03    -113.543E-03     270.734E-03
             498     13.6599E-03     82.9831E-03    -16.6864E+06     97.0259E+06     93.2137E+06    -1.04900E+06    -125.880E-03     239.757E-03    -113.878E-03     309.678E-03    -142.270E-03     256.163E-03    -113.528E-03     296.292E-03
             499     14.4588E-03     83.3471E-03    -10.4286E+06     111.379E+06     97.7155E+06    -169.033E+03    -125.574E-03     239.441E-03    -113.868E-03     327.707E-03    -145.881E-03     259.824E-03    -113.526E-03     316.167E-03
             500     15.2652E-03     83.7318E-03    -4.95323E+06     115.705E+06     97.1250E+06     602.602E+03    -119.307E-03     233.115E-03    -113.808E-03     251.112E-03    -133.816E-03     247.736E-03    -113.483E-03     244.788E-03
             501     803.002E-06     81.8932E-03    -89.2178E+06    -246.149E+06    -87.6099E+06    -267.387E+03    -114.010E-03     227.929E-03    -113.919E-03     14.7178E-03    -113.985E-03     226.968E-03    -113.871E-03     14.3551E-03
             502     1.60627E-03     81.9164E-03    -86.7099E+06    -241.849E+06    -81.0865E+06    -184.437E+03    -114.047E-03     227.993E-03    -113.946E-03     27.1188E-03    -114.052E-03     227.067E-03    -113.875E-03     26.4483E-03
             503     2.40948E-03     81.9541E-03    -83.3119E+06    -235.504E+06     -71.328E+06    -76.8104E+03    -114.246E-03     228.206E-03    -113.959E-03     39.9768E-03    -114.306E-03     227.341E-03    -113.854E-03     38.9606E-03
             504     3.21260E-03     82.0062E-03    -79.1567E+06    -228.130E+06    -60.4092E+06    -1.22768E+03    -114.504E-03     228.488E-03    -113.984E-03     52.7892E-03    -114.641E-03     227.709E-03    -113.840E-03     51.3967E-03
             505     4.01603E-03     82.0726E-03    -74.3606E+06    -214.336E+06    -50.1161E+06     40.1930E+03    -114.821E-03     228.816E-03    -113.995E-03     65.5183E-03    -115.068E-03     228.184E-03    -113.827E-03     63.7124E-03
             506     4.81887E-03     82.1531E-03    -69.4147E+06    -198.607E+06    -39.3555E+06    -216.522E+03    -115.171E-03     229.177E-03    -114.006E-03     78.0630E-03    -115.567E-03     228.735E-03    -113.814E-03     75.7941E-03
             507     5.62255E-03     82.2475E-03    -64.3656E+06    -185.623E+06    -28.9881E+06    -270.576E+03    -115.500E-03     229.512E-03    -114.012E-03     90.4233E-03    -116.082E-03     229.291E-03    -113.794E-03     87.6408E-03
             508     6.42559E-03     82.3551E-03    -59.2376E+06    -168.743E+06    -20.7051E+06     50.8662E+03    -115.890E-03     229.886E-03    -113.996E-03     102.652E-03    -116.713E-03     229.960E-03    -113.769E-03     99.2973E-03
             509     7.22930E-03     82.4769E-03    -54.3695E+06    -143.271E+06    -14.4224E+06     272.968E+03    -116.347E-03     230.308E-03    -113.960E-03     114.913E-03    -117.494E-03     230.795E-03    -113.746E-03     110.908E-03
             510     8.03234E-03     82.6112E-03    -49.8991E+06    -118.222E+06    -8.15585E+06     222.866E+03    -116.764E-03     230.693E-03    -113.929E-03     127.270E-03    -118.331E-03     231.687E-03    -113.726E-03     122.517E-03
             511     8.83594E-03     82.7601E-03    -45.7137E+06    -86.8493E+06    -2.62526E+06     112.322E+03    -117.099E-03     230.983E-03    -113.884E-03     139.773E-03    -119.212E-03     232.633E-03    -113.705E-03     134.181E-03
             512     9.63966E-03     82.9216E-03    -42.1402E+06    -37.5273E+06     2.44769E+06     98.7732E+03    -117.302E-03     231.108E-03    -113.806E-03     152.772E-03    -120.151E-03     233.667E-03    -113.678E-03     146.242E-03
             513     10.4426E-03     83.0977E-03    -38.4333E+06     11.1898E+06     10.9371E+06     266.520E+03    -117.819E-03     231.560E-03    -113.742E-03     170.209E-03    -121.745E-03     235.359E-03    -113.648E-03     162.526E-03
             514     11.2476E-03     83.2980E-03    -33.7801E+06     46.2800E+06     28.7680E+06    -7.56501E+03    -119.156E-03     232.901E-03    -113.744E-03     198.920E-03    -124.856E-03     238.561E-03    -113.618E-03     189.701E-03
             515     12.0495E-03     83.5388E-03    -28.3530E+06     68.0898E+06     57.8713E+06     126.529E+03    -121.728E-03     235.548E-03    -113.820E-03     241.330E-03    -130.351E-03     244.144E-03    -113.588E-03     230.162E-03
             516     12.8554E-03     83.8348E-03    -22.1744E+06     84.3555E+06     83.3846E+06     301.322E+03    -124.715E-03     238.611E-03    -113.896E-03     283.819E-03    -137.314E-03     251.188E-03    -113.569E-03     270.761E-03
             517     13.6551E-03     84.1752E-03    -16.8220E+06     97.9783E+06     93.7644E+06    -83.6822E+03    -125.809E-03     239.720E-03    -113.911E-03     311.343E-03    -142.264E-03     256.191E-03    -113.560E-03     297.991E-03
             518     14.4619E-03     84.5369E-03    -12.3913E+06     109.998E+06     95.7276E+06    -5.76881E+03    -125.191E-03     239.059E-03    -113.868E-03     328.720E-03    -145.517E-03     259.454E-03    -113.531E-03     317.283E-03
             519     15.2659E-03     84.9196E-03    -5.20871E+06     115.207E+06     95.9570E+06    -209.705E+03    -118.778E-03     232.558E-03    -113.781E-03     251.352E-03    -133.313E-03     247.206E-03    -113.460E-03     245.028E-03
             520     803.185E-06     83.0830E-03    -88.8400E+06    -245.632E+06    -87.0168E+06    -121.530E+03    -114.048E-03     227.890E-03    -113.842E-03     14.7588E-03    -114.023E-03     226.930E-03    -113.792E-03     14.3984E-03
             521     1.60626E-03     83.1061E-03    -86.7607E+06    -241.544E+06    -80.5076E+06    -263.267E+03    -114.097E-03     228.039E-03    -113.943E-03     27.1421E-03    -114.104E-03     227.114E-03    -113.869E-03     26.4700E-03
             522     2.40939E-03     83.1439E-03    -83.1542E+06    -235.657E+06    -71.5630E+06    -70.7906E+03    -114.269E-03     228.237E-03    -113.968E-03     39.9944E-03    -114.327E-03     227.371E-03    -113.863E-03     38.9783E-03
             523     3.21263E-03     83.1959E-03    -78.8330E+06    -228.097E+06    -60.5522E+06     49.9173E+03    -114.524E-03     228.518E-03    -113.995E-03     52.7922E-03    -114.659E-03     227.740E-03    -113.852E-03     51.3997E-03
             524     4.01564E-03     83.2624E-03    -73.9987E+06    -214.104E+06    -49.6862E+06    -85.5414E+03    -114.807E-03     228.814E-03    -114.007E-03     65.5315E-03    -115.054E-03     228.182E-03    -113.838E-03     63.7244E-03
             525     4.81924E-03     83.3430E-03    -68.9689E+06    -198.310E+06    -38.9556E+06    -105.406E+03    -115.124E-03     229.134E-03    -114.010E-03     78.0619E-03    -115.518E-03     228.692E-03    -113.817E-03     75.7975E-03
             526     5.62222E-03     83.4371E-03    -64.0446E+06    -185.413E+06    -28.7964E+06    -165.801E+03    -115.534E-03     229.548E-03    -114.014E-03     90.3984E-03    -116.114E-03     229.326E-03    -113.796E-03     87.6183E-03
             527     6.42579E-03     83.5451E-03    -59.1529E+06    -169.005E+06    -20.6962E+06    -185.024E+03    -115.912E-03     229.914E-03    -114.001E-03     102.638E-03    -116.735E-03     229.987E-03    -113.774E-03     99.2783E-03
             528     7.22896E-03     83.6663E-03    -54.4403E+06    -143.577E+06    -14.5689E+06     58.2528E+03    -116.278E-03     230.239E-03    -113.962E-03     115.021E-03    -117.423E-03     230.724E-03    -113.747E-03     111.019E-03
             529     8.03266E-03     83.8015E-03    -50.0491E+06    -118.066E+06    -8.09309E+06     79.0700E+03    -116.709E-03     230.633E-03    -113.923E-03     127.471E-03    -118.277E-03     231.626E-03    -113.720E-03     122.723E-03
             530     8.83591E-03     83.9494E-03    -46.1089E+06    -86.8876E+06    -2.71936E+06     167.417E+03    -117.048E-03     230.920E-03    -113.872E-03     139.897E-03    -119.162E-03     232.570E-03    -113.693E-03     134.310E-03
             531     9.63951E-03     84.1114E-03    -42.4119E+06    -37.4646E+06     2.45277E+06     452.484E+03    -117.354E-03     231.149E-03    -113.795E-03     152.717E-03    -120.203E-03     233.707E-03    -113.667E-03     146.190E-03
             532     10.4438E-03     84.2876E-03    -38.6562E+06     11.9819E+06     11.3745E+06    -158.892E+03    -117.936E-03     231.675E-03    -113.740E-03     170.233E-03    -121.868E-03     235.480E-03    -113.644E-03     162.535E-03
             533     11.2456E-03     84.4882E-03    -34.4724E+06     46.5396E+06     29.0291E+06    -714.652E+03    -119.176E-03     232.925E-03    -113.748E-03     198.854E-03    -124.875E-03     238.583E-03    -113.621E-03     189.630E-03
             534     12.0515E-03     84.7278E-03    -29.1521E+06     67.5499E+06     57.3900E+06    -534.038E+03    -121.884E-03     235.711E-03    -113.826E-03     241.658E-03    -130.522E-03     244.318E-03    -113.595E-03     230.456E-03
             535     12.8523E-03     85.0261E-03    -22.6951E+06     83.2952E+06     82.3844E+06     106.759E+03    -124.480E-03     238.369E-03    -113.889E-03     285.238E-03    -137.104E-03     250.970E-03    -113.565E-03     272.216E-03
             536     13.6593E-03     85.3655E-03    -16.3870E+06     97.1578E+06     93.3467E+06     2.31150E+06    -124.919E-03     238.780E-03    -113.861E-03     312.137E-03    -141.326E-03     255.204E-03    -113.512E-03     298.995E-03
             537     14.4626E-03     85.7250E-03    -10.2651E+06     112.438E+06     97.5735E+06     2.16824E+06    -124.827E-03     238.604E-03    -113.777E-03     330.236E-03    -145.209E-03     259.066E-03    -113.438E-03     318.880E-03
             538     15.2651E-03     86.1126E-03    -4.75368E+06     117.025E+06     97.8444E+06    -720.236E+03    -120.014E-03     233.725E-03    -113.711E-03     251.051E-03    -134.612E-03     248.437E-03    -113.384E-03     244.606E-03
             539     803.203E-06     84.2729E-03    -88.6915E+06    -245.475E+06    -86.9202E+06    -20.4703E+03    -114.046E-03     227.882E-03    -113.836E-03     14.7186E-03    -114.020E-03     226.923E-03    -113.786E-03     14.3608E-03
             540     1.60628E-03     84.2959E-03    -86.2373E+06    -241.164E+06    -80.2575E+06    -15.9838E+03    -114.116E-03     228.059E-03    -113.943E-03     27.0927E-03    -114.121E-03     227.135E-03    -113.870E-03     26.4239E-03
             541     2.40942E-03     84.3337E-03    -82.9847E+06    -235.579E+06    -71.7373E+06    -279.178E+03    -114.281E-03     228.254E-03    -113.973E-03     40.0049E-03    -114.339E-03     227.388E-03    -113.869E-03     38.9860E-03
             542     3.21255E-03     84.3857E-03    -78.5492E+06    -228.013E+06    -60.7296E+06    -232.004E+03    -114.524E-03     228.523E-03    -113.999E-03     52.8650E-03    -114.658E-03     227.744E-03    -113.858E-03     51.4693E-03
             543     4.01587E-03     84.4523E-03    -73.8696E+06    -213.884E+06    -49.4409E+06    -113.329E+03    -114.789E-03     228.799E-03    -114.010E-03     65.5553E-03    -115.036E-03     228.168E-03    -113.840E-03     63.7485E-03
             544     4.81892E-03     84.5324E-03    -69.0545E+06    -198.388E+06    -38.9355E+06    -56.7912E+03    -115.110E-03     229.119E-03    -114.009E-03     78.0848E-03    -115.504E-03     228.677E-03    -113.816E-03     75.8223E-03
             545     5.62253E-03     84.6271E-03    -63.9470E+06    -185.058E+06    -28.6229E+06     68.5826E+03    -115.497E-03     229.506E-03    -114.009E-03     90.4915E-03    -116.077E-03     229.285E-03    -113.791E-03     87.7184E-03
             546     6.42555E-03     84.7347E-03    -59.1161E+06    -168.847E+06    -20.3230E+06    -97.8820E+03    -115.883E-03     229.877E-03    -113.994E-03     102.754E-03    -116.708E-03     229.951E-03    -113.765E-03     99.3963E-03
             547     7.22923E-03     84.8560E-03    -54.5043E+06    -143.883E+06    -14.4799E+06    -97.4161E+03    -116.243E-03     230.193E-03    -113.950E-03     115.170E-03    -117.389E-03     230.677E-03    -113.735E-03     111.167E-03
             548     8.03264E-03     84.9909E-03    -50.1330E+06    -118.021E+06    -8.12354E+06     81.4107E+03    -116.662E-03     230.569E-03    -113.907E-03     127.580E-03    -118.228E-03     231.562E-03    -113.703E-03     122.838E-03
             549     8.83640E-03     85.1395E-03    -46.0308E+06    -87.1334E+06    -2.67648E+06     201.312E+03    -117.135E-03     230.995E-03    -113.859E-03     139.816E-03    -119.249E-03     232.643E-03    -113.680E-03     134.225E-03
             550     9.63979E-03     85.3010E-03    -41.9455E+06    -37.3212E+06     2.55497E+06     120.181E+03    -117.493E-03     231.285E-03    -113.792E-03     152.730E-03    -120.346E-03     233.849E-03    -113.664E-03     146.184E-03
             551     10.4424E-03     85.4779E-03    -37.9068E+06     13.0484E+06     12.1771E+06    -38.2447E+03    -117.826E-03     231.567E-03    -113.740E-03     170.165E-03    -121.754E-03     235.371E-03    -113.643E-03     162.477E-03
             552     11.2479E-03     85.6777E-03    -34.0470E+06     47.2682E+06     30.2926E+06    -236.212E+03    -119.027E-03     232.769E-03    -113.742E-03     199.155E-03    -124.721E-03     238.422E-03    -113.609E-03     189.959E-03
             553     12.0492E-03     85.9183E-03    -29.5310E+06     67.5048E+06     57.9421E+06    -411.053E+03    -121.678E-03     235.480E-03    -113.802E-03     242.583E-03    -130.334E-03     244.103E-03    -113.567E-03     231.407E-03
             554     12.8559E-03     86.2157E-03    -24.3957E+06     81.5784E+06     80.7212E+06     396.043E+03    -123.805E-03     237.632E-03    -113.828E-03     285.412E-03    -136.394E-03     250.190E-03    -113.507E-03     272.511E-03
             555     13.6585E-03     86.5538E-03    -18.1305E+06     94.2176E+06     90.9065E+06     821.342E+03    -124.478E-03     238.245E-03    -113.767E-03     312.071E-03    -140.880E-03     254.654E-03    -113.423E-03     298.955E-03
             556     14.4642E-03     86.9145E-03    -9.52041E+06     113.965E+06     98.6408E+06     553.351E+03    -125.016E-03     238.711E-03    -113.694E-03     329.478E-03    -145.447E-03     259.226E-03    -113.353E-03     318.012E-03
             557     15.2728E-03     87.3021E-03    -4.20469E+06     119.620E+06     99.1951E+06     696.485E+03    -121.370E-03     235.054E-03    -113.684E-03     249.827E-03    -135.946E-03     249.752E-03    -113.355E-03     243.278E-03
             558     803.042E-06     85.4623E-03    -88.0544E+06    -245.099E+06    -86.8280E+06    -88.1786E+03    -114.027E-03     227.945E-03    -113.918E-03     14.7737E-03    -113.998E-03     226.986E-03    -113.869E-03     14.4151E-03
             559     1.60623E-03     85.4860E-03    -85.9123E+06    -241.072E+06    -80.4985E+06    -134.685E+03    -114.079E-03     228.037E-03    -113.958E-03     27.0977E-03    -114.082E-03     227.113E-03    -113.886E-03     26.4277E-03
             560     2.40940E-03     85.5233E-03    -82.7334E+06    -234.970E+06    -71.0307E+06    -112.915E+03    -114.251E-03     228.223E-03    -113.973E-03     40.0242E-03    -114.309E-03     227.360E-03    -113.867E-03     39.0082E-03
             561     3.21259E-03     85.5757E-03    -78.7813E+06    -227.977E+06    -60.4697E+06    -365.183E+03    -114.478E-03     228.467E-03    -113.989E-03     52.9244E-03    -114.613E-03     227.688E-03    -113.847E-03     51.5289E-03
             562     4.01576E-03     85.6418E-03    -74.0313E+06    -214.169E+06    -49.9483E+06    -92.4993E+03    -114.777E-03     228.769E-03    -113.992E-03     65.6453E-03    -115.023E-03     228.137E-03    -113.824E-03     63.8408E-03
             563     4.81922E-03     85.7225E-03    -69.0855E+06    -197.931E+06    -38.5556E+06     177.439E+03    -115.097E-03     229.092E-03    -113.995E-03     78.1762E-03    -115.493E-03     228.652E-03    -113.801E-03     75.9171E-03
             564     5.62230E-03     85.8165E-03    -64.0359E+06    -185.037E+06    -28.2731E+06     14.1697E+03    -115.409E-03     229.398E-03    -113.990E-03     90.5828E-03    -115.990E-03     229.178E-03    -113.770E-03     87.8098E-03
             565     6.42614E-03     85.9246E-03    -58.9918E+06    -168.841E+06    -20.0739E+06     41.5812E+03    -115.852E-03     229.820E-03    -113.968E-03     102.878E-03    -116.675E-03     229.893E-03    -113.738E-03     99.5269E-03
             566     7.22931E-03     86.0455E-03    -54.4020E+06    -143.393E+06    -14.0864E+06     32.5334E+03    -116.347E-03     230.278E-03    -113.931E-03     115.077E-03    -117.495E-03     230.765E-03    -113.715E-03     111.068E-03
             567     8.03295E-03     86.1806E-03    -50.3001E+06    -118.278E+06    -8.22982E+06    -12.0296E+03    -116.765E-03     230.665E-03    -113.900E-03     127.407E-03    -118.333E-03     231.658E-03    -113.697E-03     122.654E-03
             568     8.83611E-03     86.3292E-03    -46.2122E+06    -87.1122E+06    -2.73404E+06    -107.727E+03    -117.145E-03     231.004E-03    -113.859E-03     139.798E-03    -119.257E-03     232.651E-03    -113.680E-03     134.206E-03
             569     9.63937E-03     86.4912E-03    -42.1799E+06    -36.9163E+06     2.46690E+06    -378.609E+03    -117.354E-03     231.140E-03    -113.786E-03     152.914E-03    -120.209E-03     233.707E-03    -113.659E-03     146.370E-03
             570     10.4437E-03     86.6677E-03    -38.1626E+06     12.7864E+06     11.5401E+06    -235.255E+03    -117.634E-03     231.353E-03    -113.719E-03     170.397E-03    -121.559E-03     235.154E-03    -113.624E-03     162.726E-03
             571     11.2460E-03     86.8667E-03    -33.8980E+06     47.2221E+06     29.1561E+06     464.899E+03    -118.757E-03     232.456E-03    -113.699E-03     199.491E-03    -124.449E-03     238.111E-03    -113.573E-03     190.332E-03
             572     12.0528E-03     87.1084E-03    -29.7046E+06     67.2954E+06     56.6485E+06     1.35745E+06    -121.281E-03     235.018E-03    -113.737E-03     242.736E-03    -129.925E-03     243.632E-03    -113.508E-03     231.635E-03
             573     12.8545E-03     87.4045E-03    -24.4614E+06     81.6384E+06     80.6241E+06     1.26421E+06    -123.725E-03     237.485E-03    -113.760E-03     284.583E-03    -136.313E-03     250.042E-03    -113.440E-03     271.689E-03
             574     13.6616E-03     87.7420E-03    -17.3110E+06     96.0036E+06     92.6359E+06    -366.431E+03    -125.042E-03     238.778E-03    -113.736E-03     310.447E-03    -141.444E-03     255.191E-03    -113.387E-03     297.195E-03
             575     14.4656E-03     88.1043E-03    -11.4276E+06     112.935E+06     97.5722E+06    -859.879E+03    -126.102E-03     239.824E-03    -113.722E-03     327.826E-03    -146.503E-03     260.302E-03    -113.381E-03     316.167E-03
             576     15.2613E-03     88.4919E-03    -5.58447E+06     118.212E+06     97.3596E+06     323.102E+03    -121.040E-03     234.775E-03    -113.735E-03     250.395E-03    -135.617E-03     249.469E-03    -113.411E-03     243.791E-03
             577     803.130E-06     86.6525E-03    -88.0730E+06    -244.877E+06    -86.3750E+06    -34.5515E+03    -113.996E-03     227.881E-03    -113.885E-03     14.8683E-03    -113.969E-03     226.923E-03    -113.834E-03     14.5100E-03
             578     1.60624E-03     86.6754E-03    -86.0504E+06    -240.807E+06    -79.9345E+06    -28.0931E+03    -114.056E-03     227.985E-03    -113.929E-03     27.2363E-03    -114.061E-03     227.062E-03    -113.855E-03     26.5684E-03
             579     2.40944E-03     86.7133E-03    -82.7104E+06    -234.923E+06    -70.8098E+06    -98.2231E+03    -114.222E-03     228.167E-03    -113.945E-03     40.1175E-03    -114.281E-03     227.303E-03    -113.838E-03     39.1030E-03
             580     3.21271E-03     86.7652E-03    -78.3894E+06    -227.315E+06    -59.6446E+06    -110.678E+03    -114.458E-03     228.421E-03    -113.963E-03     52.9457E-03    -114.593E-03     227.644E-03    -113.818E-03     51.5544E-03
             581     4.01608E-03     86.8317E-03    -73.3826E+06    -214.425E+06    -48.1138E+06    -127.691E+03    -114.727E-03     228.698E-03    -113.971E-03     65.6765E-03    -114.972E-03     228.061E-03    -113.795E-03     63.8730E-03
             582     4.81918E-03     86.9121E-03    -68.2650E+06    -198.362E+06    -37.1699E+06     333.714E+03    -115.057E-03     229.025E-03    -113.968E-03     78.2151E-03    -115.450E-03     228.579E-03    -113.768E-03     75.9594E-03
             583     5.62287E-03     87.0061E-03    -63.5199E+06    -184.765E+06    -27.5598E+06     449.245E+03    -115.472E-03     229.437E-03    -113.965E-03     90.4596E-03    -116.052E-03     229.216E-03    -113.743E-03     87.6877E-03
             584     6.42603E-03     87.1139E-03    -58.7759E+06    -168.722E+06    -19.7876E+06     341.020E+03    -115.915E-03     229.870E-03    -113.954E-03     102.693E-03    -116.738E-03     229.942E-03    -113.723E-03     99.3426E-03
             585     7.22956E-03     87.2356E-03    -54.4036E+06    -143.136E+06    -14.0315E+06     290.960E+03    -116.390E-03     230.315E-03    -113.925E-03     114.985E-03    -117.539E-03     230.803E-03    -113.709E-03     110.978E-03
             586     8.03245E-03     87.3703E-03    -50.3187E+06    -118.033E+06    -7.90518E+06     154.777E+03    -116.793E-03     230.693E-03    -113.900E-03     127.470E-03    -118.363E-03     231.688E-03    -113.695E-03     122.716E-03
             587     8.83613E-03     87.5189E-03    -46.5202E+06    -86.8143E+06    -2.72054E+06     83.5968E+03    -117.000E-03     230.852E-03    -113.852E-03     140.091E-03    -119.115E-03     232.501E-03    -113.672E-03     134.510E-03
             588     9.63997E-03     87.6809E-03    -43.1485E+06    -36.3653E+06     2.05313E+06    -224.340E+03    -117.104E-03     230.863E-03    -113.759E-03     153.093E-03    -119.960E-03     233.431E-03    -113.634E-03     146.573E-03
             589     10.4433E-03     87.8568E-03    -39.9585E+06     12.8035E+06     10.9767E+06    -444.799E+03    -117.501E-03     231.181E-03    -113.680E-03     170.330E-03    -121.432E-03     234.984E-03    -113.586E-03     162.668E-03
             590     11.2489E-03     88.0568E-03    -36.1538E+06     45.4841E+06     26.9005E+06     343.771E+03    -118.748E-03     232.405E-03    -113.656E-03     198.937E-03    -124.443E-03     238.054E-03    -113.535E-03     189.771E-03
             591     12.0508E-03     88.2961E-03    -30.3611E+06     66.2122E+06     54.2926E+06     1.20726E+06    -121.234E-03     234.932E-03    -113.699E-03     241.592E-03    -129.855E-03     243.523E-03    -113.479E-03     230.489E-03
             592     12.8579E-03     88.5946E-03    -22.7196E+06     82.9777E+06     81.8429E+06     821.919E+03    -124.353E-03     238.117E-03    -113.763E-03     283.305E-03    -136.942E-03     250.681E-03    -113.441E-03     270.295E-03
             593     13.6587E-03     88.9310E-03    -16.1298E+06     98.0098E+06     94.4498E+06     663.023E+03    -126.046E-03     239.848E-03    -113.803E-03     308.926E-03    -142.398E-03     256.218E-03    -113.449E-03     295.552E-03
             594     14.4597E-03     89.2945E-03    -10.8735E+06     113.374E+06     98.3960E+06     712.945E+03    -125.818E-03     239.622E-03    -113.804E-03     328.779E-03    -146.201E-03     260.084E-03    -113.461E-03     317.240E-03
             595     15.2702E-03     89.6851E-03    -5.41973E+06     117.956E+06     98.3740E+06     32.2918E+03    -120.470E-03     234.249E-03    -113.779E-03     251.965E-03    -135.104E-03     248.997E-03    -113.450E-03     245.487E-03
             596     803.226E-06     87.8417E-03    -88.4653E+06    -245.195E+06    -86.5438E+06     262.041E+03    -113.951E-03     227.745E-03    -113.794E-03     14.7993E-03    -113.925E-03     226.786E-03    -113.743E-03     14.4446E-03
             597     1.60648E-03     87.8654E-03    -86.0814E+06    -240.765E+06    -79.7190E+06     288.182E+03    -114.016E-03     227.884E-03    -113.869E-03     27.2033E-03    -114.021E-03     226.961E-03    -113.793E-03     26.5409E-03
             598     2.40964E-03     87.9027E-03    -82.5600E+06    -234.518E+06    -70.3809E+06     102.005E+03    -114.216E-03     228.113E-03    -113.897E-03     40.1050E-03    -114.275E-03     227.251E-03    -113.789E-03     39.0929E-03
             599     3.21283E-03     87.9550E-03    -78.2753E+06    -226.816E+06    -59.1288E+06    -50.1517E+03    -114.459E-03     228.387E-03    -113.928E-03     52.9453E-03    -114.595E-03     227.612E-03    -113.782E-03     51.5551E-03
             600     4.01595E-03     88.0212E-03    -73.6006E+06    -214.611E+06    -47.8767E+06     18.7356E+03    -114.723E-03     228.667E-03    -113.944E-03     65.5752E-03    -114.969E-03     228.030E-03    -113.766E-03     63.7726E-03
             601     4.81970E-03     88.1015E-03    -68.7757E+06    -199.448E+06    -37.8378E+06     382.737E+03    -115.082E-03     229.028E-03    -113.946E-03     78.0650E-03    -115.475E-03     228.579E-03    -113.746E-03     75.8080E-03
             602     5.62263E-03     88.1961E-03    -63.6228E+06    -184.700E+06    -27.9599E+06     868.272E+03    -115.568E-03     229.523E-03    -113.954E-03     90.3622E-03    -116.149E-03     229.302E-03    -113.734E-03     87.5941E-03
             603     6.42595E-03     88.3036E-03     -58.964E+06    -168.432E+06    -19.7077E+06     730.717E+03    -115.956E-03     229.912E-03    -113.956E-03     102.633E-03    -116.781E-03     229.988E-03    -113.725E-03     99.2819E-03
             604     7.22919E-03     88.4252E-03    -54.5330E+06    -143.288E+06    -13.9945E+06     666.046E+03    -116.266E-03     230.189E-03    -113.923E-03     115.173E-03    -117.414E-03     230.675E-03    -113.706E-03     111.179E-03
             605     8.03311E-03     88.5602E-03    -50.5424E+06    -117.605E+06    -7.78548E+06     776.460E+03    -116.666E-03     230.550E-03    -113.884E-03     127.625E-03    -118.237E-03     231.547E-03    -113.679E-03     122.889E-03
             606     8.83642E-03     88.7085E-03    -46.9624E+06    -86.3010E+06    -2.48461E+06     582.390E+03    -116.964E-03     230.795E-03    -113.831E-03     139.904E-03    -119.084E-03     232.449E-03    -113.650E-03     134.326E-03
             607     9.64023E-03     88.8700E-03    -43.4720E+06    -36.0358E+06     2.33882E+06     579.976E+03    -117.103E-03     230.844E-03    -113.741E-03     152.595E-03    -119.956E-03     233.408E-03    -113.615E-03     146.087E-03
             608     10.4445E-03     89.0466E-03    -40.5535E+06     12.9270E+06     10.7333E+06     860.487E+03    -117.486E-03     231.151E-03    -113.665E-03     169.698E-03    -121.413E-03     234.949E-03    -113.572E-03     162.053E-03
             609     11.2468E-03     89.2453E-03    -36.8038E+06     45.5996E+06     27.6171E+06     83.8497E+03    -118.930E-03     232.587E-03    -113.657E-03     198.437E-03    -124.629E-03     238.237E-03    -113.532E-03     189.246E-03
             610     12.0525E-03     89.4865E-03    -30.9159E+06     65.7598E+06     55.6374E+06    -830.795E+03    -121.944E-03     235.683E-03    -113.740E-03     240.689E-03    -130.577E-03     244.279E-03    -113.512E-03     229.465E-03
             611     12.8537E-03     89.7816E-03    -24.2310E+06     81.7154E+06     81.1188E+06    -70.2993E+03    -124.852E-03     238.688E-03    -113.836E-03     283.478E-03    -137.429E-03     251.234E-03    -113.513E-03     270.406E-03
             612     13.6573E-03     90.1259E-03    -17.1838E+06     97.8558E+06     93.6608E+06     245.421E+03    -125.730E-03     239.596E-03    -113.866E-03     310.348E-03    -142.125E-03     256.005E-03    -113.514E-03     297.034E-03
             613     14.4634E-03     90.4811E-03    -10.7062E+06     113.971E+06      98.808E+06     119.811E+03    -125.501E-03     239.345E-03    -113.844E-03     328.791E-03    -145.917E-03     259.841E-03    -113.500E-03     317.261E-03
             614     15.2631E-03     90.8727E-03    -5.17917E+06     118.259E+06     98.4730E+06     504.643E+03    -120.034E-03     233.832E-03    -113.798E-03     252.100E-03    -134.660E-03     248.574E-03    -113.470E-03     245.652E-03
             615     803.190E-06     89.0318E-03    -88.5570E+06    -245.487E+06    -87.1998E+06     17.8531E+03    -113.938E-03     227.710E-03    -113.772E-03     14.8152E-03    -113.911E-03     226.750E-03    -113.724E-03     14.4576E-03
             616     1.60639E-03     89.0545E-03    -86.0496E+06    -240.916E+06    -80.2090E+06     176.120E+03    -113.997E-03     227.846E-03    -113.850E-03     27.0819E-03    -114.001E-03     226.923E-03    -113.776E-03     26.4166E-03
             617     2.40970E-03     89.0926E-03    -82.4218E+06    -234.437E+06    -70.5600E+06     306.089E+03    -114.176E-03     228.051E-03    -113.876E-03     40.0046E-03    -114.234E-03     227.189E-03    -113.769E-03     38.9960E-03
             618     3.21291E-03     89.1444E-03    -78.3684E+06    -226.881E+06    -59.4165E+06     468.810E+03    -114.439E-03     228.344E-03    -113.905E-03     52.8262E-03    -114.575E-03     227.569E-03    -113.759E-03     51.4433E-03
             619     4.01639E-03     89.2109E-03    -74.0184E+06    -215.026E+06    -48.0029E+06     552.625E+03    -114.777E-03     228.708E-03    -113.930E-03     65.5003E-03    -115.025E-03     228.068E-03    -113.751E-03     63.7039E-03
             620     4.81912E-03     89.2912E-03    -68.8868E+06    -199.644E+06    -37.6083E+06     557.774E+03    -115.153E-03     229.099E-03    -113.946E-03     78.0542E-03    -115.546E-03     228.649E-03    -113.745E-03     75.7978E-03
             621     5.62282E-03     89.3856E-03    -63.6455E+06    -185.133E+06    -28.2926E+06     668.277E+03    -115.505E-03     229.458E-03    -113.953E-03     90.4926E-03    -116.084E-03     229.236E-03    -113.734E-03     87.7251E-03
             622     6.42598E-03     89.4937E-03    -58.5657E+06    -168.704E+06    -19.4520E+06     972.011E+03    -115.913E-03     229.862E-03    -113.950E-03     102.722E-03    -116.737E-03     229.936E-03    -113.717E-03     99.3746E-03
             623     7.22966E-03     89.6143E-03    -54.2296E+06    -143.518E+06    -13.4461E+06     1.32009E+06    -116.281E-03     230.197E-03    -113.916E-03     115.018E-03    -117.429E-03     230.682E-03    -113.697E-03     111.028E-03
             624     8.03295E-03     89.7500E-03    -50.2459E+06    -117.587E+06    -7.23773E+06     1.55571E+06    -116.594E-03     230.471E-03    -113.877E-03     127.331E-03    -118.162E-03     231.464E-03    -113.670E-03     122.609E-03
             625     8.83669E-03     89.8979E-03    -46.4631E+06    -85.6061E+06    -1.57281E+06     1.42006E+06    -116.993E-03     230.818E-03    -113.825E-03     139.646E-03    -119.112E-03     232.472E-03    -113.641E-03     134.077E-03
             626     9.63985E-03     90.0599E-03    -43.2660E+06    -36.6152E+06     3.04765E+06     1.81753E+06    -117.237E-03     230.983E-03    -113.746E-03     152.386E-03    -120.091E-03     233.544E-03    -113.615E-03     145.882E-03
             627     10.4432E-03     90.2352E-03    -39.5307E+06     13.5177E+06     11.3590E+06     1.76964E+06    -117.665E-03     231.345E-03    -113.680E-03     169.563E-03    -121.590E-03     235.144E-03    -113.585E-03     161.916E-03
             628     11.2485E-03     90.4356E-03    -35.2841E+06     47.8666E+06     29.4167E+06     540.742E+03    -119.219E-03     232.909E-03    -113.690E-03     198.356E-03    -124.917E-03     238.567E-03    -113.561E-03     189.144E-03
             629     12.0501E-03     90.6758E-03    -30.8866E+06     66.4209E+06     57.5704E+06    -416.977E+03    -122.273E-03     236.066E-03    -113.793E-03     241.549E-03    -130.932E-03     244.684E-03    -113.557E-03     230.299E-03
             630     12.8536E-03     90.9750E-03    -25.2765E+06     81.7207E+06     81.1681E+06    -1.17475E+06    -124.575E-03     238.449E-03    -113.873E-03     284.548E-03    -137.191E-03     251.030E-03    -113.549E-03     271.497E-03
             631     13.6592E-03     91.3108E-03    -18.4027E+06     97.0969E+06     92.4670E+06    -1.22368E+06    -125.469E-03     239.343E-03    -113.874E-03     311.201E-03    -141.916E-03     255.801E-03    -113.525E-03     297.884E-03
             632     14.4603E-03     91.6758E-03    -11.9481E+06     112.528E+06     96.8050E+06     7.55941E+03    -125.923E-03     239.773E-03    -113.850E-03     328.661E-03    -146.327E-03     260.253E-03    -113.511E-03     317.051E-03
             633     15.2664E-03     92.0609E-03    -5.07608E+06     118.177E+06     97.2621E+06     325.347E+03    -119.315E-03     233.114E-03    -113.799E-03     251.688E-03    -133.907E-03     247.825E-03    -113.477E-03     245.256E-03
             634     803.253E-06     90.2209E-03    -88.1936E+06    -245.011E+06    -86.8026E+06    -294.895E+03    -113.906E-03     227.741E-03    -113.834E-03     14.7966E-03    -113.879E-03     226.782E-03    -113.785E-03     14.4340E-03
             635     1.60640E-03     90.2445E-03    -85.8354E+06    -240.939E+06    -80.6324E+06    -326.310E+03    -114.005E-03     227.866E-03    -113.860E-03     27.0951E-03    -114.008E-03     226.943E-03    -113.790E-03     26.4232E-03
             636     2.40958E-03     90.2818E-03    -82.5995E+06    -235.083E+06    -71.5397E+06     144.894E+03    -114.174E-03     228.056E-03    -113.882E-03     39.9668E-03    -114.231E-03     227.192E-03    -113.779E-03     38.9568E-03
             637     3.21296E-03     90.3342E-03    -78.0935E+06    -227.346E+06    -60.1385E+06     473.171E+03    -114.430E-03     228.337E-03    -113.907E-03     52.7627E-03    -114.563E-03     227.560E-03    -113.765E-03     51.3797E-03
             638     4.01595E-03     90.4004E-03    -72.6267E+06    -215.544E+06    -46.8113E+06     766.537E+03    -114.760E-03     228.697E-03    -113.936E-03     65.5104E-03    -115.002E-03     228.051E-03    -113.753E-03     63.7176E-03
             639     4.81971E-03     90.4811E-03    -67.5724E+06    -199.531E+06    -35.7349E+06     1.09732E+06    -115.122E-03     229.072E-03    -113.950E-03     78.1367E-03    -115.512E-03     228.617E-03    -113.741E-03     75.8912E-03
             640     5.62254E-03     90.5752E-03    -62.9441E+06    -185.145E+06    -27.3754E+06     1.01921E+06    -115.499E-03     229.449E-03    -113.950E-03     90.4481E-03    -116.077E-03     229.225E-03    -113.727E-03     87.6833E-03
             641     6.42641E-03     90.6829E-03    -58.5144E+06    -169.685E+06    -19.2875E+06     1.35609E+06    -115.929E-03     229.876E-03    -113.947E-03     102.610E-03    -116.750E-03     229.943E-03    -113.712E-03     99.2688E-03
             642     7.22926E-03     90.8048E-03    -54.0576E+06    -143.937E+06    -12.9171E+06     1.81767E+06    -116.342E-03     230.262E-03    -113.920E-03     114.797E-03    -117.490E-03     230.745E-03    -113.698E-03     110.808E-03
             643     8.03286E-03     90.9387E-03    -49.7045E+06    -117.893E+06    -6.52361E+06     2.00342E+06    -116.654E-03     230.542E-03    -113.888E-03     127.214E-03    -118.221E-03     231.533E-03    -113.678E-03     122.492E-03
             644     8.83637E-03     91.0879E-03    -45.9365E+06    -86.1768E+06    -1.17722E+06     2.57396E+06    -116.931E-03     230.766E-03    -113.834E-03     139.648E-03    -119.044E-03     232.413E-03    -113.649E-03     134.103E-03
             645     9.64029E-03     91.2493E-03    -42.2807E+06    -36.6301E+06     3.95974E+06     2.49894E+06    -117.250E-03     231.003E-03    -113.753E-03     152.375E-03    -120.098E-03     233.559E-03    -113.619E-03     145.884E-03
             646     10.4442E-03     91.4254E-03    -38.3076E+06     14.7560E+06     13.2744E+06     1.73801E+06    -117.918E-03     231.616E-03    -113.698E-03     169.801E-03    -121.848E-03     235.424E-03    -113.598E-03     162.135E-03
             647     11.2459E-03     91.6249E-03    -34.1715E+06     49.1157E+06     30.9275E+06     1.49557E+06    -119.404E-03     233.123E-03    -113.719E-03     199.012E-03    -125.118E-03     238.800E-03    -113.586E-03     189.790E-03
             648     12.0508E-03     91.8669E-03    -29.1666E+06     68.3012E+06     58.5431E+06     845.415E+03    -121.835E-03     235.637E-03    -113.802E-03     242.149E-03    -130.487E-03     244.259E-03    -113.566E-03     230.972E-03
             649     12.8554E-03     92.1637E-03    -23.0807E+06     83.9918E+06     82.9589E+06    -213.980E+03    -124.373E-03     238.235E-03    -113.862E-03     284.362E-03    -136.975E-03     250.813E-03    -113.536E-03     271.360E-03
             650     13.6570E-03     92.5020E-03    -17.9724E+06     97.0973E+06     92.6419E+06    -153.813E+03    -125.508E-03     239.361E-03    -113.853E-03     311.887E-03    -141.948E-03     255.813E-03    -113.504E-03     298.598E-03
             651     14.4626E-03     92.8657E-03    -12.6074E+06     111.435E+06     95.6696E+06    -276.860E+03    -125.403E-03     239.202E-03    -113.798E-03     331.072E-03    -145.883E-03     259.754E-03    -113.463E-03     319.551E-03
             652     15.2643E-03     93.2506E-03    -5.36890E+06     117.728E+06     96.6688E+06    -847.491E+03    -119.525E-03     233.254E-03    -113.730E-03     251.406E-03    -134.145E-03     247.993E-03    -113.409E-03     244.981E-03
             653     803.081E-06     91.4107E-03    -87.7457E+06    -244.527E+06    -86.1203E+06     60.7402E+03    -113.965E-03     227.766E-03    -113.801E-03     14.8918E-03    -113.937E-03     226.808E-03    -113.750E-03     14.5352E-03
             654     1.60641E-03     91.4338E-03    -86.1457E+06    -240.907E+06    -80.1403E+06     29.7436E+03    -114.014E-03     227.888E-03    -113.874E-03     27.0907E-03    -114.019E-03     226.965E-03    -113.801E-03     26.4243E-03
             655     2.40963E-03     91.4716E-03    -82.8886E+06    -235.336E+06    -71.7443E+06     3.78411E+03    -114.194E-03     228.088E-03    -113.894E-03     39.9658E-03    -114.252E-03     227.224E-03    -113.791E-03     38.9532E-03
             656     3.21273E-03     91.5236E-03    -78.7199E+06    -227.376E+06    -60.1539E+06    -208.152E+03    -114.423E-03     228.343E-03    -113.919E-03     52.8385E-03    -114.559E-03     227.567E-03    -113.776E-03     51.4470E-03
             657     4.01632E-03     91.5902E-03    -73.5242E+06    -216.702E+06    -46.6878E+06     190.498E+03    -114.735E-03     228.681E-03    -113.946E-03     65.5589E-03    -114.980E-03     228.031E-03    -113.759E-03     63.7611E-03
             658     4.81922E-03     91.6705E-03    -68.1668E+06    -200.940E+06    -35.9906E+06     1.36424E+06    -115.101E-03     229.054E-03    -113.953E-03     78.0092E-03    -115.491E-03     228.593E-03    -113.743E-03     75.7668E-03
             659     5.62311E-03     91.7650E-03    -63.4001E+06    -184.886E+06    -26.8072E+06     1.99203E+06    -115.538E-03     229.495E-03    -113.957E-03     90.3180E-03    -116.118E-03     229.271E-03    -113.731E-03     87.5664E-03
             660     6.42566E-03     91.8728E-03    -58.5437E+06    -170.021E+06    -18.4718E+06     1.84613E+06    -115.943E-03     229.902E-03    -113.959E-03     102.582E-03    -116.765E-03     229.966E-03    -113.720E-03     99.2475E-03
             661     7.22965E-03     91.9940E-03    -53.7646E+06    -144.648E+06    -12.7301E+06     1.89196E+06    -116.286E-03     230.212E-03    -113.926E-03     114.859E-03    -117.430E-03     230.689E-03    -113.702E-03     110.876E-03
             662     8.03283E-03     92.1290E-03    -49.4090E+06    -118.650E+06    -6.35311E+06     2.41773E+06    -116.698E-03     230.590E-03    -113.892E-03     127.265E-03    -118.263E-03     231.576E-03    -113.680E-03     122.548E-03
             663     8.83637E-03     92.2769E-03    -44.9634E+06    -87.0029E+06    -662.924E+03     2.63952E+06    -117.008E-03     230.852E-03    -113.844E-03     139.644E-03    -119.116E-03     232.493E-03    -113.656E-03     134.097E-03
             664     9.63988E-03     92.4389E-03    -40.5338E+06    -35.9418E+06     5.02951E+06     2.47365E+06    -117.290E-03     231.055E-03    -113.765E-03     152.429E-03    -120.131E-03     233.610E-03    -113.629E-03     145.937E-03
             665     10.4431E-03     92.6151E-03    -36.7667E+06     15.1013E+06     14.4310E+06     2.39386E+06    -117.869E-03     231.578E-03    -113.709E-03     169.996E-03    -121.793E-03     235.384E-03    -113.605E-03     162.341E-03
             666     11.2480E-03     92.8158E-03    -32.5585E+06     49.7980E+06     32.6391E+06     2.09339E+06    -119.170E-03     232.889E-03    -113.719E-03     199.333E-03    -124.877E-03     238.562E-03    -113.581E-03     190.147E-03
             667     12.0506E-03     93.0561E-03    -27.3658E+06     69.8902E+06     60.3808E+06     1.74240E+06    -121.669E-03     235.456E-03    -113.786E-03     242.154E-03    -130.305E-03     244.067E-03    -113.546E-03     231.017E-03
             668     12.8539E-03     93.3529E-03    -22.3412E+06     84.2129E+06     82.9852E+06     1.95046E+06    -124.239E-03     238.066E-03    -113.827E-03     285.284E-03    -136.844E-03     250.650E-03    -113.502E-03     272.335E-03
             669     13.6595E-03     93.6935E-03    -16.3451E+06     98.1457E+06     93.5069E+06     1.94523E+06    -125.113E-03     238.912E-03    -113.799E-03     312.058E-03    -141.525E-03     255.344E-03    -113.450E-03     298.858E-03
             670     14.4639E-03     94.0521E-03    -9.44698E+06     114.023E+06     98.9140E+06      571.12E+03    -124.526E-03     238.248E-03    -113.721E-03     330.304E-03    -144.948E-03     258.754E-03    -113.379E-03     318.956E-03
             671     15.2712E-03     94.4456E-03    -4.88458E+06     118.165E+06     97.8551E+06    -827.704E+03    -120.627E-03     234.289E-03    -113.661E-03     251.131E-03    -135.227E-03     249.007E-03    -113.336E-03     244.692E-03
             672     803.322E-06     92.6004E-03    -88.4837E+06    -245.284E+06    -86.6649E+06     534.669E+03    -114.003E-03     227.758E-03    -113.755E-03     14.8414E-03    -113.976E-03     226.798E-03    -113.705E-03     14.4929E-03
             673     1.60631E-03     92.6234E-03    -86.1410E+06    -240.869E+06    -79.9143E+06     609.549E+03    -114.027E-03     227.903E-03    -113.876E-03     27.1226E-03    -114.033E-03     226.979E-03    -113.801E-03     26.4634E-03
             674     2.40954E-03     92.6612E-03    -83.0096E+06    -234.891E+06    -70.9140E+06     235.861E+03    -114.195E-03     228.096E-03    -113.901E-03     39.9891E-03    -114.255E-03     227.233E-03    -113.794E-03     38.9788E-03
             675     3.21293E-03     92.7132E-03    -78.8391E+06    -227.051E+06    -59.4094E+06     89.2438E+03    -114.452E-03     228.381E-03    -113.929E-03     52.8153E-03    -114.590E-03     227.605E-03    -113.783E-03     51.4280E-03
             676     4.01594E-03     92.7797E-03    -74.4951E+06    -218.106E+06    -46.7104E+06     708.571E+03    -114.775E-03     228.737E-03    -113.962E-03     65.5109E-03    -115.022E-03     228.081E-03    -113.772E-03     63.7193E-03
             677     4.81956E-03     92.8604E-03    -69.4665E+06    -202.762E+06    -36.2744E+06     1.32876E+06    -115.125E-03     229.098E-03    -113.973E-03     77.9949E-03    -115.519E-03     228.631E-03    -113.760E-03     75.7502E-03
             678     5.62227E-03     92.9545E-03     -63.672E+06    -185.415E+06    -26.7854E+06     1.86356E+06    -115.482E-03     229.453E-03    -113.970E-03     90.3959E-03    -116.062E-03     229.226E-03    -113.743E-03     87.6469E-03
             679     6.42639E-03     93.0627E-03    -58.3329E+06    -170.222E+06    -17.9947E+06     2.01741E+06    -115.882E-03     229.846E-03    -113.964E-03     102.619E-03    -116.702E-03     229.907E-03    -113.723E-03     99.2918E-03
             680     7.22919E-03     93.1835E-03    -53.5676E+06    -144.957E+06    -12.3652E+06     2.06958E+06    -116.290E-03     230.217E-03    -113.927E-03     114.851E-03    -117.432E-03     230.690E-03    -113.701E-03     110.872E-03
             681     8.03305E-03     93.3185E-03    -48.9276E+06    -119.279E+06    -6.13946E+06     2.17734E+06    -116.676E-03     230.567E-03    -113.891E-03     127.247E-03    -118.237E-03     231.549E-03    -113.678E-03     122.529E-03
             682     8.83636E-03     93.4668E-03    -44.4029E+06    -87.3405E+06    -408.989E+03     2.17058E+06    -117.077E-03     230.922E-03    -113.844E-03     139.711E-03    -119.181E-03     232.559E-03    -113.655E-03     134.156E-03
             683     9.63988E-03     93.6285E-03    -40.4275E+06    -36.1261E+06     5.09596E+06     2.34251E+06    -117.358E-03     231.128E-03    -113.770E-03     152.773E-03    -120.203E-03     233.686E-03    -113.633E-03     146.273E-03
             684     10.4438E-03     93.8052E-03    -36.1541E+06     14.9604E+06     14.4812E+06     2.24673E+06    -117.718E-03     231.425E-03    -113.707E-03     170.212E-03    -121.638E-03     235.228E-03    -113.604E-03     162.568E-03
             685     11.2465E-03     94.0046E-03    -31.7201E+06     49.8909E+06     32.1508E+06     2.45294E+06    -118.891E-03     232.588E-03    -113.697E-03     199.268E-03    -124.574E-03     238.242E-03    -113.563E-03     190.130E-03
             686     12.0516E-03     94.2463E-03    -27.4433E+06     69.5676E+06     59.5698E+06     2.99207E+06    -121.499E-03     235.248E-03    -113.749E-03     242.220E-03    -130.118E-03     243.845E-03    -113.513E-03     231.131E-03
             687     12.8564E-03     94.5428E-03    -21.4043E+06     84.6761E+06     83.5269E+06     2.92052E+06    -124.176E-03     237.967E-03    -113.791E-03     284.768E-03    -136.766E-03     250.539E-03    -113.465E-03     271.828E-03
             688     13.6600E-03     94.8818E-03    -14.3165E+06     99.3965E+06     94.8177E+06     1.98633E+06    -125.177E-03     238.953E-03    -113.776E-03     310.502E-03    -141.556E-03     255.359E-03    -113.425E-03     297.275E-03
             689     14.4631E-03     95.2433E-03    -7.86622E+06     115.646E+06     100.034E+06     1.16583E+06    -125.121E-03     238.863E-03    -113.743E-03     326.510E-03    -145.436E-03     259.271E-03    -113.399E-03     315.042E-03
             690     15.2678E-03     95.6254E-03    -3.47583E+06     120.016E+06     99.4134E+06     1.45033E+06    -120.848E-03     234.579E-03    -113.732E-03     250.620E-03    -135.436E-03     249.294E-03    -113.404E-03     244.107E-03
             691     803.060E-06     93.7897E-03    -88.9595E+06    -245.978E+06    -87.6242E+06     206.502E+03    -113.959E-03     227.765E-03    -113.806E-03     14.8206E-03    -113.933E-03     226.804E-03    -113.758E-03     14.4672E-03
             692     1.60647E-03     93.8132E-03    -86.4946E+06    -241.427E+06    -80.6723E+06     448.117E+03    -114.014E-03     227.888E-03    -113.875E-03     27.1199E-03    -114.019E-03     226.964E-03    -113.802E-03     26.4592E-03
             693     2.40964E-03     93.8507E-03    -82.8917E+06    -234.737E+06    -70.4743E+06     798.518E+03    -114.230E-03     228.136E-03    -113.906E-03     39.9547E-03    -114.290E-03     227.273E-03    -113.798E-03     38.9511E-03
             694     3.21272E-03     93.9029E-03    -79.1131E+06    -227.606E+06    -59.5707E+06     1.22646E+06    -114.496E-03     228.439E-03    -113.942E-03     52.7953E-03    -114.635E-03     227.661E-03    -113.795E-03     51.4213E-03
             695     4.01610E-03     93.9694E-03    -74.5050E+06    -218.879E+06    -47.4989E+06     1.48234E+06    -114.783E-03     228.759E-03    -113.975E-03     65.5307E-03    -115.029E-03     228.100E-03    -113.787E-03     63.7477E-03
             696     4.81904E-03     94.0499E-03    -68.9830E+06    -202.797E+06    -36.4522E+06     1.30922E+06    -115.099E-03     229.081E-03    -113.982E-03     78.0936E-03    -115.489E-03     228.613E-03    -113.771E-03     75.8510E-03
             697     5.62296E-03     94.1444E-03    -63.5299E+06    -186.843E+06    -27.3888E+06     1.35754E+06    -115.448E-03     229.422E-03    -113.973E-03     90.4081E-03    -116.025E-03     229.189E-03    -113.747E-03     87.6517E-03
             698     6.42575E-03     94.2519E-03    -58.4242E+06    -171.113E+06    -18.3284E+06     1.95180E+06    -115.851E-03     229.814E-03    -113.963E-03     102.641E-03    -116.669E-03     229.870E-03    -113.722E-03     99.3173E-03
             699     7.22972E-03     94.3736E-03    -53.5166E+06    -144.949E+06    -12.0884E+06     2.14481E+06    -116.288E-03     230.213E-03    -113.925E-03     114.883E-03    -117.430E-03     230.686E-03    -113.698E-03     110.908E-03
             700     8.03270E-03     94.5079E-03    -49.2833E+06    -119.512E+06    -6.13916E+06     2.03741E+06    -116.679E-03     230.568E-03    -113.889E-03     127.284E-03    -118.241E-03     231.549E-03    -113.675E-03     122.564E-03
             701     8.83653E-03     94.6565E-03    -45.5605E+06    -87.6388E+06    -867.053E+03     2.11260E+06    -117.015E-03     230.854E-03    -113.838E-03     139.829E-03    -119.123E-03     232.491E-03    -113.650E-03     134.279E-03
             702     9.63996E-03     94.8183E-03    -41.5186E+06    -36.3497E+06     4.44885E+06     1.86791E+06    -117.246E-03     231.002E-03    -113.755E-03     152.877E-03    -120.093E-03     233.560E-03    -113.620E-03     146.381E-03
             703     10.4434E-03     94.9946E-03    -37.7458E+06     14.9898E+06     13.8733E+06     1.71442E+06    -117.650E-03     231.337E-03    -113.687E-03     170.349E-03    -121.577E-03     235.144E-03    -113.585E-03     162.706E-03
             704     11.2483E-03     95.1945E-03    -33.7901E+06     48.6657E+06     30.1130E+06     2.14579E+06    -118.824E-03     232.493E-03    -113.670E-03     199.121E-03    -124.512E-03     238.147E-03    -113.541E-03     189.978E-03
             705     12.0517E-03     95.4348E-03    -27.6939E+06     68.8366E+06     57.7370E+06     2.50413E+06    -121.594E-03     235.319E-03    -113.724E-03     241.949E-03    -130.224E-03     243.928E-03    -113.495E-03     230.819E-03
             706     12.8550E-03     95.7322E-03    -20.7481E+06     84.9673E+06     83.7402E+06     2.59745E+06    -124.552E-03     238.347E-03    -113.794E-03     284.130E-03    -137.163E-03     250.942E-03    -113.469E-03     271.114E-03
             707     13.6582E-03     96.0718E-03    -14.9014E+06     100.572E+06     95.5709E+06     2.54058E+06    -125.603E-03     239.418E-03    -113.815E-03     309.681E-03    -141.997E-03     255.839E-03    -113.461E-03     296.398E-03
             708     14.4633E-03     96.4312E-03    -10.6374E+06     116.229E+06     99.2346E+06     2.06752E+06    -126.471E-03     240.296E-03    -113.825E-03     327.639E-03    -146.911E-03     260.823E-03    -113.482E-03     315.963E-03
             709     15.2612E-03     96.8217E-03    -5.38155E+06     120.996E+06     98.8823E+06     1.72780E+06    -120.050E-03     233.866E-03    -113.816E-03     252.261E-03    -134.758E-03     248.698E-03    -113.489E-03     245.707E-03
             710     803.257E-06     94.9795E-03    -89.4050E+06    -246.164E+06    -87.5764E+06     68.1316E+03    -113.972E-03     227.788E-03    -113.816E-03     14.8309E-03    -113.948E-03     226.827E-03    -113.767E-03     14.4746E-03
             711     1.60629E-03     95.0026E-03    -87.1464E+06    -242.008E+06    -81.0731E+06     289.994E+03    -114.031E-03     227.919E-03    -113.888E-03     27.1244E-03    -114.038E-03     226.993E-03    -113.816E-03     26.4621E-03
             712     2.40953E-03     95.0405E-03    -83.7035E+06    -236.217E+06    -72.1810E+06     969.880E+03    -114.238E-03     228.152E-03    -113.914E-03     39.9982E-03    -114.297E-03     227.285E-03    -113.811E-03     38.9979E-03
             713     3.21275E-03     95.0926E-03    -79.2596E+06    -228.494E+06    -60.8005E+06     1.66759E+06    -114.487E-03     228.435E-03    -113.947E-03     52.8404E-03    -114.624E-03     227.655E-03    -113.805E-03     51.4719E-03
             714     4.01587E-03     95.1591E-03    -74.0984E+06    -218.590E+06    -47.2046E+06     1.49632E+06    -114.760E-03     228.739E-03    -113.979E-03     65.5774E-03    -115.004E-03     228.081E-03    -113.791E-03     63.7951E-03
             715     4.81952E-03     95.2396E-03    -68.7386E+06    -203.017E+06    -36.8406E+06     1.24286E+06    -115.082E-03     229.062E-03    -113.980E-03     78.1045E-03    -115.470E-03     228.592E-03    -113.770E-03     75.8623E-03
             716     5.62235E-03     95.3338E-03    -63.5653E+06    -187.537E+06    -27.9493E+06     1.39313E+06    -115.461E-03     229.431E-03    -113.970E-03     90.3901E-03    -116.036E-03     229.196E-03    -113.746E-03     87.6332E-03
             717     6.42631E-03     95.4417E-03    -58.4603E+06    -172.093E+06    -18.5644E+06     1.89154E+06    -115.831E-03     229.793E-03    -113.961E-03     102.632E-03    -116.648E-03     229.844E-03    -113.720E-03     99.3076E-03
             718     7.22927E-03     95.5630E-03    -54.1719E+06    -145.854E+06    -12.6572E+06     2.46842E+06    -116.212E-03     230.130E-03    -113.917E-03     114.988E-03    -117.355E-03     230.599E-03    -113.691E-03     111.024E-03
             719     8.03322E-03     95.6978E-03    -50.2054E+06    -119.525E+06    -6.30086E+06     2.57986E+06    -116.663E-03     230.540E-03    -113.878E-03     127.386E-03    -118.229E-03     231.522E-03    -113.663E-03     122.675E-03
             720     8.83635E-03     95.8459E-03    -46.0924E+06    -87.2813E+06    -884.119E+03     2.22362E+06    -116.968E-03     230.793E-03    -113.825E-03     139.901E-03    -119.081E-03     232.435E-03    -113.636E-03     134.351E-03
             721     9.64027E-03     96.0079E-03    -42.6536E+06    -36.2157E+06     3.89861E+06     2.06108E+06    -117.181E-03     230.918E-03    -113.737E-03     152.881E-03    -120.033E-03     233.479E-03    -113.603E-03     146.391E-03
             722     10.4444E-03     96.1842E-03    -39.6073E+06     14.8660E+06     12.5355E+06     2.20236E+06    -117.605E-03     231.270E-03    -113.665E-03     170.048E-03    -121.536E-03     235.077E-03    -113.566E-03     162.415E-03
             723     11.2472E-03     96.3839E-03    -35.3153E+06     49.1880E+06     30.0066E+06     1.34835E+06    -119.001E-03     232.663E-03    -113.661E-03     198.673E-03    -124.706E-03     238.329E-03    -113.532E-03     189.490E-03
             724     12.0517E-03     96.6239E-03    -29.9689E+06     67.7992E+06     57.2618E+06     713.103E+03    -121.932E-03     235.672E-03    -113.739E-03     241.852E-03    -130.595E-03     244.302E-03    -113.508E-03     230.645E-03
             725     12.8552E-03     96.9237E-03    -24.3584E+06     83.2175E+06     81.7975E+06     1.73648E+06    -124.682E-03     238.502E-03    -113.820E-03     284.421E-03    -137.319E-03     251.110E-03    -113.496E-03     271.379E-03
             726     13.6592E-03     97.2610E-03    -18.6363E+06     100.454E+06     94.1413E+06     2.74624E+06    -125.890E-03     239.738E-03    -113.848E-03     310.375E-03    -142.337E-03     256.202E-03    -113.496E-03     297.038E-03
             727     14.4599E-03     97.6232E-03    -12.1650E+06     117.648E+06     99.6256E+06     2.77320E+06    -125.556E-03     239.383E-03    -113.827E-03     330.399E-03    -146.054E-03     259.967E-03    -113.482E-03     318.879E-03
             728     15.2679E-03     98.0138E-03    -6.10178E+06     122.977E+06     99.8971E+06     1.18256E+06    -119.920E-03     233.691E-03    -113.770E-03     252.588E-03    -134.583E-03     248.478E-03    -113.440E-03     246.194E-03
             729     803.123E-06     96.1691E-03    -89.5695E+06    -246.565E+06    -87.9924E+06     272.388E+03    -114.003E-03     227.835E-03    -113.832E-03     14.7858E-03    -113.978E-03     226.873E-03    -113.785E-03     14.4308E-03
             730     1.60638E-03     96.1924E-03    -87.4684E+06    -242.661E+06    -81.7563E+06     611.213E+03    -114.043E-03     227.950E-03    -113.908E-03     27.1049E-03    -114.050E-03     227.022E-03    -113.838E-03     26.4459E-03
             731     2.40952E-03     96.2301E-03    -84.3761E+06    -237.244E+06    -73.4939E+06     772.610E+03    -114.198E-03     228.119E-03    -113.921E-03     40.0407E-03    -114.258E-03     227.250E-03    -113.822E-03     39.0386E-03
             732     3.21275E-03     96.2823E-03    -79.8893E+06    -229.340E+06    -61.9519E+06     781.293E+03    -114.449E-03     228.390E-03    -113.941E-03     52.8934E-03    -114.586E-03     227.608E-03    -113.802E-03     51.5154E-03
             733     4.01613E-03     96.3487E-03    -74.5393E+06    -219.110E+06    -47.6506E+06     1.35604E+06    -114.755E-03     228.727E-03    -113.972E-03     65.5797E-03    -115.000E-03     228.067E-03    -113.784E-03     63.7963E-03
             734     4.81909E-03     96.4292E-03    -69.5727E+06    -203.421E+06    -36.8171E+06     1.91845E+06    -115.066E-03     229.040E-03    -113.974E-03     78.0971E-03    -115.458E-03     228.570E-03    -113.763E-03     75.8638E-03
             735     5.62296E-03     96.5235E-03    -64.9888E+06    -187.918E+06    -28.3263E+06     1.69391E+06    -115.432E-03     229.394E-03    -113.962E-03     90.4793E-03    -116.013E-03     229.160E-03    -113.737E-03     87.7296E-03
             736     6.42576E-03     96.6313E-03    -60.4552E+06    -173.207E+06    -19.6371E+06     1.94495E+06    -115.827E-03     229.778E-03    -113.951E-03     102.654E-03    -116.651E-03     229.829E-03    -113.710E-03     99.3287E-03
             737     7.22986E-03     96.7522E-03    -55.3981E+06    -146.545E+06    -13.1608E+06     2.44319E+06    -116.179E-03     230.087E-03    -113.908E-03     114.959E-03    -117.326E-03     230.555E-03    -113.681E-03     110.995E-03
             738     8.03300E-03     96.8875E-03    -50.1857E+06    -119.985E+06    -6.64122E+06     2.28742E+06    -116.582E-03     230.444E-03    -113.862E-03     127.429E-03    -118.146E-03     231.423E-03    -113.649E-03     122.720E-03
             739     8.83690E-03     97.0355E-03    -45.7920E+06    -87.2315E+06    -910.885E+03     2.58172E+06    -117.020E-03     230.830E-03    -113.810E-03     139.750E-03    -119.132E-03     232.473E-03    -113.622E-03     134.200E-03
             740     9.64034E-03     97.1972E-03    -42.4538E+06    -36.8623E+06     4.03297E+06     3.39459E+06    -117.256E-03     230.988E-03    -113.732E-03     152.587E-03    -120.106E-03     233.545E-03    -113.597E-03     146.107E-03
             741     10.4435E-03     97.3739E-03    -39.0774E+06     15.6820E+06     12.9584E+06     3.23991E+06    -117.684E-03     231.351E-03    -113.667E-03     169.762E-03    -121.612E-03     235.158E-03    -113.568E-03     162.135E-03
             742     11.2484E-03     97.5729E-03    -35.9926E+06     51.3323E+06     30.4556E+06     2.18165E+06    -119.278E-03     232.955E-03    -113.677E-03     198.735E-03    -125.002E-03     238.646E-03    -113.547E-03     189.529E-03
             743     12.0507E-03     97.8153E-03    -33.0122E+06     67.7309E+06     56.6312E+06     1.91090E+06    -122.049E-03     235.819E-03    -113.770E-03     241.613E-03    -130.719E-03     244.449E-03    -113.537E-03     230.413E-03
             744     12.8546E-03     98.1112E-03    -28.2083E+06     82.5098E+06     80.2276E+06     1.37364E+06    -124.573E-03     238.420E-03    -113.847E-03     284.449E-03    -137.196E-03     251.004E-03    -113.525E-03     271.430E-03
             745     13.6575E-03     98.4532E-03    -20.6310E+06     99.6756E+06     92.8199E+06     277.485E+03    -125.463E-03     239.316E-03    -113.853E-03     311.088E-03    -141.916E-03     255.780E-03    -113.503E-03     297.787E-03
             746     14.4636E-03     98.8126E-03    -12.2209E+06     117.305E+06     98.7463E+06     363.492E+03    -124.695E-03     238.500E-03    -113.804E-03     327.870E-03    -145.099E-03     258.990E-03    -113.463E-03     316.439E-03
             747     15.2686E-03     99.1982E-03    -5.20677E+06     123.677E+06     99.6966E+06     1.07032E+06    -119.858E-03     233.604E-03    -113.747E-03     251.038E-03    -134.440E-03     248.318E-03    -113.420E-03     244.635E-03
             748     803.123E-06     97.3587E-03    -90.1418E+06    -247.348E+06    -88.6991E+06     395.639E+03    -114.031E-03     227.858E-03    -113.827E-03     14.8547E-03    -114.007E-03     226.893E-03    -113.781E-03     14.5020E-03
             749     1.60622E-03     97.3821E-03    -88.0730E+06    -243.475E+06    -82.7316E+06     621.715E+03    -114.024E-03     227.935E-03    -113.911E-03     27.1302E-03    -114.032E-03     227.005E-03    -113.844E-03     26.4706E-03
             750     2.40950E-03     97.4197E-03    -84.6462E+06    -237.361E+06    -73.5748E+06     632.461E+03    -114.184E-03     228.103E-03    -113.919E-03     40.0470E-03    -114.245E-03     227.234E-03    -113.820E-03     39.0432E-03
             751     3.21282E-03     97.4719E-03    -80.7693E+06    -229.717E+06    -62.0257E+06     592.146E+03    -114.422E-03     228.358E-03    -113.936E-03     52.8954E-03    -114.562E-03     227.576E-03    -113.796E-03     51.5161E-03
             752     4.01595E-03     97.5384E-03    -75.8874E+06    -220.889E+06    -49.2860E+06     983.387E+03    -114.717E-03     228.674E-03    -113.957E-03     65.5936E-03    -114.963E-03     228.010E-03    -113.773E-03     63.8065E-03
             753     4.81959E-03     97.6188E-03    -69.8256E+06    -204.321E+06    -37.7193E+06     1.76231E+06    -115.057E-03     229.015E-03    -113.958E-03     78.1130E-03    -115.448E-03     228.542E-03    -113.749E-03     75.8776E-03
             754     5.62253E-03     97.7130E-03    -64.3151E+06    -188.256E+06    -27.6603E+06     2.53008E+06    -115.424E-03     229.376E-03    -113.952E-03     90.4013E-03    -116.002E-03     229.138E-03    -113.724E-03     87.6623E-03
             755     6.42660E-03     97.8208E-03    -59.2190E+06    -173.340E+06    -19.0700E+06     2.41434E+06    -115.827E-03     229.768E-03    -113.941E-03     102.586E-03    -116.645E-03     229.815E-03    -113.699E-03     99.2660E-03
             756     7.22930E-03     97.9420E-03    -54.1421E+06    -146.652E+06    -13.2615E+06     1.88532E+06    -116.237E-03     230.135E-03    -113.898E-03     114.883E-03    -117.378E-03     230.602E-03    -113.673E-03     110.906E-03
             757     8.03340E-03     98.0765E-03    -49.8104E+06    -120.794E+06    -7.16578E+06     2.26220E+06    -116.654E-03     230.515E-03    -113.861E-03     127.243E-03    -118.214E-03     231.489E-03    -113.649E-03     122.531E-03
             758     8.83670E-03     98.2253E-03    -46.2756E+06    -88.7455E+06    -1.89838E+06     3.12987E+06    -117.055E-03     230.869E-03    -113.814E-03     139.560E-03    -119.165E-03     232.505E-03    -113.628E-03     134.016E-03
             759     9.63996E-03     98.3872E-03    -42.5908E+06    -38.1530E+06     3.56549E+06     3.88731E+06    -117.325E-03     231.068E-03    -113.743E-03     152.324E-03    -120.173E-03     233.619E-03    -113.608E-03     145.844E-03
             760     10.4444E-03     98.5628E-03    -39.3775E+06     16.1979E+06     12.7929E+06     4.50270E+06    -117.856E-03     231.543E-03    -113.687E-03     169.677E-03    -121.791E-03     235.358E-03    -113.589E-03     162.048E-03
             761     11.2465E-03     98.7637E-03    -36.7713E+06     51.8650E+06     29.7959E+06     5.08962E+06    -119.312E-03     233.012E-03    -113.701E-03     198.881E-03    -125.038E-03     238.706E-03    -113.574E-03     189.711E-03
             762     12.0510E-03     99.0045E-03    -32.5971E+06     69.6822E+06     57.0697E+06     4.34958E+06    -121.982E-03     235.773E-03    -113.791E-03     241.862E-03    -130.661E-03     244.418E-03    -113.560E-03     230.697E-03
             763     12.8541E-03     99.3024E-03    -25.8001E+06     85.9189E+06     82.1130E+06     1.79036E+06    -124.430E-03     238.290E-03    -113.860E-03     284.875E-03    -137.080E-03     250.915E-03    -113.537E-03     271.858E-03
             764     13.6590E-03     99.6416E-03    -18.5672E+06     100.920E+06     93.9501E+06    -365.720E+03    -125.111E-03     238.958E-03    -113.848E-03     311.228E-03    -141.533E-03     255.401E-03    -113.497E-03     297.992E-03
             765     14.4615E-03     100.002E-03    -12.4980E+06     116.459E+06     97.9511E+06    -865.168E+03    -125.881E-03     239.697E-03    -113.816E-03     328.073E-03    -146.310E-03     260.210E-03    -113.477E-03     316.496E-03
             766     15.2622E-03     100.387E-03    -5.99244E+06     122.915E+06     97.9702E+06    -174.300E+03    -119.755E-03     233.537E-03    -113.782E-03     250.728E-03    -134.394E-03     248.307E-03    -113.462E-03     244.218E-03
             767     803.187E-06     98.5487E-03    -91.3376E+06    -248.452E+06    -89.5506E+06     556.328E+03    -113.963E-03     227.780E-03    -113.817E-03     14.8426E-03    -113.942E-03     226.813E-03    -113.772E-03     14.4941E-03
             768     1.60641E-03     98.5716E-03    -88.9195E+06    -243.806E+06    -82.6331E+06     511.367E+03    -114.035E-03     227.921E-03    -113.886E-03     27.1536E-03    -114.046E-03     226.991E-03    -113.817E-03     26.4932E-03
             769     2.40960E-03     98.6094E-03    -85.5783E+06    -237.611E+06    -73.3123E+06     640.361E+03    -114.210E-03     228.122E-03    -113.912E-03     40.0264E-03    -114.275E-03     227.252E-03    -113.810E-03     39.0219E-03
             770     3.21271E-03     98.6615E-03    -81.3107E+06    -230.324E+06    -62.6159E+06     1.10466E+06    -114.409E-03     228.340E-03    -113.931E-03     52.8359E-03    -114.550E-03     227.557E-03    -113.792E-03     51.4619E-03
             771     4.01625E-03     98.7278E-03    -76.3719E+06    -221.153E+06    -50.2177E+06     879.486E+03    -114.695E-03     228.643E-03    -113.948E-03     65.5311E-03    -114.942E-03     227.979E-03    -113.767E-03     63.7428E-03
             772     4.81930E-03     98.8084E-03    -71.2736E+06    -205.762E+06    -39.9165E+06     904.885E+03    -115.057E-03     229.003E-03    -113.945E-03     78.0214E-03    -115.450E-03     228.527E-03    -113.743E-03     75.7750E-03
             773     5.62305E-03     98.9026E-03    -65.5382E+06    -189.158E+06    -30.4391E+06     1.57643E+06    -115.433E-03     229.371E-03    -113.938E-03     90.3009E-03    -116.011E-03     229.133E-03    -113.721E-03     87.5491E-03
             774     6.42580E-03     99.0103E-03    -59.4124E+06    -172.973E+06    -20.5679E+06     1.49917E+06    -115.852E-03     229.785E-03    -113.933E-03     102.506E-03    -116.669E-03     229.837E-03    -113.698E-03     99.1747E-03
             775     7.23012E-03     99.1314E-03    -54.4364E+06    -147.638E+06    -14.5432E+06     1.89124E+06    -116.337E-03     230.238E-03    -113.901E-03     114.707E-03    -117.476E-03     230.702E-03    -113.681E-03     110.724E-03
             776     8.03278E-03     99.2664E-03    -50.7044E+06    -122.121E+06    -8.58535E+06     2.84470E+06    -116.772E-03     230.647E-03    -113.875E-03     127.094E-03    -118.332E-03     231.619E-03    -113.668E-03     122.382E-03
             777     8.83629E-03     99.4147E-03    -46.8700E+06    -90.0795E+06    -2.99744E+06     3.48611E+06    -117.049E-03     230.883E-03    -113.834E-03     139.520E-03    -119.157E-03     232.514E-03    -113.651E-03     133.982E-03
             778     9.64030E-03     99.5767E-03    -43.3766E+06    -39.5055E+06     2.19544E+06     4.29202E+06    -117.353E-03     231.114E-03    -113.761E-03     152.367E-03    -120.199E-03     233.660E-03    -113.630E-03     145.892E-03
             779     10.4427E-03     99.7531E-03    -40.0923E+06     14.0095E+06     10.9667E+06     5.59175E+06    -117.916E-03     231.620E-03    -113.704E-03     169.952E-03    -121.856E-03     235.435E-03    -113.611E-03     162.329E-03
             780     11.2475E-03     99.9532E-03    -35.4555E+06     51.6147E+06     29.1091E+06     6.28653E+06    -119.162E-03     232.872E-03    -113.711E-03     199.220E-03    -124.879E-03     238.562E-03    -113.589E-03     190.084E-03
             781     12.0505E-03     100.195E-03    -28.8632E+06     73.0141E+06     58.8458E+06     4.61226E+06    -121.850E-03     235.640E-03    -113.790E-03     242.311E-03    -130.521E-03     244.298E-03    -113.560E-03     231.167E-03
             782     12.8548E-03     100.492E-03    -21.7835E+06     89.3678E+06     84.8499E+06     2.81925E+06    -124.287E-03     238.141E-03    -113.853E-03     284.530E-03    -136.908E-03     250.755E-03    -113.527E-03     271.563E-03
             783     13.6579E-03     100.831E-03    -15.9975E+06     103.552E+06     95.9217E+06     2.06248E+06    -125.157E-03     238.996E-03    -113.839E-03     311.036E-03    -141.556E-03     255.428E-03    -113.486E-03     297.826E-03
             784     14.4637E-03     101.192E-03    -10.9957E+06     117.996E+06     99.5037E+06     753.618E+03    -125.627E-03     239.416E-03    -113.789E-03     330.846E-03    -146.093E-03     259.973E-03    -113.446E-03     319.301E-03
             785     15.2673E-03     101.586E-03    -5.95396E+06     122.795E+06     98.6294E+06    -769.545E+03    -119.890E-03     233.622E-03    -113.732E-03     250.906E-03    -134.511E-03     248.372E-03    -113.408E-03     244.452E-03
             786     803.192E-06     99.7378E-03    -91.9962E+06    -249.223E+06    -90.5038E+06     202.523E+03    -113.953E-03     227.758E-03    -113.805E-03     14.7707E-03    -113.933E-03     226.789E-03    -113.763E-03     14.4173E-03
             787     1.60642E-03     99.7614E-03    -89.5782E+06    -244.516E+06    -83.2300E+06     670.250E+03    -114.031E-03     227.909E-03    -113.878E-03     27.1135E-03    -114.044E-03     226.977E-03    -113.809E-03     26.4557E-03
             788     2.40946E-03     99.7990E-03    -86.2175E+06    -238.228E+06    -73.8348E+06     974.520E+03    -114.215E-03     228.122E-03    -113.907E-03     39.9528E-03    -114.281E-03     227.251E-03    -113.806E-03     38.9520E-03
             789     3.21288E-03     99.8510E-03    -81.9452E+06    -230.717E+06    -63.3405E+06     936.916E+03    -114.438E-03     228.369E-03    -113.931E-03     52.7555E-03    -114.581E-03     227.586E-03    -113.795E-03     51.3785E-03
             790     4.01593E-03     99.9174E-03    -76.9854E+06    -220.920E+06    -50.9663E+06     1.11039E+06    -114.727E-03     228.680E-03    -113.953E-03     65.4391E-03    -114.976E-03     228.020E-03    -113.776E-03     63.6537E-03
             791     4.81952E-03     99.9979E-03    -71.8362E+06    -205.976E+06    -41.0554E+06     792.662E+03    -115.041E-03     228.991E-03    -113.951E-03     77.9479E-03    -115.433E-03     228.517E-03    -113.753E-03     75.7014E-03
             792     5.62250E-03     100.092E-03    -66.2622E+06    -189.422E+06    -32.6489E+06    -92.0819E+03    -115.457E-03     229.394E-03    -113.937E-03     90.2624E-03    -116.035E-03     229.159E-03    -113.730E-03     87.4897E-03
             793     6.42661E-03     100.200E-03    -60.9796E+06    -173.662E+06    -22.7830E+06     374.162E+03    -115.958E-03     229.899E-03    -113.941E-03     102.436E-03    -116.778E-03     229.952E-03    -113.715E-03     99.0868E-03
             794     7.22892E-03     100.321E-03    -56.1739E+06    -149.475E+06    -16.1524E+06     1.48410E+06    -116.372E-03     230.293E-03    -113.922E-03     114.694E-03    -117.515E-03     230.753E-03    -113.704E-03     110.704E-03
             795     8.03295E-03     100.456E-03    -50.9671E+06    -123.599E+06    -9.84806E+06     2.33988E+06    -116.725E-03     230.617E-03    -113.892E-03     127.162E-03    -118.282E-03     231.583E-03    -113.688E-03     122.446E-03
             796     8.83635E-03     100.605E-03    -46.3365E+06    -91.8286E+06    -4.05740E+06     3.55381E+06    -117.076E-03     230.923E-03    -113.847E-03     139.659E-03    -119.177E-03     232.545E-03    -113.667E-03     134.125E-03
             797     9.63936E-03     100.766E-03    -42.4961E+06    -41.9182E+06     1.22740E+06     5.12533E+06    -117.324E-03     231.094E-03    -113.771E-03     152.716E-03    -120.164E-03     233.631E-03    -113.642E-03     146.255E-03
             798     10.4441E-03     100.943E-03    -38.4989E+06     12.1642E+06     10.6663E+06     5.86075E+06    -117.759E-03     231.463E-03    -113.704E-03     170.353E-03    -121.683E-03     235.262E-03    -113.612E-03     162.754E-03
             799     11.2465E-03     101.143E-03    -33.4821E+06     52.7285E+06     28.7138E+06     4.94673E+06    -119.159E-03     232.855E-03    -113.696E-03     199.428E-03    -124.871E-03     238.552E-03    -113.580E-03     190.276E-03
             800     12.0513E-03     101.384E-03    -27.7109E+06     74.9673E+06     58.1673E+06     3.58364E+06    -121.762E-03     235.531E-03    -113.769E-03     242.442E-03    -130.413E-03     244.181E-03    -113.547E-03     231.308E-03
             801     12.8543E-03     101.683E-03    -21.7231E+06      89.867E+06     84.6489E+06     3.26995E+06    -124.181E-03     238.011E-03    -113.831E-03     284.630E-03    -136.768E-03     250.595E-03    -113.506E-03     271.709E-03
             802     13.6595E-03     102.019E-03    -15.7950E+06     104.393E+06     96.4114E+06     3.71665E+06    -125.442E-03     239.266E-03    -113.824E-03     311.337E-03    -141.915E-03     255.773E-03    -113.470E-03     298.073E-03
             803     14.4615E-03     102.383E-03    -9.37873E+06     121.435E+06     102.028E+06     2.75882E+06    -124.242E-03     237.999E-03    -113.757E-03     329.104E-03    -144.571E-03     258.429E-03    -113.409E-03     317.820E-03
             804     15.2693E-03     102.768E-03    -4.37357E+06     125.232E+06     101.682E+06     298.176E+03    -119.338E-03     233.001E-03    -113.663E-03     251.129E-03    -133.823E-03     247.620E-03    -113.330E-03     244.871E-03
             805     803.143E-06     100.928E-03    -92.3567E+06    -249.428E+06    -90.7622E+06     73.9020E+03    -114.002E-03     227.829E-03    -113.826E-03     14.7255E-03    -113.984E-03     226.860E-03    -113.784E-03     14.3687E-03
             806     1.60627E-03     100.951E-03    -90.0445E+06    -245.433E+06    -84.7660E+06     267.012E+03    -114.018E-03     227.917E-03    -113.898E-03     27.1016E-03    -114.030E-03     226.983E-03    -113.836E-03     26.4385E-03
             807     2.40968E-03     100.989E-03    -86.1209E+06    -239.036E+06    -75.5630E+06     644.736E+03    -114.203E-03     228.114E-03    -113.911E-03     39.9225E-03    -114.265E-03     227.241E-03    -113.818E-03     38.9186E-03
             808     3.21266E-03     101.041E-03    -81.6742E+06    -230.829E+06    -63.8916E+06     865.748E+03    -114.481E-03     228.420E-03    -113.939E-03     52.7266E-03    -114.621E-03     227.636E-03    -113.806E-03     51.3488E-03
             809     4.01609E-03     101.107E-03    -76.5994E+06    -220.745E+06    -51.2680E+06     447.897E+03    -114.752E-03     228.718E-03    -113.967E-03     65.4152E-03    -114.999E-03     228.058E-03    -113.792E-03     63.6204E-03
             810     4.81913E-03     101.187E-03    -70.3231E+06    -204.925E+06    -40.5479E+06    -349.755E+03    -115.100E-03     229.070E-03    -113.969E-03     77.9039E-03    -115.488E-03     228.597E-03    -113.773E-03     75.6407E-03
             811     5.62298E-03     101.282E-03    -64.7958E+06    -189.321E+06    -31.8698E+06    -210.546E+03    -115.535E-03     229.500E-03    -113.965E-03     90.1868E-03    -116.107E-03     229.262E-03    -113.756E-03     87.4098E-03
             812     6.42538E-03     101.390E-03    -60.2016E+06    -174.650E+06    -23.5643E+06     166.753E+03    -115.932E-03     229.896E-03    -113.964E-03     102.464E-03    -116.746E-03     229.944E-03    -113.741E-03     99.1138E-03
             813     7.22967E-03     101.511E-03    -54.9841E+06    -150.540E+06    -17.1994E+06     255.952E+03    -116.302E-03     230.234E-03    -113.933E-03     114.856E-03    -117.435E-03     230.688E-03    -113.721E-03     110.857E-03
             814     8.03256E-03     101.646E-03    -49.9710E+06    -125.556E+06    -10.8156E+06     1.34259E+06    -116.680E-03     230.575E-03    -113.895E-03     127.307E-03    -118.227E-03     231.530E-03    -113.695E-03     122.585E-03
             815     8.83617E-03     101.794E-03    -45.3729E+06    -94.6396E+06    -5.26782E+06     2.86162E+06    -117.017E-03     230.860E-03    -113.843E-03     139.886E-03    -119.106E-03     232.467E-03    -113.666E-03     134.351E-03
             816     9.64019E-03     101.956E-03    -40.7923E+06    -45.6165E+06     319.856E+03     4.59024E+06    -117.247E-03     231.008E-03    -113.760E-03     152.918E-03    -120.071E-03     233.524E-03    -113.633E-03     146.460E-03
             817     10.4430E-03     102.132E-03    -36.6360E+06     11.8189E+06     10.4885E+06     5.76564E+06    -117.691E-03     231.376E-03    -113.685E-03     170.467E-03    -121.606E-03     235.172E-03    -113.596E-03     162.873E-03
             818     11.2482E-03     102.333E-03    -33.1468E+06     54.7219E+06     28.8242E+06     5.07362E+06    -119.021E-03     232.690E-03    -113.669E-03     199.776E-03    -124.731E-03     238.393E-03    -113.556E-03     190.644E-03
             819     12.0503E-03     102.575E-03    -29.6684E+06     76.1341E+06     57.5929E+06     4.21766E+06    -121.625E-03     235.357E-03    -113.733E-03     242.835E-03    -130.289E-03     244.019E-03    -113.512E-03     231.729E-03
             820     12.8561E-03     102.870E-03    -25.2825E+06     90.1445E+06     83.1018E+06     3.12192E+06    -124.287E-03     238.079E-03    -113.792E-03     284.968E-03    -136.924E-03     250.705E-03    -113.471E-03     272.006E-03
             821     13.6586E-03     103.211E-03    -19.0479E+06     103.988E+06     95.3444E+06     1.70281E+06    -125.389E-03     239.178E-03    -113.790E-03     311.990E-03    -141.908E-03     255.723E-03    -113.436E-03     298.696E-03
             822     14.4633E-03     103.572E-03    -11.9826E+06     121.775E+06     101.259E+06     1.02321E+06    -124.758E-03     238.503E-03    -113.744E-03     326.967E-03    -145.014E-03     258.854E-03    -113.397E-03     315.582E-03
             823     15.2687E-03     103.951E-03    -4.44866E+06     126.744E+06     102.347E+06     1.01751E+06    -118.610E-03     232.275E-03    -113.665E-03     251.348E-03    -133.089E-03     246.891E-03    -113.330E-03     245.067E-03
             824     803.130E-06     102.117E-03    -92.7341E+06    -249.442E+06    -91.3217E+06    -46.9535E+03    -114.034E-03     227.874E-03    -113.840E-03     14.7965E-03    -114.017E-03     226.907E-03    -113.800E-03     14.4375E-03
             825     1.60631E-03     102.141E-03    -90.4319E+06    -245.258E+06    -84.8639E+06    -195.591E+03    -114.053E-03     227.979E-03    -113.925E-03     27.0499E-03    -114.067E-03     227.046E-03    -113.863E-03     26.3805E-03
             826     2.40937E-03     102.178E-03    -86.8202E+06    -239.182E+06    -75.9634E+06    -462.901E+03    -114.218E-03     228.157E-03    -113.939E-03     39.9073E-03    -114.283E-03     227.284E-03    -113.846E-03     38.8891E-03
             827     3.21279E-03     102.231E-03    -81.9601E+06    -231.590E+06    -65.2842E+06    -176.016E+03    -114.467E-03     228.423E-03    -113.956E-03     52.7055E-03    -114.605E-03     227.637E-03    -113.827E-03     51.3149E-03
             828     4.01581E-03     102.297E-03    -76.5059E+06    -218.851E+06    -53.5722E+06    -700.219E+03    -114.797E-03     228.769E-03    -113.972E-03     65.3653E-03    -115.042E-03     228.121E-03    -113.812E-03     63.5538E-03
             829     4.81940E-03     102.377E-03    -71.5481E+06    -203.575E+06    -42.8416E+06    -1.55485E+06    -115.158E-03     229.141E-03    -113.983E-03     77.9250E-03    -115.550E-03     228.681E-03    -113.798E-03     75.6445E-03
             830     5.62192E-03     102.472E-03    -66.2758E+06    -190.423E+06    -33.4820E+06    -1.43261E+06    -115.493E-03     229.478E-03    -113.985E-03     90.3513E-03    -116.069E-03     229.239E-03    -113.780E-03     87.5616E-03
             831     6.42624E-03     102.579E-03    -59.9967E+06    -174.592E+06    -25.2302E+06    -1.35958E+06    -115.844E-03     229.811E-03    -113.967E-03     102.653E-03    -116.654E-03     229.861E-03    -113.752E-03     99.2885E-03
             832     7.22893E-03     102.700E-03    -54.5249E+06    -151.397E+06    -19.0782E+06    -1.04716E+06    -116.215E-03     230.137E-03    -113.923E-03     114.966E-03    -117.340E-03     230.587E-03    -113.719E-03     110.958E-03
             833     8.03297E-03     102.835E-03    -49.7045E+06    -127.777E+06    -12.6244E+06    -81.0946E+03    -116.593E-03     230.471E-03    -113.878E-03     127.484E-03    -118.131E-03     231.416E-03    -113.683E-03     122.752E-03
             834     8.83646E-03     102.984E-03    -44.7749E+06    -97.2915E+06    -6.78978E+06     1.21637E+06    -116.924E-03     230.741E-03    -113.817E-03     140.124E-03    -119.005E-03     232.337E-03    -113.645E-03     134.573E-03
             835     9.63984E-03     103.146E-03    -40.3708E+06    -49.7440E+06    -1.41416E+06     3.29293E+06    -117.187E-03     230.916E-03    -113.729E-03     153.149E-03    -120.000E-03     233.413E-03    -113.605E-03     146.683E-03
             836     10.4445E-03     103.322E-03    -36.8535E+06     9.46182E+06     7.94067E+06     5.88403E+06    -117.659E-03     231.302E-03    -113.643E-03     170.844E-03    -121.572E-03     235.095E-03    -113.564E-03     163.256E-03
             837     11.2467E-03     103.522E-03    -33.8768E+06     55.6999E+06     27.2491E+06     6.91238E+06    -118.834E-03     232.455E-03    -113.621E-03     199.834E-03    -124.539E-03     238.159E-03    -113.516E-03     190.749E-03
             838     12.0534E-03     103.763E-03    -29.9865E+06     77.7609E+06     57.4142E+06     6.39968E+06    -121.486E-03     235.167E-03    -113.682E-03     242.760E-03    -130.144E-03     243.829E-03    -113.464E-03     231.703E-03
             839     12.8551E-03     104.062E-03    -24.5390E+06     93.0182E+06     84.4613E+06     4.90056E+06    -124.135E-03     237.870E-03    -113.736E-03     285.694E-03    -136.793E-03     250.527E-03    -113.413E-03     272.779E-03
             840     13.6600E-03     104.399E-03    -17.9981E+06     107.367E+06     97.9696E+06     2.24098E+06    -124.568E-03     238.271E-03    -113.703E-03     313.147E-03    -141.028E-03     254.764E-03    -113.343E-03     300.032E-03
             841     14.4649E-03     104.762E-03    -11.9962E+06     122.516E+06     102.368E+06     258.667E+03    -125.344E-03     238.970E-03    -113.625E-03     331.874E-03    -145.891E-03     259.611E-03    -113.274E-03     320.345E-03
             842     15.2636E-03     105.144E-03    -5.94816E+06     126.417E+06     101.985E+06     319.918E+03    -119.732E-03     233.296E-03    -113.564E-03     252.998E-03    -134.486E-03     248.181E-03    -113.229E-03     246.465E-03
             843     803.121E-06     103.307E-03    -93.3071E+06    -249.018E+06    -91.6464E+06    -305.480E+03    -114.045E-03     227.903E-03    -113.858E-03     14.7574E-03    -114.030E-03     226.939E-03    -113.820E-03     14.3954E-03
             844     1.60622E-03     103.330E-03    -90.7029E+06    -244.465E+06    -84.5841E+06    -535.612E+03    -114.091E-03     228.039E-03    -113.947E-03     27.0683E-03    -114.108E-03     227.110E-03    -113.884E-03     26.3939E-03
             845     2.40944E-03     103.368E-03    -86.9597E+06    -238.156E+06    -74.9522E+06    -1.01648E+06    -114.254E-03     228.225E-03    -113.971E-03     39.9224E-03    -114.323E-03     227.357E-03    -113.874E-03     38.8963E-03
             846     3.21248E-03     103.420E-03    -82.4682E+06    -231.330E+06    -65.0217E+06    -1.55242E+06    -114.477E-03     228.462E-03    -113.986E-03     52.7045E-03    -114.618E-03     227.679E-03    -113.856E-03     51.2958E-03
             847     4.01597E-03     103.487E-03    -77.7269E+06    -217.399E+06    -56.2196E+06    -1.73580E+06    -114.780E-03     228.762E-03    -113.981E-03     65.4571E-03    -115.031E-03     228.127E-03    -113.835E-03     63.6340E-03
             848     4.81869E-03     103.567E-03    -72.3978E+06    -201.956E+06    -45.4517E+06    -2.50350E+06    -115.071E-03     229.051E-03    -113.979E-03     78.0627E-03    -115.466E-03     228.603E-03    -113.809E-03     75.7745E-03
             849     5.62293E-03     103.661E-03    -66.5608E+06    -189.917E+06    -34.8867E+06    -3.44651E+06    -115.406E-03     229.379E-03    -113.973E-03     90.5072E-03    -115.981E-03     229.144E-03    -113.775E-03     87.6973E-03
             850     6.42549E-03     103.769E-03    -61.1888E+06    -174.384E+06    -27.5967E+06    -3.60786E+06    -115.791E-03     229.734E-03    -113.943E-03     102.780E-03    -116.603E-03     229.790E-03    -113.739E-03     99.3904E-03
             851     7.22968E-03     103.890E-03    -55.7208E+06    -152.254E+06    -21.3897E+06    -3.17195E+06    -116.124E-03     230.017E-03    -113.893E-03     115.112E-03    -117.250E-03     230.467E-03    -113.699E-03     111.083E-03
             852     8.03293E-03     104.024E-03    -50.1783E+06    -129.271E+06    -14.8621E+06    -2.45364E+06    -116.470E-03     230.309E-03    -113.839E-03     127.666E-03    -118.004E-03     231.249E-03    -113.653E-03     122.913E-03
             853     8.83678E-03     104.173E-03    -45.2582E+06    -100.195E+06    -9.24049E+06    -953.846E+03    -116.801E-03     230.571E-03    -113.770E-03     140.296E-03    -118.874E-03     232.155E-03    -113.605E-03     134.730E-03
             854     9.64087E-03     104.335E-03    -41.2704E+06    -55.1679E+06    -4.09775E+06     2.22965E+06    -117.103E-03     230.779E-03    -113.677E-03     153.494E-03    -119.909E-03     233.255E-03    -113.557E-03     147.023E-03
             855     10.4439E-03     104.511E-03    -37.8472E+06     4.76948E+06     4.32273E+06     5.83127E+06    -117.540E-03     231.119E-03    -113.579E-03     171.065E-03    -121.440E-03     234.888E-03    -113.509E-03     163.496E-03
             856     11.2496E-03     104.712E-03    -33.9099E+06     54.9445E+06     22.4892E+06     7.65634E+06    -118.806E-03     232.345E-03    -113.540E-03     200.092E-03    -124.509E-03     238.058E-03    -113.458E-03     191.023E-03
             857     12.0508E-03     104.953E-03    -28.6212E+06     78.9428E+06     54.5943E+06     7.07285E+06    -121.182E-03     234.775E-03    -113.593E-03     243.469E-03    -129.835E-03     243.449E-03    -113.393E-03     232.456E-03
             858     12.8578E-03     105.250E-03    -21.5168E+06     95.0573E+06     85.9076E+06     6.11218E+06    -123.274E-03     236.897E-03    -113.623E-03     286.980E-03    -135.896E-03     249.530E-03    -113.300E-03     274.220E-03
             859     13.6624E-03     105.590E-03    -14.5665E+06     111.738E+06     102.184E+06     5.18963E+06    -123.928E-03     237.479E-03    -113.551E-03     313.328E-03    -140.319E-03     253.919E-03    -113.181E-03     300.369E-03
             860     14.4695E-03     105.947E-03    -8.33910E+06     127.490E+06     108.122E+06     3.05574E+06    -124.484E-03     237.925E-03    -113.440E-03     333.155E-03    -145.117E-03     258.666E-03    -113.072E-03     321.810E-03
             861     15.2796E-03     106.346E-03    -5.73401E+06     127.884E+06     104.439E+06     1.01161E+06    -121.357E-03     234.754E-03    -113.397E-03     250.772E-03    -136.092E-03     249.620E-03    -113.052E-03     244.195E-03
             862     803.103E-06     104.497E-03    -93.2355E+06    -247.935E+06    -91.5069E+06    -434.201E+03    -114.027E-03     227.946E-03    -113.919E-03     14.7237E-03    -114.013E-03     226.987E-03    -113.882E-03     14.3595E-03
             863     1.60625E-03     104.520E-03    -90.6839E+06    -243.148E+06    -84.3840E+06    -938.023E+03    -114.083E-03     228.047E-03    -113.963E-03     27.0984E-03    -114.102E-03     227.125E-03    -113.901E-03     26.4197E-03
             864     2.40930E-03     104.558E-03    -86.6119E+06    -236.444E+06    -74.2373E+06    -1.59736E+06    -114.262E-03     228.244E-03    -113.982E-03     39.9569E-03    -114.332E-03     227.383E-03    -113.885E-03     38.9239E-03
             865     3.21260E-03     104.610E-03    -81.7173E+06    -229.887E+06    -64.1124E+06    -2.21050E+06    -114.488E-03     228.485E-03    -113.997E-03     52.8109E-03    -114.629E-03     227.706E-03    -113.866E-03     51.3931E-03
             866     4.01553E-03     104.676E-03    -76.2859E+06    -215.906E+06    -55.5385E+06    -3.17899E+06    -114.691E-03     228.671E-03    -113.980E-03     65.5861E-03    -114.937E-03     228.041E-03    -113.834E-03     63.7476E-03
             867     4.81956E-03     104.757E-03    -70.7602E+06    -199.841E+06    -45.7875E+06    -4.19183E+06    -114.977E-03     228.932E-03    -113.955E-03     78.1396E-03    -115.366E-03     228.493E-03    -113.792E-03     75.8340E-03
             868     5.62216E-03     104.850E-03    -65.6042E+06    -188.483E+06    -36.1616E+06    -4.60516E+06    -115.351E-03     229.287E-03    -113.936E-03     90.5700E-03    -115.921E-03     229.060E-03    -113.749E-03     87.7478E-03
             869     6.42646E-03     104.958E-03    -60.6234E+06    -173.054E+06    -28.6542E+06    -5.10588E+06    -115.673E-03     229.572E-03    -113.900E-03     102.881E-03    -116.481E-03     229.634E-03    -113.704E-03     99.4809E-03
             870     7.22947E-03     105.079E-03    -55.7328E+06    -152.341E+06    -23.2278E+06    -5.48593E+06    -116.022E-03     229.862E-03    -113.840E-03     115.262E-03    -117.145E-03     230.313E-03    -113.654E-03     111.210E-03
             871     8.03356E-03     105.214E-03    -51.3205E+06    -130.777E+06    -17.6249E+06    -4.54132E+06    -116.356E-03     230.133E-03    -113.777E-03     127.836E-03    -117.889E-03     231.070E-03    -113.601E-03     123.067E-03
             872     8.83729E-03     105.362E-03    -47.3549E+06    -103.111E+06    -12.4189E+06    -2.77930E+06    -116.674E-03     230.376E-03    -113.701E-03     140.538E-03    -118.746E-03     231.949E-03    -113.545E-03     134.965E-03
             873     9.64104E-03     105.524E-03    -43.4009E+06    -62.0299E+06    -7.99933E+06     450.206E+03    -116.926E-03     230.527E-03    -113.601E-03     153.767E-03    -119.725E-03     232.975E-03    -113.488E-03     147.293E-03
             874     10.4458E-03     105.701E-03    -39.4570E+06    -1.25189E+06    -561.764E+03     4.84359E+06    -117.295E-03     230.776E-03    -113.481E-03     171.557E-03    -121.183E-03     234.521E-03    -113.425E-03     164.005E-03
             875     11.2482E-03     105.901E-03    -35.4989E+06     54.0262E+06     17.2111E+06     6.70752E+06    -118.535E-03     231.949E-03    -113.414E-03     201.039E-03    -124.239E-03     237.669E-03    -113.355E-03     191.992E-03
             876     12.0556E-03     106.142E-03    -30.5721E+06     80.2131E+06     50.7041E+06     5.73184E+06    -120.768E-03     234.220E-03    -113.452E-03     243.634E-03    -129.413E-03     242.894E-03    -113.271E-03     232.661E-03
             877     12.8589E-03     106.438E-03    -24.5397E+06     95.1470E+06     84.0709E+06     4.56408E+06    -123.075E-03     236.562E-03    -113.487E-03     286.121E-03    -135.670E-03     249.163E-03    -113.169E-03     273.359E-03
             878     13.6661E-03     106.777E-03    -17.2928E+06     113.238E+06     102.861E+06     3.54131E+06    -124.424E-03     237.883E-03    -113.459E-03     310.833E-03    -140.797E-03     254.298E-03    -113.084E-03     297.731E-03
             879     14.4688E-03     107.137E-03    -10.1799E+06     128.485E+06     108.757E+06     3.30870E+06    -124.747E-03     238.153E-03    -113.406E-03     328.582E-03    -145.136E-03     258.647E-03    -113.034E-03     317.204E-03
             880     15.2691E-03     107.526E-03    -6.01579E+06     129.616E+06     105.291E+06     2.75578E+06    -120.338E-03     233.702E-03    -113.363E-03     251.560E-03    -134.942E-03     248.439E-03    -113.016E-03     245.118E-03
             881     803.040E-06     105.687E-03    -93.1061E+06    -246.644E+06    -91.5651E+06    -534.127E+03    -114.052E-03     227.927E-03    -113.875E-03     14.7929E-03    -114.039E-03     226.974E-03    -113.840E-03     14.4284E-03
             882     1.60617E-03     105.710E-03    -90.6800E+06    -241.313E+06    -84.2091E+06    -1.01642E+06    -114.056E-03     228.006E-03    -113.950E-03     27.1613E-03    -114.078E-03     227.093E-03    -113.890E-03     26.4827E-03
             883     2.40944E-03     105.748E-03    -86.8526E+06    -233.930E+06    -74.0209E+06    -2.18863E+06    -114.201E-03     228.159E-03    -113.959E-03     40.0817E-03    -114.276E-03     227.311E-03    -113.864E-03     39.0441E-03
             884     3.21251E-03     105.799E-03    -81.7448E+06    -227.241E+06    -63.8040E+06    -3.71345E+06    -114.410E-03     228.372E-03    -113.962E-03     52.9413E-03    -114.556E-03     227.606E-03    -113.833E-03     51.5076E-03
             885     4.01613E-03     105.866E-03    -76.3564E+06    -213.307E+06    -54.2416E+06    -4.73024E+06    -114.631E-03     228.575E-03    -113.943E-03     65.6587E-03    -114.883E-03     227.955E-03    -113.794E-03     63.8027E-03
             886     4.81899E-03     105.946E-03    -71.4764E+06    -197.528E+06    -45.9421E+06    -5.46727E+06    -114.912E-03     228.820E-03    -113.909E-03     78.2905E-03    -115.307E-03     228.394E-03    -113.748E-03     75.9728E-03
             887     5.62324E-03     106.040E-03    -66.4160E+06    -186.666E+06    -38.3735E+06    -6.25101E+06    -115.216E-03     229.089E-03    -113.872E-03     90.7054E-03    -115.789E-03     228.874E-03    -113.697E-03     87.8691E-03
             888     6.42613E-03     106.147E-03    -61.2268E+06    -171.203E+06    -30.8451E+06    -6.81994E+06    -115.512E-03     229.334E-03    -113.823E-03     103.044E-03    -116.321E-03     229.408E-03    -113.640E-03     99.6332E-03
             889     7.23050E-03     106.269E-03    -57.0094E+06    -151.965E+06    -25.3215E+06    -6.65870E+06    -115.858E-03     229.612E-03    -113.754E-03     115.562E-03    -116.982E-03     230.068E-03    -113.578E-03     111.512E-03
             890     8.03393E-03     106.403E-03    -53.3684E+06    -132.077E+06    -20.3540E+06    -5.73975E+06    -116.233E-03     229.915E-03    -113.683E-03     128.136E-03    -117.768E-03     230.851E-03    -113.516E-03     123.365E-03
             891     8.83812E-03     106.551E-03    -49.7992E+06    -105.953E+06    -15.5989E+06    -4.06647E+06    -116.502E-03     230.102E-03    -113.600E-03     140.939E-03    -118.576E-03     231.668E-03    -113.452E-03     135.366E-03
             892     9.64220E-03     106.713E-03    -45.9543E+06    -67.6060E+06    -11.6724E+06    -1.66512E+06    -116.675E-03     230.163E-03    -113.488E-03     154.314E-03    -119.466E-03     232.584E-03    -113.381E-03     147.847E-03
             893     10.4460E-03     106.889E-03    -41.4413E+06    -8.68213E+06    -5.17687E+06     2.11711E+06    -117.075E-03     230.426E-03    -113.351E-03     172.004E-03    -120.952E-03     234.140E-03    -113.304E-03     164.447E-03
             894     11.2526E-03     107.090E-03    -36.9034E+06     51.6368E+06     12.2559E+06     5.67475E+06    -118.220E-03     231.482E-03    -113.261E-03     201.022E-03    -123.896E-03     237.174E-03    -113.221E-03     192.014E-03
             895     12.0546E-03     107.330E-03    -32.8643E+06     82.5114E+06     46.4801E+06     5.81153E+06    -120.968E-03     234.272E-03    -113.304E-03     243.039E-03    -129.606E-03     242.951E-03    -113.144E-03     232.052E-03
             896     12.8613E-03     107.625E-03    -27.2379E+06     97.5537E+06     82.7546E+06     3.71311E+06    -124.054E-03     237.462E-03    -113.408E-03     284.859E-03    -136.689E-03     250.106E-03    -113.096E-03     271.928E-03
             897     13.6627E-03     107.966E-03    -19.8833E+06     113.448E+06     101.838E+06     1.86038E+06    -125.449E-03     238.906E-03    -113.457E-03     310.813E-03    -141.888E-03     255.382E-03    -113.084E-03     297.519E-03
             898     14.4666E-03     108.325E-03    -13.7347E+06     125.471E+06     105.136E+06     2.42405E+06    -125.021E-03     238.451E-03    -113.430E-03     329.318E-03    -145.351E-03     258.873E-03    -113.066E-03     317.890E-03
             899     15.2744E-03     108.717E-03    -5.80171E+06     131.317E+06     105.062E+06     2.40182E+06    -117.654E-03     230.969E-03    -113.315E-03     255.296E-03    -132.308E-03     245.764E-03    -112.972E-03     249.069E-03
             900     803.232E-06     106.877E-03    -93.6348E+06    -244.897E+06    -92.0018E+06    -756.001E+03    -113.965E-03     227.776E-03    -113.811E-03     14.8759E-03    -113.957E-03     226.833E-03    -113.780E-03     14.5110E-03
             901     1.60633E-03     106.900E-03    -90.9829E+06    -239.587E+06    -85.2711E+06    -1.32724E+06    -114.002E-03     227.877E-03    -113.875E-03     27.1902E-03    -114.026E-03     226.974E-03    -113.822E-03     26.5089E-03
             902     2.40951E-03     106.937E-03    -87.3800E+06    -229.992E+06    -76.0684E+06    -2.53525E+06    -114.089E-03     227.962E-03    -113.873E-03     40.1826E-03    -114.170E-03     227.137E-03    -113.793E-03     39.1439E-03
             903     3.21297E-03     106.989E-03    -83.0135E+06    -222.782E+06    -64.8624E+06    -4.81459E+06    -114.295E-03     228.166E-03    -113.872E-03     53.0576E-03    -114.451E-03     227.425E-03    -113.753E-03     51.6149E-03
             904     4.01608E-03     107.055E-03    -77.6523E+06    -210.702E+06    -54.3206E+06    -6.35518E+06    -114.548E-03     228.405E-03    -113.858E-03     65.8062E-03    -114.809E-03     227.801E-03    -113.711E-03     63.9336E-03
             905     4.82003E-03     107.135E-03    -71.7063E+06    -195.021E+06    -45.9341E+06    -6.90074E+06    -114.772E-03     228.590E-03    -113.818E-03     78.4829E-03    -115.172E-03     228.176E-03    -113.661E-03     76.1544E-03
             906     5.62298E-03     107.229E-03    -66.5525E+06    -183.955E+06    -39.0828E+06    -7.67673E+06    -115.016E-03     228.780E-03    -113.765E-03     90.9759E-03    -115.590E-03     228.579E-03    -113.597E-03     88.1350E-03
             907     6.42747E-03     107.337E-03    -62.2866E+06    -169.662E+06    -32.5238E+06    -8.06548E+06    -115.323E-03     229.022E-03    -113.699E-03     103.421E-03    -116.136E-03     229.106E-03    -113.526E-03     100.010E-03
             908     7.23086E-03     107.457E-03    -58.0387E+06    -151.848E+06    -26.5031E+06    -7.55370E+06    -115.661E-03     229.285E-03    -113.624E-03     115.957E-03    -116.786E-03     229.742E-03    -113.452E-03     111.917E-03
             909     8.03538E-03     107.592E-03    -53.7860E+06    -132.690E+06    -21.4719E+06    -6.83817E+06    -116.004E-03     229.545E-03    -113.541E-03     128.691E-03    -117.536E-03     230.477E-03    -113.378E-03     123.932E-03
             910     8.83908E-03     107.739E-03    -49.3843E+06    -108.701E+06    -17.0875E+06    -5.37798E+06    -116.296E-03     229.742E-03    -113.446E-03     141.503E-03    -118.358E-03     231.292E-03    -113.302E-03     135.941E-03
             911     9.64384E-03     107.901E-03    -45.4986E+06    -71.5970E+06    -13.1926E+06    -2.73043E+06    -116.559E-03     229.889E-03    -113.330E-03     154.764E-03    -119.335E-03     232.287E-03    -113.226E-03     148.310E-03
             912     10.4488E-03     108.078E-03    -42.4049E+06    -14.6675E+06    -7.11310E+06     199.498E+03    -117.063E-03     230.262E-03    -113.199E-03     172.425E-03    -120.930E-03     233.947E-03    -113.152E-03     164.862E-03
             913     11.2511E-03     108.277E-03    -38.8453E+06     46.5620E+06     7.21660E+06     3.63715E+06    -118.432E-03     231.542E-03    -113.109E-03     201.043E-03    -124.099E-03     237.215E-03    -113.084E-03     192.003E-03
             914     12.0590E-03     108.518E-03    -32.9358E+06     83.6256E+06     41.7383E+06     5.05619E+06    -121.417E-03     234.586E-03    -113.169E-03     243.691E-03    -130.059E-03     243.287E-03    -113.034E-03     232.657E-03
             915     12.8594E-03     108.817E-03    -25.5972E+06     100.598E+06     81.1534E+06     3.77185E+06    -124.481E-03     237.785E-03    -113.305E-03     286.832E-03    -137.152E-03     250.487E-03    -113.008E-03     273.869E-03
             916     13.6650E-03     109.154E-03    -19.4779E+06     113.167E+06     100.112E+06     3.58311E+06    -125.270E-03     238.616E-03    -113.346E-03     314.439E-03    -141.797E-03     255.186E-03    -112.981E-03     301.220E-03
             917     14.4689E-03     109.518E-03    -13.1947E+06     126.542E+06     105.656E+06     2.94372E+06    -123.663E-03     236.921E-03    -113.259E-03     332.913E-03    -144.104E-03     257.459E-03    -112.895E-03     321.706E-03
             918     15.2731E-03     109.897E-03    -5.29749E+06     133.623E+06     106.546E+06     768.085E+03    -116.503E-03     229.573E-03    -113.070E-03     257.028E-03    -131.230E-03     244.446E-03    -112.723E-03     250.934E-03
             919     803.214E-06     108.066E-03    -94.7782E+06    -241.910E+06    -93.4334E+06    -1.66978E+06    -113.817E-03     227.550E-03    -113.733E-03     14.9279E-03    -113.817E-03     226.626E-03    -113.712E-03     14.5529E-03
             920     1.60648E-03     108.089E-03    -92.0987E+06    -237.289E+06    -87.3298E+06    -2.14401E+06    -113.850E-03     227.600E-03    -113.750E-03     27.2034E-03    -113.879E-03     226.713E-03    -113.709E-03     26.5141E-03
             921     2.40987E-03     108.127E-03    -88.3017E+06    -225.669E+06    -78.5045E+06    -3.57260E+06    -113.948E-03     227.680E-03    -113.733E-03     40.2411E-03    -114.035E-03     226.881E-03    -113.670E-03     39.1929E-03
             922     3.21322E-03     108.178E-03    -83.6768E+06    -217.364E+06    -66.3801E+06    -5.48398E+06    -114.107E-03     227.833E-03    -113.725E-03     53.2316E-03    -114.272E-03     227.122E-03    -113.621E-03     51.7887E-03
             923     4.01692E-03     108.245E-03    -78.4092E+06    -206.156E+06    -54.9233E+06    -7.94716E+06    -114.323E-03     228.026E-03    -113.703E-03     66.1158E-03    -114.594E-03     227.445E-03    -113.565E-03     64.2351E-03
             924     4.82012E-03     108.324E-03    -72.8133E+06    -192.967E+06    -46.4616E+06    -9.15396E+06    -114.546E-03     228.199E-03    -113.653E-03     78.8230E-03    -114.952E-03     227.797E-03    -113.500E-03     76.4792E-03
             925     5.62467E-03     108.418E-03    -67.5166E+06    -181.609E+06    -39.2918E+06    -8.94211E+06    -114.776E-03     228.366E-03    -113.590E-03     91.3350E-03    -115.357E-03     228.176E-03    -113.425E-03     88.4955E-03
             926     6.42808E-03     108.525E-03    -62.3975E+06    -167.165E+06    -32.4921E+06    -9.34270E+06    -115.069E-03     228.581E-03    -113.512E-03     103.903E-03    -115.883E-03     228.674E-03    -113.342E-03     100.498E-03
             927     7.23270E-03     108.646E-03    -57.0624E+06    -151.694E+06    -26.7400E+06    -9.60284E+06    -115.373E-03     228.796E-03    -113.423E-03     116.573E-03    -116.488E-03     229.248E-03    -113.254E-03     112.537E-03
             928     8.03652E-03     108.780E-03    -51.7945E+06    -133.462E+06    -21.7222E+06    -8.70660E+06    -115.683E-03     229.006E-03    -113.323E-03     129.501E-03    -117.198E-03     229.927E-03    -113.163E-03     124.757E-03
             929     8.84168E-03     108.928E-03    -47.1285E+06    -110.785E+06    -17.3181E+06    -7.24087E+06    -116.129E-03     229.348E-03    -113.219E-03     142.411E-03    -118.171E-03     230.880E-03    -113.077E-03     136.862E-03
             930     9.64551E-03     109.089E-03    -42.4555E+06    -76.4867E+06    -13.6214E+06    -4.24402E+06    -116.565E-03     229.673E-03    -113.107E-03     155.812E-03    -119.319E-03     232.044E-03    -113.003E-03     149.364E-03
             931     10.4495E-03     109.265E-03    -38.0562E+06    -19.3443E+06    -6.19962E+06    -93.3903E+03    -117.145E-03     230.136E-03    -112.991E-03     173.648E-03    -120.983E-03     233.788E-03    -112.939E-03     166.111E-03
             932     11.2563E-03     109.466E-03    -33.4318E+06     41.9356E+06     11.0444E+06     2.81502E+06    -118.635E-03     231.560E-03    -112.925E-03     202.963E-03    -124.292E-03     237.216E-03    -112.882E-03     193.925E-03
             933     12.0563E-03     109.707E-03    -28.6760E+06     82.0268E+06     43.4744E+06     4.76578E+06    -121.380E-03     234.348E-03    -112.968E-03     246.792E-03    -130.035E-03     243.067E-03    -112.828E-03     235.797E-03
             934     12.8650E-03     110.005E-03    -24.4507E+06     103.105E+06      79.413E+06     5.37610E+06    -123.761E-03     236.802E-03    -113.041E-03     290.594E-03    -136.445E-03     249.535E-03    -112.758E-03     277.803E-03
             935     13.6682E-03     110.347E-03    -19.3942E+06     114.238E+06     99.3424E+06     4.19231E+06    -123.875E-03     236.883E-03    -113.009E-03     317.797E-03    -140.451E-03     253.508E-03    -112.649E-03     304.829E-03
             936     14.4759E-03     110.703E-03    -11.7920E+06     128.922E+06     107.367E+06     2.17256E+06    -122.488E-03     235.343E-03    -112.854E-03     334.909E-03    -143.044E-03     256.002E-03    -112.487E-03     323.876E-03
             937     15.2872E-03     111.089E-03    -4.21813E+06     135.651E+06     108.209E+06     1.31531E+06    -116.810E-03     229.465E-03    -112.655E-03     257.670E-03    -131.548E-03     244.356E-03    -112.304E-03     251.548E-03
             938     803.279E-06     109.255E-03    -93.2083E+06    -237.110E+06    -91.3135E+06    -2.31714E+06    -113.648E-03     227.180E-03    -113.532E-03     14.9450E-03    -113.651E-03     226.275E-03    -113.509E-03     14.5624E-03
             939     1.60680E-03     109.278E-03    -90.1156E+06    -233.184E+06    -85.8369E+06    -3.89816E+06    -113.629E-03     227.185E-03    -113.556E-03     27.4024E-03    -113.657E-03     226.314E-03    -113.516E-03     26.6945E-03
             940     2.41024E-03     109.316E-03    -85.8572E+06    -220.960E+06    -77.8017E+06    -5.53088E+06    -113.727E-03     227.248E-03    -113.521E-03     40.4680E-03    -113.810E-03     226.468E-03    -113.465E-03     39.4022E-03
             941     3.21392E-03     109.367E-03    -81.0018E+06    -212.322E+06    -65.7318E+06    -7.07161E+06    -113.834E-03     227.333E-03    -113.499E-03     53.5351E-03    -113.993E-03     226.642E-03    -113.403E-03     52.0845E-03
             942     4.01764E-03     109.433E-03    -75.8300E+06    -200.329E+06    -53.3563E+06    -8.71955E+06    -113.990E-03     227.450E-03    -113.460E-03     66.4798E-03    -114.256E-03     226.891E-03    -113.326E-03     64.6082E-03
             943     4.82202E-03     109.513E-03    -70.8469E+06     -189.68E+06    -43.7565E+06    -9.94021E+06    -114.213E-03     227.615E-03    -113.402E-03     79.2414E-03    -114.616E-03     227.219E-03    -113.243E-03     76.9109E-03
             944     5.62540E-03     109.606E-03    -65.9160E+06    -179.191E+06    -37.8724E+06    -10.6598E+06    -114.459E-03     227.778E-03    -113.319E-03     91.9222E-03    -115.035E-03     227.594E-03    -113.153E-03     89.0873E-03
             945     6.43026E-03     109.713E-03    -60.4839E+06    -164.123E+06    -32.3372E+06    -11.5921E+06    -114.678E-03     227.896E-03    -113.218E-03     104.728E-03    -115.483E-03     227.997E-03    -113.054E-03     101.333E-03
             946     7.23433E-03     109.833E-03    -55.1288E+06    -150.635E+06    -26.7040E+06    -11.9601E+06    -114.940E-03     228.050E-03    -113.110E-03     117.564E-03    -116.042E-03     228.499E-03    -112.945E-03     113.544E-03
             947     8.03971E-03     109.967E-03    -50.4824E+06    -134.202E+06    -22.4895E+06    -11.1905E+06    -115.351E-03     228.344E-03    -112.992E-03     130.723E-03    -116.850E-03     229.252E-03    -112.837E-03     126.000E-03
             948     8.84374E-03     110.115E-03    -45.7093E+06    -112.091E+06    -17.7100E+06    -9.97909E+06    -115.809E-03     228.688E-03    -112.879E-03     144.032E-03    -117.834E-03     230.205E-03    -112.739E-03     138.511E-03
             949     9.64913E-03     110.277E-03    -40.6413E+06    -81.2515E+06    -14.3052E+06     -7.9614E+06    -116.273E-03     229.031E-03    -112.758E-03     157.869E-03    -119.002E-03     231.368E-03    -112.653E-03     151.445E-03
             950     10.4542E-03     110.454E-03    -35.1856E+06    -27.3124E+06    -7.12573E+06    -3.29189E+06    -116.904E-03     229.534E-03    -112.630E-03     176.508E-03    -120.713E-03     233.141E-03    -112.575E-03     169.011E-03
             951     11.2565E-03     110.654E-03    -31.6002E+06     36.2475E+06     7.35891E+06     2.95951E+06    -118.204E-03     230.727E-03    -112.523E-03     206.610E-03    -123.846E-03     236.364E-03    -112.493E-03     197.679E-03
             952     12.0666E-03     110.896E-03    -29.8900E+06     80.2336E+06     35.4548E+06     6.49140E+06    -120.856E-03     233.359E-03    -112.503E-03     250.763E-03    -129.526E-03     242.105E-03    -112.399E-03     239.917E-03
             953     12.8679E-03     111.195E-03    -25.7913E+06     104.184E+06     75.0182E+06     6.43475E+06    -122.955E-03     235.496E-03    -112.541E-03     294.074E-03    -135.687E-03     248.288E-03    -112.280E-03     281.460E-03
             954     13.6776E-03     111.532E-03    -18.4063E+06     118.262E+06     101.348E+06     4.37871E+06    -122.957E-03     235.439E-03    -112.483E-03     319.934E-03    -139.500E-03     252.043E-03    -112.121E-03     307.170E-03
             955     14.4844E-03     111.892E-03    -11.9287E+06     131.340E+06     109.727E+06     2.04040E+06    -122.619E-03     234.940E-03    -112.322E-03     336.222E-03    -143.173E-03     255.600E-03    -111.946E-03     325.234E-03
             956     15.2875E-03     112.270E-03    -5.82261E+06     135.932E+06     108.617E+06     1.05142E+06    -117.195E-03     229.347E-03    -112.152E-03     257.421E-03    -131.949E-03     244.248E-03    -111.798E-03     251.226E-03
             957     803.692E-06     110.444E-03    -88.8120E+06    -230.716E+06    -87.3119E+06    -2.30926E+06    -113.338E-03     226.496E-03    -113.159E-03     15.0058E-03    -113.333E-03     225.611E-03    -113.132E-03     14.6264E-03
             958     1.60727E-03     110.467E-03    -86.7153E+06    -226.014E+06    -82.6169E+06    -5.50838E+06    -113.307E-03     226.520E-03    -113.213E-03     27.6697E-03    -113.333E-03     225.675E-03    -113.172E-03     26.9503E-03
             959     2.41111E-03     110.504E-03    -83.8745E+06    -215.841E+06    -75.6305E+06    -7.48755E+06    -113.356E-03     226.531E-03    -113.176E-03     40.8295E-03    -113.439E-03     225.770E-03    -113.119E-03     39.7521E-03
             960     3.21501E-03     110.555E-03    -79.6463E+06    -206.975E+06    -64.9411E+06    -8.87381E+06    -113.453E-03     226.590E-03    -113.138E-03     53.9818E-03    -113.613E-03     225.921E-03    -113.047E-03     52.5267E-03
             961     4.01919E-03     110.621E-03    -74.0903E+06    -195.228E+06    -53.3637E+06    -10.3163E+06    -113.546E-03     226.625E-03    -113.080E-03     67.0501E-03    -113.809E-03     226.087E-03    -112.956E-03     65.1849E-03
             962     4.82313E-03     110.701E-03    -68.3696E+06    -185.844E+06    -43.2756E+06    -11.0691E+06    -113.664E-03     226.662E-03    -112.998E-03     80.0312E-03    -114.057E-03     226.278E-03    -112.846E-03     77.7242E-03
             963     5.62837E-03     110.794E-03    -62.8558E+06    -175.295E+06     -36.204E+06    -12.2950E+06    -113.874E-03     226.761E-03    -112.888E-03     93.0789E-03    -114.437E-03     226.584E-03    -112.723E-03     90.2731E-03
             964     6.43256E-03     110.900E-03    -57.8784E+06    -160.377E+06    -31.5773E+06    -13.6200E+06    -114.117E-03     226.871E-03    -112.754E-03     106.094E-03    -114.909E-03     226.980E-03    -112.596E-03     102.732E-03
             965     7.23824E-03     111.020E-03    -53.5800E+06    -149.319E+06    -26.6301E+06    -13.8303E+06    -114.405E-03     227.030E-03    -112.626E-03     119.216E-03    -115.494E-03     227.476E-03    -112.465E-03     115.239E-03
             966     8.04274E-03     111.154E-03    -49.1346E+06    -133.364E+06    -22.3838E+06    -13.6086E+06    -114.761E-03     227.247E-03    -112.486E-03     132.874E-03    -116.244E-03     228.147E-03    -112.333E-03     128.206E-03
             967     8.84886E-03     111.302E-03    -44.5615E+06    -112.550E+06    -17.9184E+06    -13.0416E+06    -115.141E-03     227.484E-03    -112.343E-03     146.785E-03    -117.146E-03     228.983E-03    -112.204E-03     141.332E-03
             968     9.65381E-03     111.464E-03    -40.6024E+06    -84.4074E+06    -15.2288E+06    -11.2672E+06    -115.543E-03     227.728E-03    -112.186E-03     161.293E-03    -118.251E-03     230.037E-03    -112.081E-03     154.954E-03
             969     10.4592E-03     111.641E-03    -38.1703E+06    -37.1867E+06    -11.1741E+06    -6.07595E+06    -116.171E-03     228.186E-03    -112.015E-03     180.312E-03    -119.958E-03     231.739E-03    -111.962E-03     172.927E-03
             970     11.2681E-03     111.842E-03    -35.6279E+06     25.7636E+06    -4.00609E+06     1.97391E+06    -117.681E-03     229.522E-03    -111.841E-03     210.459E-03    -123.299E-03     235.117E-03    -111.847E-03     201.662E-03
             971     12.0695E-03     112.083E-03    -31.1424E+06     79.0916E+06     20.9800E+06     6.44363E+06    -120.260E-03     232.020E-03    -111.760E-03     254.351E-03    -128.898E-03     240.768E-03    -111.725E-03     243.675E-03
             972     12.8808E-03     112.382E-03    -24.7031E+06     105.351E+06     67.7084E+06     5.68096E+06    -122.700E-03     234.509E-03    -111.809E-03     297.068E-03    -135.403E-03     247.302E-03    -111.587E-03     284.586E-03
             973     13.6850E-03     112.720E-03    -16.9855E+06     120.250E+06     101.143E+06     4.45854E+06    -123.427E-03     235.233E-03    -111.806E-03     321.349E-03    -139.917E-03     251.796E-03    -111.450E-03     308.618E-03
             974     14.4932E-03     113.076E-03    -9.15209E+06     135.269E+06     113.762E+06     3.78059E+06    -122.684E-03     234.377E-03    -111.693E-03     338.341E-03    -143.222E-03     255.033E-03    -111.307E-03     327.466E-03
             975     15.3030E-03     113.465E-03    -4.77125E+06     138.101E+06     111.869E+06     2.46728E+06    -117.618E-03     229.167E-03    -111.549E-03     259.644E-03    -132.430E-03     244.127E-03    -111.183E-03     253.527E-03
             976     804.013E-06     111.632E-03    -86.8052E+06    -222.940E+06    -85.6585E+06    -2.89418E+06    -112.806E-03     225.410E-03    -112.604E-03     15.2232E-03    -112.805E-03     224.557E-03    -112.583E-03     14.8454E-03
             977     1.60816E-03     111.655E-03    -84.5221E+06    -217.234E+06    -79.0903E+06    -5.76856E+06    -112.769E-03     225.444E-03    -112.675E-03     27.9671E-03    -112.801E-03     224.634E-03    -112.633E-03     27.2583E-03
             978     2.41232E-03     111.691E-03    -81.2620E+06    -210.115E+06    -70.6781E+06    -7.80113E+06    -112.784E-03     225.428E-03    -112.644E-03     41.2996E-03    -112.868E-03     224.683E-03    -112.575E-03     40.2387E-03
             979     3.21672E-03     111.743E-03    -77.4249E+06    -200.373E+06    -62.9522E+06    -9.79622E+06    -112.793E-03     225.362E-03    -112.569E-03     54.7303E-03    -112.953E-03     224.718E-03    -112.481E-03     53.2952E-03
             980     4.02122E-03     111.808E-03    -73.4298E+06    -189.940E+06    -55.1316E+06    -11.7843E+06    -112.802E-03     225.265E-03    -112.463E-03     68.1484E-03    -113.063E-03     224.751E-03    -112.357E-03     66.3095E-03
             981     4.82661E-03     111.887E-03    -68.7166E+06    -181.755E+06    -45.9818E+06    -13.4859E+06    -112.878E-03     225.221E-03    -112.343E-03     81.4894E-03    -113.269E-03     224.856E-03    -112.210E-03     79.2085E-03
             982     5.63138E-03     111.980E-03    -63.0632E+06    -170.057E+06    -36.9519E+06    -14.8783E+06    -113.026E-03     225.230E-03    -112.204E-03     94.7734E-03    -113.589E-03     225.073E-03    -112.051E-03     92.0077E-03
             983     6.43762E-03     112.086E-03    -57.8032E+06    -156.910E+06    -31.1480E+06    -15.6353E+06    -113.215E-03     225.255E-03    -112.040E-03     108.120E-03    -114.002E-03     225.370E-03    -111.884E-03     104.820E-03
             984     7.24269E-03     112.206E-03    -53.1716E+06    -147.103E+06    -26.7483E+06    -15.8951E+06    -113.495E-03     225.366E-03    -111.871E-03     121.919E-03    -114.572E-03     225.809E-03    -111.714E-03     118.023E-03
             985     8.04958E-03     112.339E-03    -48.7369E+06    -131.252E+06    -22.9915E+06    -16.1503E+06    -113.782E-03     225.469E-03    -111.687E-03     136.105E-03    -115.249E-03     226.364E-03    -111.541E-03     131.532E-03
             986     8.85541E-03     112.487E-03    -44.8020E+06    -112.470E+06    -18.9371E+06    -15.6392E+06    -114.076E-03     225.575E-03    -111.499E-03     150.560E-03    -116.060E-03     227.055E-03    -111.365E-03     145.230E-03
             987     9.66281E-03     112.649E-03    -41.6242E+06    -87.5907E+06    -16.9872E+06    -12.8523E+06    -114.542E-03     225.839E-03    -111.297E-03     165.537E-03    -117.225E-03     228.112E-03    -111.195E-03     159.354E-03
             988     10.4702E-03     112.826E-03    -37.9435E+06    -46.6540E+06    -13.6148E+06    -7.43077E+06    -115.443E-03     226.540E-03    -111.097E-03     184.849E-03    -119.193E-03     230.029E-03    -111.042E-03     177.618E-03
             989     11.2740E-03     113.027E-03    -32.9786E+06     14.3513E+06    -6.93684E+06    -604.766E+03    -117.217E-03     228.119E-03    -110.902E-03     215.437E-03    -122.787E-03     233.643E-03    -110.910E-03     206.782E-03
             990     12.0855E-03     113.271E-03    -27.9413E+06     75.7561E+06     16.4462E+06     4.65521E+06    -120.204E-03     231.005E-03    -110.801E-03     258.977E-03    -128.814E-03     239.737E-03    -110.788E-03     248.414E-03
             991     12.8888E-03     113.567E-03    -23.3798E+06     107.734E+06     62.8489E+06     5.89274E+06    -123.120E-03     233.986E-03    -110.866E-03     301.592E-03    -135.823E-03     246.807E-03    -110.674E-03     289.186E-03
             992     13.6979E-03     113.909E-03    -18.1157E+06     122.058E+06     99.4154E+06     3.32288E+06    -124.256E-03     235.186E-03    -110.930E-03     326.070E-03    -140.923E-03     251.934E-03    -110.583E-03     313.304E-03
             993     14.5027E-03     114.263E-03    -12.4151E+06     134.178E+06     113.340E+06     2.53330E+06    -123.477E-03     234.373E-03    -110.895E-03     340.714E-03    -144.145E-03     255.145E-03    -110.505E-03     329.753E-03
             994     15.3114E-03     114.644E-03    -6.09964E+06     139.179E+06     113.360E+06     3.47924E+06    -117.924E-03     228.738E-03    -110.815E-03     261.466E-03    -132.766E-03     243.724E-03    -110.441E-03     255.324E-03
             995     804.716E-06     112.818E-03    -85.9150E+06    -213.727E+06    -84.1918E+06    -3.72763E+06    -111.948E-03     223.784E-03    -111.836E-03     15.5319E-03    -111.958E-03     222.974E-03    -111.822E-03     15.1550E-03
             996     1.60935E-03     112.841E-03    -83.1863E+06    -209.096E+06    -77.3204E+06    -6.01986E+06    -111.889E-03     223.739E-03    -111.850E-03     28.5074E-03    -111.928E-03     222.964E-03    -111.813E-03     27.8163E-03
             997     2.41425E-03     112.877E-03    -79.2932E+06    -203.377E+06    -69.1176E+06    -8.15468E+06    -111.835E-03     223.619E-03    -111.784E-03     42.1555E-03    -111.920E-03     222.901E-03    -111.720E-03     41.1238E-03
             998     3.21940E-03     112.928E-03    -74.8297E+06    -192.739E+06    -61.1382E+06    -10.6810E+06    -111.737E-03     223.402E-03    -111.665E-03     55.9235E-03    -111.894E-03     222.787E-03    -111.583E-03     54.5258E-03
             999     4.02521E-03     112.993E-03    -70.3716E+06    -184.057E+06    -52.9787E+06    -12.7512E+06    -111.717E-03     223.235E-03    -111.518E-03     69.6627E-03    -111.970E-03     222.738E-03    -111.414E-03     67.8747E-03
            1000     4.83079E-03     113.071E-03    -65.9689E+06    -175.774E+06    -44.7081E+06    -14.5223E+06    -111.779E-03     223.134E-03    -111.356E-03     83.3831E-03    -112.160E-03     222.787E-03    -111.229E-03     81.1692E-03
            1001     5.63748E-03     113.164E-03    -61.7710E+06    -164.243E+06    -37.2450E+06    -16.9440E+06    -111.801E-03     222.970E-03    -111.169E-03     97.1985E-03    -112.355E-03     222.829E-03    -111.028E-03     94.5072E-03
            1002     6.44348E-03     113.269E-03    -57.4098E+06    -153.795E+06    -31.2448E+06    -17.7012E+06    -111.859E-03     222.818E-03    -110.959E-03     111.165E-03    -112.634E-03     222.933E-03    -110.809E-03     107.966E-03
            1003     7.25159E-03     113.389E-03    -52.8827E+06    -143.204E+06    -26.6441E+06    -18.0016E+06    -112.062E-03     222.792E-03    -110.730E-03     125.562E-03    -113.124E-03     223.235E-03    -110.579E-03     121.793E-03
            1004     8.05826E-03     113.522E-03    -48.7978E+06    -129.179E+06    -23.6670E+06    -18.4030E+06    -112.348E-03     222.835E-03    -110.487E-03     140.329E-03    -113.794E-03     223.717E-03    -110.347E-03     135.905E-03
            1005     8.86685E-03     113.669E-03    -45.4999E+06    -112.504E+06    -19.9325E+06    -17.1051E+06    -112.776E-03     223.026E-03    -110.251E-03     155.406E-03    -114.735E-03     224.482E-03    -110.121E-03     150.254E-03
            1006     9.67448E-03     113.832E-03    -41.7668E+06    -90.5019E+06    -17.6303E+06    -15.0694E+06    -113.467E-03     223.487E-03    -110.020E-03     170.980E-03    -116.116E-03     225.717E-03    -109.916E-03     164.979E-03
            1007     10.4819E-03     114.009E-03    -37.3187E+06    -54.7700E+06    -14.3273E+06    -10.9956E+06    -114.656E-03     224.463E-03    -109.808E-03     190.966E-03    -118.368E-03     227.891E-03    -109.746E-03     183.900E-03
            1008     11.2928E-03     114.212E-03    -33.6712E+06     4.72601E+06    -8.97058E+06    -4.32681E+06    -116.789E-03     226.397E-03    -109.608E-03     221.861E-03    -122.328E-03     231.860E-03    -109.611E-03     213.364E-03
            1009     12.0964E-03     114.455E-03    -30.1252E+06     68.9787E+06     9.34336E+06     2.00785E+06    -120.491E-03     229.992E-03    -109.501E-03     265.985E-03    -129.134E-03     238.746E-03    -109.511E-03     255.518E-03
            1010     12.9070E-03     114.756E-03    -24.6015E+06     108.275E+06     55.5654E+06     4.67332E+06    -123.918E-03     233.521E-03    -109.604E-03     308.347E-03    -136.740E-03     246.480E-03    -109.447E-03     295.971E-03
            1011     13.7129E-03     115.095E-03    -19.0525E+06     124.617E+06     97.7202E+06     5.02349E+06    -125.067E-03     234.817E-03    -109.751E-03     332.399E-03    -141.897E-03     251.739E-03    -109.415E-03     319.693E-03
            1012     14.5211E-03     115.456E-03    -14.1585E+06     135.195E+06     114.445E+06     4.35494E+06    -125.218E-03     235.031E-03    -109.813E-03     346.641E-03    -146.073E-03     255.984E-03    -109.416E-03     335.579E-03
            1013     15.3242E-03     115.832E-03    -7.45986E+06     140.798E+06     114.917E+06     1.95965E+06    -120.462E-03     230.325E-03    -109.863E-03     266.267E-03    -135.519E-03     245.522E-03    -109.481E-03     259.832E-03
            1014     805.480E-06     114.002E-03    -82.8621E+06    -203.803E+06    -82.0523E+06    -3.76751E+06    -110.688E-03     221.313E-03    -110.625E-03     15.9652E-03    -110.699E-03     220.544E-03    -110.619E-03     15.6036E-03
            1015     1.61135E-03     114.024E-03    -81.2850E+06    -200.843E+06    -77.6015E+06    -6.61002E+06    -110.533E-03     221.108E-03    -110.575E-03     29.2781E-03    -110.573E-03     220.371E-03    -110.554E-03     28.6102E-03
            1016     2.41735E-03     114.061E-03    -78.0809E+06    -194.841E+06    -69.8616E+06    -9.73899E+06    -110.402E-03     220.859E-03    -110.457E-03     43.2971E-03    -110.490E-03     220.180E-03    -110.410E-03     42.2926E-03
            1017     3.22384E-03     114.111E-03    -73.7112E+06    -184.801E+06    -60.2601E+06    -12.4449E+06    -110.282E-03     220.588E-03    -110.305E-03     57.4119E-03    -110.442E-03     220.004E-03    -110.232E-03     56.0553E-03
            1018     4.03041E-03     114.175E-03    -68.8916E+06    -177.732E+06    -50.9289E+06    -14.2811E+06    -110.178E-03     220.303E-03    -110.126E-03     71.6701E-03    -110.428E-03     219.826E-03    -110.023E-03     69.9466E-03
            1019     4.83786E-03     114.253E-03    -63.8732E+06    -169.054E+06    -43.4862E+06    -16.1894E+06    -110.070E-03     219.974E-03    -109.904E-03     86.0778E-03    -110.442E-03     219.644E-03    -109.783E-03     83.9549E-03
            1020     5.64517E-03     114.345E-03    -59.2802E+06    -158.173E+06    -36.7302E+06    -17.5960E+06    -110.002E-03     219.650E-03    -109.649E-03     100.505E-03    -110.537E-03     219.520E-03    -109.517E-03     97.9454E-03
            1021     6.45436E-03     114.450E-03    -55.2454E+06    -149.500E+06    -30.5092E+06    -18.9593E+06    -110.047E-03     219.426E-03    -109.378E-03     115.130E-03    -110.798E-03     219.537E-03    -109.234E-03     112.081E-03
            1022     7.26219E-03     114.569E-03    -51.1770E+06    -139.125E+06    -25.5713E+06    -19.9026E+06    -110.145E-03     219.234E-03    -109.089E-03     130.170E-03    -111.179E-03     219.666E-03    -108.941E-03     126.574E-03
            1023     8.07259E-03     114.701E-03    -47.5560E+06    -127.251E+06    -22.3240E+06    -19.4420E+06    -110.492E-03     219.281E-03    -108.789E-03     145.694E-03    -111.902E-03     220.135E-03    -108.648E-03     141.487E-03
            1024     8.88164E-03     114.849E-03    -44.0246E+06    -111.933E+06    -18.9117E+06    -18.5727E+06    -111.190E-03     219.698E-03    -108.508E-03     161.542E-03    -113.108E-03     221.117E-03    -108.377E-03     156.615E-03
            1025     9.69173E-03     115.011E-03    -40.9247E+06    -91.9160E+06    -16.4809E+06    -16.8373E+06    -112.236E-03     220.496E-03    -108.260E-03     178.002E-03    -114.844E-03     222.680E-03    -108.150E-03     172.234E-03
            1026     10.5020E-03     115.190E-03    -38.3160E+06    -59.8226E+06    -14.4537E+06    -13.6182E+06    -113.777E-03     221.825E-03    -108.048E-03     198.596E-03    -117.456E-03     225.197E-03    -107.978E-03     191.758E-03
            1027     11.3082E-03     115.393E-03    -34.7527E+06    -5.40080E+06    -10.0572E+06    -7.35349E+06    -116.525E-03     224.397E-03    -107.871E-03     230.259E-03    -122.043E-03     229.801E-03    -107.863E-03     221.956E-03
            1028     12.1210E-03     115.640E-03    -30.7822E+06     62.1151E+06     3.74220E+06    -252.107E+03    -120.999E-03     228.782E-03    -107.783E-03     275.032E-03    -129.667E-03     237.550E-03    -107.810E-03     264.709E-03
            1029     12.9261E-03     115.943E-03    -27.0388E+06     106.830E+06     45.1781E+06     2.95478E+06    -125.183E-03     233.119E-03    -107.936E-03     316.559E-03    -138.123E-03     246.211E-03    -107.825E-03     304.222E-03
            1030     13.7339E-03     116.284E-03    -20.9347E+06     122.395E+06     91.2385E+06     4.47253E+06    -126.826E-03     235.041E-03    -108.215E-03     338.915E-03    -143.771E-03     252.082E-03    -107.906E-03     326.142E-03
            1031     14.5397E-03     116.643E-03    -12.0893E+06     138.504E+06     115.279E+06     4.52495E+06    -127.134E-03     235.566E-03    -108.431E-03     351.525E-03    -148.142E-03     256.689E-03    -108.038E-03     340.312E-03
            1032     15.3492E-03     117.027E-03    -5.63262E+06     143.926E+06     117.640E+06     2.42865E+06    -125.311E-03     234.019E-03    -108.708E-03     268.439E-03    -140.520E-03     249.378E-03    -108.320E-03     261.575E-03
            1033     807.124E-06     115.182E-03    -77.9760E+06    -193.489E+06    -77.3201E+06    -3.98388E+06    -108.854E-03     217.614E-03    -108.760E-03     16.5084E-03    -108.863E-03     216.883E-03    -108.753E-03     16.1654E-03
            1034     1.61419E-03     115.205E-03    -76.0632E+06    -191.167E+06    -72.7217E+06    -7.30892E+06    -108.653E-03     217.368E-03    -108.715E-03     30.2088E-03    -108.687E-03     216.663E-03    -108.691E-03     29.5715E-03
            1035     2.42189E-03     115.240E-03    -73.2897E+06    -184.666E+06    -66.1014E+06    -10.7940E+06    -108.451E-03     217.016E-03    -108.565E-03     44.7327E-03    -108.532E-03     216.372E-03    -108.522E-03     43.7758E-03
            1036     3.22968E-03     115.290E-03    -70.0645E+06    -176.974E+06    -58.3616E+06    -13.4910E+06    -108.244E-03     216.616E-03    -108.371E-03     59.4500E-03    -108.394E-03     216.058E-03    -108.305E-03     58.1651E-03
            1037     4.03833E-03     115.353E-03    -66.1724E+06    -170.244E+06    -49.9192E+06    -15.7765E+06    -107.982E-03     216.119E-03    -108.136E-03     74.3303E-03    -108.222E-03     215.663E-03    -108.043E-03     72.7007E-03
            1038     4.84735E-03     115.431E-03    -61.9155E+06    -161.807E+06    -42.1893E+06    -18.0605E+06    -107.708E-03     215.556E-03    -107.848E-03     89.3301E-03    -108.067E-03     215.242E-03    -107.734E-03     87.3265E-03
            1039     5.65781E-03     115.521E-03    -57.2731E+06    -153.156E+06    -35.3071E+06    -19.1264E+06    -107.579E-03     215.101E-03    -107.523E-03     104.521E-03    -108.091E-03     214.969E-03    -107.394E-03     102.121E-03
            1040     6.46732E-03     115.626E-03    -53.0735E+06    -144.281E+06    -29.3620E+06    -19.9033E+06    -107.560E-03     214.738E-03    -107.178E-03     119.989E-03    -108.280E-03     214.842E-03    -107.039E-03     117.142E-03
            1041     7.27949E-03     115.744E-03    -49.8290E+06    -135.070E+06    -24.5645E+06    -20.7623E+06    -107.716E-03     214.540E-03    -106.824E-03     135.886E-03    -108.712E-03     214.950E-03    -106.679E-03     132.527E-03
            1042     8.09026E-03     115.876E-03    -46.4274E+06    -125.095E+06    -21.1838E+06    -20.5859E+06    -108.245E-03     214.721E-03    -106.476E-03     152.461E-03    -109.610E-03     215.538E-03    -106.333E-03     148.517E-03
            1043     8.90272E-03     116.024E-03    -43.3870E+06    -110.405E+06    -18.6264E+06    -19.6934E+06    -109.234E-03     215.392E-03    -106.158E-03     169.303E-03    -111.100E-03     216.765E-03    -106.028E-03     164.666E-03
            1044     9.71423E-03     116.187E-03    -40.8445E+06    -93.0583E+06    -16.4408E+06    -17.6520E+06    -110.696E-03     216.597E-03    -105.901E-03     186.764E-03    -113.254E-03     218.727E-03    -105.789E-03     181.300E-03
            1045     10.5245E-03     116.368E-03    -38.4432E+06    -62.6340E+06    -14.8210E+06    -14.3829E+06    -112.914E-03     218.621E-03    -105.708E-03     208.373E-03    -116.545E-03     221.936E-03    -105.635E-03     201.833E-03
            1046     11.3382E-03     116.573E-03    -36.1027E+06    -13.5505E+06    -10.3869E+06    -9.96152E+06    -116.740E-03     222.341E-03    -105.601E-03     240.828E-03    -122.256E-03     227.711E-03    -105.581E-03     232.725E-03
            1047     12.1436E-03     116.823E-03    -33.2022E+06     53.5932E+06    -1.18806E+06    -2.91210E+06    -122.009E-03     227.600E-03    -105.591E-03     285.417E-03    -130.708E-03     236.375E-03    -105.626E-03     275.221E-03
            1048     12.9543E-03     117.130E-03    -29.1649E+06     105.222E+06     36.7864E+06     2.20464E+06    -127.118E-03     232.960E-03    -105.842E-03     326.954E-03    -140.192E-03     246.198E-03    -105.769E-03     314.617E-03
            1049     13.7598E-03     117.476E-03    -23.1427E+06     122.356E+06     86.9286E+06     1.64109E+06    -130.214E-03     236.544E-03    -106.329E-03     346.761E-03    -147.470E-03     253.900E-03    -106.038E-03     333.671E-03
            1050     14.5646E-03     117.835E-03    -15.5387E+06     138.088E+06     112.409E+06     377.738E+03    -132.700E-03     239.556E-03    -106.856E-03     355.975E-03    -154.197E-03     261.163E-03    -106.472E-03     343.890E-03
            1051     15.3624E-03     118.220E-03    -6.36937E+06     143.281E+06     117.225E+06     1.25766E+06    -132.072E-03     239.594E-03    -107.522E-03     271.679E-03    -147.650E-03     255.320E-03    -107.135E-03     263.843E-03
            1052     809.043E-06     116.358E-03    -74.5358E+06    -182.448E+06    -73.4613E+06    -4.50051E+06    -106.273E-03     212.466E-03    -106.193E-03     16.9877E-03    -106.286E-03     211.779E-03    -106.187E-03     16.6643E-03
            1053     1.61849E-03     116.380E-03    -72.6532E+06    -180.182E+06    -68.8703E+06    -8.05286E+06    -106.051E-03     212.183E-03    -106.132E-03     31.3619E-03    -106.087E-03     211.520E-03    -106.110E-03     30.7664E-03
            1054     2.42794E-03     116.415E-03    -69.9779E+06    -174.318E+06    -63.5555E+06    -11.6110E+06    -105.783E-03     211.735E-03    -105.953E-03     46.5249E-03    -105.861E-03     211.130E-03    -105.916E-03     45.6351E-03
            1055     3.23836E-03     116.464E-03    -66.6102E+06    -168.421E+06    -56.5516E+06    -14.5395E+06    -105.425E-03     211.136E-03    -105.712E-03     61.9375E-03    -105.564E-03     210.605E-03    -105.654E-03     60.7477E-03
            1056     4.04909E-03     116.526E-03    -62.6020E+06    -161.821E+06    -48.1900E+06    -17.1005E+06    -105.064E-03     210.479E-03    -105.415E-03     77.4565E-03    -105.287E-03     210.044E-03    -105.330E-03     75.9501E-03
            1057     4.86093E-03     116.602E-03    -58.5592E+06    -154.425E+06    -40.0910E+06    -19.0319E+06    -104.711E-03     209.777E-03    -105.067E-03     93.2079E-03    -105.046E-03     209.472E-03    -104.958E-03     91.3677E-03
            1058     5.67282E-03     116.692E-03    -54.9836E+06    -147.908E+06    -33.8349E+06    -20.5741E+06    -104.385E-03     209.055E-03    -104.670E-03     109.305E-03    -104.867E-03     208.914E-03    -104.545E-03     107.103E-03
            1059     6.48719E-03     116.796E-03    -51.0514E+06    -139.731E+06    -28.4390E+06    -20.9981E+06    -104.315E-03     208.557E-03    -104.242E-03     125.814E-03    -104.992E-03     208.638E-03    -104.107E-03     123.216E-03
            1060     7.30024E-03     116.913E-03    -47.3098E+06    -130.678E+06    -23.5219E+06    -21.0632E+06    -104.685E-03     208.505E-03    -103.820E-03     142.823E-03    -105.627E-03     208.882E-03    -103.680E-03     139.757E-03
            1061     8.11548E-03     117.046E-03    -44.4588E+06    -122.329E+06    -20.3132E+06    -21.3181E+06    -105.488E-03     208.919E-03    -103.431E-03     160.565E-03    -106.789E-03     209.685E-03    -103.290E-03     156.940E-03
            1062     8.92959E-03     117.194E-03    -41.5306E+06    -109.463E+06    -18.1437E+06    -20.0818E+06    -106.892E-03     209.986E-03    -103.094E-03     178.791E-03    -108.685E-03     211.294E-03    -102.965E-03     174.508E-03
            1063     9.74380E-03     117.359E-03    -38.7342E+06    -93.8066E+06    -15.3576E+06    -17.9822E+06    -109.038E-03     211.893E-03    -102.855E-03     197.270E-03    -111.522E-03     213.950E-03    -102.739E-03     192.160E-03
            1064     10.5585E-03     117.541E-03    -36.3094E+06    -65.6328E+06    -13.3872E+06    -14.3938E+06    -112.429E-03     215.160E-03    -102.731E-03     219.698E-03    -116.002E-03     218.410E-03    -102.650E-03     213.471E-03
            1065     11.3669E-03     117.752E-03    -34.3687E+06    -17.7832E+06    -6.53339E+06    -9.38157E+06    -117.351E-03     220.109E-03    -102.758E-03     252.882E-03    -122.860E-03     225.451E-03    -102.715E-03     245.021E-03
            1066     12.1798E-03     118.007E-03    -31.2808E+06     46.4942E+06     3.69620E+06    -4.23749E+06    -123.942E-03     226.864E-03    -102.922E-03     297.553E-03    -132.750E-03     235.715E-03    -102.925E-03     287.392E-03
            1067     12.9861E-03     118.317E-03    -25.5854E+06     101.492E+06     37.6238E+06     684.385E+03    -130.669E-03     234.044E-03    -103.374E-03     337.436E-03    -143.967E-03     247.502E-03    -103.296E-03     324.860E-03
            1068     13.7917E-03     118.671E-03    -19.3716E+06     125.256E+06     86.1864E+06     2.55638E+06    -135.506E-03     239.662E-03    -104.155E-03     354.426E-03    -153.082E-03     257.365E-03    -103.878E-03     340.785E-03
            1069     14.5895E-03     119.033E-03    -12.8309E+06     140.535E+06     113.204E+06     1.53242E+06    -140.711E-03     245.818E-03    -105.107E-03     363.577E-03    -162.828E-03     268.062E-03    -104.726E-03     350.304E-03
            1070     15.3832E-03     119.430E-03    -5.79836E+06     142.823E+06     117.594E+06     454.866E+03    -141.881E-03     248.162E-03    -106.281E-03     277.253E-03    -157.985E-03     264.413E-03    -105.891E-03     268.103E-03
            1071     811.791E-06     117.526E-03    -71.2143E+06    -170.356E+06    -70.6999E+06    -4.88716E+06    -102.878E-03     205.686E-03    -102.808E-03     17.6430E-03    -102.895E-03     205.049E-03    -102.811E-03     17.3466E-03
            1072     1.62380E-03     117.548E-03    -69.6109E+06    -168.177E+06    -66.9926E+06    -8.97688E+06    -102.575E-03     205.288E-03    -102.713E-03     32.7159E-03    -102.614E-03     204.676E-03    -102.703E-03     32.1704E-03
            1073     2.43645E-03     117.582E-03    -66.9411E+06    -163.574E+06    -61.0300E+06    -12.8347E+06    -102.236E-03     204.733E-03    -102.497E-03     48.5436E-03    -102.313E-03     204.167E-03    -102.468E-03     47.7318E-03
            1074     3.24939E-03     117.630E-03    -63.6715E+06    -158.745E+06    -53.9051E+06    -15.9344E+06    -101.788E-03     203.999E-03    -102.211E-03     64.6701E-03    -101.920E-03     203.496E-03    -102.158E-03     63.5901E-03
            1075     4.06350E-03     117.691E-03    -60.2106E+06    -153.207E+06    -46.9665E+06    -18.4917E+06    -101.263E-03     203.111E-03    -101.848E-03     81.0444E-03    -101.471E-03     202.696E-03    -101.773E-03     79.6874E-03
            1076     4.87813E-03     117.766E-03    -56.6140E+06    -147.825E+06    -39.9828E+06    -20.0729E+06    -100.776E-03     202.198E-03    -101.423E-03     97.8334E-03    -101.084E-03     201.895E-03    -101.326E-03     96.1912E-03
            1077     5.69452E-03     117.855E-03    -52.8354E+06    -141.126E+06    -33.3878E+06    -21.3574E+06    -100.442E-03     201.393E-03    -100.951E-03     114.946E-03    -100.886E-03     201.245E-03    -100.837E-03     112.987E-03
            1078     6.51059E-03     117.957E-03    -49.3389E+06    -135.457E+06    -28.2546E+06    -22.2700E+06    -100.426E-03     200.887E-03    -100.461E-03     132.575E-03    -101.050E-03     200.935E-03    -100.334E-03     130.257E-03
            1079     7.32908E-03     118.076E-03    -45.8625E+06    -127.640E+06    -24.1196E+06    -22.1179E+06    -100.967E-03     200.950E-03    -99.9837E-03     150.898E-03    -101.839E-03     201.275E-03    -99.8527E-03     148.164E-03
            1080     8.14615E-03     118.208E-03    -42.6042E+06    -118.859E+06    -19.5882E+06    -21.6651E+06    -102.265E-03     201.838E-03    -99.5730E-03     169.909E-03    -103.486E-03     202.542E-03    -99.4368E-03     166.653E-03
            1081     8.96428E-03     118.358E-03    -40.1179E+06    -109.014E+06    -17.2312E+06    -20.6224E+06    -104.384E-03     203.642E-03    -99.2581E-03     189.277E-03    -106.089E-03     204.867E-03    -99.1280E-03     185.371E-03
            1082     9.78143E-03     118.525E-03    -37.5182E+06    -94.1495E+06    -13.9106E+06    -18.5104E+06    -107.707E-03     206.804E-03    -99.0970E-03     208.806E-03    -110.113E-03     208.783E-03    -98.9756E-03     204.050E-03
            1083     10.5947E-03     118.712E-03    -34.6682E+06    -69.2458E+06    -11.0311E+06    -15.0307E+06    -112.442E-03     211.564E-03    -99.1214E-03     232.311E-03    -115.970E-03     214.754E-03    -99.0259E-03     226.368E-03
            1084     11.4098E-03     118.928E-03    -31.1138E+06    -22.1501E+06    -1.92958E+06    -9.53519E+06    -118.813E-03     218.171E-03    -99.3578E-03     265.515E-03    -124.325E-03     223.500E-03    -99.2903E-03     257.826E-03
            1085     12.2175E-03     119.187E-03    -27.9732E+06     43.7993E+06     13.8104E+06    -3.95106E+06    -127.369E-03     227.186E-03    -99.8170E-03     309.544E-03    -136.323E-03     236.157E-03    -99.7709E-03     299.297E-03
            1086     13.0237E-03     119.509E-03    -25.6064E+06     97.6076E+06     42.8993E+06    -852.054E+03    -136.151E-03     236.757E-03    -100.606E-03     348.277E-03    -149.775E-03     250.514E-03    -100.496E-03     335.210E-03
            1087     13.8230E-03     119.866E-03    -19.8253E+06     124.433E+06     84.3541E+06     472.957E+03    -143.204E-03     244.995E-03    -101.792E-03     363.712E-03    -161.300E-03     263.221E-03    -101.522E-03     349.004E-03
            1088     14.6186E-03     120.242E-03    -11.4334E+06     142.270E+06     114.078E+06     1.06957E+06    -149.810E-03     253.075E-03    -103.265E-03     370.024E-03    -172.569E-03     275.970E-03    -102.884E-03     355.225E-03
            1089     15.4056E-03     120.646E-03    -5.21906E+06     143.147E+06     118.958E+06     1.31358E+06    -153.972E-03     259.015E-03    -105.042E-03     281.445E-03    -170.539E-03     275.730E-03    -104.648E-03     270.737E-03
            1090     815.323E-06     118.686E-03    -67.1292E+06    -157.000E+06    -66.6998E+06    -5.47648E+06    -98.5694E-03     197.009E-03    -98.4399E-03     18.5330E-03    -98.5904E-03     196.426E-03    -98.4484E-03     18.2673E-03
            1091     1.63088E-03     118.707E-03    -65.6739E+06    -154.872E+06    -63.4142E+06    -9.99859E+06    -98.1964E-03     196.556E-03    -98.3599E-03     34.1429E-03    -98.2365E-03     195.995E-03    -98.3572E-03     33.6536E-03
            1092     2.44696E-03     118.740E-03    -63.6179E+06    -152.203E+06    -58.4414E+06    -13.8528E+06    -97.7323E-03     195.838E-03    -98.1059E-03     50.8025E-03    -97.8054E-03     195.313E-03    -98.0852E-03     50.0849E-03
            1093     3.26391E-03     118.787E-03    -60.9241E+06     -148.52E+06    -52.5805E+06    -17.1035E+06    -97.1525E-03     194.911E-03    -97.7581E-03     67.7357E-03    -97.2738E-03     194.439E-03    -97.7173E-03     66.7870E-03
            1094     4.08155E-03     118.847E-03    -57.9985E+06    -144.882E+06    -46.3858E+06    -19.4479E+06    -96.4838E-03     193.809E-03    -97.3251E-03     85.0915E-03    -96.6708E-03     193.408E-03    -97.2628E-03     83.9119E-03
            1095     4.90083E-03     118.921E-03    -54.8435E+06    -140.806E+06    -40.2857E+06    -21.2380E+06    -95.9106E-03     192.733E-03    -96.8221E-03     102.837E-03    -96.1863E-03     192.428E-03    -96.7398E-03     101.413E-03
            1096     5.72052E-03     119.008E-03    -51.5899E+06    -135.076E+06    -34.5443E+06    -22.3467E+06    -95.6538E-03     191.936E-03    -96.2820E-03     121.178E-03    -96.0509E-03     191.768E-03    -96.1841E-03     119.489E-03
            1097     6.54198E-03     119.111E-03    -48.6694E+06    -130.595E+06    -29.2042E+06    -23.0212E+06    -95.9094E-03     191.662E-03    -95.7522E-03     140.155E-03    -96.4745E-03     191.673E-03    -95.6382E-03     138.149E-03
            1098     7.36286E-03     119.227E-03    -46.1415E+06    -124.226E+06    -25.0367E+06    -22.9644E+06    -96.8560E-03     192.123E-03    -95.2670E-03     159.769E-03    -97.6553E-03     192.388E-03    -95.1452E-03     157.385E-03
            1099     8.18534E-03     119.362E-03    -44.2178E+06    -117.167E+06    -20.9016E+06    -21.8043E+06    -98.8828E-03     193.770E-03    -94.8871E-03     180.034E-03    -100.024E-03     194.397E-03    -94.7576E-03     177.160E-03
            1100     9.00584E-03     119.513E-03    -42.5687E+06    -106.993E+06    -17.2691E+06    -20.8224E+06    -102.251E-03     196.924E-03    -94.6725E-03     200.400E-03    -103.886E-03     198.077E-03    -94.5420E-03     196.859E-03
            1101     9.82463E-03     119.685E-03    -40.9403E+06    -94.2993E+06    -13.7379E+06    -19.4302E+06    -106.929E-03     201.611E-03    -94.6827E-03     221.085E-03    -109.283E-03     203.525E-03    -94.5553E-03     216.648E-03
            1102     10.6421E-03     119.878E-03    -38.7006E+06    -71.2202E+06    -10.1552E+06    -17.2069E+06    -113.196E-03     208.140E-03    -94.9441E-03     245.128E-03    -116.708E-03     211.291E-03    -94.8354E-03     239.406E-03
            1103     11.4524E-03     120.100E-03    -35.7416E+06    -28.0499E+06    -442.069E+03    -12.6667E+06    -121.763E-03     217.261E-03    -95.4973E-03     278.755E-03    -127.361E-03     222.635E-03    -95.4070E-03     271.066E-03
            1104     12.2612E-03     120.371E-03    -32.7551E+06     38.5393E+06     15.2826E+06    -4.96334E+06    -132.241E-03     228.578E-03    -96.3374E-03     322.732E-03    -141.430E-03     237.746E-03    -96.2693E-03     312.219E-03
            1105     13.0639E-03     120.701E-03    -29.2770E+06     99.1727E+06     45.9504E+06    -961.635E+03    -143.565E-03     241.146E-03    -97.5807E-03     360.852E-03    -157.707E-03     255.406E-03    -97.4523E-03     346.943E-03
            1106     13.8605E-03     121.073E-03    -23.3747E+06     125.144E+06     86.1215E+06    -3.31814E+06    -153.493E-03     252.826E-03    -99.3324E-03     373.433E-03    -172.342E-03     271.790E-03    -99.0493E-03     357.119E-03
            1107     14.6435E-03     121.458E-03    -15.3134E+06     139.039E+06     112.623E+06    -3.53843E+06    -162.467E-03     263.949E-03    -101.482E-03     375.462E-03    -186.066E-03     287.665E-03    -101.098E-03     358.292E-03
            1108     15.4206E-03     121.872E-03    -7.96579E+06     140.051E+06     117.299E+06    -652.951E+03    -167.282E-03     271.256E-03    -103.974E-03     286.847E-03    -184.524E-03     288.631E-03    -103.579E-03     273.935E-03
            1109     819.664E-06     119.835E-03    -63.5909E+06    -142.032E+06    -63.5374E+06    -6.24352E+06    -93.2187E-03     186.314E-03    -93.0949E-03     19.3792E-03    -93.2473E-03     185.794E-03    -93.1144E-03     19.1446E-03
            1110     1.63960E-03     119.855E-03    -62.5611E+06    -141.320E+06    -61.0204E+06    -10.6648E+06    -92.7787E-03     185.770E-03    -92.9914E-03     35.6266E-03    -92.8226E-03     185.264E-03    -93.0008E-03     35.2039E-03
            1111     2.46018E-03     119.888E-03    -61.1190E+06    -140.256E+06    -57.4873E+06    -14.5459E+06    -92.1769E-03     184.864E-03    -92.6875E-03     53.1596E-03    -92.2473E-03     184.384E-03    -92.6830E-03     52.5482E-03
            1112     3.28162E-03     119.933E-03    -59.4906E+06    -138.330E+06    -53.1194E+06    -17.8373E+06    -91.4428E-03     183.713E-03    -92.2703E-03     70.9704E-03    -91.5542E-03     183.273E-03    -92.2491E-03     70.1697E-03
            1113     4.10446E-03     119.992E-03    -57.4196E+06    -136.621E+06    -47.9132E+06    -20.1817E+06    -90.7476E-03     182.518E-03    -91.7702E-03     89.2925E-03    -90.9146E-03     182.132E-03    -91.7284E-03     88.3042E-03
            1114     4.92795E-03     120.064E-03    -55.1659E+06    -133.251E+06    -42.6841E+06    -21.8451E+06    -90.2293E-03     181.443E-03    -91.2140E-03     108.178E-03    -90.4737E-03     181.139E-03    -91.1542E-03     106.993E-03
            1115     5.75319E-03     120.150E-03    -53.5140E+06    -130.148E+06    -37.9411E+06    -22.6633E+06    -90.1511E-03     180.794E-03    -90.6429E-03     127.751E-03    -90.5046E-03     180.602E-03    -90.5663E-03     126.347E-03
            1116     6.57867E-03     120.252E-03    -52.3079E+06    -125.880E+06    -32.9913E+06    -22.7289E+06    -90.8899E-03     181.005E-03    -90.1151E-03     148.021E-03    -91.4019E-03     180.977E-03    -90.0217E-03     146.348E-03
            1117     7.40502E-03     120.370E-03    -51.7354E+06    -120.868E+06    -28.1841E+06    -22.1354E+06    -92.7492E-03     182.448E-03    -89.6984E-03     168.870E-03    -93.4941E-03     182.659E-03    -89.5890E-03     166.843E-03
            1118     8.22982E-03     120.505E-03    -50.9299E+06     -114.75E+06    -23.6052E+06    -21.5935E+06    -95.9347E-03     185.390E-03    -89.4552E-03     190.285E-03    -97.0178E-03     185.952E-03    -89.3330E-03     187.767E-03
            1119     9.05382E-03     120.663E-03    -49.2745E+06    -104.722E+06    -18.8574E+06    -20.9509E+06    -100.690E-03     190.136E-03    -89.4461E-03     211.814E-03    -102.273E-03     191.227E-03    -89.3171E-03     208.607E-03
            1120     9.87455E-03     120.839E-03    -47.1293E+06    -92.9895E+06    -13.5947E+06    -20.3147E+06    -107.047E-03     196.783E-03    -89.7360E-03     233.257E-03    -109.373E-03     198.651E-03    -89.6008E-03     229.081E-03
            1121     10.6902E-03     121.040E-03    -44.2744E+06    -70.8552E+06    -8.66125E+06    -19.2855E+06    -115.224E-03     205.571E-03    -90.3469E-03     258.091E-03    -118.760E-03     208.725E-03    -90.2232E-03     252.495E-03
            1122     11.5033E-03     121.273E-03    -40.9128E+06    -33.9960E+06     1.57728E+06    -14.8554E+06    -125.634E-03     216.944E-03    -91.3102E-03     292.643E-03    -131.351E-03     222.393E-03    -91.1937E-03     284.881E-03
            1123     12.3081E-03     121.556E-03    -36.1293E+06     31.2590E+06     17.7676E+06    -7.60445E+06    -138.882E-03     231.505E-03    -92.6236E-03     336.295E-03    -148.389E-03     240.948E-03    -92.5277E-03     325.236E-03
            1124     13.1073E-03     121.898E-03    -28.6170E+06     100.477E+06     49.2953E+06    -3.45412E+06    -153.543E-03     247.982E-03    -94.4395E-03     373.593E-03    -168.342E-03     262.899E-03    -94.2973E-03     358.351E-03
            1125     13.8930E-03     122.290E-03    -20.8916E+06     129.656E+06     88.0238E+06    -3.41683E+06    -165.597E-03     262.459E-03    -96.8619E-03     383.701E-03    -185.328E-03     282.327E-03    -96.5795E-03     365.390E-03
            1126     14.6711E-03     122.686E-03    -14.5712E+06     137.099E+06     112.042E+06    -4.43149E+06    -177.097E-03     276.854E-03    -99.7575E-03     385.583E-03    -201.726E-03     301.600E-03    -99.3749E-03     365.524E-03
            1127     15.4322E-03     123.123E-03    -7.15080E+06     134.850E+06     116.166E+06    -3.10789E+06    -181.813E-03     284.803E-03    -102.991E-03     295.716E-03    -199.776E-03     302.888E-03    -102.595E-03     280.279E-03
            1128     824.829E-06     120.970E-03    -61.5597E+06    -126.156E+06    -61.5824E+06    -6.57769E+06    -86.7946E-03     173.543E-03    -86.7480E-03     20.1298E-03    -86.8379E-03     173.094E-03    -86.7837E-03     19.9314E-03
            1129     1.65012E-03     120.990E-03    -61.2307E+06    -127.801E+06    -60.6896E+06    -11.2116E+06    -86.2610E-03     172.834E-03    -86.5729E-03     37.1158E-03    -86.3141E-03     172.388E-03    -86.6022E-03     36.7625E-03
            1130     2.47611E-03     121.021E-03    -60.6119E+06    -128.542E+06    -58.6835E+06    -14.8987E+06    -85.5616E-03     171.771E-03    -86.2095E-03     55.3415E-03    -85.6345E-03     171.339E-03    -86.2286E-03     54.8405E-03
            1131     3.30327E-03     121.065E-03    -60.0177E+06    -128.417E+06    -55.7932E+06    -17.6801E+06    -84.7724E-03     170.509E-03    -85.7370E-03     74.0968E-03    -84.8781E-03     170.104E-03    -85.7428E-03     73.4549E-03
            1132     4.13127E-03     121.122E-03    -59.6933E+06    -128.141E+06    -52.5666E+06    -19.9040E+06    -84.1205E-03     169.312E-03    -85.1919E-03     93.4525E-03    -84.2737E-03     168.947E-03    -85.1824E-03     92.6677E-03
            1133     4.96090E-03     121.193E-03    -59.8890E+06    -127.156E+06    -48.8472E+06    -20.8235E+06    -83.8615E-03     168.485E-03    -84.6239E-03     113.473E-03    -84.0847E-03     168.182E-03    -84.5969E-03     112.541E-03
            1134     5.79096E-03     121.279E-03    -60.5694E+06    -125.227E+06    -43.9846E+06    -20.6578E+06    -84.3789E-03     168.477E-03    -84.0980E-03     134.224E-03    -84.7063E-03     168.269E-03    -84.0485E-03     133.119E-03
            1135     6.62177E-03     121.381E-03    -61.7073E+06    -121.701E+06    -38.7365E+06    -20.3693E+06    -85.9715E-03     169.652E-03    -83.6803E-03     155.574E-03    -86.4532E-03     169.592E-03    -83.6081E-03     154.232E-03
            1136     7.45178E-03     121.501E-03    -61.9137E+06    -117.865E+06    -32.7184E+06    -20.2077E+06    -89.0141E-03     172.460E-03    -83.4461E-03     177.541E-03    -89.7220E-03     172.623E-03    -83.3490E-03     175.852E-03
            1137     8.28043E-03     121.641E-03    -60.7790E+06    -109.534E+06    -26.3140E+06    -21.1833E+06    -93.6869E-03     177.144E-03    -83.4570E-03     200.106E-03    -94.7360E-03     177.663E-03    -83.3416E-03     197.899E-03
            1138     9.10594E-03     121.802E-03    -58.4479E+06    -102.661E+06    -20.7107E+06    -22.0494E+06    -100.043E-03     183.816E-03    -83.7732E-03     222.728E-03    -101.595E-03     184.857E-03    -83.6432E-03     219.783E-03
            1139     9.92773E-03     121.988E-03    -54.7816E+06    -89.5330E+06    -14.5010E+06    -22.4587E+06    -108.141E-03     192.581E-03    -84.4393E-03     245.130E-03    -110.459E-03     194.429E-03    -84.3025E-03     241.137E-03
            1140     10.7445E-03     122.198E-03    -50.5926E+06    -69.9545E+06    -8.16573E+06    -22.1954E+06    -118.163E-03     203.648E-03    -85.4848E-03     271.220E-03    -121.754E-03     206.837E-03    -85.3508E-03     265.661E-03
            1141     11.5529E-03     122.444E-03    -45.0834E+06    -39.3640E+06     2.09299E+06    -18.9018E+06    -130.934E-03     217.870E-03    -86.9364E-03     306.327E-03    -136.810E-03     223.444E-03    -86.8035E-03     298.313E-03
            1142     12.3570E-03     122.741E-03    -36.7962E+06     25.1006E+06     20.0621E+06    -13.6550E+06    -147.546E-03     236.370E-03    -88.8237E-03     351.155E-03    -157.488E-03     246.218E-03    -88.7064E-03     339.213E-03
            1143     13.1471E-03     123.106E-03    -28.0238E+06     96.6891E+06     50.5786E+06    -8.27829E+06    -164.927E-03     256.213E-03    -91.2858E-03     388.759E-03    -180.522E-03     271.912E-03    -91.1325E-03     371.876E-03
            1144     13.9289E-03     123.513E-03    -20.3591E+06     130.429E+06     85.7936E+06    -5.63529E+06    -179.313E-03     273.720E-03    -94.4071E-03     397.990E-03    -200.229E-03     294.787E-03    -94.1378E-03     377.117E-03
            1145     14.6935E-03     123.932E-03    -12.2728E+06     135.935E+06     109.733E+06    -4.97104E+06    -191.292E-03     289.334E-03    -98.0423E-03     397.276E-03    -217.090E-03     315.260E-03    -97.6729E-03     374.079E-03
            1146     15.4525E-03     124.385E-03    -5.25057E+06     130.625E+06     114.282E+06    -3.24816E+06    -196.801E-03     298.806E-03    -102.006E-03     304.196E-03    -215.395E-03     317.522E-03    -101.616E-03     286.118E-03
            1147     830.960E-06     122.090E-03    -60.8057E+06    -110.935E+06    -60.7364E+06    -5.96279E+06    -79.3458E-03     158.685E-03    -79.3388E-03     20.7527E-03    -79.4077E-03     158.308E-03    -79.3934E-03     20.6004E-03
            1148     1.66246E-03     122.109E-03    -61.6026E+06    -114.004E+06    -60.7962E+06    -10.7221E+06    -78.7682E-03     157.899E-03    -79.1312E-03     38.3890E-03    -78.8383E-03     157.517E-03    -79.1806E-03     38.1137E-03
            1149     2.49472E-03     122.139E-03    -62.1546E+06    -117.670E+06    -61.4956E+06    -14.5536E+06    -78.0360E-03     156.773E-03    -78.7367E-03     57.2242E-03    -78.1176E-03     156.389E-03    -78.7834E-03     56.8343E-03
            1150     3.32801E-03     122.181E-03    -63.1723E+06    -119.999E+06    -61.9017E+06    -16.4084E+06    -77.3031E-03     155.543E-03    -78.2401E-03     76.8551E-03    -77.4079E-03     155.172E-03    -78.2840E-03     76.3743E-03
            1151     4.16267E-03     122.238E-03    -65.7676E+06    -121.696E+06    -60.4462E+06    -16.6368E+06    -76.9324E-03     154.643E-03    -77.7109E-03     97.1541E-03    -77.0818E-03     154.298E-03    -77.7413E-03     96.5926E-03
            1152     4.99790E-03     122.307E-03    -69.5645E+06    -122.486E+06    -56.9139E+06    -16.3120E+06    -77.3249E-03     154.554E-03    -77.2287E-03     118.168E-03    -77.5461E-03     154.254E-03    -77.2348E-03     117.507E-03
            1153     5.83376E-03     122.394E-03    -72.5023E+06    -120.784E+06    -51.1858E+06    -16.4308E+06    -78.8032E-03     155.672E-03    -76.8684E-03     139.927E-03    -79.1268E-03     155.454E-03    -76.8441E-03     139.114E-03
            1154     6.66879E-03     122.497E-03    -73.2650E+06    -117.504E+06    -43.6145E+06    -16.9683E+06    -81.6694E-03     158.371E-03    -76.7011E-03     162.318E-03    -82.1377E-03     158.286E-03    -76.6426E-03     161.270E-03
            1155     7.50237E-03     122.621E-03    -72.1636E+06    -112.210E+06    -35.7543E+06    -18.8259E+06    -86.0737E-03     162.855E-03    -76.7814E-03     185.371E-03    -86.7575E-03     162.986E-03    -76.6928E-03     183.958E-03
            1156     8.33343E-03     122.766E-03    -69.1493E+06    -103.077E+06    -27.9617E+06    -21.4508E+06    -92.2344E-03     169.392E-03    -77.1581E-03     209.036E-03    -93.2526E-03     169.880E-03    -77.0482E-03     207.076E-03
            1157     9.16059E-03     122.937E-03    -64.5073E+06    -97.9745E+06    -21.2698E+06    -24.3269E+06    -100.262E-03     178.151E-03    -77.8886E-03     232.984E-03    -101.783E-03     179.157E-03    -77.7594E-03     230.227E-03
            1158     9.98222E-03     123.131E-03    -58.2558E+06    -84.7360E+06    -14.9630E+06    -26.4427E+06    -110.009E-03     189.006E-03    -78.9976E-03     256.848E-03    -112.315E-03     190.850E-03    -78.8651E-03     252.956E-03
            1159     10.7975E-03     123.354E-03    -50.8846E+06    -70.0105E+06    -7.78873E+06    -25.9061E+06    -122.065E-03     202.597E-03    -80.5329E-03     284.096E-03    -125.692E-03     205.822E-03    -80.3965E-03     278.493E-03
            1160     11.6068E-03     123.615E-03    -42.5074E+06    -40.5207E+06     3.34663E+06    -24.4668E+06    -137.764E-03     220.297E-03    -82.5331E-03     321.119E-03    -143.842E-03     226.076E-03    -82.3960E-03     312.671E-03
            1161     12.4026E-03     123.932E-03    -33.4559E+06     18.5137E+06     21.0223E+06    -19.8871E+06    -156.957E-03     241.988E-03    -85.0310E-03     368.180E-03    -167.395E-03     252.319E-03    -84.9042E-03     355.224E-03
            1162     13.1912E-03     124.319E-03    -25.2935E+06     89.0523E+06     49.8429E+06    -11.9501E+06    -176.907E-03     265.040E-03    -88.1334E-03     406.717E-03    -193.429E-03     281.654E-03    -87.9766E-03     387.938E-03
            1163     13.9623E-03     124.751E-03    -17.5461E+06     130.031E+06     83.9439E+06    -7.40326E+06    -193.604E-03     285.539E-03    -91.9351E-03     415.971E-03    -215.853E-03     307.954E-03    -91.6785E-03     392.208E-03
            1164     14.7195E-03     125.196E-03    -10.9252E+06     133.768E+06     108.449E+06    -5.92400E+06    -207.334E-03     303.668E-03    -96.3342E-03     410.844E-03    -234.598E-03     331.065E-03    -95.9701E-03     383.815E-03
            1165     15.4634E-03     125.653E-03    -4.54757E+06     125.895E+06     113.805E+06    -2.79110E+06    -213.966E-03     315.073E-03    -101.107E-03     314.082E-03    -233.562E-03     334.779E-03    -100.714E-03     292.479E-03
            1166     838.060E-06     123.192E-03    -63.5147E+06    -97.2235E+06    -63.9991E+06    -5.71841E+06    -71.0110E-03     142.013E-03    -71.0023E-03     21.1574E-03    -71.1004E-03     141.712E-03    -71.0893E-03     21.0413E-03
            1167     1.67640E-03     123.210E-03    -64.4065E+06    -101.771E+06    -65.2717E+06    -9.32733E+06    -70.4500E-03     141.245E-03    -70.7949E-03     39.2460E-03    -70.5408E-03     140.929E-03    -70.8803E-03     39.0499E-03
            1168     2.51565E-03     123.239E-03    -67.6664E+06    -108.921E+06    -68.3442E+06    -11.5550E+06    -69.8378E-03     140.257E-03    -70.4194E-03     58.6921E-03    -69.9389E-03     139.924E-03    -70.5051E-03     58.4326E-03
            1169     3.35589E-03     123.281E-03    -73.4024E+06    -114.989E+06    -71.8788E+06    -11.4308E+06    -69.4809E-03     139.470E-03    -69.9889E-03     78.9851E-03    -69.6099E-03     139.133E-03    -70.0751E-03     78.6896E-03
            1170     4.19687E-03     123.335E-03    -79.2807E+06    -118.433E+06    -71.2799E+06    -10.2824E+06    -69.8151E-03     139.421E-03    -69.6056E-03     100.045E-03    -69.9908E-03     139.096E-03    -69.6753E-03     99.7123E-03
            1171     5.03814E-03     123.406E-03    -82.8737E+06    -118.434E+06    -65.0336E+06    -10.2213E+06    -71.2235E-03     140.585E-03    -69.3619E-03     121.864E-03    -71.4635E-03     140.295E-03    -69.3952E-03     121.450E-03
            1172     5.87857E-03     123.494E-03    -84.1453E+06    -115.485E+06    -56.1093E+06    -11.7512E+06    -73.9488E-03     143.268E-03    -69.3196E-03     144.464E-03    -74.2785E-03     143.049E-03    -69.3107E-03     143.895E-03
            1173     6.71762E-03     123.602E-03    -82.7185E+06    -111.113E+06    -46.6302E+06    -15.2625E+06    -78.1523E-03     147.679E-03    -69.5270E-03     167.830E-03    -78.6102E-03     147.582E-03    -69.4791E-03     167.002E-03
            1174     7.55410E-03     123.730E-03    -77.7179E+06    -103.422E+06    -36.8063E+06    -20.0148E+06    -83.9632E-03     153.986E-03    -70.0224E-03     191.993E-03    -84.6167E-03     154.102E-03    -69.9438E-03     190.769E-03
            1175     8.38675E-03     123.883E-03    -70.8495E+06    -96.5939E+06    -27.9457E+06    -23.7702E+06    -91.5456E-03     162.390E-03    -70.8442E-03     217.171E-03    -92.5112E-03     162.842E-03    -70.7411E-03     215.383E-03
            1176     9.21481E-03     124.062E-03    -63.6811E+06    -89.7628E+06    -20.2548E+06    -27.5130E+06    -100.998E-03     173.027E-03    -72.0296E-03     242.614E-03    -102.464E-03     174.009E-03    -71.9084E-03     240.000E-03
            1177     10.0372E-03     124.270E-03    -56.5731E+06    -78.9158E+06    -13.8656E+06    -31.2243E+06    -112.497E-03     186.113E-03    -73.6163E-03     268.111E-03    -114.776E-03     187.955E-03    -73.4892E-03     264.271E-03
            1178     10.8518E-03     124.507E-03    -48.3756E+06    -70.1160E+06    -7.57075E+06    -32.5860E+06    -126.899E-03     202.568E-03    -75.6690E-03     297.527E-03    -130.568E-03     205.843E-03    -75.5350E-03     291.775E-03
            1179     11.6552E-03     124.786E-03    -40.1251E+06    -39.6871E+06     3.27709E+06    -30.9182E+06    -145.077E-03     223.301E-03    -78.2237E-03     337.172E-03    -151.372E-03     229.309E-03    -78.0916E-03     328.236E-03
            1180     12.4510E-03     125.127E-03    -33.3588E+06     10.0293E+06     19.2768E+06    -25.9141E+06    -166.827E-03     248.151E-03    -81.3238E-03     385.573E-03    -177.763E-03     258.957E-03    -81.1936E-03     371.511E-03
            1181     13.2313E-03     125.537E-03    -26.4137E+06     78.6835E+06     45.4547E+06    -18.0169E+06    -189.372E-03     274.420E-03    -85.0479E-03     425.867E-03    -206.857E-03     291.970E-03    -84.8964E-03     404.978E-03
            1182     13.9973E-03     126.003E-03    -19.3312E+06     124.557E+06     79.7876E+06    -11.7138E+06    -207.639E-03     297.144E-03    -89.5045E-03     434.238E-03    -231.182E-03     320.842E-03    -89.2582E-03     407.441E-03
            1183     14.7477E-03     126.466E-03    -12.3728E+06     128.432E+06     107.573E+06    -7.25814E+06    -224.734E-03     319.384E-03    -94.6500E-03     427.935E-03    -253.586E-03     348.352E-03    -94.2804E-03     396.510E-03
            1184     15.4764E-03     126.966E-03    -6.60395E+06     119.767E+06     113.590E+06    -3.70581E+06    -232.641E-03     332.873E-03    -100.232E-03     326.945E-03    -253.305E-03     353.620E-03    -99.8283E-03     301.355E-03
            1185     845.476E-06     124.276E-03    -71.6619E+06    -85.0582E+06    -73.2774E+06    -5.18096E+06    -62.0654E-03     124.088E-03    -62.0225E-03     21.2726E-03    -62.1986E-03     123.870E-03    -62.1616E-03     21.1886E-03
            1186     1.69163E-03     124.293E-03    -76.5091E+06    -94.4275E+06    -79.7114E+06    -6.27299E+06    -61.6099E-03     123.454E-03    -61.8439E-03     39.5506E-03    -61.7465E-03     123.208E-03    -61.9946E-03     39.4411E-03
            1187     2.53832E-03     124.321E-03    -83.4844E+06    -105.563E+06    -84.0716E+06    -4.80924E+06    -61.4619E-03     123.038E-03    -61.5764E-03     59.4191E-03    -61.6141E-03     122.757E-03    -61.7226E-03     59.3167E-03
            1188     3.38549E-03     124.361E-03    -90.3349E+06    -113.607E+06    -83.8788E+06    -3.08239E+06    -61.9702E-03     123.352E-03    -61.3822E-03     80.2043E-03    -62.1513E-03     123.048E-03    -61.5058E-03     80.1057E-03
            1189     4.23248E-03     124.417E-03    -94.4668E+06    -115.347E+06    -79.1088E+06    -3.60259E+06    -63.4157E-03     124.748E-03    -61.3318E-03     101.832E-03    -63.6351E-03     124.447E-03    -61.4232E-03     101.691E-03
            1190     5.07869E-03     124.489E-03    -94.7839E+06    -113.294E+06    -70.4326E+06    -6.50850E+06    -66.0317E-03     127.515E-03    -61.4829E-03     124.288E-03    -66.2967E-03     127.242E-03    -61.5333E-03     124.042E-03
            1191     5.92332E-03     124.581E-03    -90.8271E+06    -108.411E+06    -58.8126E+06    -10.8026E+06    -70.0002E-03     131.878E-03    -61.8777E-03     147.699E-03    -70.3261E-03     131.665E-03    -61.8829E-03     147.278E-03
            1192     6.76532E-03     124.693E-03    -83.7238E+06    -100.402E+06    -46.5550E+06    -17.0119E+06    -75.4096E-03     137.950E-03    -62.5403E-03     172.106E-03    -75.8347E-03     137.855E-03    -62.5060E-03     171.406E-03
            1193     7.60390E-03     124.830E-03    -76.3667E+06    -94.0661E+06    -36.3127E+06    -23.0136E+06    -82.4104E-03     145.906E-03    -63.4954E-03     197.611E-03    -83.0092E-03     146.005E-03    -63.4299E-03     196.514E-03
            1194     8.43842E-03     124.991E-03    -69.2335E+06    -89.1504E+06    -27.8514E+06    -27.5602E+06    -91.2981E-03     156.075E-03    -64.7773E-03     224.403E-03    -92.1990E-03     156.496E-03    -64.6869E-03     222.738E-03
            1195     9.26726E-03     125.182E-03    -61.7616E+06    -79.6497E+06    -19.8034E+06    -32.4408E+06    -102.173E-03     168.597E-03    -66.4240E-03     251.518E-03    -103.582E-03     169.563E-03    -66.3180E-03     249.000E-03
            1196     10.0888E-03     125.403E-03    -54.0797E+06    -72.4300E+06    -13.2778E+06    -36.3034E+06    -115.454E-03     183.947E-03    -68.4930E-03     279.071E-03    -117.696E-03     185.782E-03    -68.3760E-03     275.259E-03
            1197     10.9018E-03     125.658E-03    -47.8089E+06    -66.2240E+06    -7.70464E+06    -38.4776E+06    -132.042E-03     203.094E-03    -71.0520E-03     311.126E-03    -135.756E-03     206.431E-03    -70.9252E-03     305.225E-03
            1198     11.7054E-03     125.959E-03    -42.1410E+06    -41.7951E+06     710.991E+03    -36.9858E+06    -152.589E-03     226.729E-03    -74.1406E-03     353.041E-03    -159.071E-03     232.920E-03    -74.0153E-03     343.627E-03
            1199     12.4944E-03     126.323E-03    -35.0422E+06     3.33485E+06     16.4533E+06    -31.7198E+06    -177.205E-03     255.019E-03    -77.8137E-03     403.742E-03    -188.611E-03     266.275E-03    -77.6854E-03     388.517E-03
            1200     13.2703E-03     126.765E-03    -27.5052E+06     66.5334E+06     43.3240E+06    -23.9228E+06    -201.954E-03     284.098E-03    -82.1435E-03     445.513E-03    -220.308E-03     302.477E-03    -81.9835E-03     422.504E-03
            1201     14.0304E-03     127.258E-03    -20.3182E+06     114.000E+06     80.9062E+06    -13.9256E+06    -222.398E-03     309.636E-03    -87.2389E-03     454.630E-03    -247.354E-03     334.707E-03    -86.9702E-03     424.442E-03
            1202     14.7681E-03     127.758E-03    -13.6687E+06     123.800E+06     108.224E+06    -9.53709E+06    -241.130E-03     334.153E-03    -93.0236E-03     449.341E-03    -271.640E-03     364.757E-03    -92.6421E-03     413.478E-03
            1203     15.4931E-03     128.286E-03    -6.34653E+06     109.344E+06     112.572E+06    -6.39016E+06    -250.765E-03     350.057E-03    -99.2923E-03     343.538E-03    -272.321E-03     371.667E-03    -98.8787E-03     314.280E-03
            1204     853.544E-06     125.340E-03    -88.9122E+06    -81.6922E+06    -86.5145E+06     2.60692E+06    -52.9381E-03     105.669E-03    -52.7313E-03     21.1456E-03    -53.1421E-03     105.512E-03    -52.9164E-03     21.1803E-03
            1205     1.70727E-03     125.356E-03    -99.1758E+06    -93.2165E+06    -96.1804E+06     3.25305E+06    -53.0075E-03     105.778E-03    -52.7710E-03     39.3282E-03    -53.2312E-03     105.592E-03    -52.9730E-03     39.3737E-03
            1206     2.56126E-03     125.383E-03    -106.383E+06    -106.011E+06    -99.2745E+06     3.00123E+06    -53.7602E-03     106.580E-03    -52.8199E-03     59.2729E-03    -53.9961E-03     106.345E-03    -53.0083E-03     59.3159E-03
            1207     3.41459E-03     125.425E-03    -107.100E+06    -112.394E+06    -94.0924E+06     1.41641E+06    -55.4016E-03     108.440E-03    -53.0382E-03     80.2595E-03    -55.6405E-03     108.168E-03    -53.1904E-03     80.2746E-03
            1208     4.26677E-03     125.483E-03    -103.132E+06    -110.568E+06     -83.847E+06    -1.82108E+06    -58.0593E-03     111.517E-03    -53.4575E-03     102.251E-03    -58.3034E-03     111.243E-03    -53.5669E-03     102.199E-03
            1209     5.11701E-03     125.559E-03    -97.0645E+06    -105.487E+06    -71.8044E+06    -6.91004E+06    -61.8439E-03     115.943E-03    -54.0989E-03     125.334E-03    -62.1039E-03     115.690E-03    -54.1643E-03     125.162E-03
            1210     5.96480E-03     125.656E-03    -89.5914E+06    -97.4937E+06    -59.2644E+06    -14.4263E+06    -66.8178E-03     121.791E-03    -54.9735E-03     149.559E-03    -67.1178E-03     121.598E-03    -54.9985E-03     149.189E-03
            1211     6.80950E-03     125.775E-03    -81.5417E+06    -89.4789E+06    -47.5545E+06    -21.3842E+06    -73.1503E-03     129.245E-03    -56.0946E-03     175.075E-03    -73.5322E-03     129.157E-03    -56.0844E-03     174.438E-03
            1212     7.65035E-03     125.919E-03    -74.0694E+06    -85.1235E+06    -37.2390E+06    -26.3569E+06    -81.2339E-03     138.731E-03    -57.4972E-03     201.998E-03    -81.7740E-03     138.815E-03    -57.4525E-03     200.998E-03
            1213     8.48592E-03     126.092E-03    -66.9878E+06    -78.3802E+06    -28.0342E+06    -31.8603E+06    -91.2960E-03     150.513E-03    -59.2167E-03     230.406E-03    -92.1314E-03     150.915E-03    -59.1461E-03     228.841E-03
            1214     9.31516E-03     126.295E-03    -60.0026E+06    -69.5529E+06    -19.8106E+06    -37.0861E+06    -103.533E-03     164.833E-03    -61.3006E-03     259.427E-03    -104.873E-03     165.774E-03    -61.2118E-03     257.002E-03
            1215     10.1371E-03     126.532E-03    -54.4300E+06    -65.8217E+06    -13.6186E+06    -40.4798E+06    -118.675E-03     182.499E-03    -63.8237E-03     289.560E-03    -120.872E-03     184.313E-03    -63.7175E-03     285.793E-03
            1216     10.9488E-03     126.807E-03    -48.9103E+06    -59.6708E+06    -7.45386E+06    -43.0005E+06    -137.314E-03     204.173E-03    -66.8583E-03     324.042E-03    -141.036E-03     207.537E-03    -66.7381E-03     318.047E-03
            1217     11.7478E-03     127.130E-03    -40.5296E+06    -43.6977E+06     886.463E+03    -43.7021E+06    -160.256E-03     230.706E-03    -70.4501E-03     368.297E-03    -166.829E-03     236.987E-03    -70.3235E-03     358.444E-03
            1218     12.5353E-03     127.523E-03    -30.9177E+06    -5.52256E+06     16.9885E+06    -38.0236E+06    -187.335E-03     261.979E-03    -74.6438E-03     421.615E-03    -199.026E-03     273.503E-03    -74.5061E-03     405.357E-03
            1219     13.3068E-03     127.996E-03    -24.0150E+06     51.7698E+06     41.0935E+06    -25.7140E+06    -214.267E-03     293.758E-03    -79.4913E-03     465.031E-03    -233.216E-03     312.702E-03    -79.3261E-03     440.108E-03
            1220     14.0594E-03     128.524E-03    -17.1011E+06     100.572E+06     78.0060E+06    -14.8899E+06    -237.019E-03     322.139E-03    -85.1192E-03     478.111E-03    -263.281E-03     348.489E-03    -84.8502E-03     444.448E-03
            1221     14.7949E-03     129.065E-03    -8.36076E+06     121.308E+06     111.230E+06    -8.58922E+06    -257.922E-03     349.439E-03    -91.5170E-03     470.308E-03    -290.295E-03     381.912E-03    -91.1246E-03     429.305E-03
            1222     15.5097E-03     129.621E-03    -3.78448E+06     102.464E+06     119.093E+06    -3.95696E+06    -267.666E-03     366.163E-03    -98.4970E-03     357.209E-03    -290.527E-03     389.047E-03    -98.0446E-03     323.448E-03
            1223     861.543E-06     126.384E-03    -126.411E+06    -93.4479E+06    -123.069E+06     10.0127E+06    -44.4293E-03     88.3916E-03    -43.9623E-03     20.4525E-03    -44.7491E-03     88.2826E-03    -44.2589E-03     20.5926E-03
            1224     1.72249E-03     126.400E-03    -123.707E+06    -96.2184E+06    -115.808E+06     10.5895E+06    -45.4974E-03     89.9012E-03    -44.4038E-03     38.3123E-03    -45.8079E-03     89.7625E-03    -44.6639E-03     38.4686E-03
            1225     2.58214E-03     126.430E-03    -120.255E+06    -104.303E+06    -108.682E+06     6.57161E+06    -47.4187E-03     92.3702E-03    -44.9515E-03     58.1350E-03    -47.7075E-03     92.1738E-03    -45.1693E-03     58.2461E-03
            1226     3.44042E-03     126.474E-03    -115.282E+06    -106.656E+06    -100.839E+06    -43.9640E+03    -50.1442E-03     95.8195E-03    -45.6753E-03     79.0999E-03    -50.4144E-03     95.5919E-03    -45.8576E-03     79.1246E-03
            1227     4.29663E-03     126.536E-03    -107.188E+06    -103.053E+06    -89.7399E+06    -7.21393E+06    -53.7557E-03     100.342E-03    -46.5867E-03     101.281E-03    -54.0102E-03     100.109E-03    -46.7305E-03     101.197E-03
            1228     5.15043E-03     126.617E-03    -96.1028E+06    -95.8256E+06    -75.8061E+06    -13.9444E+06    -58.3819E-03     106.076E-03    -47.6942E-03     124.877E-03    -58.6266E-03     105.858E-03    -47.7949E-03     124.667E-03
            1229     6.00094E-03     126.720E-03    -85.3479E+06    -85.0743E+06    -61.4619E+06    -20.4618E+06    -64.1247E-03     113.127E-03    -49.0021E-03     149.855E-03    -64.3901E-03     112.965E-03    -49.0623E-03     149.478E-03
            1230     6.84793E-03     126.847E-03    -76.9182E+06    -80.2533E+06    -48.9294E+06    -25.7633E+06    -71.3175E-03     121.856E-03    -50.5390E-03     176.367E-03    -71.6467E-03     121.770E-03    -50.5557E-03     175.768E-03
            1231     7.69034E-03     127.001E-03    -69.4394E+06    -75.8736E+06    -37.7505E+06    -30.0838E+06    -80.3216E-03     132.660E-03    -52.3379E-03     204.641E-03    -80.7930E-03     132.726E-03    -52.3160E-03     203.715E-03
            1232     8.52697E-03     127.185E-03    -63.1567E+06    -66.3034E+06    -27.0971E+06    -34.8748E+06    -91.3851E-03     145.827E-03    -54.4423E-03     234.600E-03    -92.1417E-03     146.205E-03    -54.3901E-03     233.148E-03
            1233     9.35715E-03     127.402E-03    -58.3690E+06    -59.7442E+06    -18.0296E+06    -39.5760E+06    -105.069E-03     161.990E-03    -56.9217E-03     265.565E-03    -106.322E-03     162.880E-03    -56.8406E-03     263.271E-03
            1234     10.1779E-03     127.656E-03    -52.0645E+06    -57.7038E+06    -10.0964E+06    -43.7496E+06    -121.893E-03     181.750E-03    -59.8571E-03     297.968E-03    -123.988E-03     183.490E-03    -59.7484E-03     294.303E-03
            1235     10.9883E-03     127.952E-03    -43.4032E+06    -51.8421E+06    -2.19510E+06    -47.5450E+06    -142.439E-03     205.753E-03    -63.3142E-03     334.993E-03    -146.048E-03     209.038E-03    -63.1870E-03     328.996E-03
            1236     11.7867E-03     128.301E-03    -35.9956E+06    -40.0353E+06     6.77230E+06    -49.9939E+06    -167.762E-03     235.118E-03    -67.3565E-03     381.615E-03    -174.260E-03     241.337E-03    -67.2124E-03     371.481E-03
            1237     12.5695E-03     128.723E-03    -32.1759E+06    -20.5523E+06     15.4729E+06    -43.7535E+06    -196.853E-03     268.856E-03    -72.0030E-03     436.127E-03    -208.466E-03     280.250E-03    -71.8492E-03     419.191E-03
            1238     13.3368E-03     129.229E-03    -28.4835E+06     30.7096E+06     32.4034E+06    -29.9932E+06    -225.552E-03     302.823E-03    -77.2706E-03     481.653E-03    -244.565E-03     321.765E-03    -77.1118E-03     455.279E-03
            1239     14.0880E-03     129.794E-03    -22.4941E+06     90.2783E+06     71.2603E+06    -23.3594E+06    -250.769E-03     334.119E-03    -83.3498E-03     498.114E-03    -277.831E-03     361.236E-03    -83.0918E-03     461.125E-03
            1240     14.8140E-03     130.380E-03    -16.1913E+06     101.369E+06     107.369E+06    -18.7401E+06    -274.635E-03     364.959E-03    -90.3240E-03     493.101E-03    -309.379E-03     399.720E-03    -89.9107E-03     445.699E-03
            1241     15.5108E-03     130.981E-03    -8.55276E+06     82.8034E+06     120.797E+06    -7.85281E+06    -283.227E-03     381.160E-03    -97.9332E-03     375.498E-03    -308.310E-03     406.174E-03    -97.4369E-03     335.833E-03
            1242     867.623E-06     127.411E-03    -170.067E+06    -105.127E+06    -171.252E+06     2.14365E+06    -37.9941E-03     75.4542E-03    -37.4601E-03     18.8116E-03    -38.4438E-03     75.4215E-03    -37.9173E-03     18.8503E-03
            1243     1.73396E-03     127.430E-03    -155.505E+06    -97.1748E+06    -154.196E+06     905.946E+03    -39.7108E-03     77.7724E-03    -38.0616E-03     35.7643E-03    -40.1217E-03     77.7315E-03    -38.4662E-03     35.7970E-03
            1244     2.59855E-03     127.463E-03    -138.811E+06    -98.4315E+06    -136.905E+06    -3.86500E+06    -42.4257E-03     81.3438E-03    -38.9181E-03     55.1829E-03    -42.7729E-03     81.2443E-03    -39.2586E-03     55.1637E-03
            1245     3.46049E-03     127.512E-03    -122.391E+06    -96.0616E+06    -118.664E+06    -11.1404E+06    -45.9590E-03     85.9630E-03    -40.0040E-03     76.2009E-03    -46.2507E-03     85.8223E-03    -40.2805E-03     76.0923E-03
            1246     4.31992E-03     127.578E-03    -107.362E+06    -92.0667E+06    -100.037E+06    -19.0182E+06    -50.3223E-03     91.6116E-03    -41.2894E-03     98.6343E-03    -50.5718E-03     91.4428E-03    -41.5004E-03     98.4172E-03
            1247     5.17616E-03     127.665E-03    -94.4453E+06    -85.2743E+06    -83.5204E+06    -25.4832E+06    -55.5407E-03     98.2853E-03    -42.7446E-03     122.471E-03    -55.7686E-03     98.1174E-03    -42.9017E-03     122.143E-03
            1248     6.02933E-03     127.775E-03    -83.3692E+06    -76.4254E+06    -67.3616E+06    -29.1479E+06    -61.8923E-03     106.275E-03    -44.3827E-03     147.840E-03    -62.1296E-03     106.141E-03    -44.4878E-03     147.402E-03
            1249     6.87812E-03     127.910E-03    -73.9612E+06    -71.9594E+06    -51.7613E+06    -31.6515E+06    -69.8278E-03     116.074E-03    -46.2458E-03     175.183E-03    -70.1133E-03     115.992E-03    -46.2930E-03     174.585E-03
            1250     7.72160E-03     128.074E-03    -65.9861E+06    -66.7122E+06    -37.5816E+06    -34.9564E+06    -79.5980E-03     127.965E-03    -48.3674E-03     204.510E-03    -80.0063E-03     128.013E-03    -48.3629E-03     203.633E-03
            1251     8.55943E-03     128.270E-03    -57.7845E+06    -56.8674E+06    -23.4739E+06    -38.2060E+06    -91.6958E-03     142.496E-03    -50.8003E-03     235.647E-03    -92.3532E-03     142.817E-03    -50.7515E-03     234.304E-03
            1252     9.38908E-03     128.502E-03    -49.3427E+06    -51.1109E+06    -10.7199E+06    -40.6051E+06    -106.688E-03     160.313E-03    -53.6244E-03     268.298E-03    -107.789E-03     161.092E-03    -53.5324E-03     266.181E-03
            1253     10.2096E-03     128.775E-03    -43.4388E+06    -45.9463E+06    -378.459E+03    -44.4348E+06    -124.931E-03     181.845E-03    -56.9138E-03     302.682E-03    -126.832E-03     183.435E-03    -56.7861E-03     299.227E-03
            1254     11.0186E-03     129.093E-03    -40.3264E+06    -39.8383E+06     7.31471E+06    -51.0671E+06    -147.328E-03     208.073E-03    -60.7449E-03     341.447E-03    -150.703E-03     211.150E-03    -60.5921E-03     335.604E-03
            1255     11.8137E-03     129.468E-03    -39.7185E+06    -37.4499E+06     11.5656E+06    -52.1953E+06    -174.580E-03     239.761E-03    -65.1806E-03     389.068E-03    -180.726E-03     245.610E-03    -65.0109E-03     379.028E-03
            1256     12.5935E-03     129.922E-03    -37.3636E+06    -32.5804E+06     14.0222E+06    -47.6649E+06    -205.281E-03     275.505E-03    -70.2232E-03     443.531E-03    -216.282E-03     286.229E-03    -70.0517E-03     426.497E-03
            1257     13.3585E-03     130.458E-03    -27.3684E+06     4.85212E+06     31.5221E+06    -37.4845E+06    -235.910E-03     311.821E-03    -75.9111E-03     489.939E-03    -254.117E-03     329.874E-03    -75.7209E-03     462.810E-03
            1258     14.1026E-03     131.065E-03    -18.1067E+06     82.9556E+06     73.5437E+06    -21.4622E+06    -262.453E-03     344.808E-03    -82.3553E-03     512.316E-03    -289.281E-03     371.674E-03    -82.0816E-03     473.306E-03
            1259     14.8236E-03     131.700E-03    -13.1119E+06     98.3035E+06     116.141E+06    -12.3343E+06    -285.620E-03     375.249E-03    -89.6293E-03     518.840E-03    -321.712E-03     411.330E-03    -89.1721E-03     467.405E-03
            1260     15.5276E-03     132.359E-03    -7.62915E+06     64.1197E+06     135.288E+06    -10.3021E+06    -295.863E-03     393.413E-03    -97.5498E-03     402.492E-03    -322.752E-03     420.135E-03    -96.9553E-03     358.341E-03
            1261     869.760E-06     128.428E-03    -170.588E+06    -98.3740E+06    -170.685E+06    -9.01156E+06    -35.1273E-03     69.8603E-03    -34.7330E-03     16.4755E-03    -35.5897E-03     69.8627E-03    -35.1965E-03     16.3648E-03
            1262     1.73899E-03     128.449E-03    -162.503E+06     -88.891E+06    -162.192E+06    -14.5241E+06    -36.7124E-03     71.9240E-03    -35.2116E-03     31.5819E-03    -37.1593E-03     71.9485E-03    -35.6580E-03     31.4064E-03
            1263     2.60640E-03     128.486E-03    -150.678E+06    -85.5779E+06    -149.590E+06    -21.7194E+06    -39.2714E-03     75.2660E-03    -35.9946E-03     49.4135E-03    -39.6798E-03     75.2693E-03    -36.4000E-03     49.1531E-03
            1264     3.47176E-03     128.539E-03    -136.905E+06    -82.0839E+06    -135.847E+06    -29.4706E+06    -42.8167E-03     79.8500E-03    -37.0333E-03     69.5679E-03    -43.1781E-03     79.8279E-03    -37.3950E-03     69.2146E-03
            1265     4.33378E-03     128.612E-03    -123.014E+06    -78.4133E+06    -121.555E+06    -36.2599E+06    -47.3798E-03     85.6951E-03    -38.3153E-03     91.8393E-03    -47.6958E-03     85.6488E-03    -38.6310E-03     91.3995E-03
            1266     5.19236E-03     128.706E-03    -108.846E+06    -73.8871E+06    -103.637E+06    -41.8376E+06    -53.0481E-03     92.8972E-03    -39.8491E-03     115.965E-03    -53.3298E-03     92.8314E-03    -40.1023E-03     115.439E-03
            1267     6.04666E-03     128.823E-03    -93.4617E+06    -70.3772E+06    -80.8694E+06    -44.5374E+06    -60.0536E-03     101.704E-03    -41.6507E-03     141.866E-03    -60.3155E-03     101.620E-03    -41.8175E-03     141.261E-03
            1268     6.89649E-03     128.967E-03    -77.6906E+06    -67.5052E+06    -58.1404E+06    -44.0752E+06    -68.6303E-03     112.348E-03    -43.7179E-03     169.588E-03    -68.8995E-03     112.272E-03    -43.7980E-03     168.891E-03
            1269     7.74109E-03     129.141E-03    -63.7297E+06    -60.3745E+06    -37.4887E+06    -43.4974E+06    -79.1727E-03     125.244E-03    -46.0711E-03     199.281E-03    -79.5198E-03     125.261E-03    -46.0786E-03     198.395E-03
            1270     8.57824E-03     129.350E-03    -54.1320E+06    -51.6578E+06    -18.8188E+06    -42.9624E+06    -92.1582E-03     140.928E-03    -48.7697E-03     231.159E-03    -92.7069E-03     141.159E-03    -48.7104E-03     229.913E-03
            1271     9.40755E-03     129.598E-03    -49.1701E+06    -44.2334E+06    -4.25352E+06    -43.4149E+06    -108.100E-03     159.973E-03    -51.8733E-03     264.890E-03    -109.043E-03     160.602E-03    -51.7591E-03     262.974E-03
            1272     10.2267E-03     129.888E-03    -44.6357E+06    -34.5968E+06     7.54332E+06    -46.6109E+06    -127.714E-03     183.178E-03    -55.4639E-03     300.112E-03    -129.367E-03     184.534E-03    -55.3113E-03     296.954E-03
            1273     11.0334E-03     130.229E-03    -41.9790E+06    -27.7037E+06     15.9461E+06    -48.2965E+06    -151.615E-03     211.249E-03    -59.6338E-03     339.533E-03    -154.581E-03     213.930E-03    -59.4530E-03     334.152E-03
            1274     11.8250E-03     130.632E-03    -40.4799E+06    -34.9780E+06     18.2014E+06    -48.4332E+06    -180.247E-03     244.681E-03    -64.4337E-03     386.876E-03    -185.651E-03     249.775E-03    -64.2333E-03     377.465E-03
            1275     12.6020E-03     131.113E-03    -33.0668E+06    -29.8425E+06     25.3138E+06    -51.3766E+06    -212.435E-03     282.318E-03    -69.8831E-03     438.953E-03    -222.121E-03     291.720E-03    -69.6653E-03     422.619E-03
            1276     13.3598E-03     131.683E-03    -25.7135E+06    -22.2164E+06     36.8437E+06    -46.8241E+06    -244.100E-03     320.089E-03    -75.9892E-03     484.917E-03    -260.300E-03     336.028E-03    -75.7354E-03     458.479E-03
            1277     14.1002E-03     132.326E-03    -20.0369E+06     42.5481E+06     64.1702E+06    -25.4252E+06    -267.688E-03     350.320E-03    -82.6313E-03     512.882E-03    -292.151E-03     374.692E-03    -82.3430E-03     474.917E-03
            1278     14.8263E-03     133.009E-03    -12.2958E+06     98.8544E+06     112.627E+06    -11.3968E+06    -287.784E-03     377.625E-03    -89.8412E-03     530.030E-03    -322.384E-03     412.227E-03    -89.4035E-03     478.695E-03
            1279     15.5298E-03     133.716E-03    -7.34262E+06     55.4105E+06     133.357E+06    -11.6047E+06    -298.068E-03     395.693E-03    -97.6252E-03     426.284E-03    -325.501E-03     422.942E-03    -97.0281E-03     380.435E-03
            1280     868.932E-06     129.444E-03    -130.266E+06    -77.3518E+06    -127.408E+06    -11.5521E+06    -36.3739E-03     72.4889E-03    -36.1150E-03     13.4919E-03    -36.7290E-03     72.4754E-03    -36.4510E-03     13.3400E-03
            1281     1.73685E-03     129.467E-03    -127.225E+06    -71.2731E+06    -121.155E+06    -19.6890E+06    -37.5898E-03     74.0814E-03    -36.4917E-03     25.8961E-03    -37.9478E-03     74.0851E-03    -36.8096E-03     25.6378E-03
            1282     2.60402E-03     129.506E-03    -124.020E+06    -65.9553E+06    -114.564E+06    -28.0788E+06    -39.5190E-03     76.6200E-03    -37.1011E-03     40.6910E-03    -39.8783E-03     76.6362E-03    -37.3984E-03     40.3244E-03
            1283     3.46926E-03     129.563E-03    -120.598E+06    -63.3068E+06    -109.424E+06    -37.0802E+06    -42.2750E-03     80.1874E-03    -37.9124E-03     57.9418E-03    -42.6282E-03     80.2043E-03    -38.1928E-03     57.4604E-03
            1284     4.33260E-03     129.640E-03    -115.575E+06    -60.6955E+06    -104.080E+06    -45.6150E+06    -46.0761E-03     85.0176E-03    -38.9415E-03     77.8943E-03    -46.4154E-03     85.0326E-03    -39.2063E-03     77.3035E-03
            1285     5.19266E-03     129.740E-03    -108.328E+06    -58.2710E+06    -93.8965E+06    -53.4401E+06    -51.2895E-03     91.5368E-03    -40.2473E-03     100.706E-03    -51.6128E-03     91.5411E-03    -40.4752E-03     100.009E-03
            1286     6.04846E-03     129.865E-03    -99.1393E+06    -61.0952E+06    -80.5333E+06    -58.4718E+06    -58.2390E-03     100.116E-03    -41.8770E-03     126.359E-03    -58.5414E-03     100.084E-03    -42.0473E-03     125.574E-03
            1287     6.89854E-03     130.018E-03    -87.4080E+06    -62.6678E+06    -66.0002E+06    -60.7239E+06    -67.1868E-03     111.042E-03    -43.8552E-03     154.537E-03    -67.4790E-03     110.994E-03    -43.9676E-03     153.660E-03
            1288     7.74197E-03     130.203E-03    -73.3926E+06    -59.1156E+06    -45.6246E+06    -59.3410E+06    -78.4039E-03     124.646E-03    -46.2420E-03     184.927E-03    -78.7320E-03     124.638E-03    -46.2779E-03     183.928E-03
            1289     8.57840E-03     130.425E-03    -59.7416E+06    -55.3846E+06    -21.1748E+06    -52.6166E+06    -92.2265E-03     141.312E-03    -49.0858E-03     217.065E-03    -92.6791E-03     141.420E-03    -49.0247E-03     215.862E-03
            1290     9.40574E-03     130.687E-03    -49.1055E+06    -41.3893E+06     1.15418E+06    -45.5260E+06    -109.181E-03     161.587E-03    -52.4059E-03     250.611E-03    -109.926E-03     162.011E-03    -52.2689E-03     248.947E-03
            1291     10.2219E-03     130.997E-03    -45.2149E+06    -24.3295E+06     16.0424E+06    -44.0779E+06    -129.691E-03     185.954E-03    -56.2628E-03     285.671E-03    -131.003E-03     186.979E-03    -56.0818E-03     283.000E-03
            1292     11.0241E-03     131.360E-03    -44.1431E+06    -22.6907E+06     24.0165E+06    -44.5349E+06    -154.357E-03     215.102E-03    -60.7455E-03     324.137E-03    -156.697E-03     217.143E-03    -60.5285E-03     319.547E-03
            1293     11.8127E-03     131.788E-03    -38.2722E+06    -23.2801E+06     34.2816E+06    -48.8767E+06    -184.005E-03     249.933E-03    -65.9272E-03     368.700E-03    -188.256E-03     253.874E-03    -65.6666E-03     360.487E-03
            1294     12.5815E-03     132.297E-03    -34.0292E+06    -21.3535E+06     42.2970E+06    -55.5520E+06    -217.099E-03     288.917E-03    -71.8187E-03     416.157E-03    -224.734E-03     296.244E-03    -71.5269E-03     401.681E-03
            1295     13.3337E-03     132.894E-03    -32.7210E+06    -40.2359E+06     43.9447E+06    -52.1557E+06    -246.303E-03     324.622E-03    -78.3189E-03     458.340E-03    -259.104E-03     337.046E-03    -77.9934E-03     435.001E-03
            1296     14.0692E-03     133.568E-03    -20.3466E+06    -7.15817E+06     62.4482E+06    -40.8098E+06    -263.306E-03     348.377E-03    -85.0705E-03     488.526E-03    -282.938E-03     367.739E-03    -84.7184E-03     455.290E-03
            1297     14.7963E-03     134.271E-03    -457.682E+03     66.3117E+06     96.4755E+06    -14.3711E+06    -279.807E-03     371.674E-03    -91.8668E-03     525.822E-03    -310.731E-03     402.570E-03    -91.4799E-03     478.075E-03
            1298     15.5054E-03     135.051E-03     5.05486E+06     64.0923E+06     133.372E+06     8.11843E+06    -281.135E-03     380.016E-03    -98.8803E-03     455.161E-03    -308.980E-03     407.743E-03    -98.3137E-03     410.405E-03
            1299     864.034E-06     130.466E-03    -85.4767E+06    -54.6574E+06    -82.4001E+06    -10.1092E+06    -41.8732E-03     83.5470E-03    -41.6738E-03     9.57350E-03    -42.1051E-03     83.5153E-03    -41.8826E-03     9.42725E-03
            1300     1.72789E-03     130.490E-03    -83.6222E+06    -50.4839E+06    -76.5195E+06    -17.9509E+06    -42.8478E-03     84.8818E-03    -42.0340E-03     18.4592E-03    -43.0867E-03     84.8612E-03    -42.2221E-03     18.1983E-03
            1301     2.59026E-03     130.531E-03    -80.3861E+06    -45.6132E+06    -68.3269E+06    -25.7859E+06    -44.3504E-03     86.9474E-03    -42.5970E-03     29.0503E-03    -44.5948E-03     86.9373E-03    -42.7560E-03     28.6736E-03
            1302     3.45164E-03     130.590E-03    -76.7609E+06    -42.2602E+06    -58.8252E+06    -33.6525E+06    -46.3361E-03     89.6707E-03    -43.3346E-03     41.5647E-03    -46.5850E-03     89.6623E-03    -43.4562E-03     41.0717E-03
            1303     4.31104E-03     130.670E-03    -74.0792E+06    -40.0059E+06    -51.7803E+06    -42.1108E+06    -49.0000E-03     93.2273E-03    -44.2273E-03     56.5863E-03    -49.2539E-03     93.2212E-03    -44.3208E-03     55.9699E-03
            1304     5.16833E-03     130.774E-03    -73.7739E+06    -39.4918E+06    -48.6014E+06    -49.0318E+06    -52.7137E-03     98.0174E-03    -45.3037E-03     74.7582E-03    -52.9775E-03     98.0154E-03    -45.3824E-03     74.0393E-03
            1305     6.02237E-03     130.905E-03    -75.0557E+06    -44.1473E+06    -48.1374E+06    -55.6097E+06    -58.0272E-03     104.660E-03    -46.6331E-03     96.6465E-03    -58.2997E-03     104.646E-03    -46.7009E-03     95.8264E-03
            1306     6.87209E-03     131.066E-03    -74.9427E+06    -47.8913E+06    -46.9369E+06    -62.9337E+06    -65.6050E-03     113.906E-03    -48.3014E-03     122.628E-03    -65.8883E-03     113.888E-03    -48.3580E-03     121.684E-03
            1307     7.71521E-03     131.261E-03    -71.8343E+06    -53.7391E+06    -40.6814E+06    -66.7427E+06    -76.0927E-03     126.520E-03    -50.4272E-03     152.289E-03    -76.3954E-03     126.494E-03    -50.4485E-03     151.224E-03
            1308     8.54936E-03     131.495E-03    -64.1557E+06    -60.6235E+06    -28.9663E+06    -64.2844E+06    -90.1012E-03     143.212E-03    -53.1109E-03     184.631E-03    -90.4534E-03     143.207E-03    -53.0748E-03     183.424E-03
            1309     9.37263E-03     131.773E-03    -53.0353E+06    -51.8719E+06    -7.04148E+06    -55.2409E+06    -107.748E-03     164.195E-03    -56.4468E-03     218.438E-03    -108.260E-03     164.357E-03    -56.3299E-03     216.980E-03
            1310     10.1834E-03     132.100E-03    -42.9960E+06    -27.4729E+06     21.0845E+06    -42.2582E+06    -128.898E-03     189.387E-03    -60.4887E-03     252.489E-03    -129.775E-03     189.956E-03    -60.2811E-03     250.452E-03
            1311     10.9812E-03     132.483E-03    -35.4409E+06    -12.9882E+06     43.1191E+06    -38.0619E+06    -154.226E-03     219.506E-03    -65.2804E-03     287.788E-03    -155.785E-03     220.772E-03    -64.9946E-03     284.329E-03
            1312     11.7597E-03     132.934E-03    -32.9377E+06    -5.16521E+06     57.3912E+06    -41.5862E+06    -183.983E-03     254.860E-03    -70.8768E-03     326.458E-03    -186.830E-03     257.408E-03    -70.5346E-03     320.160E-03
            1313     12.5214E-03     133.466E-03    -30.3735E+06    -1.35330E+06     65.3692E+06    -48.4431E+06    -214.986E-03     292.221E-03    -77.2354E-03     367.164E-03    -220.049E-03     296.985E-03    -76.8626E-03     356.044E-03
            1314     13.2603E-03     134.087E-03    -19.7027E+06    -41.9762E+06     62.4972E+06    -47.5816E+06    -237.500E-03     321.531E-03    -84.0308E-03     405.213E-03    -245.835E-03     329.469E-03    -83.6289E-03     387.663E-03
            1315     13.9927E-03     134.764E-03    -12.8887E+06    -22.8157E+06     67.4350E+06    -43.8498E+06    -248.083E-03     338.751E-03    -90.6683E-03     439.399E-03    -261.472E-03     351.821E-03    -90.2793E-03     414.032E-03
            1316     14.7258E-03     135.489E-03    -22.3012E+06    -2.81728E+06     52.1294E+06    -36.9071E+06    -254.046E-03     350.674E-03    -96.6279E-03     498.513E-03    -277.482E-03     373.878E-03    -96.3309E-03     461.611E-03
            1317     15.4588E-03     136.311E-03    -18.4895E+06     10.1149E+06     83.4833E+06    -13.6058E+06    -233.588E-03     335.251E-03    -101.663E-03     486.439E-03    -258.133E-03     359.542E-03    -101.233E-03     451.560E-03
            1318     855.752E-06     131.505E-03    -43.0997E+06    -34.5979E+06    -40.9551E+06    -8.45999E+06    -52.2237E-03     104.198E-03    -51.9738E-03     4.49322E-03    -52.3377E-03     104.140E-03    -52.0659E-03     4.34685E-03
            1319     1.71050E-03     131.530E-03    -41.4212E+06    -31.2111E+06    -34.8946E+06    -15.2139E+06    -53.1253E-03     105.573E-03    -52.4479E-03     8.74415E-03    -53.2469E-03     105.523E-03    -52.5171E-03     8.47748E-03
            1320     2.56444E-03     131.572E-03    -39.8511E+06    -27.6849E+06    -26.2343E+06    -21.5378E+06    -54.4754E-03     107.585E-03    -53.1092E-03     13.7750E-03    -54.6106E-03     107.541E-03    -53.1425E-03     13.3880E-03
            1321     3.41641E-03     131.633E-03    -38.8459E+06    -24.1109E+06    -18.9970E+06    -27.3671E+06    -56.0702E-03     110.011E-03    -53.9409E-03     20.0657E-03    -56.2220E-03     109.978E-03    -53.9446E-03     19.5612E-03
            1322     4.26673E-03     131.714E-03    -39.1766E+06    -21.1982E+06    -14.2264E+06    -33.1351E+06    -57.8860E-03     112.798E-03    -54.9116E-03     28.2987E-03    -58.0590E-03     112.780E-03    -54.8951E-03     27.6763E-03
            1323     5.11476E-03     131.819E-03    -39.8687E+06    -23.1925E+06    -11.5723E+06    -38.0106E+06    -60.1032E-03     116.130E-03    -56.0273E-03     39.1399E-03    -60.2913E-03     116.111E-03    -55.9937E-03     38.4125E-03
            1324     5.96039E-03     131.952E-03    -40.2482E+06    -24.8682E+06    -7.61931E+06    -43.0470E+06    -63.1302E-03     120.461E-03    -57.3303E-03     53.3728E-03    -63.3368E-03     120.440E-03    -57.2740E-03     52.5419E-03
            1325     6.80240E-03     132.116E-03    -42.7563E+06    -28.1757E+06    -5.60376E+06    -48.7060E+06    -67.6161E-03     126.496E-03    -58.8800E-03     71.7826E-03    -67.8486E-03     126.476E-03    -58.8051E-03     70.8440E-03
            1326     7.63985E-03     132.317E-03    -48.6540E+06    -37.5156E+06    -9.23836E+06    -53.7523E+06    -74.6091E-03     135.385E-03    -60.7757E-03     95.0066E-03    -74.8715E-03     135.353E-03    -60.6969E-03     93.9663E-03
            1327     8.47012E-03     132.560E-03    -54.8290E+06    -49.6659E+06    -13.7707E+06    -58.9758E+06    -85.2734E-03     148.453E-03    -63.1796E-03     123.052E-03    -85.5720E-03     148.409E-03    -63.0970E-03     121.884E-03
            1328     9.28965E-03     132.852E-03    -56.9207E+06    -56.8609E+06    -10.1345E+06    -60.1717E+06    -100.356E-03     166.635E-03    -66.2791E-03     154.215E-03    -100.721E-03     166.617E-03    -66.1648E-03     152.885E-03
            1329     10.0956E-03     133.195E-03    -48.5920E+06     -45.011E+06     12.6189E+06    -54.5705E+06    -120.127E-03     190.371E-03    -70.2436E-03     186.233E-03    -120.639E-03     190.509E-03    -70.0448E-03     184.612E-03
            1330     10.8820E-03     133.596E-03    -35.4848E+06    -21.7107E+06     50.7955E+06    -42.2896E+06    -145.022E-03     220.230E-03    -75.2081E-03     218.648E-03    -145.862E-03     220.716E-03    -74.8712E-03     216.355E-03
            1331     11.6507E-03     134.065E-03    -25.4244E+06    -1.28961E+06     82.7088E+06    -32.5649E+06    -173.854E-03     255.041E-03    -81.1862E-03     251.264E-03    -175.332E-03     256.178E-03    -80.7339E-03     247.397E-03
            1332     12.3937E-03     134.615E-03    -17.7826E+06     25.2249E+06     96.0147E+06    -35.2344E+06    -198.927E-03     286.827E-03    -87.9002E-03     284.450E-03    -201.480E-03     289.117E-03    -87.4309E-03     277.794E-03
            1333     13.1270E-03     135.240E-03    -17.5638E+06    -17.6645E+06     74.9328E+06    -43.3586E+06    -211.618E-03     306.395E-03    -94.7768E-03     315.109E-03    -215.721E-03     310.136E-03    -94.3511E-03     304.722E-03
            1334     13.8608E-03     135.916E-03    -26.0801E+06    -34.9242E+06     67.1778E+06    -43.1349E+06    -214.346E-03     315.666E-03    -101.320E-03     344.332E-03    -221.236E-03     322.122E-03    -100.895E-03     329.102E-03
            1335     14.5896E-03     136.645E-03    -24.5778E+06    -21.7260E+06     74.5502E+06    -33.4314E+06    -198.834E-03     305.599E-03    -106.765E-03     390.559E-03    -210.665E-03     317.011E-03    -106.326E-03     370.931E-03
            1336     15.3664E-03     137.417E-03    -16.4937E+06    -24.4122E+06     54.1082E+06    -28.8033E+06    -133.749E-03     242.818E-03    -109.070E-03     423.577E-03    -146.777E-03     255.565E-03    -108.740E-03     407.890E-03
            1337     842.211E-06     132.570E-03    -4.19552E+06    -17.7720E+06    -1.68293E+06    -6.03535E+06    -68.6523E-03     136.645E-03    -67.9929E-03    -1.65077E-03    -68.6613E-03     136.549E-03    -67.9694E-03    -1.79409E-03
            1338     1.68373E-03     132.597E-03    -4.30949E+06    -15.4702E+06     2.27533E+06    -11.1812E+06    -69.5784E-03     138.447E-03    -68.8683E-03    -4.04576E-03    -69.5983E-03     138.355E-03    -68.8282E-03    -4.31946E-03
            1339     2.52319E-03     132.640E-03    -3.96181E+06    -13.7528E+06     8.29179E+06    -15.1249E+06    -70.8119E-03     140.575E-03    -69.7630E-03    -6.11776E-03    -70.8422E-03     140.483E-03    -69.6958E-03    -6.51459E-03
            1340     3.36086E-03     132.703E-03    -3.95512E+06    -10.3827E+06     13.8008E+06    -18.6160E+06    -72.1871E-03     143.024E-03    -70.8368E-03    -7.48041E-03    -72.2320E-03     142.941E-03    -70.7470E-03    -8.00148E-03
            1341     4.19587E-03     132.785E-03    -4.93406E+06    -7.85052E+06     19.4437E+06    -21.4436E+06    -73.5771E-03     145.677E-03    -72.0995E-03    -7.69591E-03    -73.6421E-03     145.600E-03    -71.9838E-03    -8.33793E-03
            1342     5.02827E-03     132.891E-03    -7.26878E+06    -8.85530E+06     24.5082E+06    -24.7534E+06    -74.9403E-03     148.492E-03    -73.5521E-03    -6.34638E-03    -75.0284E-03     148.409E-03    -73.4062E-03    -7.11829E-03
            1343     5.85727E-03     133.023E-03    -11.3525E+06    -10.8718E+06     27.4017E+06    -27.6460E+06    -76.3109E-03     151.509E-03    -75.1985E-03    -2.85729E-03    -76.4290E-03     151.421E-03    -75.0293E-03    -3.75213E-03
            1344     6.68273E-03     133.186E-03    -16.9567E+06    -12.5048E+06     29.0760E+06    -29.5851E+06    -77.9648E-03     155.048E-03    -77.0833E-03     3.35605E-03    -78.1227E-03     154.964E-03    -76.8952E-03     2.35350E-03
            1345     7.50336E-03     133.386E-03    -22.0877E+06    -19.7414E+06     29.8826E+06    -32.2022E+06    -80.3553E-03     159.644E-03    -79.2890E-03     13.1457E-03    -80.5441E-03     159.540E-03    -79.0789E-03     12.0349E-03
            1346     8.31775E-03     133.629E-03    -25.7154E+06    -27.3975E+06     29.8870E+06    -36.8223E+06    -84.2424E-03     166.156E-03    -81.9131E-03     27.4982E-03    -84.4551E-03     166.032E-03    -81.6867E-03     26.2695E-03
            1347     9.12402E-03     133.923E-03    -26.2611E+06    -39.4052E+06     27.7858E+06    -42.3907E+06    -90.8877E-03     175.983E-03    -85.0954E-03     46.6672E-03    -91.1040E-03     175.826E-03    -84.8613E-03     45.3136E-03
            1348     9.91693E-03     134.274E-03    -27.2908E+06    -42.7977E+06     33.9828E+06    -45.7510E+06    -101.941E-03     191.018E-03    -89.0766E-03     69.2885E-03    -102.202E-03     190.874E-03    -88.8050E-03     67.7899E-03
            1349     10.6958E-03     134.686E-03    -22.2744E+06    -35.5912E+06     59.0563E+06    -43.7058E+06    -118.475E-03     212.633E-03    -94.1575E-03     93.0355E-03    -118.835E-03     212.559E-03    -93.7783E-03     91.2907E-03
            1350     11.4479E-03     135.172E-03    -10.6138E+06    -19.3295E+06     95.9533E+06    -30.7762E+06    -137.214E-03     237.628E-03    -100.414E-03     117.360E-03    -137.754E-03     237.728E-03    -99.8905E-03     115.230E-03
            1351     12.1799E-03     135.730E-03     284.312E+03     28.6515E+06     120.333E+06    -19.2800E+06    -149.248E-03     256.580E-03    -107.332E-03     141.557E-03    -150.123E-03     257.150E-03    -106.772E-03     138.713E-03
            1352     12.8992E-03     136.341E-03     3.48605E+06     32.0029E+06     115.887E+06    -8.57323E+06    -151.784E-03     266.069E-03    -114.285E-03     163.409E-03    -153.117E-03     267.131E-03    -113.757E-03     159.408E-03
            1353     13.6094E-03     136.997E-03     5.69908E+06    -3.09839E+06     122.606E+06     -2.5698E+06    -146.620E-03     267.551E-03    -120.931E-03     185.109E-03    -148.723E-03     269.239E-03    -120.322E-03     179.440E-03
            1354     14.3260E-03     137.694E-03     23.3828E+06     765.657E+03     132.689E+06    -3.59289E+06    -114.688E-03     240.607E-03    -125.919E-03     219.365E-03    -117.688E-03     243.265E-03    -125.291E-03     213.279E-03
            1355     15.0686E-03     138.360E-03     22.3337E+06     5.19502E+06     96.9638E+06     5.54487E+06    -24.9702E-03     151.523E-03    -126.552E-03     235.173E-03    -27.7051E-03     153.979E-03    -126.107E-03     232.566E-03
            1356     823.549E-06     133.679E-03     30.9540E+06    -6.37498E+06     31.2544E+06    -3.31865E+06    -91.9007E-03     184.690E-03    -92.7894E-03    -11.5474E-03    -91.8150E-03     184.532E-03    -92.6688E-03    -11.6729E-03
            1357     1.64439E-03     133.707E-03     29.4392E+06    -4.84168E+06     34.2785E+06    -5.59248E+06    -93.1030E-03     186.135E-03    -93.0316E-03    -20.8372E-03    -93.0277E-03     185.980E-03    -92.8958E-03    -21.0662E-03
            1358     2.46389E-03     133.752E-03     28.2770E+06    -4.50627E+06     38.3546E+06    -7.57486E+06    -94.3231E-03     188.370E-03    -94.0474E-03    -30.6928E-03    -94.2559E-03     188.207E-03    -93.8901E-03    -31.0318E-03
            1359     3.28057E-03     133.816E-03     26.8154E+06    -2.46444E+06     44.6530E+06    -8.60821E+06    -95.8120E-03     191.254E-03    -95.4422E-03    -40.9437E-03    -95.7592E-03     191.084E-03    -95.2543E-03    -41.3881E-03
            1360     4.09412E-03     133.900E-03     25.2126E+06    -608.222E+03     52.4534E+06    -8.80434E+06    -97.3976E-03     194.613E-03    -97.2156E-03    -51.7408E-03    -97.3605E-03     194.430E-03    -96.9890E-03    -52.2887E-03
            1361     4.90329E-03     134.006E-03     22.8296E+06      49.586E+03     59.1777E+06    -8.45381E+06    -98.7731E-03     198.134E-03    -99.3608E-03    -63.1422E-03    -98.7506E-03     197.928E-03    -99.0981E-03    -63.7972E-03
            1362     5.70765E-03     134.138E-03     19.8479E+06    -1.55514E+06     63.9808E+06    -8.42750E+06    -99.6231E-03     201.509E-03    -101.886E-03    -75.1496E-03    -99.6099E-03     201.267E-03    -101.593E-03    -75.9264E-03
            1363     6.50594E-03     134.299E-03     17.5102E+06    -3.54304E+06     69.2898E+06    -8.13696E+06    -99.5326E-03     204.354E-03    -104.822E-03    -87.4033E-03    -99.5232E-03     204.067E-03    -104.496E-03    -88.3035E-03
            1364     7.29691E-03     134.495E-03     16.2862E+06    -5.51157E+06     74.9983E+06    -9.17730E+06    -98.0106E-03     206.204E-03    -108.194E-03    -99.1323E-03    -97.9977E-03     205.862E-03    -107.834E-03    -100.173E-03
            1365     8.07982E-03     134.730E-03     14.5107E+06    -10.5474E+06     78.0891E+06    -10.4604E+06    -94.5367E-03     206.555E-03    -112.019E-03    -108.672E-03    -94.5138E-03     206.145E-03    -111.634E-03    -109.845E-03
            1366     8.85255E-03     135.013E-03     12.5772E+06    -14.3107E+06     82.2207E+06    -15.0111E+06    -89.3480E-03     205.722E-03    -116.374E-03    -114.421E-03    -89.3226E-03     205.246E-03    -115.961E-03    -115.739E-03
            1367     9.61631E-03     135.350E-03     9.25387E+06    -25.2070E+06     82.2704E+06    -15.0056E+06    -83.8471E-03     205.267E-03    -121.420E-03    -115.517E-03    -83.8101E-03     204.703E-03    -120.986E-03    -116.907E-03
            1368     10.3585E-03     135.755E-03     11.0550E+06    -17.4306E+06     88.5855E+06    -24.1448E+06    -78.8110E-03     206.152E-03    -127.341E-03    -108.699E-03    -78.7861E-03     205.611E-03    -126.888E-03    -110.256E-03
            1369     11.0817E-03     136.227E-03     3.35260E+06    -29.4230E+06     92.8138E+06    -17.2408E+06    -72.4818E-03     206.557E-03    -134.075E-03    -91.1826E-03    -72.5137E-03     206.005E-03    -133.573E-03    -92.6080E-03
            1370     11.7867E-03     136.764E-03     7.57623E+06     -417.15E+03     101.357E+06    -17.3207E+06    -62.4485E-03     203.494E-03    -141.046E-03    -64.7526E-03    -62.5750E-03     203.160E-03    -140.549E-03    -66.0639E-03
            1371     12.4854E-03     137.349E-03     6.38612E+06     19.5509E+06     114.907E+06    -151.480E+03    -51.2390E-03     199.066E-03    -147.827E-03    -33.5259E-03    -51.5131E-03     198.936E-03    -147.290E-03    -34.5851E-03
            1372     13.1802E-03     137.983E-03     10.4752E+06     13.8067E+06     135.559E+06     8.99072E+06    -37.1637E-03     190.886E-03    -153.722E-03     12.8681E-03    -37.5568E-03     190.896E-03    -153.080E-03     11.7654E-03
            1373     13.8744E-03     138.638E-03      5.8766E+06     12.5013E+06     95.4034E+06    -11.6468E+06    -3.19902E-03     159.927E-03    -156.728E-03     69.8456E-03    -3.59309E-03     160.090E-03    -156.278E-03     68.8097E-03
            1374     14.6870E-03     139.253E-03    -1.70569E+06    -7.05641E+06     47.1364E+06     7.02882E+06     51.4798E-03     104.239E-03    -155.718E-03     69.5959E-03     51.2916E-03     104.236E-03    -155.470E-03     69.4748E-03
            1375     15.2650E-03     69.4544E-03    -5.28199E+06     116.060E+06     98.2022E+06     787.266E+03    -121.628E-03     235.386E-03    -113.758E-03     249.938E-03    -136.239E-03     250.106E-03    -113.428E-03     243.275E-03
            1376     14.4649E-03     69.0685E-03    -9.64789E+06     113.151E+06     99.0351E+06    -605.906E+03    -125.836E-03     239.560E-03    -113.724E-03     326.730E-03    -146.233E-03     260.037E-03    -113.379E-03     315.084E-03
            1377     13.6597E-03     68.7068E-03    -16.7995E+06     95.4429E+06     92.7438E+06    -6.50682E+03    -124.870E-03     238.611E-03    -113.742E-03     310.523E-03    -141.253E-03     255.005E-03    -113.392E-03     297.323E-03
            1378     12.8564E-03     68.3701E-03    -23.1488E+06     80.9694E+06     81.6888E+06     1.05960E+06    -123.641E-03     237.421E-03    -113.781E-03     284.712E-03    -136.199E-03     249.948E-03    -113.456E-03     271.843E-03
            1379     12.0508E-03     68.0726E-03    -28.6519E+06     66.8912E+06     58.0848E+06     639.434E+03    -121.342E-03     235.105E-03    -113.762E-03     242.576E-03    -129.974E-03     243.704E-03    -113.528E-03     231.463E-03
            1380     11.2475E-03     67.8316E-03    -33.6825E+06     44.8258E+06     29.0393E+06     166.418E+03    -119.045E-03     232.754E-03    -113.709E-03     199.642E-03    -124.747E-03     238.412E-03    -113.580E-03     190.440E-03
            1381     10.4432E-03     67.6317E-03    -38.2995E+06     10.0449E+06     10.6093E+06    -25.0243E+03    -117.792E-03     231.501E-03    -113.709E-03     170.258E-03    -121.717E-03     235.295E-03    -113.615E-03     162.571E-03
            1382     9.63942E-03     67.4549E-03    -42.5643E+06    -39.0293E+06     1.60176E+06    -74.7272E+03    -117.350E-03     231.118E-03    -113.768E-03     152.762E-03    -120.197E-03     233.671E-03    -113.642E-03     146.228E-03
            1383     8.83662E-03     67.2929E-03    -46.4685E+06    -88.6456E+06    -3.46229E+06    -94.6333E+03    -117.111E-03     230.952E-03    -113.842E-03     139.780E-03    -119.221E-03     232.593E-03    -113.663E-03     134.189E-03
            1384     8.03278E-03     67.1446E-03    -50.5232E+06    -119.515E+06    -8.77076E+06    -8.55267E+03    -116.761E-03     230.644E-03    -113.883E-03     127.265E-03    -118.326E-03     231.630E-03    -113.680E-03     122.513E-03
            1385     7.22942E-03     67.0097E-03    -55.0031E+06    -145.036E+06    -15.0078E+06     63.5688E+03    -116.342E-03     230.252E-03    -113.911E-03     114.914E-03    -117.487E-03     230.731E-03    -113.696E-03     110.909E-03
            1386     6.42627E-03     66.8884E-03    -59.4779E+06    -169.815E+06    -20.7654E+06     258.520E+03    -115.931E-03     229.870E-03    -113.939E-03     102.623E-03    -116.753E-03     229.938E-03    -113.710E-03     99.2728E-03
            1387     5.62249E-03     66.7807E-03    -64.5729E+06    -186.017E+06    -29.3142E+06     216.864E+03    -115.489E-03     229.431E-03    -113.942E-03     90.3564E-03    -116.069E-03     229.206E-03    -113.725E-03     87.5869E-03
            1388     4.81976E-03     66.6864E-03    -70.0707E+06    -199.532E+06    -39.7001E+06     39.0809E+03    -115.046E-03     228.983E-03    -113.937E-03     78.0230E-03    -115.442E-03     228.537E-03    -113.744E-03     75.7660E-03
            1389     4.01582E-03     66.6062E-03    -74.9216E+06    -215.236E+06    -50.3869E+06     117.096E+03    -114.732E-03     228.666E-03    -113.934E-03     65.5115E-03    -114.980E-03     228.030E-03    -113.765E-03     63.7132E-03
            1390     3.21294E-03     66.5397E-03    -79.5993E+06    -229.220E+06    -61.2296E+06    -17.5450E+03    -114.458E-03     228.378E-03    -113.920E-03     52.7840E-03    -114.595E-03     227.596E-03    -113.778E-03     51.3955E-03
            1391     2.40958E-03     66.4878E-03    -83.9890E+06    -236.747E+06    -72.0984E+06    -7.47098E+03    -114.197E-03     228.088E-03    -113.892E-03     39.9594E-03    -114.257E-03     227.219E-03    -113.787E-03     38.9476E-03
            1392     1.60640E-03     66.4501E-03    -87.3357E+06    -242.873E+06    -81.3910E+06     128.507E+03    -114.018E-03     227.882E-03    -113.864E-03     27.1364E-03    -114.025E-03     226.952E-03    -113.792E-03     26.4714E-03
            1393     803.253E-06     66.4269E-03    -89.5790E+06    -247.202E+06    -88.0686E+06     61.9134E+03    -113.935E-03     227.735E-03    -113.801E-03     14.7883E-03    -113.909E-03     226.770E-03    -113.753E-03     14.4317E-03
            1394     15.2712E-03     68.2657E-03    -5.06427E+06     115.322E+06     97.7056E+06    -592.038E+03    -121.078E-03     234.739E-03    -113.661E-03     249.499E-03    -135.593E-03     249.362E-03    -113.332E-03     243.008E-03
            1395     14.4646E-03     67.8795E-03    -9.02284E+06     112.208E+06     98.4420E+06     770.721E+03    -124.527E-03     238.220E-03    -113.694E-03     329.173E-03    -144.840E-03     258.615E-03    -113.351E-03     317.827E-03
            1396     13.6601E-03     67.5195E-03    -15.9574E+06     95.6358E+06     92.9038E+06     1.47104E+06    -124.537E-03     238.322E-03    -113.785E-03     312.164E-03    -140.925E-03     254.723E-03    -113.436E-03     299.063E-03
            1397     12.8538E-03     67.1802E-03    -22.7990E+06     81.3793E+06     81.9300E+06     520.932E+03    -123.951E-03     237.791E-03    -113.839E-03     285.317E-03    -136.550E-03     250.360E-03    -113.515E-03     272.396E-03
            1398     12.0508E-03     66.8835E-03    -28.8680E+06     66.9751E+06     57.9895E+06     112.588E+03    -121.810E-03     235.610E-03    -113.800E-03     242.539E-03    -130.470E-03     244.237E-03    -113.565E-03     231.352E-03
            1399     11.2463E-03     66.6414E-03    -33.9537E+06     44.8181E+06     29.2163E+06     400.163E+03    -119.227E-03     232.952E-03    -113.725E-03     199.145E-03    -124.927E-03     238.606E-03    -113.595E-03     189.929E-03
            1400     10.4436E-03     66.4416E-03    -38.3560E+06     10.2670E+06     10.9408E+06     706.528E+03    -117.882E-03     231.595E-03    -113.713E-03     170.097E-03    -121.806E-03     235.387E-03    -113.618E-03     162.418E-03
            1401     9.64040E-03     66.2655E-03    -42.2427E+06    -38.6397E+06     1.94521E+06     425.980E+03    -117.402E-03     231.167E-03    -113.765E-03     152.797E-03    -120.251E-03     233.724E-03    -113.638E-03     146.263E-03
            1402     8.83604E-03     66.1032E-03    -46.1778E+06    -88.6452E+06    -3.49847E+06     158.098E+03    -117.094E-03     230.930E-03    -113.836E-03     139.833E-03    -119.201E-03     232.569E-03    -113.658E-03     134.251E-03
            1403     8.03303E-03     65.9548E-03    -50.3688E+06    -119.887E+06    -8.95547E+06     196.474E+03    -116.757E-03     230.636E-03    -113.878E-03     127.299E-03    -118.319E-03     231.619E-03    -113.676E-03     122.555E-03
            1404     7.22963E-03     65.8201E-03    -54.6578E+06    -144.935E+06    -14.8956E+06     258.947E+03    -116.333E-03     230.240E-03    -113.907E-03     114.869E-03    -117.478E-03     230.719E-03    -113.692E-03     110.865E-03
            1405     6.42591E-03     65.6988E-03    -59.5414E+06    -170.015E+06    -20.8562E+06     328.817E+03    -115.864E-03     229.804E-03    -113.940E-03     102.619E-03    -116.685E-03     229.871E-03    -113.711E-03     99.2737E-03
            1406     5.62305E-03     65.5909E-03    -64.5243E+06    -186.083E+06    -29.1495E+06     429.394E+03    -115.449E-03     229.400E-03    -113.951E-03     90.3716E-03    -116.029E-03     229.175E-03    -113.734E-03     87.6055E-03
            1407     4.81905E-03     65.4971E-03    -69.5827E+06    -199.362E+06    -39.2854E+06     298.985E+03    -115.104E-03     229.051E-03    -113.946E-03     78.0485E-03    -115.499E-03     228.604E-03    -113.753E-03     75.7938E-03
            1408     4.01631E-03     65.4164E-03    -74.7428E+06    -215.226E+06    -49.8309E+06     40.6270E+03    -114.762E-03     228.700E-03    -113.938E-03     65.4796E-03    -115.010E-03     228.063E-03    -113.767E-03     63.6786E-03
            1409     3.21276E-03     65.3502E-03    -79.5206E+06    -229.162E+06    -61.1718E+06     42.8023E+03    -114.439E-03     228.360E-03    -113.921E-03     52.7532E-03    -114.574E-03     227.577E-03    -113.780E-03     51.3653E-03
            1410     2.40960E-03     65.2982E-03    -83.8114E+06    -236.917E+06    -72.4381E+06     62.5180E+03    -114.193E-03     228.088E-03    -113.896E-03     39.9447E-03    -114.251E-03     227.218E-03    -113.793E-03     38.9332E-03
            1411     1.60635E-03     65.2605E-03    -87.3475E+06    -242.911E+06    -81.4332E+06     55.8524E+03    -114.005E-03     227.883E-03    -113.878E-03     27.0678E-03    -114.011E-03     226.953E-03    -113.806E-03     26.4016E-03
            1412     803.100E-06     65.2373E-03    -89.6125E+06    -247.026E+06    -87.8649E+06    -53.1705E+03    -113.959E-03     227.776E-03    -113.817E-03     14.7381E-03    -113.934E-03     226.811E-03    -113.768E-03     14.3785E-03
            1413     15.2668E-03     67.0766E-03    -5.06318E+06     114.694E+06     96.2035E+06    -838.878E+03    -119.253E-03     232.949E-03    -113.696E-03     251.223E-03    -133.827E-03     247.633E-03    -113.374E-03     244.875E-03
            1414     14.4623E-03     66.6913E-03    -12.4310E+06     109.827E+06      95.843E+06    -111.924E+03    -124.869E-03     238.657E-03    -113.788E-03     330.805E-03    -145.291E-03     259.147E-03    -113.450E-03     319.435E-03
            1415     13.6569E-03     66.3291E-03    -17.7669E+06     95.5998E+06     92.9095E+06    -9.94056E+03    -125.243E-03     239.108E-03    -113.864E-03     311.563E-03    -141.659E-03     255.530E-03    -113.513E-03     298.342E-03
            1416     12.8545E-03     65.9914E-03    -23.2573E+06     82.0853E+06     82.0747E+06    -19.6428E+03    -124.475E-03     238.350E-03    -113.874E-03     284.614E-03    -137.097E-03     250.942E-03    -113.549E-03     271.588E-03
            1417     12.0502E-03     65.6924E-03    -29.2831E+06     66.4112E+06     56.8396E+06    -28.6618E+03    -122.010E-03     235.811E-03    -113.801E-03     241.886E-03    -130.671E-03     244.438E-03    -113.571E-03     230.659E-03
            1418     11.2480E-03     65.4522E-03    -34.5070E+06     44.1471E+06     28.7389E+06     348.123E+03    -119.175E-03     232.896E-03    -113.721E-03     199.009E-03    -124.873E-03     238.545E-03    -113.591E-03     189.798E-03
            1419     10.4432E-03     65.2520E-03    -38.4337E+06     10.2442E+06     11.2530E+06     599.645E+03    -117.839E-03     231.554E-03    -113.715E-03     170.302E-03    -121.764E-03     235.346E-03    -113.618E-03     162.626E-03
            1420     9.63929E-03     65.0752E-03    -42.0642E+06    -38.2997E+06     2.17701E+06     630.599E+03    -117.433E-03     231.199E-03    -113.767E-03     152.711E-03    -120.281E-03     233.756E-03    -113.639E-03     146.178E-03
            1421     8.83677E-03     64.9138E-03    -46.2082E+06    -88.0713E+06    -3.22073E+06     709.011E+03    -117.131E-03     230.965E-03    -113.834E-03     139.742E-03    -119.240E-03     232.607E-03    -113.656E-03     134.164E-03
            1422     8.03279E-03     64.7650E-03    -50.5576E+06    -120.109E+06    -9.11943E+06     363.677E+03    -116.714E-03     230.590E-03    -113.875E-03     127.310E-03    -118.276E-03     231.572E-03    -113.674E-03     122.569E-03
            1423     7.22941E-03     64.6304E-03    -55.1126E+06    -145.422E+06    -15.4041E+06     474.425E+03    -116.295E-03     230.203E-03    -113.908E-03     114.876E-03    -117.440E-03     230.680E-03    -113.694E-03     110.877E-03
            1424     6.42639E-03     64.5092E-03    -59.7864E+06    -169.960E+06    -21.3691E+06     465.173E+03    -115.851E-03     229.794E-03    -113.942E-03     102.627E-03    -116.673E-03     229.862E-03    -113.716E-03     99.2839E-03
            1425     5.62224E-03     64.4016E-03    -64.6362E+06    -186.178E+06    -29.1546E+06     153.043E+03    -115.465E-03     229.422E-03    -113.957E-03     90.3849E-03    -116.045E-03     229.196E-03    -113.739E-03     87.6164E-03
            1426     4.81962E-03     64.3071E-03    -69.3993E+06    -198.799E+06    -38.8561E+06     234.998E+03    -115.139E-03     229.088E-03    -113.949E-03     77.9675E-03    -115.533E-03     228.643E-03    -113.754E-03     75.7100E-03
            1427     4.01595E-03     64.2269E-03    -74.5076E+06    -215.253E+06    -50.1651E+06     229.572E+03    -114.765E-03     228.699E-03    -113.934E-03     65.4025E-03    -115.011E-03     228.062E-03    -113.764E-03     63.6030E-03
            1428     3.21287E-03     64.1606E-03    -79.5360E+06    -229.279E+06    -61.2383E+06     322.159E+03    -114.438E-03     228.356E-03    -113.918E-03     52.7239E-03    -114.574E-03     227.573E-03    -113.776E-03     51.3394E-03
            1429     2.40959E-03     64.1085E-03    -83.8794E+06    -236.729E+06    -72.0803E+06     248.696E+03    -114.190E-03     228.083E-03    -113.893E-03     39.9047E-03    -114.250E-03     227.214E-03    -113.788E-03     38.8955E-03
            1430     1.60642E-03     64.0710E-03    -87.4032E+06    -242.859E+06    -81.4703E+06     10.4381E+03    -114.008E-03     227.878E-03    -113.869E-03     27.0421E-03    -114.015E-03     226.948E-03    -113.798E-03     26.3753E-03
            1431     803.219E-06     64.0478E-03    -89.7474E+06    -247.211E+06    -88.2463E+06    -64.5060E+03    -113.962E-03     227.753E-03    -113.790E-03     14.7567E-03    -113.937E-03     226.787E-03    -113.743E-03     14.3976E-03
            1432     15.2646E-03     65.8892E-03    -5.10564E+06     115.565E+06     97.0504E+06     244.652E+03    -119.288E-03     233.081E-03    -113.793E-03     251.093E-03    -133.844E-03     247.748E-03    -113.468E-03     244.679E-03
            1433     14.4602E-03     65.4990E-03    -11.5520E+06     110.887E+06     96.9035E+06    -587.934E+03    -125.605E-03     239.453E-03    -113.848E-03     327.594E-03    -145.940E-03     259.859E-03    -113.507E-03     316.058E-03
            1434     13.6588E-03     65.1404E-03    -17.3788E+06     94.2173E+06     92.2029E+06    -1.32546E+06    -125.412E-03     239.284E-03    -113.872E-03     310.020E-03    -141.810E-03     255.687E-03    -113.522E-03     296.718E-03
            1435     12.8541E-03     64.8005E-03    -23.2844E+06     80.8859E+06     81.3401E+06    -489.314E+03    -124.617E-03     238.480E-03    -113.863E-03     284.462E-03    -137.247E-03     251.078E-03    -113.540E-03     271.390E-03
            1436     12.0516E-03     64.5030E-03    -29.1327E+06     66.0975E+06     57.1755E+06     293.820E+03    -121.812E-03     235.605E-03    -113.794E-03     241.838E-03    -130.455E-03     244.214E-03    -113.561E-03     230.649E-03
            1437     11.2461E-03     64.2624E-03    -34.2977E+06     43.7626E+06     28.8338E+06     431.423E+03    -119.093E-03     232.816E-03    -113.723E-03     199.158E-03    -124.788E-03     238.461E-03    -113.592E-03     189.957E-03
            1438     10.4435E-03     64.0619E-03    -38.6222E+06     9.74018E+06     10.8693E+06     526.604E+03    -117.917E-03     231.633E-03    -113.716E-03     170.317E-03    -121.847E-03     235.428E-03    -113.620E-03     162.628E-03
            1439     9.64038E-03     63.8859E-03    -42.7823E+06    -38.4362E+06     1.77470E+06     779.339E+03    -117.414E-03     231.180E-03    -113.765E-03     152.611E-03    -120.263E-03     233.735E-03    -113.639E-03     146.084E-03
            1440     8.83606E-03     63.7235E-03    -46.7715E+06    -87.8798E+06    -3.20698E+06     801.937E+03    -117.113E-03     230.947E-03    -113.835E-03     139.709E-03    -119.226E-03     232.592E-03    -113.656E-03     134.129E-03
            1441     8.03316E-03     63.5758E-03    -50.9714E+06    -119.401E+06    -8.87087E+06     771.037E+03    -116.705E-03     230.582E-03    -113.877E-03     127.298E-03    -118.270E-03     231.568E-03    -113.674E-03     122.563E-03
            1442     7.22954E-03     63.4406E-03    -55.3126E+06    -145.663E+06    -15.4990E+06     296.628E+03    -116.256E-03     230.167E-03    -113.911E-03     114.861E-03    -117.401E-03     230.643E-03    -113.697E-03     110.863E-03
            1443     6.42569E-03     63.3198E-03    -59.5638E+06    -170.032E+06    -21.1403E+06     241.592E+03    -115.912E-03     229.857E-03    -113.945E-03     102.531E-03    -116.734E-03     229.925E-03    -113.718E-03     99.1802E-03
            1444     5.62311E-03     63.2117E-03    -64.2944E+06    -185.489E+06    -29.1679E+06     187.272E+03    -115.521E-03     229.469E-03    -113.948E-03     90.3151E-03    -116.100E-03     229.246E-03    -113.732E-03     87.5446E-03
            1445     4.81919E-03     63.1175E-03    -69.7080E+06    -199.521E+06    -39.8658E+06     125.532E+03    -115.082E-03     229.020E-03    -113.937E-03     77.9436E-03    -115.475E-03     228.573E-03    -113.746E-03     75.6876E-03
            1446     4.01624E-03     63.0372E-03    -74.5706E+06    -215.264E+06    -50.4619E+06     646.095E+03    -114.744E-03     228.675E-03    -113.930E-03     65.3698E-03    -114.990E-03     228.038E-03    -113.762E-03     63.5768E-03
            1447     3.21286E-03     62.9710E-03    -79.3178E+06    -228.961E+06    -60.9236E+06     513.173E+03    -114.451E-03     228.368E-03    -113.916E-03     52.7328E-03    -114.587E-03     227.585E-03    -113.774E-03     51.3508E-03
            1448     2.40965E-03     62.9190E-03    -83.8489E+06    -236.535E+06    -71.9312E+06     217.281E+03    -114.187E-03     228.076E-03    -113.889E-03     39.9344E-03    -114.247E-03     227.207E-03    -113.784E-03     38.9256E-03
            1449     1.60634E-03     62.8814E-03    -87.3430E+06    -242.710E+06    -81.3817E+06     151.628E+03    -114.015E-03     227.876E-03    -113.862E-03     27.0611E-03    -114.022E-03     226.948E-03    -113.790E-03     26.3964E-03
            1450     803.218E-06     62.8581E-03    -89.7907E+06    -247.129E+06    -88.1469E+06     171.800E+03    -113.938E-03     227.730E-03    -113.792E-03     14.7361E-03    -113.914E-03     226.765E-03    -113.744E-03     14.3809E-03
            1451     15.2646E-03     64.6938E-03    -4.40343E+06     116.448E+06     98.5688E+06    -184.520E+03    -120.351E-03     234.137E-03    -113.786E-03     249.753E-03    -134.839E-03     248.737E-03    -113.456E-03     243.306E-03
            1452     14.4646E-03     64.3119E-03    -9.10696E+06     111.760E+06     98.7527E+06    -247.642E+03    -125.124E-03     238.937E-03    -113.813E-03     326.678E-03    -145.403E-03     259.294E-03    -113.468E-03     315.224E-03
            1453     13.6577E-03     63.9504E-03    -16.0446E+06     94.1983E+06     92.5982E+06     386.511E+03    -125.277E-03     239.126E-03    -113.849E-03     311.227E-03    -141.725E-03     255.583E-03    -113.499E-03     297.936E-03
            1454     12.8551E-03     63.6102E-03    -23.8564E+06     80.6477E+06     80.6318E+06    -214.398E+03    -124.437E-03     238.290E-03    -113.854E-03     284.737E-03    -137.062E-03     250.884E-03    -113.533E-03     271.699E-03
            1455     12.0500E-03     63.3136E-03    -30.2693E+06     65.2691E+06     56.4974E+06    -375.302E+03    -121.714E-03     235.511E-03    -113.797E-03     241.941E-03    -130.357E-03     244.115E-03    -113.566E-03     230.759E-03
            1456     11.2478E-03     63.0727E-03    -35.2320E+06     42.9651E+06     28.2553E+06     216.042E+03    -119.253E-03     232.977E-03    -113.725E-03     199.253E-03    -124.959E-03     238.630E-03    -113.595E-03     190.027E-03
            1457     10.4433E-03     62.8721E-03    -39.6110E+06     9.44389E+06     10.1873E+06     678.090E+03    -117.904E-03     231.615E-03    -113.711E-03     170.145E-03    -121.834E-03     235.408E-03    -113.616E-03     162.460E-03
            1458     9.63943E-03     62.6955E-03    -43.3623E+06    -38.3115E+06     1.39040E+06     729.250E+03    -117.353E-03     231.116E-03    -113.762E-03     152.628E-03    -120.204E-03     233.672E-03    -113.637E-03     146.104E-03
            1459     8.83667E-03     62.5345E-03    -47.1465E+06    -88.4728E+06    -3.76239E+06     689.512E+03    -117.092E-03     230.927E-03    -113.835E-03     139.650E-03    -119.205E-03     232.569E-03    -113.657E-03     134.070E-03
            1460     8.03271E-03     62.3855E-03    -51.1596E+06    -118.916E+06    -8.61461E+06     882.690E+03    -116.698E-03     230.578E-03    -113.880E-03     127.197E-03    -118.264E-03     231.566E-03    -113.677E-03     122.464E-03
            1461     7.22939E-03     62.2516E-03    -55.8823E+06    -144.512E+06    -15.0930E+06     618.661E+03    -116.323E-03     230.234E-03    -113.911E-03     114.831E-03    -117.473E-03     230.716E-03    -113.696E-03     110.835E-03
            1462     6.42641E-03     62.1297E-03    -60.9917E+06    -169.898E+06    -22.1410E+06    -346.431E+03    -115.929E-03     229.863E-03    -113.934E-03     102.545E-03    -116.756E-03     229.935E-03    -113.710E-03     99.1859E-03
            1463     5.62250E-03     62.0223E-03    -65.7163E+06    -186.110E+06    -30.5840E+06    -143.891E+03    -115.483E-03     229.419E-03    -113.937E-03     90.3337E-03    -116.066E-03     229.197E-03    -113.724E-03     87.5598E-03
            1464     4.81967E-03     61.9279E-03    -70.5885E+06    -199.960E+06    -40.6346E+06     519.802E+03    -115.060E-03     228.991E-03    -113.932E-03     77.9819E-03    -115.455E-03     228.544E-03    -113.743E-03     75.7340E-03
            1465     4.01598E-03     61.8476E-03    -75.8002E+06    -215.061E+06    -50.2649E+06     165.810E+03    -114.709E-03     228.643E-03    -113.934E-03     65.4374E-03    -114.962E-03     228.009E-03    -113.763E-03     63.6417E-03
            1466     3.21284E-03     61.7813E-03    -80.1038E+06    -228.635E+06    -60.4422E+06    -2.60756E+03    -114.444E-03     228.369E-03    -113.925E-03     52.7488E-03    -114.584E-03     227.588E-03    -113.779E-03     51.3609E-03
            1467     2.40957E-03     61.7294E-03    -83.9460E+06    -236.482E+06    -71.8853E+06     95.7866E+03    -114.211E-03     228.103E-03    -113.892E-03     39.9318E-03    -114.272E-03     227.234E-03    -113.786E-03     38.9207E-03
            1468     1.60646E-03     61.6917E-03    -87.5452E+06    -242.666E+06    -81.1728E+06     118.451E+03    -114.005E-03     227.868E-03    -113.864E-03     27.0379E-03    -114.013E-03     226.940E-03    -113.791E-03     26.3728E-03
            1469     803.174E-06     61.6687E-03    -89.8794E+06    -247.012E+06    -88.0134E+06     49.9581E+03    -113.946E-03     227.736E-03    -113.789E-03     14.7404E-03    -113.922E-03     226.771E-03    -113.741E-03     14.3844E-03
            1470     15.2699E-03     63.5069E-03    -5.56095E+06     115.409E+06     96.9791E+06    -1.01451E+06    -119.873E-03     233.632E-03    -113.759E-03     250.790E-03    -134.450E-03     248.318E-03    -113.433E-03     244.395E-03
            1471     14.4604E-03     63.1224E-03    -11.3853E+06     110.059E+06     96.8758E+06    -391.867E+03    -124.977E-03     238.797E-03    -113.819E-03     329.311E-03    -145.396E-03     259.285E-03    -113.478E-03     317.839E-03
            1472     13.6589E-03     62.7602E-03    -17.4621E+06     95.0664E+06     92.9590E+06     496.963E+03    -125.696E-03     239.564E-03    -113.868E-03     311.769E-03    -142.180E-03     256.053E-03    -113.515E-03     298.429E-03
            1473     12.8540E-03     62.4207E-03    -24.0072E+06     82.0430E+06     81.5657E+06     59.6401E+03    -124.393E-03     238.257E-03    -113.864E-03     284.546E-03    -137.011E-03     250.845E-03    -113.540E-03     271.527E-03
            1474     12.0511E-03     62.1242E-03    -30.4371E+06     64.6148E+06     55.6151E+06    -400.227E+03    -121.868E-03     235.664E-03    -113.796E-03     241.876E-03    -130.519E-03     244.275E-03    -113.568E-03     230.668E-03
            1475     11.2462E-03     61.8820E-03    -35.8559E+06     42.0257E+06     27.0657E+06     80.7012E+03    -119.303E-03     233.019E-03    -113.715E-03     199.091E-03    -125.007E-03     238.666E-03    -113.589E-03     189.861E-03
            1476     10.4438E-03     61.6825E-03    -39.7260E+06     9.21702E+06     9.92692E+06     385.393E+03    -117.841E-03     231.544E-03    -113.703E-03     170.011E-03    -121.764E-03     235.330E-03    -113.610E-03     162.332E-03
            1477     9.64019E-03     61.5065E-03    -43.1982E+06    -38.7382E+06     1.12191E+06     622.760E+03    -117.353E-03     231.110E-03    -113.757E-03     152.566E-03    -120.200E-03     233.662E-03    -113.632E-03     146.043E-03
            1478     8.83614E-03     61.3439E-03    -46.8739E+06    -88.2563E+06    -3.78702E+06     829.813E+03    -117.069E-03     230.898E-03    -113.829E-03     139.434E-03    -119.178E-03     232.539E-03    -113.652E-03     133.859E-03
            1479     8.03309E-03     61.1969E-03    -51.0708E+06    -119.142E+06    -8.93207E+06     842.261E+03    -116.678E-03     230.552E-03    -113.875E-03     127.090E-03    -118.242E-03     231.539E-03    -113.673E-03     122.357E-03
            1480     7.22954E-03     61.0610E-03    -54.9849E+06    -143.494E+06    -14.5432E+06     647.885E+03    -116.308E-03     230.216E-03    -113.908E-03     114.906E-03    -117.456E-03     230.701E-03    -113.693E-03     110.911E-03
            1481     6.42598E-03     60.9406E-03    -59.4201E+06    -169.210E+06    -20.8977E+06     335.572E+03    -115.925E-03     229.861E-03    -113.936E-03     102.620E-03    -116.747E-03     229.933E-03    -113.709E-03     99.2711E-03
            1482     5.62299E-03     60.8323E-03    -65.1448E+06    -187.211E+06    -30.2453E+06     373.258E+03    -115.485E-03     229.424E-03    -113.939E-03     90.3047E-03    -116.063E-03     229.194E-03    -113.724E-03     87.5393E-03
            1483     4.81923E-03     60.7385E-03    -70.3825E+06    -199.526E+06    -40.6206E+06     354.313E+03    -115.062E-03     228.993E-03    -113.931E-03     77.9371E-03    -115.457E-03     228.547E-03    -113.743E-03     75.6868E-03
            1484     4.01620E-03     60.6580E-03    -74.9485E+06    -214.408E+06    -50.2670E+06    -131.959E+03    -114.716E-03     228.646E-03    -113.931E-03     65.4263E-03    -114.964E-03     228.014E-03    -113.762E-03     63.6274E-03
            1485     3.21278E-03     60.5918E-03    -80.0180E+06    -228.947E+06    -60.8999E+06    -401.302E+03    -114.427E-03     228.351E-03    -113.924E-03     52.7161E-03    -114.566E-03     227.569E-03    -113.780E-03     51.3238E-03
            1486     2.40964E-03     60.5396E-03    -84.3933E+06     -236.83E+06    -72.3484E+06    -209.976E+03    -114.177E-03     228.078E-03    -113.901E-03     39.9500E-03    -114.239E-03     227.209E-03    -113.797E-03     38.9355E-03
            1487     1.60636E-03     60.5023E-03    -87.5169E+06    -242.802E+06    -81.5843E+06    -112.232E+03    -114.004E-03     227.891E-03    -113.887E-03     27.1210E-03    -114.011E-03     226.962E-03    -113.816E-03     26.4534E-03
            1488     803.182E-06     60.4790E-03    -89.7716E+06    -247.203E+06    -88.2504E+06    -11.2169E+03    -113.975E-03     227.802E-03    -113.826E-03     14.8261E-03    -113.951E-03     226.837E-03    -113.779E-03     14.4701E-03
            1489     15.2627E-03     62.3203E-03    -5.65352E+06     115.464E+06     96.7146E+06    -26.7919E+03    -119.345E-03     233.142E-03    -113.797E-03     251.371E-03    -133.936E-03     247.842E-03    -113.473E-03     244.968E-03
            1490     14.4617E-03     61.9304E-03    -11.7174E+06     109.817E+06     96.5091E+06     262.691E+03    -125.808E-03     239.657E-03    -113.848E-03     328.253E-03    -146.172E-03     260.088E-03    -113.508E-03     316.671E-03
            1491     13.6575E-03     61.5697E-03    -18.0606E+06     94.9069E+06     92.2080E+06    -885.119E+03    -125.529E-03     239.398E-03    -113.869E-03     310.504E-03    -141.946E-03     255.820E-03    -113.519E-03     297.184E-03
            1492     12.8547E-03     61.2313E-03    -23.2555E+06     81.7122E+06     81.8587E+06    -740.401E+03    -124.512E-03     238.375E-03    -113.863E-03     284.242E-03    -137.118E-03     250.951E-03    -113.538E-03     271.200E-03
            1493     12.0503E-03     60.9336E-03    -28.8565E+06     63.8366E+06     56.7997E+06     341.135E+03    -121.985E-03     235.775E-03    -113.790E-03     241.715E-03    -130.621E-03     244.370E-03    -113.557E-03     230.510E-03
            1494     11.2482E-03     60.6929E-03    -34.1553E+06     41.8859E+06     27.9908E+06     879.915E+03    -119.234E-03     232.938E-03    -113.704E-03     198.872E-03    -124.920E-03     238.570E-03    -113.575E-03     189.668E-03
            1495     10.4431E-03     60.4928E-03    -38.8740E+06     9.23182E+06     9.80017E+06     839.954E+03    -117.838E-03     231.527E-03    -113.688E-03     169.786E-03    -121.754E-03     235.308E-03    -113.596E-03     162.115E-03
            1496     9.63981E-03     60.3161E-03    -43.0424E+06    -39.1652E+06     839.032E+03     829.386E+03    -117.287E-03     231.030E-03    -113.743E-03     152.415E-03    -120.128E-03     233.577E-03    -113.620E-03     145.902E-03
            1497     8.83676E-03     60.1551E-03    -46.9941E+06    -88.0062E+06    -3.94450E+06     790.961E+03    -116.981E-03     230.803E-03    -113.822E-03     139.546E-03    -119.089E-03     232.444E-03    -113.646E-03     133.978E-03
            1498     8.03292E-03     60.0064E-03    -50.5980E+06    -118.740E+06    -8.96976E+06     389.257E+03    -116.685E-03     230.557E-03    -113.871E-03     127.224E-03    -118.250E-03     231.546E-03    -113.670E-03     122.483E-03
            1499     7.22948E-03     59.8723E-03    -54.6261E+06    -143.549E+06    -14.5376E+06     77.2499E+03    -116.300E-03     230.206E-03    -113.906E-03     114.939E-03    -117.445E-03     230.690E-03    -113.691E-03     110.940E-03
            1500     6.42611E-03     59.7502E-03    -59.2706E+06    -169.809E+06    -19.9345E+06     852.184E+03    -115.905E-03     229.847E-03    -113.942E-03     102.500E-03    -116.725E-03     229.912E-03    -113.709E-03     99.1616E-03
            1501     5.62264E-03     59.6431E-03    -64.1963E+06    -186.639E+06    -28.4734E+06     1.24279E+06    -115.497E-03     229.443E-03    -113.946E-03     90.2153E-03    -116.074E-03     229.212E-03    -113.724E-03     87.4608E-03
            1502     4.81961E-03     59.5488E-03    -69.4667E+06    -198.427E+06    -39.3827E+06     397.665E+03    -115.073E-03     229.004E-03    -113.932E-03     77.9072E-03    -115.467E-03     228.561E-03    -113.740E-03     75.6574E-03
            1503     4.01605E-03     59.4685E-03    -74.7462E+06    -214.127E+06    -49.8684E+06    -66.1465E+03    -114.698E-03     228.628E-03    -113.930E-03     65.4419E-03    -114.947E-03     227.996E-03    -113.760E-03     63.6444E-03
            1504     3.21291E-03     59.4021E-03    -79.6657E+06    -229.120E+06    -61.3398E+06    -185.070E+03    -114.395E-03     228.321E-03    -113.926E-03     52.7944E-03    -114.530E-03     227.538E-03    -113.785E-03     51.4072E-03
            1505     2.40949E-03     59.3502E-03    -84.0031E+06    -237.302E+06    -73.2708E+06    -257.482E+03    -114.157E-03     228.071E-03    -113.914E-03     39.9703E-03    -114.215E-03     227.200E-03    -113.814E-03     38.9560E-03
            1506     1.60623E-03     59.3126E-03    -87.3475E+06    -243.136E+06    -82.0300E+06    -34.5308E+03    -114.023E-03     227.935E-03    -113.912E-03     27.1146E-03    -114.028E-03     227.005E-03    -113.843E-03     26.4480E-03
            1507     803.112E-06     59.2893E-03    -89.5125E+06    -247.172E+06    -88.1051E+06     75.1065E+03    -114.004E-03     227.860E-03    -113.856E-03     14.7462E-03    -113.978E-03     226.894E-03    -113.808E-03     14.3905E-03
            1508     15.2654E-03     61.1243E-03    -5.18992E+06     114.989E+06     97.0580E+06     339.314E+03    -119.877E-03     233.645E-03    -113.768E-03     250.346E-03    -134.444E-03     248.320E-03    -113.442E-03     243.905E-03
            1509     14.4631E-03     60.7423E-03    -10.3613E+06     110.299E+06     97.5679E+06     120.323E+03    -125.263E-03     239.067E-03    -113.805E-03     326.648E-03    -145.564E-03     259.441E-03    -113.462E-03     315.186E-03
            1510     13.6589E-03     60.3806E-03    -16.4779E+06     96.0840E+06     93.0858E+06    -470.975E+03    -125.216E-03     239.054E-03    -113.838E-03     310.542E-03    -141.597E-03     255.448E-03    -113.488E-03     297.280E-03
            1511     12.8542E-03     60.0410E-03    -23.7874E+06     80.6619E+06     80.8257E+06    -982.005E+03    -124.437E-03     238.278E-03    -113.841E-03     284.315E-03    -137.038E-03     250.846E-03    -113.519E-03     271.275E-03
            1512     12.0517E-03     59.7438E-03    -30.3406E+06     61.9282E+06     55.6576E+06    -324.554E+03    -121.976E-03     235.748E-03    -113.772E-03     241.660E-03    -130.606E-03     244.329E-03    -113.540E-03     230.454E-03
            1513     11.2464E-03     59.5029E-03    -35.3131E+06     40.7693E+06     27.4244E+06     788.120E+03    -119.214E-03     232.900E-03    -113.686E-03     198.687E-03    -124.903E-03     238.528E-03    -113.557E-03     189.481E-03
            1514     10.4445E-03     59.3027E-03    -39.5726E+06     9.74676E+06     9.76094E+06     1.52079E+06    -117.699E-03     231.373E-03    -113.674E-03     169.865E-03    -121.619E-03     235.159E-03    -113.582E-03     162.213E-03
            1515     9.64048E-03     59.1274E-03    -43.6127E+06    -38.2177E+06     833.973E+03     971.315E+03    -117.159E-03     230.899E-03    -113.739E-03     152.620E-03    -120.005E-03     233.451E-03    -113.616E-03     146.120E-03
            1516     8.83616E-03     58.9649E-03    -47.0187E+06    -87.8132E+06    -4.05782E+06     146.093E+03    -116.971E-03     230.796E-03    -113.825E-03     139.775E-03    -119.079E-03     232.437E-03    -113.650E-03     134.204E-03
            1517     8.03293E-03     58.8173E-03    -50.7726E+06    -118.729E+06    -9.06804E+06    -181.642E+03    -116.759E-03     230.631E-03    -113.873E-03     127.263E-03    -118.324E-03     231.621E-03    -113.672E-03     122.511E-03
            1518     7.22955E-03     58.6819E-03    -54.9648E+06    -143.764E+06    -14.5350E+06     116.856E+03    -116.391E-03     230.290E-03    -113.899E-03     114.759E-03    -117.537E-03     230.773E-03    -113.683E-03     110.755E-03
            1519     6.42624E-03     58.5612E-03    -59.6101E+06    -170.831E+06    -20.1138E+06     553.526E+03    -115.866E-03     229.796E-03    -113.930E-03     102.378E-03    -116.685E-03     229.856E-03    -113.696E-03     99.0390E-03
            1520     5.62285E-03     58.4532E-03    -64.2534E+06    -186.556E+06    -27.8396E+06     803.804E+03    -115.418E-03     229.360E-03    -113.942E-03     90.1897E-03    -115.996E-03     229.128E-03    -113.717E-03     87.4325E-03
            1521     4.81935E-03     58.3592E-03    -68.9882E+06    -197.390E+06    -37.9049E+06     758.100E+03    -115.049E-03     228.986E-03    -113.937E-03     77.9087E-03    -115.444E-03     228.546E-03    -113.740E-03     75.6633E-03
            1522     4.01620E-03     58.2790E-03    -74.4133E+06    -213.700E+06    -49.0096E+06     292.470E+03    -114.688E-03     228.624E-03    -113.936E-03     65.4371E-03    -114.937E-03     227.993E-03    -113.764E-03     63.6446E-03
            1523     3.21265E-03     58.2126E-03    -79.5922E+06    -229.100E+06    -61.1961E+06     80.5427E+03    -114.418E-03     228.346E-03    -113.928E-03     52.7396E-03    -114.554E-03     227.564E-03    -113.787E-03     51.3559E-03
            1524     2.40954E-03     58.1606E-03    -83.8960E+06    -237.392E+06    -73.0252E+06     164.556E+03    -114.220E-03     228.120E-03    -113.901E-03     39.8267E-03    -114.277E-03     227.249E-03    -113.800E-03     38.8169E-03
            1525     1.60638E-03     58.1229E-03    -87.4078E+06    -243.196E+06    -81.6016E+06     83.7343E+03    -114.034E-03     227.906E-03    -113.872E-03     26.9725E-03    -114.040E-03     226.975E-03    -113.801E-03     26.3072E-03
            1526     803.178E-06     58.0996E-03    -89.4815E+06    -247.089E+06    -87.8776E+06    -94.2608E+03    -113.940E-03     227.747E-03    -113.808E-03     14.6359E-03    -113.914E-03     226.782E-03    -113.759E-03     14.2773E-03
            1527     15.2701E-03     59.9413E-03    -4.94435E+06     115.391E+06     97.8053E+06     134.014E+03    -120.270E-03     233.995E-03    -113.726E-03     251.721E-03    -134.894E-03     248.728E-03    -113.397E-03     245.285E-03
            1528     14.4623E-03     59.5515E-03    -10.6435E+06     110.618E+06     97.6159E+06    -270.934E+03    -124.902E-03     238.677E-03    -113.775E-03     328.966E-03    -145.322E-03     259.169E-03    -113.432E-03     317.520E-03
            1529     13.6587E-03     59.1915E-03    -16.9488E+06     96.0006E+06     93.0605E+06    -24.6079E+03    -125.463E-03     239.285E-03    -113.822E-03     311.120E-03    -141.884E-03     255.717E-03    -113.472E-03     297.822E-03
            1530     12.8554E-03     58.8515E-03    -23.9742E+06     81.1201E+06     80.9152E+06     311.912E+03    -124.488E-03     238.305E-03    -113.818E-03     284.516E-03    -137.089E-03     250.875E-03    -113.496E-03     271.494E-03
            1531     12.0504E-03     58.5538E-03    -30.8727E+06     61.0555E+06     54.5275E+06     149.908E+03    -121.798E-03     235.548E-03    -113.749E-03     241.598E-03    -130.425E-03     244.124E-03    -113.520E-03     230.417E-03
            1532     11.2489E-03     58.3131E-03    -36.6099E+06     38.9309E+06     26.1274E+06     746.577E+03    -119.002E-03     232.680E-03    -113.678E-03     198.884E-03    -124.690E-03     238.300E-03    -113.551E-03     189.699E-03
            1533     10.4432E-03     58.1140E-03    -40.5939E+06     10.2095E+06     9.77693E+06     857.887E+03    -117.598E-03     231.280E-03    -113.682E-03     170.209E-03    -121.524E-03     235.071E-03    -113.589E-03     162.559E-03
            1534     9.63951E-03     57.9369E-03    -43.3420E+06    -36.9257E+06     1.48080E+06     185.635E+03    -117.254E-03     231.004E-03    -113.750E-03     152.745E-03    -120.103E-03     233.563E-03    -113.626E-03     146.230E-03
            1535     8.83659E-03     57.7762E-03    -46.7131E+06    -87.6115E+06    -3.74080E+06    -282.523E+03    -117.115E-03     230.940E-03    -113.825E-03     139.601E-03    -119.222E-03     232.581E-03    -113.649E-03     134.017E-03
            1536     8.03288E-03     57.6268E-03    -50.5973E+06    -118.868E+06    -8.95120E+06    -228.278E+03    -116.789E-03     230.652E-03    -113.863E-03     127.174E-03    -118.353E-03     231.640E-03    -113.662E-03     122.423E-03
            1537     7.22978E-03     57.4926E-03    -54.8435E+06    -144.219E+06    -14.5127E+06     66.2402E+03    -116.376E-03     230.262E-03    -113.887E-03     114.680E-03    -117.521E-03     230.743E-03    -113.671E-03     110.675E-03
            1538     6.42632E-03     57.3713E-03    -59.3529E+06    -170.998E+06    -20.0101E+06     216.563E+03    -115.885E-03     229.800E-03    -113.915E-03     102.287E-03    -116.704E-03     229.859E-03    -113.681E-03     98.9400E-03
            1539     5.62287E-03     57.2640E-03    -64.3072E+06    -187.159E+06    -28.3730E+06     183.115E+03    -115.384E-03     229.308E-03    -113.923E-03     90.1480E-03    -115.960E-03     229.073E-03    -113.701E-03     87.3855E-03
            1540     4.81947E-03     57.1695E-03    -69.1275E+06    -197.566E+06    -38.2518E+06     315.584E+03    -115.001E-03     228.923E-03    -113.923E-03     77.7945E-03    -115.395E-03     228.482E-03    -113.727E-03     75.5451E-03
            1541     4.01600E-03     57.0895E-03    -73.8747E+06    -213.393E+06    -48.6942E+06     692.536E+03    -114.734E-03     228.653E-03    -113.919E-03     65.2306E-03    -114.981E-03     228.022E-03    -113.746E-03     63.4411E-03
            1542     3.21296E-03     57.0230E-03    -79.1568E+06    -228.909E+06    -60.4550E+06     807.884E+03    -114.459E-03     228.356E-03    -113.897E-03     52.5678E-03    -114.594E-03     227.573E-03    -113.752E-03     51.1903E-03
            1543     2.40971E-03     56.9709E-03    -83.8275E+06    -236.894E+06    -71.9714E+06     451.493E+03    -114.202E-03     228.057E-03    -113.855E-03     39.7831E-03    -114.261E-03     227.186E-03    -113.749E-03     38.7772E-03
            1544     1.60656E-03     56.9333E-03    -87.2292E+06    -242.873E+06    -81.1590E+06     28.5011E+03    -113.997E-03     227.808E-03    -113.810E-03     26.9759E-03    -114.003E-03     226.877E-03    -113.738E-03     26.3101E-03
            1545     803.312E-06     56.9102E-03    -89.7315E+06    -247.416E+06    -88.1223E+06    -60.2841E+03    -113.907E-03     227.607E-03    -113.701E-03     14.6518E-03    -113.881E-03     226.641E-03    -113.653E-03     14.2944E-03
            1546     15.2635E-03     58.7490E-03    -5.00387E+06     115.457E+06     97.6063E+06    -162.243E+03    -119.863E-03     233.612E-03    -113.749E-03     251.094E-03    -134.469E-03     248.327E-03    -113.421E-03     244.655E-03
            1547     14.4627E-03     58.3627E-03    -11.1221E+06     110.831E+06     97.3273E+06     50.9535E+03    -125.560E-03     239.353E-03    -113.793E-03     329.280E-03    -146.013E-03     259.878E-03    -113.451E-03     317.724E-03
            1548     13.6587E-03     58.0010E-03    -18.1985E+06     95.3048E+06     92.1707E+06     51.9475E+03    -125.670E-03     239.485E-03    -113.816E-03     310.761E-03    -142.093E-03     255.915E-03    -113.466E-03     297.435E-03
            1549     12.8549E-03     57.6616E-03    -24.3470E+06     80.8144E+06     80.6512E+06     261.587E+03    -124.464E-03     238.268E-03    -113.804E-03     284.520E-03    -137.062E-03     250.833E-03    -113.483E-03     271.505E-03
            1550     12.0526E-03     57.3646E-03    -30.2565E+06     60.4882E+06     55.2669E+06     1.11817E+06    -121.541E-03     235.292E-03    -113.751E-03     242.002E-03    -130.157E-03     243.855E-03    -113.518E-03     230.872E-03
            1551     11.2459E-03     57.1238E-03    -35.1028E+06     39.1855E+06     27.8880E+06     1.05967E+06    -118.875E-03     232.575E-03    -113.700E-03     199.207E-03    -124.553E-03     238.187E-03    -113.567E-03     190.050E-03
            1552     10.4439E-03     56.9240E-03    -38.5071E+06     11.0243E+06     11.4300E+06    -15.5764E+03    -117.821E-03     231.522E-03    -113.701E-03     170.165E-03    -121.745E-03     235.315E-03    -113.604E-03     162.484E-03
            1553     9.64024E-03     56.7481E-03    -41.8848E+06    -36.8280E+06     2.40789E+06    -264.900E+03    -117.471E-03     231.219E-03    -113.748E-03     152.442E-03    -120.313E-03     233.775E-03    -113.622E-03     145.906E-03
            1554     8.83640E-03     56.5853E-03    -45.6614E+06    -87.3918E+06    -2.75319E+06    -85.3792E+03    -117.174E-03     230.984E-03    -113.811E-03     139.440E-03    -119.277E-03     232.623E-03    -113.631E-03     133.853E-03
            1555     8.03343E-03     56.4381E-03    -49.8250E+06    -119.166E+06    -8.36895E+06    -1.77159E+03    -116.772E-03     230.615E-03    -113.843E-03     127.082E-03    -118.332E-03     231.599E-03    -113.640E-03     122.334E-03
            1556     7.22956E-03     56.3023E-03    -54.1374E+06    -144.616E+06    -14.3738E+06     130.787E+03    -116.281E-03     230.150E-03    -113.869E-03     114.538E-03    -117.421E-03     230.625E-03    -113.652E-03     110.539E-03
            1557     6.42643E-03     56.1821E-03    -58.9029E+06    -171.324E+06    -19.7830E+06     237.936E+03    -115.889E-03     229.789E-03    -113.900E-03     102.201E-03    -116.705E-03     229.846E-03    -113.665E-03     98.8531E-03
            1558     5.62309E-03     56.0742E-03    -64.1658E+06    -186.635E+06    -27.3139E+06     179.947E+03    -115.483E-03     229.384E-03    -113.901E-03     90.0113E-03    -116.061E-03     229.151E-03    -113.674E-03     87.2429E-03
            1559     4.81967E-03     55.9804E-03    -69.7466E+06    -197.779E+06    -38.0171E+06    -42.4880E+03    -115.026E-03     228.908E-03    -113.882E-03     77.6760E-03    -115.423E-03     228.465E-03    -113.684E-03     75.4234E-03
            1560     4.01643E-03     55.8996E-03    -74.8457E+06    -214.424E+06    -49.2801E+06     379.148E+03    -114.682E-03     228.552E-03    -113.870E-03     65.1853E-03    -114.931E-03     227.917E-03    -113.697E-03     63.3925E-03
            1561     3.21312E-03     55.8335E-03    -79.0805E+06    -228.532E+06    -59.6178E+06     843.099E+03    -114.403E-03     228.255E-03    -113.852E-03     52.5875E-03    -114.539E-03     227.472E-03    -113.704E-03     51.2107E-03
            1562     2.40981E-03     55.7815E-03    -83.1501E+06    -236.093E+06    -71.0408E+06     543.661E+03    -114.125E-03     227.941E-03    -113.815E-03     39.8326E-03    -114.183E-03     227.071E-03    -113.708E-03     38.8293E-03
            1563     1.60648E-03     55.7438E-03    -86.9331E+06    -242.678E+06    -81.0622E+06     277.545E+03    -113.918E-03     227.708E-03    -113.789E-03     26.9872E-03    -113.924E-03     226.778E-03    -113.717E-03     26.3253E-03
            1564     803.227E-06     55.7209E-03    -89.5092E+06    -247.183E+06    -87.8761E+06     225.920E+03    -113.917E-03     227.597E-03    -113.680E-03     14.7283E-03    -113.891E-03     226.631E-03    -113.632E-03     14.3760E-03
            1565     15.2685E-03     57.5626E-03    -5.03811E+06     115.196E+06     96.9696E+06     270.061E+03    -120.068E-03     233.824E-03    -113.755E-03     250.975E-03    -134.702E-03     248.567E-03    -113.430E-03     244.471E-03
            1566     14.4619E-03     57.1711E-03    -11.3139E+06     110.648E+06     96.8113E+06     153.863E+03    -125.735E-03     239.517E-03    -113.782E-03     328.299E-03    -146.170E-03     260.023E-03    -113.442E-03     316.715E-03
            1567     13.6593E-03     56.8114E-03    -17.2084E+06     95.9777E+06     92.3405E+06     63.2651E+03    -125.337E-03     239.141E-03    -113.804E-03     310.655E-03    -141.721E-03     255.537E-03    -113.456E-03     297.386E-03
            1568     12.8557E-03     56.4720E-03    -23.6765E+06     79.3208E+06     80.1246E+06     240.365E+03    -124.096E-03     237.913E-03    -113.818E-03     284.999E-03    -136.675E-03     250.458E-03    -113.498E-03     272.043E-03
            1569     12.0497E-03     56.1751E-03    -29.3146E+06     59.6370E+06     56.4072E+06     737.868E+03    -121.658E-03     235.443E-03    -113.785E-03     242.436E-03    -130.281E-03     244.010E-03    -113.547E-03     231.296E-03
            1570     11.2483E-03     55.9347E-03    -33.4520E+06     40.5786E+06     30.0053E+06     272.393E+03    -119.305E-03     233.023E-03    -113.718E-03     199.026E-03    -124.993E-03     238.650E-03    -113.579E-03     189.811E-03
            1571     10.4429E-03     55.7340E-03    -37.2575E+06     11.4622E+06     12.4007E+06    -4.07844E+03    -117.999E-03     231.690E-03    -113.691E-03     169.761E-03    -121.917E-03     235.480E-03    -113.592E-03     162.066E-03
            1572     9.64011E-03     55.5573E-03    -41.3920E+06    -37.0020E+06     3.00036E+06     110.861E+03    -117.466E-03     231.195E-03    -113.728E-03     152.232E-03    -120.307E-03     233.748E-03    -113.600E-03     145.698E-03
            1573     8.83700E-03     55.3968E-03    -45.5306E+06    -87.4980E+06    -2.43744E+06     144.201E+03    -117.185E-03     230.971E-03    -113.786E-03     139.347E-03    -119.289E-03     232.609E-03    -113.605E-03     133.761E-03
            1574     8.03317E-03     55.2472E-03    -49.5835E+06    -119.211E+06    -7.80102E+06     41.9877E+03    -116.742E-03     230.558E-03    -113.817E-03     126.852E-03    -118.300E-03     231.540E-03    -113.611E-03     122.104E-03
            1575     7.23033E-03     55.1138E-03    -53.9444E+06    -145.251E+06    -14.0837E+06     155.489E+03    -116.249E-03     230.089E-03    -113.840E-03     114.397E-03    -117.386E-03     230.560E-03    -113.622E-03     110.401E-03
            1576     6.42635E-03     54.9920E-03    -58.5831E+06    -171.630E+06    -19.4068E+06     372.713E+03    -115.853E-03     229.725E-03    -113.872E-03     102.104E-03    -116.667E-03     229.777E-03    -113.635E-03     98.7606E-03
            1577     5.62324E-03     54.8848E-03    -63.6981E+06    -185.974E+06    -26.2907E+06     354.589E+03    -115.478E-03     229.350E-03    -113.872E-03     89.9456E-03    -116.057E-03     229.118E-03    -113.641E-03     87.1789E-03
            1578     4.82006E-03     54.7907E-03    -69.1275E+06    -197.625E+06    -37.0628E+06     420.639E+03    -115.060E-03     228.905E-03    -113.845E-03     77.7524E-03    -115.456E-03     228.462E-03    -113.644E-03     75.5044E-03
            1579     4.01659E-03     54.7105E-03    -74.5443E+06    -214.713E+06    -49.0961E+06     172.922E+03    -114.642E-03     228.466E-03    -113.824E-03     65.2899E-03    -114.890E-03     227.829E-03    -113.650E-03     63.4973E-03
            1580     3.21310E-03     54.6440E-03    -79.3874E+06    -228.562E+06    -60.0226E+06    -82.2031E+03    -114.322E-03     228.130E-03    -113.808E-03     52.6006E-03    -114.459E-03     227.348E-03    -113.662E-03     51.2160E-03
            1581     2.40991E-03     54.5920E-03    -83.4617E+06    -236.086E+06    -70.9792E+06     273.558E+03    -114.065E-03     227.848E-03    -113.783E-03     39.7552E-03    -114.125E-03     226.979E-03    -113.675E-03     38.7491E-03
            1582     1.60656E-03     54.5547E-03    -86.8261E+06    -242.304E+06    -80.4385E+06     430.657E+03    -113.872E-03     227.640E-03    -113.768E-03     26.9518E-03    -113.878E-03     226.711E-03    -113.693E-03     26.2927E-03
            1583     803.220E-06     54.5312E-03    -88.9704E+06    -246.612E+06    -87.2980E+06     185.789E+03    -113.826E-03     227.562E-03    -113.736E-03     14.6713E-03    -113.799E-03     226.597E-03    -113.686E-03     14.3183E-03
            1584     15.2638E-03     56.3667E-03    -5.44273E+06     114.868E+06     96.7423E+06     490.154E+03    -120.171E-03     233.909E-03    -113.738E-03     251.381E-03    -134.796E-03     248.642E-03    -113.413E-03     244.902E-03
            1585     14.4645E-03     55.9838E-03    -10.5225E+06     111.159E+06     97.0468E+06    -42.8739E+03    -125.215E-03     238.995E-03    -113.781E-03     329.258E-03    -145.648E-03     259.504E-03    -113.441E-03     317.749E-03
            1586     13.6589E-03     55.6209E-03    -16.2812E+06     95.8333E+06     92.3176E+06     371.070E+03    -125.192E-03     239.025E-03    -113.833E-03     311.927E-03    -141.607E-03     255.455E-03    -113.487E-03     298.685E-03
            1587     12.8537E-03     55.2837E-03    -23.1095E+06     79.3626E+06     80.8147E+06     473.212E+03    -124.384E-03     238.238E-03    -113.853E-03     284.831E-03    -136.978E-03     250.796E-03    -113.531E-03     271.845E-03
            1588     12.0512E-03     54.9851E-03    -28.8324E+06     59.6598E+06     56.8137E+06    -309.622E+03    -122.063E-03     235.857E-03    -113.794E-03     241.805E-03    -130.698E-03     244.436E-03    -113.555E-03     230.591E-03
            1589     11.2460E-03     54.7437E-03    -33.7340E+06     40.3626E+06     29.2194E+06    -231.499E+03    -119.474E-03     233.171E-03    -113.697E-03     198.521E-03    -125.161E-03     238.797E-03    -113.560E-03     189.275E-03
            1590     10.4450E-03     54.5442E-03    -38.1777E+06     11.3274E+06     11.7189E+06     121.299E+03    -117.997E-03     231.657E-03    -113.660E-03     169.657E-03    -121.919E-03     235.450E-03    -113.563E-03     161.959E-03
            1591     9.64048E-03     54.3685E-03    -41.9120E+06    -37.1803E+06     2.72721E+06     250.496E+03    -117.438E-03     231.135E-03    -113.697E-03     152.145E-03    -120.279E-03     233.688E-03    -113.569E-03     145.614E-03
            1592     8.83695E-03     54.2058E-03    -45.7640E+06    -87.4412E+06    -2.46068E+06     344.659E+03    -117.150E-03     230.904E-03    -113.754E-03     139.184E-03    -119.254E-03     232.542E-03    -113.573E-03     133.601E-03
            1593     8.03410E-03     54.0589E-03    -50.3264E+06    -119.199E+06    -8.01917E+06     214.938E+03    -116.716E-03     230.499E-03    -113.783E-03     126.741E-03    -118.276E-03     231.481E-03    -113.577E-03     121.999E-03
            1594     7.22987E-03     53.9234E-03    -55.0773E+06    -145.513E+06    -14.0923E+06     184.299E+03    -116.257E-03     230.062E-03    -113.805E-03     114.314E-03    -117.399E-03     230.532E-03    -113.585E-03     110.319E-03
            1595     6.42721E-03     53.8031E-03    -59.9591E+06    -171.197E+06    -20.3423E+06    -16.9641E+03    -115.798E-03     229.626E-03    -113.828E-03     102.124E-03    -116.617E-03     229.683E-03    -113.595E-03     98.7799E-03
            1596     5.62336E-03     53.6952E-03    -64.5811E+06    -186.251E+06    -28.5988E+06    -196.482E+03    -115.365E-03     229.193E-03    -113.829E-03     90.0029E-03    -115.942E-03     228.963E-03    -113.608E-03     87.2372E-03
            1597     4.81990E-03     53.6013E-03    -69.1899E+06    -198.373E+06    -38.4870E+06     275.044E+03    -115.006E-03     228.820E-03    -113.814E-03     77.7168E-03    -115.399E-03     228.375E-03    -113.619E-03     75.4673E-03
            1598     4.01667E-03     53.5211E-03    -73.9717E+06    -213.689E+06    -48.5828E+06     434.661E+03    -114.679E-03     228.475E-03    -113.796E-03     65.2795E-03    -114.926E-03     227.841E-03    -113.622E-03     63.4914E-03
            1599     3.21350E-03     53.4548E-03    -79.1971E+06    -228.500E+06    -60.3765E+06    -91.7581E+03    -114.312E-03     228.080E-03    -113.767E-03     52.5671E-03    -114.447E-03     227.298E-03    -113.623E-03     51.1833E-03
            1600     2.40992E-03     53.4029E-03    -83.6973E+06    -236.579E+06    -71.9507E+06    -264.731E+03    -114.005E-03     227.746E-03    -113.741E-03     39.7680E-03    -114.064E-03     226.876E-03    -113.636E-03     38.7564E-03
            1601     1.60663E-03     53.3653E-03    -86.7145E+06    -242.145E+06    -80.4510E+06    -95.6816E+03    -113.858E-03     227.584E-03    -113.726E-03     26.9948E-03    -113.863E-03     226.656E-03    -113.652E-03     26.3291E-03
            1602     803.346E-06     53.3422E-03    -88.8175E+06    -246.566E+06    -87.2410E+06     77.3441E+03    -113.789E-03     227.467E-03    -113.679E-03     14.6819E-03    -113.762E-03     226.503E-03    -113.628E-03     14.3277E-03
            1603     15.2704E-03     55.1822E-03    -3.79408E+06     115.018E+06     97.6117E+06     528.620E+03    -119.699E-03     233.448E-03    -113.749E-03     251.962E-03    -134.278E-03     248.139E-03    -113.423E-03     245.578E-03
            1604     14.4602E-03     54.7927E-03    -10.0652E+06     111.376E+06     97.0452E+06     739.266E+03    -125.022E-03     238.841E-03    -113.819E-03     329.943E-03    -145.412E-03     259.309E-03    -113.481E-03     318.504E-03
            1605     13.6568E-03     54.4316E-03    -16.8632E+06     95.3369E+06     92.4300E+06     574.586E+03    -125.734E-03     239.600E-03    -113.866E-03     310.874E-03    -142.147E-03     256.023E-03    -113.518E-03     297.560E-03
            1606     12.8547E-03     54.0926E-03    -22.9479E+06     80.8399E+06     81.7819E+06    -44.7596E+03    -124.848E-03     238.691E-03    -113.843E-03     283.345E-03    -137.442E-03     251.254E-03    -113.518E-03     270.270E-03
            1607     12.0509E-03     53.7952E-03    -28.9698E+06     60.0759E+06     56.4727E+06    -571.262E+03    -122.033E-03     235.786E-03    -113.753E-03     241.342E-03    -130.665E-03     244.365E-03    -113.516E-03     230.116E-03
            1608     11.2493E-03     53.5543E-03    -34.1886E+06     39.1841E+06     28.2586E+06    -235.502E+03    -119.275E-03     232.934E-03    -113.660E-03     198.696E-03    -124.960E-03     238.555E-03    -113.526E-03     189.469E-03
            1609     10.4431E-03     53.3543E-03    -38.2791E+06     11.0879E+06     11.2984E+06     170.550E+03    -117.970E-03     231.600E-03    -113.630E-03     169.443E-03    -121.887E-03     235.387E-03    -113.534E-03     161.752E-03
            1610     9.64101E-03     53.1780E-03    -42.1983E+06    -37.4980E+06     2.25884E+06     298.063E+03    -117.423E-03     231.089E-03    -113.665E-03     152.151E-03    -120.264E-03     233.640E-03    -113.539E-03     145.623E-03
            1611     8.83763E-03     53.0172E-03    -46.1069E+06    -87.6220E+06    -2.77672E+06     391.977E+03    -117.110E-03     230.833E-03    -113.723E-03     139.242E-03    -119.213E-03     232.470E-03    -113.543E-03     133.666E-03
            1612     8.03353E-03     52.8684E-03    -50.0117E+06    -119.158E+06    -7.97099E+06     641.223E+03    -116.707E-03     230.459E-03    -113.753E-03     126.679E-03    -118.263E-03     231.438E-03    -113.547E-03     121.947E-03
            1613     7.23109E-03     52.7347E-03    -54.3658E+06    -145.101E+06    -14.1560E+06     435.299E+03    -116.216E-03     229.989E-03    -113.773E-03     114.374E-03    -117.354E-03     230.460E-03    -113.554E-03     110.386E-03
            1614     6.42671E-03     52.6134E-03    -58.8572E+06    -170.521E+06    -20.1090E+06    -10.5911E+03    -115.786E-03     229.583E-03    -113.797E-03     102.226E-03    -116.600E-03     229.642E-03    -113.565E-03     98.8863E-03
            1615     5.62372E-03     52.5061E-03    -64.1455E+06    -186.543E+06    -28.8497E+06     51.5237E+03    -115.365E-03     229.160E-03    -113.795E-03     89.9948E-03    -115.939E-03     228.928E-03    -113.576E-03     87.2340E-03
            1616     4.82022E-03     52.4120E-03    -69.8113E+06    -198.761E+06    -39.2344E+06    -49.5762E+03    -114.956E-03     228.735E-03    -113.779E-03     77.6596E-03    -115.350E-03     228.289E-03    -113.586E-03     75.4103E-03
            1617     4.01675E-03     52.3316E-03    -74.7757E+06    -213.708E+06    -48.7467E+06    -130.810E+03    -114.608E-03     228.376E-03    -113.768E-03     65.1910E-03    -114.858E-03     227.743E-03    -113.593E-03     63.3964E-03
            1618     3.21335E-03     52.2655E-03    -79.0983E+06    -228.112E+06    -59.8497E+06    -4.46155E+03    -114.296E-03     228.039E-03    -113.743E-03     52.5248E-03    -114.432E-03     227.258E-03    -113.597E-03     51.1425E-03
            1619     2.41013E-03     52.2139E-03    -83.2489E+06    -236.607E+06    -72.3742E+06    -162.435E+03    -114.025E-03     227.726E-03    -113.701E-03     39.7744E-03    -114.080E-03     226.856E-03    -113.599E-03     38.7654E-03
            1620     1.60664E-03     52.1760E-03    -86.7823E+06    -242.773E+06    -81.5656E+06    -193.685E+03    -113.805E-03     227.484E-03    -113.679E-03     26.9839E-03    -113.809E-03     226.554E-03    -113.609E-03     26.3188E-03
            1621     803.329E-06     52.1530E-03    -88.8738E+06    -246.612E+06    -87.3758E+06    -74.4702E+03    -113.778E-03     227.388E-03    -113.610E-03     14.7653E-03    -113.751E-03     226.423E-03    -113.560E-03     14.4101E-03
            1622     15.2622E-03     53.9918E-03    -4.50065E+06     114.064E+06     96.4362E+06     189.272E+03    -119.906E-03     233.686E-03    -113.780E-03     251.759E-03    -134.464E-03     248.353E-03    -113.457E-03     245.313E-03
            1623     14.4625E-03     53.6037E-03    -10.6445E+06     111.419E+06     97.0695E+06     664.106E+03    -125.949E-03     239.764E-03    -113.815E-03     328.517E-03    -146.331E-03     260.223E-03    -113.476E-03     316.954E-03
            1624     13.6593E-03     53.2413E-03    -16.2151E+06     95.5485E+06     92.9462E+06    -211.733E+03    -125.830E-03     239.649E-03    -113.819E-03     309.715E-03    -142.236E-03     256.067E-03    -113.469E-03     296.356E-03
            1625     12.8557E-03     52.9019E-03    -21.8787E+06     80.9619E+06     81.8709E+06    -78.2441E+03    -124.452E-03     238.246E-03    -113.794E-03     283.410E-03    -137.027E-03     250.794E-03    -113.470E-03     270.383E-03
            1626     12.0525E-03     52.6066E-03    -28.0913E+06     60.5995E+06     56.7454E+06     181.030E+03    -121.919E-03     235.640E-03    -113.722E-03     241.904E-03    -130.556E-03     244.229E-03    -113.485E-03     230.703E-03
            1627     11.2463E-03     52.3637E-03    -33.5722E+06     38.5140E+06     28.5552E+06     139.263E+03    -119.342E-03     232.975E-03    -113.633E-03     198.798E-03    -125.023E-03     238.591E-03    -113.497E-03     189.575E-03
            1628     10.4459E-03     52.1647E-03    -38.1619E+06     10.8242E+06     11.4535E+06     567.779E+03    -117.832E-03     231.437E-03    -113.605E-03     169.503E-03    -121.737E-03     235.212E-03    -113.508E-03     161.842E-03
            1629     9.64085E-03     51.9890E-03    -42.0150E+06    -37.2982E+06     2.38707E+06     399.193E+03    -117.385E-03     231.031E-03    -113.646E-03     152.251E-03    -120.223E-03     233.581E-03    -113.519E-03     145.731E-03
            1630     8.83730E-03     51.8269E-03    -45.6304E+06    -87.9121E+06    -2.95096E+06     381.275E+03    -117.121E-03     230.824E-03    -113.703E-03     139.252E-03    -119.220E-03     232.457E-03    -113.524E-03     133.680E-03
            1631     8.03472E-03     51.6795E-03    -49.4048E+06    -119.249E+06    -8.30280E+06     518.695E+03    -116.668E-03     230.399E-03    -113.731E-03     126.729E-03    -118.220E-03     231.377E-03    -113.528E-03     122.001E-03
            1632     7.23003E-03     51.5450E-03    -53.3531E+06    -144.182E+06    -14.0221E+06     392.945E+03    -116.235E-03     229.986E-03    -113.751E-03     114.355E-03    -117.369E-03     230.459E-03    -113.535E-03     110.367E-03
            1633     6.42751E-03     51.4242E-03    -58.2301E+06    -171.148E+06    -19.8305E+06     449.238E+03    -115.830E-03     229.602E-03    -113.773E-03     102.116E-03    -116.639E-03     229.655E-03    -113.539E-03     98.7827E-03
            1634     5.62367E-03     51.3167E-03    -63.4722E+06    -186.839E+06    -27.6561E+06     779.465E+03    -115.383E-03     229.150E-03    -113.766E-03     89.8893E-03    -115.955E-03     228.913E-03    -113.541E-03     87.1388E-03
            1635     4.82037E-03     51.2227E-03    -68.6698E+06    -197.414E+06    -37.7060E+06     522.904E+03    -114.935E-03     228.678E-03    -113.743E-03     77.6262E-03    -115.327E-03     228.235E-03    -113.546E-03     75.3874E-03
            1636     4.01701E-03     51.1425E-03    -74.2588E+06    -213.681E+06    -48.7231E+06    -380.851E+03    -114.529E-03     228.259E-03    -113.730E-03     65.1371E-03    -114.776E-03     227.625E-03    -113.556E-03     63.3422E-03
            1637     3.21349E-03     51.0764E-03    -79.4595E+06    -228.730E+06    -60.5718E+06    -405.718E+03    -114.248E-03     227.957E-03    -113.709E-03     52.4526E-03    -114.383E-03     227.174E-03    -113.565E-03     51.0673E-03
            1638     2.41010E-03     51.0244E-03    -83.5803E+06    -236.790E+06    -72.2291E+06     115.086E+03    -114.026E-03     227.693E-03    -113.666E-03     39.6869E-03    -114.083E-03     226.822E-03    -113.563E-03     38.6817E-03
            1639     1.60689E-03     50.9873E-03    -86.9354E+06    -242.675E+06    -81.1481E+06     149.692E+03    -113.806E-03     227.429E-03    -113.622E-03     26.9189E-03    -113.811E-03     226.499E-03    -113.550E-03     26.2592E-03
            1640     803.284E-06     50.9637E-03    -89.2974E+06    -246.903E+06    -87.7885E+06    -55.7031E+03    -113.710E-03     227.236E-03    -113.525E-03     14.6440E-03    -113.684E-03     226.270E-03    -113.477E-03     14.2896E-03
            1641     15.2678E-03     52.8001E-03    -6.57682E+06     113.780E+06     95.6046E+06    -445.502E+03    -120.947E-03     234.717E-03    -113.770E-03     250.695E-03    -135.574E-03     249.447E-03    -113.447E-03     244.104E-03
            1642     14.4630E-03     52.4142E-03    -11.3018E+06     110.678E+06     97.1025E+06    -1.41779E+06    -126.015E-03     239.782E-03    -113.766E-03     328.379E-03    -146.508E-03     260.345E-03    -113.425E-03     316.713E-03
            1643     13.6599E-03     52.0499E-03    -16.4195E+06     95.0720E+06     92.6700E+06    -792.227E+03    -125.319E-03     239.099E-03    -113.780E-03     311.004E-03    -141.753E-03     255.544E-03    -113.431E-03     297.704E-03
            1644     12.8556E-03     51.7146E-03    -23.4586E+06     79.7987E+06     80.3800E+06    -501.645E+03    -124.376E-03     238.155E-03    -113.780E-03     284.627E-03    -136.977E-03     250.723E-03    -113.459E-03     271.615E-03
            1645     12.0504E-03     51.4147E-03    -29.5134E+06     60.0823E+06     55.7772E+06    -200.839E+03    -122.183E-03     235.891E-03    -113.708E-03     241.815E-03    -130.820E-03     244.475E-03    -113.473E-03     230.586E-03
            1646     11.2505E-03     51.1749E-03    -34.5109E+06     38.2474E+06     28.5023E+06     281.751E+03    -119.250E-03     232.866E-03    -113.615E-03     198.600E-03    -124.919E-03     238.465E-03    -113.478E-03     189.403E-03
            1647     10.4432E-03     50.9751E-03    -38.3168E+06     10.8190E+06     11.6811E+06     147.644E+03    -117.813E-03     231.403E-03    -113.590E-03     169.664E-03    -121.719E-03     235.177E-03    -113.492E-03     162.003E-03
            1648     9.64124E-03     50.7987E-03    -41.5918E+06    -37.3452E+06     2.31027E+06     343.557E+03    -117.415E-03     231.042E-03    -113.627E-03     152.124E-03    -120.247E-03     233.587E-03    -113.501E-03     145.609E-03
            1649     8.83803E-03     50.6378E-03    -45.4292E+06    -87.9377E+06    -3.11371E+06     517.246E+03    -117.047E-03     230.730E-03    -113.683E-03     139.004E-03    -119.141E-03     232.359E-03    -113.505E-03     133.441E-03
            1650     8.03353E-03     50.4898E-03    -49.6915E+06    -119.109E+06    -8.68742E+06     366.668E+03    -116.643E-03     230.355E-03    -113.713E-03     126.598E-03    -118.194E-03     231.332E-03    -113.511E-03     121.873E-03
            1651     7.23139E-03     50.3557E-03    -54.3569E+06    -144.500E+06    -14.5936E+06     543.464E+03    -116.303E-03     230.031E-03    -113.728E-03     114.267E-03    -117.440E-03     230.504E-03    -113.512E-03     110.281E-03
            1652     6.42714E-03     50.2348E-03    -59.2798E+06    -171.030E+06    -20.2419E+06     799.665E+03    -115.860E-03     229.599E-03    -113.739E-03     101.973E-03    -116.674E-03     229.655E-03    -113.506E-03     98.6430E-03
            1653     5.62416E-03     50.1275E-03    -64.2387E+06    -186.913E+06    -28.3259E+06     483.572E+03    -115.360E-03     229.085E-03    -113.725E-03     89.8210E-03    -115.933E-03     228.849E-03    -113.502E-03     87.0702E-03
            1654     4.82061E-03     50.0335E-03    -68.5811E+06    -197.108E+06    -37.8308E+06     150.672E+03    -114.898E-03     228.599E-03    -113.701E-03     77.5178E-03    -115.289E-03     228.156E-03    -113.504E-03     75.2755E-03
            1655     4.01702E-03     49.9535E-03    -73.2622E+06    -213.092E+06    -48.5777E+06     389.830E+03    -114.524E-03     228.206E-03    -113.682E-03     65.0423E-03    -114.767E-03     227.573E-03    -113.510E-03     63.2606E-03
            1656     3.21371E-03     49.8872E-03    -78.8404E+06    -228.966E+06    -60.7708E+06     432.116E+03    -114.211E-03     227.867E-03    -113.656E-03     52.3800E-03    -114.342E-03     227.082E-03    -113.514E-03     51.0079E-03
            1657     2.41026E-03     49.8355E-03    -83.7016E+06    -236.852E+06    -72.0879E+06     71.8455E+03    -113.946E-03     227.565E-03    -113.619E-03     39.6142E-03    -114.003E-03     226.693E-03    -113.515E-03     38.6107E-03
            1658     1.60676E-03     49.7979E-03    -87.1303E+06    -242.504E+06    -80.8110E+06    -17.0796E+03    -113.786E-03     227.358E-03    -113.572E-03     26.8986E-03    -113.792E-03     226.429E-03    -113.498E-03     26.2363E-03
            1659     803.725E-06     49.7751E-03    -89.5429E+06    -246.956E+06    -87.7031E+06     105.467E+03    -113.689E-03     227.115E-03    -113.426E-03     14.5888E-03    -113.664E-03     226.150E-03    -113.377E-03     14.2362E-03
            1660     15.2661E-03     51.6135E-03    -5.18265E+06     115.812E+06     97.5508E+06    -178.813E+03    -121.041E-03     234.805E-03    -113.764E-03     252.014E-03    -135.770E-03     249.644E-03    -113.437E-03     245.408E-03
            1661     14.4636E-03     51.2201E-03    -10.1133E+06     110.320E+06     97.6157E+06    -859.003E+03    -125.738E-03     239.512E-03    -113.774E-03     329.482E-03    -146.234E-03     260.081E-03    -113.431E-03     317.865E-03
            1662     13.6590E-03     50.8647E-03    -17.4016E+06     93.8446E+06     91.8214E+06    -478.805E+03    -125.421E-03     239.219E-03    -113.798E-03     310.989E-03    -141.815E-03     255.618E-03    -113.449E-03     297.713E-03
            1663     12.8541E-03     50.5215E-03    -23.8588E+06     80.2703E+06     80.4501E+06    -407.693E+03    -124.823E-03     238.607E-03    -113.784E-03     284.645E-03    -137.434E-03     251.184E-03    -113.463E-03     271.572E-03
            1664     12.0540E-03     50.2260E-03    -30.2387E+06     59.1619E+06     55.4379E+06    -396.645E+03    -122.168E-03     235.866E-03    -113.698E-03     241.583E-03    -130.790E-03     244.429E-03    -113.463E-03     230.365E-03
            1665     11.2461E-03     49.9848E-03    -35.0219E+06     38.2114E+06     28.1448E+06    -527.185E+03    -119.302E-03     232.902E-03    -113.600E-03     198.454E-03    -124.970E-03     238.500E-03    -113.464E-03     189.244E-03
            1666     10.4463E-03     49.7855E-03    -38.6122E+06     10.2506E+06     11.0386E+06    -466.046E+03    -117.930E-03     231.494E-03    -113.565E-03     169.437E-03    -121.836E-03     235.268E-03    -113.468E-03     161.757E-03
            1667     9.64140E-03     49.6094E-03    -42.5571E+06    -38.1873E+06     1.55089E+06     205.028E+03    -117.354E-03     230.951E-03    -113.597E-03     151.867E-03    -120.183E-03     233.488E-03    -113.472E-03     145.359E-03
            1668     8.83763E-03     49.4480E-03    -46.4913E+06    -87.8497E+06    -3.46252E+06     500.611E+03    -117.010E-03     230.663E-03    -113.653E-03     138.774E-03    -119.105E-03     232.292E-03    -113.476E-03     133.217E-03
            1669     8.03513E-03     49.3009E-03    -50.6837E+06    -119.081E+06    -8.76967E+06     437.120E+03    -116.662E-03     230.342E-03    -113.680E-03     126.403E-03    -118.217E-03     231.319E-03    -113.478E-03     121.679E-03
            1670     7.23037E-03     49.1659E-03    -54.6533E+06    -145.073E+06    -14.7747E+06     383.202E+03    -116.254E-03     229.945E-03    -113.691E-03     114.099E-03    -117.389E-03     230.414E-03    -113.475E-03     110.116E-03
            1671     6.42798E-03     49.0456E-03    -58.8330E+06    -170.795E+06    -19.9837E+06     702.119E+03    -115.833E-03     229.535E-03    -113.702E-03     101.818E-03    -116.645E-03     229.589E-03    -113.469E-03     98.4886E-03
            1672     5.62414E-03     48.9382E-03    -63.5383E+06    -185.785E+06    -27.6612E+06     201.530E+03    -115.353E-03     229.036E-03    -113.684E-03     89.6940E-03    -115.925E-03     228.803E-03    -113.461E-03     86.9399E-03
            1673     4.82077E-03     48.8445E-03    -68.9524E+06    -197.654E+06    -38.2096E+06    -253.317E+03    -114.899E-03     228.550E-03    -113.651E-03     77.4109E-03    -115.290E-03     228.105E-03    -113.455E-03     75.1671E-03
            1674     4.01744E-03     48.7644E-03    -74.1478E+06    -213.879E+06    -48.9625E+06     668.200E+03    -114.511E-03     228.134E-03    -113.623E-03     64.8984E-03    -114.755E-03     227.498E-03    -113.450E-03     63.1217E-03
            1675     3.21387E-03     48.6984E-03    -78.6748E+06    -228.169E+06    -59.7041E+06     959.891E+03    -114.155E-03     227.748E-03    -113.593E-03     52.2628E-03    -114.287E-03     226.965E-03    -113.447E-03     50.9009E-03
            1676     2.41042E-03     48.6466E-03    -83.0732E+06    -236.095E+06    -71.3450E+06     480.092E+03    -113.875E-03     227.427E-03    -113.553E-03     39.5420E-03    -113.931E-03     226.557E-03    -113.446E-03     38.5463E-03
            1677     1.60700E-03     48.6092E-03    -86.8496E+06    -242.567E+06    -81.1822E+06     154.294E+03    -113.655E-03     227.179E-03    -113.524E-03     26.8123E-03    -113.659E-03     226.249E-03    -113.452E-03     26.1535E-03
            1678     803.226E-06     48.5860E-03    -89.2136E+06    -246.813E+06    -87.6591E+06    -87.4608E+03    -113.593E-03     227.065E-03    -113.472E-03     14.5345E-03    -113.567E-03     226.100E-03    -113.423E-03     14.1780E-03
            1679     15.2650E-03     50.4153E-03    -5.09258E+06     115.766E+06     96.9107E+06    -336.176E+03    -119.844E-03     233.616E-03    -113.772E-03     253.235E-03    -134.529E-03     248.413E-03    -113.448E-03     246.715E-03
            1680     14.4619E-03     50.0345E-03    -10.9261E+06     109.446E+06     96.4868E+06    -324.150E+03    -126.026E-03     239.825E-03    -113.799E-03     327.316E-03    -146.336E-03     260.205E-03    -113.459E-03     315.702E-03
            1681     13.6580E-03     49.6707E-03    -17.2626E+06     94.3012E+06     92.0445E+06    -161.029E+03    -125.911E-03     239.704E-03    -113.793E-03     310.042E-03    -142.268E-03     256.068E-03    -113.445E-03     296.707E-03
            1682     12.8575E-03     49.3339E-03    -23.9729E+06     80.6179E+06     81.0432E+06    -230.388E+03    -124.796E-03     238.558E-03    -113.761E-03     284.038E-03    -137.370E-03     251.098E-03    -113.438E-03     270.988E-03
            1683     12.0496E-03     49.0345E-03    -29.6916E+06     59.1870E+06     55.9338E+06    -674.447E+03    -121.963E-03     235.639E-03    -113.677E-03     241.094E-03    -130.560E-03     244.179E-03    -113.440E-03     229.910E-03
            1684     11.2511E-03     48.7957E-03    -34.5061E+06     37.8344E+06     27.3795E+06    -757.746E+03    -119.367E-03     232.941E-03    -113.574E-03     198.132E-03    -125.034E-03     238.540E-03    -113.441E-03     188.907E-03
            1685     10.4440E-03     48.5955E-03    -39.2292E+06     9.16827E+06     10.1494E+06    -43.1208E+03    -117.952E-03     231.485E-03    -113.533E-03     169.370E-03    -121.861E-03     235.257E-03    -113.439E-03     161.691E-03
            1686     9.64194E-03     48.4198E-03    -43.3386E+06    -38.5451E+06     1.51896E+06     293.887E+03    -117.334E-03     230.900E-03    -113.565E-03     151.768E-03    -120.165E-03     233.435E-03    -113.439E-03     145.264E-03
            1687     8.83857E-03     48.2591E-03    -47.2956E+06    -87.8988E+06    -3.89645E+06     282.536E+03    -117.066E-03     230.680E-03    -113.614E-03     138.718E-03    -119.160E-03     232.306E-03    -113.438E-03     133.162E-03
            1688     8.03428E-03     48.1108E-03    -51.0442E+06    -118.935E+06    -8.88270E+06     155.684E+03    -116.704E-03     230.336E-03    -113.632E-03     126.251E-03    -118.259E-03     231.313E-03    -113.430E-03     121.521E-03
            1689     7.23215E-03     47.9774E-03    -55.4596E+06    -145.148E+06    -15.0321E+06     226.989E+03    -116.201E-03     229.838E-03    -113.637E-03     113.877E-03    -117.337E-03     230.306E-03    -113.421E-03     109.897E-03
            1690     6.42757E-03     47.8560E-03    -59.9887E+06    -170.868E+06    -21.1695E+06    -270.557E+03    -115.739E-03     229.383E-03    -113.644E-03     101.646E-03    -116.552E-03     229.438E-03    -113.415E-03     98.3143E-03
            1691     5.62466E-03     47.7493E-03    -64.5002E+06    -185.575E+06    -28.3134E+06    -286.257E+03    -115.348E-03     228.973E-03    -113.625E-03     89.4486E-03    -115.922E-03     228.742E-03    -113.404E-03     86.6903E-03
            1692     4.82110E-03     47.6553E-03    -69.6735E+06    -198.014E+06    -38.8908E+06     467.839E+03    -114.883E-03     228.465E-03    -113.582E-03     77.1523E-03    -115.274E-03     228.019E-03    -113.388E-03     74.9194E-03
            1693     4.01761E-03     47.5755E-03    -74.9788E+06    -214.083E+06    -49.6671E+06     174.851E+03    -114.448E-03     227.996E-03    -113.547E-03     64.7596E-03    -114.695E-03     227.360E-03    -113.376E-03     62.9800E-03
            1694     3.21418E-03     47.5096E-03    -79.4746E+06    -227.948E+06    -59.5734E+06     33.0153E+03    -114.092E-03     227.608E-03    -113.516E-03     52.1543E-03    -114.229E-03     226.826E-03    -113.368E-03     50.7827E-03
            1695     2.41062E-03     47.4578E-03    -83.3550E+06    -235.853E+06    -71.0439E+06     393.819E+03    -113.780E-03     227.254E-03    -113.474E-03     39.4792E-03    -113.838E-03     226.385E-03    -113.366E-03     38.4845E-03
            1696     1.60705E-03     47.4205E-03    -86.5841E+06    -242.078E+06    -80.5234E+06     380.233E+03    -113.560E-03     227.013E-03    -113.453E-03     26.7372E-03    -113.564E-03     226.084E-03    -113.379E-03     26.0833E-03
            1697     803.623E-06     47.3976E-03    -88.9372E+06    -246.596E+06    -87.5228E+06     156.070E+03    -113.488E-03     226.930E-03    -113.441E-03     14.5323E-03    -113.461E-03     225.965E-03    -113.393E-03     14.1812E-03
            1698     15.2658E-03     49.2277E-03    -5.04859E+06     115.190E+06     96.8062E+06     209.311E+03    -119.979E-03     233.669E-03    -113.690E-03     250.878E-03    -134.465E-03     248.266E-03    -113.366E-03     244.458E-03
            1699     14.4627E-03     48.8410E-03    -11.3773E+06     109.484E+06     96.1323E+06    -17.5241E+03    -125.047E-03     238.779E-03    -113.731E-03     326.497E-03    -145.227E-03     259.028E-03    -113.393E-03     315.042E-03
            1700     13.6613E-03     48.4832E-03    -17.6933E+06     94.7666E+06     91.9973E+06    -467.825E+03    -125.826E-03     239.577E-03    -113.750E-03     309.597E-03    -142.144E-03     255.901E-03    -113.402E-03     296.275E-03
            1701     12.8543E-03     48.1420E-03    -23.7505E+06     80.8138E+06     81.2149E+06    -1.05112E+06    -124.568E-03     238.291E-03    -113.723E-03     283.888E-03    -137.142E-03     250.833E-03    -113.400E-03     270.863E-03
            1702     12.0556E-03     47.8468E-03    -29.3319E+06     59.0420E+06     55.5830E+06    -1.09347E+06    -121.912E-03     235.554E-03    -113.642E-03     241.293E-03    -130.525E-03     244.112E-03    -113.408E-03     230.098E-03
            1703     11.2465E-03     47.6048E-03    -34.9347E+06     36.5051E+06     26.7277E+06    -45.5749E+03    -119.307E-03     232.850E-03    -113.543E-03     198.314E-03    -124.970E-03     238.442E-03    -113.412E-03     189.111E-03
            1704     10.4469E-03     47.4061E-03    -39.3533E+06     8.87348E+06     10.1893E+06     515.838E+03    -117.913E-03     231.419E-03    -113.506E-03     169.077E-03    -121.814E-03     235.183E-03    -113.411E-03     161.413E-03
            1705     9.64187E-03     47.2306E-03    -43.1735E+06    -38.4169E+06     1.40943E+06     357.101E+03    -117.392E-03     230.924E-03    -113.532E-03     151.691E-03    -120.219E-03     233.458E-03    -113.407E-03     145.190E-03
            1706     8.83843E-03     47.0691E-03    -46.6470E+06    -87.7302E+06    -3.73861E+06     85.3938E+03    -117.164E-03     230.735E-03    -113.572E-03     138.657E-03    -119.255E-03     232.360E-03    -113.395E-03     133.096E-03
            1707     8.03593E-03     46.9221E-03    -50.7028E+06    -119.274E+06    -9.37012E+06      268.06E+03    -116.761E-03     230.336E-03    -113.575E-03     126.080E-03    -118.310E-03     231.309E-03    -113.375E-03     121.356E-03
            1708     7.23129E-03     46.7874E-03    -54.8738E+06    -144.791E+06    -14.9795E+06     250.290E+03    -116.242E-03     229.811E-03    -113.569E-03     113.583E-03    -117.374E-03     230.277E-03    -113.354E-03     109.604E-03
            1709     6.42888E-03     46.6678E-03    -59.6880E+06    -170.030E+06    -20.9422E+06    -138.357E+03    -115.746E-03     229.309E-03    -113.563E-03     101.388E-03    -116.556E-03     229.364E-03    -113.335E-03     98.0617E-03
            1710     5.62479E-03     46.5596E-03    -65.1643E+06    -186.595E+06    -29.8678E+06    -117.401E+03    -115.263E-03     228.795E-03    -113.532E-03     89.1331E-03    -115.835E-03     228.559E-03    -113.316E-03     86.3849E-03
            1711     4.82167E-03     46.4668E-03    -70.1008E+06    -198.331E+06    -40.0211E+06     51.9923E+03    -114.780E-03     228.268E-03    -113.488E-03     76.8849E-03    -115.170E-03     227.821E-03    -113.299E-03     74.6490E-03
            1712     4.01799E-03     46.3867E-03    -74.5914E+06    -213.136E+06    -49.7126E+06    -107.730E+03    -114.360E-03     227.815E-03    -113.455E-03     64.6092E-03    -114.606E-03     227.184E-03    -113.287E-03     62.8302E-03
            1713     3.21445E-03     46.3209E-03    -79.5207E+06    -228.465E+06    -60.4627E+06    -437.418E+03    -114.003E-03     227.424E-03    -113.421E-03     52.0033E-03    -114.137E-03     226.641E-03    -113.277E-03     50.6281E-03
            1714     2.41085E-03     46.2695E-03    -83.7511E+06    -236.241E+06    -71.6256E+06    -320.359E+03    -113.699E-03     227.077E-03    -113.378E-03     39.3787E-03    -113.757E-03     226.207E-03    -113.272E-03     38.3770E-03
            1715     1.60718E-03     46.2320E-03    -86.8843E+06    -242.006E+06    -80.4238E+06    -165.213E+03    -113.500E-03     226.843E-03    -113.343E-03     26.6402E-03    -113.506E-03     225.914E-03    -113.268E-03     25.9815E-03
            1716     803.513E-06     46.2091E-03    -89.0182E+06    -246.320E+06    -87.0242E+06     11.3200E+03    -113.432E-03     226.682E-03    -113.250E-03     14.5340E-03    -113.406E-03     225.718E-03    -113.199E-03     14.1841E-03
            1717     15.2742E-03     48.0506E-03    -4.98598E+06     115.370E+06     97.5041E+06     165.788E+03    -121.198E-03     234.857E-03    -113.659E-03     252.019E-03    -135.825E-03     249.593E-03    -113.332E-03     245.448E-03
            1718     14.4645E-03     47.6515E-03    -10.0158E+06     111.063E+06     98.0659E+06     1.28966E+06    -125.559E-03     239.242E-03    -113.682E-03     330.461E-03    -145.943E-03     259.699E-03    -113.339E-03     318.961E-03
            1719     13.6588E-03     47.2923E-03    -16.0331E+06     96.2465E+06     93.5737E+06    -15.0075E+03    -125.397E-03     239.110E-03    -113.714E-03     309.743E-03    -141.708E-03     255.436E-03    -113.362E-03     296.497E-03
            1720     12.8589E-03     46.9534E-03    -22.7118E+06     81.1538E+06     81.1519E+06    -756.800E+03    -124.402E-03     238.102E-03    -113.700E-03     284.404E-03    -137.005E-03     250.677E-03    -113.379E-03     271.389E-03
            1721     12.0497E-03     46.6561E-03    -30.1046E+06     57.8213E+06     54.3565E+06    -109.631E+03    -122.024E-03     235.645E-03    -113.622E-03     241.670E-03    -130.639E-03     244.201E-03    -113.390E-03     230.480E-03
            1722     11.2519E-03     46.4156E-03    -35.6222E+06     35.7717E+06     26.6806E+06     175.566E+03    -119.402E-03     232.923E-03    -113.521E-03     198.245E-03    -125.065E-03     238.509E-03    -113.388E-03     189.038E-03
            1723     10.4445E-03     46.2166E-03    -39.5088E+06     9.15039E+06     10.1941E+06     155.319E+03    -117.942E-03     231.417E-03    -113.475E-03     168.960E-03    -121.839E-03     235.176E-03    -113.380E-03     161.299E-03
            1724     9.64260E-03     46.0407E-03    -42.7455E+06    -37.8563E+06     1.47675E+06     29.7583E+03    -117.507E-03     230.997E-03    -113.490E-03     151.463E-03    -120.329E-03     233.529E-03    -113.366E-03     144.954E-03
            1725     8.83928E-03     45.8801E-03    -46.4080E+06    -88.2113E+06    -3.90457E+06     67.2399E+03    -117.235E-03     230.751E-03    -113.517E-03     138.364E-03    -119.318E-03     232.369E-03    -113.341E-03     132.805E-03
            1726     8.03524E-03     45.7319E-03    -50.0495E+06    -119.723E+06    -9.28980E+06     192.968E+03    -116.823E-03     230.329E-03    -113.507E-03     125.704E-03    -118.364E-03     231.295E-03    -113.307E-03     120.981E-03
            1727     7.23315E-03     45.5991E-03    -54.2178E+06    -144.430E+06    -15.0215E+06     153.567E+03    -116.320E-03     229.800E-03    -113.481E-03     113.188E-03    -117.446E-03     230.265E-03    -113.268E-03     109.207E-03
            1728     6.42881E-03     45.4780E-03    -58.7637E+06    -170.074E+06    -20.1067E+06     646.771E+03    -115.754E-03     229.215E-03    -113.461E-03     101.027E-03    -116.559E-03     229.266E-03    -113.230E-03     97.7110E-03
            1729     5.62607E-03     45.3716E-03    -63.9772E+06    -186.504E+06    -28.5028E+06     709.494E+03    -115.137E-03     228.561E-03    -113.424E-03     88.9127E-03    -115.702E-03     228.320E-03    -113.204E-03     86.1846E-03
            1730     4.82188E-03     45.2779E-03    -69.5134E+06    -197.743E+06    -39.2924E+06    -206.505E+03    -114.681E-03     228.057E-03    -113.377E-03     76.6962E-03    -115.068E-03     227.610E-03    -113.186E-03     74.4648E-03
            1731     4.01853E-03     45.1983E-03    -74.7680E+06    -213.310E+06    -49.2468E+06    -434.821E+03    -114.267E-03     227.606E-03    -113.339E-03     64.2783E-03    -114.512E-03     226.971E-03    -113.167E-03     62.4985E-03
            1732     3.21474E-03     45.1326E-03    -79.5356E+06    -228.430E+06    -60.3159E+06    -376.633E+03    -113.895E-03     227.190E-03    -113.296E-03     51.7588E-03    -114.028E-03     226.406E-03    -113.151E-03     50.3897E-03
            1733     2.41112E-03     45.0811E-03    -83.7341E+06    -236.573E+06    -72.0394E+06    -691.394E+03    -113.631E-03     226.865E-03    -113.233E-03     39.0920E-03    -113.688E-03     225.993E-03    -113.129E-03     38.0873E-03
            1734     1.60751E-03     45.0439E-03    -87.2784E+06    -242.637E+06    -81.1455E+06    -559.245E+03    -113.383E-03     226.553E-03    -113.170E-03     26.4614E-03    -113.389E-03     225.623E-03    -113.098E-03     25.8000E-03
            1735     803.892E-06     45.0208E-03    -89.4415E+06    -246.938E+06    -87.8975E+06    -383.952E+03    -113.231E-03     226.308E-03    -113.077E-03     14.3178E-03    -113.204E-03     225.343E-03    -113.029E-03     13.9640E-03
            1736     15.2594E-03     46.8479E-03    -5.37856E+06     114.768E+06     96.7364E+06    -625.974E+03    -121.111E-03     234.825E-03    -113.714E-03     250.437E-03    -135.705E-03     249.526E-03    -113.389E-03     243.761E-03
            1737     14.4641E-03     46.4633E-03    -11.1695E+06     110.329E+06     97.2197E+06    -522.435E+03    -126.282E-03     239.987E-03    -113.704E-03     329.170E-03    -146.683E-03     260.457E-03    -113.362E-03     317.529E-03
            1738     13.6624E-03     46.1024E-03    -16.7270E+06     95.8796E+06     93.0812E+06    -297.216E+03    -125.308E-03     239.025E-03    -113.717E-03     311.109E-03    -141.705E-03     255.433E-03    -113.366E-03     297.861E-03
            1739     12.8539E-03     45.7645E-03    -23.5288E+06     80.5589E+06     80.6338E+06     716.292E+03    -124.805E-03     238.505E-03    -113.700E-03     284.595E-03    -137.411E-03     251.080E-03    -113.380E-03     271.552E-03
            1740     12.0558E-03     45.4659E-03    -29.8286E+06     57.9326E+06     53.9943E+06     907.565E+03    -122.256E-03     235.856E-03    -113.600E-03     241.266E-03    -130.846E-03     244.389E-03    -113.371E-03     230.075E-03
            1741     11.2471E-03     45.2258E-03    -34.6527E+06     36.3354E+06     26.6437E+06     205.403E+03    -119.466E-03     232.951E-03    -113.485E-03     197.811E-03    -125.113E-03     238.527E-03    -113.354E-03     188.604E-03
            1742     10.4475E-03     45.0267E-03    -38.6133E+06     9.32869E+06     10.6997E+06    -145.136E+03    -118.101E-03     231.529E-03    -113.428E-03     168.506E-03    -121.985E-03     235.278E-03    -113.332E-03     160.837E-03
            1743     9.64284E-03     44.8515E-03    -42.3589E+06    -38.0237E+06     1.72767E+06    -58.3818E+03    -117.600E-03     231.026E-03    -113.426E-03     151.005E-03    -120.413E-03     233.549E-03    -113.301E-03     144.497E-03
            1744     8.83963E-03     44.6901E-03    -46.1531E+06    -88.0873E+06    -3.38709E+06     106.633E+03    -117.304E-03     230.742E-03    -113.437E-03     137.911E-03    -119.382E-03     232.353E-03    -113.260E-03     132.355E-03
            1745     8.03717E-03     44.5432E-03    -50.4331E+06    -119.852E+06    -9.18275E+06    -98.6330E+03    -116.812E-03     230.225E-03    -113.412E-03     125.226E-03    -118.350E-03     231.184E-03    -113.211E-03     120.507E-03
            1746     7.23273E-03     44.4093E-03    -54.5785E+06    -144.854E+06    -15.2923E+06     130.881E+03    -116.279E-03     229.653E-03    -113.374E-03     112.907E-03    -117.403E-03     230.113E-03    -113.162E-03     108.934E-03
            1747     6.43048E-03     44.2897E-03    -59.1097E+06    -170.874E+06    -20.3933E+06     532.886E+03    -115.691E-03     229.037E-03    -113.346E-03     100.706E-03    -116.493E-03     229.082E-03    -113.115E-03     97.3969E-03
            1748     5.62599E-03     44.1830E-03    -63.8776E+06    -185.424E+06    -26.9742E+06     639.592E+03    -115.131E-03     228.432E-03    -113.301E-03     88.6308E-03    -115.697E-03     228.191E-03    -113.074E-03     85.9079E-03
            1749     4.82297E-03     44.0896E-03    -68.7406E+06    -196.865E+06    -37.5222E+06     243.653E+03    -114.624E-03     227.860E-03    -113.235E-03     76.3389E-03    -115.010E-03     227.411E-03    -113.038E-03     74.1212E-03
            1750     4.01907E-03     44.0101E-03    -74.1206E+06    -213.630E+06    -48.7617E+06    -270.903E+03    -114.172E-03     227.348E-03    -113.176E-03     63.8963E-03    -114.413E-03     226.709E-03    -113.003E-03     62.1247E-03
            1751     3.21545E-03     43.9447E-03    -79.3622E+06    -228.295E+06    -59.9742E+06    -412.650E+03    -113.806E-03     226.916E-03    -113.111E-03     51.4295E-03    -113.938E-03     226.131E-03    -112.964E-03     50.0640E-03
            1752     2.41170E-03     43.8929E-03    -83.9019E+06    -236.930E+06    -72.3313E+06    -353.875E+03    -113.438E-03     226.468E-03    -113.030E-03     38.8156E-03    -113.494E-03     225.595E-03    -112.927E-03     37.8203E-03
            1753     1.60788E-03     43.8563E-03    -87.5561E+06    -243.293E+06    -81.8348E+06    -267.031E+03    -113.153E-03     226.125E-03    -112.972E-03     26.3580E-03    -113.158E-03     225.193E-03    -112.901E-03     25.7042E-03
            1754     803.871E-06     43.8330E-03    -90.0918E+06    -247.719E+06    -88.5504E+06    -7.86720E+03    -113.007E-03     225.928E-03    -112.921E-03     14.2697E-03    -112.982E-03     224.961E-03    -112.874E-03     13.9241E-03
            1755     15.2733E-03     45.6601E-03    -4.58704E+06     115.681E+06     97.9190E+06    -80.5310E+03    -120.830E-03     234.554E-03    -113.724E-03     250.100E-03    -135.345E-03     249.179E-03    -113.395E-03     243.567E-03
            1756     14.4645E-03     45.2734E-03    -11.0730E+06     110.167E+06     96.6104E+06    -471.341E+03    -125.575E-03     239.305E-03    -113.730E-03     328.406E-03    -145.922E-03     259.723E-03    -113.390E-03     316.865E-03
            1757     13.6568E-03     44.9133E-03    -18.0062E+06     94.2170E+06     91.1773E+06    -402.007E+03    -126.031E-03     239.765E-03    -113.735E-03     310.955E-03    -142.450E-03     256.191E-03    -113.389E-03     297.576E-03
            1758     12.8588E-03     44.5724E-03    -24.2656E+06     79.9252E+06     80.3520E+06     151.814E+03    -125.134E-03     238.822E-03    -113.688E-03     283.820E-03    -137.698E-03     251.351E-03    -113.367E-03     270.739E-03
            1759     12.0510E-03     44.2766E-03    -29.4660E+06     58.5646E+06     55.1643E+06     291.821E+03    -122.418E-03     235.988E-03    -113.571E-03     241.028E-03    -131.010E-03     244.524E-03    -113.337E-03     229.809E-03
            1760     11.2526E-03     44.0360E-03    -34.1357E+06     36.5434E+06     26.9907E+06     351.875E+03    -119.720E-03     233.153E-03    -113.432E-03     197.507E-03    -125.360E-03     238.723E-03    -113.301E-03     188.287E-03
            1761     10.4461E-03     43.8368E-03    -38.5058E+06     9.54262E+06     10.5604E+06     167.759E+03    -118.261E-03     231.612E-03    -113.351E-03     168.002E-03    -122.134E-03     235.352E-03    -113.256E-03     160.335E-03
            1762     9.64409E-03     43.6619E-03    -42.5341E+06    -38.0158E+06     1.75634E+06     135.594E+03    -117.658E-03     230.991E-03    -113.332E-03     150.545E-03    -120.465E-03     233.506E-03    -113.207E-03     144.044E-03
            1763     8.84102E-03     43.5006E-03    -46.7790E+06    -88.1088E+06    -3.42919E+06     185.669E+03    -117.230E-03     230.564E-03    -113.333E-03     137.555E-03    -119.305E-03     232.169E-03    -113.155E-03     132.012E-03
            1764     8.03711E-03     43.3541E-03    -50.9506E+06    -119.397E+06    -9.04818E+06     100.274E+03    -116.771E-03     230.073E-03    -113.302E-03     125.053E-03    -118.307E-03     231.030E-03    -113.100E-03     120.350E-03
            1765     7.23480E-03     43.2205E-03    -55.5225E+06    -145.962E+06    -15.6239E+06     97.7241E+03    -116.233E-03     229.488E-03    -113.255E-03     112.524E-03    -117.354E-03     229.939E-03    -113.041E-03     108.562E-03
            1766     6.43015E-03     43.1011E-03    -60.1400E+06    -170.680E+06    -21.3266E+06     33.3366E+03    -115.682E-03     228.888E-03    -113.207E-03     100.185E-03    -116.484E-03     228.933E-03    -112.979E-03     96.8774E-03
            1767     5.62767E-03     42.9945E-03    -64.5995E+06    -184.758E+06    -27.8063E+06    -365.506E+03    -115.131E-03     228.269E-03    -113.137E-03     88.1817E-03    -115.698E-03     228.030E-03    -112.915E-03     85.4515E-03
            1768     4.82360E-03     42.9014E-03    -69.6031E+06    -197.283E+06    -37.8684E+06     86.7571E+03    -114.540E-03     227.593E-03    -113.053E-03     75.9570E-03    -114.926E-03     227.141E-03    -112.855E-03     73.7450E-03
            1769     4.01997E-03     42.8224E-03    -74.7889E+06    -212.988E+06    -49.8559E+06     318.095E+03    -114.070E-03     227.037E-03    -112.967E-03     63.6451E-03    -114.311E-03     226.401E-03    -112.799E-03     61.8904E-03
            1770     3.21622E-03     42.7566E-03    -79.8451E+06    -228.273E+06    -61.3601E+06    -179.311E+03    -113.616E-03     226.501E-03    -112.885E-03     51.1721E-03    -113.748E-03     225.717E-03    -112.745E-03     49.8170E-03
            1771     2.41227E-03     42.7061E-03    -84.3115E+06    -237.373E+06    -72.6801E+06    -93.7468E+03    -113.191E-03     226.001E-03    -112.810E-03     38.6899E-03    -113.247E-03     225.126E-03    -112.707E-03     37.7052E-03
            1772     1.60808E-03     42.6686E-03    -87.8418E+06    -243.500E+06    -81.9904E+06     114.780E+03    -112.910E-03     225.674E-03    -112.764E-03     26.1928E-03    -112.915E-03     224.741E-03    -112.693E-03     25.5480E-03
            1773     804.076E-06     42.6464E-03    -90.1465E+06    -247.822E+06    -88.6079E+06     27.3763E+03    -112.827E-03     225.528E-03    -112.701E-03     14.2560E-03    -112.802E-03     224.560E-03    -112.654E-03     13.9126E-03
            1774     15.2626E-03     44.4682E-03    -5.22751E+06     114.898E+06     96.9586E+06    -165.739E+03    -120.569E-03     234.314E-03    -113.745E-03     250.622E-03    -135.113E-03     248.966E-03    -113.419E-03     244.078E-03
            1775     14.4604E-03     44.0836E-03    -10.5497E+06     110.494E+06     96.9580E+06     394.501E+03    -126.310E-03     240.057E-03    -113.747E-03     328.374E-03    -146.634E-03     260.454E-03    -113.407E-03     316.709E-03
            1776     13.6630E-03     43.7208E-03    -16.5961E+06     95.3763E+06     92.4901E+06     421.699E+03    -126.267E-03     239.991E-03    -113.724E-03     309.733E-03    -142.603E-03     256.338E-03    -113.376E-03     296.351E-03
            1777     12.8552E-03     43.3840E-03    -23.4527E+06     80.2174E+06     80.6828E+06    -63.8634E+03    -125.075E-03     238.740E-03    -113.666E-03     284.197E-03    -137.655E-03     251.288E-03    -113.344E-03     271.114E-03
            1778     12.0560E-03     43.0858E-03    -29.8096E+06     58.1182E+06     55.5428E+06    -265.495E+03    -122.811E-03     236.349E-03    -113.538E-03     241.020E-03    -131.429E-03     244.907E-03    -113.302E-03     229.739E-03
            1779     11.2490E-03     42.8454E-03    -35.0354E+06     36.0345E+06     27.2800E+06     99.8460E+03    -120.030E-03     233.400E-03    -113.370E-03     197.001E-03    -125.670E-03     238.965E-03    -113.235E-03     187.756E-03
            1780     10.4491E-03     42.6474E-03    -39.0958E+06     9.65029E+06     10.4527E+06     459.945E+03    -118.393E-03     231.653E-03    -113.261E-03     167.690E-03    -122.264E-03     235.389E-03    -113.166E-03     160.024E-03
            1781     9.64514E-03     42.4718E-03    -43.1693E+06    -37.8732E+06     1.45104E+06     477.835E+03    -117.665E-03     230.891E-03    -113.225E-03     150.192E-03    -120.468E-03     233.401E-03    -113.101E-03     143.702E-03
            1782     8.84166E-03     42.3123E-03    -47.0053E+06    -88.2730E+06    -3.72684E+06     348.183E+03    -117.197E-03     230.413E-03    -113.216E-03     137.268E-03    -119.266E-03     232.013E-03    -113.038E-03     131.738E-03
            1783     8.03878E-03     42.1646E-03    -51.3212E+06    -119.208E+06    -8.95372E+06     515.664E+03    -116.772E-03     229.945E-03    -113.173E-03     124.605E-03    -118.303E-03     230.896E-03    -112.971E-03     119.918E-03
            1784     7.23465E-03     42.0320E-03    -55.9109E+06    -145.639E+06    -15.3331E+06     234.384E+03    -116.273E-03     229.379E-03    -113.106E-03     111.875E-03    -117.389E-03     229.824E-03    -112.891E-03     107.925E-03
            1785     6.43247E-03     41.9126E-03    -60.5761E+06    -169.646E+06    -21.7464E+06    -546.620E+03    -115.670E-03     228.699E-03    -113.029E-03     99.6689E-03    -116.470E-03     228.745E-03    -112.804E-03     96.3614E-03
            1786     5.62811E-03     41.8064E-03    -65.6925E+06    -185.145E+06    -29.9305E+06    -825.047E+03    -115.012E-03     227.947E-03    -112.935E-03     87.6585E-03    -115.577E-03     227.708E-03    -112.720E-03     84.9322E-03
            1787     4.82474E-03     41.7139E-03    -70.7303E+06    -198.957E+06    -39.7274E+06    -143.420E+03    -114.426E-03     227.263E-03    -112.836E-03     75.5546E-03    -114.810E-03     226.804E-03    -112.644E-03     73.3518E-03
            1788     4.02093E-03     41.6346E-03    -75.6091E+06    -212.383E+06    -50.8055E+06     450.425E+03    -113.861E-03     226.599E-03    -112.739E-03     63.2965E-03    -114.104E-03     225.968E-03    -112.575E-03     61.5542E-03
            1789     3.21687E-03     41.5699E-03    -80.3751E+06    -227.747E+06    -62.2696E+06     145.391E+03    -113.343E-03     226.002E-03    -112.659E-03     50.9107E-03    -113.475E-03     225.221E-03    -112.524E-03     49.5695E-03
            1790     2.41268E-03     41.5188E-03    -84.6508E+06    -237.785E+06    -73.0206E+06    -134.860E+03    -112.990E-03     225.579E-03    -112.589E-03     38.5275E-03    -113.046E-03     224.702E-03    -112.486E-03     37.5477E-03
            1791     1.60865E-03     41.4823E-03    -88.0338E+06    -243.417E+06    -81.6696E+06    -30.9829E+03    -112.728E-03     225.254E-03    -112.526E-03     26.0452E-03    -112.735E-03     224.320E-03    -112.453E-03     25.4028E-03
            1792     804.267E-06     41.4594E-03    -90.4314E+06    -247.893E+06    -88.7020E+06     49.7805E+03    -112.601E-03     225.016E-03    -112.415E-03     14.2160E-03    -112.577E-03     224.048E-03    -112.368E-03     13.8747E-03
            1793     15.2677E-03     43.2829E-03    -5.26316E+06     114.739E+06     96.0052E+06    -404.058E+03    -120.857E-03     234.616E-03    -113.758E-03     250.693E-03    -135.403E-03     249.272E-03    -113.437E-03     244.004E-03
            1794     14.4662E-03     42.8888E-03    -10.9218E+06     110.162E+06     96.5777E+06    -672.560E+03    -126.632E-03     240.368E-03    -113.736E-03     326.756E-03    -146.865E-03     260.673E-03    -113.397E-03     315.055E-03
            1795     13.6583E-03     42.5333E-03    -16.9330E+06     95.1924E+06     92.5511E+06     218.502E+03    -125.952E-03     239.665E-03    -113.712E-03     310.656E-03    -142.307E-03     256.029E-03    -113.363E-03     297.321E-03
            1796     12.8581E-03     42.1922E-03    -23.3493E+06     80.4681E+06     81.1822E+06     609.943E+03    -125.774E-03     239.419E-03    -113.645E-03     284.176E-03    -138.402E-03     252.014E-03    -113.322E-03     270.986E-03
            1797     12.0523E-03     41.8944E-03    -29.8885E+06     58.1909E+06     55.2394E+06     428.685E+03    -123.087E-03     236.562E-03    -113.475E-03     239.846E-03    -131.677E-03     245.092E-03    -113.239E-03     228.558E-03
            1798     11.2539E-03     41.6556E-03    -35.3705E+06     36.2327E+06     27.0677E+06     128.393E+03    -119.976E-03     233.264E-03    -113.288E-03     196.292E-03    -125.596E-03     238.808E-03    -113.154E-03     187.067E-03
            1799     10.4483E-03     41.4569E-03    -39.5562E+06     9.08142E+06     10.1033E+06     320.010E+03    -118.415E-03     231.585E-03    -113.170E-03     167.451E-03    -122.280E-03     235.313E-03    -113.075E-03     159.789E-03
            1800     9.64601E-03     41.2829E-03    -43.1120E+06    -38.1829E+06     1.23293E+06     526.481E+03    -117.808E-03     230.926E-03    -113.118E-03     149.856E-03    -120.604E-03     233.430E-03    -112.994E-03     143.365E-03
            1801     8.84307E-03     41.1227E-03    -47.0056E+06    -87.7994E+06    -3.53873E+06     673.346E+03    -117.434E-03     230.513E-03    -113.079E-03     136.652E-03    -119.499E-03     232.110E-03    -112.901E-03     131.118E-03
            1802     8.03962E-03     40.9761E-03    -51.1570E+06    -118.893E+06    -8.85331E+06     766.876E+03    -116.822E-03     229.826E-03    -113.004E-03     123.907E-03    -118.344E-03     230.770E-03    -112.802E-03     119.232E-03
            1803     7.23715E-03     40.8433E-03    -55.5878E+06    -144.723E+06    -15.2020E+06     405.408E+03    -116.182E-03     229.097E-03    -112.916E-03     111.315E-03    -117.290E-03     229.539E-03    -112.701E-03     107.385E-03
            1804     6.43281E-03     40.7243E-03    -60.5420E+06    -168.777E+06    -21.6800E+06    -360.682E+03    -115.588E-03     228.410E-03    -112.822E-03     99.1215E-03    -116.384E-03     228.455E-03    -112.598E-03     95.8309E-03
            1805     5.62992E-03     40.6190E-03    -65.7333E+06    -185.627E+06    -30.5360E+06    -519.050E+03    -114.934E-03     227.638E-03    -112.704E-03     87.0619E-03    -115.493E-03     227.393E-03    -112.492E-03     84.3513E-03
            1806     4.82589E-03     40.5263E-03    -70.8296E+06    -200.081E+06    -40.5415E+06    -315.634E+03    -114.221E-03     226.809E-03    -112.588E-03     74.9812E-03    -114.599E-03     226.342E-03    -112.398E-03     72.7883E-03
            1807     4.02187E-03     40.4480E-03    -75.5115E+06    -212.631E+06    -50.4843E+06    -66.9753E+03    -113.562E-03     226.055E-03    -112.493E-03     62.8435E-03    -113.802E-03     225.419E-03    -112.327E-03     61.1072E-03
            1808     3.21761E-03     40.3832E-03    -80.1297E+06    -227.123E+06    -61.4663E+06     188.304E+03    -113.112E-03     225.526E-03    -112.414E-03     50.5547E-03    -113.244E-03     224.746E-03    -112.276E-03     49.2222E-03
            1809     2.41336E-03     40.3327E-03    -84.4950E+06    -237.760E+06    -73.1240E+06     5.02834E+03    -112.758E-03     225.090E-03    -112.332E-03     38.2035E-03    -112.812E-03     224.212E-03    -112.230E-03     37.2323E-03
            1810     1.60887E-03     40.2958E-03    -87.8796E+06    -243.740E+06    -82.4362E+06    -52.6494E+03    -112.471E-03     224.730E-03    -112.259E-03     25.8538E-03    -112.475E-03     223.796E-03    -112.190E-03     25.2152E-03
            1811     804.598E-06     40.2737E-03    -90.1337E+06    -247.725E+06    -88.5516E+06     126.593E+03    -112.346E-03     224.485E-03    -112.139E-03     14.1017E-03    -112.321E-03     223.517E-03    -112.092E-03     13.7648E-03
            1812     15.2636E-03     42.0757E-03    -4.43492E+06     115.842E+06     97.4451E+06     329.722E+03    -120.718E-03     234.427E-03    -113.709E-03     250.273E-03    -135.146E-03     248.969E-03    -113.384E-03     243.773E-03
            1813     14.4626E-03     41.7052E-03    -11.2522E+06     110.148E+06     96.4499E+06    -134.344E+03    -125.282E-03     239.005E-03    -113.722E-03     327.117E-03    -145.477E-03     259.270E-03    -113.383E-03     315.622E-03
            1814     13.6604E-03     41.3405E-03    -18.5988E+06     93.6661E+06     91.0673E+06    -473.162E+03    -127.096E-03     240.796E-03    -113.701E-03     310.996E-03    -143.550E-03     257.253E-03    -113.354E-03     297.425E-03
            1815     12.8568E-03     41.0005E-03    -24.6302E+06     79.2731E+06      80.224E+06    -272.125E+03    -126.232E-03     239.809E-03    -113.577E-03     282.513E-03    -138.813E-03     252.351E-03    -113.255E-03     269.261E-03
            1816     12.0584E-03     40.7044E-03    -30.1494E+06     58.2930E+06     55.5134E+06     324.445E+03    -122.895E-03     236.282E-03    -113.387E-03     239.351E-03    -131.450E-03     244.776E-03    -113.150E-03     228.106E-03
            1817     11.2512E-03     40.4652E-03    -34.8245E+06     36.5877E+06     27.4592E+06     563.606E+03    -119.982E-03     233.179E-03    -113.197E-03     196.080E-03    -125.590E-03     238.714E-03    -113.063E-03     186.868E-03
            1818     10.4506E-03     40.2674E-03    -39.0777E+06     8.92092E+06     10.1489E+06     514.186E+03    -118.549E-03     231.612E-03    -113.064E-03     166.719E-03    -122.398E-03     235.325E-03    -112.969E-03     159.061E-03
            1819     9.64707E-03     40.0932E-03    -43.1836E+06    -38.3640E+06     1.22189E+06     511.166E+03    -118.009E-03     230.993E-03    -112.984E-03     149.005E-03    -120.794E-03     233.486E-03    -112.860E-03     142.511E-03
            1820     8.84446E-03     39.9332E-03    -47.0287E+06    -87.7276E+06    -3.63670E+06     694.498E+03    -117.562E-03     230.474E-03    -112.912E-03     135.932E-03    -119.617E-03     232.061E-03    -112.735E-03     130.407E-03
            1821     8.04194E-03     39.7876E-03    -50.8987E+06    -118.574E+06    -8.81381E+06     685.431E+03    -116.852E-03     229.660E-03    -112.808E-03     123.322E-03    -118.365E-03     230.597E-03    -112.606E-03     118.658E-03
            1822     7.23777E-03     39.6551E-03    -55.0086E+06    -143.769E+06    -15.0469E+06     374.056E+03    -116.128E-03     228.824E-03    -112.695E-03     110.833E-03    -117.229E-03     229.262E-03    -112.483E-03     106.919E-03
            1823     6.43509E-03     39.5367E-03    -59.3590E+06    -168.711E+06    -20.8637E+06     312.757E+03    -115.490E-03     228.074E-03    -112.584E-03     98.4456E-03    -116.274E-03     228.109E-03    -112.358E-03     95.1830E-03
            1824     5.63098E-03     39.4312E-03    -64.6055E+06    -185.679E+06    -29.2332E+06     210.663E+03    -114.769E-03     227.219E-03    -112.450E-03     86.4081E-03    -115.320E-03     226.966E-03    -112.233E-03     83.7205E-03
            1825     4.82741E-03     39.3400E-03    -70.2914E+06    -199.638E+06    -39.7060E+06    -196.200E+03    -114.007E-03     226.323E-03    -112.316E-03     74.4186E-03    -114.381E-03     225.853E-03    -112.123E-03     72.2382E-03
            1826     4.02298E-03     39.2617E-03    -75.5921E+06    -213.088E+06    -50.9900E+06    -237.921E+03    -113.358E-03     225.557E-03    -112.199E-03     62.2816E-03    -113.595E-03     224.916E-03    -112.035E-03     60.5541E-03
            1827     3.21861E-03     39.1973E-03    -80.0903E+06    -227.288E+06    -62.2195E+06    -30.0024E+03    -112.854E-03     224.953E-03    -112.099E-03     50.0677E-03    -112.983E-03     224.171E-03    -111.964E-03     48.7435E-03
            1828     2.41413E-03     39.1468E-03    -84.2150E+06    -237.672E+06    -73.3003E+06     252.856E+03    -112.455E-03     224.461E-03    -112.006E-03     37.7861E-03    -112.507E-03     223.583E-03    -111.906E-03     36.8255E-03
            1829     1.60954E-03     39.1107E-03    -87.8598E+06    -243.743E+06    -82.4627E+06     223.886E+03    -112.137E-03     224.066E-03    -111.929E-03     25.5360E-03    -112.141E-03     223.132E-03    -111.860E-03     24.9053E-03
            1830     804.637E-06     39.0879E-03    -89.8889E+06    -247.575E+06    -88.5270E+06     72.1082E+03    -111.994E-03     223.824E-03    -111.830E-03     13.8351E-03    -111.968E-03     222.857E-03    -111.784E-03     13.4987E-03
            1831     15.2756E-03     40.9053E-03    -5.44243E+06     114.859E+06     97.0761E+06     479.353E+03    -120.762E-03     234.504E-03    -113.742E-03     252.071E-03    -135.254E-03     249.103E-03    -113.415E-03     245.561E-03
            1832     14.4615E-03     40.5122E-03    -10.5529E+06     111.347E+06     97.7199E+06     1.06853E+06    -127.188E-03     240.911E-03    -113.723E-03     328.901E-03    -147.524E-03     261.321E-03    -113.381E-03     317.084E-03
            1833     13.6605E-03     40.1468E-03    -15.9575E+06     94.9857E+06     93.0838E+06     592.867E+03    -127.780E-03     241.405E-03    -113.625E-03     308.779E-03    -144.159E-03     257.794E-03    -113.274E-03     295.129E-03
            1834     12.8614E-03     39.8101E-03    -22.9830E+06     79.0376E+06     80.4352E+06     391.138E+03    -125.564E-03     239.044E-03    -113.481E-03     282.049E-03    -138.050E-03     251.496E-03    -113.160E-03     268.942E-03
            1835     12.0541E-03     39.5136E-03    -29.8140E+06     58.1179E+06     54.8716E+06     179.165E+03    -122.991E-03     236.293E-03    -113.302E-03     239.543E-03    -131.545E-03     244.788E-03    -113.069E-03     228.289E-03
            1836     11.2556E-03     39.2752E-03    -34.9123E+06     35.9240E+06     27.3260E+06     430.704E+03    -120.363E-03     233.455E-03    -113.091E-03     195.195E-03    -125.951E-03     238.966E-03    -112.956E-03     185.963E-03
            1837     10.4510E-03     39.0774E-03    -39.2007E+06     9.04670E+06     10.3134E+06     929.469E+03    -118.775E-03     231.696E-03    -112.921E-03     165.935E-03    -122.610E-03     235.394E-03    -112.826E-03     158.281E-03
            1838     9.64926E-03     38.9035E-03    -43.1176E+06    -37.8963E+06     1.17683E+06     807.123E+03    -118.077E-03     230.888E-03    -112.812E-03     148.428E-03    -120.848E-03     233.368E-03    -112.688E-03     141.954E-03
            1839     8.84624E-03     38.7444E-03    -46.9174E+06    -87.5983E+06    -3.81037E+06     509.870E+03    -117.546E-03     230.264E-03    -112.718E-03     135.221E-03    -119.587E-03     231.838E-03    -112.542E-03     129.713E-03
            1840     8.04279E-03     38.5989E-03    -50.8359E+06    -118.583E+06    -9.07934E+06     260.831E+03    -116.888E-03     229.476E-03    -112.588E-03     122.456E-03    -118.391E-03     230.404E-03    -112.388E-03     117.799E-03
            1841     7.24043E-03     38.4675E-03    -55.0476E+06    -143.179E+06    -14.7528E+06     364.108E+03    -116.147E-03     228.592E-03    -112.444E-03     109.979E-03    -117.242E-03     229.025E-03    -112.230E-03     106.077E-03
            1842     6.43633E-03     38.3489E-03    -60.0090E+06    -168.667E+06    -20.9866E+06     469.869E+03    -115.311E-03     227.616E-03    -112.305E-03     97.6924E-03    -116.091E-03     227.645E-03    -112.079E-03     94.4517E-03
            1843     5.63301E-03     38.2450E-03    -65.0628E+06    -185.667E+06    -29.1451E+06     451.039E+03    -114.495E-03     226.654E-03    -112.159E-03     85.6658E-03    -115.042E-03     226.395E-03    -111.941E-03     83.0029E-03
            1844     4.82847E-03     38.1535E-03    -70.1044E+06    -198.676E+06    -39.0394E+06     318.416E+03    -113.820E-03     225.829E-03    -112.010E-03     73.7315E-03    -114.191E-03     225.359E-03    -111.815E-03     71.5724E-03
            1845     4.02454E-03     38.0762E-03    -75.1656E+06    -213.079E+06    -50.5160E+06    -186.416E+03    -113.188E-03     225.049E-03    -111.861E-03     61.6890E-03    -113.421E-03     224.405E-03    -111.696E-03     59.9712E-03
            1846     3.21993E-03     38.0122E-03    -80.1162E+06    -228.125E+06    -62.4461E+06     165.537E+03    -112.576E-03     224.304E-03    -111.728E-03     49.5974E-03    -112.702E-03     223.517E-03    -111.593E-03     48.2865E-03
            1847     2.41505E-03     37.9620E-03    -84.3892E+06    -237.594E+06    -73.0774E+06     477.524E+03    -112.093E-03     223.710E-03    -111.617E-03     37.3986E-03    -112.145E-03     222.830E-03    -111.515E-03     36.4491E-03
            1848     1.61014E-03     37.9258E-03    -87.7271E+06    -243.162E+06    -81.6468E+06     224.999E+03    -111.757E-03     223.285E-03    -111.528E-03     25.2750E-03    -111.761E-03     222.352E-03    -111.457E-03     24.6502E-03
            1849     805.252E-06     37.9038E-03    -90.2351E+06    -247.563E+06    -88.4716E+06     78.5774E+03    -111.579E-03     223.000E-03    -111.420E-03     13.6792E-03    -111.555E-03     222.033E-03    -111.373E-03     13.3460E-03
            1850     15.2527E-03     39.7024E-03    -5.96142E+06     114.100E+06     96.1872E+06      27.307E+03    -122.246E-03     236.029E-03    -113.783E-03     250.200E-03    -136.842E-03     250.730E-03    -113.459E-03     243.254E-03
            1851     14.4653E-03     39.3168E-03    -10.1936E+06     111.499E+06     97.8110E+06    -370.140E+03    -128.844E-03     242.495E-03    -113.651E-03     325.615E-03    -149.139E-03     262.865E-03    -113.309E-03     313.484E-03
            1852     13.6657E-03     38.9567E-03    -15.9828E+06     94.7179E+06     93.1029E+06     534.166E+03    -126.701E-03     240.218E-03    -113.517E-03     308.205E-03    -142.928E-03     256.454E-03    -113.166E-03     294.796E-03
            1853     12.8581E-03     38.6210E-03    -22.9401E+06     79.3637E+06     81.0006E+06     1.20293E+06    -125.706E-03     239.106E-03    -113.400E-03     282.519E-03    -138.184E-03     251.550E-03    -113.077E-03     269.424E-03
            1854     12.0598E-03     38.3223E-03    -29.2136E+06     58.8105E+06     55.4971E+06     1.11510E+06    -123.396E-03     236.592E-03    -113.196E-03     238.366E-03    -131.906E-03     245.046E-03    -112.961E-03     227.103E-03
            1855     11.2544E-03     38.0843E-03    -35.1103E+06     35.6257E+06     26.6924E+06     1.02574E+06    -120.497E-03     233.446E-03    -112.949E-03     194.487E-03    -126.054E-03     238.927E-03    -112.816E-03     185.280E-03
            1856     10.4541E-03     37.8876E-03    -39.5602E+06     9.10807E+06     9.90585E+06     796.827E+03    -118.994E-03     231.745E-03    -112.751E-03     165.230E-03    -122.816E-03     235.430E-03    -112.657E-03     157.575E-03
            1857     9.65055E-03     37.7142E-03    -42.9141E+06    -37.0961E+06     1.39183E+06     652.861E+03    -118.165E-03     230.776E-03    -112.611E-03     147.512E-03    -120.919E-03     233.241E-03    -112.488E-03     141.054E-03
            1858     8.84809E-03     37.5554E-03    -46.3828E+06    -87.3069E+06    -3.56226E+06     396.107E+03    -117.579E-03     230.067E-03    -112.487E-03     134.218E-03    -119.604E-03     231.627E-03    -112.311E-03     128.725E-03
            1859     8.04569E-03     37.4109E-03    -50.2628E+06    -118.404E+06    -8.78902E+06     303.960E+03    -116.892E-03     229.219E-03    -112.327E-03     121.494E-03    -118.382E-03     230.135E-03    -112.126E-03     116.854E-03
            1860     7.24189E-03     37.2795E-03    -54.7122E+06    -143.510E+06    -14.8109E+06     583.370E+03    -116.056E-03     228.208E-03    -112.152E-03     109.042E-03    -117.138E-03     228.629E-03    -111.939E-03     105.162E-03
            1861     6.43895E-03     37.1627E-03    -59.4800E+06    -168.470E+06    -20.4792E+06     807.432E+03    -115.138E-03     227.127E-03    -111.989E-03     96.7368E-03    -115.908E-03     227.148E-03    -111.761E-03     93.5189E-03
            1862     5.63440E-03     37.0586E-03    -64.4936E+06    -184.881E+06    -28.5528E+06     561.359E+03    -114.307E-03     226.123E-03    -111.816E-03     84.7414E-03    -114.846E-03     225.860E-03    -111.598E-03     82.0987E-03
            1863     4.83067E-03     36.9683E-03    -69.4151E+06    -198.178E+06    -38.8245E+06    -91.7592E+03    -113.549E-03     225.189E-03    -111.640E-03     72.8583E-03    -113.912E-03     224.715E-03    -111.446E-03     70.7108E-03
            1864     4.02580E-03     36.8910E-03    -74.4457E+06    -213.904E+06    -49.8279E+06     188.258E+03    -112.865E-03     224.341E-03    -111.476E-03     60.9388E-03    -113.091E-03     223.688E-03    -111.307E-03     59.2397E-03
            1865     3.22117E-03     36.8279E-03    -79.4960E+06    -228.434E+06    -60.9260E+06     859.976E+03    -112.267E-03     223.590E-03    -111.323E-03     48.9898E-03    -112.389E-03     222.796E-03    -111.181E-03     47.6971E-03
            1866     2.41622E-03     36.7781E-03    -84.0405E+06    -236.683E+06    -72.2965E+06     600.919E+03    -111.702E-03     222.884E-03    -111.183E-03     36.9812E-03    -111.753E-03     222.007E-03    -111.079E-03     36.0444E-03
            1867     1.61088E-03     36.7424E-03    -87.6063E+06    -243.008E+06    -81.8690E+06     333.445E+03    -111.301E-03     222.385E-03    -111.084E-03     25.0144E-03    -111.304E-03     221.452E-03    -111.014E-03     24.3990E-03
            1868     805.347E-06     36.7202E-03    -89.6692E+06    -247.034E+06    -88.3524E+06     249.058E+03    -111.158E-03     222.120E-03    -110.962E-03     13.5516E-03    -111.131E-03     221.154E-03    -110.916E-03     13.2239E-03
            1869     15.2776E-03     38.5149E-03    -5.17564E+06     114.994E+06     96.9109E+06    -280.982E+03    -123.003E-03     236.653E-03    -113.650E-03     249.345E-03    -137.519E-03     251.277E-03    -113.324E-03     242.401E-03
            1870     14.4684E-03     38.1222E-03    -11.0615E+06     110.022E+06     96.6126E+06    -248.022E+03    -126.838E-03     240.382E-03    -113.544E-03     325.545E-03    -146.993E-03     260.607E-03    -113.204E-03     313.785E-03
            1871     13.6610E-03     37.7710E-03    -18.1459E+06     93.3610E+06     91.2376E+06     239.371E+03    -127.026E-03     240.482E-03    -113.457E-03     308.900E-03    -143.235E-03     256.694E-03    -113.109E-03     295.463E-03
            1872     12.8628E-03     37.4256E-03    -23.9447E+06     79.3962E+06     80.8211E+06     199.389E+03    -126.544E-03     239.850E-03    -113.307E-03     282.118E-03    -139.037E-03     252.306E-03    -112.983E-03     268.896E-03
            1873     12.0586E-03     37.1334E-03    -29.6249E+06     57.7952E+06     56.1647E+06     1.11082E+06    -123.597E-03     236.660E-03    -113.064E-03     237.860E-03    -132.069E-03     245.070E-03    -112.824E-03     226.617E-03
            1874     11.2585E-03     36.8938E-03    -34.2237E+06     36.1596E+06     28.0687E+06     1.70426E+06    -120.765E-03     233.552E-03    -112.787E-03     194.014E-03    -126.305E-03     239.017E-03    -112.649E-03     184.813E-03
            1875     10.4548E-03     36.6973E-03    -38.3106E+06     10.1811E+06     10.9639E+06     1.24065E+06    -119.199E-03     231.749E-03    -112.550E-03     164.014E-03    -122.990E-03     235.409E-03    -112.455E-03     156.376E-03
            1876     9.65359E-03     36.5250E-03    -42.3066E+06    -36.6309E+06     1.80573E+06     576.976E+03    -118.322E-03     230.691E-03    -112.369E-03     146.302E-03    -121.058E-03     233.142E-03    -112.246E-03     139.847E-03
            1877     8.85074E-03     36.3669E-03    -46.1056E+06    -86.8845E+06    -3.15935E+06     395.278E+03    -117.589E-03     229.798E-03    -112.210E-03     133.167E-03    -119.598E-03     231.345E-03    -112.033E-03     127.694E-03
            1878     8.04749E-03     36.2228E-03    -50.3714E+06    -118.215E+06    -8.56304E+06     463.176E+03    -116.809E-03     228.827E-03    -112.018E-03     120.445E-03    -118.286E-03     229.731E-03    -111.817E-03     115.831E-03
            1879     7.24485E-03     36.0927E-03    -54.6121E+06    -144.067E+06    -14.9703E+06     495.846E+03    -115.910E-03     227.723E-03    -111.814E-03     107.811E-03    -116.978E-03     228.130E-03    -111.600E-03     103.954E-03
            1880     6.44065E-03     35.9762E-03    -58.9701E+06    -168.637E+06    -20.3786E+06     640.092E+03    -114.987E-03     226.606E-03    -111.619E-03     95.5902E-03    -115.746E-03     226.616E-03    -111.391E-03     92.3899E-03
            1881     5.63732E-03     35.8734E-03    -63.5864E+06    -183.706E+06    -27.5931E+06     517.457E+03    -114.092E-03     225.506E-03    -111.414E-03     83.7747E-03    -114.624E-03     225.240E-03    -111.193E-03     81.1491E-03
            1882     4.83246E-03     35.7833E-03    -69.1931E+06    -197.819E+06    -38.2248E+06     559.021E+03    -113.226E-03     224.435E-03    -111.209E-03     71.9606E-03    -113.584E-03     223.956E-03    -111.013E-03     69.8426E-03
            1883     4.02793E-03     35.7073E-03    -75.0509E+06    -214.735E+06    -50.6196E+06     722.841E+03    -112.456E-03     223.478E-03    -111.022E-03     60.1374E-03    -112.679E-03     222.819E-03    -110.855E-03     58.4641E-03
            1884     3.22268E-03     35.6441E-03    -79.8840E+06    -228.446E+06    -61.1257E+06     570.928E+03    -111.802E-03     222.663E-03    -110.861E-03     48.3253E-03    -111.924E-03     221.867E-03    -110.719E-03     47.0429E-03
            1885     2.41728E-03     35.5954E-03    -83.8831E+06    -235.920E+06    -71.6746E+06     700.975E+03    -111.274E-03     221.985E-03    -110.711E-03     36.4767E-03    -111.325E-03     221.108E-03    -110.605E-03     35.5515E-03
            1886     1.61165E-03     35.5598E-03    -87.2302E+06    -242.309E+06    -81.3942E+06     595.547E+03    -110.867E-03     221.451E-03    -110.583E-03     24.6475E-03    -110.869E-03     220.519E-03    -110.513E-03     24.0427E-03
            1887     805.938E-06     35.5381E-03    -89.5883E+06    -246.352E+06    -87.8445E+06     243.894E+03    -110.623E-03     221.078E-03    -110.455E-03     13.2442E-03    -110.598E-03     220.115E-03    -110.407E-03     12.9202E-03
            1888     15.2648E-03     37.3164E-03    -5.10580E+06     114.386E+06     96.4053E+06     181.246E+03    -122.227E-03     235.805E-03    -113.577E-03     252.303E-03    -136.700E-03     250.386E-03    -113.254E-03     245.503E-03
            1889     14.4633E-03     36.9375E-03    -11.5509E+06     108.493E+06     95.5917E+06     498.797E+03    -126.991E-03     240.502E-03    -113.511E-03     327.401E-03    -147.123E-03     260.701E-03    -113.174E-03     315.642E-03
            1890     13.6658E-03     36.5725E-03    -17.0027E+06     94.0104E+06     91.7196E+06     355.823E+03    -128.023E-03     241.420E-03    -113.397E-03     308.030E-03    -144.227E-03     257.632E-03    -113.050E-03     294.423E-03
            1891     12.8627E-03     36.2384E-03    -23.5295E+06     79.0052E+06     80.3862E+06     359.862E+03    -126.842E-03     240.037E-03    -113.195E-03     281.457E-03    -139.295E-03     252.454E-03    -112.874E-03     268.222E-03
            1892     12.0617E-03     35.9403E-03    -29.7386E+06     56.7897E+06     55.9457E+06     545.328E+03    -124.096E-03     237.012E-03    -112.916E-03     237.348E-03    -132.554E-03     245.405E-03    -112.676E-03     226.060E-03
            1893     11.2590E-03     35.7035E-03    -34.4948E+06     35.7633E+06     28.7745E+06     920.996E+03    -121.269E-03     233.860E-03    -112.591E-03     192.750E-03    -126.788E-03     239.300E-03    -112.449E-03     183.512E-03
            1894     10.4587E-03     35.5073E-03    -38.1224E+06     10.9458E+06     11.6799E+06     1.26898E+06    -119.321E-03     231.626E-03    -112.305E-03     162.881E-03    -123.088E-03     235.262E-03    -112.207E-03     155.262E-03
            1895     9.65569E-03     35.3356E-03    -41.7058E+06    -35.5677E+06     2.52025E+06     1.05551E+06    -118.398E-03     230.485E-03    -112.087E-03     145.143E-03    -121.116E-03     232.921E-03    -111.962E-03     138.709E-03
            1896     8.85353E-03     35.1789E-03    -46.1332E+06    -86.3989E+06    -2.92461E+06     903.372E+03    -117.683E-03     229.568E-03    -111.885E-03     131.910E-03    -119.678E-03     231.101E-03    -111.708E-03     126.459E-03
            1897     8.05098E-03     35.0353E-03    -50.7658E+06    -117.888E+06    -8.59628E+06     718.631E+03    -116.701E-03     228.355E-03    -111.653E-03     119.078E-03    -118.164E-03     229.243E-03    -111.452E-03     114.495E-03
            1898     7.24728E-03     34.9062E-03    -55.5463E+06    -144.126E+06    -15.3066E+06     665.327E+03    -115.690E-03     227.106E-03    -111.417E-03     106.541E-03    -116.750E-03     227.502E-03    -111.204E-03     102.713E-03
            1899     6.44413E-03     34.7909E-03    -60.4699E+06    -168.311E+06    -22.0854E+06     174.652E+03    -114.729E-03     225.916E-03    -111.187E-03     94.5292E-03    -115.483E-03     225.922E-03    -110.966E-03     91.3511E-03
            1900     5.63932E-03     34.6885E-03    -65.4607E+06    -184.148E+06    -29.8279E+06    -15.0311E+03    -113.780E-03     224.733E-03    -110.954E-03     82.7903E-03    -114.309E-03     224.463E-03    -110.741E-03     80.1824E-03
            1901     4.83509E-03     34.5998E-03    -69.8362E+06    -198.218E+06    -39.0350E+06     887.480E+03    -112.867E-03     223.594E-03    -110.728E-03     71.0618E-03    -113.221E-03     223.110E-03    -110.534E-03     68.9703E-03
            1902     4.02979E-03     34.5240E-03    -74.3042E+06    -213.861E+06    -50.3172E+06     1.11386E+06    -112.025E-03     222.545E-03    -110.520E-03     59.3672E-03    -112.242E-03     221.885E-03    -110.354E-03     57.7193E-03
            1903     3.22437E-03     34.4623E-03    -79.5160E+06    -227.864E+06    -60.8178E+06     621.199E+03    -111.307E-03     221.653E-03    -110.346E-03     47.6886E-03    -111.425E-03     220.857E-03    -110.205E-03     46.4244E-03
            1904     2.41850E-03     34.4133E-03    -84.1741E+06    -235.732E+06    -71.4638E+06     196.846E+03    -110.768E-03     220.956E-03    -110.188E-03     35.9527E-03    -110.820E-03     220.079E-03    -110.081E-03     35.0319E-03
            1905     1.61263E-03     34.3786E-03    -87.4102E+06    -241.885E+06    -81.1748E+06     225.414E+03    -110.357E-03     220.403E-03    -110.046E-03     24.2927E-03    -110.360E-03     219.472E-03    -109.974E-03     23.6896E-03
            1906     806.418E-06     34.3568E-03    -89.5102E+06    -245.683E+06    -87.8770E+06     155.821E+03    -110.045E-03     219.980E-03    -109.935E-03     13.1149E-03    -110.020E-03     219.020E-03    -109.889E-03     12.7946E-03
            1907     15.2713E-03     36.1345E-03    -4.24910E+06     114.515E+06     97.1946E+06     797.005E+03    -123.042E-03     236.652E-03    -113.610E-03     249.098E-03    -137.334E-03     251.053E-03    -113.284E-03     242.149E-03
            1908     14.4691E-03     35.7404E-03    -10.0947E+06     109.242E+06     96.6208E+06     694.216E+03    -128.438E-03     241.906E-03    -113.468E-03     325.937E-03    -148.466E-03     262.006E-03    -113.129E-03     313.907E-03
            1909     13.6650E-03     35.3840E-03    -17.3278E+06     93.6372E+06     91.2557E+06     519.662E+03    -128.186E-03     241.482E-03    -113.296E-03     307.579E-03    -144.344E-03     257.646E-03    -112.951E-03     293.964E-03
            1910     12.8641E-03     35.0438E-03    -23.7908E+06     78.8418E+06     80.3843E+06     389.556E+03    -127.369E-03     240.432E-03    -113.062E-03     280.400E-03    -139.780E-03     252.804E-03    -112.740E-03     267.121E-03
            1911     12.0632E-03     34.7500E-03    -29.4317E+06     56.8060E+06     55.8169E+06     325.123E+03    -124.746E-03     237.470E-03    -112.724E-03     236.021E-03    -133.187E-03     245.846E-03    -112.484E-03     224.661E-03
            1912     11.2632E-03     34.5116E-03    -34.3067E+06     35.0132E+06     28.0374E+06     418.977E+03    -121.448E-03     233.791E-03    -112.343E-03     191.286E-03    -126.925E-03     239.189E-03    -112.204E-03     182.054E-03
            1913     10.4607E-03     34.3179E-03    -38.3509E+06     10.6032E+06     11.3605E+06     851.250E+03    -119.439E-03     231.459E-03    -112.020E-03     161.591E-03    -123.178E-03     235.067E-03    -111.923E-03     153.984E-03
            1914     9.65919E-03     34.1468E-03    -42.2744E+06    -35.0408E+06     2.32804E+06     1.33522E+06    -118.487E-03     230.249E-03    -111.762E-03     144.015E-03    -121.185E-03     232.666E-03    -111.639E-03     137.609E-03
            1915     8.85691E-03     33.9904E-03    -46.1921E+06    -85.8187E+06    -2.83074E+06     1.32590E+06    -117.702E-03     229.221E-03    -111.520E-03     130.601E-03    -119.680E-03     230.739E-03    -111.342E-03     125.176E-03
            1916     8.05411E-03     33.8488E-03    -50.3070E+06    -117.333E+06    -8.32236E+06     1.33044E+06    -116.576E-03     227.825E-03    -111.249E-03     117.895E-03    -118.022E-03     228.700E-03    -111.047E-03     113.350E-03
            1917     7.25094E-03     33.7205E-03    -54.6431E+06    -143.454E+06    -14.8442E+06     1.05191E+06    -115.446E-03     226.428E-03    -110.982E-03     105.547E-03    -116.491E-03     226.812E-03    -110.769E-03     101.758E-03
            1918     6.44648E-03     33.6061E-03    -59.4158E+06    -167.391E+06    -21.3915E+06     805.414E+03    -114.455E-03     225.179E-03    -110.725E-03     93.4713E-03    -115.195E-03     225.177E-03    -110.503E-03     90.3327E-03
            1919     5.64261E-03     33.5050E-03    -64.6599E+06    -184.037E+06    -30.1733E+06     323.358E+03    -113.446E-03     223.904E-03    -110.458E-03     81.7140E-03    -113.962E-03     223.626E-03    -110.249E-03     79.1388E-03
            1920     4.83735E-03     33.4169E-03    -69.9476E+06    -199.378E+06    -39.9742E+06     97.9639E+03    -112.443E-03     222.650E-03    -110.208E-03     70.0634E-03    -112.789E-03     222.156E-03    -110.017E-03     67.9848E-03
            1921     4.03207E-03     33.3425E-03    -74.6829E+06    -213.839E+06    -49.8955E+06     876.415E+03    -111.558E-03     221.542E-03    -109.984E-03     58.5069E-03    -111.773E-03     220.877E-03    -109.815E-03     56.8774E-03
            1922     3.22617E-03     33.2809E-03    -79.2189E+06    -226.569E+06    -59.7121E+06     955.885E+03    -110.823E-03     220.612E-03    -109.789E-03     46.9690E-03    -110.941E-03     219.817E-03    -109.644E-03     45.7264E-03
            1923     2.42003E-03     33.2331E-03    -83.7951E+06    -235.175E+06    -71.3639E+06      303.15E+03    -110.183E-03     219.798E-03    -109.614E-03     35.4202E-03    -110.233E-03     218.921E-03    -109.508E-03     34.5151E-03
            1924     1.61340E-03     33.1982E-03    -87.6055E+06    -242.052E+06    -81.9909E+06    -28.1409E+03    -109.713E-03     219.205E-03    -109.492E-03     23.9214E-03    -109.715E-03     218.274E-03    -109.424E-03     23.3241E-03
            1925     806.661E-06     33.1776E-03    -89.7929E+06    -245.297E+06    -88.1797E+06    -36.5242E+03    -109.541E-03     218.920E-03    -109.379E-03     12.9295E-03    -109.517E-03     217.962E-03    -109.334E-03     12.6090E-03
            1926     15.2662E-03     34.9322E-03    -4.84800E+06     114.292E+06     96.9176E+06     114.401E+03    -124.536E-03     238.145E-03    -113.609E-03     248.594E-03    -138.852E-03     252.569E-03    -113.283E-03     241.446E-03
            1927     14.4672E-03     34.5508E-03    -10.7266E+06     109.451E+06     96.7309E+06     1.49562E+06    -129.318E-03     242.723E-03    -113.405E-03     326.068E-03    -149.332E-03     262.807E-03    -113.064E-03     313.950E-03
            1928     13.6676E-03     34.1897E-03    -16.6461E+06     94.3785E+06     92.2258E+06     929.124E+03    -129.003E-03     242.184E-03    -113.181E-03     306.855E-03    -145.114E-03     258.304E-03    -112.832E-03     293.149E-03
            1929     12.8672E-03     33.8531E-03    -22.2123E+06     78.9567E+06     81.1474E+06     158.116E+03    -128.047E-03     240.933E-03    -112.886E-03     279.628E-03    -140.441E-03     253.292E-03    -112.562E-03     266.255E-03
            1930     12.0670E-03     33.5566E-03    -28.0728E+06     56.3554E+06     55.9971E+06     694.307E+03    -125.062E-03     237.555E-03    -112.494E-03     235.026E-03    -133.462E-03     245.894E-03    -112.255E-03     223.662E-03
            1931     11.2654E-03     33.3218E-03    -33.4749E+06     34.8978E+06     27.9674E+06     1.36568E+06    -121.642E-03     233.714E-03    -112.071E-03     190.106E-03    -127.080E-03     239.075E-03    -111.933E-03     180.904E-03
            1932     10.4646E-03     33.1279E-03    -38.3921E+06     10.2776E+06     10.4984E+06     1.46482E+06    -119.621E-03     231.325E-03    -111.704E-03     160.395E-03    -123.330E-03     234.903E-03    -111.611E-03     152.816E-03
            1933     9.66259E-03     32.9582E-03    -42.5875E+06    -34.6076E+06     1.80567E+06     1.41232E+06    -118.541E-03     229.946E-03    -111.405E-03     142.868E-03    -121.218E-03     232.344E-03    -111.284E-03     136.490E-03
            1934     8.86034E-03     32.8029E-03    -46.3595E+06    -85.4844E+06    -2.96985E+06     1.32656E+06    -117.523E-03     228.654E-03    -111.131E-03     129.475E-03    -119.481E-03     230.153E-03    -110.955E-03     124.091E-03
            1935     8.05755E-03     32.6625E-03    -50.1751E+06    -116.956E+06    -8.21210E+06     1.25887E+06    -116.447E-03     227.277E-03    -110.830E-03     116.692E-03    -117.877E-03     228.138E-03    -110.629E-03     112.177E-03
            1936     7.25382E-03     32.5357E-03    -54.6241E+06    -142.791E+06    -14.4590E+06     1.27561E+06    -115.335E-03     225.859E-03    -110.523E-03     104.307E-03    -116.366E-03     226.231E-03    -110.310E-03     100.552E-03
            1937     6.45025E-03     32.4223E-03    -59.4062E+06    -166.709E+06    -20.8904E+06     1.13288E+06    -114.172E-03     224.398E-03    -110.227E-03     92.2146E-03    -114.902E-03     224.386E-03    -110.003E-03     89.1137E-03
            1938     5.64519E-03     32.3221E-03     -64.323E+06    -183.171E+06    -29.3865E+06     818.209E+03    -113.042E-03     222.973E-03    -109.931E-03     80.5304E-03    -113.549E-03     222.687E-03    -109.719E-03     77.9948E-03
            1939     4.84026E-03     32.2355E-03    -69.9397E+06    -199.493E+06    -39.7781E+06     678.143E+03    -111.993E-03     221.648E-03    -109.655E-03     69.0088E-03    -112.333E-03     221.146E-03    -109.463E-03     66.9657E-03
            1940     4.03433E-03     32.1618E-03    -75.3824E+06    -214.002E+06    -50.2329E+06     366.307E+03    -111.074E-03     220.479E-03    -109.405E-03     57.6239E-03    -111.287E-03     219.810E-03    -109.237E-03     56.0104E-03
            1941     3.22814E-03     32.1012E-03    -79.8965E+06    -225.968E+06    -60.1940E+06     261.423E+03    -110.259E-03     219.448E-03    -109.188E-03     46.2247E-03    -110.378E-03     218.654E-03    -109.046E-03     44.9921E-03
            1942     2.42144E-03     32.0538E-03    -84.0581E+06    -234.866E+06    -71.5267E+06     503.307E+03    -109.582E-03     218.587E-03    -109.004E-03     34.8085E-03    -109.631E-03     217.711E-03    -108.900E-03     33.9204E-03
            1943     1.61442E-03     32.0201E-03    -87.4484E+06    -241.537E+06    -81.7681E+06     431.818E+03    -109.111E-03     217.985E-03    -108.874E-03     23.4654E-03    -109.112E-03     217.056E-03    -108.806E-03     22.8839E-03
            1944     807.254E-06     31.9987E-03    -90.0792E+06    -245.216E+06    -88.7350E+06     77.7151E+03    -108.953E-03     217.667E-03    -108.714E-03     12.7402E-03    -108.930E-03     216.711E-03    -108.672E-03     12.4274E-03
            1945     15.2708E-03     33.7431E-03    -5.96472E+06     112.917E+06     94.8617E+06     44.5751E+03    -124.957E-03     238.550E-03    -113.592E-03     247.814E-03    -139.216E-03     252.913E-03    -113.273E-03     240.514E-03
            1946     14.4691E-03     33.3538E-03    -11.6446E+06     108.955E+06     95.4516E+06    -257.148E+03    -130.243E-03     243.578E-03    -113.336E-03     323.582E-03    -150.143E-03     263.547E-03    -112.999E-03     311.278E-03
            1947     13.6693E-03     32.9978E-03    -15.6011E+06     94.4629E+06     92.7116E+06    -492.777E+03    -129.803E-03     242.851E-03    -113.048E-03     306.174E-03    -145.879E-03     258.938E-03    -112.699E-03     292.344E-03
            1948     12.8692E-03     32.6587E-03    -21.5626E+06     77.6987E+06     81.1780E+06     647.054E+03    -128.655E-03     241.354E-03    -112.698E-03     279.353E-03    -141.028E-03     253.691E-03    -112.374E-03     265.930E-03
            1949     12.0691E-03     32.3653E-03    -28.3535E+06     55.8015E+06     55.9110E+06     1.70919E+06    -125.363E-03     237.623E-03    -112.260E-03     233.981E-03    -133.720E-03     245.915E-03    -112.021E-03     222.638E-03
            1950     11.2692E-03     32.1303E-03    -34.4174E+06     34.9462E+06     27.6214E+06     2.23498E+06    -121.904E-03     233.697E-03    -111.793E-03     188.916E-03    -127.308E-03     239.022E-03    -111.656E-03     179.739E-03
            1951     10.4678E-03     31.9387E-03    -38.8949E+06     11.2165E+06     10.3083E+06     2.04294E+06    -119.859E-03     231.236E-03    -111.377E-03     159.272E-03    -123.546E-03     234.794E-03    -111.285E-03     151.715E-03
            1952     9.66628E-03     31.7696E-03    -42.6131E+06    -33.8388E+06     1.55574E+06     1.43136E+06    -118.497E-03     229.532E-03    -111.035E-03     141.595E-03    -121.147E-03     231.906E-03    -110.917E-03     135.256E-03
            1953     8.86392E-03     31.6163E-03    -46.3317E+06    -85.2375E+06    -3.05045E+06     1.30831E+06    -117.433E-03     228.162E-03    -110.729E-03     128.258E-03    -119.369E-03     229.640E-03    -110.553E-03     122.912E-03
            1954     8.06082E-03     31.4768E-03    -50.5979E+06    -116.874E+06    -8.42269E+06     1.33244E+06    -116.406E-03     226.793E-03    -110.387E-03     115.309E-03    -117.820E-03     227.637E-03    -110.186E-03     110.825E-03
            1955     7.25784E-03     31.3512E-03    -54.9089E+06    -142.226E+06    -14.3692E+06     1.25636E+06    -115.193E-03     225.226E-03    -110.033E-03     102.786E-03    -116.210E-03     225.585E-03    -109.819E-03     99.0641E-03
            1956     6.45334E-03     31.2394E-03    -59.5544E+06    -165.850E+06    -20.6071E+06     1.18902E+06    -113.879E-03     223.572E-03    -109.693E-03     90.8598E-03    -114.599E-03     223.552E-03    -109.470E-03     87.7941E-03
            1957     5.64875E-03     31.1407E-03    -64.9520E+06    -182.971E+06    -29.6415E+06     1.16586E+06    -112.618E-03     221.981E-03    -109.363E-03     79.2011E-03    -113.118E-03     221.687E-03    -109.152E-03     76.7048E-03
            1958     4.84288E-03     31.0551E-03    -69.7687E+06    -198.843E+06    -39.9783E+06     912.650E+03    -111.521E-03     220.578E-03    -109.057E-03     67.8189E-03    -111.853E-03     220.072E-03    -108.867E-03     65.8095E-03
            1959     4.03690E-03     30.9825E-03    -74.5140E+06    -213.178E+06    -50.3878E+06     492.274E+03    -110.543E-03     219.324E-03    -108.780E-03     56.5502E-03    -110.748E-03     218.653E-03    -108.615E-03     54.9623E-03
            1960     3.23019E-03     30.9228E-03    -79.6710E+06    -226.027E+06    -60.8311E+06     245.061E+03    -109.658E-03     218.201E-03    -108.543E-03     45.3004E-03    -109.771E-03     217.405E-03    -108.404E-03     44.0877E-03
            1961     2.42298E-03     30.8764E-03    -84.1797E+06    -234.828E+06    -72.0595E+06     226.047E+03    -108.975E-03     217.316E-03    -108.341E-03     34.1031E-03    -109.022E-03     216.440E-03    -108.239E-03     33.2259E-03
            1962     1.61561E-03     30.8426E-03    -87.8211E+06    -241.252E+06    -81.6142E+06     383.604E+03    -108.490E-03     216.673E-03    -108.183E-03     23.0295E-03    -108.493E-03     215.744E-03    -108.114E-03     22.4575E-03
            1963     807.866E-06     30.8224E-03    -89.9123E+06    -244.463E+06    -88.1909E+06     483.687E+03    -108.178E-03     216.243E-03    -108.065E-03     12.5809E-03    -108.155E-03     215.289E-03    -108.021E-03     12.2808E-03
            1964     15.2659E-03     32.5384E-03    -4.55514E+06     113.776E+06     96.4229E+06     706.938E+03    -126.017E-03     239.568E-03    -113.551E-03     247.005E-03    -140.143E-03     253.802E-03    -113.227E-03     239.607E-03
            1965     14.4713E-03     32.1616E-03    -9.83432E+06     110.531E+06     96.7772E+06    -431.081E+03    -130.724E-03     243.965E-03    -113.241E-03     322.348E-03    -150.489E-03     263.807E-03    -112.903E-03     309.934E-03
            1966     13.6708E-03     31.8027E-03    -17.0135E+06     93.5761E+06     91.1761E+06    -938.980E+03    -130.448E-03     243.351E-03    -112.902E-03     305.496E-03    -146.499E-03     259.408E-03    -112.558E-03     291.559E-03
            1967     12.8718E-03     31.4656E-03    -24.6065E+06     75.0809E+06     78.9131E+06     70.6237E+03    -129.042E-03     241.547E-03    -112.505E-03     278.130E-03    -141.361E-03     253.817E-03    -112.184E-03     264.686E-03
            1968     12.0727E-03     31.1725E-03    -30.6146E+06     54.2567E+06     55.0651E+06     1.45879E+06    -125.724E-03     237.750E-03    -112.025E-03     232.792E-03    -134.038E-03     245.987E-03    -111.784E-03     221.449E-03
            1969     11.2718E-03     30.9400E-03    -35.1185E+06     35.2004E+06     28.1767E+06     2.03458E+06    -122.255E-03     233.764E-03    -111.509E-03     187.526E-03    -127.615E-03     239.043E-03    -111.369E-03     178.363E-03
            1970     10.4714E-03     30.7483E-03    -38.9137E+06     12.3511E+06     10.9997E+06     1.82328E+06    -119.928E-03     230.974E-03    -111.046E-03     157.768E-03    -123.574E-03     234.494E-03    -110.952E-03     150.251E-03
            1971     9.66987E-03     30.5822E-03    -42.5080E+06    -32.9156E+06     1.52038E+06     1.62486E+06    -118.576E-03     229.235E-03    -110.659E-03     140.115E-03    -121.197E-03     231.584E-03    -110.542E-03     133.814E-03
            1972     8.86741E-03     30.4298E-03     -46.524E+06    -85.2654E+06    -3.45849E+06     1.54401E+06    -117.546E-03     227.847E-03    -110.301E-03     126.766E-03    -119.460E-03     229.303E-03    -110.127E-03     121.450E-03
            1973     8.06510E-03     30.2913E-03    -50.5981E+06    -116.056E+06    -8.43801E+06     1.43658E+06    -116.329E-03     226.235E-03    -109.906E-03     113.709E-03    -117.722E-03     227.061E-03    -109.707E-03     109.266E-03
            1974     7.26125E-03     30.1678E-03    -54.9713E+06    -142.061E+06    -14.5812E+06     1.13331E+06    -114.962E-03     224.468E-03    -109.506E-03     101.118E-03    -115.962E-03     224.811E-03    -109.293E-03     97.4320E-03
            1975     6.45726E-03     30.0573E-03    -59.6557E+06    -165.671E+06    -20.4954E+06     1.31874E+06    -113.558E-03     222.686E-03    -109.127E-03     89.2351E-03    -114.266E-03     222.652E-03    -108.903E-03     86.2068E-03
            1976     5.65193E-03     29.9603E-03    -64.4605E+06    -181.839E+06    -29.1008E+06     1.28127E+06    -112.246E-03     221.001E-03    -108.755E-03     77.7540E-03    -112.736E-03     220.701E-03    -108.544E-03     75.2936E-03
            1977     4.84626E-03     29.8760E-03    -69.4951E+06    -198.227E+06    -39.5589E+06     840.793E+03    -111.045E-03     219.455E-03    -108.410E-03     66.4711E-03    -111.368E-03     218.943E-03    -108.220E-03     64.4914E-03
            1978     4.03961E-03     29.8044E-03    -74.4946E+06    -212.746E+06    -50.1527E+06     720.991E+03    -109.932E-03     218.037E-03    -108.105E-03     55.3176E-03    -110.132E-03     217.362E-03    -107.939E-03     53.7601E-03
            1979     3.23242E-03     29.7461E-03    -79.3626E+06    -225.633E+06    -60.5435E+06     618.294E+03    -109.015E-03     216.862E-03    -107.847E-03     44.3393E-03    -109.123E-03     216.064E-03    -107.708E-03     43.1530E-03
            1980     2.42487E-03     29.7001E-03    -83.9748E+06    -234.582E+06    -72.1204E+06     446.205E+03    -108.305E-03     215.930E-03    -107.625E-03     33.4260E-03    -108.349E-03     215.053E-03    -107.524E-03     32.5677E-03
            1981     1.61669E-03     29.6675E-03    -87.5396E+06    -240.954E+06    -81.8080E+06     177.690E+03    -107.797E-03     215.241E-03    -107.445E-03     22.5417E-03    -107.798E-03     214.314E-03    -107.378E-03     21.9779E-03
            1982     808.471E-06     29.6468E-03    -89.6835E+06    -244.022E+06    -87.9458E+06     18.8436E+03    -107.430E-03     214.743E-03    -107.312E-03     12.1434E-03    -107.407E-03     213.790E-03    -107.268E-03     11.8426E-03
            1983     15.2748E-03     31.3486E-03    -5.09058E+06     113.476E+06     96.4813E+06    -322.485E+03    -126.813E-03     240.314E-03    -113.501E-03     246.058E-03    -140.867E-03     254.473E-03    -113.176E-03     238.536E-03
            1984     14.4704E-03     30.9640E-03    -10.0441E+06     110.476E+06     97.0725E+06     374.371E+03    -131.449E-03     244.594E-03    -113.145E-03     321.544E-03    -151.140E-03     264.359E-03    -112.805E-03     309.022E-03
            1985     13.6737E-03     30.6078E-03    -17.0443E+06     94.7949E+06     91.7608E+06     1.10164E+06    -131.062E-03     243.815E-03    -112.753E-03     303.955E-03    -147.023E-03     259.786E-03    -112.407E-03     289.987E-03
            1986     12.8747E-03     30.2723E-03    -24.1508E+06     74.7314E+06     78.6394E+06     645.154E+03    -129.459E-03     241.764E-03    -112.305E-03     277.336E-03    -141.699E-03     253.955E-03    -111.985E-03     263.893E-03
            1987     12.0745E-03     29.9799E-03    -30.0532E+06     52.6134E+06     54.7414E+06     978.120E+03    -126.264E-03     238.040E-03    -111.776E-03     231.444E-03    -134.503E-03     246.200E-03    -111.535E-03     220.089E-03
            1988     11.2760E-03     29.7480E-03    -34.8122E+06     35.2340E+06     28.7242E+06     1.48839E+06    -122.510E-03     233.718E-03    -111.208E-03     185.586E-03    -127.804E-03     238.930E-03    -111.065E-03     176.451E-03
            1989     10.4750E-03     29.5599E-03    -38.8772E+06     12.4046E+06     10.8955E+06     1.71238E+06    -120.063E-03     230.756E-03    -110.693E-03     155.960E-03    -123.664E-03     234.231E-03    -110.600E-03     148.480E-03
            1990     9.67329E-03     29.3940E-03    -42.7959E+06    -32.2084E+06     1.36454E+06     1.94838E+06    -118.776E-03     229.027E-03    -110.251E-03     138.287E-03    -121.366E-03     231.347E-03    -110.136E-03     132.018E-03
            1991     8.87204E-03     29.2435E-03    -46.7039E+06    -84.3145E+06    -3.49509E+06     1.59623E+06    -117.639E-03     227.472E-03    -109.832E-03     124.830E-03    -119.528E-03     228.905E-03    -109.660E-03     119.546E-03
            1992     8.06889E-03     29.1071E-03    -50.8960E+06    -115.495E+06    -8.72170E+06     1.23591E+06    -116.170E-03     225.553E-03    -109.383E-03     111.792E-03    -117.541E-03     226.358E-03    -109.185E-03     107.390E-03
            1993     7.26570E-03     28.9848E-03    -55.1550E+06    -141.732E+06    -14.7459E+06     1.27722E+06    -114.670E-03     223.610E-03    -108.939E-03     99.2425E-03    -115.652E-03     223.935E-03    -108.728E-03     95.6007E-03
            1994     6.46103E-03     28.8766E-03    -59.7323E+06    -165.614E+06    -20.7555E+06     1.15582E+06    -113.224E-03     221.741E-03    -108.517E-03     87.4471E-03    -113.916E-03     221.693E-03    -108.294E-03     84.4551E-03
            1995     5.65575E-03     28.7809E-03    -64.3539E+06    -181.228E+06    -28.8119E+06     957.579E+03    -111.824E-03     219.928E-03    -108.103E-03     76.1466E-03    -112.303E-03     219.618E-03    -107.891E-03     73.7170E-03
            1996     4.84957E-03     28.6980E-03    -69.2808E+06    -197.655E+06    -39.1154E+06     941.402E+03    -110.512E-03     218.232E-03    -107.720E-03     65.0314E-03    -110.828E-03     217.714E-03    -107.529E-03     63.0842E-03
            1997     4.04259E-03     28.6284E-03    -74.4350E+06    -212.334E+06    -49.8698E+06     942.122E+03    -109.329E-03     216.710E-03    -107.381E-03     54.0905E-03    -109.523E-03     216.031E-03    -107.215E-03     52.5654E-03
            1998     3.23490E-03     28.5705E-03    -79.4347E+06    -225.173E+06    -60.4881E+06     841.616E+03    -108.328E-03     215.424E-03    -107.096E-03     43.2726E-03    -108.435E-03     214.624E-03    -106.956E-03     42.1115E-03
            1999     2.42650E-03     28.5261E-03    -83.7556E+06    -233.971E+06    -71.8829E+06     658.699E+03    -107.564E-03     214.418E-03    -106.854E-03     32.6164E-03    -107.607E-03     213.542E-03    -106.753E-03     31.7769E-03
            2000     1.61808E-03     28.4932E-03    -87.1027E+06    -240.235E+06    -81.4953E+06     393.418E+03    -107.004E-03     213.673E-03    -106.669E-03     21.9911E-03    -107.004E-03     212.747E-03    -106.602E-03     21.4404E-03
            2001     809.163E-06     28.4742E-03    -89.5267E+06    -243.981E+06    -88.2603E+06    -2.07578E+03    -106.704E-03     213.193E-03    -106.490E-03     11.9118E-03    -106.679E-03     212.241E-03    -106.447E-03     11.6156E-03
            2002     15.2658E-03     30.1473E-03    -5.62705E+06     113.429E+06     95.5410E+06    -528.461E+03    -127.981E-03     241.435E-03    -113.454E-03     244.769E-03    -141.987E-03     255.546E-03    -113.132E-03     236.993E-03
            2003     14.4747E-03     29.7665E-03    -10.9334E+06     109.294E+06     95.9028E+06    -165.638E+03    -132.167E-03     245.198E-03    -113.031E-03     319.379E-03    -151.697E-03     264.799E-03    -112.694E-03     306.743E-03
            2004     13.6755E-03     29.4132E-03    -16.7704E+06     94.3916E+06     91.4339E+06     1.14781E+06    -131.282E-03     243.882E-03    -112.600E-03     303.216E-03    -147.087E-03     259.697E-03    -112.255E-03     289.289E-03
            2005     12.8762E-03     29.0781E-03    -22.5164E+06     75.2387E+06     79.9869E+06     1.80059E+06    -130.488E-03     242.595E-03    -112.107E-03     276.371E-03    -142.647E-03     254.709E-03    -111.783E-03     262.864E-03
            2006     12.0793E-03     28.7860E-03    -29.0491E+06     52.4945E+06     55.4369E+06     1.78583E+06    -126.830E-03     238.332E-03    -111.502E-03     229.166E-03    -134.974E-03     246.399E-03    -111.259E-03     217.823E-03
            2007     11.2789E-03     28.5578E-03    -34.6675E+06     35.3391E+06     28.0825E+06     1.74803E+06    -122.651E-03     233.520E-03    -110.870E-03     183.323E-03    -127.875E-03     238.666E-03    -110.731E-03     174.237E-03
            2008     10.4788E-03     28.3701E-03    -39.1975E+06     12.4417E+06     10.5355E+06     1.94909E+06    -120.329E-03     230.632E-03    -110.303E-03     153.907E-03    -123.887E-03     234.064E-03    -110.212E-03     146.457E-03
            2009     9.67845E-03     28.2070E-03    -43.0251E+06    -31.6393E+06     1.23244E+06     1.81328E+06    -118.931E-03     228.732E-03    -109.801E-03     136.414E-03    -121.490E-03     231.023E-03    -109.686E-03     130.173E-03
            2010     8.87605E-03     28.0574E-03    -46.7020E+06    -83.2882E+06    -3.77105E+06     1.61317E+06    -117.599E-03     226.922E-03    -109.323E-03     122.879E-03    -119.458E-03     228.331E-03    -109.154E-03     117.640E-03
            2011     8.07401E-03     27.9236E-03    -50.5626E+06    -114.729E+06    -8.55246E+06     1.26762E+06    -116.027E-03     224.850E-03    -108.823E-03     109.780E-03    -117.374E-03     225.635E-03    -108.626E-03     105.418E-03
            2012     7.26985E-03     27.8031E-03    -54.7031E+06    -141.413E+06    -14.3830E+06     1.04057E+06    -114.395E-03     222.726E-03    -108.331E-03     97.2895E-03    -115.356E-03     223.033E-03    -108.118E-03     93.6886E-03
            2013     6.46532E-03     27.6968E-03    -59.0960E+06    -164.850E+06    -20.2668E+06     1.04403E+06    -112.857E-03     220.718E-03    -107.861E-03     85.5162E-03    -113.531E-03     220.656E-03    -107.638E-03     82.5659E-03
            2014     5.65978E-03     27.6027E-03    -64.2132E+06    -181.164E+06    -29.3202E+06     933.394E+03    -111.336E-03     218.736E-03    -107.401E-03     74.3259E-03    -111.802E-03     218.417E-03    -107.192E-03     71.9315E-03
            2015     4.85302E-03     27.5221E-03    -69.5007E+06    -197.864E+06    -39.6305E+06     1.08066E+06    -109.914E-03     216.896E-03    -106.982E-03     63.3741E-03    -110.221E-03     216.368E-03    -106.792E-03     61.4636E-03
            2016     4.04566E-03     27.4530E-03    -74.4691E+06    -211.811E+06    -49.9813E+06     1.19938E+06    -108.689E-03     215.299E-03    -106.610E-03     52.6757E-03    -108.878E-03     214.617E-03    -106.445E-03     51.1805E-03
            2017     3.23751E-03     27.3976E-03    -79.2628E+06    -224.433E+06    -60.3874E+06     986.752E+03    -107.654E-03     213.942E-03    -106.288E-03     42.1333E-03    -107.757E-03     213.141E-03    -106.149E-03     40.9951E-03
            2018     2.42883E-03     27.3530E-03    -83.6034E+06    -233.327E+06    -72.0470E+06     766.783E+03    -106.759E-03     212.777E-03    -106.017E-03     31.6924E-03    -106.800E-03     211.901E-03    -105.918E-03     30.8700E-03
            2019     1.61932E-03     27.3220E-03    -86.9868E+06    -239.590E+06    -81.6807E+06     565.153E+03    -106.091E-03     211.936E-03    -105.845E-03     21.4107E-03    -106.090E-03     211.012E-03    -105.780E-03     20.8737E-03
            2020     809.576E-06     27.3021E-03    -89.1683E+06    -243.151E+06    -87.6752E+06     451.445E+03    -105.885E-03     211.590E-03    -105.706E-03     11.7299E-03    -105.860E-03     210.640E-03    -105.662E-03     11.4445E-03
            2021     15.2759E-03     28.9455E-03    -5.33662E+06     113.497E+06     95.1491E+06     192.422E+03    -128.462E-03     241.848E-03    -113.386E-03     242.993E-03    -142.284E-03     255.778E-03    -113.067E-03     235.185E-03
            2022     14.4756E-03     28.5711E-03    -11.3913E+06     108.529E+06     94.7637E+06     257.902E+03    -132.369E-03     245.305E-03    -112.936E-03     318.368E-03    -151.686E-03     264.692E-03    -112.603E-03     305.757E-03
            2023     13.6763E-03     28.2188E-03    -17.6492E+06     93.0974E+06     90.3928E+06     330.561E+03    -132.709E-03     245.162E-03    -112.454E-03     302.764E-03    -148.432E-03     260.891E-03    -112.111E-03     288.647E-03
            2024     12.8802E-03     27.8803E-03    -23.9969E+06     74.1826E+06     79.1472E+06     942.502E+03    -131.343E-03     243.218E-03    -111.875E-03     274.343E-03    -143.428E-03     255.252E-03    -111.552E-03     260.739E-03
            2025     12.0819E-03     27.5936E-03    -29.5912E+06     52.2537E+06     55.7181E+06     1.62419E+06    -127.098E-03     238.304E-03    -111.206E-03     226.860E-03    -135.152E-03     246.277E-03    -110.960E-03     215.551E-03
            2026     11.2838E-03     27.3662E-03    -34.3040E+06     35.4251E+06     29.2341E+06     2.26813E+06    -123.065E-03     233.581E-03    -110.517E-03     181.378E-03    -128.232E-03     238.668E-03    -110.372E-03     172.317E-03
            2027     10.4837E-03     27.1816E-03    -38.3912E+06     13.1890E+06     11.3290E+06     2.34138E+06    -120.595E-03     230.477E-03    -109.882E-03     151.922E-03    -124.105E-03     233.865E-03    -109.789E-03     144.508E-03
            2028     9.68234E-03     27.0190E-03    -42.2837E+06    -30.5704E+06     1.40804E+06     1.95536E+06    -119.001E-03     228.318E-03    -109.317E-03     134.397E-03    -121.523E-03     230.577E-03    -109.204E-03     128.197E-03
            2029     8.88138E-03     26.8728E-03    -45.9963E+06    -82.3226E+06    -3.52481E+06     1.71576E+06    -117.516E-03     226.302E-03    -108.785E-03     120.729E-03    -119.343E-03     227.683E-03    -108.617E-03     115.538E-03
            2030     8.07810E-03     26.7400E-03    -49.9200E+06    -114.026E+06    -8.38869E+06     1.15132E+06    -115.862E-03     224.094E-03    -108.232E-03     107.624E-03    -117.183E-03     224.857E-03    -108.036E-03     103.303E-03
            2031     7.27488E-03     26.6228E-03    -54.1723E+06    -141.203E+06    -14.3844E+06     1.01592E+06    -114.187E-03     221.870E-03    -107.683E-03     95.1413E-03    -115.126E-03     222.157E-03    -107.472E-03     91.5809E-03
            2032     6.46995E-03     26.5176E-03    -59.1782E+06    -164.762E+06    -20.5938E+06     1.23878E+06    -112.458E-03     219.616E-03    -107.158E-03     83.4460E-03    -113.115E-03     219.538E-03    -106.936E-03     80.5423E-03
            2033     5.66386E-03     26.4266E-03    -64.2627E+06    -180.640E+06    -29.3119E+06     1.21042E+06    -110.807E-03     217.460E-03    -106.653E-03     72.3421E-03    -111.262E-03     217.131E-03    -106.444E-03     69.9894E-03
            2034     4.85711E-03     26.3467E-03    -69.3458E+06    -197.876E+06    -39.6343E+06     1.34563E+06    -109.304E-03     215.497E-03    -106.193E-03     61.6194E-03    -109.601E-03     214.961E-03    -106.004E-03     59.7455E-03
            2035     4.04901E-03     26.2806E-03    -74.2938E+06    -211.263E+06    -50.5351E+06     1.39173E+06    -107.971E-03     213.755E-03    -105.784E-03     51.1875E-03    -108.154E-03     213.070E-03    -105.622E-03     49.7221E-03
            2036     3.24026E-03     26.2249E-03    -78.8821E+06    -223.512E+06    -60.9452E+06     1.16068E+06    -106.847E-03     212.285E-03    -105.438E-03     40.9586E-03    -106.945E-03     211.486E-03    -105.304E-03     39.8450E-03
            2037     2.43084E-03     26.1831E-03    -83.3205E+06    -232.710E+06    -72.1896E+06     912.710E+03    -105.931E-03     211.085E-03    -105.154E-03     30.8423E-03    -105.969E-03     210.211E-03    -105.057E-03     30.0385E-03
            2038     1.62080E-03     26.1518E-03    -86.7291E+06    -238.744E+06    -81.6074E+06     795.089E+03    -105.288E-03     210.238E-03    -104.950E-03     20.8300E-03    -105.286E-03     209.317E-03    -104.887E-03     20.3069E-03
            2039     810.491E-06     26.1333E-03    -88.7691E+06    -242.199E+06    -87.3004E+06     470.084E+03    -104.978E-03     209.753E-03    -104.775E-03     11.4176E-03    -104.953E-03     208.806E-03    -104.731E-03     11.1404E-03
            2040     15.2708E-03     27.7480E-03    -3.86916E+06     113.016E+06     95.2979E+06     981.573E+03    -128.771E-03     242.137E-03    -113.366E-03     243.545E-03    -142.421E-03     255.898E-03    -113.048E-03     235.654E-03
            2041     14.4734E-03     27.3723E-03    -11.2638E+06     108.680E+06     94.2122E+06     1.48210E+06    -133.932E-03     246.798E-03    -112.866E-03     317.358E-03    -153.089E-03     266.028E-03    -112.536E-03     304.496E-03
            2042     13.6802E-03     27.0189E-03    -17.2173E+06     93.9282E+06     90.8153E+06     858.756E+03    -134.184E-03     246.469E-03    -112.285E-03     300.605E-03    -149.821E-03     262.115E-03    -111.942E-03     286.281E-03
            2043     12.8836E-03     26.6856E-03    -23.5856E+06     73.9120E+06     79.0636E+06     530.997E+03    -131.757E-03     243.379E-03    -111.622E-03     272.349E-03    -143.717E-03     255.289E-03    -111.300E-03     258.759E-03
            2044     12.0862E-03     26.3997E-03    -29.5614E+06     51.0154E+06     55.5715E+06     1.10185E+06    -127.450E-03     238.350E-03    -110.900E-03     224.883E-03    -135.412E-03     246.227E-03    -110.653E-03     213.599E-03
            2045     11.2872E-03     26.1748E-03    -34.6268E+06     34.3697E+06     29.3844E+06     2.09344E+06    -123.560E-03     233.708E-03    -110.148E-03     179.206E-03    -128.670E-03     238.733E-03    -110.001E-03     170.151E-03
            2046     10.4881E-03     25.9922E-03    -39.1593E+06     13.8641E+06     11.1038E+06     2.69577E+06    -120.939E-03     230.376E-03    -109.437E-03     149.625E-03    -124.408E-03     233.723E-03    -109.345E-03     142.239E-03
            2047     9.68809E-03     25.8327E-03    -43.2237E+06    -28.6915E+06     1.05811E+06     2.18270E+06    -119.056E-03     227.859E-03    -108.803E-03     132.078E-03    -121.544E-03     230.089E-03    -108.694E-03     125.925E-03
            2048     8.88592E-03     25.6877E-03    -46.8607E+06    -81.1465E+06    -4.71738E+06     1.01130E+06    -117.414E-03     225.625E-03    -108.211E-03     118.453E-03    -119.212E-03     226.983E-03    -108.049E-03     113.299E-03
            2049     8.08377E-03     25.5585E-03    -50.3923E+06    -113.709E+06    -9.86351E+06     755.475E+03    -115.712E-03     223.312E-03    -107.600E-03     105.318E-03    -117.005E-03     224.051E-03    -107.412E-03     101.042E-03
            2050     7.27957E-03     25.4421E-03    -54.6865E+06     -141.62E+06    -15.3395E+06     1.39807E+06    -113.895E-03     220.892E-03    -106.997E-03     92.7999E-03    -114.811E-03     221.157E-03    -106.790E-03     89.2904E-03
            2051     6.47470E-03     25.3410E-03    -59.4449E+06    -164.309E+06    -20.9041E+06     1.55584E+06    -112.051E-03     218.471E-03    -106.420E-03     81.2232E-03    -112.695E-03     218.381E-03    -106.200E-03     78.3618E-03
            2052     5.66858E-03     25.2507E-03    -64.5433E+06    -180.180E+06    -29.5642E+06     1.46092E+06    -110.225E-03     216.093E-03    -105.868E-03     70.3121E-03    -110.668E-03     215.754E-03    -105.661E-03     68.0055E-03
            2053     4.86089E-03     25.1744E-03    -69.4486E+06    -197.562E+06    -40.1119E+06     1.63345E+06    -108.598E-03     213.972E-03    -105.374E-03     59.9382E-03    -108.888E-03     213.430E-03    -105.187E-03     58.1024E-03
            2054     4.05260E-03     25.1085E-03    -74.2680E+06    -210.404E+06    -51.6601E+06     1.49638E+06    -107.190E-03     212.127E-03    -104.937E-03     49.8549E-03    -107.367E-03     211.442E-03    -104.782E-03     48.4214E-03
            2055     3.24318E-03     25.0561E-03    -79.1022E+06    -222.859E+06    -62.0569E+06     1.24919E+06    -105.982E-03     210.562E-03    -104.581E-03     39.8794E-03    -106.076E-03     209.765E-03    -104.453E-03     38.7915E-03
            2056     2.43280E-03     25.0138E-03    -83.0692E+06    -232.004E+06    -72.2094E+06     1.17620E+06    -105.115E-03     209.406E-03    -104.291E-03     30.0253E-03    -105.151E-03     208.533E-03    -104.195E-03     29.2421E-03
            2057     1.62237E-03     24.9846E-03    -86.0548E+06    -237.503E+06    -80.9843E+06     928.929E+03    -104.520E-03     208.563E-03    -104.043E-03     20.2989E-03    -104.516E-03     207.645E-03    -103.979E-03     19.7882E-03
            2058     811.396E-06     24.9655E-03    -88.0271E+06    -241.049E+06    -86.7489E+06     543.541E+03    -104.040E-03     207.864E-03    -103.824E-03     11.1091E-03    -104.013E-03     206.921E-03    -103.781E-03     10.8390E-03
            2059     15.2713E-03     26.5462E-03    -4.22357E+06     112.165E+06     95.7022E+06     1.24914E+06    -130.893E-03     244.264E-03    -113.371E-03     240.634E-03    -144.321E-03     257.798E-03    -113.049E-03     232.458E-03
            2060     14.4791E-03     26.1721E-03    -9.76335E+06     109.751E+06     95.8445E+06     1.75001E+06    -135.501E-03     248.254E-03    -112.753E-03     314.527E-03    -154.424E-03     267.254E-03    -112.418E-03     301.398E-03
            2061     13.6821E-03     25.8199E-03    -16.6623E+06     94.6794E+06     90.5821E+06     1.38773E+06    -134.544E-03     246.632E-03    -112.088E-03     298.912E-03    -150.032E-03     262.135E-03    -111.749E-03     284.576E-03
            2062     12.8864E-03     25.4891E-03    -23.3866E+06     74.1945E+06     78.8274E+06     1.19037E+06    -132.295E-03     243.670E-03    -111.375E-03     270.268E-03    -144.123E-03     255.450E-03    -111.055E-03     256.694E-03
            2063     12.0894E-03     25.2056E-03    -29.6493E+06     50.3338E+06     54.8283E+06     1.35548E+06    -128.249E-03     238.827E-03    -110.578E-03     222.566E-03    -136.128E-03     246.620E-03    -110.334E-03     211.259E-03
            2064     11.2923E-03     24.9832E-03    -35.1304E+06     32.8781E+06     28.3380E+06     2.14548E+06    -124.018E-03     233.762E-03    -109.744E-03     176.223E-03    -129.044E-03     238.698E-03    -109.599E-03     167.195E-03
            2065     10.4933E-03     24.8029E-03    -38.9885E+06     14.4507E+06     11.7034E+06     2.50264E+06    -121.067E-03     230.035E-03    -108.968E-03     146.935E-03    -124.477E-03     233.325E-03    -108.874E-03     139.595E-03
            2066     9.69276E-03     24.6461E-03    -41.6972E+06    -26.6874E+06     1.40276E+06     1.87111E+06    -119.131E-03     227.400E-03    -108.268E-03     129.677E-03    -121.574E-03     229.595E-03    -108.162E-03     123.565E-03
            2067     8.89158E-03     24.5045E-03    -45.2507E+06    -80.1978E+06    -4.96534E+06     1.53347E+06    -117.426E-03     225.037E-03    -107.611E-03     116.061E-03    -119.184E-03     226.364E-03    -107.453E-03     110.958E-03
            2068     8.08863E-03     24.3763E-03    -50.1757E+06    -113.408E+06    -10.1425E+06     1.59111E+06    -115.511E-03     222.451E-03    -106.940E-03     102.765E-03    -116.774E-03     223.163E-03    -106.753E-03     98.5505E-03
            2069     7.28506E-03     24.2643E-03    -54.8861E+06    -141.696E+06    -15.8164E+06     1.51098E+06    -113.477E-03     219.763E-03    -106.285E-03     90.3611E-03    -114.371E-03     220.004E-03    -106.079E-03     86.9048E-03
            2070     6.47971E-03     24.1638E-03    -59.4332E+06    -163.886E+06    -21.1936E+06     1.76169E+06    -111.437E-03     217.108E-03    -105.671E-03     79.0837E-03    -112.063E-03     217.003E-03    -105.453E-03     76.2752E-03
            2071     5.67298E-03     24.0780E-03    -64.2037E+06    -179.328E+06    -29.8428E+06     1.84729E+06    -109.568E-03     214.661E-03    -105.093E-03     68.6183E-03    -109.998E-03     214.313E-03    -104.889E-03     66.3600E-03
            2072     4.86513E-03     24.0024E-03    -69.1958E+06    -197.570E+06    -40.3042E+06     1.69704E+06    -107.907E-03     212.483E-03    -104.576E-03     58.4714E-03    -108.186E-03     211.932E-03    -104.391E-03     56.6730E-03
            2073     4.05579E-03     23.9398E-03    -74.1239E+06    -209.692E+06    -51.2876E+06     1.87700E+06    -106.417E-03     210.537E-03    -104.120E-03     48.4975E-03    -106.588E-03     209.850E-03    -103.965E-03     47.0996E-03
            2074     3.24564E-03     23.8876E-03    -78.7497E+06    -221.668E+06    -61.8317E+06     1.53030E+06    -105.246E-03     208.985E-03    -103.739E-03     38.7349E-03    -105.338E-03     208.189E-03    -103.612E-03     37.6750E-03
            2075     2.43514E-03     23.8478E-03    -82.7393E+06    -231.180E+06    -72.3341E+06     1.03466E+06    -104.323E-03     207.739E-03    -103.416E-03     29.1195E-03    -104.356E-03     206.868E-03    -103.323E-03     28.3535E-03
            2076     1.62362E-03     23.8181E-03    -85.4563E+06    -236.542E+06    -80.8258E+06     826.732E+03    -103.602E-03     206.763E-03    -103.160E-03     19.6136E-03    -103.596E-03     205.848E-03    -103.098E-03     19.1146E-03
            2077     811.999E-06     23.8011E-03    -87.0735E+06    -239.543E+06    -85.8284E+06     600.697E+03    -103.153E-03     206.116E-03    -102.962E-03     10.5943E-03    -103.125E-03     205.177E-03    -102.918E-03     10.3291E-03
            2078     15.2739E-03     25.3397E-03    -5.57155E+06     110.059E+06     94.5550E+06     234.263E+03    -132.856E-03     246.185E-03    -113.329E-03     238.912E-03    -146.175E-03     259.601E-03    -113.008E-03     230.465E-03
            2079     14.4787E-03     24.9717E-03    -9.88856E+06     107.884E+06     95.6888E+06     1.39164E+06    -136.421E-03     249.052E-03    -112.631E-03     313.580E-03    -155.193E-03     267.895E-03    -112.294E-03     300.331E-03
            2080     13.6851E-03     24.6199E-03    -15.4896E+06     95.8360E+06     91.7822E+06     2.56505E+06    -135.352E-03     247.257E-03    -111.905E-03     297.024E-03    -150.655E-03     262.580E-03    -111.563E-03     282.674E-03
            2081     12.8895E-03     24.2928E-03    -22.3455E+06     75.2165E+06     79.2181E+06     2.39428E+06    -133.197E-03     244.309E-03    -111.112E-03     267.734E-03    -144.877E-03     255.947E-03    -110.792E-03     254.127E-03
            2082     12.0941E-03     24.0096E-03    -29.1596E+06     50.3830E+06     54.8343E+06     2.48482E+06    -129.008E-03     239.232E-03    -110.225E-03     219.400E-03    -136.762E-03     246.903E-03    -109.981E-03     208.103E-03
            2083     11.2972E-03     23.7915E-03    -34.2907E+06     32.9400E+06     29.8055E+06     2.35492E+06    -124.288E-03     233.607E-03    -109.319E-03     173.199E-03    -129.215E-03     238.443E-03    -109.168E-03     164.235E-03
            2084     10.4984E-03     23.6144E-03    -37.8967E+06     15.3945E+06     12.7247E+06     1.52973E+06    -121.162E-03     229.640E-03    -108.478E-03     144.363E-03    -124.511E-03     232.873E-03    -108.381E-03     137.066E-03
            2085     9.69819E-03     23.4604E-03    -41.7779E+06    -26.4797E+06     633.561E+03     1.91503E+06    -119.186E-03     226.898E-03    -107.711E-03     127.056E-03    -121.583E-03     229.051E-03    -107.609E-03     120.994E-03
            2086     8.89701E-03     23.3204E-03    -46.2579E+06    -79.5075E+06    -6.08794E+06     2.61440E+06    -117.359E-03     224.349E-03    -106.990E-03     113.482E-03    -119.087E-03     225.648E-03    -106.838E-03     108.442E-03
            2087     8.09467E-03     23.1968E-03    -50.1857E+06    -112.221E+06    -10.4380E+06     2.23574E+06    -115.184E-03     221.450E-03    -106.266E-03     100.281E-03    -116.419E-03     222.139E-03    -106.083E-03     96.1305E-03
            2088     7.29024E-03     23.0858E-03    -54.3087E+06    -141.348E+06    -15.9455E+06     1.92306E+06    -112.875E-03     218.454E-03    -105.579E-03     88.0733E-03    -113.741E-03     218.672E-03    -105.375E-03     84.6859E-03
            2089     6.48442E-03     22.9904E-03    -59.1014E+06    -163.653E+06    -21.9168E+06     1.97620E+06    -110.731E-03     215.677E-03    -104.946E-03     77.1123E-03    -111.336E-03     215.555E-03    -104.733E-03     74.3655E-03
            2090     5.67691E-03     22.9051E-03    -64.1645E+06    -178.952E+06    -30.1905E+06     2.02384E+06    -108.907E-03     213.262E-03    -104.355E-03     66.8092E-03    -109.324E-03     212.904E-03    -104.153E-03     64.5974E-03
            2091     4.86848E-03     22.8332E-03    -69.1790E+06    -197.081E+06    -39.9921E+06     2.03304E+06    -107.280E-03     211.096E-03    -103.816E-03     56.7146E-03    -107.551E-03     210.538E-03    -103.630E-03     54.9565E-03
            2092     4.05906E-03     22.7717E-03    -74.0348E+06    -209.013E+06    -50.4974E+06     1.88180E+06    -105.798E-03     209.123E-03    -103.325E-03     46.9540E-03    -105.964E-03     208.431E-03    -103.167E-03     45.5866E-03
            2093     3.24863E-03     22.7220E-03    -78.3377E+06    -220.266E+06    -60.8089E+06     1.69701E+06    -104.536E-03     207.438E-03    -102.902E-03     37.4513E-03    -104.624E-03     206.642E-03    -102.773E-03     36.4183E-03
            2094     2.43713E-03     22.6825E-03    -82.2129E+06    -230.017E+06    -72.1154E+06     1.17846E+06    -103.493E-03     206.040E-03    -102.547E-03     28.1204E-03    -103.523E-03     205.171E-03    -102.455E-03     27.3758E-03
            2095     1.62534E-03     22.6551E-03    -85.3716E+06    -235.713E+06    -81.2095E+06     692.429E+03    -102.690E-03     204.981E-03    -102.291E-03     18.9625E-03    -102.683E-03     204.069E-03    -102.231E-03     18.4745E-03
            2096     812.612E-06     22.6374E-03    -86.9528E+06    -238.452E+06    -85.7844E+06     278.901E+03    -102.277E-03     204.397E-03    -102.120E-03     10.2532E-03    -102.250E-03     203.464E-03    -102.077E-03     9.99118E-03
            2097     15.2724E-03     24.1378E-03    -5.50473E+06     109.607E+06     93.2392E+06     416.813E+03    -134.088E-03     247.393E-03    -113.305E-03     237.861E-03    -147.244E-03     260.648E-03    -112.990E-03     229.141E-03
            2098     14.4808E-03     23.7651E-03    -11.6148E+06     105.611E+06     93.1928E+06     185.056E+03    -137.807E-03     250.327E-03    -112.520E-03     309.888E-03    -156.239E-03     268.823E-03    -112.191E-03     296.419E-03
            2099     13.6874E-03     23.4218E-03    -16.9160E+06     93.8396E+06     90.4389E+06     1.23938E+06    -136.441E-03     248.144E-03    -111.703E-03     294.103E-03    -151.497E-03     263.211E-03    -111.363E-03     279.668E-03
            2100     12.8935E-03     23.0927E-03    -22.5944E+06     74.9786E+06     79.6943E+06     2.91007E+06    -134.236E-03     245.058E-03    -110.822E-03     265.426E-03    -145.783E-03     256.560E-03    -110.499E-03     251.772E-03
            2101     12.0991E-03     22.8149E-03    -28.8376E+06     50.9163E+06     55.7506E+06     3.67106E+06    -129.337E-03     239.191E-03    -109.855E-03     216.234E-03    -136.952E-03     246.724E-03    -109.608E-03     205.019E-03
            2102     11.3020E-03     22.5996E-03    -34.6587E+06     35.4267E+06     28.0493E+06     2.62122E+06    -124.458E-03     233.331E-03    -108.873E-03     170.386E-03    -129.302E-03     238.097E-03    -108.734E-03     161.482E-03
            2103     10.5036E-03     22.4261E-03    -40.0935E+06     15.9891E+06     9.55232E+06     1.87237E+06    -121.392E-03     229.359E-03    -107.967E-03     141.628E-03    -124.691E-03     232.545E-03    -107.884E-03     134.374E-03
            2104     9.70404E-03     22.2744E-03    -44.8431E+06    -27.4337E+06    -1.33349E+06     2.44041E+06    -119.128E-03     226.277E-03    -107.149E-03     124.678E-03    -121.493E-03     228.390E-03    -107.051E-03     118.676E-03
            2105     8.90256E-03     22.1384E-03    -48.2023E+06    -77.9368E+06    -8.05305E+06     2.20948E+06    -117.046E-03     223.423E-03    -106.377E-03     111.259E-03    -118.746E-03     224.698E-03    -106.234E-03     106.281E-03
            2106     8.09964E-03     22.0164E-03    -51.2416E+06    -111.323E+06    -12.4298E+06     1.54849E+06    -114.713E-03     220.334E-03    -105.621E-03     98.0198E-03    -115.919E-03     220.999E-03    -105.447E-03     93.9317E-03
            2107     7.29515E-03     21.9109E-03    -54.8840E+06    -141.621E+06    -16.6979E+06     1.93865E+06    -112.349E-03     217.264E-03    -104.915E-03     85.8324E-03    -113.191E-03     217.457E-03    -104.714E-03     82.5094E-03
            2108     6.48863E-03     21.8166E-03    -59.3596E+06    -163.167E+06    -22.1181E+06     2.36132E+06    -110.267E-03     214.518E-03    -104.252E-03     74.8933E-03    -110.853E-03     214.380E-03    -104.040E-03     72.2038E-03
            2109     5.68132E-03     21.7353E-03    -64.1967E+06    -178.326E+06    -30.8599E+06     2.19598E+06    -108.364E-03     211.983E-03    -103.620E-03     64.5710E-03    -108.766E-03     211.615E-03    -103.422E-03     62.4067E-03
            2110     4.87230E-03     21.6645E-03    -68.9151E+06    -196.482E+06    -39.9636E+06     2.02162E+06    -106.657E-03     209.705E-03    -103.048E-03     54.6426E-03    -106.916E-03     209.138E-03    -102.863E-03     52.9249E-03
            2111     4.06228E-03     21.6058E-03    -73.5398E+06    -208.049E+06    -50.3572E+06     1.88371E+06    -105.142E-03     207.663E-03    -102.522E-03     45.1568E-03    -105.300E-03     206.968E-03    -102.365E-03     43.8227E-03
            2112     3.25120E-03     21.5573E-03    -78.2980E+06    -219.407E+06    -61.1648E+06     1.70061E+06    -103.766E-03     205.833E-03    -102.067E-03     36.0441E-03    -103.850E-03     205.038E-03    -101.941E-03     35.0390E-03
            2113     2.43933E-03     21.5202E-03    -82.3115E+06    -228.754E+06    -71.9324E+06     1.59737E+06    -102.652E-03     204.350E-03    -101.699E-03     27.0297E-03    -102.681E-03     203.484E-03    -101.607E-03     26.3108E-03
            2114     1.62636E-03     21.4930E-03    -85.1863E+06    -234.241E+06    -81.0310E+06     1.01857E+06    -101.856E-03     203.284E-03    -101.429E-03     18.1763E-03    -101.849E-03     202.379E-03    -101.370E-03     17.7063E-03
            2115     813.422E-06     21.4769E-03    -87.2045E+06    -237.458E+06    -86.2339E+06     383.953E+03    -101.401E-03     202.650E-03    -101.250E-03     9.91017E-03    -101.375E-03     201.722E-03    -101.210E-03     9.65931E-03
            2116     15.2724E-03     22.9228E-03    -4.60785E+06     110.567E+06     93.9170E+06     1.56666E+06    -135.707E-03     248.980E-03    -113.272E-03     235.340E-03    -148.543E-03     261.919E-03    -112.957E-03     226.463E-03
            2117     14.4837E-03     22.5629E-03    -10.7402E+06     107.419E+06     93.7333E+06     1.10739E+06    -138.876E-03     251.271E-03    -112.394E-03     305.873E-03    -156.891E-03     269.357E-03    -112.066E-03     292.337E-03
            2118     13.6904E-03     22.2200E-03    -18.0568E+06      91.566E+06     88.6023E+06     1.04515E+06    -137.614E-03     249.101E-03    -111.487E-03     292.411E-03    -152.524E-03     264.016E-03    -111.151E-03     277.842E-03
            2119     12.8979E-03     21.8928E-03    -24.8090E+06     72.4758E+06     78.2246E+06     1.81770E+06    -134.858E-03     245.387E-03    -110.529E-03     262.926E-03    -146.266E-03     256.738E-03    -110.207E-03     249.257E-03
            2120     12.1031E-03     21.6196E-03    -29.6431E+06     50.8178E+06     56.2776E+06     2.47844E+06    -129.646E-03     239.147E-03    -109.501E-03     213.363E-03    -137.148E-03     246.561E-03    -109.250E-03     202.183E-03
            2121     11.3068E-03     21.4078E-03    -33.7505E+06     36.2806E+06     28.7207E+06     3.53071E+06    -124.798E-03     233.249E-03    -108.451E-03     167.353E-03    -129.555E-03     237.932E-03    -108.311E-03     158.502E-03
            2122     10.5091E-03     21.2373E-03    -38.6614E+06     16.8474E+06     9.72339E+06     4.46446E+06    -121.298E-03     228.786E-03    -107.488E-03     139.022E-03    -124.520E-03     231.902E-03    -107.408E-03     131.884E-03
            2123     9.70888E-03     21.0900E-03    -43.1746E+06    -25.6014E+06    -876.242E+03     3.32495E+06    -118.990E-03     225.620E-03    -106.630E-03     122.707E-03    -121.306E-03     227.695E-03    -106.535E-03     116.783E-03
            2124     8.90760E-03     20.9562E-03    -46.9294E+06    -76.1645E+06    -7.96397E+06     1.99598E+06    -116.794E-03     222.613E-03    -105.819E-03     108.961E-03    -118.448E-03     223.854E-03    -105.681E-03     104.052E-03
            2125     8.10439E-03     20.8389E-03    -50.9556E+06    -111.067E+06    -13.3283E+06     1.71571E+06    -114.343E-03     219.371E-03    -105.028E-03     95.3972E-03    -115.508E-03     219.999E-03    -104.860E-03     91.3865E-03
            2126     7.29935E-03     20.7354E-03    -55.4816E+06    -142.129E+06    -18.0759E+06     2.01972E+06    -112.130E-03     216.407E-03    -104.277E-03     83.1642E-03    -112.943E-03     216.571E-03    -104.081E-03     79.9013E-03
            2127     6.49343E-03     20.6451E-03    -59.9621E+06    -162.794E+06    -22.9026E+06     2.42973E+06    -110.004E-03     213.558E-03    -103.554E-03     72.2480E-03    -110.571E-03     213.401E-03    -103.346E-03     69.6113E-03
            2128     5.68531E-03     20.5656E-03    -64.3842E+06    -176.784E+06    -30.2242E+06     2.04174E+06    -107.959E-03     210.822E-03    -102.863E-03     61.9958E-03    -108.348E-03     210.443E-03    -102.664E-03     59.8792E-03
            2129     4.87621E-03     20.4983E-03    -69.0258E+06    -196.019E+06    -39.4732E+06     1.54319E+06    -106.057E-03     208.295E-03    -102.238E-03     52.1932E-03    -106.305E-03     207.716E-03    -102.051E-03     50.5158E-03
            2130     4.06565E-03     20.4410E-03    -73.8073E+06    -208.102E+06    -50.4829E+06     1.87998E+06    -104.338E-03     206.014E-03    -101.676E-03     42.9934E-03    -104.488E-03     205.310E-03    -101.520E-03     41.6993E-03
            2131     3.25400E-03     20.3953E-03    -78.2339E+06    -218.206E+06    -61.3628E+06     2.10961E+06    -102.946E-03     204.145E-03    -101.199E-03     34.1792E-03    -103.025E-03     203.350E-03    -101.076E-03     33.2115E-03
            2132     2.44122E-03     20.3590E-03    -82.1365E+06    -227.516E+06    -72.0519E+06     1.66054E+06    -101.854E-03     202.656E-03    -100.802E-03     25.5709E-03    -101.881E-03     201.792E-03    -100.713E-03     24.8762E-03
            2133     1.62817E-03     20.3337E-03    -85.0256E+06    -232.529E+06    -79.9323E+06     1.38945E+06    -101.032E-03     201.515E-03    -100.482E-03     17.0310E-03    -101.027E-03     200.614E-03    -100.422E-03     16.5829E-03
            2134     814.096E-06     20.3174E-03    -87.1215E+06    -235.746E+06    -85.4938E+06     941.844E+03    -100.521E-03     200.677E-03    -100.155E-03     9.11879E-03    -100.498E-03     199.755E-03    -100.115E-03     8.88644E-03
            2135     15.2761E-03     21.7123E-03    -4.58433E+06     109.003E+06     93.7543E+06     1.95496E+06    -136.948E-03     250.176E-03    -113.228E-03     232.588E-03    -149.508E-03     262.835E-03    -112.911E-03     223.632E-03
            2136     14.4834E-03     21.3585E-03    -10.1142E+06     108.199E+06     94.0549E+06     2.70498E+06    -139.583E-03     251.871E-03    -112.288E-03     304.416E-03    -157.400E-03     269.764E-03    -111.960E-03     290.780E-03
            2137     13.6933E-03     21.0141E-03    -16.3034E+06     93.2543E+06     90.2288E+06     2.45391E+06    -138.974E-03     250.282E-03    -111.309E-03     290.018E-03    -153.729E-03     265.050E-03    -110.969E-03     275.328E-03
            2138     12.9011E-03     20.6944E-03    -22.3404E+06     72.5665E+06     79.4092E+06     1.87753E+06    -135.426E-03     245.690E-03    -110.264E-03     259.932E-03    -146.623E-03     256.835E-03    -109.940E-03     246.304E-03
            2139     12.1069E-03     20.4227E-03    -28.5798E+06     49.6030E+06     56.3051E+06     2.17002E+06    -130.108E-03     239.274E-03    -109.167E-03     210.287E-03    -137.460E-03     246.538E-03    -108.916E-03     199.145E-03
            2140     11.3120E-03     20.2153E-03    -34.4472E+06     33.6957E+06     29.2876E+06     4.11667E+06    -124.816E-03     232.885E-03    -108.069E-03     164.149E-03    -129.450E-03     237.432E-03    -107.922E-03     155.414E-03
            2141     10.5132E-03     20.0505E-03    -38.6301E+06     17.8908E+06     10.4951E+06     5.22138E+06    -121.278E-03     228.338E-03    -107.059E-03     136.518E-03    -124.422E-03     231.377E-03    -106.977E-03     129.482E-03
            2142     9.71323E-03     19.9049E-03    -42.1399E+06    -21.5896E+06    -360.733E+03     4.02281E+06    -118.997E-03     225.146E-03    -106.149E-03     119.964E-03    -121.251E-03     227.174E-03    -106.058E-03     114.128E-03
            2143     8.91194E-03     19.7752E-03    -46.1165E+06    -74.8622E+06    -7.75752E+06     2.65431E+06    -116.757E-03     222.043E-03    -105.286E-03     105.594E-03    -118.354E-03     223.233E-03    -105.149E-03     100.769E-03
            2144     8.10882E-03     19.6616E-03    -50.0378E+06    -110.437E+06    -13.6363E+06     2.45332E+06    -114.407E-03     218.830E-03    -104.423E-03     91.8343E-03    -115.523E-03     219.416E-03    -104.259E-03     87.9001E-03
            2145     7.30434E-03     19.5611E-03    -53.7936E+06    -142.021E+06    -18.2487E+06     2.61239E+06    -112.094E-03     215.683E-03    -103.589E-03     79.3663E-03    -112.860E-03     215.807E-03    -103.396E-03     76.1766E-03
            2146     6.49778E-03     19.4740E-03    -57.9385E+06    -162.140E+06    -23.1025E+06     2.40104E+06    -109.776E-03     212.555E-03    -102.779E-03     68.3988E-03    -110.303E-03     212.368E-03    -102.575E-03     65.8241E-03
            2147     5.69015E-03     19.3977E-03    -62.7284E+06    -175.709E+06    -30.3560E+06     2.21105E+06    -107.519E-03     209.529E-03    -102.010E-03     58.4280E-03    -107.878E-03     209.129E-03    -101.816E-03     56.3780E-03
            2148     4.88067E-03     19.3330E-03    -68.2954E+06    -195.601E+06    -39.0554E+06     2.37110E+06    -105.422E-03     206.745E-03    -101.323E-03     48.9336E-03    -105.650E-03     206.150E-03    -101.136E-03     47.3221E-03
            2149     4.06949E-03     19.2790E-03    -73.8025E+06    -207.569E+06    -49.8852E+06     2.29379E+06    -103.582E-03     204.287E-03    -100.705E-03     40.1418E-03    -103.722E-03     203.573E-03    -100.547E-03     38.9004E-03
            2150     3.25705E-03     19.2344E-03    -78.4287E+06    -217.064E+06    -60.8824E+06     1.99875E+06    -102.079E-03     202.252E-03    -100.173E-03     31.6461E-03    -102.154E-03     201.454E-03    -100.049E-03     30.7159E-03
            2151     2.44394E-03     19.2005E-03    -82.0610E+06    -226.017E+06    -71.8679E+06     1.65624E+06    -100.887E-03     200.610E-03    -99.7233E-03     23.5450E-03    -100.912E-03     199.750E-03    -99.6359E-03     22.8811E-03
            2152     1.62969E-03     19.1756E-03    -84.7112E+06    -231.012E+06    -79.5608E+06     979.821E+03    -99.9590E-03     199.326E-03    -99.3671E-03     15.6820E-03    -99.9529E-03     198.430E-03    -99.3071E-03     15.2508E-03
            2153     815.375E-06     19.1614E-03    -86.4708E+06    -233.888E+06    -84.4327E+06     703.982E+03    -99.4121E-03     198.416E-03    -99.0043E-03     8.43697E-03    -99.3893E-03     197.501E-03    -98.9619E-03     8.21242E-03
            2154     15.2750E-03     20.5111E-03    -5.31463E+06     107.106E+06      92.967E+06     1.47040E+06    -139.048E-03     252.316E-03    -113.268E-03     230.298E-03    -151.462E-03     264.823E-03    -112.951E-03     220.992E-03
            2155     14.4846E-03     20.1457E-03    -9.99064E+06     108.257E+06     94.7393E+06     2.76224E+06    -141.597E-03     253.814E-03    -112.217E-03     301.970E-03    -159.130E-03     271.421E-03    -111.886E-03     288.062E-03
            2156     13.6958E-03     19.8107E-03    -15.0854E+06     94.3078E+06     91.1894E+06     2.17299E+06    -139.463E-03     250.611E-03    -111.148E-03     286.501E-03    -153.888E-03     265.053E-03    -110.807E-03     271.862E-03
            2157     12.9039E-03     19.4928E-03    -20.7724E+06     72.0641E+06     79.5761E+06     2.62305E+06    -136.271E-03     246.306E-03    -110.035E-03     257.321E-03    -147.268E-03     257.255E-03    -109.712E-03     243.702E-03
            2158     12.1118E-03     19.2258E-03    -27.7433E+06     47.9742E+06     56.3913E+06      4.8496E+06    -130.446E-03     239.320E-03    -108.874E-03     206.735E-03    -137.587E-03     246.369E-03    -108.621E-03     195.745E-03
            2159     11.3148E-03     19.0243E-03    -34.3816E+06     33.1607E+06     30.1125E+06     5.63943E+06    -125.011E-03     232.738E-03    -107.727E-03     160.863E-03    -129.501E-03     237.136E-03    -107.574E-03     152.264E-03
            2160     10.5173E-03     18.8621E-03    -39.0153E+06     19.6510E+06     10.6826E+06     4.61747E+06    -121.961E-03     228.597E-03    -106.636E-03     132.907E-03    -125.016E-03     231.552E-03    -106.554E-03     125.911E-03
            2161     9.71832E-03     18.7206E-03    -42.4549E+06    -19.1226E+06    -845.362E+03     3.99857E+06    -119.532E-03     225.150E-03    -105.618E-03     115.431E-03    -121.702E-03     227.104E-03    -105.533E-03     109.664E-03
            2162     8.91697E-03     18.5948E-03    -46.1048E+06    -72.8023E+06    -7.75253E+06     3.41173E+06    -117.169E-03     221.815E-03    -104.646E-03     100.380E-03    -118.691E-03     222.937E-03    -104.512E-03     95.6421E-03
            2163     8.11461E-03     18.4839E-03    -50.2429E+06    -109.892E+06    -13.9333E+06     3.04812E+06    -114.659E-03     218.321E-03    -103.663E-03     86.0635E-03    -115.708E-03     218.843E-03    -103.500E-03     82.2217E-03
            2164     7.31029E-03     18.3879E-03    -54.1789E+06    -141.010E+06    -19.6204E+06     2.71231E+06    -111.999E-03     214.704E-03    -102.705E-03     73.7866E-03    -112.711E-03     214.780E-03    -102.520E-03     70.6915E-03
            2165     6.50435E-03     18.3039E-03    -57.7396E+06    -161.080E+06    -24.4272E+06     2.04779E+06    -109.433E-03     211.222E-03    -101.789E-03     63.1289E-03    -109.916E-03     210.999E-03    -101.593E-03     60.6420E-03
            2166     5.69597E-03     18.2316E-03    -61.9399E+06    -176.554E+06    -31.7311E+06     2.79187E+06    -106.941E-03     207.865E-03    -100.925E-03     53.3579E-03    -107.259E-03     207.429E-03    -100.738E-03     51.4008E-03
            2167     4.88574E-03     18.1699E-03    -66.7520E+06    -194.800E+06    -38.9865E+06     3.65367E+06    -104.691E-03     204.841E-03    -100.150E-03     44.2799E-03    -104.889E-03     204.224E-03    -99.9659E-03     42.7605E-03
            2168     4.07438E-03     18.1184E-03    -71.9699E+06    -205.694E+06    -48.0495E+06     3.34466E+06    -102.701E-03     202.148E-03    -99.4467E-03     35.9720E-03    -102.822E-03     201.422E-03    -99.2843E-03     34.8071E-03
            2169     3.26155E-03     18.0766E-03    -77.3508E+06    -215.304E+06    -60.1139E+06     2.49105E+06    -100.960E-03     199.789E-03    -98.8285E-03     28.3226E-03    -101.024E-03     198.987E-03    -98.7047E-03     27.4518E-03
            2170     2.44722E-03     18.0441E-03    -81.6298E+06    -224.149E+06    -71.3870E+06     1.41890E+06    -99.5629E-03     197.888E-03    -98.3253E-03     20.9707E-03    -99.5832E-03     197.030E-03    -98.2389E-03     20.3448E-03
            2171     1.63215E-03     18.0212E-03    -84.5243E+06    -229.628E+06    -79.9345E+06     645.974E+03    -98.4998E-03     196.457E-03    -97.9570E-03     13.8598E-03    -98.4915E-03     195.565E-03    -97.9012E-03     13.4525E-03
            2172     815.860E-06     18.0073E-03    -86.3246E+06    -232.958E+06    -85.1367E+06     9.62378E+03    -97.9045E-03     195.612E-03    -97.7078E-03     7.30672E-03    -97.8804E-03     194.702E-03    -97.6705E-03     7.08726E-03
            2173     15.2688E-03     19.2845E-03    -5.45452E+06     105.538E+06     92.3560E+06     821.982E+03    -140.563E-03     253.872E-03    -113.309E-03     226.666E-03    -152.684E-03     266.081E-03    -112.993E-03     217.084E-03
            2174     14.4890E-03     18.9377E-03    -9.58038E+06     107.640E+06     94.6734E+06     1.18229E+06    -142.825E-03     254.978E-03    -112.153E-03     295.805E-03    -159.857E-03     272.084E-03    -111.822E-03     281.823E-03
            2175     13.6966E-03     18.6067E-03    -15.2330E+06     93.2956E+06     90.0628E+06     2.52066E+06    -139.986E-03     250.994E-03    -111.008E-03     284.638E-03    -154.116E-03     265.141E-03    -110.671E-03     270.049E-03
            2176     12.9065E-03     18.2883E-03    -23.2142E+06     70.0704E+06     77.2945E+06     4.35671E+06    -136.921E-03     246.764E-03    -109.843E-03     254.164E-03    -147.661E-03     257.447E-03    -109.525E-03     240.627E-03
            2177     12.1135E-03     18.0297E-03    -30.2669E+06     46.6063E+06     56.0541E+06     5.27970E+06    -131.364E-03     239.972E-03    -108.609E-03     202.084E-03    -138.283E-03     246.788E-03    -108.352E-03     191.174E-03
            2178     11.3190E-03     17.8321E-03    -34.3487E+06     34.6614E+06     31.6098E+06     5.22468E+06    -126.506E-03     233.840E-03    -107.334E-03     155.277E-03    -130.832E-03     238.076E-03    -107.177E-03     146.681E-03
            2179     10.5226E-03     17.6728E-03    -37.9866E+06     21.5963E+06     11.4082E+06     4.85741E+06    -123.175E-03     229.253E-03    -106.077E-03     126.442E-03    -126.084E-03     232.071E-03    -105.996E-03     119.502E-03
            2180     9.72435E-03     17.5363E-03    -42.1867E+06    -17.7130E+06    -1.06753E+06     4.47401E+06    -120.719E-03     225.600E-03    -104.881E-03     108.282E-03    -122.767E-03     227.439E-03    -104.799E-03     102.587E-03
            2181     8.92511E-03     17.4136E-03    -46.1052E+06    -70.8023E+06    -8.38809E+06     4.23651E+06    -118.060E-03     221.773E-03    -103.713E-03     92.5353E-03    -119.473E-03     222.796E-03    -103.585E-03     87.9090E-03
            2182     8.12345E-03     17.3076E-03    -50.1221E+06    -109.173E+06    -14.5281E+06     4.06822E+06    -114.840E-03     217.392E-03    -102.552E-03     77.8604E-03    -115.791E-03     217.821E-03    -102.394E-03     74.1666E-03
            2183     7.31918E-03     17.2160E-03    -54.3880E+06    -138.445E+06    -20.9299E+06     3.18578E+06    -111.736E-03     213.173E-03    -101.437E-03     65.9289E-03    -112.376E-03     213.189E-03    -101.262E-03     62.9773E-03
            2184     6.51251E-03     17.1358E-03    -59.0895E+06    -160.106E+06    -26.6969E+06     2.39566E+06    -108.843E-03     209.226E-03    -100.383E-03     55.5245E-03    -109.272E-03     208.955E-03    -100.198E-03     53.1755E-03
            2185     5.70421E-03     17.0675E-03    -63.7076E+06    -177.851E+06    -33.7693E+06     2.98877E+06    -106.095E-03     205.490E-03    -99.3950E-03     46.2481E-03    -106.375E-03     205.010E-03    -99.2136E-03     44.4093E-03
            2186     4.89398E-03     17.0091E-03    -67.9851E+06    -193.663E+06    -41.5314E+06     3.55348E+06    -103.555E-03     202.050E-03    -98.4954E-03     38.0739E-03    -103.727E-03     201.414E-03    -98.3237E-03     36.6560E-03
            2187     4.08147E-03     16.9609E-03    -72.1245E+06    -204.144E+06    -49.2545E+06     3.33805E+06    -101.258E-03     198.960E-03    -97.7012E-03     30.7401E-03    -101.360E-03     198.224E-03    -97.5469E-03     29.6604E-03
            2188     3.26717E-03     16.9219E-03    -76.2732E+06    -213.091E+06    -58.7086E+06     3.05047E+06    -99.3189E-03     196.343E-03    -97.0241E-03     24.1532E-03    -99.3703E-03     195.537E-03    -96.8981E-03     23.3566E-03
            2189     2.45174E-03     16.8915E-03    -80.7334E+06    -221.691E+06    -70.3416E+06     2.17017E+06    -97.7654E-03     194.240E-03    -96.4744E-03     17.7890E-03    -97.7798E-03     193.384E-03    -96.3876E-03     17.2239E-03
            2190     1.63499E-03     16.8704E-03    -84.7088E+06    -228.011E+06    -79.9989E+06     1.22089E+06    -96.6572E-03     192.730E-03    -96.0726E-03     11.7210E-03    -96.6492E-03     191.843E-03    -96.0191E-03     11.3549E-03
            2191     818.002E-06     16.8573E-03    -87.2420E+06    -232.078E+06    -86.4279E+06     611.616E+03    -96.0242E-03     191.801E-03    -95.7770E-03     6.04738E-03    -96.0033E-03     190.897E-03    -95.7462E-03     5.85453E-03
            2192     15.2769E-03     18.0611E-03    -4.13284E+06     105.073E+06     92.5915E+06     1.18237E+06    -141.290E-03     254.553E-03    -113.263E-03     223.229E-03    -152.945E-03     266.298E-03    -112.946E-03     213.675E-03
            2193     14.4857E-03     17.7307E-03    -10.3933E+06     105.469E+06     91.6304E+06     840.821E+03    -142.118E-03     254.192E-03    -112.074E-03     290.687E-03    -158.601E-03     270.748E-03    -111.754E-03     276.817E-03
            2194     13.6988E-03     17.3964E-03    -17.2111E+06     90.0820E+06     86.4980E+06     3.12150E+06    -141.333E-03     252.221E-03    -110.888E-03     281.696E-03    -155.161E-03     266.056E-03    -110.561E-03     267.020E-03
            2195     12.9086E-03     17.0882E-03    -23.4131E+06     69.5704E+06     76.9523E+06     5.22554E+06    -138.528E-03     248.144E-03    -109.616E-03     248.909E-03    -148.912E-03     258.469E-03    -109.298E-03     235.378E-03
            2196     12.1170E-03     16.8292E-03    -28.2074E+06     48.1509E+06     58.0139E+06     4.57831E+06    -133.785E-03     241.990E-03    -108.205E-03     194.150E-03    -140.401E-03     248.510E-03    -107.944E-03     183.164E-03
            2197     11.3259E-03     16.6373E-03    -32.8788E+06     34.6734E+06     33.3146E+06     3.98729E+06    -128.868E-03     235.559E-03    -106.691E-03     145.707E-03    -132.936E-03     239.537E-03    -106.527E-03     137.096E-03
            2198     10.5316E-03     16.4841E-03    -36.7994E+06     21.4832E+06     12.8030E+06     5.07250E+06    -125.112E-03     230.289E-03    -105.177E-03     116.583E-03    -127.807E-03     232.893E-03    -105.090E-03     109.722E-03
            2199     9.73538E-03     16.3503E-03    -40.4126E+06    -16.0860E+06    -981.515E+03     5.95276E+06    -122.178E-03     225.891E-03    -103.713E-03     97.9387E-03    -124.042E-03     227.557E-03    -103.636E-03     92.3870E-03
            2200     8.93740E-03     16.2328E-03    -44.6080E+06    -68.7704E+06    -9.07694E+06     6.00741E+06    -118.801E-03     221.093E-03    -102.293E-03     81.5525E-03    -120.056E-03     221.974E-03    -102.174E-03     77.1166E-03
            2201     8.13628E-03     16.1330E-03    -48.7665E+06    -106.995E+06    -14.8524E+06     5.25620E+06    -114.968E-03     215.875E-03    -100.907E-03     67.2122E-03    -115.797E-03     216.195E-03    -100.756E-03     63.7130E-03
            2202     7.33243E-03     16.0458E-03    -53.4448E+06    -135.826E+06    -21.3025E+06     4.63713E+06    -111.328E-03     210.912E-03    -99.5838E-03     55.7132E-03    -111.877E-03     210.851E-03    -99.4158E-03     52.9545E-03
            2203     6.52616E-03     15.9708E-03    -58.3799E+06    -158.732E+06    -27.6061E+06     4.26190E+06    -107.819E-03     206.168E-03    -98.3489E-03     45.9136E-03    -108.178E-03     205.836E-03    -98.1721E-03     43.7560E-03
            2204     5.71673E-03     15.9066E-03    -63.3535E+06    -177.782E+06    -35.2997E+06     3.97660E+06    -104.562E-03     201.780E-03    -97.2183E-03     37.7717E-03    -104.790E-03     201.255E-03    -97.0452E-03     36.0965E-03
            2205     4.90486E-03     15.8525E-03    -68.3997E+06    -192.132E+06    -44.3144E+06     3.78622E+06    -101.642E-03     197.849E-03    -96.2065E-03     30.8454E-03    -101.783E-03     197.193E-03    -96.0503E-03     29.5586E-03
            2206     4.09086E-03     15.8079E-03    -73.1189E+06    -202.369E+06    -52.7033E+06     3.07702E+06    -99.1374E-03     194.468E-03    -95.3310E-03     24.7520E-03    -99.2210E-03     193.727E-03    -95.1951E-03     23.7738E-03
            2207     3.27518E-03     15.7716E-03     -77.292E+06    -211.996E+06    -60.3875E+06     2.78502E+06    -97.0265E-03     191.631E-03    -94.6044E-03     19.2300E-03    -97.0696E-03     190.822E-03    -94.4869E-03     18.5098E-03
            2208     2.45764E-03     15.7440E-03    -81.0076E+06    -219.365E+06    -70.1473E+06     2.99316E+06    -95.3599E-03     189.381E-03    -94.0210E-03     14.1206E-03    -95.3725E-03     188.530E-03    -93.9362E-03     13.6257E-03
            2209     1.63913E-03     15.7241E-03    -84.4291E+06    -225.592E+06    -79.7442E+06     2.41764E+06    -94.2066E-03     187.797E-03    -93.5901E-03     9.24293E-03    -94.1982E-03     186.918E-03    -93.5393E-03     8.93149E-03
            2210     819.559E-06     15.7124E-03    -86.9697E+06    -229.464E+06    -85.7872E+06     1.47200E+06    -93.4915E-03     186.806E-03    -93.3143E-03     4.85791E-03    -93.4731E-03     185.912E-03    -93.2844E-03     4.69803E-03
            2211     15.2750E-03     16.8562E-03    -3.62894E+06     103.268E+06     91.2454E+06     1.33146E+06    -142.660E-03     255.951E-03    -113.291E-03     220.197E-03    -153.927E-03     267.308E-03    -112.979E-03     210.503E-03
            2212     14.4885E-03     16.5140E-03    -9.14849E+06     105.382E+06     91.2896E+06     3.78178E+06    -143.927E-03     255.957E-03    -112.030E-03     288.895E-03    -159.919E-03     272.026E-03    -111.713E-03     274.890E-03
            2213     13.7001E-03     16.1922E-03    -15.3592E+06     89.5036E+06     86.7454E+06     4.34456E+06    -144.248E-03     254.946E-03    -110.698E-03     275.961E-03    -157.616E-03     268.325E-03    -110.371E-03     261.033E-03
            2214     12.9121E-03     15.8792E-03    -20.4346E+06     69.2632E+06     77.8754E+06     4.20588E+06    -142.447E-03     251.613E-03    -109.166E-03     240.428E-03    -152.405E-03     261.519E-03    -108.847E-03     226.576E-03
            2215     12.1275E-03     15.6283E-03    -25.7417E+06     49.6067E+06     58.8122E+06     4.69802E+06    -137.292E-03     244.716E-03    -107.424E-03     182.396E-03    -143.478E-03     250.817E-03    -107.164E-03     171.317E-03
            2216     11.3375E-03     15.4404E-03    -31.3040E+06     35.6208E+06     33.3156E+06     4.66731E+06    -131.656E-03     237.229E-03    -105.572E-03     132.880E-03    -135.375E-03     240.867E-03    -105.412E-03     124.343E-03
            2217     10.5466E-03     15.2933E-03    -36.2044E+06     19.6895E+06     11.4191E+06     5.42135E+06    -127.506E-03     231.226E-03    -103.719E-03     103.592E-03    -129.931E-03     233.559E-03    -103.638E-03     96.8515E-03
            2218     9.75285E-03     15.1648E-03    -40.3821E+06    -15.5753E+06    -2.30510E+06     7.52558E+06    -123.559E-03     225.483E-03    -101.925E-03     84.8124E-03    -125.210E-03     226.944E-03    -101.855E-03     79.4659E-03
            2219     8.95566E-03     15.0539E-03    -44.5152E+06    -65.1912E+06    -10.1684E+06     7.79458E+06    -119.171E-03     219.381E-03    -100.210E-03     68.0616E-03    -120.258E-03     220.109E-03    -100.102E-03     63.8752E-03
            2220     8.15527E-03     14.9602E-03    -48.9892E+06    -104.298E+06    -16.2731E+06     6.98792E+06    -114.695E-03     213.258E-03    -98.5628E-03     54.3900E-03    -115.399E-03     213.466E-03    -98.4219E-03     51.1340E-03
            2221     7.35159E-03     14.8790E-03    -53.5654E+06    -133.366E+06    -22.7456E+06     6.46700E+06    -110.286E-03     207.295E-03    -97.0082E-03     43.9728E-03    -110.743E-03     207.154E-03    -96.8509E-03     41.4524E-03
            2222     6.54394E-03     14.8101E-03    -58.1230E+06    -156.891E+06    -28.7523E+06     5.96164E+06    -106.097E-03     201.685E-03    -95.5878E-03     35.5264E-03    -106.389E-03     201.297E-03    -95.4198E-03     33.5854E-03
            2223     5.73334E-03     14.7509E-03    -62.8181E+06    -176.237E+06    -35.9318E+06     5.61901E+06    -102.282E-03     196.600E-03    -94.3180E-03     28.5244E-03    -102.462E-03     196.035E-03    -94.1510E-03     27.0418E-03
            2224     4.91964E-03     14.7018E-03    -67.5136E+06    -189.939E+06    -45.4645E+06     5.03151E+06    -98.9652E-03     192.168E-03    -93.2026E-03     22.8580E-03    -99.0712E-03     191.491E-03    -93.0566E-03     21.7318E-03
            2225     4.10353E-03     14.6604E-03    -71.9975E+06    -199.831E+06    -54.8163E+06     4.22044E+06    -96.2252E-03     188.481E-03    -92.2559E-03     18.1558E-03    -96.2836E-03     187.733E-03    -92.1359E-03     17.3084E-03
            2226     3.28527E-03     14.6279E-03    -76.6587E+06    -210.525E+06    -63.0954E+06     3.43759E+06    -93.9895E-03     185.476E-03    -91.4866E-03     14.0188E-03    -94.0156E-03     184.665E-03    -91.3857E-03     13.3956E-03
            2227     2.46541E-03     14.6025E-03    -80.8034E+06    -217.871E+06    -71.1994E+06     3.20110E+06    -92.2726E-03     183.154E-03    -90.8818E-03     10.3276E-03    -92.2786E-03     182.306E-03    -90.8047E-03     9.89838E-03
            2228     1.64432E-03     14.5846E-03    -83.6271E+06    -222.360E+06    -78.5249E+06     2.81896E+06    -91.0419E-03     181.486E-03    -90.4445E-03     6.68561E-03    -91.0333E-03     180.618E-03    -90.3935E-03     6.42000E-03
            2229     822.498E-06     14.5740E-03    -85.2726E+06    -225.467E+06    -84.1567E+06     1.67236E+06    -90.3119E-03     180.507E-03    -90.1954E-03     3.43828E-03    -90.2924E-03     179.628E-03    -90.1656E-03     3.30264E-03
            2230     15.2694E-03     15.6305E-03    -4.03183E+06     100.431E+06     89.0266E+06     1.01537E+06    -144.963E-03     258.378E-03    -113.415E-03     215.725E-03    -155.884E-03     269.383E-03    -113.110E-03     205.572E-03
            2231     14.4870E-03     15.3009E-03    -9.20901E+06     104.097E+06     91.0106E+06     2.76010E+06    -148.994E-03     260.934E-03    -111.940E-03     281.982E-03    -164.434E-03     276.448E-03    -111.623E-03     267.290E-03
            2232     13.7042E-03     14.9775E-03    -14.0004E+06     89.9605E+06     88.0909E+06     3.65452E+06    -149.590E-03     259.855E-03    -110.265E-03     267.443E-03    -162.387E-03     272.666E-03    -109.934E-03     251.906E-03
            2233     12.9253E-03     14.6692E-03    -19.7925E+06     68.3252E+06     78.1491E+06     4.28757E+06    -147.741E-03     256.063E-03    -108.322E-03     229.486E-03    -157.184E-03     265.452E-03    -108.001E-03     215.217E-03
            2234     12.1416E-03     14.4225E-03    -26.5525E+06     49.1183E+06     56.9529E+06     5.58890E+06    -141.699E-03     247.830E-03    -106.131E-03     168.336E-03    -147.395E-03     253.443E-03    -105.879E-03     157.180E-03
            2235     11.3579E-03     14.2429E-03    -32.5812E+06     37.5597E+06     29.2646E+06     6.25464E+06    -135.033E-03     238.869E-03    -103.836E-03     117.756E-03    -138.377E-03     242.148E-03    -103.697E-03     109.319E-03
            2236     10.5690E-03     14.1016E-03    -37.8983E+06     18.7460E+06     6.74510E+06     6.83478E+06    -129.671E-03     231.256E-03    -101.585E-03     88.7504E-03    -131.815E-03     233.314E-03    -101.523E-03     82.2062E-03
            2237     9.77722E-03     13.9804E-03    -41.8165E+06    -15.6998E+06    -5.04995E+06     8.23679E+06    -124.637E-03     224.072E-03    -99.4351E-03     69.8371E-03    -126.076E-03     225.323E-03    -99.3769E-03     64.7247E-03
            2238     8.98132E-03     13.8777E-03    -45.2067E+06    -61.5554E+06    -12.1943E+06     8.99961E+06    -119.171E-03     216.564E-03    -97.3933E-03     53.6175E-03    -120.096E-03     217.147E-03    -97.2995E-03     49.7052E-03
            2239     8.18099E-03     13.7909E-03    -48.9960E+06    -101.368E+06    -17.8158E+06     8.68742E+06    -113.707E-03     209.180E-03    -95.4725E-03     40.8951E-03    -114.292E-03     209.283E-03    -95.3435E-03     37.9157E-03
            2240     7.37594E-03     13.7178E-03     -53.016E+06    -130.600E+06    -23.6558E+06     8.30393E+06    -108.454E-03     202.149E-03    -93.6946E-03     31.4855E-03    -108.823E-03     201.935E-03    -93.5467E-03     29.2249E-03
            2241     6.56708E-03     13.6550E-03    -57.7170E+06    -154.220E+06    -29.4710E+06     7.68896E+06    -103.560E-03     195.659E-03    -92.0993E-03     24.3741E-03    -103.790E-03     195.223E-03    -91.9394E-03     22.6646E-03
            2242     5.75432E-03     13.6023E-03    -62.5095E+06    -173.620E+06    -36.2659E+06     6.97408E+06    -99.2455E-03     189.946E-03    -90.7009E-03     18.9741E-03    -99.3857E-03     189.353E-03    -90.5398E-03     17.6845E-03
            2243     4.93821E-03     13.5581E-03    -66.9462E+06    -187.075E+06    -45.8646E+06     6.29766E+06    -95.5685E-03     185.061E-03    -89.4921E-03     14.9765E-03    -95.6483E-03     184.371E-03    -89.3531E-03     14.0106E-03
            2244     4.11916E-03     13.5212E-03    -71.1050E+06    -197.307E+06    -55.5493E+06     5.58869E+06    -92.5148E-03     181.008E-03    -88.4931E-03     11.7535E-03    -92.5545E-03     180.255E-03    -88.3817E-03     11.0385E-03
            2245     3.29780E-03     13.4918E-03    -75.0119E+06    -207.961E+06    -63.6564E+06     5.07859E+06    -90.2001E-03     177.905E-03    -87.7054E-03     9.06843E-03    -90.2110E-03     177.095E-03    -87.6134E-03     8.55480E-03
            2246     2.47488E-03     13.4689E-03    -78.8007E+06    -215.254E+06    -71.1917E+06     4.08962E+06    -88.4657E-03     175.565E-03    -87.0990E-03     6.66425E-03    -88.4604E-03     174.721E-03    -87.0285E-03     6.30834E-03
            2247     1.65054E-03     13.4530E-03    -81.9046E+06    -218.903E+06    -77.3056E+06     2.73080E+06    -87.2375E-03     173.911E-03    -86.6730E-03     4.37098E-03    -87.2250E-03     173.053E-03    -86.6234E-03     4.14353E-03
            2248     825.338E-06     13.4431E-03    -83.8987E+06    -221.461E+06    -82.3263E+06     1.64246E+06    -86.6327E-03     172.973E-03    -86.3404E-03     2.26344E-03    -86.6144E-03     172.108E-03    -86.3093E-03     2.14632E-03
            2249     15.2693E-03     14.4042E-03    -4.24350E+06     99.7083E+06     89.2058E+06     850.552E+03    -150.520E-03     263.918E-03    -113.398E-03     208.145E-03    -160.826E-03     274.304E-03    -113.091E-03     197.311E-03
            2250     14.4925E-03     14.0786E-03    -9.83188E+06     101.304E+06     90.0489E+06     762.285E+03    -154.634E-03     266.202E-03    -111.569E-03     270.884E-03    -169.271E-03     280.903E-03    -111.251E-03     255.304E-03
            2251     13.7173E-03     13.7590E-03    -15.0403E+06     87.6406E+06     86.3635E+06     2.64912E+06    -156.178E-03     265.635E-03    -109.458E-03     258.100E-03    -168.394E-03     277.859E-03    -109.131E-03     241.773E-03
            2252     12.9396E-03     13.4531E-03    -21.2522E+06     66.5934E+06     76.5965E+06     4.62736E+06    -154.155E-03     261.164E-03    -107.008E-03     216.845E-03    -163.013E-03     269.961E-03    -106.691E-03     202.129E-03
            2253     12.1655E-03     13.2128E-03    -26.5843E+06     48.3888E+06     57.1817E+06     6.07305E+06    -146.671E-03     250.967E-03    -104.296E-03     152.045E-03    -151.839E-03     256.050E-03    -104.042E-03     140.827E-03
            2254     11.3843E-03     13.0432E-03    -31.1366E+06     37.9440E+06     31.2222E+06     7.61001E+06    -138.253E-03     239.777E-03    -101.524E-03     101.568E-03    -141.206E-03     242.666E-03    -101.378E-03     93.3005E-03
            2255     10.5990E-03     12.9109E-03    -35.2647E+06     18.5724E+06     7.93767E+06     9.15068E+06    -131.593E-03     230.438E-03    -98.8455E-03     73.9829E-03    -133.468E-03     232.233E-03    -98.7816E-03     67.6736E-03
            2256     9.80855E-03     12.7982E-03    -40.0507E+06    -14.3468E+06     -6.4814E+06     10.4088E+06    -125.299E-03     221.605E-03    -96.3061E-03     55.0234E-03    -126.530E-03     222.664E-03    -96.2597E-03     50.1947E-03
            2257     9.01297E-03     12.7052E-03    -44.7946E+06    -57.9885E+06    -14.1434E+06     10.6296E+06    -118.588E-03     212.526E-03    -93.9375E-03     39.5171E-03    -119.368E-03     212.983E-03    -93.8592E-03     35.8938E-03
            2258     8.21182E-03     12.6275E-03    -48.8857E+06    -98.0296E+06    -18.9768E+06     10.2281E+06    -112.077E-03     203.833E-03    -91.7563E-03     28.0732E-03    -112.561E-03     203.852E-03    -91.6381E-03     25.3674E-03
            2259     7.40594E-03     12.5627E-03    -53.0880E+06    -127.585E+06    -24.5642E+06     9.87557E+06    -105.997E-03     195.765E-03    -89.7688E-03     19.9484E-03    -106.298E-03     195.497E-03    -89.6296E-03     17.9319E-03
            2260     6.59480E-03     12.5079E-03    -57.0545E+06    -150.533E+06    -29.8398E+06     9.09988E+06    -100.383E-03     188.397E-03    -88.0142E-03     14.3431E-03    -100.567E-03     187.931E-03    -87.8624E-03     12.8452E-03
            2261     5.77897E-03     12.4621E-03    -61.5591E+06    -170.897E+06    -36.1032E+06     8.36604E+06    -95.5319E-03     182.043E-03    -86.5107E-03     10.5477E-03    -95.6402E-03     181.430E-03    -86.3542E-03     9.43764E-03
            2262     4.95963E-03     12.4230E-03    -66.2168E+06    -183.975E+06    -45.0678E+06     7.77349E+06    -91.5238E-03     176.762E-03    -85.2382E-03     7.96350E-03    -91.5855E-03     176.065E-03    -85.1007E-03     7.14735E-03
            2263     4.13718E-03     12.3913E-03    -70.5996E+06    -194.371E+06    -54.7117E+06     7.02208E+06    -88.3086E-03     172.509E-03    -84.2009E-03     6.18193E-03    -88.3388E-03     171.756E-03    -84.0902E-03     5.58891E-03
            2264     3.31230E-03     12.3648E-03    -74.5440E+06    -204.909E+06    -63.4510E+06     6.31946E+06    -85.8611E-03     169.255E-03    -83.3944E-03     4.80372E-03    -85.8673E-03     168.452E-03    -83.3065E-03     4.38470E-03
            2265     2.48559E-03     12.3448E-03    -77.5600E+06    -210.934E+06    -70.8181E+06     5.08767E+06    -84.1010E-03     166.893E-03    -82.7917E-03     3.48886E-03    -84.0926E-03     166.064E-03    -82.7275E-03     3.20244E-03
            2266     1.65769E-03     12.3303E-03    -80.1802E+06    -214.910E+06    -76.8318E+06     3.35967E+06    -82.9572E-03     165.323E-03    -82.3655E-03     2.27864E-03    -82.9409E-03     164.480E-03    -82.3217E-03     2.09600E-03
            2267     829.163E-06     12.3216E-03    -81.9815E+06    -217.346E+06    -81.1989E+06     1.72443E+06    -82.2672E-03     164.350E-03    -82.0829E-03     1.09925E-03    -82.2466E-03     163.501E-03    -82.0549E-03     1.00236E-03
            2268     15.2759E-03     13.1710E-03    -4.09615E+06     100.072E+06     90.1822E+06     552.823E+03    -158.778E-03     271.957E-03    -113.178E-03     200.266E-03    -168.461E-03     281.719E-03    -112.867E-03     188.502E-03
            2269     14.5035E-03     12.8532E-03    -8.94011E+06     99.2722E+06     89.7141E+06     2.28318E+06    -161.720E-03     272.617E-03    -110.897E-03     263.315E-03    -175.603E-03     286.562E-03    -110.580E-03     246.744E-03
            2270     13.7303E-03     12.5326E-03    -15.2056E+06     84.7878E+06     84.7195E+06     3.52859E+06    -164.276E-03     272.551E-03    -108.276E-03     249.358E-03    -175.920E-03     284.197E-03    -107.953E-03     232.117E-03
            2271     12.9656E-03     12.2299E-03    -20.5599E+06     66.2130E+06     76.2544E+06     4.45005E+06    -161.337E-03     266.575E-03    -105.238E-03     202.833E-03    -169.562E-03     274.743E-03    -104.923E-03     187.657E-03
            2272     12.1944E-03     11.9999E-03    -25.6417E+06     47.0800E+06     58.1125E+06     5.40349E+06    -151.156E-03     253.131E-03    -101.975E-03     135.386E-03    -155.787E-03     257.674E-03    -101.716E-03     124.211E-03
            2273     11.4176E-03     11.8437E-03    -30.4414E+06     36.4602E+06     33.0736E+06     7.36925E+06    -141.049E-03     239.789E-03    -98.7401E-03     86.4084E-03    -143.652E-03     242.321E-03    -98.5835E-03     78.3430E-03
            2274     10.6334E-03     11.7207E-03    -34.8436E+06     16.1476E+06     7.89914E+06     10.8664E+06    -133.061E-03     228.707E-03    -95.6460E-03     59.8924E-03    -134.703E-03     230.263E-03    -95.5794E-03     53.8359E-03
            2275     9.84446E-03     11.6193E-03    -39.4900E+06    -12.6222E+06    -7.71845E+06     13.9640E+06    -125.194E-03     217.944E-03    -92.7495E-03     41.7107E-03    -126.258E-03     218.848E-03    -92.7125E-03     37.1995E-03
            2276     9.04868E-03     11.5377E-03    -44.7134E+06    -52.0933E+06    -15.4523E+06     13.7875E+06    -117.333E-03     207.431E-03    -90.0985E-03     27.5367E-03    -118.007E-03     207.809E-03    -90.0354E-03     24.2083E-03
            2277     8.24654E-03     11.4707E-03    -49.5573E+06    -94.0782E+06    -20.4480E+06     12.3619E+06    -109.818E-03     197.522E-03    -87.7038E-03     17.7078E-03    -110.236E-03     197.490E-03    -87.5977E-03     15.2579E-03
            2278     7.43796E-03     11.4154E-03    -53.5433E+06    -123.308E+06    -25.7154E+06     10.9842E+06    -102.931E-03     188.490E-03    -85.5588E-03     11.2444E-03    -103.192E-03     188.198E-03    -85.4309E-03     9.43884E-03
            2279     6.62405E-03     11.3697E-03    -57.3851E+06    -147.215E+06    -30.8442E+06     9.90043E+06    -96.9096E-03     180.597E-03    -83.6875E-03     7.07759E-03    -97.0692E-03     180.120E-03    -83.5451E-03     5.74734E-03
            2280     5.80556E-03     11.3308E-03    -61.4152E+06    -167.990E+06    -36.1188E+06     9.65911E+06    -91.6855E-03     173.780E-03    -82.0945E-03     4.50815E-03    -91.7785E-03     173.163E-03    -81.9425E-03     3.54163E-03
            2281     4.98260E-03     11.2983E-03    -65.6624E+06    -180.637E+06    -44.0100E+06     8.95115E+06    -87.3470E-03     168.107E-03    -80.7596E-03     3.03525E-03    -87.4006E-03     167.412E-03    -80.6225E-03     2.33526E-03
            2282     4.15644E-03     11.2707E-03    -69.6483E+06    -191.275E+06    -53.2847E+06     8.21397E+06    -83.9887E-03     163.666E-03    -79.6768E-03     2.24545E-03    -84.0137E-03     162.917E-03    -79.5649E-03     1.74619E-03
            2283     3.32789E-03     11.2484E-03    -73.1561E+06    -200.940E+06    -62.3968E+06     7.33565E+06    -81.4020E-03     160.234E-03    -78.8319E-03     1.70911E-03    -81.4045E-03     159.443E-03    -78.7464E-03     1.36261E-03
            2284     2.49729E-03     11.2306E-03    -76.2639E+06    -206.155E+06    -69.8053E+06     5.81281E+06    -79.5385E-03     157.749E-03    -78.2110E-03     1.33072E-03    -79.5299E-03     156.939E-03    -78.1505E-03     1.09744E-03
            2285     1.66561E-03     11.2178E-03    -78.4554E+06    -209.990E+06    -75.1506E+06     4.04294E+06    -78.3611E-03     156.149E-03    -77.7877E-03     940.059E-06    -78.3450E-03     155.325E-03    -77.7453E-03     794.594E-06
            2286     833.011E-06     11.2101E-03    -79.8948E+06    -212.519E+06    -79.1034E+06     2.17573E+06    -77.7060E-03     155.206E-03    -77.4998E-03     318.689E-06    -77.6847E-03     154.374E-03    -77.4713E-03     242.614E-06
            2287     15.2786E-03     11.9286E-03    -4.52257E+06     97.6944E+06     87.6650E+06    -161.010E+03    -167.731E-03     280.652E-03    -112.921E-03     195.324E-03    -177.088E-03     290.087E-03    -112.618E-03     182.206E-03
            2288     14.5137E-03     11.6173E-03    -9.72000E+06     95.8230E+06     87.1364E+06     2.28175E+06    -172.491E-03     282.575E-03    -110.084E-03     256.858E-03    -185.840E-03     295.978E-03    -109.773E-03     238.687E-03
            2289     13.7543E-03     11.2983E-03    -14.0854E+06     84.2085E+06     84.5441E+06     4.09608E+06    -174.099E-03     280.914E-03    -106.815E-03     241.322E-03    -185.152E-03     291.973E-03    -106.494E-03     223.059E-03
            2290     12.9924E-03     10.9980E-03    -19.7212E+06     66.6287E+06     76.8485E+06     4.73893E+06    -168.157E-03     271.315E-03    -103.158E-03     190.014E-03    -175.777E-03     278.883E-03    -102.842E-03     174.534E-03
            2291     12.2279E-03     10.7867E-03    -25.9251E+06     45.8443E+06     58.3982E+06     5.67644E+06    -155.423E-03     254.788E-03    -99.3649E-03     119.447E-03    -159.557E-03     258.828E-03    -99.1018E-03     108.407E-03
            2292     11.4526E-03     10.6424E-03    -32.1564E+06     33.3140E+06     31.9712E+06     8.35267E+06    -143.346E-03     239.032E-03    -95.6859E-03     72.3237E-03    -145.656E-03     241.258E-03    -95.5277E-03     64.4981E-03
            2293     10.6718E-03     10.5330E-03    -37.9031E+06     11.7675E+06     6.03819E+06     12.9782E+06    -133.303E-03     225.554E-03    -92.2513E-03     47.7241E-03    -134.761E-03     226.905E-03    -92.1832E-03     41.9839E-03
            2294     9.88168E-03     10.4456E-03    -42.8976E+06    -12.0195E+06    -9.76597E+06     16.5263E+06    -123.928E-03     213.035E-03    -89.1069E-03     31.6667E-03    -124.888E-03     213.831E-03    -89.0761E-03     27.4693E-03
            2295     9.08439E-03     10.3756E-03    -46.6277E+06    -44.6764E+06    -16.5631E+06     16.3278E+06    -115.055E-03     201.341E-03    -86.2861E-03     19.4366E-03    -115.675E-03     201.687E-03    -86.2365E-03     16.3856E-03
            2296     8.28004E-03     10.3213E-03    -49.8123E+06    -87.7601E+06    -20.1705E+06     13.5812E+06    -106.868E-03     190.660E-03    -83.7920E-03     11.6167E-03    -107.256E-03     190.619E-03    -83.6933E-03     9.37782E-03
            2297     7.46895E-03     10.2766E-03    -52.5475E+06    -118.505E+06    -24.5995E+06     11.1972E+06    -99.6426E-03     181.224E-03    -81.5811E-03     6.93740E-03    -99.8852E-03     180.931E-03    -81.4561E-03     5.28426E-03
            2298     6.65212E-03     10.2397E-03    -55.6126E+06    -144.568E+06    -29.3126E+06     10.5145E+06    -93.4388E-03     173.097E-03    -79.6582E-03     3.97904E-03    -93.5844E-03     172.617E-03    -79.5145E-03     2.76806E-03
            2299     5.83028E-03     10.2088E-03    -59.2992E+06    -164.937E+06    -33.9793E+06     10.3009E+06    -88.1536E-03     166.164E-03    -78.0101E-03     2.38286E-03    -88.2382E-03     165.551E-03    -77.8548E-03     1.50599E-03
            2300     5.00440E-03     10.1828E-03    -63.1559E+06    -176.933E+06    -41.2935E+06     9.56783E+06    -83.7522E-03     160.359E-03    -76.6064E-03     1.60469E-03    -83.8002E-03     159.674E-03    -76.4647E-03     972.041E-06
            2301     4.17503E-03     10.1602E-03    -67.2774E+06    -188.370E+06    -50.2786E+06     9.00235E+06    -80.1627E-03     155.616E-03    -75.4531E-03     1.16467E-03    -80.1833E-03     154.874E-03    -75.3338E-03     719.411E-06
            2302     3.34289E-03     10.1417E-03    -70.9031E+06    -196.303E+06    -58.8056E+06     8.05863E+06    -77.3968E-03     151.939E-03    -74.5426E-03     943.185E-06    -77.3993E-03     151.163E-03    -74.4492E-03     638.851E-06
            2303     2.50882E-03     10.1267E-03    -73.6096E+06    -200.867E+06    -65.9972E+06     6.17576E+06    -75.3675E-03     149.229E-03    -73.8617E-03     809.929E-06    -75.3585E-03     148.436E-03    -73.7937E-03     604.846E-06
            2304     1.67308E-03     10.1157E-03    -75.5766E+06    -204.737E+06    -71.9987E+06     4.14501E+06    -73.9723E-03     147.385E-03    -73.4123E-03     577.442E-06    -73.9537E-03     146.578E-03    -73.3658E-03     449.267E-06
            2305     836.622E-06     10.1088E-03    -76.8354E+06    -207.055E+06    -75.8426E+06     2.23054E+06    -73.4081E-03     146.466E-03    -73.0577E-03     294.363E-06    -73.3841E-03     145.653E-03    -73.0253E-03     226.778E-06
            2306     15.2789E-03     10.6709E-03    -4.76303E+06     96.7312E+06     85.6553E+06     628.604E+03    -177.976E-03     290.656E-03    -112.680E-03     193.706E-03    -187.051E-03     299.807E-03    -112.385E-03     178.962E-03
            2307     14.5280E-03     10.3633E-03    -10.5104E+06     94.0470E+06     84.8798E+06     853.784E+03    -185.048E-03     294.249E-03    -109.201E-03     247.487E-03    -197.759E-03     307.013E-03    -108.898E-03     227.493E-03
            2308     13.7749E-03     10.0525E-03    -15.5597E+06     81.5385E+06     81.5996E+06     2.95220E+06    -184.419E-03     289.634E-03    -105.215E-03     232.935E-03    -194.917E-03     300.132E-03    -104.902E-03     213.626E-03
            2309     13.0226E-03     9.76163E-03    -21.0928E+06     66.4611E+06     74.9008E+06     4.89739E+06    -174.985E-03     275.905E-03    -100.919E-03     174.177E-03    -181.947E-03     282.817E-03    -100.611E-03     158.517E-03
            2310     12.2609E-03     9.56811E-03    -27.1586E+06     43.8210E+06     57.5387E+06     6.66551E+06    -158.115E-03     254.763E-03    -96.6472E-03     102.042E-03    -161.746E-03     258.292E-03    -96.3837E-03     91.3470E-03
            2311     11.4907E-03     9.44250E-03    -33.6018E+06     28.2151E+06     33.2873E+06     10.9951E+06    -143.333E-03     236.019E-03    -92.6862E-03     60.6217E-03    -145.392E-03     237.967E-03    -92.5120E-03     53.2173E-03
            2312     10.7067E-03     9.35017E-03    -39.8161E+06     8.13735E+06     9.08467E+06     15.5293E+06    -131.697E-03     220.799E-03    -89.1020E-03     40.3367E-03    -133.030E-03     221.996E-03    -89.0107E-03     34.9894E-03
            2313     9.91561E-03     9.27655E-03    -43.6619E+06    -11.0007E+06    -6.15364E+06     17.5472E+06    -121.254E-03     207.143E-03    -85.8890E-03     26.9091E-03    -122.155E-03     207.870E-03    -85.8405E-03     23.0176E-03
            2314     9.11570E-03     9.22163E-03    -46.0844E+06    -37.3755E+06    -12.5508E+06     16.5558E+06    -111.550E-03     194.623E-03    -83.0734E-03     17.1703E-03    -112.151E-03     194.966E-03    -83.0151E-03     14.3574E-03
            2315     8.30767E-03     9.17911E-03    -48.4985E+06    -79.3994E+06    -16.2660E+06     13.1274E+06    -103.296E-03     183.933E-03    -80.6366E-03     11.7229E-03    -103.688E-03     183.919E-03    -80.5325E-03     9.63964E-03
            2316     7.49355E-03     9.14541E-03    -51.0380E+06    -114.393E+06    -21.0079E+06     10.5078E+06    -96.3664E-03     174.855E-03    -78.4890E-03     8.67750E-03    -96.6163E-03     174.580E-03    -78.3541E-03     7.11854E-03
            2317     6.67378E-03     9.11750E-03    -53.5076E+06    -142.512E+06    -25.5683E+06     10.0208E+06    -90.3618E-03     166.970E-03    -76.6085E-03     6.59817E-03    -90.5125E-03     166.500E-03    -76.4521E-03     5.44576E-03
            2318     5.84925E-03     9.09474E-03    -56.1637E+06    -161.949E+06    -30.1205E+06     9.92650E+06    -85.3191E-03     160.291E-03    -74.9717E-03     5.52288E-03    -85.4060E-03     159.691E-03    -74.8060E-03     4.67844E-03
            2319     5.02088E-03     9.07446E-03    -59.6881E+06    -174.453E+06    -37.0786E+06     9.95330E+06    -81.0995E-03     154.645E-03    -73.5460E-03     4.80652E-03    -81.1465E-03     153.969E-03    -73.3919E-03     4.19995E-03
            2320     4.18926E-03     9.05793E-03    -63.7295E+06    -184.884E+06    -44.6616E+06     9.80944E+06    -77.5276E-03     149.865E-03    -72.3372E-03     4.20355E-03    -77.5484E-03     149.132E-03    -72.2000E-03     3.78121E-03
            2321     3.35458E-03     9.04316E-03    -67.4742E+06    -190.862E+06    -52.4289E+06     8.05317E+06    -74.6291E-03     145.971E-03    -71.3414E-03     3.53086E-03    -74.6346E-03     145.211E-03    -71.2290E-03     3.23426E-03
            2322     2.51786E-03     9.03140E-03    -70.2867E+06    -195.427E+06    -60.2946E+06     5.64960E+06    -72.3729E-03     142.936E-03    -70.5632E-03     2.73889E-03    -72.3648E-03     142.159E-03    -70.4794E-03     2.53286E-03
            2323     1.67957E-03     9.02259E-03    -72.1675E+06    -199.644E+06    -67.5312E+06     3.64331E+06    -70.7839E-03     140.796E-03    -70.0118E-03     1.95421E-03    -70.7626E-03     140.005E-03    -69.9553E-03     1.82345E-03
            2324     840.002E-06     9.01678E-03    -73.1542E+06    -202.020E+06    -72.1089E+06     1.86936E+06    -69.8868E-03     139.563E-03    -69.6764E-03     1.23482E-03    -69.8570E-03     138.765E-03    -69.6379E-03     1.16536E-03
            2325     15.2825E-03     9.37787E-03    -3.52291E+06     97.0103E+06     85.5332E+06     2.15790E+06    -188.768E-03     301.067E-03    -112.299E-03     191.736E-03    -197.358E-03     309.741E-03    -112.007E-03     175.707E-03
            2326     14.5421E-03     9.10584E-03    -9.76435E+06     93.2136E+06     83.2974E+06     1.42427E+06    -196.442E-03     304.632E-03    -108.190E-03     235.264E-03    -208.252E-03     316.498E-03    -107.894E-03     213.901E-03
            2327     13.7979E-03     8.78901E-03    -15.2026E+06     77.4541E+06     78.5584E+06     3.00850E+06    -194.900E-03     298.392E-03    -103.492E-03     218.936E-03    -204.700E-03     308.191E-03    -103.189E-03     198.715E-03
            2328     13.0547E-03     8.51770E-03    -20.5815E+06     63.8627E+06     71.1915E+06     5.79099E+06    -178.669E-03     277.287E-03    -98.6183E-03     153.905E-03    -184.819E-03     283.394E-03    -98.3251E-03     138.599E-03
            2329     12.2973E-03     8.35160E-03    -27.7060E+06     40.2185E+06     54.5218E+06     9.50913E+06    -156.445E-03     250.558E-03    -94.1132E-03     87.8549E-03    -159.583E-03     253.590E-03    -93.8588E-03     77.9825E-03
            2330     11.5197E-03     8.24838E-03    -34.8508E+06     23.2075E+06     35.1504E+06     13.6695E+06    -139.922E-03     230.112E-03    -90.1904E-03     55.0575E-03    -141.789E-03     231.841E-03    -89.9978E-03     48.3013E-03
            2331     10.7349E-03     8.17141E-03    -39.6235E+06     7.67203E+06     17.1591E+06     15.8702E+06    -127.732E-03     214.477E-03    -86.7452E-03     39.5276E-03    -129.001E-03     215.586E-03    -86.6130E-03     34.6220E-03
            2332     9.93956E-03     8.11530E-03    -42.2889E+06    -9.10434E+06     3.33519E+06     16.1620E+06    -116.684E-03     200.405E-03    -83.7208E-03     29.0972E-03    -117.566E-03     201.097E-03    -83.6296E-03     25.5268E-03
            2333     9.13502E-03     8.07433E-03    -43.9699E+06    -30.7796E+06     -4.2016E+06     14.9345E+06    -107.093E-03     188.224E-03    -81.1309E-03     22.6195E-03    -107.713E-03     188.592E-03    -81.0435E-03     20.0069E-03
            2334     8.32347E-03     8.04454E-03    -46.0207E+06    -71.8048E+06    -9.84354E+06     11.8729E+06    -99.5243E-03     178.448E-03    -78.9239E-03     19.1431E-03    -99.9457E-03     178.481E-03    -78.8023E-03     17.1716E-03
            2335     7.50595E-03     8.01971E-03    -49.0592E+06    -111.409E+06    -15.4129E+06     9.73357E+06    -93.1887E-03     170.187E-03    -76.9982E-03     16.9429E-03    -93.4649E-03     169.939E-03    -76.8425E-03     15.4441E-03
            2336     6.68381E-03     8.00138E-03    -52.6399E+06    -140.552E+06    -20.4460E+06     9.33249E+06    -87.9418E-03     163.242E-03    -75.3006E-03     15.6367E-03    -88.1211E-03     162.796E-03    -75.1227E-03     14.5074E-03
            2337     5.85745E-03     7.98497E-03    -56.5308E+06    -159.799E+06    -26.0732E+06     9.15836E+06    -83.5670E-03     157.353E-03    -73.7861E-03     14.4797E-03    -83.6834E-03     156.778E-03    -73.6027E-03     13.6338E-03
            2338     5.02757E-03     7.97156E-03    -59.9252E+06    -172.603E+06    -32.5506E+06     9.11623E+06    -79.7423E-03     152.180E-03    -72.4378E-03     13.1290E-03    -79.8135E-03     151.521E-03    -72.2634E-03     12.5103E-03
            2339     4.19450E-03     7.95959E-03    -62.2255E+06    -180.791E+06    -37.9788E+06     8.20920E+06    -76.5101E-03     147.769E-03    -71.2593E-03     11.6653E-03    -76.5484E-03     147.055E-03    -71.0969E-03     11.2168E-03
            2340     3.35940E-03     7.94945E-03    -64.2101E+06    -185.294E+06    -44.7986E+06     6.18810E+06    -73.7097E-03     143.953E-03    -70.2432E-03     9.89652E-03    -73.7238E-03     143.211E-03    -70.1054E-03     9.57129E-03
            2341     2.52162E-03     7.94129E-03    -66.6075E+06    -190.638E+06    -53.5461E+06     3.99411E+06    -71.4158E-03     140.828E-03    -69.4124E-03     7.83400E-03    -71.4092E-03     140.064E-03    -69.3072E-03     7.60365E-03
            2342     1.68202E-03     7.93477E-03    -68.7104E+06    -195.478E+06    -62.0195E+06     2.20597E+06    -69.7336E-03     138.516E-03    -68.7828E-03     5.55252E-03    -69.7104E-03     137.735E-03    -68.7098E-03     5.40150E-03
            2343     841.502E-06     7.93066E-03    -70.0318E+06    -198.657E+06    -68.0233E+06     1.03716E+06    -68.5984E-03     137.008E-03    -68.4093E-03     3.27164E-03    -68.5641E-03     136.217E-03    -68.3598E-03     3.19219E-03
            2344     15.2983E-03     8.10666E-03    -3.16596E+06     94.9671E+06      83.956E+06     2.53141E+06    -201.910E-03     313.675E-03    -111.765E-03     188.581E-03    -209.933E-03     321.782E-03    -111.478E-03     171.421E-03
            2345     14.5549E-03     7.81906E-03    -7.44052E+06     92.6194E+06     82.1964E+06     2.97183E+06    -207.377E-03     314.379E-03    -107.002E-03     225.727E-03    -218.301E-03     325.369E-03    -106.715E-03     203.447E-03
            2346     13.8287E-03     7.51497E-03    -12.0333E+06     74.6794E+06     76.3497E+06     4.62713E+06    -200.704E-03     302.456E-03    -101.752E-03     203.528E-03    -209.611E-03     311.373E-03    -101.461E-03     183.355E-03
            2347     13.0858E-03     7.27467E-03    -19.4192E+06     59.1195E+06     66.9623E+06     8.98515E+06    -175.466E-03     272.141E-03    -96.6752E-03     137.757E-03    -180.715E-03     277.349E-03    -96.3980E-03     123.871E-03
            2348     12.3185E-03     7.14330E-03    -26.9760E+06     36.9923E+06     52.9647E+06     13.6080E+06    -150.308E-03     242.671E-03    -92.3640E-03     82.1217E-03    -153.032E-03     245.285E-03    -92.1137E-03     73.5074E-03
            2349     11.5398E-03     7.06006E-03    -33.6072E+06     21.1018E+06     38.1059E+06     15.9370E+06    -133.647E-03     222.447E-03    -88.8000E-03     57.7638E-03    -135.387E-03     224.036E-03    -88.5913E-03     51.7873E-03
            2350     10.7471E-03     7.00128E-03    -38.8372E+06     10.5904E+06     23.8874E+06     15.4154E+06    -120.966E-03     206.748E-03    -85.7823E-03     46.6360E-03    -122.212E-03     207.828E-03    -85.6219E-03     42.2652E-03
            2351     9.94603E-03     6.96083E-03    -42.1073E+06    -4.98426E+06     11.2910E+06     12.8289E+06    -110.460E-03     193.696E-03    -83.2363E-03     39.3970E-03    -111.361E-03     194.400E-03    -83.1115E-03     36.1579E-03
            2352     9.13656E-03     6.93476E-03    -43.4195E+06    -26.7905E+06     4.39819E+06     10.7013E+06    -102.216E-03     183.329E-03    -81.1134E-03     35.7044E-03    -102.883E-03     183.736E-03    -80.9896E-03     33.2458E-03
            2353     8.32135E-03     6.91282E-03    -44.4826E+06    -67.5771E+06    -1.23541E+06     9.55607E+06    -95.7807E-03     175.112E-03    -79.3312E-03     33.5009E-03    -96.2498E-03     175.188E-03    -79.1749E-03     31.6156E-03
            2354     7.50154E-03     6.89937E-03    -47.1393E+06    -109.911E+06    -7.24942E+06     9.03073E+06    -90.7079E-03     168.497E-03    -77.7895E-03     31.8768E-03    -91.0236E-03     168.278E-03    -77.5981E-03     30.4245E-03
            2355     6.67686E-03     6.88646E-03    -51.1119E+06    -138.643E+06    -11.4206E+06     8.86988E+06    -86.6513E-03     163.070E-03    -76.4185E-03     30.1109E-03    -86.8679E-03     162.646E-03    -76.2005E-03     28.9943E-03
            2356     5.84997E-03     6.87681E-03    -55.1404E+06    -157.293E+06    -16.7525E+06     7.79792E+06    -83.1746E-03     158.344E-03    -75.1693E-03     27.9568E-03    -83.3231E-03     157.787E-03    -74.9450E-03     27.0957E-03
            2357     5.02003E-03     6.86858E-03    -58.1483E+06    -169.380E+06    -23.3800E+06     5.83268E+06    -80.1522E-03     154.181E-03    -74.0293E-03     25.5022E-03    -80.2485E-03     153.538E-03    -73.8163E-03     24.8359E-03
            2358     4.18803E-03     6.86118E-03    -60.1073E+06    -176.638E+06    -29.6717E+06     3.37841E+06    -77.4165E-03     150.429E-03    -73.0126E-03     22.5758E-03    -77.4731E-03     149.731E-03    -72.8177E-03     22.0604E-03
            2359     3.35313E-03     6.85536E-03    -61.7989E+06    -181.974E+06    -37.5046E+06     1.57500E+06    -75.0654E-03     147.194E-03    -72.1285E-03     19.0952E-03    -75.0896E-03     146.461E-03    -71.9625E-03     18.7075E-03
            2360     2.51681E-03     6.85026E-03    -63.7705E+06    -187.775E+06    -46.9547E+06     577.582E+03    -73.1477E-03     144.535E-03    -71.3876E-03     15.1137E-03    -73.1445E-03     143.774E-03    -71.2576E-03     14.8386E-03
            2361     1.67905E-03     6.84666E-03    -65.9474E+06    -193.654E+06    -57.0894E+06    -207.611E+03    -71.6681E-03     142.469E-03    -70.8009E-03     10.6257E-03    -71.6430E-03     141.687E-03    -70.7100E-03     10.4448E-03
            2362     839.689E-06     6.84407E-03    -67.5660E+06    -197.950E+06    -64.8615E+06    -305.657E+03    -70.6468E-03     141.054E-03    -70.4073E-03     5.97484E-03    -70.6068E-03     140.258E-03    -70.3466E-03     5.87869E-03
            2363     15.2991E-03     6.79894E-03    -4.39902E+06     93.1062E+06     80.2418E+06     1.48317E+06    -216.402E-03     327.765E-03    -111.363E-03     187.055E-03    -224.218E-03     335.667E-03    -111.091E-03     168.479E-03
            2364     14.5818E-03     6.53049E-03    -7.43964E+06     90.8316E+06     78.6021E+06     2.98268E+06    -216.114E-03     322.142E-03    -106.028E-03     227.630E-03    -226.648E-03     332.749E-03    -105.756E-03     204.664E-03
            2365     13.8477E-03     6.22958E-03    -14.1925E+06     68.8757E+06     69.8181E+06     6.76460E+06    -199.092E-03     299.668E-03    -100.576E-03     193.039E-03    -206.908E-03     307.489E-03    -100.307E-03     174.438E-03
            2366     13.0981E-03     6.04623E-03    -20.1903E+06     54.0704E+06     62.6399E+06     11.4927E+06    -166.169E-03     261.955E-03    -95.7864E-03     126.705E-03    -170.453E-03     266.192E-03    -95.5223E-03     115.096E-03
            2367     12.3258E-03     5.94051E-03    -25.1226E+06     34.0141E+06     53.9350E+06     15.2540E+06    -140.335E-03     232.407E-03    -92.0713E-03     85.7016E-03    -142.734E-03     234.687E-03    -91.8145E-03     78.5047E-03
            2368     11.5363E-03     5.88202E-03    -29.6925E+06     21.4844E+06     44.6503E+06     16.8372E+06    -124.459E-03     213.649E-03    -89.1907E-03     69.1551E-03    -126.095E-03     215.132E-03    -88.9555E-03     64.0605E-03
            2369     10.7376E-03     5.83882E-03    -34.4386E+06     16.6758E+06     33.5949E+06     15.1120E+06    -112.561E-03     199.437E-03    -86.8761E-03     61.9924E-03    -113.786E-03     200.505E-03    -86.6824E-03     58.2131E-03
            2370     9.92894E-03     5.81525E-03    -38.1579E+06     2.61120E+06     21.9541E+06     9.78868E+06    -103.834E-03     188.860E-03    -85.0259E-03     57.3328E-03    -104.755E-03     189.593E-03    -84.8646E-03     54.4305E-03
            2371     9.11535E-03     5.79570E-03    -40.8569E+06    -25.6288E+06     15.0233E+06     6.12059E+06    -97.6276E-03     181.179E-03    -83.5513E-03     54.9782E-03    -98.3254E-03     181.599E-03    -83.3797E-03     52.6853E-03
            2372     8.29693E-03     5.78630E-03    -44.0959E+06    -68.2839E+06     9.40055E+06     6.72948E+06    -93.1325E-03     175.470E-03    -82.3374E-03     52.6863E-03    -93.6415E-03     175.553E-03    -82.1275E-03     50.8951E-03
            2373     7.47428E-03     5.77594E-03    -47.3801E+06    -108.795E+06     4.48341E+06     6.87114E+06    -89.8068E-03     171.089E-03    -81.2826E-03     50.0414E-03    -90.1653E-03     170.881E-03    -81.0337E-03     48.6346E-03
            2374     6.65153E-03     5.77004E-03    -49.9402E+06    -136.711E+06     773.624E+03     5.31904E+06    -87.0448E-03     167.373E-03    -80.3287E-03     46.9772E-03    -87.2940E-03     166.957E-03    -80.0542E-03     45.8570E-03
            2375     5.82472E-03     5.76461E-03    -51.5202E+06    -153.790E+06    -4.00376E+06     3.13584E+06    -84.6807E-03     164.129E-03    -79.4481E-03     43.3160E-03    -84.8481E-03     163.578E-03    -79.1704E-03     42.4207E-03
            2376     4.99691E-03     5.76011E-03    -53.4408E+06    -165.473E+06    -11.1136E+06     198.220E+03    -82.5874E-03     161.226E-03    -78.6382E-03     38.9986E-03    -82.6932E-03     160.585E-03    -78.3763E-03     38.2751E-03
            2377     4.16675E-03     5.75716E-03    -56.0498E+06    -173.659E+06    -21.0979E+06    -2.38335E+06    -80.7277E-03     158.632E-03    -77.9038E-03     34.1142E-03    -80.7873E-03     157.934E-03    -77.6762E-03     33.5354E-03
            2378     3.33564E-03     5.75390E-03    -58.9109E+06    -181.481E+06    -32.7627E+06    -3.73897E+06    -79.1375E-03     156.400E-03    -77.2622E-03     28.4914E-03    -79.1592E-03     155.660E-03    -77.0774E-03     28.0427E-03
            2379     2.50291E-03     5.75196E-03    -61.6559E+06    -188.565E+06    -43.9901E+06    -3.77600E+06    -77.8356E-03     154.565E-03    -76.7295E-03     22.2048E-03    -77.8280E-03     153.793E-03    -76.5866E-03     21.8783E-03
            2380     1.66902E-03     5.74993E-03    -64.1161E+06    -195.444E+06    -55.1145E+06    -2.85716E+06    -76.8279E-03     153.145E-03    -76.3167E-03     15.4512E-03    -76.7959E-03     152.347E-03    -76.2159E-03     15.2394E-03
            2381     835.056E-06     5.74914E-03    -65.9809E+06    -200.516E+06    -63.4533E+06    -1.57578E+06    -76.1733E-03     152.232E-03    -76.0585E-03     8.65867E-03    -76.1255E-03     151.418E-03    -75.9894E-03     8.54777E-03
            2382     15.3083E-03     5.49423E-03    -5.01792E+06     92.0558E+06     75.1079E+06     1.68426E+06    -227.272E-03     338.933E-03    -111.661E-03     201.094E-03    -235.383E-03     347.135E-03    -111.411E-03     181.116E-03
            2383     14.5767E-03     5.21009E-03    -9.44595E+06     85.1863E+06     71.6138E+06     4.92468E+06    -222.003E-03     328.012E-03    -106.008E-03     232.364E-03    -232.039E-03     338.118E-03    -105.760E-03     209.486E-03
            2384     13.8514E-03     4.95725E-03    -14.2083E+06     61.9460E+06     64.8307E+06     9.33237E+06    -189.799E-03     290.518E-03    -100.718E-03     179.547E-03    -196.049E-03     296.771E-03    -100.463E-03     164.046E-03
            2385     13.0914E-03     4.82532E-03    -19.0818E+06     49.1230E+06     60.5066E+06     12.8569E+06    -151.542E-03     248.197E-03    -96.6553E-03     125.169E-03    -154.931E-03     251.529E-03    -96.3963E-03     116.198E-03
            2386     12.3044E-03     4.75440E-03    -24.4515E+06     32.0693E+06     55.6654E+06     14.5402E+06    -128.024E-03     221.890E-03    -93.8668E-03     99.1223E-03    -130.146E-03     223.885E-03    -93.5995E-03     93.3041E-03
            2387     11.5065E-03     4.70984E-03    -27.7670E+06     23.9924E+06     52.3112E+06     13.8553E+06    -114.083E-03     205.988E-03    -91.9044E-03     87.7324E-03    -115.597E-03     207.341E-03    -91.6374E-03     83.5234E-03
            2388     10.6984E-03     4.68674E-03    -29.4198E+06     22.9622E+06     46.3714E+06     11.1851E+06    -104.996E-03     195.446E-03    -90.4502E-03     81.9197E-03    -106.150E-03     196.446E-03    -90.2090E-03     78.6965E-03
            2389     9.88564E-03     4.66841E-03    -32.2661E+06     10.1239E+06     36.9329E+06     7.81638E+06    -98.9475E-03     188.310E-03    -89.3627E-03     77.9882E-03    -99.8319E-03     189.011E-03    -89.1460E-03     75.4662E-03
            2390     9.06813E-03     4.66094E-03    -37.5680E+06    -25.6693E+06     28.6172E+06     4.63885E+06    -95.3154E-03     183.868E-03    -88.5529E-03     74.1322E-03    -95.9861E-03     184.232E-03    -88.3181E-03     72.1034E-03
            2391     8.24856E-03     4.65191E-03    -42.4659E+06    -70.6022E+06     23.2196E+06     3.23600E+06    -92.9768E-03     180.881E-03    -87.9047E-03     70.3055E-03    -93.4739E-03     180.909E-03    -87.6246E-03     68.6614E-03
            2392     7.42972E-03     4.64867E-03    -45.2421E+06    -106.446E+06     20.2018E+06     1.18445E+06    -91.2211E-03     178.557E-03    -87.3354E-03     65.8408E-03    -91.5803E-03     178.317E-03    -87.0144E-03     64.4980E-03
            2393     6.60588E-03     4.64483E-03    -46.5510E+06    -133.803E+06     15.4611E+06    -2.67024E+06    -89.7251E-03     176.535E-03    -86.8100E-03     60.9019E-03    -89.9725E-03     176.095E-03    -86.4712E-03     59.7801E-03
            2394     5.78371E-03     4.64245E-03    -47.1819E+06    -151.625E+06     7.06295E+06    -5.58252E+06    -88.5205E-03     174.831E-03    -86.3109E-03     55.3678E-03    -88.6784E-03     174.260E-03    -85.9873E-03     54.4319E-03
            2395     4.95905E-03     4.64138E-03    -47.9888E+06    -164.361E+06    -4.58481E+06    -7.03594E+06    -87.5129E-03     173.351E-03    -85.8380E-03     49.0407E-03    -87.5987E-03     172.692E-03    -85.5530E-03     48.2715E-03
            2396     4.13428E-03     4.63970E-03    -50.0919E+06    -174.155E+06    -18.4966E+06    -7.22588E+06    -86.5907E-03     171.993E-03    -85.4027E-03     42.0493E-03    -86.6216E-03     171.277E-03    -85.1700E-03     41.4362E-03
            2397     3.30827E-03     4.63948E-03     -53.791E+06    -183.693E+06    -32.5064E+06    -6.76061E+06    -85.7801E-03     170.812E-03    -85.0316E-03     34.7011E-03    -85.7730E-03     170.050E-03    -84.8498E-03     34.2299E-03
            2398     2.48182E-03     4.63827E-03    -58.2513E+06    -192.658E+06    -45.4251E+06    -5.54375E+06    -85.1518E-03     169.886E-03    -84.7341E-03     26.7659E-03    -85.1198E-03     169.089E-03    -84.5974E-03     26.4239E-03
            2399     1.65510E-03     4.63842E-03    -62.1857E+06    -200.096E+06    -56.2537E+06    -3.61579E+06    -84.7073E-03     169.216E-03    -84.5085E-03     18.3423E-03    -84.6586E-03     168.392E-03    -84.4094E-03     18.1215E-03
            2400     827.065E-06     4.63769E-03    -64.8695E+06    -205.008E+06    -63.4094E+06    -1.83816E+06    -84.3976E-03     168.773E-03    -84.3758E-03     9.98715E-03    -84.3391E-03     167.934E-03    -84.3015E-03     9.87189E-03
            2401     15.2670E-03     4.15421E-03    -4.86229E+06     89.5398E+06     71.3652E+06     3.86135E+06    -233.631E-03     346.511E-03    -112.880E-03     209.864E-03    -241.274E-03     354.249E-03    -112.646E-03     190.311E-03
            2402     14.5688E-03     3.86664E-03    -10.7281E+06     77.8521E+06     67.0530E+06     6.94994E+06    -214.279E-03     321.650E-03    -107.370E-03     220.796E-03    -222.641E-03     330.079E-03    -107.132E-03     201.136E-03
            2403     13.8277E-03     3.71110E-03    -13.9977E+06     55.3682E+06     62.4576E+06     10.3537E+06    -170.306E-03     273.176E-03    -102.870E-03     169.525E-03    -174.827E-03     277.686E-03    -102.617E-03     158.216E-03
            2404     13.0451E-03     3.61864E-03    -18.5133E+06     45.1305E+06     60.9261E+06     13.2468E+06    -135.702E-03     235.633E-03    -99.9302E-03     136.112E-03    -138.346E-03     238.204E-03    -99.6642E-03     129.506E-03
            2405     12.2521E-03     3.57562E-03    -21.7768E+06     34.8838E+06     61.6115E+06     12.4293E+06    -117.741E-03     215.902E-03    -98.1618E-03     116.734E-03    -119.486E-03     217.521E-03    -97.8727E-03     112.214E-03
            2406     11.4443E-03     3.54716E-03    -24.5038E+06     29.5699E+06     60.2579E+06     8.31389E+06    -107.585E-03     204.621E-03    -97.0368E-03     106.416E-03    -108.857E-03     205.739E-03    -96.7428E-03     103.040E-03
            2407     10.6339E-03     3.53143E-03    -27.2051E+06     26.0275E+06     52.3780E+06     6.07184E+06    -101.920E-03     198.195E-03    -96.2745E-03     97.8208E-03    -102.883E-03     199.001E-03    -96.0109E-03     95.2042E-03
            2408     9.81829E-03     3.52238E-03    -31.2978E+06     12.7147E+06     44.8347E+06     5.47206E+06    -98.7056E-03     194.472E-03    -95.7662E-03     91.0312E-03    -99.4569E-03     195.025E-03    -95.5150E-03     88.9692E-03
            2409     9.00293E-03     3.51438E-03    -35.5150E+06    -24.1805E+06     38.9766E+06     2.40738E+06    -97.0400E-03     192.477E-03    -95.4370E-03     84.5158E-03    -97.6089E-03     192.719E-03    -95.1555E-03     82.8336E-03
            2410     8.18697E-03     3.51146E-03    -38.0905E+06    -69.3206E+06     32.1660E+06    -2.82026E+06    -96.0890E-03     191.276E-03    -95.1868E-03     78.2230E-03    -96.4952E-03     191.204E-03    -94.8702E-03     76.8004E-03
            2411     7.36737E-03     3.50753E-03    -39.1397E+06    -103.156E+06     27.6436E+06    -7.83308E+06    -95.4675E-03     190.442E-03    -94.9748E-03     71.7175E-03    -95.7515E-03     190.137E-03    -94.6303E-03     70.4840E-03
            2412     6.55199E-03     3.50676E-03    -39.6790E+06    -131.057E+06     19.2420E+06    -12.3734E+06    -95.0704E-03     189.834E-03    -94.7633E-03     64.9003E-03    -95.2499E-03     189.347E-03    -94.4195E-03     63.8186E-03
            2413     5.73234E-03     3.50584E-03    -40.5910E+06    -153.036E+06     6.18362E+06    -14.7814E+06    -94.6745E-03     189.223E-03    -94.5483E-03     57.9231E-03    -94.7668E-03     188.605E-03    -94.2366E-03     56.9881E-03
            2414     4.91463E-03     3.50491E-03    -42.1350E+06    -169.373E+06    -9.16086E+06    -13.2243E+06    -94.4392E-03     188.780E-03    -94.3410E-03     50.4850E-03    -94.4625E-03     188.074E-03    -94.0801E-03     49.7170E-03
            2415     4.09583E-03     3.50562E-03    -44.9629E+06    -179.960E+06    -23.4944E+06    -9.48137E+06    -94.2119E-03     188.365E-03    -94.1533E-03     42.7786E-03    -94.1901E-03     187.607E-03    -93.9446E-03     42.1864E-03
            2416     3.27698E-03     3.50536E-03    -49.4663E+06    -189.131E+06    -36.1269E+06    -5.90198E+06    -94.0000E-03     188.002E-03    -94.0025E-03     34.8648E-03    -93.9519E-03     187.206E-03    -93.8371E-03     34.4321E-03
            2417     2.45783E-03     3.50580E-03    -54.6259E+06    -197.619E+06    -47.8142E+06    -3.23608E+06    -93.8735E-03     187.759E-03    -93.8853E-03     26.5874E-03    -93.8096E-03     186.931E-03    -93.7586E-03     26.2884E-03
            2418     1.63827E-03     3.50553E-03    -59.4699E+06    -204.257E+06    -56.4302E+06    -1.51399E+06    -93.8278E-03     187.619E-03    -93.7915E-03     18.1147E-03    -93.7580E-03     186.770E-03    -93.6913E-03     17.9271E-03
            2419     820.004E-06     3.50578E-03    -62.4918E+06    -208.221E+06    -61.7851E+06    -551.255E+03    -93.7222E-03     187.447E-03    -93.7245E-03     9.81918E-03    -93.6493E-03     186.585E-03    -93.6409E-03     9.72371E-03
            2420     15.2678E-03     2.78875E-03    -5.77748E+06     85.0376E+06     71.9676E+06     4.92196E+06    -233.866E-03     349.717E-03    -115.851E-03     246.538E-03    -241.474E-03     357.413E-03    -115.606E-03     227.951E-03
            2421     14.5252E-03     2.57056E-03    -7.29377E+06     70.5444E+06       69.86E+06     8.46922E+06    -197.079E-03     308.004E-03    -110.925E-03     217.002E-03    -203.293E-03     314.264E-03    -110.667E-03     202.215E-03
            2422     13.7548E-03     2.47746E-03    -10.9600E+06     52.2682E+06     66.0975E+06     10.3154E+06    -152.083E-03     259.563E-03    -107.480E-03     166.257E-03    -155.000E-03     262.448E-03    -107.209E-03     158.770E-03
            2423     12.9695E-03     2.42547E-03    -12.5623E+06     45.1322E+06     68.1941E+06     9.74917E+06    -128.052E-03     233.556E-03    -105.504E-03     140.058E-03    -129.814E-03     235.239E-03    -105.210E-03     135.395E-03
            2424     12.1658E-03     2.39556E-03    -14.1224E+06     40.6470E+06     70.1951E+06     7.81738E+06    -115.905E-03     220.251E-03    -104.345E-03     119.369E-03    -117.068E-03     221.302E-03    -104.033E-03     116.137E-03
            2425     11.3627E-03     2.38004E-03    -17.7419E+06     35.6810E+06     63.4999E+06     4.45084E+06    -109.435E-03     213.033E-03    -103.599E-03     105.335E-03    -110.285E-03     213.760E-03    -103.307E-03     102.895E-03
            2426     10.5526E-03     2.36824E-03    -21.8498E+06     25.2935E+06     48.0599E+06     3.02036E+06    -105.791E-03     208.877E-03    -103.087E-03     93.4956E-03    -106.425E-03     209.381E-03    -102.851E-03     91.6071E-03
            2427     9.74441E-03     2.36223E-03    -25.5395E+06     12.7882E+06     32.6187E+06     2.98594E+06    -103.777E-03     206.521E-03    -102.745E-03     84.1593E-03    -104.264E-03     206.865E-03    -102.563E-03     82.6737E-03
            2428     8.93247E-03     2.35720E-03    -28.9057E+06    -19.4949E+06     22.5637E+06    -1.16716E+06    -102.624E-03     205.190E-03    -102.566E-03     76.1560E-03    -102.985E-03     205.310E-03    -102.383E-03     74.9109E-03
            2429     8.12017E-03     2.35396E-03    -31.0978E+06    -63.1234E+06     11.6970E+06    -9.15221E+06    -102.152E-03     204.615E-03    -102.464E-03     68.5734E-03    -102.385E-03     204.477E-03    -102.269E-03     67.4534E-03
            2430     7.31056E-03     2.35234E-03    -31.4482E+06    -100.681E+06     2.21531E+06    -16.1084E+06    -101.888E-03     204.285E-03    -102.397E-03     61.5755E-03    -102.015E-03     203.933E-03    -102.194E-03     60.5379E-03
            2431     6.49597E-03     2.35092E-03    -31.7333E+06    -132.360E+06    -4.48367E+06    -18.6706E+06    -101.811E-03     204.175E-03    -102.364E-03     54.7163E-03    -101.853E-03     203.644E-03    -102.148E-03     53.7862E-03
            2432     5.68578E-03     2.35100E-03    -34.4213E+06    -159.320E+06    -13.9038E+06    -17.3644E+06    -101.822E-03     204.153E-03    -102.331E-03     48.1576E-03    -101.803E-03     203.482E-03    -102.120E-03     47.3650E-03
            2433     4.87260E-03     2.35090E-03    -39.3717E+06    -179.431E+06    -23.6048E+06    -13.4031E+06    -101.765E-03     204.077E-03    -102.312E-03     41.5041E-03    -101.710E-03     203.310E-03    -102.113E-03     40.8663E-03
            2434     4.06047E-03     2.35116E-03    -44.5715E+06    -189.497E+06    -32.8367E+06    -7.96749E+06    -101.905E-03     204.199E-03    -102.294E-03     34.7421E-03    -101.835E-03     203.389E-03    -102.119E-03     34.2635E-03
            2435     3.24828E-03     2.35167E-03    -48.8780E+06    -196.026E+06    -40.5673E+06    -2.99427E+06    -102.049E-03     204.320E-03    -102.271E-03     27.9619E-03    -101.970E-03     203.484E-03    -102.119E-03     27.6307E-03
            2436     2.43616E-03     2.35185E-03    -52.4175E+06    -201.282E+06    -47.9551E+06    -14.1623E+03    -102.091E-03     204.337E-03    -102.246E-03     21.1871E-03    -102.004E-03     203.484E-03    -102.118E-03     20.9722E-03
            2437     1.62449E-03     2.35190E-03    -55.1522E+06    -205.452E+06    -53.3934E+06     958.257E+03    -102.117E-03     204.365E-03    -102.248E-03     14.4034E-03    -102.024E-03     203.498E-03    -102.138E-03     14.2736E-03
            2438     811.328E-06     2.35221E-03    -57.1622E+06    -208.164E+06    -56.9251E+06     820.786E+03    -102.229E-03     204.487E-03    -102.258E-03     7.77979E-03    -102.134E-03     203.611E-03    -102.158E-03     7.71307E-03
            2439     15.1347E-03     1.37280E-03    -1.80154E+06     81.3470E+06     82.7501E+06     5.82302E+06    -250.634E-03     372.177E-03    -121.543E-03     245.777E-03    -256.293E-03     377.882E-03    -121.245E-03     230.553E-03
            2440     14.4286E-03     1.29594E-03    -2.40034E+06     68.9161E+06     79.5672E+06     7.13052E+06    -193.363E-03     309.855E-03    -116.492E-03     168.929E-03    -196.412E-03     312.927E-03    -116.190E-03     160.390E-03
            2441     13.6625E-03     1.25211E-03    -4.53857E+06     55.2632E+06     76.5575E+06     5.30807E+06    -154.235E-03     267.505E-03    -113.271E-03     127.392E-03    -155.561E-03     268.791E-03    -112.961E-03     123.203E-03
            2442     12.8746E-03     1.22025E-03    -5.44596E+06     46.6410E+06     76.5895E+06     4.41935E+06    -134.347E-03     245.683E-03    -111.336E-03     98.7585E-03    -135.139E-03     246.398E-03    -111.013E-03     96.2179E-03
            2443     12.0868E-03     1.20651E-03    -7.80700E+06     44.9549E+06     73.6587E+06     3.72922E+06    -123.170E-03     233.274E-03    -110.104E-03     79.2522E-03    -123.717E-03     233.737E-03    -109.790E-03     77.5026E-03
            2444     11.2874E-03     1.19511E-03    -11.2571E+06     38.7449E+06     58.6883E+06     2.18212E+06    -116.878E-03     226.131E-03    -109.253E-03     67.0751E-03    -117.290E-03     226.468E-03    -108.999E-03     65.7609E-03
            2445     10.4889E-03     1.19095E-03    -14.5084E+06     23.9800E+06     35.9550E+06     981.351E+03    -113.076E-03     221.720E-03    -108.644E-03     58.0330E-03    -113.379E-03     221.950E-03    -108.478E-03     57.0223E-03
            2446     9.68331E-03     1.18624E-03    -15.9865E+06     11.9987E+06     10.7491E+06     1.27058E+06    -110.701E-03     218.896E-03    -108.195E-03     51.0290E-03    -110.913E-03     219.061E-03    -108.136E-03     50.2394E-03
            2447     8.87928E-03     1.18425E-03    -17.7093E+06    -13.0360E+06    -13.7052E+06    -1.19822E+06    -109.198E-03     217.095E-03    -107.896E-03     45.1264E-03    -109.319E-03     217.144E-03    -107.920E-03     44.4595E-03
            2448     8.07350E-03     1.18166E-03    -20.2383E+06    -53.7637E+06    -30.9408E+06    -8.80802E+06    -108.242E-03     215.995E-03    -107.752E-03     40.0820E-03    -108.272E-03     215.850E-03    -107.800E-03     39.4300E-03
            2449     7.26455E-03     1.18080E-03    -23.8801E+06    -99.8002E+06    -39.6212E+06    -14.7896E+06    -107.729E-03     215.458E-03    -107.729E-03     35.4623E-03    -107.684E-03     215.087E-03    -107.748E-03     34.8250E-03
            2450     6.45960E-03     1.18034E-03    -29.0273E+06    -138.814E+06    -39.7360E+06    -14.6972E+06    -107.465E-03     215.255E-03    -107.790E-03     31.3771E-03    -107.379E-03     214.687E-03    -107.745E-03     30.8097E-03
            2451     5.65011E-03     1.17985E-03    -35.2330E+06    -168.402E+06    -39.3524E+06    -11.0726E+06    -107.441E-03     215.312E-03    -107.871E-03     27.1812E-03    -107.336E-03     214.597E-03    -107.773E-03     26.7215E-03
            2452     4.84361E-03     1.18055E-03    -41.1404E+06    -188.526E+06    -39.5546E+06    -7.25400E+06    -107.520E-03     215.469E-03    -107.948E-03     23.2755E-03    -107.410E-03     214.656E-03    -107.813E-03     22.9193E-03
            2453     4.03584E-03     1.18027E-03    -46.0802E+06    -197.857E+06    -41.8107E+06    -3.89922E+06    -107.644E-03     215.647E-03    -108.002E-03     19.3887E-03    -107.538E-03     214.794E-03    -107.858E-03     19.1240E-03
            2454     3.22865E-03     1.18057E-03    -49.1396E+06    -201.252E+06    -44.6291E+06    -1.00108E+06    -107.812E-03     215.847E-03    -108.036E-03     15.4623E-03    -107.708E-03     214.982E-03    -107.896E-03     15.2785E-03
            2455     2.42152E-03     1.18081E-03    -50.5777E+06    -203.132E+06    -47.2434E+06     817.840E+03    -107.921E-03     215.976E-03    -108.055E-03     11.7002E-03    -107.815E-03     215.105E-03    -107.923E-03     11.5848E-03
            2456     1.61376E-03     1.18104E-03    -51.0311E+06    -204.635E+06    -49.4617E+06     1.49702E+06    -107.986E-03     216.059E-03    -108.073E-03     7.86873E-03    -107.876E-03     215.183E-03    -107.950E-03     7.80495E-03
            2457     807.611E-06     1.18077E-03    -51.3353E+06    -205.699E+06    -50.8282E+06     1.14590E+06    -108.101E-03     216.155E-03    -108.054E-03     4.19127E-03    -107.987E-03     215.275E-03    -107.935E-03     4.16136E-03


