********************************************************************************
Field Output Report, written Tue May 28 18:21:41 2024

Source 1
---------

   ODB: G:/Abaqus_calc_2019/1740/Vel_20/odb/zeides_2a_16_red_1500_cal_50_vel_20_fric_025.odb
   Step: Step-1
   Frame: Increment   5690285: Step Time =   0.6494

Loc 1 : Nodal values from source 1

Output sorted by column "Nodal Label".

Field Output reported at nodes for region: DIE_2A_16_D0_36-1.Region_1
   Computation algorithm: EXTRAPOLATE_COMPUTE_AVERAGE
   Averaged at nodes
   Averaging regions: ODB_REGIONS

      Node Label     COORD.COOR1     COORD.COOR2
                          @Loc 1          @Loc 1
-------------------------------------------------
               1     17.4293E-03     154.794E-03


Field Output reported at nodes for region: DIE_2A_16_D0_36-1.Region_2
   Computation algorithm: EXTRAPOLATE_COMPUTE_AVERAGE
   Averaged at nodes
   Averaging regions: ODB_REGIONS

      Node Label     COORD.COOR1     COORD.COOR2
                          @Loc 1          @Loc 1
-------------------------------------------------
               1     17.4293E-03     154.794E-03


Field Output reported at nodes for part: WIRE-1
   Computation algorithm: EXTRAPOLATE_COMPUTE_AVERAGE
   Averaged at nodes
   Averaging regions: ODB_REGIONS

      Node Label     COORD.COOR1     COORD.COOR2           S.S11           S.S22           S.S33           S.S12         PE.PE11         PE.PE22         PE.PE33         PE.PE12         LE.LE11         LE.LE22         LE.LE33         LE.LE12
                          @Loc 1          @Loc 1          @Loc 1          @Loc 1          @Loc 1          @Loc 1          @Loc 1          @Loc 1          @Loc 1          @Loc 1          @Loc 1          @Loc 1          @Loc 1          @Loc 1
-------------------------------------------------------------------------------------------------------------------------------------------------------------------------------------------------------------------------------------------------
               1    -150.219E-09     75.2279E-03    -149.213E+06    -309.347E+06    -148.297E+06    -378.209E+03    -163.672E-03     327.141E-03    -163.468E-03     8.06999E-03    -163.760E-03     326.031E-03    -163.545E-03     7.60315E-03
               2     15.2941E-03     76.7407E-03    -2.76891E+06     106.409E+06     106.512E+06     167.650E+03    -162.335E-03     325.663E-03    -163.328E-03     17.5019E-03    -162.919E-03     326.307E-03    -162.946E-03     12.8790E-03
               3     15.3052E-03     153.335E-03    -22.1001E+06     16.8251E+06     36.3706E+06    -8.28613E+06    -130.680E-03     293.521E-03    -162.841E-03    -2.21046E-03    -130.854E-03     293.599E-03    -162.652E-03    -2.57886E-03
               4    -5.79011E-06     150.857E-03     59.8746E+06    -8.75707E+06     53.8642E+06    -3.75242E+06    -174.428E-03     352.701E-03    -178.273E-03    -16.1982E-03    -174.250E-03     352.431E-03    -178.077E-03    -16.4452E-03
               5    -29.1419E-09     1.80411E-15    -83.1746E+06    -258.566E+06    -82.8105E+06    -717.562E+03    -158.985E-03     317.796E-03    -158.811E-03     455.095E-06    -158.905E-03     316.744E-03    -158.730E-03     395.215E-06
               6     15.1627E-03     1.80411E-15     3.27166E+06     97.4931E+06     111.064E+06    -1.89932E+06    -239.383E-03     406.850E-03    -167.467E-03     116.896E-03    -240.640E-03     408.145E-03    -167.058E-03     109.615E-03
               7     763.927E-06     75.2372E-03    -146.751E+06    -302.680E+06    -142.662E+06    -128.986E+03    -163.510E-03     326.995E-03    -163.485E-03     13.3107E-03    -163.615E-03     325.919E-03    -163.547E-03     12.5676E-03
               8     1.52855E-03     75.2601E-03    -141.300E+06    -286.352E+06    -127.461E+06     171.108E+03    -163.424E-03     326.922E-03    -163.498E-03     24.4178E-03    -163.583E-03     325.933E-03    -163.515E-03     23.0769E-03
               9     2.29286E-03     75.2979E-03    -133.576E+06    -264.399E+06    -106.232E+06     95.2269E+03    -163.568E-03     327.083E-03    -163.515E-03     35.8097E-03    -163.811E-03     326.221E-03    -163.469E-03     33.8212E-03
              10     3.05719E-03     75.3485E-03    -123.682E+06    -238.756E+06    -83.1526E+06    -9.54778E+03    -163.651E-03     327.201E-03    -163.549E-03     46.4704E-03    -163.994E-03     326.498E-03    -163.439E-03     43.8410E-03
              11     3.82177E-03     75.4116E-03    -113.618E+06    -213.488E+06    -61.6146E+06     24.3758E+03    -163.755E-03     327.323E-03    -163.568E-03     56.3809E-03    -164.212E-03     326.798E-03    -163.402E-03     53.1290E-03
              12     4.58607E-03     75.4867E-03    -103.643E+06    -189.482E+06    -42.1643E+06     83.0847E+03    -163.890E-03     327.465E-03    -163.576E-03     65.2104E-03    -164.468E-03     327.126E-03    -163.362E-03     61.3651E-03
              13     5.35060E-03     75.5707E-03    -93.5165E+06    -165.785E+06    -24.7770E+06    -25.6889E+03    -164.011E-03     327.584E-03    -163.574E-03     72.7897E-03    -164.712E-03     327.437E-03    -163.321E-03     68.3968E-03
              14     6.11530E-03     75.6642E-03    -83.7473E+06    -142.975E+06    -9.76312E+06    -183.718E+03    -164.147E-03     327.710E-03    -163.563E-03     79.1269E-03    -164.965E-03     327.752E-03    -163.284E-03     74.2456E-03
              15     6.87997E-03     75.7636E-03    -74.8632E+06    -120.572E+06     3.34121E+06    -102.371E+03    -164.240E-03     327.789E-03    -163.549E-03     84.1205E-03    -165.167E-03     328.013E-03    -163.249E-03     78.8213E-03
              16     7.64471E-03     75.8688E-03    -66.5650E+06    -98.8073E+06     15.1485E+06     8.37978E+03    -164.326E-03     327.860E-03    -163.534E-03     87.7227E-03    -165.349E-03     328.252E-03    -163.219E-03     82.0702E-03
              17     8.40940E-03     75.9770E-03    -58.7628E+06    -76.2811E+06     25.7882E+06    -121.913E+03    -164.352E-03     327.870E-03    -163.518E-03     89.8941E-03    -165.454E-03     328.418E-03    -163.194E-03     83.9478E-03
              18     9.17389E-03     76.0870E-03    -51.4034E+06    -51.2924E+06     35.9566E+06    -175.585E+03    -164.228E-03     327.725E-03    -163.497E-03     90.7623E-03    -165.396E-03     328.425E-03    -163.169E-03     84.5791E-03
              19     9.93880E-03     76.1968E-03    -44.1137E+06    -20.1301E+06     46.7528E+06    -97.8482E+03    -164.026E-03     327.492E-03    -163.467E-03     90.2567E-03    -165.254E-03     328.357E-03    -163.140E-03     83.8743E-03
              20     10.7039E-03     76.3047E-03    -37.6739E+06     14.6095E+06     57.7238E+06    -65.1629E+03    -163.837E-03     327.270E-03    -163.433E-03     88.2103E-03    -165.116E-03     328.301E-03    -163.111E-03     81.6535E-03
              21     11.4685E-03     76.4089E-03    -31.8141E+06     51.1195E+06     65.8730E+06    -251.473E+03    -163.543E-03     326.929E-03    -163.387E-03     84.3005E-03    -164.856E-03     328.120E-03    -163.085E-03     77.5896E-03
              22     12.2329E-03     76.5062E-03    -24.9830E+06     81.4995E+06     75.6003E+06    -311.347E+03    -163.074E-03     326.428E-03    -163.354E-03     77.9654E-03    -164.385E-03     327.720E-03    -163.058E-03     71.1292E-03
              23     12.9986E-03     76.5939E-03    -17.5339E+06     95.8305E+06     86.1045E+06     484.854E+03    -162.529E-03     325.871E-03    -163.342E-03     67.6362E-03    -163.751E-03     327.121E-03    -163.025E-03     60.8590E-03
              24     13.7634E-03     76.6641E-03    -11.3156E+06     102.924E+06     98.6912E+06     269.338E+03    -162.021E-03     325.369E-03    -163.348E-03     57.2865E-03    -163.189E-03     326.576E-03    -162.987E-03     50.3692E-03
              25     14.5281E-03     76.7231E-03    -5.75534E+06     106.283E+06     107.113E+06    -194.905E+03    -162.068E-03     325.414E-03    -163.346E-03     35.4598E-03    -162.955E-03     326.348E-03    -162.957E-03     29.5643E-03
              26     15.2927E-03     78.0550E-03    -3.17725E+06     105.932E+06     106.195E+06     297.402E+03    -162.228E-03     325.565E-03    -163.337E-03     17.2823E-03    -162.814E-03     326.208E-03    -162.955E-03     12.6500E-03
              27     15.2941E-03     79.3670E-03    -2.27902E+06     106.554E+06     106.835E+06    -65.7502E+03    -161.983E-03     325.312E-03    -163.330E-03     17.0774E-03    -162.566E-03     325.956E-03    -162.947E-03     12.4351E-03
              28     15.2935E-03     80.6813E-03    -3.28883E+06     106.237E+06     105.751E+06    -879.333E+03    -162.454E-03     325.781E-03    -163.327E-03     16.2663E-03    -163.034E-03     326.420E-03    -162.947E-03     11.6248E-03
              29     15.2926E-03     81.9971E-03    -3.24549E+06     106.325E+06     105.842E+06     601.131E+03    -161.746E-03     325.099E-03    -163.353E-03     16.8643E-03    -162.331E-03     325.743E-03    -162.973E-03     12.2463E-03
              30     15.2946E-03     83.3075E-03    -2.24128E+06     107.719E+06     107.472E+06    -220.223E+03    -161.630E-03     324.979E-03    -163.348E-03     17.7979E-03    -162.219E-03     325.630E-03    -162.964E-03     13.1666E-03
              31     15.2922E-03     84.6237E-03    -3.06971E+06     107.408E+06     106.527E+06     274.077E+03    -162.498E-03     325.832E-03    -163.334E-03     17.1559E-03    -163.083E-03     326.478E-03    -162.952E-03     12.5491E-03
              32     15.2944E-03     85.9368E-03    -1.93104E+06     107.699E+06     107.136E+06     569.587E+03    -162.101E-03     325.436E-03    -163.335E-03     17.6456E-03    -162.683E-03     326.083E-03    -162.952E-03     13.0486E-03
              33     15.2930E-03     87.2504E-03    -2.37970E+06     108.160E+06     107.374E+06    -287.253E+03    -162.069E-03     325.400E-03    -163.331E-03     17.0969E-03    -162.656E-03     326.051E-03    -162.947E-03     12.4533E-03
              34     15.2939E-03     88.5647E-03    -3.37452E+06     107.672E+06     106.506E+06    -299.929E+03    -162.113E-03     325.447E-03    -163.335E-03     17.0300E-03    -162.701E-03     326.098E-03    -162.953E-03     12.3919E-03
              35     15.2931E-03     89.8776E-03    -1.97888E+06     107.822E+06     107.125E+06    -230.482E+03    -161.800E-03     325.140E-03    -163.340E-03     16.7344E-03    -162.382E-03     325.787E-03    -162.958E-03     12.1005E-03
              36     15.2940E-03     91.1909E-03    -3.31451E+06     107.449E+06     106.361E+06    -129.831E+03    -162.042E-03     325.381E-03    -163.339E-03     16.7338E-03    -162.629E-03     326.029E-03    -162.958E-03     12.1003E-03
              37     15.2926E-03     92.5053E-03    -3.45510E+06     107.407E+06     106.094E+06     43.1169E+03    -162.182E-03     325.523E-03    -163.341E-03     16.7954E-03    -162.768E-03     326.170E-03    -162.961E-03     12.1816E-03
              38     15.2941E-03     93.8193E-03    -1.98532E+06     108.230E+06     106.900E+06     208.792E+03    -161.649E-03     324.991E-03    -163.342E-03     17.3131E-03    -162.233E-03     325.642E-03    -162.961E-03     12.7049E-03
              39     15.2934E-03     95.1317E-03    -3.39282E+06     108.352E+06     106.450E+06    -376.301E+03    -162.222E-03     325.553E-03    -163.331E-03     17.6264E-03    -162.815E-03     326.210E-03    -162.951E-03     12.9845E-03
              40     15.2931E-03     96.4480E-03    -2.59506E+06     109.160E+06     107.039E+06     457.225E+03    -162.590E-03     325.921E-03    -163.331E-03     17.2760E-03    -163.178E-03     326.577E-03    -162.950E-03     12.6462E-03
              41     15.2939E-03     97.7598E-03    -2.98413E+06     108.715E+06     106.925E+06    -315.601E+03    -162.181E-03     325.520E-03    -163.339E-03     16.8813E-03    -162.768E-03     326.173E-03    -162.958E-03     12.2518E-03
              42     15.2927E-03     99.0754E-03    -2.66074E+06     108.396E+06     107.045E+06     4.19994E+03    -161.535E-03     324.890E-03    -163.355E-03     16.6292E-03    -162.121E-03     325.540E-03    -162.973E-03     12.0106E-03
              43     15.2943E-03     100.386E-03    -1.79093E+06     109.515E+06     107.638E+06     90.6461E+03    -161.426E-03     324.773E-03    -163.347E-03     17.9577E-03    -162.015E-03     325.433E-03    -162.965E-03     13.3470E-03
              44     15.2929E-03     101.701E-03    -3.00813E+06     110.271E+06     107.319E+06     372.295E+03    -162.288E-03     325.615E-03    -163.326E-03     17.3668E-03    -162.881E-03     326.277E-03    -162.945E-03     12.7464E-03
              45     15.2939E-03     103.015E-03    -2.51726E+06     112.065E+06     108.347E+06     654.454E+03    -162.046E-03     325.378E-03    -163.332E-03     16.7929E-03    -162.638E-03     326.045E-03    -162.949E-03     12.1751E-03
              46     15.2934E-03     104.327E-03    -3.21014E+06     112.828E+06     108.454E+06    -345.221E+03    -161.935E-03     325.273E-03    -163.338E-03     16.8597E-03    -162.533E-03     325.945E-03    -162.954E-03     12.2274E-03
              47     15.2933E-03     105.644E-03    -2.77003E+06     113.350E+06     108.502E+06     201.553E+03    -161.835E-03     325.183E-03    -163.347E-03     17.1259E-03    -162.432E-03     325.857E-03    -162.965E-03     12.5102E-03
              48     15.2936E-03     106.954E-03    -2.72347E+06     113.344E+06     108.362E+06    -102.180E+03    -161.797E-03     325.145E-03    -163.349E-03     17.3322E-03    -162.394E-03     325.821E-03    -162.967E-03     12.7081E-03
              49     15.2931E-03     108.269E-03    -2.91595E+06     113.475E+06     108.705E+06     171.136E+03    -161.872E-03     325.216E-03    -163.344E-03     16.9575E-03    -162.468E-03     325.890E-03    -162.961E-03     12.3477E-03
              50     15.2940E-03     109.583E-03    -2.57499E+06     113.979E+06     109.119E+06     142.247E+03    -161.598E-03     324.942E-03    -163.345E-03     17.3318E-03    -162.196E-03     325.619E-03    -162.961E-03     12.7299E-03
              51     15.2931E-03     110.895E-03    -2.60481E+06     114.659E+06     109.552E+06     412.540E+03    -161.461E-03     324.807E-03    -163.346E-03     16.7820E-03    -162.059E-03     325.486E-03    -162.961E-03     12.1717E-03
              52     15.2942E-03     112.208E-03    -3.02428E+06     115.299E+06     110.170E+06    -101.719E+03    -161.185E-03     324.532E-03    -163.347E-03     16.9722E-03    -161.789E-03     325.214E-03    -162.959E-03     12.3596E-03
              53     15.2935E-03     113.520E-03    -2.60131E+06     115.310E+06     110.238E+06    -344.518E+03    -161.443E-03     324.782E-03    -163.339E-03     17.1681E-03    -162.045E-03     325.464E-03    -162.951E-03     12.5540E-03
              54     15.2939E-03     114.835E-03    -2.50754E+06     116.869E+06     111.085E+06     710.342E+03    -161.259E-03     324.607E-03    -163.348E-03     16.7573E-03    -161.861E-03     325.293E-03    -162.958E-03     12.1643E-03
              55     15.2937E-03     116.146E-03    -2.92831E+06     117.616E+06     111.429E+06     80.8813E+03    -160.683E-03     324.053E-03    -163.370E-03     16.2941E-03    -161.288E-03     324.743E-03    -162.980E-03     11.6934E-03
              56     15.2933E-03     117.458E-03    -2.85265E+06     119.587E+06     112.348E+06     1.01436E+06    -160.168E-03     323.555E-03    -163.387E-03     16.4302E-03    -160.778E-03     324.254E-03    -162.995E-03     11.8551E-03
              57     15.2941E-03     118.769E-03    -3.06041E+06     123.264E+06     113.779E+06     1.08362E+06    -160.081E-03     323.462E-03    -163.382E-03     17.0419E-03    -160.701E-03     324.179E-03    -162.987E-03     12.4834E-03
              58     15.2934E-03     120.081E-03    -3.03824E+06     126.346E+06     114.857E+06     527.922E+03    -159.945E-03     323.323E-03    -163.379E-03     16.2306E-03    -160.565E-03     324.048E-03    -162.983E-03     11.6835E-03
              59     15.2944E-03     121.391E-03    -2.68130E+06     127.800E+06     115.512E+06     237.679E+03    -158.961E-03     322.351E-03    -163.390E-03     16.0274E-03    -159.583E-03     323.082E-03    -162.994E-03     11.4928E-03
              60     15.2940E-03     122.700E-03    -3.70724E+06     127.455E+06     114.817E+06    -319.822E+03    -158.401E-03     321.795E-03    -163.393E-03     15.8619E-03    -159.027E-03     322.527E-03    -162.999E-03     11.3230E-03
              61     15.2944E-03     124.009E-03    -3.04851E+06     128.332E+06     115.796E+06     971.788E+03    -157.574E-03     320.952E-03    -163.378E-03     16.6491E-03    -158.198E-03     321.685E-03    -162.981E-03     12.1933E-03
              62     15.2963E-03     125.316E-03    -3.14061E+06     130.263E+06     117.894E+06    -15.7743E+03    -157.215E-03     320.553E-03    -163.338E-03     17.4130E-03    -157.846E-03     321.293E-03    -162.933E-03     12.9884E-03
              63     15.2956E-03     126.624E-03    -3.34626E+06     130.137E+06     118.728E+06     8.86606E+03    -157.385E-03     320.670E-03    -163.284E-03     17.3427E-03    -158.017E-03     321.407E-03    -162.875E-03     12.9219E-03
              64     15.2984E-03     127.931E-03    -3.18028E+06     130.232E+06     119.880E+06    -319.631E+03    -157.934E-03     321.142E-03    -163.208E-03     18.3357E-03    -158.568E-03     321.880E-03    -162.793E-03     13.9323E-03
              65     15.2975E-03     129.242E-03     -2.8751E+06     129.393E+06     120.823E+06    -457.783E+03    -159.037E-03     322.156E-03    -163.119E-03     18.9502E-03    -159.668E-03     322.887E-03    -162.699E-03     14.5554E-03
              66     15.3004E-03     130.552E-03    -2.26649E+06     128.157E+06     121.798E+06     237.613E+03    -159.731E-03     322.764E-03    -163.033E-03     19.9845E-03    -160.361E-03     323.488E-03    -162.607E-03     15.6039E-03
              67     15.3000E-03     131.863E-03    -3.37344E+06     125.831E+06     121.711E+06    -785.319E+03    -161.000E-03     323.937E-03    -162.936E-03     20.5935E-03    -161.634E-03     324.653E-03    -162.505E-03     16.1720E-03
              68     15.3020E-03     133.177E-03    -4.14475E+06     123.170E+06     119.302E+06    -69.8054E+03    -162.278E-03     325.101E-03    -162.823E-03     21.5247E-03    -162.910E-03     325.810E-03    -162.399E-03     17.0970E-03
              69     15.3027E-03     134.491E-03    -2.21957E+06     119.876E+06     115.173E+06    -1.88357E+06    -164.757E-03     327.431E-03    -162.674E-03     22.6031E-03    -165.373E-03     328.131E-03    -162.269E-03     18.1032E-03
              70     15.3033E-03     135.810E-03    -3.44364E+06     114.266E+06     110.367E+06    -1.30512E+06    -168.486E-03     331.015E-03    -162.530E-03     22.8441E-03    -169.093E-03     331.696E-03    -162.139E-03     18.2808E-03
              71     15.3036E-03     137.135E-03    -2.03756E+06     109.964E+06     109.939E+06    -1.20421E+06    -172.011E-03     334.427E-03    -162.416E-03     24.6003E-03    -172.607E-03     335.088E-03    -162.023E-03     19.9973E-03
              72     15.3040E-03     138.464E-03    -3.95259E+06     102.885E+06     107.144E+06    -2.45831E+06    -176.428E-03     338.711E-03    -162.284E-03     26.4054E-03    -177.023E-03     339.347E-03    -161.891E-03     21.7227E-03
              73     15.3040E-03     139.799E-03    -1.43809E+06     95.8827E+06     105.182E+06    -755.007E+03    -180.997E-03     343.146E-03    -162.149E-03     27.3330E-03    -181.568E-03     343.747E-03    -161.760E-03     22.5986E-03
              74     15.3046E-03     141.140E-03    -3.99542E+06     86.4464E+06     102.515E+06    -3.82509E+06    -185.474E-03     347.499E-03    -162.025E-03     28.8392E-03    -186.047E-03     348.067E-03    -161.632E-03     23.9391E-03
              75     15.3044E-03     142.485E-03    -1.37959E+06     73.7089E+06     100.829E+06    -3.31709E+06    -190.194E-03     352.079E-03    -161.886E-03     29.5329E-03    -190.735E-03     352.585E-03    -161.487E-03     24.5229E-03
              76     15.3060E-03     143.839E-03    -2.58156E+06     63.7647E+06     100.686E+06    -3.20402E+06    -195.642E-03     357.368E-03    -161.726E-03     31.3514E-03    -196.175E-03     357.827E-03    -161.311E-03     26.2983E-03
              77     15.3055E-03     145.200E-03    -2.87157E+06     51.1789E+06     100.566E+06    -3.87881E+06    -201.103E-03     362.656E-03    -161.553E-03     32.3280E-03    -201.614E-03     363.047E-03    -161.120E-03     27.2402E-03
              78     15.3082E-03     146.565E-03    -1.30443E+06     37.7526E+06     103.607E+06    -3.03916E+06    -205.042E-03     366.454E-03    -161.412E-03     33.7814E-03    -205.520E-03     366.761E-03    -160.946E-03     28.8136E-03
              79     15.3080E-03     147.941E-03    -447.059E+03     31.0268E+06     107.332E+06     638.880E+03    -207.677E-03     368.959E-03    -161.281E-03     35.7451E-03    -208.132E-03     369.211E-03    -160.789E-03     31.0681E-03
              80     15.3114E-03     149.310E-03    -2.89619E+06     31.5634E+06     107.955E+06    -498.760E+03    -208.345E-03     369.505E-03    -161.160E-03     36.1829E-03    -208.763E-03     369.712E-03    -160.662E-03     32.2075E-03
              81     15.3115E-03     150.689E-03     2.11972E+06     27.4631E+06     100.885E+06    -2.01327E+06    -203.523E-03     364.666E-03    -161.142E-03     35.3306E-03    -203.814E-03     364.770E-03    -160.681E-03     32.7753E-03
              82     15.3140E-03     152.049E-03     2.04334E+06     19.2462E+06     67.2216E+06    -2.28672E+06    -164.859E-03     326.866E-03    -162.007E-03     15.5416E-03    -165.000E-03     326.902E-03    -161.701E-03     14.5401E-03
              83     14.4750E-03     153.249E-03    -18.0179E+06    -7.91726E+06     48.5640E+06    -4.10269E+06    -125.831E-03     289.587E-03    -163.756E-03    -19.5457E-03    -125.941E-03     289.514E-03    -163.475E-03    -20.2064E-03
              84     13.6495E-03     153.110E-03    -8.28377E+06    -778.909E+03     83.5404E+06    -1.91809E+06    -118.085E-03     283.678E-03    -165.593E-03    -54.9442E-03    -118.169E-03     283.542E-03    -165.162E-03    -55.9039E-03
              85     12.8522E-03     152.938E-03    -515.595E+03     7.70190E+06     102.896E+06    -6.08274E+06    -112.154E-03     279.607E-03    -167.453E-03    -80.7150E-03    -112.223E-03     279.439E-03    -166.949E-03    -81.6545E-03
              86     12.0554E-03     152.763E-03     4.55095E+06    -6.27246E+06     106.273E+06    -7.80794E+06    -108.920E-03     278.330E-03    -169.410E-03    -95.6490E-03    -108.940E-03     278.063E-03    -168.876E-03    -96.5560E-03
              87     11.2676E-03     152.584E-03     8.77075E+06    -2.10156E+06     114.987E+06    -6.19060E+06    -110.731E-03     282.144E-03    -171.413E-03    -108.197E-03    -110.740E-03     281.861E-03    -170.848E-03    -109.096E-03
              88     10.4845E-03     152.406E-03     11.0779E+06    -2.72622E+06     118.408E+06    -5.44314E+06    -115.533E-03     288.777E-03    -173.243E-03    -118.778E-03    -115.524E-03     288.466E-03    -172.663E-03    -119.705E-03
              89     9.71045E-03     152.227E-03     12.8863E+06    -1.46526E+06     118.292E+06    -5.69559E+06    -121.151E-03     295.950E-03    -174.798E-03    -127.648E-03    -121.127E-03     295.622E-03    -174.223E-03    -128.639E-03
              90     8.94268E-03     152.054E-03     14.5701E+06    -2.18838E+06     116.739E+06    -6.03916E+06    -127.389E-03     303.463E-03    -176.074E-03    -133.431E-03    -127.348E-03     303.116E-03    -175.508E-03    -134.485E-03
              91     8.18168E-03     151.885E-03     16.9511E+06    -1.53537E+06     115.299E+06    -6.95879E+06    -133.785E-03     310.855E-03    -177.070E-03    -136.600E-03    -133.730E-03     310.498E-03    -176.516E-03    -137.710E-03
              92     7.42532E-03     151.725E-03     20.4598E+06    -3.13056E+06     112.888E+06    -7.41802E+06    -140.243E-03     318.041E-03    -177.799E-03    -137.037E-03    -140.169E-03     317.666E-03    -177.259E-03    -138.194E-03
              93     6.67416E-03     151.575E-03     23.8961E+06    -3.12728E+06     109.162E+06    -7.08605E+06    -146.698E-03     324.960E-03    -178.262E-03    -134.446E-03    -146.612E-03     324.584E-03    -177.746E-03    -135.615E-03
              94     5.92612E-03     151.434E-03     27.3048E+06    -2.40244E+06     103.738E+06    -7.26598E+06    -152.559E-03     331.044E-03    -178.486E-03    -129.352E-03    -152.462E-03     330.678E-03    -178.003E-03    -130.529E-03
              95     5.18079E-03     151.309E-03     31.1298E+06    -2.00754E+06     97.8395E+06    -7.83791E+06    -158.197E-03     336.699E-03    -178.501E-03    -121.573E-03    -158.094E-03     336.342E-03    -178.054E-03    -122.739E-03
              96     4.43847E-03     151.195E-03     34.8819E+06    -2.43196E+06     91.2678E+06    -7.81801E+06    -162.960E-03     341.306E-03    -178.346E-03    -110.637E-03    -162.854E-03     340.966E-03    -177.936E-03    -111.737E-03
              97     3.69664E-03     151.097E-03     38.8614E+06    -2.43274E+06     84.0072E+06    -8.04239E+06    -167.066E-03     345.148E-03    -178.082E-03    -97.1954E-03    -166.958E-03     344.827E-03    -177.715E-03    -98.2104E-03
              98     2.95705E-03     151.015E-03     43.2760E+06    -3.20027E+06     75.8638E+06    -8.32950E+06    -170.769E-03     348.491E-03    -177.722E-03    -81.0796E-03    -170.655E-03     348.188E-03    -177.401E-03    -81.9778E-03
              99     2.21753E-03     150.950E-03     48.2125E+06    -3.88704E+06     68.2969E+06    -7.83617E+06    -173.407E-03     350.705E-03    -177.298E-03    -62.6426E-03    -173.282E-03     350.419E-03    -177.021E-03    -63.3916E-03
             100     1.47873E-03     150.901E-03     52.8399E+06    -4.08477E+06     62.1397E+06    -6.41753E+06    -175.081E-03     351.984E-03    -176.903E-03    -43.0393E-03    -174.946E-03     351.713E-03    -176.663E-03    -43.5982E-03
             101     739.627E-06     150.872E-03     57.3903E+06    -6.40978E+06     56.6340E+06    -4.64371E+06    -175.072E-03     352.571E-03    -177.499E-03    -24.5902E-03    -174.913E-03     352.305E-03    -177.290E-03    -24.9359E-03
             102     3.13766E-06     149.509E-03     24.8976E+06    -19.5573E+06     25.2351E+06    -4.47410E+06    -160.417E-03     320.554E-03    -160.137E-03    -9.54591E-03    -160.341E-03     320.340E-03    -160.018E-03    -9.77874E-03
             103     428.855E-09     148.244E-03    -37.9683E+06    -46.4063E+06    -36.0331E+06    -6.74967E+06    -136.123E-03     269.928E-03    -133.806E-03     189.272E-06    -136.208E-03     269.789E-03    -133.864E-03    -27.0586E-06
             104    -239.056E-09     147.027E-03    -102.316E+06    -81.0164E+06    -101.913E+06    -8.18102E+06    -122.105E-03     243.951E-03    -121.846E-03     5.29941E-03    -122.354E-03     243.840E-03    -122.090E-03     5.11502E-03
             105     478.023E-09     145.826E-03    -167.951E+06    -115.892E+06    -167.935E+06    -6.88339E+06    -118.383E-03     236.163E-03    -117.780E-03     9.16492E-03    -118.812E-03     236.071E-03    -118.208E-03     9.03920E-03
             106     207.847E-09     144.625E-03    -225.345E+06    -146.877E+06    -225.028E+06    -6.42518E+06    -120.255E-03     239.729E-03    -119.475E-03     11.5907E-03    -120.843E-03     239.648E-03    -120.060E-03     11.4755E-03
             107     294.038E-09     143.416E-03    -235.085E+06    -173.882E+06    -232.875E+06    -5.38448E+06    -125.476E-03     250.092E-03    -124.616E-03     11.8085E-03    -126.064E-03     249.901E-03    -125.188E-03     11.6897E-03
             108     535.186E-09     142.193E-03    -192.728E+06    -190.520E+06    -195.851E+06    -1.81463E+06    -132.598E-03     264.319E-03    -131.721E-03     11.3056E-03    -133.005E-03     263.929E-03    -132.144E-03     11.2118E-03
             109    -53.4335E-09     140.948E-03    -161.282E+06    -197.431E+06    -160.931E+06    -822.081E+03    -139.791E-03     278.939E-03    -139.148E-03     10.2327E-03    -140.081E-03     278.419E-03    -139.432E-03     10.1269E-03
             110     548.166E-09     139.687E-03    -146.954E+06    -203.020E+06    -145.141E+06    -1.36428E+06    -146.710E-03     292.823E-03    -146.114E-03     10.3267E-03    -146.943E-03     292.232E-03    -146.332E-03     10.1754E-03
             111    -132.421E-09     138.408E-03    -138.697E+06    -210.975E+06    -141.123E+06    -1.87084E+06    -153.283E-03     306.697E-03    -153.414E-03     10.7593E-03    -153.471E-03     306.048E-03    -153.612E-03     10.5422E-03
             112    -541.224E-09     137.111E-03    -140.149E+06    -219.886E+06    -138.686E+06    -1.86706E+06    -159.265E-03     318.860E-03    -159.595E-03     9.67407E-03    -159.450E-03     318.167E-03    -159.767E-03     9.40506E-03
             113     685.688E-09     135.800E-03    -139.484E+06    -229.435E+06    -141.784E+06    -1.77276E+06    -164.619E-03     328.343E-03    -163.725E-03     9.17052E-03    -164.782E-03     327.607E-03    -163.899E-03     8.84229E-03
             114     479.047E-09     134.478E-03    -141.282E+06    -237.755E+06    -142.415E+06    -967.883E+03    -168.100E-03     335.071E-03    -166.971E-03     8.52876E-03    -168.259E-03     334.297E-03    -167.133E-03     8.15193E-03
             115     36.2957E-09     133.151E-03    -143.243E+06    -243.028E+06    -142.574E+06    -843.787E+03    -169.588E-03     338.983E-03    -169.396E-03     7.81559E-03    -169.749E-03     338.187E-03    -169.548E-03     7.40344E-03
             116    -275.046E-09     131.818E-03    -143.050E+06    -249.008E+06    -143.763E+06    -1.40620E+06    -170.419E-03     341.007E-03    -170.589E-03     7.78001E-03    -170.569E-03     340.183E-03    -170.739E-03     7.33174E-03
             117     226.378E-09     130.484E-03    -146.004E+06    -256.467E+06    -145.850E+06    -1.47497E+06    -170.640E-03     341.148E-03    -170.509E-03     7.51685E-03    -170.791E-03     340.294E-03    -170.654E-03     7.05350E-03
             118     2.39260E-09     129.154E-03    -147.373E+06    -262.302E+06    -147.505E+06    -613.426E+03    -169.973E-03     339.749E-03    -169.776E-03     7.11312E-03    -170.121E-03     338.871E-03    -169.920E-03     6.62452E-03
             119     50.6212E-09     127.823E-03    -148.771E+06    -268.341E+06    -148.092E+06    -1.46256E+06    -169.114E-03     337.971E-03    -168.858E-03     7.41146E-03    -169.259E-03     337.065E-03    -168.993E-03     6.92181E-03
             120     273.648E-09     126.495E-03    -151.310E+06    -277.475E+06    -152.558E+06    -1.81695E+06    -168.153E-03     336.087E-03    -167.934E-03     7.96714E-03    -168.291E-03     335.146E-03    -168.075E-03     7.47713E-03
             121    -299.353E-09     125.172E-03    -153.050E+06    -282.980E+06    -153.062E+06    -237.833E+03    -166.931E-03     333.917E-03    -166.986E-03     7.37153E-03    -167.069E-03     332.951E-03    -167.119E-03     6.89133E-03
             122     222.582E-09     123.851E-03    -153.153E+06    -286.892E+06    -152.437E+06    -1.43196E+06    -166.028E-03     332.210E-03    -166.182E-03     7.44361E-03    -166.161E-03     331.224E-03    -166.307E-03     6.97393E-03
             123    -393.529E-09     122.530E-03    -154.663E+06    -293.560E+06    -155.065E+06    -1.41856E+06    -165.624E-03     331.166E-03    -165.542E-03     7.73073E-03    -165.752E-03     330.153E-03    -165.667E-03     7.25295E-03
             124     665.820E-09     121.212E-03    -155.352E+06    -298.812E+06    -155.342E+06    -459.532E+03    -165.485E-03     330.230E-03    -164.746E-03     7.84430E-03    -165.608E-03     329.193E-03    -164.864E-03     7.37877E-03
             125     168.124E-09     119.894E-03    -154.825E+06    -302.331E+06    -154.828E+06    -648.480E+03    -165.246E-03     329.690E-03    -164.444E-03     8.43329E-03    -165.363E-03     328.634E-03    -164.555E-03     7.95981E-03
             126     196.399E-09     118.577E-03    -155.179E+06    -306.084E+06    -155.470E+06    -350.797E+03    -164.619E-03     328.941E-03    -164.322E-03     8.25592E-03    -164.731E-03     327.867E-03    -164.431E-03     7.80176E-03
             127    -135.973E-09     117.262E-03    -153.839E+06    -306.561E+06    -153.712E+06     126.373E+03    -163.986E-03     327.891E-03    -163.905E-03     8.10800E-03    -164.093E-03     326.810E-03    -164.006E-03     7.67224E-03
             128     176.764E-09     115.948E-03    -152.249E+06    -307.050E+06    -152.426E+06    -722.459E+03    -163.870E-03     327.612E-03    -163.741E-03     7.93048E-03    -163.971E-03     326.524E-03    -163.838E-03     7.45067E-03
             129    -44.5207E-09     114.634E-03    -154.638E+06    -311.323E+06    -153.645E+06    -676.943E+03    -163.834E-03     327.841E-03    -164.007E-03     8.03826E-03    -163.939E-03     326.738E-03    -164.100E-03     7.56895E-03
             130    -365.337E-09     113.318E-03    -151.069E+06    -310.383E+06    -152.240E+06     752.104E+03    -163.808E-03     327.719E-03    -163.911E-03     8.18427E-03    -163.898E-03     326.613E-03    -164.003E-03     7.73901E-03
             131     582.711E-09     112.004E-03    -150.170E+06    -310.648E+06    -150.252E+06    -366.484E+03    -163.813E-03     327.254E-03    -163.441E-03     8.40026E-03    -163.901E-03     326.143E-03    -163.524E-03     7.94744E-03
             132    -258.443E-09     110.691E-03    -150.632E+06    -312.086E+06    -150.299E+06     62.4696E+03    -163.772E-03     327.217E-03    -163.445E-03     8.43197E-03    -163.860E-03     326.099E-03    -163.526E-03     7.99832E-03
             133     409.975E-09     109.376E-03    -148.681E+06    -310.150E+06    -148.701E+06     560.104E+03    -164.050E-03     327.303E-03    -163.253E-03     7.98488E-03    -164.134E-03     326.190E-03    -163.331E-03     7.54490E-03
             134     633.692E-09     108.064E-03    -148.935E+06    -311.019E+06    -149.305E+06    -542.619E+03    -164.070E-03     327.061E-03    -162.991E-03     7.77396E-03    -164.153E-03     325.944E-03    -163.070E-03     7.32668E-03
             135    -52.4375E-09     106.750E-03    -150.272E+06    -311.312E+06    -150.404E+06     534.916E+03    -163.491E-03     326.885E-03    -163.394E-03     7.88808E-03    -163.578E-03     325.770E-03    -163.477E-03     7.44814E-03
             136    -404.300E-09     105.436E-03    -148.773E+06    -309.361E+06    -148.035E+06     345.722E+03    -163.280E-03     326.861E-03    -163.582E-03     8.05716E-03    -163.365E-03     325.750E-03    -163.657E-03     7.63343E-03
             137     382.842E-09     104.122E-03    -148.667E+06    -308.572E+06    -149.222E+06    -170.049E+03    -163.506E-03     326.863E-03    -163.356E-03     8.11410E-03    -163.591E-03     325.758E-03    -163.439E-03     7.66835E-03
             138    -161.478E-09     102.810E-03    -149.523E+06    -309.111E+06    -149.437E+06     238.768E+03    -163.533E-03     326.914E-03    -163.380E-03     8.11628E-03    -163.621E-03     325.808E-03    -163.463E-03     7.65950E-03
             139     151.009E-09     101.495E-03    -148.717E+06    -308.152E+06    -146.506E+06    -289.984E+03    -163.564E-03     327.101E-03    -163.537E-03     8.12655E-03    -163.653E-03     325.994E-03    -163.607E-03     7.68415E-03
             140    -102.085E-09     100.182E-03    -147.103E+06    -308.627E+06    -149.495E+06    -310.052E+03    -163.792E-03     327.150E-03    -163.358E-03     7.91291E-03    -163.869E-03     326.043E-03    -163.445E-03     7.46528E-03
             141     671.171E-09     98.8676E-03    -148.802E+06    -310.230E+06    -149.132E+06     429.686E+03    -163.754E-03     326.928E-03    -163.174E-03     8.34230E-03    -163.837E-03     325.814E-03    -163.254E-03     7.90696E-03
             142    -383.868E-09     97.5541E-03    -148.807E+06    -309.168E+06    -148.403E+06     125.863E+03    -163.677E-03     326.776E-03    -163.099E-03     8.50138E-03    -163.763E-03     325.667E-03    -163.177E-03     8.04578E-03
             143     957.895E-09     96.2415E-03    -147.386E+06    -308.546E+06    -147.841E+06     37.2558E+03    -163.766E-03     326.759E-03    -162.993E-03     8.07097E-03    -163.846E-03     325.650E-03    -163.072E-03     7.62488E-03
             144    -379.654E-09     94.9287E-03    -148.987E+06    -309.514E+06    -148.699E+06    -353.263E+03    -163.413E-03     326.697E-03    -163.284E-03     8.07156E-03    -163.499E-03     325.586E-03    -163.362E-03     7.62182E-03
             145    -21.9245E-09     93.6146E-03    -148.468E+06    -309.342E+06    -149.337E+06     475.327E+03    -163.224E-03     326.640E-03    -163.416E-03     7.82081E-03    -163.306E-03     325.530E-03    -163.499E-03     7.38954E-03
             146     98.5798E-09     92.3029E-03    -148.437E+06    -308.503E+06    -147.530E+06     24.8671E+03    -163.421E-03     326.818E-03    -163.398E-03     7.92431E-03    -163.507E-03     325.711E-03    -163.473E-03     7.48498E-03
             147    -153.807E-09     90.9881E-03    -148.083E+06    -308.766E+06    -148.203E+06    -288.744E+03    -163.545E-03     326.983E-03    -163.438E-03     7.92517E-03    -163.628E-03     325.874E-03    -163.516E-03     7.48116E-03
             148     349.363E-09     89.6749E-03    -149.005E+06    -309.685E+06    -149.057E+06    -62.5400E+03    -163.699E-03     327.014E-03    -163.315E-03     8.17958E-03    -163.784E-03     325.904E-03    -163.395E-03     7.73622E-03
             149     16.4406E-09     88.3610E-03    -148.298E+06    -308.841E+06    -149.514E+06     468.509E+03    -163.806E-03     326.851E-03    -163.045E-03     8.05303E-03    -163.889E-03     325.744E-03    -163.129E-03     7.61149E-03
             150     747.366E-09     87.0476E-03    -148.708E+06    -307.886E+06    -148.171E+06     275.040E+03    -163.514E-03     326.524E-03    -163.009E-03     8.23096E-03    -163.602E-03     325.420E-03    -163.088E-03     7.80067E-03
             151    -758.992E-09     85.7360E-03    -148.792E+06    -308.650E+06    -148.817E+06    -521.742E+03    -163.358E-03     326.829E-03    -163.471E-03     8.18816E-03    -163.444E-03     325.723E-03    -163.552E-03     7.74044E-03
             152     573.500E-09     84.4209E-03    -148.307E+06    -309.137E+06    -148.258E+06     178.026E+03    -163.648E-03     327.027E-03    -163.380E-03     7.94564E-03    -163.731E-03     325.917E-03    -163.458E-03     7.51557E-03
             153    -1.45979E-09     83.1075E-03    -149.086E+06    -309.171E+06    -149.351E+06    -27.2082E+03    -163.645E-03     326.750E-03    -163.105E-03     8.33788E-03    -163.731E-03     325.642E-03    -163.187E-03     7.88301E-03
             154     226.099E-09     81.7956E-03    -148.977E+06    -308.905E+06    -148.241E+06     32.0885E+03    -163.501E-03     326.784E-03    -163.283E-03     8.06940E-03    -163.589E-03     325.677E-03    -163.361E-03     7.61514E-03
             155    -133.624E-09     80.4808E-03    -146.185E+06    -307.742E+06    -147.040E+06    -41.5563E+03    -163.484E-03     326.784E-03    -163.299E-03     8.02275E-03    -163.561E-03     325.676E-03    -163.376E-03     7.57848E-03
             156     292.060E-09     79.1687E-03    -148.415E+06    -308.919E+06    -148.815E+06    -666.593E+03    -163.384E-03     326.806E-03    -163.422E-03     8.29229E-03    -163.468E-03     325.699E-03    -163.503E-03     7.83275E-03
             157    -537.533E-09     77.8543E-03    -150.410E+06    -310.588E+06    -150.067E+06     386.129E+03    -163.446E-03     326.907E-03    -163.460E-03     7.99860E-03    -163.536E-03     325.795E-03    -163.542E-03     7.57078E-03
             158     742.171E-09     76.5416E-03    -149.183E+06    -308.984E+06    -149.194E+06     403.763E+03    -163.781E-03     327.027E-03    -163.245E-03     7.93800E-03    -163.868E-03     325.920E-03    -163.327E-03     7.49232E-03
             159    -143.739E-09     73.9134E-03    -147.239E+06    -308.920E+06    -148.570E+06     457.019E+03    -163.464E-03     326.853E-03    -163.389E-03     8.18797E-03    -163.542E-03     325.743E-03    -163.470E-03     7.75314E-03
             160     515.159E-09     72.5996E-03    -149.443E+06    -309.825E+06    -148.214E+06    -509.623E+03    -163.512E-03     326.633E-03    -163.121E-03     8.53929E-03    -163.600E-03     325.522E-03    -163.196E-03     8.08913E-03
             161    -304.836E-09     71.2887E-03    -148.215E+06    -310.621E+06    -149.657E+06     298.285E+03    -163.651E-03     326.960E-03    -163.309E-03     8.06750E-03    -163.730E-03     325.844E-03    -163.392E-03     7.61619E-03
             162     579.437E-09     69.9730E-03    -148.649E+06    -309.389E+06    -148.437E+06     220.512E+03    -163.769E-03     327.169E-03    -163.400E-03     8.36012E-03    -163.853E-03     326.059E-03    -163.478E-03     7.93529E-03
             163    -315.133E-09     68.6589E-03    -148.718E+06    -309.874E+06    -149.084E+06    -221.207E+03    -163.572E-03     326.922E-03    -163.349E-03     8.48860E-03    -163.656E-03     325.810E-03    -163.430E-03     8.04218E-03
             164     360.983E-09     67.3478E-03    -150.154E+06    -309.796E+06    -149.073E+06     308.590E+03    -163.458E-03     326.840E-03    -163.381E-03     7.88289E-03    -163.549E-03     325.731E-03    -163.460E-03     7.41185E-03
             165    -300.178E-09     66.0330E-03    -148.235E+06    -308.814E+06    -148.992E+06    -84.2233E+03    -163.535E-03     326.969E-03    -163.434E-03     8.05163E-03    -163.618E-03     325.861E-03    -163.516E-03     7.60952E-03
             166     363.079E-09     64.7190E-03    -147.407E+06    -308.254E+06    -148.494E+06     182.441E+03    -163.429E-03     326.918E-03    -163.489E-03     8.34326E-03    -163.509E-03     325.812E-03    -163.571E-03     7.91511E-03
             167    -554.283E-09     63.4067E-03    -151.451E+06    -310.619E+06    -149.453E+06    -462.884E+03    -163.182E-03     326.668E-03    -163.486E-03     7.76698E-03    -163.277E-03     325.557E-03    -163.563E-03     7.31179E-03
             168     279.392E-09     62.0939E-03    -148.372E+06    -309.979E+06    -149.888E+06     503.567E+03    -163.606E-03     326.762E-03    -163.156E-03     7.71121E-03    -163.686E-03     325.650E-03    -163.241E-03     7.27747E-03
             169     646.366E-09     60.7791E-03    -148.005E+06    -308.428E+06    -148.081E+06     42.6301E+03    -163.993E-03     327.008E-03    -163.015E-03     8.46435E-03    -164.076E-03     325.901E-03    -163.094E-03     8.02031E-03
             170    -105.233E-09     59.4657E-03    -148.579E+06    -310.154E+06    -149.157E+06    -551.780E+03    -163.612E-03     326.856E-03    -163.244E-03     8.53630E-03    -163.694E-03     325.743E-03    -163.325E-03     8.06835E-03
             171     93.4637E-09     58.1530E-03    -149.251E+06    -310.334E+06    -148.895E+06     227.900E+03    -163.390E-03     326.736E-03    -163.346E-03     8.34311E-03    -163.475E-03     325.622E-03    -163.424E-03     7.91773E-03
             172    -37.4058E-09     56.8390E-03    -148.250E+06    -309.265E+06    -148.705E+06     155.124E+03    -163.266E-03     326.759E-03    -163.493E-03     8.19383E-03    -163.349E-03     325.649E-03    -163.573E-03     7.74693E-03
             173    -393.528E-09     55.5276E-03    -149.837E+06    -310.521E+06    -148.552E+06    -9.39916E+03    -163.144E-03     326.556E-03    -163.412E-03     7.41531E-03    -163.233E-03     325.442E-03    -163.487E-03     6.96123E-03
             174     409.458E-09     54.2135E-03    -149.094E+06    -311.475E+06    -150.096E+06    -58.2289E+03    -163.535E-03     326.504E-03    -162.969E-03     7.62304E-03    -163.616E-03     325.386E-03    -163.052E-03     7.18755E-03
             175     408.530E-09     52.9010E-03    -149.043E+06    -309.988E+06    -148.148E+06     476.301E+03    -163.935E-03     327.109E-03    -163.174E-03     8.50380E-03    -164.021E-03     325.995E-03    -163.249E-03     8.09025E-03
             176    -82.2767E-09     51.5852E-03    -147.694E+06    -308.601E+06    -148.847E+06    -91.9403E+03    -163.865E-03     327.239E-03    -163.374E-03     8.31664E-03    -163.946E-03     326.132E-03    -163.456E-03     7.86860E-03
             177     470.670E-09     50.2728E-03    -148.849E+06    -309.878E+06    -149.238E+06    -268.476E+03    -163.597E-03     326.762E-03    -163.165E-03     8.17082E-03    -163.681E-03     325.651E-03    -163.246E-03     7.70807E-03
             178    -226.499E-09     48.9601E-03    -149.121E+06    -310.639E+06    -148.905E+06     39.2210E+03    -163.556E-03     326.911E-03    -163.355E-03     8.20443E-03    -163.640E-03     325.796E-03    -163.433E-03     7.77299E-03
             179     265.741E-09     47.6452E-03    -148.817E+06    -310.882E+06    -149.142E+06    -252.040E+03    -163.661E-03     327.081E-03    -163.419E-03     8.15448E-03    -163.744E-03     325.964E-03    -163.498E-03     7.69961E-03
             180     37.8486E-09     46.3325E-03    -149.146E+06    -311.261E+06    -149.399E+06    -104.697E+03    -163.585E-03     326.879E-03    -163.294E-03     8.43090E-03    -163.668E-03     325.762E-03    -163.373E-03     7.96598E-03
             181     75.1827E-09     45.0182E-03    -149.418E+06    -310.098E+06    -149.651E+06     505.761E+03    -163.590E-03     326.952E-03    -163.362E-03     8.43486E-03    -163.676E-03     325.841E-03    -163.444E-03     7.98208E-03
             182     132.243E-09     43.7058E-03    -149.029E+06    -309.454E+06    -147.951E+06    -83.8423E+03    -163.673E-03     327.053E-03    -163.380E-03     7.87345E-03    -163.760E-03     325.942E-03    -163.455E-03     7.41958E-03
             183     96.3791E-09     42.3921E-03    -148.980E+06    -310.681E+06    -148.705E+06    -227.931E+03    -163.779E-03     327.190E-03    -163.411E-03     8.06034E-03    -163.863E-03     326.074E-03    -163.489E-03     7.62276E-03
             184     214.837E-09     41.0766E-03    -148.038E+06    -310.160E+06    -149.025E+06     364.415E+03    -164.006E-03     327.346E-03    -163.339E-03     8.42986E-03    -164.086E-03     326.232E-03    -163.420E-03     7.99582E-03
             185     456.516E-09     39.7636E-03    -147.595E+06    -310.006E+06    -147.994E+06    -279.962E+03    -163.780E-03     327.210E-03    -163.430E-03     8.29146E-03    -163.859E-03     326.095E-03    -163.506E-03     7.83258E-03
             186    -622.014E-09     38.4506E-03    -148.715E+06    -310.949E+06    -148.461E+06    -169.359E+03    -163.690E-03     327.442E-03    -163.752E-03     7.97064E-03    -163.772E-03     326.324E-03    -163.828E-03     7.52265E-03
             187     671.704E-09     37.1349E-03    -148.512E+06    -310.919E+06    -148.859E+06     252.817E+03    -164.193E-03     327.884E-03    -163.691E-03     8.01487E-03    -164.274E-03     326.766E-03    -163.769E-03     7.56556E-03
             188     19.5995E-09     35.8205E-03    -148.229E+06    -310.497E+06    -148.418E+06     311.401E+03    -164.227E-03     327.845E-03    -163.618E-03     8.07242E-03    -164.308E-03     326.729E-03    -163.695E-03     7.62922E-03
             189     192.702E-09     34.5062E-03    -147.512E+06    -310.004E+06    -147.787E+06      17.639E+03    -163.899E-03     327.881E-03    -163.982E-03     8.25231E-03    -163.978E-03     326.765E-03    -164.058E-03     7.81189E-03
             190    -560.084E-09     33.1905E-03    -147.252E+06    -309.282E+06    -146.844E+06     211.544E+03    -163.776E-03     327.639E-03    -163.863E-03     8.08610E-03    -163.856E-03     326.525E-03    -163.935E-03     7.64342E-03
             191     775.512E-09     31.8765E-03    -148.294E+06    -309.665E+06    -147.903E+06    -369.935E+03    -163.689E-03     326.943E-03    -163.254E-03     8.31610E-03    -163.772E-03     325.829E-03    -163.329E-03     7.88393E-03
             192    -347.505E-09     30.5640E-03    -148.262E+06    -310.259E+06    -149.128E+06    -115.245E+03    -163.546E-03     326.822E-03    -163.276E-03     8.28194E-03    -163.626E-03     325.708E-03    -163.357E-03     7.83635E-03
             193     297.230E-09     29.2509E-03    -147.153E+06    -308.083E+06    -146.661E+06     611.884E+03    -163.254E-03     326.580E-03    -163.326E-03     7.75651E-03    -163.336E-03     325.472E-03    -163.399E-03     7.30760E-03
             194    -373.268E-09     27.9373E-03    -148.062E+06    -308.792E+06    -147.720E+06    -628.676E+03    -162.550E-03     325.570E-03    -163.019E-03     8.13814E-03    -162.634E-03     324.460E-03    -163.096E-03     7.70398E-03
             195    -289.692E-09     26.6268E-03    -147.826E+06    -309.174E+06    -147.995E+06     786.546E+03    -162.342E-03     324.576E-03    -162.235E-03     7.78956E-03    -162.422E-03     323.465E-03    -162.312E-03     7.37780E-03
             196     1.09226E-06     25.3174E-03    -147.180E+06    -306.898E+06    -146.461E+06     601.775E+03    -162.318E-03     323.572E-03    -161.255E-03     7.58371E-03    -162.401E-03     322.469E-03    -161.329E-03     7.16959E-03
             197    -281.098E-09     24.0090E-03    -145.944E+06    -306.164E+06    -147.253E+06    -275.200E+03    -161.179E-03     322.035E-03    -160.856E-03     7.40949E-03    -161.255E-03     320.934E-03    -160.936E-03     6.99777E-03
             198    -68.0416E-09     22.7035E-03    -146.278E+06    -305.165E+06    -145.373E+06     490.016E+03    -159.921E-03     320.188E-03    -160.267E-03     6.98007E-03    -160.003E-03     319.089E-03    -160.339E-03     6.59469E-03
             199    -121.111E-09     21.3998E-03    -144.178E+06    -303.148E+06    -145.290E+06     30.5250E+03    -158.980E-03     317.955E-03    -158.975E-03     6.73741E-03    -159.055E-03     316.863E-03    -159.052E-03     6.33951E-03
             200     292.874E-09     20.0998E-03    -145.322E+06    -302.669E+06    -144.445E+06     321.464E+03    -157.158E-03     314.172E-03    -157.014E-03     5.91901E-03    -157.240E-03     313.083E-03    -157.087E-03     5.55837E-03
             201    -243.604E-09     18.8070E-03    -143.672E+06    -300.661E+06    -144.395E+06     677.219E+03    -154.502E-03     309.007E-03    -154.505E-03     5.24952E-03    -154.578E-03     307.924E-03    -154.582E-03     4.94027E-03
             202     176.114E-09     17.5202E-03    -141.821E+06    -297.666E+06    -142.135E+06     413.238E+03    -151.108E-03     302.622E-03    -151.514E-03     4.55171E-03    -151.182E-03     301.547E-03    -151.587E-03     4.27279E-03
             203    -741.916E-09     16.2428E-03    -141.235E+06    -295.844E+06    -140.956E+06     491.401E+03    -146.647E-03     294.024E-03    -147.377E-03     3.40217E-03    -146.722E-03     292.955E-03    -147.448E-03     3.16988E-03
             204     181.684E-09     14.9794E-03    -140.052E+06    -293.045E+06    -139.921E+06     796.643E+03    -141.944E-03     284.127E-03    -142.182E-03     2.41812E-03    -142.019E-03     283.068E-03    -142.254E-03     2.21033E-03
             205     18.7691E-09     13.7271E-03    -138.195E+06    -289.510E+06    -138.425E+06     703.476E+03    -136.812E-03     273.561E-03    -136.749E-03     1.55843E-03    -136.885E-03     272.514E-03    -136.821E-03     1.36049E-03
             206    -111.413E-09     12.4897E-03    -136.106E+06    -285.013E+06    -136.347E+06     863.993E+03    -131.304E-03     262.422E-03    -131.118E-03     528.036E-06    -131.376E-03     261.392E-03    -131.189E-03     337.389E-06
             207     509.923E-09     11.2659E-03    -135.456E+06    -281.836E+06    -134.993E+06     150.562E+03    -126.401E-03     252.479E-03    -126.078E-03     395.099E-06    -126.476E-03     251.463E-03    -126.148E-03     189.530E-06
             208    -382.850E-09     10.0524E-03    -134.722E+06    -280.167E+06    -134.258E+06     551.645E+03    -123.286E-03     246.757E-03    -123.471E-03     1.42838E-03    -123.360E-03     245.748E-03    -123.541E-03     1.22697E-03
             209    -32.6365E-09     8.84244E-03    -133.180E+06    -278.832E+06    -132.251E+06     339.521E+03    -124.114E-03     248.200E-03    -124.086E-03     2.87114E-03    -124.186E-03     247.193E-03    -124.150E-03     2.66797E-03
             210     503.107E-09     7.62519E-03    -130.114E+06    -279.648E+06    -129.816E+06    -439.530E+03    -128.115E-03     256.318E-03    -128.203E-03     4.41308E-03    -128.175E-03     255.298E-03    -128.258E-03     4.20027E-03
             211    -1.10216E-06     6.39427E-03    -125.884E+06    -279.935E+06    -126.154E+06     436.571E+03    -133.789E-03     268.530E-03    -134.741E-03     4.73657E-03    -133.833E-03     267.496E-03    -134.783E-03     4.53647E-03
             212     211.314E-09     5.14835E-03    -113.825E+06    -276.843E+06    -114.524E+06     958.871E+03    -141.175E-03     282.928E-03    -141.753E-03     4.10883E-03    -141.181E-03     281.875E-03    -141.759E-03     3.91146E-03
             213    -219.824E-09     3.88109E-03    -99.8507E+06    -271.676E+06    -100.078E+06     1.14708E+06    -148.456E-03     296.982E-03    -148.527E-03     3.80470E-03    -148.418E-03     295.914E-03    -148.488E-03     3.63323E-03
             214     126.341E-09     2.59727E-03    -91.0000E+06    -265.136E+06    -91.1502E+06     1.44377E+06    -154.300E-03     308.473E-03    -154.173E-03     3.14035E-03    -154.239E-03     307.411E-03    -154.112E-03     3.02259E-03
             215     164.267E-09     1.30180E-03    -85.3439E+06    -259.948E+06    -84.2217E+06     628.262E+03    -157.940E-03     315.611E-03    -157.671E-03     1.44996E-03    -157.868E-03     314.558E-03    -157.591E-03     1.37851E-03
             216     767.583E-06     1.80411E-15    -82.8868E+06    -258.271E+06    -81.9647E+06     183.759E+03    -159.014E-03     317.897E-03    -158.883E-03     1.21539E-03    -158.935E-03     316.845E-03    -158.798E-03     1.14688E-03
             217     1.53451E-03     1.80411E-15    -82.3483E+06    -257.072E+06    -79.6139E+06     663.275E+03    -158.972E-03     317.939E-03    -158.967E-03     2.56740E-03    -158.896E-03     316.889E-03    -158.873E-03     2.44967E-03
             218     2.30171E-03     1.80411E-15    -82.3547E+06    -249.761E+06    -77.1264E+06     1.36095E+06    -158.734E-03     317.680E-03    -158.946E-03     3.79150E-03    -158.673E-03     316.664E-03    -158.850E-03     3.62015E-03
             219     3.06953E-03     1.80411E-15    -82.2859E+06    -241.036E+06    -72.7504E+06     1.50456E+06    -158.417E-03     317.294E-03    -158.877E-03     4.52322E-03    -158.375E-03     316.316E-03    -158.772E-03     4.28765E-03
             220     3.83776E-03     1.80411E-15    -80.9966E+06    -234.086E+06    -65.7807E+06     1.14913E+06    -158.082E-03     316.873E-03    -158.791E-03     5.42701E-03    -158.056E-03     315.918E-03    -158.663E-03     5.12663E-03
             221     4.60519E-03     1.80411E-15    -79.1479E+06    -222.206E+06    -58.6870E+06     1.15365E+06    -157.825E-03     316.512E-03    -158.687E-03     7.04108E-03    -157.818E-03     315.605E-03    -158.543E-03     6.69647E-03
             222     5.37371E-03     1.80411E-15    -76.9531E+06    -202.447E+06    -53.0103E+06     424.841E+03    -157.703E-03     316.276E-03    -158.574E-03     8.38197E-03    -157.723E-03     315.458E-03    -158.434E-03     7.98034E-03
             223     6.14168E-03     1.80411E-15    -73.3394E+06    -176.219E+06    -48.9060E+06    -1.11986E+06    -157.624E-03     316.084E-03    -158.460E-03     9.86101E-03    -157.672E-03     315.388E-03    -158.343E-03     9.38708E-03
             224     6.90966E-03     1.80411E-15    -67.9904E+06    -146.921E+06    -44.3342E+06    -2.76574E+06    -157.706E-03     316.072E-03    -158.365E-03     11.3894E-03    -157.779E-03     315.509E-03    -158.275E-03     10.8365E-03
             225     7.67819E-03     1.80411E-15    -61.5209E+06    -114.872E+06    -40.6247E+06    -3.94417E+06    -158.111E-03     316.412E-03    -158.301E-03     12.7179E-03    -158.205E-03     315.997E-03    -158.248E-03     12.0898E-03
             226     8.44523E-03     1.80411E-15    -53.3032E+06    -78.7685E+06    -37.3581E+06    -7.07993E+06    -158.853E-03     317.137E-03    -158.284E-03     14.4669E-03    -158.966E-03     316.890E-03    -158.279E-03     13.7288E-03
             227     9.21220E-03     1.80411E-15    -42.2668E+06    -34.4689E+06    -32.3929E+06    -9.73314E+06    -160.011E-03     318.346E-03    -158.336E-03     16.3029E-03    -160.144E-03     318.301E-03    -158.386E-03     15.4395E-03
             228     9.97790E-03     1.80411E-15    -30.5680E+06     12.5020E+06    -26.5842E+06    -9.24286E+06    -161.800E-03     320.284E-03    -158.484E-03     18.2911E-03    -161.957E-03     320.454E-03    -158.591E-03     17.3251E-03
             229     10.7415E-03     1.80411E-15    -21.7629E+06     45.8455E+06    -5.66203E+06    -4.73037E+06    -164.335E-03     323.194E-03    -158.859E-03     21.0714E-03    -164.535E-03     323.496E-03    -158.923E-03     20.0184E-03
             230     11.5026E-03     1.80411E-15    -16.8394E+06     65.2307E+06     21.7025E+06    -760.329E+03    -168.026E-03     327.484E-03    -159.458E-03     25.5434E-03    -168.285E-03     327.851E-03    -159.419E-03     24.3097E-03
             231     12.2592E-03     1.80411E-15    -12.5868E+06     80.4637E+06     49.7970E+06    -292.511E+03    -174.472E-03     334.791E-03    -160.320E-03     31.1998E-03    -174.800E-03     335.217E-03    -160.169E-03     29.5837E-03
             232     13.0123E-03     1.80411E-15    -10.1847E+06     87.3977E+06     84.6428E+06     2.32248E+06    -184.270E-03     345.884E-03    -161.614E-03     39.3057E-03    -184.678E-03     346.320E-03    -161.303E-03     37.3931E-03
             233     13.7474E-03     1.80411E-15    -10.6825E+06     86.0852E+06     100.993E+06     5.09842E+06    -199.649E-03     363.040E-03    -163.391E-03     64.0612E-03    -200.270E-03     363.633E-03    -162.996E-03     60.8824E-03
             234     14.4641E-03     1.80411E-15    -3.81599E+06     91.1073E+06     106.094E+06     1.69910E+06    -224.412E-03     390.349E-03    -165.937E-03     100.209E-03    -225.438E-03     391.377E-03    -165.533E-03     94.3726E-03
             235     15.2447E-03     1.45497E-03    -3.46537E+06     95.7254E+06     104.949E+06      51.538E+03    -225.592E-03     391.388E-03    -165.796E-03     93.8759E-03    -226.760E-03     392.576E-03    -165.405E-03     86.7309E-03
             236     15.2817E-03     2.83023E-03    -5.96681E+06     97.0540E+06     102.032E+06     1.35474E+06    -206.419E-03     369.909E-03    -163.491E-03     57.6142E-03    -207.394E-03     370.908E-03    -163.113E-03     50.6435E-03
             237     15.2904E-03     4.18819E-03    -2.34545E+06     99.3411E+06     104.537E+06    -279.964E+03    -202.634E-03     365.283E-03    -162.648E-03     35.6871E-03    -203.449E-03     366.139E-03    -162.266E-03     28.6674E-03
             238     15.2916E-03     5.56318E-03    -2.37657E+06     98.3463E+06     104.191E+06    -994.898E+03    -202.073E-03     364.534E-03    -162.461E-03     28.3942E-03    -202.819E-03     365.319E-03    -162.079E-03     21.5132E-03
             239     15.2924E-03     6.92546E-03    -1.85884E+06     96.5264E+06     103.718E+06     79.1668E+03    -197.364E-03     359.883E-03    -162.519E-03     28.3872E-03    -198.075E-03     360.629E-03    -162.138E-03     21.9185E-03
             240     15.2931E-03     8.28028E-03    -2.63832E+06     93.9288E+06     102.443E+06    -924.115E+03    -192.761E-03     355.376E-03    -162.614E-03     25.7250E-03    -193.443E-03     356.084E-03    -162.234E-03     19.4808E-03
             241     15.2920E-03     9.63013E-03    -2.58941E+06     91.4264E+06     101.549E+06    -806.185E+03    -188.537E-03     351.258E-03    -162.721E-03     24.5793E-03    -189.193E-03     351.935E-03    -162.342E-03     18.5718E-03
             242     15.2934E-03     10.9753E-03    -961.689E+03     90.6528E+06     101.887E+06     195.981E+03    -183.940E-03     346.764E-03    -162.824E-03     22.7800E-03    -184.553E-03     347.400E-03    -162.444E-03     17.1503E-03
             243     15.2924E-03     12.3115E-03    -2.52676E+06     88.9816E+06     100.073E+06    -442.960E+03    -179.884E-03     342.817E-03    -162.933E-03     20.6552E-03    -180.476E-03     343.425E-03    -162.558E-03     15.2652E-03
             244     15.2923E-03     13.6467E-03    -2.84168E+06     88.5896E+06     99.1648E+06     636.370E+03    -175.630E-03     338.671E-03    -163.042E-03     19.7104E-03    -176.209E-03     339.268E-03    -162.670E-03     14.5218E-03
             245     15.2932E-03     14.9729E-03    -2.24572E+06     89.5757E+06     99.4315E+06     4.79044E+03    -171.305E-03     334.453E-03    -163.148E-03     18.3146E-03    -171.870E-03     335.040E-03    -162.778E-03     13.3053E-03
             246     15.2916E-03     16.2955E-03    -2.99307E+06     88.5990E+06     98.5750E+06     48.2699E+03    -168.600E-03     331.825E-03    -163.225E-03     18.2383E-03    -169.162E-03     332.406E-03    -162.856E-03     13.3345E-03
             247     15.2934E-03     17.6164E-03    -2.07938E+06     89.1200E+06     99.9200E+06     258.616E+03    -166.782E-03     330.038E-03    -163.257E-03     18.3044E-03    -167.340E-03     330.616E-03    -162.883E-03     13.4794E-03
             248     15.2926E-03     18.9341E-03    -2.56388E+06     88.9332E+06     100.360E+06    -618.783E+03    -165.785E-03     329.068E-03    -163.283E-03     17.5330E-03    -166.342E-03     329.641E-03    -162.907E-03     12.7298E-03
             249     15.2925E-03     20.2538E-03    -2.65601E+06     89.0294E+06     100.697E+06     798.429E+03    -164.662E-03     327.971E-03    -163.309E-03     18.0374E-03    -165.221E-03     328.545E-03    -162.931E-03     13.3016E-03
             250     15.2938E-03     21.5677E-03    -3.16406E+06     90.0368E+06     100.991E+06    -53.4544E+03    -163.748E-03     327.068E-03    -163.321E-03     17.8515E-03    -164.309E-03     327.646E-03    -162.942E-03     13.1394E-03
             251     15.2920E-03     22.8857E-03    -3.01283E+06     90.3247E+06     101.019E+06     153.825E+03    -162.707E-03     326.055E-03    -163.348E-03     17.3618E-03    -163.263E-03     326.628E-03    -162.969E-03     12.7046E-03
             252     15.2942E-03     24.1966E-03    -1.61536E+06     91.4727E+06     102.323E+06     564.871E+03    -161.714E-03     325.074E-03    -163.361E-03     17.3697E-03    -162.264E-03     325.647E-03    -162.979E-03     12.7705E-03
             253     15.2926E-03     25.5094E-03    -3.44250E+06     91.8628E+06     101.489E+06    -532.527E+03    -161.859E-03     325.219E-03    -163.360E-03     15.7590E-03    -162.410E-03     325.790E-03    -162.981E-03     11.1412E-03
             254     15.2933E-03     26.8241E-03    -2.90652E+06     92.6492E+06     102.294E+06     110.973E+03    -161.287E-03     324.657E-03    -163.370E-03     16.2144E-03    -161.839E-03     325.232E-03    -162.989E-03     11.6221E-03
             255     15.2938E-03     28.1336E-03    -2.07791E+06     94.3151E+06     103.779E+06     127.827E+03    -161.438E-03     324.799E-03    -163.361E-03     15.8363E-03    -161.990E-03     325.377E-03    -162.976E-03     11.2416E-03
             256     15.2926E-03     29.4498E-03    -2.85981E+06     95.5830E+06     103.258E+06     419.438E+03    -161.494E-03     324.856E-03    -163.362E-03     15.8870E-03    -162.048E-03     325.440E-03    -162.980E-03     11.3220E-03
             257     15.2943E-03     30.7616E-03    -2.10701E+06     96.4681E+06     103.794E+06     67.6047E+03    -161.131E-03     324.496E-03    -163.365E-03     17.1146E-03    -161.688E-03     325.087E-03    -162.983E-03     12.5599E-03
             258     15.2925E-03     32.0741E-03    -2.71991E+06     97.3714E+06     104.160E+06     371.079E+03    -161.673E-03     325.032E-03    -163.359E-03     15.8741E-03    -162.232E-03     325.625E-03    -162.976E-03     11.2830E-03
             259     15.2940E-03     33.3863E-03    -3.35610E+06     98.1521E+06     103.851E+06    -26.2711E+03    -162.259E-03     325.604E-03    -163.345E-03     16.1453E-03    -162.823E-03     326.204E-03    -162.964E-03     11.5343E-03
             260     15.2926E-03     34.7033E-03    -2.79491E+06     99.7636E+06     104.496E+06     780.886E+03    -162.201E-03     325.546E-03    -163.345E-03     16.3530E-03    -162.764E-03     326.150E-03    -162.963E-03     11.7798E-03
             261     15.2940E-03     36.0156E-03    -3.06914E+06     100.833E+06     104.741E+06       40.68E+03    -161.668E-03     325.030E-03    -163.363E-03     16.5069E-03    -162.237E-03     325.643E-03    -162.981E-03     11.9146E-03
             262     15.2923E-03     37.3279E-03    -3.07732E+06     101.021E+06     105.204E+06    -299.974E+03    -161.665E-03     325.029E-03    -163.364E-03     16.8194E-03    -162.237E-03     325.644E-03    -162.980E-03     12.2268E-03
             263     15.2943E-03     38.6435E-03    -1.32227E+06     101.325E+06     106.516E+06     498.056E+03    -161.474E-03     324.824E-03    -163.350E-03     17.4473E-03    -162.041E-03     325.437E-03    -162.962E-03     12.8802E-03
             264     15.2934E-03     39.9535E-03    -3.34931E+06     99.6886E+06     104.575E+06    -572.412E+03    -162.425E-03     325.754E-03    -163.328E-03     17.1822E-03    -162.999E-03     326.366E-03    -162.945E-03     12.5479E-03
             265     15.2928E-03     41.2719E-03    -3.23673E+06     99.9231E+06     104.646E+06     692.035E+03    -162.882E-03     326.213E-03    -163.331E-03     16.7817E-03    -163.452E-03     326.823E-03    -162.948E-03     12.1661E-03
             266     15.2940E-03     42.5833E-03    -1.81153E+06     101.290E+06     106.169E+06     421.413E+03    -162.063E-03     325.400E-03    -163.337E-03     16.8743E-03    -162.633E-03     326.015E-03    -162.950E-03     12.2525E-03
             267     15.2933E-03     43.8978E-03    -3.25322E+06     101.591E+06     105.538E+06    -593.934E+03    -162.108E-03     325.445E-03    -163.336E-03     16.4471E-03    -162.684E-03     326.064E-03    -162.951E-03     11.7985E-03
             268     15.2934E-03     45.2124E-03    -2.38640E+06     102.377E+06     106.385E+06     383.945E+03    -161.950E-03     325.287E-03    -163.337E-03     17.4828E-03    -162.525E-03     325.909E-03    -162.950E-03     12.8801E-03
             269     15.2942E-03     46.5248E-03    -1.95473E+06     103.020E+06     106.874E+06     90.0721E+03    -161.893E-03     325.222E-03    -163.329E-03     17.0420E-03    -162.467E-03     325.845E-03    -162.941E-03     12.4254E-03
             270     15.2931E-03     47.8391E-03    -3.55094E+06     101.919E+06     105.213E+06    -522.699E+03    -162.238E-03     325.574E-03    -163.335E-03     16.4576E-03    -162.816E-03     326.195E-03    -162.952E-03     11.8059E-03
             271     15.2934E-03     49.1524E-03    -2.96434E+06     102.227E+06     105.819E+06     626.565E+03    -162.138E-03     325.476E-03    -163.338E-03     17.1229E-03    -162.714E-03     326.097E-03    -162.953E-03     12.5150E-03
             272     15.2940E-03     50.4669E-03    -2.39756E+06     102.872E+06     106.545E+06    -283.186E+03    -162.120E-03     325.449E-03    -163.330E-03     17.0207E-03    -162.695E-03     326.072E-03    -162.943E-03     12.3969E-03
             273     15.2931E-03     51.7805E-03    -2.76556E+06     103.089E+06     106.459E+06    -142.666E+03    -162.304E-03     325.633E-03    -163.329E-03     17.1678E-03    -162.884E-03     326.260E-03    -162.942E-03     12.5239E-03
             274     15.2941E-03     53.0947E-03    -3.09652E+06     102.912E+06     106.005E+06    -14.5722E+03    -162.509E-03     325.832E-03    -163.323E-03     17.2126E-03    -163.088E-03     326.458E-03    -162.938E-03     12.5830E-03
             275     15.2929E-03     54.4092E-03    -3.13229E+06     103.047E+06     105.913E+06     138.839E+03    -162.241E-03     325.569E-03    -163.328E-03     16.8450E-03    -162.819E-03     326.195E-03    -162.943E-03     12.2229E-03
             276     15.2943E-03     55.7226E-03    -1.81904E+06     104.236E+06     107.209E+06     289.549E+03    -161.797E-03     325.132E-03    -163.335E-03     17.2321E-03    -162.375E-03     325.762E-03    -162.947E-03     12.6106E-03
             277     15.2932E-03     57.0355E-03    -3.63074E+06     102.896E+06     105.612E+06    -676.140E+03    -162.261E-03     325.596E-03    -163.335E-03     16.8013E-03    -162.843E-03     326.224E-03    -162.951E-03     12.1464E-03
             278     15.2931E-03     58.3511E-03    -2.94878E+06     102.085E+06     105.231E+06     214.649E+03    -161.782E-03     325.131E-03    -163.349E-03     17.1588E-03    -162.359E-03     325.755E-03    -162.967E-03     12.5372E-03
             279     15.2942E-03     59.6625E-03    -1.23190E+06     103.640E+06     107.100E+06     363.356E+03    -161.412E-03     324.755E-03    -163.343E-03     17.7048E-03    -161.988E-03     325.384E-03    -162.956E-03     13.0907E-03
             280     15.2933E-03     60.9759E-03    -3.01348E+06     103.873E+06     106.567E+06    -286.476E+03    -162.284E-03     325.616E-03    -163.332E-03     17.0262E-03    -162.866E-03     326.247E-03    -162.946E-03     12.3856E-03
             281     15.2933E-03     62.2918E-03    -2.80876E+06     103.967E+06     106.705E+06     281.373E+03    -162.181E-03     325.516E-03    -163.334E-03     17.5883E-03    -162.765E-03     326.148E-03    -162.947E-03     12.9594E-03
             282     15.2943E-03     63.6027E-03    -2.58266E+06     104.670E+06     107.015E+06    -370.445E+03    -162.200E-03     325.532E-03    -163.332E-03     16.7535E-03    -162.782E-03     326.166E-03    -162.945E-03     12.1008E-03
             283     15.2924E-03     64.9191E-03    -3.23244E+06     104.022E+06     105.918E+06     194.844E+03    -162.050E-03     325.390E-03    -163.340E-03     16.9757E-03    -162.630E-03     326.021E-03    -162.957E-03     12.3603E-03
             284     15.2947E-03     66.2319E-03    -2.03209E+06     104.954E+06     107.055E+06     781.986E+03    -161.709E-03     325.043E-03    -163.334E-03     18.2603E-03    -162.290E-03     325.679E-03    -162.948E-03     13.6817E-03
             285     15.2930E-03     67.5448E-03    -1.98503E+06     105.631E+06     107.236E+06     27.1902E+03    -161.975E-03     325.301E-03    -163.326E-03     16.9109E-03    -162.552E-03     325.935E-03    -162.940E-03     12.3053E-03
             286     15.2942E-03     68.8587E-03    -3.63392E+06     104.194E+06     105.596E+06    -446.406E+03    -162.129E-03     325.463E-03    -163.334E-03     16.5877E-03    -162.711E-03     326.095E-03    -162.952E-03     11.9441E-03
             287     15.2926E-03     70.1713E-03    -3.51281E+06     104.493E+06     105.914E+06     7.35994E+03    -162.307E-03     325.640E-03    -163.332E-03     16.6212E-03    -162.890E-03     326.273E-03    -162.949E-03     11.9779E-03
             288     15.2945E-03     71.4873E-03    -2.69917E+06     105.328E+06     106.742E+06    -175.735E+03    -161.998E-03     325.334E-03    -163.336E-03     16.8635E-03    -162.578E-03     325.969E-03    -162.951E-03     12.2507E-03
             289     15.2926E-03     72.8001E-03    -2.47854E+06     105.314E+06     106.850E+06     390.296E+03    -161.720E-03     325.067E-03    -163.347E-03     17.2076E-03    -162.300E-03     325.703E-03    -162.962E-03     12.6127E-03
             290     15.2942E-03     74.1130E-03    -2.39413E+06     105.632E+06     106.943E+06     273.755E+03    -161.604E-03     324.950E-03    -163.346E-03     16.8750E-03    -162.184E-03     325.587E-03    -162.961E-03     12.2620E-03
             291     15.2932E-03     75.4255E-03    -2.53110E+06     106.101E+06     106.739E+06    -598.059E+03    -161.793E-03     325.126E-03    -163.333E-03     17.0346E-03    -162.376E-03     325.768E-03    -162.950E-03     12.3937E-03
             292     764.336E-06     76.5511E-03    -147.406E+06    -303.003E+06    -143.215E+06     378.044E+03    -163.693E-03     327.093E-03    -163.400E-03     13.2417E-03    -163.800E-03     326.017E-03    -163.463E-03     12.5090E-03
             293     1.52817E-03     76.5736E-03    -141.625E+06    -286.471E+06    -127.242E+06     209.198E+03    -163.538E-03     327.101E-03    -163.563E-03     24.5340E-03    -163.700E-03     326.112E-03    -163.579E-03     23.1882E-03
             294     2.29263E-03     76.6113E-03    -133.261E+06    -263.983E+06    -106.089E+06     58.9621E+03    -163.476E-03     327.043E-03    -163.567E-03     35.8688E-03    -163.718E-03     326.182E-03    -163.521E-03     33.8781E-03
             295     3.05717E-03     76.6619E-03    -124.033E+06    -238.854E+06    -83.6825E+06     137.318E+03    -163.578E-03     327.142E-03    -163.564E-03     46.4458E-03    -163.922E-03     326.441E-03    -163.456E-03     43.8197E-03
             296     3.82140E-03     76.7253E-03    -113.867E+06    -213.514E+06    -61.6589E+06     190.876E+03    -163.714E-03     327.284E-03    -163.570E-03     56.3903E-03    -164.172E-03     326.759E-03    -163.403E-03     53.1424E-03
             297     4.58622E-03     76.7997E-03    -103.343E+06    -189.203E+06    -41.7797E+06     44.9506E+03    -163.854E-03     327.426E-03    -163.572E-03     65.2282E-03    -164.432E-03     327.087E-03    -163.356E-03     61.3864E-03
             298     5.35084E-03     76.8846E-03    -93.2242E+06    -165.329E+06    -24.7066E+06    -79.0685E+03    -164.037E-03     327.604E-03    -163.567E-03     72.8102E-03    -164.737E-03     327.458E-03    -163.316E-03     68.4194E-03
             299     6.11534E-03     76.9773E-03    -83.8644E+06    -142.801E+06    -9.88008E+06    -78.4712E+03    -164.170E-03     327.730E-03    -163.561E-03     79.1148E-03    -164.989E-03     327.773E-03    -163.281E-03     74.2353E-03
             300     6.88002E-03     77.0773E-03    -74.9977E+06    -120.531E+06     3.31798E+06    -58.4363E+03    -164.278E-03     327.829E-03    -163.551E-03     84.0870E-03    -165.207E-03     328.054E-03    -163.251E-03     78.7844E-03
             301     7.64457E-03     77.1822E-03    -66.5305E+06    -98.6423E+06     15.2834E+06    -38.1723E+03    -164.333E-03     327.872E-03    -163.539E-03     87.7165E-03    -165.357E-03     328.265E-03    -163.223E-03     82.0615E-03
             302     8.40923E-03     77.2908E-03    -58.5344E+06    -75.9264E+06     26.0454E+06     1.58211E+03    -164.294E-03     327.814E-03    -163.520E-03     89.9073E-03    -165.396E-03     328.363E-03    -163.195E-03     83.9656E-03
             303     9.17416E-03     77.4005E-03    -50.9840E+06    -50.9815E+06     36.2612E+06     47.7449E+03    -164.193E-03     327.688E-03    -163.495E-03     90.7153E-03    -165.360E-03     328.388E-03    -163.166E-03     84.5360E-03
             304     9.93895E-03     77.5103E-03    -44.0834E+06    -20.1956E+06     46.6523E+06    -7.52601E+03    -164.035E-03     327.498E-03    -163.463E-03     90.1933E-03    -165.262E-03     328.362E-03    -163.137E-03     83.8106E-03
             305     10.7035E-03     77.6184E-03    -37.1855E+06     14.0586E+06     57.7262E+06     320.850E+03    -163.825E-03     327.255E-03    -163.430E-03     88.2507E-03    -165.102E-03     328.282E-03    -163.108E-03     81.7018E-03
             306     11.4684E-03     77.7227E-03    -30.1657E+06     51.9397E+06     66.5254E+06     504.106E+03    -163.520E-03     326.901E-03    -163.382E-03     84.4432E-03    -164.827E-03     328.093E-03    -163.081E-03     77.7466E-03
             307     12.2338E-03     77.8200E-03    -23.9744E+06     82.8762E+06     76.4136E+06    -553.303E+03    -162.990E-03     326.336E-03    -163.346E-03     78.1138E-03    -164.301E-03     327.634E-03    -163.049E-03     71.2777E-03
             308     12.9983E-03     77.9071E-03    -17.9306E+06     95.5483E+06     85.4856E+06    -762.188E+03    -162.386E-03     325.710E-03    -163.325E-03     67.6918E-03    -163.609E-03     326.961E-03    -163.010E-03     60.8996E-03
             309     13.7641E-03     77.9770E-03    -11.6550E+06     102.748E+06     97.8149E+06     22.9657E+03    -162.273E-03     325.606E-03    -163.333E-03     57.3341E-03    -163.441E-03     326.814E-03    -162.976E-03     50.4058E-03
             310     14.5295E-03     78.0375E-03    -5.90692E+06     106.198E+06     107.059E+06     237.311E+03    -162.327E-03     325.676E-03    -163.349E-03     35.4299E-03    -163.215E-03     326.610E-03    -162.959E-03     29.5276E-03
             311     764.133E-06     77.8648E-03    -147.588E+06    -303.527E+06    -143.272E+06     148.047E+03    -163.510E-03     326.993E-03    -163.483E-03     13.3887E-03    -163.618E-03     325.915E-03    -163.545E-03     12.6547E-03
             312     1.52847E-03     77.8876E-03    -141.302E+06    -286.235E+06    -127.277E+06    -102.461E+03    -163.556E-03     327.081E-03    -163.525E-03     24.6208E-03    -163.717E-03     326.093E-03    -163.541E-03     23.2625E-03
             313     2.29264E-03     77.9246E-03    -133.437E+06    -263.946E+06    -106.578E+06     58.2180E+03    -163.521E-03     327.071E-03    -163.550E-03     36.0031E-03    -163.764E-03     326.212E-03    -163.507E-03     34.0117E-03
             314     3.05704E-03     77.9753E-03    -124.168E+06    -238.927E+06    -83.7172E+06     197.048E+03    -163.573E-03     327.131E-03    -163.558E-03     46.6608E-03    -163.918E-03     326.430E-03    -163.450E-03     44.0360E-03
             315     3.82183E-03     78.0386E-03    -113.767E+06    -213.380E+06    -61.5166E+06     137.767E+03    -163.730E-03     327.296E-03    -163.566E-03     56.3973E-03    -164.188E-03     326.771E-03    -163.399E-03     53.1486E-03
             316     4.58614E-03     78.1132E-03    -103.163E+06    -188.709E+06    -41.7063E+06    -5.82396E+03    -163.877E-03     327.448E-03    -163.571E-03     65.1648E-03    -164.455E-03     327.110E-03    -163.356E-03     61.3228E-03
             317     5.35066E-03     78.1980E-03    -93.2336E+06    -165.281E+06    -24.7415E+06    -40.1401E+03    -164.021E-03     327.589E-03    -163.568E-03     72.7772E-03    -164.721E-03     327.443E-03    -163.316E-03     68.3875E-03
             318     6.11535E-03     78.2909E-03    -83.7931E+06    -142.753E+06    -9.73235E+06     122.840E+03    -164.188E-03     327.750E-03    -163.562E-03     79.1228E-03    -165.007E-03     327.793E-03    -163.282E-03     74.2436E-03
             319     6.87986E-03     78.3908E-03    -74.9001E+06    -120.193E+06     3.53672E+06     82.6653E+03    -164.294E-03     327.847E-03    -163.554E-03     84.1702E-03    -165.223E-03     328.074E-03    -163.253E-03     78.8665E-03
             320     7.64457E-03     78.4959E-03    -66.5033E+06    -98.3751E+06     15.3443E+06    -97.0147E+03    -164.307E-03     327.847E-03    -163.540E-03     87.8028E-03    -165.331E-03     328.242E-03    -163.224E-03     82.1465E-03
             321     8.40936E-03     78.6042E-03    -58.5088E+06    -75.9146E+06     26.0183E+06    -180.419E+03    -164.272E-03     327.791E-03    -163.519E-03     89.9613E-03    -165.374E-03     328.340E-03    -163.194E-03     84.0182E-03
             322     9.17402E-03     78.7141E-03    -50.9280E+06    -51.1942E+06     36.1420E+06     25.2915E+03    -164.194E-03     327.686E-03    -163.493E-03     90.7280E-03    -165.360E-03     328.385E-03    -163.164E-03     84.5480E-03
             323     9.93872E-03     78.8239E-03    -43.7572E+06    -20.0540E+06     46.8250E+06     241.438E+03    -164.039E-03     327.500E-03    -163.461E-03     90.2900E-03    -165.265E-03     328.364E-03    -163.134E-03     83.9122E-03
             324     10.7038E-03     78.9320E-03    -36.7431E+06     14.0528E+06     58.0116E+06    -23.2166E+03    -163.783E-03     327.210E-03    -163.427E-03     88.3400E-03    -165.058E-03     328.236E-03    -163.104E-03     81.7900E-03
             325     11.4688E-03     79.0362E-03    -29.8232E+06     52.0028E+06     66.3151E+06    -318.745E+03    -163.381E-03     326.751E-03    -163.370E-03     84.4188E-03    -164.686E-03     327.942E-03    -163.071E-03     77.7213E-03
             326     12.2333E-03     79.1337E-03    -23.1582E+06     83.8886E+06     76.8206E+06     411.966E+03    -162.927E-03     326.257E-03    -163.330E-03     77.8772E-03    -164.232E-03     327.554E-03    -163.034E-03     71.0704E-03
             327     12.9993E-03     79.2200E-03    -17.6874E+06     95.9308E+06     86.1945E+06     258.049E+03    -162.583E-03     325.899E-03    -163.317E-03     67.3285E-03    -163.802E-03     327.147E-03    -162.999E-03     60.5537E-03
             328     13.7637E-03     79.2908E-03    -12.4276E+06     102.098E+06     97.3556E+06    -376.901E+03    -162.378E-03     325.710E-03    -163.331E-03     57.6909E-03    -163.550E-03     326.917E-03    -162.975E-03     50.7608E-03
             329     14.5273E-03     79.3526E-03    -5.82841E+06     106.190E+06     106.844E+06    -74.9617E+03    -162.148E-03     325.492E-03    -163.345E-03     35.8110E-03    -163.038E-03     326.429E-03    -162.956E-03     29.9092E-03
             330     764.311E-06     79.1779E-03    -146.355E+06    -302.739E+06    -143.210E+06    -550.189E+03    -163.419E-03     326.840E-03    -163.422E-03     13.6155E-03    -163.521E-03     325.764E-03    -163.486E-03     12.8722E-03
             331     1.52853E-03     79.2013E-03    -141.258E+06    -286.450E+06    -128.061E+06    -114.872E+03    -163.490E-03     326.935E-03    -163.445E-03     24.5988E-03    -163.649E-03     325.947E-03    -163.465E-03     23.2513E-03
             332     2.29292E-03     79.2380E-03    -133.791E+06    -264.114E+06    -106.833E+06     184.451E+03    -163.565E-03     327.058E-03    -163.493E-03     35.8909E-03    -163.808E-03     326.198E-03    -163.450E-03     33.9027E-03
             333     3.05735E-03     79.2888E-03    -123.974E+06    -238.672E+06    -83.3602E+06     82.6186E+03    -163.660E-03     327.195E-03    -163.534E-03     46.6248E-03    -164.005E-03     326.493E-03    -163.425E-03     43.9982E-03
             334     3.82148E-03     79.3520E-03    -113.359E+06    -212.995E+06    -61.2984E+06    -139.770E+03    -163.777E-03     327.337E-03    -163.560E-03     56.3992E-03    -164.235E-03     326.814E-03    -163.393E-03     53.1441E-03
             335     4.58610E-03     79.4268E-03    -103.172E+06    -188.680E+06    -41.9155E+06    -53.2780E+03    -163.891E-03     327.461E-03    -163.570E-03     65.2034E-03    -164.469E-03     327.124E-03    -163.356E-03     61.3581E-03
             336     5.35078E-03     79.5112E-03    -93.3997E+06    -165.358E+06    -24.7378E+06     200.384E+03    -164.016E-03     327.585E-03    -163.569E-03     72.8718E-03    -164.718E-03     327.440E-03    -163.317E-03     68.4844E-03
             337     6.11532E-03     79.6046E-03    -83.8061E+06    -142.660E+06    -9.64438E+06     121.964E+03    -164.159E-03     327.719E-03    -163.560E-03     79.2493E-03    -164.979E-03     327.763E-03    -163.280E-03     74.3697E-03
             338     6.88001E-03     79.7043E-03    -74.7005E+06    -120.030E+06     3.60568E+06     105.290E+03    -164.272E-03     327.820E-03    -163.548E-03     84.2524E-03    -165.201E-03     328.048E-03    -163.248E-03     78.9505E-03
             339     7.64467E-03     79.8094E-03    -66.2862E+06    -97.9861E+06     15.5152E+06     73.2495E+03    -164.295E-03     327.829E-03    -163.533E-03     87.8069E-03    -165.320E-03     328.225E-03    -163.218E-03     82.1531E-03
             340     8.40933E-03     79.9177E-03    -58.3513E+06    -75.5398E+06     26.2995E+06    -147.905E+03    -164.241E-03     327.752E-03    -163.511E-03     90.0409E-03    -165.343E-03     328.303E-03    -163.186E-03     84.0992E-03
             341     9.17413E-03     80.0277E-03    -50.8575E+06    -51.4399E+06     36.1470E+06    -276.151E+03    -164.186E-03     327.669E-03    -163.483E-03     90.9462E-03    -165.353E-03     328.368E-03    -163.154E-03     84.7625E-03
             342     9.93910E-03     80.1373E-03    -43.4296E+06    -19.9979E+06     46.9308E+06    -221.119E+03    -164.071E-03     327.523E-03    -163.452E-03     90.4082E-03    -165.297E-03     328.388E-03    -163.125E-03     84.0214E-03
             343     10.7037E-03     80.2457E-03    -36.3561E+06     14.5503E+06     58.3409E+06    -239.372E+03    -163.769E-03     327.189E-03    -163.420E-03     88.3072E-03    -165.044E-03     328.217E-03    -163.097E-03     81.7533E-03
             344     11.4685E-03     80.3496E-03    -30.1424E+06     51.8429E+06     66.2299E+06     109.688E+03    -163.309E-03     326.670E-03    -163.361E-03     84.3053E-03    -164.614E-03     327.860E-03    -163.061E-03     77.6192E-03
             345     12.2343E-03     80.4469E-03    -24.4578E+06     82.7805E+06     75.5839E+06     377.009E+03    -162.994E-03     326.312E-03    -163.318E-03     77.9509E-03    -164.302E-03     327.608E-03    -163.025E-03     71.1392E-03
             346     12.9983E-03     80.5341E-03    -17.9394E+06     95.7975E+06     86.0890E+06     391.175E+03    -162.758E-03     326.073E-03    -163.315E-03     67.4564E-03    -163.978E-03     327.320E-03    -162.998E-03     60.6837E-03
             347     13.7636E-03     80.6044E-03    -11.1342E+06     103.526E+06     98.8376E+06     453.551E+03    -162.273E-03     325.608E-03    -163.335E-03     57.6798E-03    -163.441E-03     326.817E-03    -162.975E-03     50.7786E-03
             348     14.5304E-03     80.6657E-03    -5.68622E+06     106.760E+06     106.835E+06    -280.248E+03    -162.210E-03     325.552E-03    -163.342E-03     35.4057E-03    -163.097E-03     326.488E-03    -162.955E-03     29.5151E-03
             349     764.323E-06     80.4916E-03    -145.816E+06    -301.989E+06    -142.744E+06    -91.9641E+03    -163.436E-03     326.780E-03    -163.344E-03     13.4234E-03    -163.538E-03     325.706E-03    -163.408E-03     12.6900E-03
             350     1.52866E-03     80.5143E-03    -141.801E+06    -286.596E+06    -128.333E+06    -164.884E+03    -163.449E-03     326.862E-03    -163.413E-03     24.5422E-03    -163.610E-03     325.874E-03    -163.433E-03     23.1967E-03
             351     2.29292E-03     80.5517E-03    -133.349E+06    -263.932E+06    -106.408E+06    -124.738E+03    -163.583E-03     327.051E-03    -163.468E-03     35.8423E-03    -163.825E-03     326.191E-03    -163.424E-03     33.8516E-03
             352     3.05713E-03     80.6022E-03    -123.554E+06    -238.180E+06    -83.3400E+06    -211.985E+03    -163.682E-03     327.201E-03    -163.519E-03     46.5993E-03    -164.025E-03     326.501E-03    -163.411E-03     43.9668E-03
             353     3.82179E-03     80.6657E-03    -113.444E+06    -213.200E+06    -61.6053E+06    -69.6878E+03    -163.756E-03     327.303E-03    -163.548E-03     56.4478E-03    -164.213E-03     326.779E-03    -163.382E-03     53.1938E-03
             354     4.58625E-03     80.7400E-03    -103.329E+06    -188.795E+06    -41.8619E+06     212.486E+03    -163.899E-03     327.459E-03    -163.560E-03     65.2651E-03    -164.478E-03     327.122E-03    -163.345E-03     61.4226E-03
             355     5.35068E-03     80.8249E-03    -93.2037E+06    -165.093E+06    -24.5567E+06     48.3609E+03    -164.047E-03     327.609E-03    -163.562E-03     72.8899E-03    -164.749E-03     327.465E-03    -163.310E-03     68.4975E-03
             356     6.11540E-03     80.9178E-03    -83.4828E+06    -142.579E+06    -9.59968E+06    -11.2769E+03    -164.147E-03     327.702E-03    -163.555E-03     79.2401E-03    -164.966E-03     327.746E-03    -163.276E-03     74.3594E-03
             357     6.88004E-03     81.0180E-03    -74.4676E+06    -120.045E+06     3.72281E+06     52.1049E+03    -164.223E-03     327.764E-03    -163.541E-03     84.2472E-03    -165.151E-03     327.991E-03    -163.240E-03     78.9485E-03
             358     7.64467E-03     81.1229E-03    -65.9009E+06    -97.7080E+06     15.8283E+06     43.4937E+03    -164.251E-03     327.773E-03    -163.522E-03     87.8406E-03    -165.274E-03     328.170E-03    -163.206E-03     82.1888E-03
             359     8.40951E-03     81.2311E-03    -57.9697E+06    -75.0432E+06     26.6589E+06        -504.577    -164.251E-03     327.750E-03    -163.499E-03     90.0461E-03    -165.352E-03     328.302E-03    -163.173E-03     84.1061E-03
             360     9.17446E-03     81.3410E-03    -50.5023E+06    -50.7695E+06     36.6373E+06    -308.681E+03    -164.211E-03     327.685E-03    -163.474E-03     90.8491E-03    -165.377E-03     328.386E-03    -163.144E-03     84.6634E-03
             361     9.93895E-03     81.4513E-03    -43.5231E+06    -19.7981E+06     46.9460E+06    -630.833E+03    -164.012E-03     327.454E-03    -163.442E-03     90.3473E-03    -165.239E-03     328.320E-03    -163.116E-03     83.9552E-03
             362     10.7039E-03     81.5591E-03    -36.9681E+06     13.8168E+06     58.1625E+06    -19.6384E+03    -163.695E-03     327.102E-03    -163.407E-03     88.3628E-03    -164.972E-03     328.128E-03    -163.083E-03     81.8145E-03
             363     11.4691E-03     81.6630E-03    -30.4703E+06     51.2250E+06     66.0742E+06     651.589E+03    -163.430E-03     326.780E-03    -163.350E-03     84.3584E-03    -164.737E-03     327.968E-03    -163.049E-03     77.6706E-03
             364     12.2335E-03     81.7601E-03    -23.7178E+06     83.5344E+06     76.0503E+06     272.870E+03    -163.162E-03     326.478E-03    -163.316E-03     78.0229E-03    -164.470E-03     327.778E-03    -163.022E-03     71.1962E-03
             365     12.9993E-03     81.8483E-03    -17.4010E+06     96.5217E+06     86.3010E+06    -310.524E+03    -162.917E-03     326.239E-03    -163.322E-03     67.3197E-03    -164.138E-03     327.491E-03    -163.005E-03     60.5130E-03
             366     13.7639E-03     81.9177E-03    -11.4477E+06     103.417E+06     98.5091E+06    -246.888E+03    -162.629E-03     325.985E-03    -163.357E-03     56.7526E-03    -163.796E-03     327.193E-03    -162.997E-03     49.7969E-03
             367     14.5270E-03     81.9795E-03    -5.77510E+06     106.786E+06     107.065E+06     321.479E+03    -162.085E-03     325.458E-03    -163.373E-03     34.9963E-03    -162.972E-03     326.393E-03    -162.984E-03     29.0911E-03
             368     764.170E-06     81.8044E-03    -146.877E+06    -302.418E+06    -142.731E+06     335.251E+03    -163.468E-03     326.815E-03    -163.347E-03     13.4741E-03    -163.574E-03     325.741E-03    -163.409E-03     12.7368E-03
             369     1.52857E-03     81.8279E-03    -141.279E+06    -285.837E+06    -127.197E+06     151.280E+03    -163.474E-03     326.910E-03    -163.437E-03     24.5555E-03    -163.635E-03     325.924E-03    -163.453E-03     23.2114E-03
             370     2.29292E-03     81.8649E-03    -133.209E+06    -263.515E+06    -106.152E+06    -406.287E+03    -163.547E-03     327.028E-03    -163.482E-03     35.8213E-03    -163.789E-03     326.170E-03    -163.437E-03     33.8272E-03
             371     3.05738E-03     81.9159E-03    -123.850E+06    -238.358E+06    -83.6441E+06     14.8031E+03    -163.617E-03     327.132E-03    -163.515E-03     46.5191E-03    -163.961E-03     326.433E-03    -163.408E-03     43.8881E-03
             372     3.82168E-03     81.9788E-03    -113.836E+06    -213.197E+06    -61.4824E+06     271.682E+03    -163.734E-03     327.273E-03    -163.538E-03     56.3604E-03    -164.193E-03     326.749E-03    -163.372E-03     53.1123E-03
             373     4.58625E-03     82.0537E-03    -103.086E+06    -188.536E+06    -41.5714E+06    -82.3122E+03    -163.891E-03     327.441E-03    -163.550E-03     65.2460E-03    -164.470E-03     327.104E-03    -163.335E-03     61.4017E-03
             374     5.35087E-03     82.1382E-03    -92.9337E+06    -164.840E+06    -24.5029E+06    -156.892E+03    -164.043E-03     327.594E-03    -163.551E-03     72.9224E-03    -164.743E-03     327.451E-03    -163.300E-03     68.5266E-03
             375     6.11534E-03     82.2314E-03    -83.6651E+06    -142.561E+06    -9.61571E+06    -85.9544E+03    -164.147E-03     327.693E-03    -163.546E-03     79.3069E-03    -164.967E-03     327.738E-03    -163.266E-03     74.4248E-03
             376     6.88003E-03     82.3313E-03    -74.6431E+06    -119.875E+06     3.77723E+06    -70.8612E+03    -164.185E-03     327.715E-03    -163.531E-03     84.3158E-03    -165.114E-03     327.944E-03    -163.230E-03     79.0156E-03
             377     7.64494E-03     82.4363E-03    -66.1432E+06    -97.4771E+06     15.7995E+06    -168.049E+03    -164.259E-03     327.770E-03    -163.511E-03     87.8341E-03    -165.284E-03     328.168E-03    -163.195E-03     82.1786E-03
             378     8.40966E-03     82.5446E-03    -58.1409E+06    -74.9077E+06     26.5882E+06    -128.578E+03    -164.318E-03     327.811E-03    -163.492E-03     89.9690E-03    -165.421E-03     328.364E-03    -163.167E-03     84.0240E-03
             379     9.17402E-03     82.6549E-03    -50.7146E+06    -50.3521E+06     36.6214E+06    -86.1634E+03    -164.182E-03     327.652E-03    -163.470E-03     90.8365E-03    -165.351E-03     328.355E-03    -163.140E-03     84.6543E-03
             380     9.93917E-03     82.7644E-03    -43.9624E+06    -19.4699E+06     46.9711E+06     35.5849E+03    -163.918E-03     327.352E-03    -163.434E-03     90.2924E-03    -165.147E-03     328.220E-03    -163.108E-03     83.9143E-03
             381     10.7042E-03     82.8725E-03    -37.1614E+06     13.1445E+06      57.786E+06     111.804E+03    -163.731E-03     327.128E-03    -163.397E-03     88.1732E-03    -165.006E-03     328.151E-03    -163.074E-03     81.6223E-03
             382     11.4690E-03     82.9765E-03    -30.1374E+06     50.7836E+06     65.7073E+06    -56.0604E+03    -163.595E-03     326.942E-03    -163.346E-03     84.2432E-03    -164.899E-03     328.128E-03    -163.048E-03     77.5364E-03
             383     12.2341E-03     83.0745E-03    -23.6802E+06     84.3668E+06     76.0688E+06     156.730E+03    -163.313E-03     326.636E-03    -163.324E-03     77.9010E-03    -164.622E-03     327.940E-03    -163.031E-03     71.0665E-03
             384     12.9981E-03     83.1615E-03    -17.8192E+06     97.0305E+06     86.6313E+06     258.622E+03    -162.964E-03     326.302E-03    -163.338E-03     67.6581E-03    -164.190E-03     327.558E-03    -163.020E-03     60.8585E-03
             385     13.7623E-03     83.2335E-03    -12.2149E+06     102.685E+06     98.2896E+06     276.842E+03    -162.458E-03     325.825E-03    -163.367E-03     57.8089E-03    -163.633E-03     327.036E-03    -163.007E-03     50.8837E-03
             386     14.5281E-03     83.2929E-03    -5.84460E+06     106.892E+06     107.346E+06     112.452E+03    -161.867E-03     325.238E-03    -163.371E-03     36.0581E-03    -162.759E-03     326.178E-03    -162.981E-03     30.1705E-03
             387     764.446E-06     83.1182E-03    -146.680E+06    -302.532E+06    -142.929E+06    -118.548E+03    -163.588E-03     326.858E-03    -163.270E-03     13.6221E-03    -163.693E-03     325.783E-03    -163.333E-03     12.8783E-03
             388     1.52846E-03     83.1411E-03    -140.914E+06    -285.639E+06    -127.208E+06     67.7236E+03    -163.517E-03     326.977E-03    -163.460E-03     24.6042E-03    -163.676E-03     325.991E-03    -163.478E-03     23.2598E-03
             389     2.29276E-03     83.1785E-03    -133.480E+06    -263.354E+06    -106.355E+06     324.858E+03    -163.498E-03     326.997E-03    -163.499E-03     35.8313E-03    -163.742E-03     326.140E-03    -163.455E-03     33.8469E-03
             390     3.05716E-03     83.2290E-03    -124.054E+06    -238.467E+06    -83.1757E+06    -8.36116E+03    -163.567E-03     327.086E-03    -163.519E-03     46.5432E-03    -163.913E-03     326.386E-03    -163.409E-03     43.9126E-03
             391     3.82180E-03     83.2925E-03    -113.368E+06    -212.871E+06    -61.1648E+06    -218.447E+03    -163.727E-03     327.260E-03    -163.533E-03     56.4352E-03    -164.185E-03     326.737E-03    -163.366E-03     53.1808E-03
             392     4.58626E-03     83.3670E-03    -103.143E+06    -188.237E+06    -41.7281E+06    -35.0268E+03    -163.861E-03     327.401E-03    -163.540E-03     65.2637E-03    -164.440E-03     327.067E-03    -163.326E-03     61.4198E-03
             393     5.35084E-03     83.4518E-03    -93.2045E+06    -164.797E+06    -24.4755E+06     44.4239E+03    -163.987E-03     327.526E-03    -163.539E-03     72.9632E-03    -164.689E-03     327.383E-03    -163.287E-03     68.5736E-03
             394     6.11558E-03     83.5449E-03    -83.6405E+06    -142.273E+06    -9.43295E+06    -1.80937E+03    -164.137E-03     327.668E-03    -163.531E-03     79.3074E-03    -164.958E-03     327.714E-03    -163.250E-03     74.4264E-03
             395     6.88029E-03     83.6447E-03    -74.6696E+06    -119.587E+06     3.74823E+06    -154.290E+03    -164.252E-03     327.771E-03    -163.519E-03     84.2211E-03    -165.182E-03     328.000E-03    -163.219E-03     78.9155E-03
             396     7.64485E-03     83.7497E-03    -66.2562E+06    -97.4228E+06     15.6381E+06    -62.6537E+03    -164.311E-03     327.817E-03    -163.507E-03     87.8204E-03    -165.336E-03     328.216E-03    -163.191E-03     82.1631E-03
             397     8.40938E-03     83.8584E-03    -58.5884E+06    -74.7029E+06     26.4042E+06     48.5532E+03    -164.258E-03     327.747E-03    -163.489E-03     90.0221E-03    -165.364E-03     328.303E-03    -163.163E-03     84.0806E-03
             398     9.17457E-03     83.9680E-03    -51.3777E+06    -50.3258E+06     36.3984E+06     70.3491E+03    -164.146E-03     327.609E-03    -163.463E-03     90.8168E-03    -165.317E-03     328.313E-03    -163.133E-03     84.6394E-03
             399     9.93923E-03     84.0779E-03    -44.0605E+06    -19.7826E+06     46.8194E+06     199.307E+03    -164.061E-03     327.493E-03    -163.432E-03     90.1683E-03    -165.290E-03     328.360E-03    -163.106E-03     83.7863E-03
             400     10.7039E-03     84.1859E-03    -37.0007E+06     13.6921E+06     57.8921E+06    -2.49119E+03    -163.922E-03     327.329E-03    -163.407E-03     88.0288E-03    -165.197E-03     328.354E-03    -163.084E-03     81.4649E-03
             401     11.4688E-03     84.2905E-03    -30.7077E+06     51.1143E+06     65.5911E+06    -219.147E+03    -163.581E-03     326.943E-03    -163.363E-03     84.1591E-03    -164.886E-03     328.131E-03    -163.064E-03     77.4528E-03
             402     12.2332E-03     84.3882E-03    -24.5215E+06     83.8048E+06     75.5388E+06    -94.5317E+03    -163.154E-03     326.488E-03    -163.333E-03     78.1518E-03    -164.467E-03     327.792E-03    -163.042E-03     71.3212E-03
             403     12.9986E-03     84.4761E-03    -18.2250E+06     96.6804E+06     86.0408E+06     403.722E+03    -162.643E-03     325.974E-03    -163.331E-03     68.0892E-03    -163.872E-03     327.232E-03    -163.015E-03     61.3099E-03
             404     13.7644E-03     84.5465E-03    -11.5650E+06     103.433E+06       98.77E+06     185.823E+03    -162.122E-03     325.466E-03    -163.344E-03     57.4984E-03    -163.295E-03     326.678E-03    -162.983E-03     50.5710E-03
             405     14.5298E-03     84.6057E-03    -5.56718E+06     107.518E+06     107.602E+06    -67.9758E+03    -162.212E-03     325.562E-03    -163.350E-03     35.2700E-03    -163.102E-03     326.501E-03    -162.959E-03     29.3696E-03
             406     764.096E-06     84.4314E-03    -146.683E+06    -302.228E+06    -142.640E+06     34.8741E+03    -163.501E-03     326.924E-03    -163.423E-03     13.4198E-03    -163.607E-03     325.850E-03    -163.485E-03     12.6887E-03
             407     1.52853E-03     84.4548E-03    -141.594E+06    -285.874E+06    -127.636E+06    -84.4305E+03    -163.400E-03     326.863E-03    -163.463E-03     24.6810E-03    -163.562E-03     325.878E-03    -163.482E-03     23.3294E-03
             408     2.29289E-03     84.4918E-03    -133.317E+06    -263.672E+06    -106.456E+06     31.3059E+03    -163.498E-03     326.973E-03    -163.475E-03     35.9621E-03    -163.740E-03     326.115E-03    -163.432E-03     33.9715E-03
             409     3.05739E-03     84.5424E-03    -123.540E+06    -237.805E+06    -83.0695E+06     114.843E+03    -163.594E-03     327.096E-03    -163.503E-03     46.6168E-03    -163.938E-03     326.399E-03    -163.394E-03     43.9907E-03
             410     3.82177E-03     84.6057E-03    -113.747E+06    -212.568E+06    -61.3392E+06     39.0788E+03    -163.693E-03     327.212E-03    -163.520E-03     56.4721E-03    -164.152E-03     326.691E-03    -163.353E-03     53.2217E-03
             411     4.58635E-03     84.6805E-03    -103.421E+06    -188.228E+06    -41.7684E+06    -19.1563E+03    -163.841E-03     327.366E-03    -163.525E-03     65.3078E-03    -164.422E-03     327.033E-03    -163.311E-03     61.4623E-03
             412     5.35100E-03     84.7649E-03    -93.1240E+06    -164.641E+06    -24.4225E+06    -40.1188E+03    -164.022E-03     327.549E-03    -163.526E-03     72.9601E-03    -164.724E-03     327.406E-03    -163.275E-03     68.5682E-03
             413     6.11561E-03     84.8583E-03    -83.4638E+06    -142.052E+06    -9.45752E+06    -101.240E+03    -164.183E-03     327.708E-03    -163.525E-03     79.2006E-03    -165.003E-03     327.754E-03    -163.245E-03     74.3167E-03
             414     6.88012E-03     84.9582E-03    -74.4967E+06    -119.558E+06     3.74883E+06     89.2841E+03    -164.280E-03     327.799E-03    -163.519E-03     84.1429E-03    -165.209E-03     328.029E-03    -163.219E-03     78.8386E-03
             415     7.64478E-03     85.0634E-03    -66.3131E+06    -97.4631E+06     15.5857E+06     227.777E+03    -164.275E-03     327.782E-03    -163.507E-03     87.8223E-03    -165.301E-03     328.181E-03    -163.191E-03     82.1697E-03
             416     8.40981E-03     85.1716E-03    -58.3408E+06    -74.5788E+06     26.4972E+06     241.475E+03    -164.246E-03     327.733E-03    -163.487E-03     89.9357E-03    -165.350E-03     328.288E-03    -163.161E-03     83.9970E-03
             417     9.17428E-03     85.2816E-03    -50.7187E+06    -50.1241E+06     36.5961E+06     158.855E+03    -164.250E-03     327.715E-03    -163.465E-03     90.6444E-03    -165.417E-03     328.418E-03    -163.136E-03     84.4641E-03
             418     9.93911E-03     85.3915E-03    -43.6633E+06    -19.6549E+06     46.9011E+06    -23.2532E+03    -164.184E-03     327.627E-03    -163.443E-03     90.1429E-03    -165.411E-03     328.493E-03    -163.117E-03     83.7508E-03
             419     10.7037E-03     85.5000E-03    -36.7980E+06     13.8419E+06     57.9725E+06     162.386E+03    -163.927E-03     327.349E-03    -163.422E-03     88.1952E-03    -165.203E-03     328.375E-03    -163.099E-03     81.6321E-03
             420     11.4683E-03     85.6040E-03    -30.2107E+06     51.5126E+06     66.1138E+06     363.301E+03    -163.495E-03     326.870E-03    -163.374E-03     84.4063E-03    -164.802E-03     328.060E-03    -163.075E-03     77.7097E-03
             421     12.2339E-03     85.7016E-03    -24.3230E+06     83.9378E+06     75.8410E+06     182.498E+03    -162.988E-03     326.324E-03    -163.336E-03     78.2358E-03    -164.301E-03     327.628E-03    -163.043E-03     71.4181E-03
             422     12.9987E-03     85.7895E-03    -18.0414E+06     96.9852E+06     86.0698E+06    -415.350E+03    -162.514E-03     325.838E-03    -163.323E-03     67.5853E-03    -163.740E-03     327.094E-03    -163.007E-03     60.7976E-03
             423     13.7633E-03     85.8594E-03    -11.6467E+06     103.504E+06     98.3561E+06    -285.390E+03    -162.308E-03     325.646E-03    -163.337E-03     57.2215E-03    -163.478E-03     326.856E-03    -162.979E-03     50.2863E-03
             424     14.5274E-03     85.9208E-03    -5.31336E+06     107.422E+06     107.386E+06     409.351E+03    -162.208E-03     325.556E-03    -163.349E-03     35.6939E-03    -163.096E-03     326.495E-03    -162.960E-03     29.8078E-03
             425     764.103E-06     85.7448E-03    -146.762E+06    -302.280E+06    -143.290E+06    -243.138E+03    -163.357E-03     326.791E-03    -163.434E-03     13.6248E-03    -163.462E-03     325.718E-03    -163.499E-03     12.8868E-03
             426     1.52862E-03     85.7678E-03    -141.232E+06    -285.708E+06    -127.533E+06     67.1356E+03    -163.389E-03     326.796E-03    -163.407E-03     24.7725E-03    -163.550E-03     325.811E-03    -163.426E-03     23.4268E-03
             427     2.29307E-03     85.8052E-03    -133.335E+06    -263.234E+06    -106.204E+06    -101.557E+03    -163.503E-03     326.941E-03    -163.438E-03     35.9549E-03    -163.746E-03     326.084E-03    -163.394E-03     33.9691E-03
             428     3.05729E-03     85.8559E-03    -123.894E+06    -237.996E+06    -83.5857E+06     48.8320E+03    -163.627E-03     327.104E-03    -163.477E-03     46.5845E-03    -163.971E-03     326.406E-03    -163.370E-03     43.9577E-03
             429     3.82186E-03     85.9190E-03    -113.462E+06    -212.353E+06    -61.2815E+06     240.618E+03    -163.714E-03     327.221E-03    -163.506E-03     56.3992E-03    -164.173E-03     326.701E-03    -163.340E-03     53.1477E-03
             430     4.58651E-03     85.9936E-03    -103.132E+06    -187.884E+06    -41.5468E+06    -42.2889E+03    -163.870E-03     327.390E-03    -163.520E-03     65.2167E-03    -164.450E-03     327.057E-03    -163.305E-03     61.3706E-03
             431     5.35099E-03     86.0786E-03    -93.1903E+06    -164.448E+06    -24.5621E+06    -104.044E+03    -164.069E-03     327.596E-03    -163.526E-03     72.8797E-03    -164.772E-03     327.455E-03    -163.276E-03     68.4849E-03
             432     6.11544E-03     86.1717E-03    -83.8165E+06    -142.107E+06    -9.69260E+06     18.1229E+03    -164.178E-03     327.706E-03    -163.528E-03     79.2315E-03    -164.999E-03     327.753E-03    -163.249E-03     74.3475E-03
             433     6.88016E-03     86.2718E-03    -74.9545E+06    -119.872E+06     3.56995E+06     171.893E+03    -164.235E-03     327.755E-03    -163.520E-03     84.2383E-03    -165.166E-03     327.984E-03    -163.220E-03     78.9361E-03
             434     7.64495E-03     86.3766E-03    -66.4104E+06    -97.1258E+06     15.6362E+06     239.915E+03    -164.311E-03     327.817E-03    -163.506E-03     87.7950E-03    -165.337E-03     328.218E-03    -163.191E-03     82.1420E-03
             435     8.40940E-03     86.4851E-03    -58.4407E+06    -74.4506E+06     26.3101E+06     45.4573E+03    -164.354E-03     327.846E-03    -163.492E-03     89.8968E-03    -165.458E-03     328.402E-03    -163.168E-03     83.9510E-03
             436     9.17430E-03     86.5952E-03    -50.9089E+06    -50.0651E+06     36.3605E+06     78.0605E+03    -164.300E-03     327.776E-03    -163.476E-03     90.7263E-03    -165.469E-03     328.481E-03    -163.148E-03     84.5406E-03
             437     9.93880E-03     86.7053E-03    -43.7739E+06    -19.4711E+06     46.8125E+06     279.485E+03    -164.092E-03     327.544E-03    -163.452E-03     90.3460E-03    -165.320E-03     328.412E-03    -163.126E-03     83.9640E-03
             438     10.7037E-03     86.8136E-03    -37.0438E+06     13.7783E+06     57.7307E+06     237.664E+03    -163.806E-03     327.228E-03    -163.422E-03     88.3746E-03    -165.083E-03     328.255E-03    -163.099E-03     81.8233E-03
             439     11.4690E-03     86.9175E-03    -30.5499E+06     51.2546E+06     66.0712E+06     456.906E+03    -163.512E-03     326.883E-03    -163.372E-03     84.4296E-03    -164.820E-03     328.074E-03    -163.071E-03     77.7292E-03
             440     12.2332E-03     87.0154E-03    -23.9957E+06     84.8622E+06     76.4402E+06     363.159E+03    -163.029E-03     326.365E-03    -163.336E-03     78.0432E-03    -164.341E-03     327.671E-03    -163.042E-03     71.2288E-03
             441     12.9985E-03     87.1026E-03    -18.1202E+06     97.8147E+06     86.2344E+06    -7.48817E+03    -162.550E-03     325.874E-03    -163.324E-03     67.7430E-03    -163.775E-03     327.133E-03    -163.009E-03     60.9767E-03
             442     13.7639E-03     87.1737E-03    -12.2778E+06     102.943E+06     97.9866E+06     17.8654E+03    -162.279E-03     325.617E-03    -163.338E-03     57.7410E-03    -163.452E-03     326.827E-03    -162.979E-03     50.8271E-03
             443     14.5298E-03     87.2342E-03    -5.71000E+06     107.492E+06     107.413E+06    -114.165E+03    -162.117E-03     325.464E-03    -163.347E-03     35.6154E-03    -163.008E-03     326.404E-03    -162.957E-03     29.7158E-03
             444     764.735E-06     87.0582E-03    -146.787E+06    -302.007E+06    -142.423E+06     50.5706E+03    -163.495E-03     326.671E-03    -163.176E-03     13.4942E-03    -163.602E-03     325.598E-03    -163.237E-03     12.7655E-03
             445     1.52868E-03     87.0811E-03    -141.265E+06    -285.840E+06    -127.350E+06    -7.21223E+03    -163.469E-03     326.846E-03    -163.377E-03     24.5677E-03    -163.629E-03     325.859E-03    -163.394E-03     23.2228E-03
             446     2.29296E-03     87.1185E-03    -133.383E+06    -263.014E+06    -106.461E+06     253.590E+03    -163.477E-03     326.908E-03    -163.430E-03     35.8951E-03    -163.721E-03     326.052E-03    -163.388E-03     33.9130E-03
             447     3.05754E-03     87.1692E-03    -123.930E+06    -237.805E+06    -83.4165E+06    -68.5172E+03    -163.592E-03     327.059E-03    -163.466E-03     46.5834E-03    -163.938E-03     326.362E-03    -163.359E-03     43.9545E-03
             448     3.82188E-03     87.2325E-03    -113.375E+06    -212.549E+06    -61.4611E+06    -124.440E+03    -163.796E-03     327.296E-03    -163.500E-03     56.3941E-03    -164.254E-03     326.775E-03    -163.335E-03     53.1359E-03
             449     4.58623E-03     87.3070E-03    -103.152E+06    -187.505E+06    -41.7036E+06     262.445E+03    -163.951E-03     327.478E-03    -163.527E-03     65.2161E-03    -164.532E-03     327.148E-03    -163.315E-03     61.3701E-03
             450     5.35083E-03     87.3920E-03    -93.5679E+06    -164.331E+06    -24.6042E+06     257.311E+03    -164.016E-03     327.554E-03    -163.537E-03     72.8778E-03    -164.721E-03     327.414E-03    -163.286E-03     68.4874E-03
             451     6.11557E-03     87.4852E-03    -84.1106E+06    -142.240E+06    -9.65861E+06     292.769E+03    -164.109E-03     327.640E-03    -163.531E-03     79.2385E-03    -164.932E-03     327.687E-03    -163.251E-03     74.3618E-03
             452     6.88026E-03     87.5851E-03    -75.0658E+06    -119.461E+06     3.62699E+06     88.2095E+03    -164.260E-03     327.779E-03    -163.519E-03     84.2298E-03    -165.192E-03     328.010E-03    -163.219E-03     78.9276E-03
             453     7.64480E-03     87.6903E-03    -66.4390E+06    -97.1247E+06     15.3854E+06    -87.0126E+03    -164.361E-03     327.869E-03    -163.508E-03     87.8248E-03    -165.387E-03     328.270E-03    -163.194E-03     82.1678E-03
             454     8.40957E-03     87.7988E-03    -58.4628E+06    -74.2060E+06     26.2316E+06     146.422E+03    -164.346E-03     327.841E-03    -163.496E-03     90.0731E-03    -165.452E-03     328.400E-03    -163.172E-03     84.1290E-03
             455     9.17400E-03     87.9089E-03    -51.2004E+06    -49.9518E+06     36.2838E+06     289.223E+03    -164.233E-03     327.709E-03    -163.476E-03     91.0028E-03    -165.405E-03     328.417E-03    -163.148E-03     84.8208E-03
             456     9.93903E-03     88.0189E-03    -44.2336E+06    -19.5597E+06     46.5471E+06     217.742E+03    -164.058E-03     327.505E-03    -163.447E-03     90.4804E-03    -165.289E-03     328.375E-03    -163.121E-03     84.0992E-03
             457     10.7040E-03     88.1269E-03    -37.3223E+06     13.7163E+06     57.4509E+06     296.309E+03    -163.825E-03     327.241E-03    -163.416E-03     88.3365E-03    -165.102E-03     328.268E-03    -163.094E-03     81.7847E-03
             458     11.4684E-03     88.2315E-03    -30.5324E+06     51.3391E+06     65.6608E+06     240.970E+03    -163.483E-03     326.848E-03    -163.364E-03     84.4700E-03    -164.790E-03     328.038E-03    -163.066E-03     77.7758E-03
             459     12.2338E-03     88.3289E-03    -24.1758E+06     85.1015E+06     76.1643E+06     186.079E+03    -163.126E-03     326.457E-03    -163.331E-03     78.1017E-03    -164.439E-03     327.765E-03    -163.039E-03     71.2803E-03
             460     12.9988E-03     88.4159E-03    -17.9484E+06     98.1564E+06     86.1983E+06     369.322E+03    -162.701E-03     326.029E-03    -163.328E-03     67.4516E-03    -163.927E-03     327.290E-03    -163.014E-03     60.6651E-03
             461     13.7636E-03     88.4872E-03    -11.6959E+06     103.698E+06     98.2803E+06     19.7008E+03    -162.240E-03     325.586E-03    -163.346E-03     57.3023E-03    -163.412E-03     326.800E-03    -162.988E-03     50.3671E-03
             462     14.5275E-03     88.5480E-03    -5.97671E+06     107.574E+06     107.287E+06    -328.359E+03    -162.086E-03     325.439E-03    -163.353E-03     35.4381E-03    -162.979E-03     326.381E-03    -162.964E-03     29.5277E-03
             463     763.932E-06     88.3711E-03    -146.510E+06    -302.004E+06    -142.936E+06     486.282E+03    -163.604E-03     326.839E-03    -163.236E-03     13.4178E-03    -163.708E-03     325.767E-03    -163.300E-03     12.6919E-03
             464     1.52855E-03     88.3946E-03    -141.514E+06    -285.740E+06    -127.422E+06     225.116E+03    -163.424E-03     326.859E-03    -163.436E-03     24.4948E-03    -163.585E-03     325.874E-03    -163.454E-03     23.1543E-03
             465     2.29297E-03     88.4316E-03    -133.493E+06    -263.293E+06    -106.689E+06     106.311E+03    -163.483E-03     326.943E-03    -163.460E-03     35.7723E-03    -163.726E-03     326.087E-03    -163.418E-03     33.7830E-03
             466     3.05737E-03     88.4825E-03    -123.974E+06    -237.406E+06    -83.3900E+06     341.638E+03    -163.589E-03     327.079E-03    -163.490E-03     46.4400E-03    -163.936E-03     326.384E-03    -163.383E-03     43.8150E-03
             467     3.82191E-03     88.5459E-03    -114.005E+06    -212.332E+06    -61.4625E+06     120.585E+03    -163.754E-03     327.270E-03    -163.516E-03     56.3226E-03    -164.215E-03     326.751E-03    -163.351E-03     53.0701E-03
             468     4.58636E-03     88.6208E-03    -103.603E+06    -187.963E+06    -41.9960E+06     94.7805E+03    -163.905E-03     327.438E-03    -163.533E-03     65.2636E-03    -164.486E-03     327.106E-03    -163.321E-03     61.4175E-03
             469     5.35083E-03     88.7053E-03    -93.6545E+06    -164.262E+06    -24.6212E+06     366.951E+03    -164.010E-03     327.548E-03    -163.538E-03     72.9150E-03    -164.715E-03     327.409E-03    -163.287E-03     68.5262E-03
             470     6.11552E-03     88.7984E-03    -83.8848E+06    -141.845E+06    -9.42376E+06     141.783E+03    -164.143E-03     327.677E-03    -163.533E-03     79.2699E-03    -164.966E-03     327.725E-03    -163.253E-03     74.3915E-03
             471     6.88011E-03     88.8988E-03    -74.5847E+06    -119.090E+06     3.70349E+06     123.892E+03    -164.276E-03     327.799E-03    -163.523E-03     84.2760E-03    -165.207E-03     328.031E-03    -163.223E-03     78.9763E-03
             472     7.64481E-03     89.0038E-03    -66.4678E+06    -96.8035E+06     15.4289E+06     159.961E+03    -164.301E-03     327.811E-03    -163.510E-03     87.8869E-03    -165.328E-03     328.214E-03    -163.196E-03     82.2342E-03
             473     8.40944E-03     89.1124E-03    -58.7059E+06    -74.5073E+06     26.0839E+06     210.939E+03    -164.240E-03     327.730E-03    -163.489E-03     90.1313E-03    -165.347E-03     328.288E-03    -163.166E-03     84.1920E-03
             474     9.17457E-03     89.2223E-03    -51.1059E+06    -50.1497E+06     36.2338E+06     355.045E+03    -164.191E-03     327.655E-03    -163.464E-03     91.0260E-03    -165.362E-03     328.361E-03    -163.136E-03     84.8493E-03
             475     9.93916E-03     89.3325E-03    -43.8935E+06    -19.1443E+06     46.7428E+06     282.946E+03    -164.094E-03     327.529E-03    -163.435E-03     90.5352E-03    -165.325E-03     328.400E-03    -163.110E-03     84.1545E-03
             476     10.7036E-03     89.4408E-03    -37.0481E+06     13.9098E+06     57.5910E+06     77.9872E+03    -163.874E-03     327.282E-03    -163.407E-03     88.4981E-03    -165.152E-03     328.311E-03    -163.086E-03     81.9399E-03
             477     11.4690E-03     89.5448E-03    -30.4432E+06     51.2918E+06     65.4759E+06     241.029E+03    -163.552E-03     326.911E-03    -163.359E-03     84.4293E-03    -164.859E-03     328.103E-03    -163.062E-03     77.7252E-03
             478     12.2337E-03     89.6425E-03    -24.0797E+06     85.3531E+06     76.1100E+06     334.226E+03    -163.162E-03     326.492E-03    -163.330E-03     78.0572E-03    -164.477E-03     327.804E-03    -163.038E-03     71.2234E-03
             479     12.9981E-03     89.7307E-03    -17.7042E+06     98.5125E+06     87.0728E+06    -29.1953E+03    -162.763E-03     326.097E-03    -163.334E-03     67.7292E-03    -163.992E-03     327.361E-03    -163.016E-03     60.9312E-03
             480     13.7630E-03     89.7999E-03    -11.5607E+06     103.981E+06     98.7849E+06     7.96577E+03    -162.380E-03     325.735E-03    -163.355E-03     57.8384E-03    -163.555E-03     326.951E-03    -162.995E-03     50.9078E-03
             481     14.5294E-03     89.8622E-03    -5.38280E+06     107.656E+06     107.352E+06    -52.2233E+03    -161.997E-03     325.357E-03    -163.360E-03     35.6399E-03    -162.888E-03     326.300E-03    -162.972E-03     29.7385E-03
             482     764.403E-06     89.6847E-03    -147.020E+06    -302.382E+06    -143.478E+06     64.3413E+03    -163.553E-03     326.948E-03    -163.395E-03     13.4997E-03    -163.659E-03     325.875E-03    -163.461E-03     12.7684E-03
             483     1.52848E-03     89.7078E-03    -141.578E+06    -285.390E+06    -127.910E+06     145.030E+03    -163.436E-03     326.915E-03    -163.480E-03     24.5712E-03    -163.597E-03     325.932E-03    -163.500E-03     23.2277E-03
             484     2.29281E-03     89.7451E-03    -133.668E+06    -263.261E+06    -106.575E+06     24.2571E+03    -163.520E-03     327.018E-03    -163.498E-03     35.8535E-03    -163.764E-03     326.162E-03    -163.456E-03     33.8635E-03
             485     3.05714E-03     89.7959E-03    -124.092E+06    -237.639E+06    -83.6436E+06     134.533E+03    -163.603E-03     327.126E-03    -163.523E-03     46.5603E-03    -163.949E-03     326.430E-03    -163.417E-03     43.9332E-03
             486     3.82157E-03     89.8592E-03    -113.930E+06    -212.109E+06    -61.4440E+06     410.476E+03    -163.685E-03     327.222E-03    -163.538E-03     56.4358E-03    -164.146E-03     326.705E-03    -163.372E-03     53.1885E-03
             487     4.58628E-03     89.9341E-03    -103.722E+06    -187.834E+06    -41.7370E+06     228.550E+03    -163.815E-03     327.354E-03    -163.539E-03     65.2198E-03    -164.398E-03     327.023E-03    -163.325E-03     61.3775E-03
             488     5.35102E-03     90.0187E-03    -93.1387E+06    -164.226E+06    -24.4071E+06     3.20682E+03    -164.013E-03     327.549E-03    -163.536E-03     72.9011E-03    -164.716E-03     327.409E-03    -163.285E-03     68.5106E-03
             489     6.11545E-03     90.1121E-03    -83.4276E+06    -141.522E+06    -9.42003E+06     182.890E+03    -164.197E-03     327.730E-03    -163.533E-03     79.3486E-03    -165.018E-03     327.779E-03    -163.254E-03     74.4715E-03
             490     6.88014E-03     90.2120E-03    -74.8761E+06    -119.190E+06     3.48046E+06     235.999E+03    -164.247E-03     327.771E-03    -163.524E-03     84.3417E-03    -165.179E-03     328.004E-03    -163.225E-03     79.0431E-03
             491     7.64482E-03     90.3175E-03    -66.3375E+06    -96.8009E+06     15.4747E+06     395.077E+03    -164.246E-03     327.753E-03    -163.507E-03     87.8936E-03    -165.273E-03     328.156E-03    -163.193E-03     82.2440E-03
             492     8.40974E-03     90.4256E-03    -58.4539E+06    -74.3821E+06     26.2353E+06     416.596E+03    -164.266E-03     327.752E-03    -163.486E-03     90.0341E-03    -165.371E-03     328.309E-03    -163.162E-03     84.0951E-03
             493     9.17427E-03     90.5359E-03    -51.0698E+06    -50.1693E+06     36.1968E+06     250.303E+03    -164.203E-03     327.665E-03    -163.462E-03     90.8356E-03    -165.372E-03     328.370E-03    -163.134E-03     84.6580E-03
             494     9.93916E-03     90.6461E-03    -43.8605E+06    -18.9067E+06     46.8289E+06     248.276E+03    -164.010E-03     327.442E-03    -163.432E-03     90.3654E-03    -165.240E-03     328.313E-03    -163.106E-03     83.9894E-03
             495     10.7045E-03     90.7544E-03    -37.2926E+06     14.2107E+06     57.7795E+06     420.183E+03    -163.824E-03     327.225E-03    -163.401E-03     88.4123E-03    -165.103E-03     328.254E-03    -163.079E-03     81.8636E-03
             496     11.4686E-03     90.8588E-03    -31.0384E+06     51.4297E+06     65.4556E+06     110.177E+03    -163.580E-03     326.933E-03    -163.352E-03     84.6215E-03    -164.893E-03     328.128E-03    -163.055E-03     77.9133E-03
             497     12.2332E-03     90.9565E-03    -24.1801E+06     85.6119E+06     76.2067E+06    -115.783E+03    -163.111E-03     326.433E-03    -163.322E-03     78.4170E-03    -164.429E-03     327.748E-03    -163.030E-03     71.5799E-03
             498     12.9993E-03     91.0435E-03    -17.8067E+06     98.6009E+06     86.7402E+06     115.380E+03    -162.712E-03     326.033E-03    -163.321E-03     67.9489E-03    -163.942E-03     327.298E-03    -163.004E-03     61.1645E-03
             499     13.7641E-03     91.1149E-03    -12.0528E+06     104.310E+06     98.6824E+06    -13.1605E+03    -162.437E-03     325.781E-03    -163.344E-03     57.8806E-03    -163.616E-03     327.001E-03    -162.984E-03     50.9442E-03
             500     14.5273E-03     91.1753E-03    -6.12025E+06     108.085E+06     107.445E+06    -97.2717E+03    -162.154E-03     325.510E-03    -163.356E-03     35.5943E-03    -163.050E-03     326.457E-03    -162.967E-03     29.6815E-03
             501     764.019E-06     90.9984E-03    -146.452E+06    -302.213E+06    -143.166E+06    -134.514E+03    -163.489E-03     326.944E-03    -163.455E-03     13.3225E-03    -163.593E-03     325.871E-03    -163.520E-03     12.5858E-03
             502     1.52849E-03     91.0211E-03    -141.397E+06    -285.447E+06    -128.048E+06    -31.4598E+03    -163.459E-03     326.940E-03    -163.481E-03     24.6141E-03    -163.620E-03     325.957E-03    -163.502E-03     23.2654E-03
             503     2.29280E-03     91.0587E-03    -133.589E+06    -262.951E+06    -106.585E+06    -17.0021E+03    -163.496E-03     326.996E-03    -163.500E-03     35.9857E-03    -163.741E-03     326.142E-03    -163.458E-03     33.9969E-03
             504     3.05729E-03     91.1092E-03    -124.050E+06    -237.687E+06    -83.5395E+06     25.4882E+03    -163.567E-03     327.084E-03    -163.517E-03     46.7015E-03    -163.914E-03     326.389E-03    -163.410E-03     44.0735E-03
             505     3.82186E-03     91.1727E-03    -113.601E+06    -212.228E+06    -61.3328E+06     118.417E+03    -163.714E-03     327.244E-03    -163.530E-03     56.5946E-03    -164.174E-03     326.725E-03    -163.364E-03     53.3441E-03
             506     4.58626E-03     91.2473E-03     -103.13E+06    -187.527E+06    -41.5150E+06     203.499E+03    -163.875E-03     327.413E-03    -163.539E-03     65.3019E-03    -164.455E-03     327.083E-03    -163.325E-03     61.4585E-03
             507     5.35080E-03     91.3321E-03    -93.2354E+06    -164.037E+06    -24.4719E+06     242.374E+03    -164.024E-03     327.564E-03    -163.540E-03     72.9215E-03    -164.727E-03     327.425E-03    -163.289E-03     68.5323E-03
             508     6.11560E-03     91.4255E-03    -83.8412E+06    -141.689E+06    -9.76020E+06     291.189E+03    -164.149E-03     327.683E-03    -163.534E-03     79.3086E-03    -164.971E-03     327.733E-03    -163.256E-03     74.4336E-03
             509     6.88009E-03     91.5257E-03    -74.8142E+06    -119.005E+06     3.54333E+06     304.476E+03    -164.221E-03     327.743E-03    -163.522E-03     84.2858E-03    -165.153E-03     327.976E-03    -163.223E-03     78.9874E-03
             510     7.64493E-03     91.6305E-03    -66.4134E+06    -97.0813E+06     15.3999E+06     257.011E+03    -164.290E-03     327.797E-03    -163.506E-03     87.8715E-03    -165.317E-03     328.199E-03    -163.192E-03     82.2174E-03
             511     8.40947E-03     91.7394E-03    -58.2374E+06    -74.4558E+06     26.3401E+06     367.217E+03    -164.315E-03     327.805E-03    -163.490E-03     90.0427E-03    -165.420E-03     328.362E-03    -163.166E-03     84.0997E-03
             512     9.17425E-03     91.8494E-03    -50.6554E+06    -49.8536E+06     36.5335E+06     350.933E+03    -164.213E-03     327.681E-03    -163.469E-03     90.8738E-03    -165.382E-03     328.388E-03    -163.140E-03     84.6937E-03
             513     9.93910E-03     91.9594E-03    -43.7049E+06    -18.9871E+06     46.9696E+06     491.955E+03    -164.036E-03     327.474E-03    -163.439E-03     90.3469E-03    -165.265E-03     328.345E-03    -163.113E-03     83.9713E-03
             514     10.7036E-03     92.0678E-03    -36.6340E+06     14.2319E+06     58.1109E+06     455.246E+03    -163.753E-03     327.160E-03    -163.406E-03     88.3063E-03    -165.028E-03     328.187E-03    -163.083E-03     81.7627E-03
             515     11.4692E-03     92.1724E-03    -29.7992E+06     52.3013E+06     66.4165E+06     342.718E+03    -163.361E-03     326.710E-03    -163.349E-03     84.4546E-03    -164.667E-03     327.904E-03    -163.050E-03     77.7645E-03
             516     12.2346E-03     92.2699E-03    -24.2686E+06     85.8265E+06     76.0611E+06     287.951E+03    -163.141E-03     326.451E-03    -163.311E-03     78.2048E-03    -164.457E-03     327.766E-03    -163.020E-03     71.3751E-03
             517     12.9983E-03     92.3576E-03    -18.5932E+06     98.0581E+06     85.8539E+06    -252.309E+03    -162.931E-03     326.247E-03    -163.316E-03     67.6487E-03    -164.162E-03     327.511E-03    -163.002E-03     60.8421E-03
             518     13.7632E-03     92.4284E-03    -11.6165E+06     104.963E+06     99.0450E+06    -204.088E+03    -162.409E-03     325.758E-03    -163.348E-03     57.2368E-03    -163.584E-03     326.976E-03    -162.989E-03     50.2912E-03
             519     14.5300E-03     92.4894E-03    -5.74938E+06     108.575E+06     107.666E+06     49.6235E+03    -162.134E-03     325.493E-03    -163.360E-03     35.1767E-03    -163.025E-03     326.438E-03    -162.971E-03     29.2784E-03
             520     764.369E-06     92.3114E-03    -146.487E+06    -301.965E+06    -142.372E+06    -192.591E+03    -163.437E-03     326.849E-03    -163.412E-03     13.4264E-03    -163.543E-03     325.776E-03    -163.474E-03     12.6850E-03
             521     1.52851E-03     92.3348E-03    -141.216E+06    -285.517E+06    -127.756E+06     54.5231E+03    -163.460E-03     326.903E-03    -163.443E-03     24.7021E-03    -163.621E-03     325.919E-03    -163.463E-03     23.3519E-03
             522     2.29290E-03     92.3718E-03    -133.459E+06    -262.716E+06    -106.525E+06     274.121E+03    -163.479E-03     326.950E-03    -163.472E-03     35.9464E-03    -163.723E-03     326.097E-03    -163.430E-03     33.9625E-03
             523     3.05736E-03     92.4226E-03    -123.929E+06    -237.527E+06    -83.3442E+06    -61.4697E+03    -163.573E-03     327.068E-03    -163.495E-03     46.6582E-03    -163.919E-03     326.373E-03    -163.388E-03     44.0283E-03
             524     3.82179E-03     92.4859E-03    -113.683E+06    -212.602E+06    -61.5001E+06     79.2248E+03    -163.734E-03     327.249E-03    -163.515E-03     56.5400E-03    -164.193E-03     326.728E-03    -163.349E-03     53.2883E-03
             525     4.58638E-03     92.5610E-03    -103.231E+06    -187.509E+06    -41.6828E+06     319.792E+03    -163.922E-03     327.453E-03    -163.531E-03     65.3413E-03    -164.503E-03     327.123E-03    -163.318E-03     61.4995E-03
             526     5.35088E-03     92.6455E-03    -93.0627E+06    -163.879E+06    -24.4605E+06     261.586E+03    -164.082E-03     327.623E-03    -163.541E-03     72.9928E-03    -164.785E-03     327.485E-03    -163.291E-03     68.6002E-03
             527     6.11531E-03     92.7390E-03    -83.6518E+06    -141.663E+06    -9.65367E+06     319.906E+03    -164.144E-03     327.683E-03    -163.539E-03     79.3001E-03    -164.966E-03     327.733E-03    -163.260E-03     74.4205E-03
             528     6.88026E-03     92.8389E-03    -74.7939E+06    -119.007E+06     3.66947E+06     408.370E+03    -164.230E-03     327.757E-03    -163.527E-03     84.2383E-03    -165.162E-03     327.990E-03    -163.227E-03     78.9397E-03
             529     7.64477E-03     92.9443E-03    -66.3107E+06    -96.6816E+06     15.7521E+06     303.196E+03    -164.300E-03     327.812E-03    -163.512E-03     87.8676E-03    -165.328E-03     328.216E-03    -163.197E-03     82.2127E-03
             530     8.40953E-03     93.0528E-03    -58.3487E+06    -74.5432E+06     26.3894E+06     57.9818E+03    -164.270E-03     327.763E-03    -163.493E-03     90.1163E-03    -165.375E-03     328.320E-03    -163.169E-03     84.1702E-03
             531     9.17436E-03     93.1629E-03    -50.8484E+06    -50.0924E+06     36.4634E+06     369.861E+03    -164.239E-03     327.710E-03    -163.470E-03     90.9352E-03    -165.410E-03     328.416E-03    -163.142E-03     84.7541E-03
             532     9.93900E-03     93.2731E-03    -43.6627E+06    -18.8884E+06     47.0463E+06     465.342E+03    -164.093E-03     327.536E-03    -163.443E-03     90.4133E-03    -165.324E-03     328.408E-03    -163.117E-03     84.0303E-03
             533     10.7041E-03     93.3815E-03    -36.6524E+06     14.4853E+06     58.3045E+06     344.251E+03    -163.752E-03     327.165E-03    -163.413E-03     88.3107E-03    -165.029E-03     328.195E-03    -163.089E-03     81.7593E-03
             534     11.4686E-03     93.4854E-03    -30.1448E+06     52.2101E+06     66.3099E+06     508.657E+03    -163.423E-03     326.780E-03    -163.357E-03     84.3410E-03    -164.730E-03     327.974E-03    -163.058E-03     77.6458E-03
             535     12.2333E-03     93.5836E-03    -23.4500E+06     86.5109E+06     76.8532E+06     323.177E+03    -163.147E-03     326.469E-03    -163.322E-03     78.2327E-03    -164.461E-03     327.784E-03    -163.029E-03     71.4077E-03
             536     12.9990E-03     93.6722E-03    -17.0474E+06     99.7092E+06     87.8216E+06     320.525E+03    -162.908E-03     326.238E-03    -163.330E-03     67.8955E-03    -164.137E-03     327.506E-03    -163.011E-03     61.1076E-03
             537     13.7634E-03     93.7422E-03    -11.6879E+06     104.404E+06     98.7885E+06    -25.9842E+03    -162.505E-03     325.862E-03    -163.357E-03     57.3601E-03    -163.679E-03     327.079E-03    -162.998E-03     50.4194E-03
             538     14.5266E-03     93.8026E-03    -5.49888E+06     107.956E+06     107.030E+06    -119.136E+03    -161.924E-03     325.287E-03    -163.363E-03     35.4166E-03    -162.813E-03     326.229E-03    -162.976E-03     29.5190E-03
             539     764.304E-06     93.6252E-03    -146.859E+06    -302.233E+06    -142.860E+06     461.173E+03    -163.321E-03     326.711E-03    -163.390E-03     13.3595E-03    -163.428E-03     325.638E-03    -163.453E-03     12.6319E-03
             540     1.52865E-03     93.6479E-03    -141.558E+06    -285.339E+06    -127.157E+06     74.0127E+03    -163.456E-03     326.848E-03    -163.392E-03     24.6825E-03    -163.620E-03     325.865E-03    -163.409E-03     23.3337E-03
             541     2.29297E-03     93.6854E-03    -133.304E+06    -262.976E+06    -106.603E+06     73.4144E+03    -163.526E-03     326.970E-03    -163.443E-03     35.9039E-03    -163.769E-03     326.115E-03    -163.402E-03     33.9122E-03
             542     3.05737E-03     93.7357E-03    -123.974E+06    -237.444E+06    -83.3339E+06     517.569E+03    -163.617E-03     327.104E-03    -163.486E-03     46.6355E-03    -163.964E-03     326.409E-03    -163.379E-03     44.0122E-03
             543     3.82185E-03     93.7996E-03    -113.603E+06    -212.229E+06    -61.0121E+06     143.113E+03    -163.751E-03     327.268E-03    -163.517E-03     56.5233E-03    -164.212E-03     326.748E-03    -163.349E-03     53.2712E-03
             544     4.58634E-03     93.8740E-03    -102.833E+06    -187.594E+06    -41.6158E+06    -27.5433E+03    -163.905E-03     327.436E-03    -163.531E-03     65.3355E-03    -164.484E-03     327.105E-03    -163.318E-03     61.4876E-03
             545     5.35087E-03     93.9594E-03    -93.0472E+06    -164.054E+06    -24.5967E+06     396.445E+03    -164.055E-03     327.592E-03    -163.537E-03     72.9816E-03    -164.758E-03     327.454E-03    -163.287E-03     68.5921E-03
             546     6.11557E-03     94.0521E-03    -83.8295E+06    -141.595E+06    -9.51907E+06     448.441E+03    -164.200E-03     327.738E-03    -163.538E-03     79.3307E-03    -165.023E-03     327.789E-03    -163.259E-03     74.4484E-03
             547     6.87994E-03     94.1526E-03    -74.6103E+06    -118.824E+06     3.90767E+06     237.333E+03    -164.277E-03     327.809E-03    -163.532E-03     84.3494E-03    -165.210E-03     328.044E-03    -163.232E-03     79.0424E-03
             548     7.64474E-03     94.2576E-03    -65.9249E+06    -96.6097E+06     15.8764E+06     212.866E+03    -164.283E-03     327.800E-03    -163.517E-03     87.8903E-03    -165.309E-03     328.204E-03    -163.202E-03     82.2330E-03
             549     8.40958E-03     94.3662E-03    -58.0728E+06    -74.2294E+06     26.6439E+06     371.775E+03    -164.298E-03     327.797E-03    -163.499E-03     90.0434E-03    -165.403E-03     328.355E-03    -163.174E-03     84.1007E-03
             550     9.17422E-03     94.4765E-03    -50.6013E+06    -50.1549E+06     36.5744E+06     256.529E+03    -164.249E-03     327.726E-03    -163.477E-03     90.8603E-03    -165.418E-03     328.432E-03    -163.148E-03     84.6754E-03
             551     9.93902E-03     94.5868E-03    -43.4755E+06    -18.8352E+06     47.1171E+06     343.022E+03    -164.033E-03     327.481E-03    -163.448E-03     90.2895E-03    -165.262E-03     328.353E-03    -163.122E-03     83.9047E-03
             552     10.7037E-03     94.6947E-03     -36.698E+06     14.5578E+06     58.2797E+06     456.697E+03    -163.803E-03     327.221E-03    -163.417E-03     88.2539E-03    -165.082E-03     328.251E-03    -163.094E-03     81.6976E-03
             553     11.4689E-03     94.7993E-03    -29.8738E+06     52.3573E+06     66.4206E+06     236.061E+03    -163.575E-03     326.943E-03    -163.368E-03     84.5262E-03    -164.883E-03     328.138E-03    -163.068E-03     77.8212E-03
             554     12.2338E-03     94.8974E-03    -23.7791E+06     86.2863E+06     76.5282E+06     445.884E+03    -163.104E-03     326.439E-03    -163.334E-03     78.3618E-03    -164.418E-03     327.753E-03    -163.042E-03     71.5484E-03
             555     12.9984E-03     94.9853E-03    -18.1152E+06     99.4430E+06     86.8117E+06     733.554E+03    -162.587E-03     325.915E-03    -163.328E-03     68.1624E-03    -163.820E-03     327.185E-03    -163.012E-03     61.3960E-03
             556     13.7634E-03     95.0572E-03    -11.5576E+06     105.373E+06     99.0925E+06     523.259E+03    -162.232E-03     325.574E-03    -163.342E-03     57.7428E-03    -163.409E-03     326.796E-03    -162.982E-03     50.8208E-03
             557     14.5299E-03     95.1159E-03    -5.72402E+06     108.566E+06     107.453E+06    -38.6635E+03    -162.148E-03     325.496E-03    -163.348E-03     35.6777E-03    -163.042E-03     326.443E-03    -162.959E-03     29.7716E-03
             558     764.349E-06     94.9379E-03    -146.738E+06    -302.568E+06    -143.272E+06    -183.237E+03    -163.400E-03     326.722E-03    -163.322E-03     13.5014E-03    -163.504E-03     325.647E-03    -163.387E-03     12.7641E-03
             559     1.52871E-03     94.9615E-03    -141.192E+06    -285.326E+06    -127.729E+06     209.140E+03    -163.417E-03     326.801E-03    -163.384E-03     24.6196E-03    -163.577E-03     325.818E-03    -163.404E-03     23.2771E-03
             560     2.29301E-03     94.9985E-03    -133.549E+06    -262.951E+06    -106.284E+06     150.731E+03    -163.533E-03     326.968E-03    -163.435E-03     35.9064E-03    -163.778E-03     326.113E-03    -163.391E-03     33.9162E-03
             561     3.05733E-03     95.0494E-03    -123.452E+06    -237.603E+06    -83.1124E+06    -44.7333E+03    -163.681E-03     327.168E-03    -163.487E-03     46.6445E-03    -164.025E-03     326.471E-03    -163.379E-03     44.0109E-03
             562     3.82179E-03     95.1127E-03    -112.959E+06    -211.915E+06    -60.9892E+06     296.633E+03    -163.788E-03     327.314E-03    -163.526E-03     56.4586E-03    -164.246E-03     326.796E-03    -163.360E-03     53.2083E-03
             563     4.58625E-03     95.1878E-03    -103.484E+06    -187.688E+06    -41.7918E+06     511.653E+03    -163.880E-03     327.422E-03    -163.542E-03     65.2693E-03    -164.462E-03     327.092E-03    -163.329E-03     61.4287E-03
             564     5.35091E-03     95.2724E-03    -93.5458E+06    -164.119E+06    -24.5865E+06     349.143E+03    -164.008E-03     327.551E-03    -163.543E-03     72.9366E-03    -164.714E-03     327.413E-03    -163.292E-03     68.5452E-03
             565     6.11544E-03     95.3660E-03    -83.4828E+06    -141.382E+06    -9.28708E+06     205.110E+03    -164.173E-03     327.711E-03    -163.538E-03     79.3357E-03    -164.996E-03     327.763E-03    -163.259E-03     74.4511E-03
             566     6.88019E-03     95.4660E-03    -74.4970E+06    -118.692E+06     3.96290E+06     264.608E+03    -164.289E-03     327.819E-03    -163.530E-03     84.3517E-03    -165.222E-03     328.055E-03    -163.230E-03     79.0450E-03
             567     7.64481E-03     95.5712E-03    -66.3257E+06    -96.5295E+06     15.8200E+06     298.060E+03    -164.371E-03     327.892E-03    -163.521E-03     87.9129E-03    -165.400E-03     328.297E-03    -163.206E-03     82.2517E-03
             568     8.40931E-03     95.6798E-03    -58.4136E+06    -74.3699E+06     26.4678E+06     352.237E+03    -164.358E-03     327.867E-03    -163.509E-03     90.0574E-03    -165.465E-03     328.426E-03    -163.184E-03     84.1080E-03
             569     9.17405E-03     95.7902E-03    -50.9402E+06    -49.8178E+06     36.5227E+06     360.659E+03    -164.191E-03     327.678E-03    -163.487E-03     90.8909E-03    -165.363E-03     328.386E-03    -163.158E-03     84.7076E-03
             570     9.93889E-03     95.9001E-03    -43.7586E+06    -18.9634E+06     46.9485E+06     267.827E+03    -164.007E-03     327.461E-03    -163.454E-03     90.3539E-03    -165.238E-03     328.333E-03    -163.128E-03     83.9712E-03
             571     10.7040E-03     96.0084E-03    -36.8434E+06     14.6260E+06     58.1506E+06     351.437E+03    -163.867E-03     327.291E-03    -163.423E-03     88.3902E-03    -165.147E-03     328.323E-03    -163.100E-03     81.8307E-03
             572     11.4684E-03     96.1130E-03    -30.7042E+06     52.5189E+06     66.0449E+06     551.437E+03    -163.601E-03     326.976E-03    -163.376E-03     84.5343E-03    -164.913E-03     328.175E-03    -163.077E-03     77.8321E-03
             573     12.2332E-03     96.2110E-03    -24.7332E+06     85.7431E+06     75.7583E+06     784.946E+03    -163.083E-03     326.425E-03    -163.342E-03     78.1301E-03    -164.400E-03     327.739E-03    -163.051E-03     71.3163E-03
             574     12.9987E-03     96.2988E-03    -18.0147E+06     100.312E+06     87.1069E+06     558.874E+03    -162.356E-03     325.686E-03    -163.330E-03     67.8493E-03    -163.590E-03     326.959E-03    -163.014E-03     61.0805E-03
             575     13.7643E-03     96.3699E-03    -11.7411E+06     105.903E+06     99.2995E+06    -84.3389E+03    -162.050E-03     325.383E-03    -163.333E-03     57.4214E-03    -163.228E-03     326.608E-03    -162.973E-03     50.4905E-03
             576     14.5283E-03     96.4297E-03    -5.80450E+06     108.496E+06     107.401E+06     35.6610E+03    -162.375E-03     325.715E-03    -163.341E-03     35.3388E-03    -163.267E-03     326.661E-03    -162.952E-03     29.4281E-03
             577     764.241E-06     96.2513E-03    -146.175E+06    -302.016E+06    -142.614E+06    -77.4119E+03    -163.595E-03     326.790E-03    -163.195E-03     13.4977E-03    -163.698E-03     325.716E-03    -163.258E-03     12.7602E-03
             578     1.52850E-03     96.2746E-03    -141.275E+06    -285.391E+06    -127.754E+06    -182.399E+03    -163.432E-03     326.846E-03    -163.413E-03     24.6188E-03    -163.593E-03     325.862E-03    -163.433E-03     23.2701E-03
             579     2.29303E-03     96.3118E-03    -132.888E+06    -262.710E+06    -106.350E+06    -45.3986E+03    -163.543E-03     326.999E-03    -163.456E-03     35.9158E-03    -163.784E-03     326.144E-03    -163.414E-03     33.9253E-03
             580     3.05739E-03     96.3630E-03    -123.684E+06    -237.819E+06    -83.3555E+06     239.483E+03    -163.686E-03     327.191E-03    -163.505E-03     46.5696E-03    -164.030E-03     326.494E-03    -163.398E-03     43.9411E-03
             581     3.82164E-03     96.4263E-03    -113.955E+06    -212.696E+06    -61.5678E+06     551.928E+03    -163.763E-03     327.303E-03    -163.539E-03     56.4410E-03    -164.224E-03     326.782E-03    -163.374E-03     53.1925E-03
             582     4.58624E-03     96.5011E-03    -103.291E+06    -187.300E+06    -41.4901E+06     432.379E+03    -163.881E-03     327.433E-03    -163.552E-03     65.3236E-03    -164.463E-03     327.104E-03    -163.338E-03     61.4793E-03
             583     5.35074E-03     96.5859E-03    -92.8754E+06    -163.809E+06    -24.1467E+06     198.168E+03    -164.033E-03     327.586E-03    -163.553E-03     72.9688E-03    -164.736E-03     327.448E-03    -163.302E-03     68.5730E-03
             584     6.11547E-03     96.6793E-03    -83.5753E+06    -141.609E+06    -9.34945E+06     424.773E+03    -164.154E-03     327.701E-03    -163.547E-03     79.3036E-03    -164.976E-03     327.751E-03    -163.267E-03     74.4235E-03
             585     6.88009E-03     96.7794E-03    -74.8935E+06    -118.480E+06     3.94746E+06     505.108E+03    -164.287E-03     327.825E-03    -163.537E-03     84.2629E-03    -165.221E-03     328.061E-03    -163.237E-03     78.9623E-03
             586     7.64466E-03     96.8849E-03    -66.3468E+06    -96.3121E+06     15.8893E+06     379.388E+03    -164.369E-03     327.897E-03    -163.528E-03     87.9249E-03    -165.399E-03     328.303E-03    -163.212E-03     82.2660E-03
             587     8.40933E-03     96.9936E-03    -58.3418E+06    -74.3473E+06     26.4826E+06     352.695E+03    -164.316E-03     327.828E-03    -163.512E-03     90.1478E-03    -165.423E-03     328.388E-03    -163.188E-03     84.1988E-03
             588     9.17411E-03     97.1035E-03    -50.8857E+06    -49.8678E+06     36.4458E+06     490.823E+03    -164.212E-03     327.700E-03    -163.488E-03     90.9522E-03    -165.384E-03     328.409E-03    -163.160E-03     84.7699E-03
             589     9.93901E-03     97.2137E-03    -43.9850E+06    -18.5110E+06     46.9402E+06      439.37E+03    -164.098E-03     327.557E-03    -163.459E-03     90.3735E-03    -165.332E-03     328.433E-03    -163.134E-03     83.9853E-03
             590     10.7035E-03     97.3221E-03    -37.2878E+06     14.1640E+06     57.6840E+06     529.840E+03    -163.917E-03     327.350E-03    -163.433E-03     88.3671E-03    -165.198E-03     328.381E-03    -163.111E-03     81.8038E-03
             591     11.4687E-03     97.4270E-03    -30.4834E+06     51.9576E+06     65.6648E+06     882.816E+03    -163.547E-03     326.931E-03    -163.384E-03     84.4953E-03    -164.857E-03     328.127E-03    -163.087E-03     77.7975E-03
             592     12.2335E-03     97.5247E-03    -23.9514E+06     86.5601E+06     76.4303E+06     570.285E+03    -163.070E-03     326.420E-03    -163.350E-03     78.1395E-03    -164.386E-03     327.737E-03    -163.059E-03     71.3170E-03
             593     12.9982E-03     97.6120E-03    -17.5894E+06     100.846E+06     87.6223E+06     238.116E+03    -162.537E-03     325.880E-03    -163.344E-03     67.3427E-03    -163.766E-03     327.151E-03    -163.026E-03     60.5662E-03
             594     13.7634E-03     97.6823E-03    -11.7879E+06     106.630E+06     99.5216E+06     510.743E+03    -162.156E-03     325.509E-03    -163.353E-03     57.4777E-03    -163.333E-03     326.734E-03    -162.993E-03     50.5740E-03
             595     14.5288E-03     97.7456E-03    -6.08387E+06     108.904E+06     107.585E+06     210.751E+03    -162.132E-03     325.489E-03    -163.356E-03     35.7075E-03    -163.027E-03     326.437E-03    -162.967E-03     29.8220E-03
             596     764.327E-06     97.5649E-03    -146.460E+06    -302.382E+06    -142.430E+06     268.998E+03    -163.580E-03     326.842E-03    -163.262E-03     13.6179E-03    -163.685E-03     325.767E-03    -163.323E-03     12.8817E-03
             597     1.52865E-03     97.5877E-03    -141.026E+06    -285.061E+06    -127.156E+06     284.640E+03    -163.519E-03     326.972E-03    -163.453E-03     24.5749E-03    -163.679E-03     325.989E-03    -163.471E-03     23.2339E-03
             598     2.29277E-03     97.6254E-03    -133.541E+06    -262.894E+06    -106.280E+06     380.692E+03    -163.554E-03     327.057E-03    -163.503E-03     35.9515E-03    -163.799E-03     326.202E-03    -163.459E-03     33.9691E-03
             599     3.05707E-03     97.6764E-03    -124.026E+06    -238.020E+06    -83.0883E+06     470.305E+03    -163.613E-03     327.147E-03    -163.535E-03     46.6214E-03    -163.959E-03     326.450E-03    -163.425E-03     43.9964E-03
             600     3.82177E-03     97.7396E-03    -113.357E+06    -212.341E+06    -61.1171E+06     47.4751E+03    -163.745E-03     327.297E-03    -163.552E-03     56.4179E-03    -164.204E-03     326.777E-03    -163.385E-03     53.1591E-03
             601     4.58623E-03     97.8146E-03    -102.790E+06    -187.610E+06    -41.5844E+06     191.979E+03    -163.893E-03     327.453E-03    -163.560E-03     65.2860E-03    -164.472E-03     327.122E-03    -163.347E-03     61.4374E-03
             602     5.35081E-03     97.8994E-03    -93.2481E+06    -164.046E+06    -24.3216E+06     736.248E+03    -164.057E-03     327.620E-03    -163.563E-03     72.9648E-03    -164.762E-03     327.483E-03    -163.312E-03     68.5749E-03
             603     6.11530E-03     97.9927E-03    -83.8917E+06    -141.442E+06    -9.30552E+06     587.607E+03    -164.198E-03     327.759E-03    -163.561E-03     79.2970E-03    -165.022E-03     327.810E-03    -163.281E-03     74.4151E-03
             604     6.87991E-03     98.0930E-03    -74.5844E+06    -118.402E+06     3.99174E+06     455.406E+03    -164.263E-03     327.812E-03    -163.550E-03     84.3581E-03    -165.196E-03     328.049E-03    -163.250E-03     79.0568E-03
             605     7.64463E-03     98.1985E-03    -66.2037E+06    -96.2981E+06     15.8811E+06     559.645E+03    -164.270E-03     327.802E-03    -163.532E-03     87.9814E-03    -165.299E-03     328.208E-03    -163.217E-03     82.3294E-03
             606     8.40946E-03     98.3069E-03    -58.3967E+06    -74.2342E+06     26.4755E+06     543.255E+03    -164.292E-03     327.803E-03    -163.511E-03     90.1347E-03    -165.400E-03     328.363E-03    -163.186E-03     84.1913E-03
             607     9.17418E-03     98.4172E-03    -50.9699E+06    -49.8756E+06     36.3739E+06     490.618E+03    -164.308E-03     327.798E-03    -163.490E-03     90.9043E-03    -165.481E-03     328.507E-03    -163.162E-03     84.7173E-03
             608     9.93868E-03     98.5273E-03    -43.8301E+06    -18.5960E+06     46.9252E+06     747.512E+03    -164.195E-03     327.663E-03    -163.468E-03     90.4181E-03    -165.429E-03     328.539E-03    -163.143E-03     84.0261E-03
             609     10.7036E-03     98.6360E-03    -37.0343E+06     14.2999E+06     57.9391E+06     765.017E+03    -163.912E-03     327.357E-03    -163.445E-03     88.4397E-03    -165.193E-03     328.389E-03    -163.122E-03     81.8783E-03
             610     11.4681E-03     98.7404E-03    -30.5023E+06     52.0882E+06     65.9000E+06     356.644E+03    -163.471E-03     326.864E-03    -163.393E-03     84.4611E-03    -164.781E-03     328.060E-03    -163.095E-03     77.7575E-03
             611     12.2333E-03     98.8382E-03    -23.9012E+06     86.6344E+06     76.4594E+06     578.271E+03    -163.045E-03     326.399E-03    -163.354E-03     78.1794E-03    -164.362E-03     327.717E-03    -163.063E-03     71.3565E-03
             612     12.9984E-03     98.9261E-03    -18.1393E+06     100.424E+06     87.1763E+06     584.929E+03    -162.835E-03     326.190E-03    -163.354E-03     67.5996E-03    -164.069E-03     327.462E-03    -163.038E-03     60.8122E-03
             613     13.7629E-03     98.9960E-03    -11.8647E+06     107.457E+06     99.9549E+06     412.293E+03    -162.423E-03     325.804E-03    -163.381E-03     57.4008E-03    -163.604E-03     327.034E-03    -163.020E-03     50.4677E-03
             614     14.5282E-03     99.0580E-03    -5.38277E+06     110.081E+06     108.474E+06     284.248E+03    -161.793E-03     325.176E-03    -163.382E-03     35.3265E-03    -162.688E-03     326.128E-03    -162.992E-03     29.4316E-03
             615     764.233E-06     98.8782E-03    -146.967E+06    -303.175E+06    -143.112E+06     385.830E+03    -163.628E-03     326.956E-03    -163.328E-03     13.6238E-03    -163.733E-03     325.878E-03    -163.391E-03     12.8987E-03
             616     1.52835E-03     98.9015E-03    -141.556E+06    -285.553E+06    -127.391E+06     569.445E+03    -163.510E-03     327.008E-03    -163.498E-03     24.6558E-03    -163.672E-03     326.023E-03    -163.516E-03     23.3188E-03
             617     2.29271E-03     98.9389E-03    -133.284E+06    -262.778E+06    -105.845E+06     516.453E+03    -163.530E-03     327.057E-03    -163.527E-03     36.0068E-03    -163.775E-03     326.203E-03    -163.482E-03     34.0225E-03
             618     3.05736E-03     98.9896E-03    -123.278E+06    -237.634E+06    -82.8616E+06     81.6037E+03    -163.620E-03     327.168E-03    -163.548E-03     46.6898E-03    -163.964E-03     326.471E-03    -163.439E-03     44.0588E-03
             619     3.82155E-03     99.0534E-03    -113.301E+06    -212.527E+06    -61.3589E+06     430.606E+03    -163.760E-03     327.323E-03    -163.563E-03     56.4185E-03    -164.218E-03     326.803E-03    -163.397E-03     53.1639E-03
             620     4.58607E-03     99.1277E-03    -103.531E+06    -187.878E+06    -41.5595E+06     778.877E+03    -163.907E-03     327.481E-03    -163.574E-03     65.2986E-03    -164.490E-03     327.150E-03    -163.360E-03     61.4560E-03
             621     5.35067E-03     99.2130E-03    -93.1032E+06    -164.054E+06    -24.2057E+06     404.333E+03    -164.057E-03     327.633E-03    -163.576E-03     73.0033E-03    -164.762E-03     327.495E-03    -163.324E-03     68.6095E-03
             622     6.11526E-03     99.3063E-03    -83.1979E+06    -141.433E+06    -9.25837E+06     467.327E+03    -164.182E-03     327.751E-03    -163.569E-03     79.3764E-03    -165.004E-03     327.802E-03    -163.290E-03     74.4934E-03
             623     6.87991E-03     99.4066E-03    -74.6421E+06    -118.653E+06     3.91518E+06     840.759E+03    -164.249E-03     327.805E-03    -163.556E-03     84.3894E-03    -165.183E-03     328.041E-03    -163.256E-03     79.0909E-03
             624     7.64469E-03     99.5118E-03    -66.3801E+06    -96.1064E+06     15.9211E+06     791.057E+03    -164.286E-03     327.824E-03    -163.538E-03     87.9106E-03    -165.316E-03     328.231E-03    -163.223E-03     82.2595E-03
             625     8.40936E-03     99.6206E-03    -58.4190E+06    -74.0869E+06     26.5462E+06     611.948E+03    -164.330E-03     327.849E-03    -163.519E-03     90.0813E-03    -165.437E-03     328.409E-03    -163.194E-03     84.1381E-03
             626     9.17397E-03     99.7309E-03    -51.1483E+06    -49.7503E+06     36.4179E+06     737.313E+03    -164.305E-03     327.804E-03    -163.499E-03     90.9394E-03    -165.479E-03     328.514E-03    -163.171E-03     84.7553E-03
             627     9.93877E-03     99.8412E-03    -44.1354E+06    -18.7110E+06     46.8458E+06     594.011E+03    -164.137E-03     327.611E-03    -163.474E-03     90.5394E-03    -165.373E-03     328.488E-03    -163.148E-03     84.1482E-03
             628     10.7034E-03     99.9497E-03    -36.9457E+06     14.4843E+06     58.1203E+06     620.403E+03    -163.821E-03     327.266E-03    -163.445E-03     88.5839E-03    -165.103E-03     328.300E-03    -163.122E-03     82.0271E-03
             629     11.4686E-03     100.054E-03    -30.4682E+06     52.6607E+06     66.1994E+06     834.386E+03    -163.490E-03     326.881E-03    -163.390E-03     84.7223E-03    -164.804E-03     328.081E-03    -163.091E-03     78.0270E-03
             630     12.2333E-03     100.152E-03    -24.4590E+06     86.2654E+06     76.0590E+06     593.674E+03    -163.140E-03     326.493E-03    -163.353E-03     78.3905E-03    -164.460E-03     327.812E-03    -163.063E-03     71.5644E-03
             631     12.9983E-03     100.240E-03    -17.7041E+06     100.854E+06     87.4418E+06     590.215E+03    -162.812E-03     326.167E-03    -163.356E-03     68.0418E-03    -164.048E-03     327.445E-03    -163.039E-03     61.2519E-03
             632     13.7628E-03     100.311E-03    -11.6149E+06     107.763E+06     99.9811E+06     538.787E+03    -162.362E-03     325.740E-03    -163.378E-03     58.0131E-03    -163.548E-03     326.977E-03    -163.018E-03     51.0772E-03
             633     14.5269E-03     100.371E-03    -5.38280E+06     110.272E+06     108.256E+06     230.113E+03    -161.728E-03     325.103E-03    -163.375E-03     36.1815E-03    -162.628E-03     326.061E-03    -162.986E-03     30.2868E-03
             634     764.103E-06     100.191E-03    -145.899E+06    -302.620E+06    -143.457E+06    -255.434E+03    -163.605E-03     327.047E-03    -163.442E-03     13.4670E-03    -163.705E-03     325.971E-03    -163.509E-03     12.7308E-03
             635     1.52851E-03     100.215E-03    -140.917E+06    -285.917E+06    -127.473E+06    -220.804E+03    -163.463E-03     326.986E-03    -163.523E-03     24.7001E-03    -163.621E-03     325.999E-03    -163.542E-03     23.3535E-03
             636     2.29290E-03     100.252E-03    -132.684E+06    -262.966E+06    -106.361E+06     129.592E+03    -163.573E-03     327.109E-03    -163.536E-03     35.9287E-03    -163.814E-03     326.253E-03    -163.494E-03     33.9375E-03
             637     3.05696E-03     100.304E-03    -123.942E+06    -238.144E+06    -83.6091E+06     791.972E+03    -163.617E-03     327.177E-03    -163.561E-03     46.5786E-03    -163.962E-03     326.480E-03    -163.454E-03     43.9530E-03
             638     3.82167E-03     100.366E-03    -113.921E+06    -212.820E+06    -61.1257E+06     703.676E+03    -163.716E-03     327.290E-03    -163.574E-03     56.4992E-03    -164.178E-03     326.769E-03    -163.406E-03     53.2495E-03
             639     4.58618E-03     100.442E-03    -102.807E+06    -187.623E+06    -41.1959E+06     265.613E+03    -163.932E-03     327.511E-03    -163.579E-03     65.4279E-03    -164.513E-03     327.180E-03    -163.364E-03     61.5791E-03
             640     5.35059E-03     100.526E-03    -92.9106E+06    -164.111E+06    -24.3622E+06     539.542E+03    -164.061E-03     327.641E-03    -163.580E-03     73.0589E-03    -164.765E-03     327.503E-03    -163.329E-03     68.6661E-03
             641     6.11530E-03     100.620E-03    -83.8896E+06    -141.836E+06    -9.54395E+06     836.504E+03    -164.164E-03     327.736E-03    -163.573E-03     79.4114E-03    -164.988E-03     327.787E-03    -163.293E-03     74.5338E-03
             642     6.87994E-03     100.720E-03    -74.5504E+06    -118.746E+06     4.03519E+06     747.022E+03    -164.282E-03     327.842E-03    -163.560E-03     84.3632E-03    -165.215E-03     328.077E-03    -163.260E-03     79.0617E-03
             643     7.64448E-03     100.825E-03    -65.8455E+06    -95.8832E+06     16.1587E+06     849.181E+03    -164.369E-03     327.916E-03    -163.547E-03     87.9694E-03    -165.398E-03     328.324E-03    -163.232E-03     82.3161E-03
             644     8.40914E-03     100.934E-03    -58.1892E+06    -74.0877E+06     26.6535E+06     1.05639E+06    -164.354E-03     327.885E-03    -163.532E-03     90.1396E-03    -165.461E-03     328.445E-03    -163.207E-03     84.2016E-03
             645     9.17396E-03     101.045E-03    -50.8441E+06    -49.8461E+06     36.5470E+06     1.03569E+06    -164.220E-03     327.729E-03    -163.508E-03     91.0011E-03    -165.393E-03     328.438E-03    -163.179E-03     84.8242E-03
             646     9.93866E-03     101.155E-03    -43.8399E+06    -18.0406E+06     47.2532E+06     941.112E+03    -164.021E-03     327.496E-03    -163.475E-03     90.5545E-03    -165.256E-03     328.374E-03    -163.149E-03     84.1764E-03
             647     10.7038E-03     101.263E-03    -37.4319E+06     14.3557E+06     57.8733E+06     678.484E+03    -163.796E-03     327.236E-03    -163.440E-03     88.4548E-03    -165.079E-03     328.269E-03    -163.117E-03     81.9013E-03
             648     11.4685E-03     101.367E-03    -30.6445E+06     52.4541E+06     65.8787E+06      608.16E+03    -163.525E-03     326.910E-03    -163.386E-03     84.5435E-03    -164.837E-03     328.109E-03    -163.088E-03     77.8435E-03
             649     12.2335E-03     101.466E-03    -23.8179E+06     87.0083E+06     76.3180E+06     628.472E+03    -163.117E-03     326.466E-03    -163.350E-03     78.2985E-03    -164.434E-03     327.787E-03    -163.060E-03     71.4734E-03
             650     12.9981E-03     101.553E-03    -17.9992E+06     100.521E+06     86.9544E+06     436.966E+03    -162.510E-03     325.852E-03    -163.342E-03     68.2475E-03    -163.747E-03     327.130E-03    -163.027E-03     61.4739E-03
             651     13.7637E-03     101.625E-03    -11.5188E+06     107.901E+06     100.161E+06     534.774E+03    -161.995E-03     325.343E-03    -163.349E-03     57.9189E-03    -163.179E-03     326.579E-03    -162.987E-03     51.0045E-03
             652     14.5304E-03     101.684E-03    -5.43205E+06     111.253E+06     108.679E+06     523.981E+03    -162.066E-03     325.412E-03    -163.346E-03     35.5984E-03    -162.964E-03     326.371E-03    -162.956E-03     29.7038E-03
             653     764.113E-06     101.506E-03    -146.325E+06    -301.773E+06    -141.486E+06    -290.677E+03    -163.530E-03     327.067E-03    -163.537E-03     13.4136E-03    -163.636E-03     325.993E-03    -163.595E-03     12.6809E-03
             654     1.52842E-03     101.528E-03    -140.872E+06    -285.780E+06    -127.208E+06     31.2501E+03    -163.516E-03     327.058E-03    -163.543E-03     24.6318E-03    -163.675E-03     326.072E-03    -163.560E-03     23.2859E-03
             655     2.29254E-03     101.566E-03    -133.735E+06    -264.012E+06    -106.818E+06     433.743E+03    -163.529E-03     327.083E-03    -163.554E-03     35.9877E-03    -163.773E-03     326.225E-03    -163.511E-03     33.9968E-03
             656     3.05714E-03     101.616E-03    -123.943E+06    -238.441E+06    -83.4261E+06     465.660E+03    -163.591E-03     327.157E-03    -163.566E-03     46.6421E-03    -163.937E-03     326.458E-03    -163.457E-03     44.0110E-03
             657     3.82161E-03     101.680E-03    -113.183E+06    -212.505E+06    -61.0190E+06     394.078E+03    -163.748E-03     327.323E-03    -163.575E-03     56.5676E-03    -164.207E-03     326.803E-03    -163.408E-03     53.3138E-03
             658     4.58606E-03     101.755E-03    -103.394E+06    -188.019E+06    -41.7674E+06     716.446E+03    -163.898E-03     327.477E-03    -163.579E-03     65.3873E-03    -164.480E-03     327.146E-03    -163.366E-03     61.5454E-03
             659     5.35075E-03     101.840E-03    -93.5141E+06    -164.439E+06    -24.3947E+06     864.428E+03    -164.061E-03     327.642E-03    -163.580E-03     73.0430E-03    -164.768E-03     327.503E-03    -163.328E-03     68.6541E-03
             660     6.11521E-03     101.933E-03    -83.5005E+06    -141.593E+06    -9.16710E+06     603.943E+03    -164.216E-03     327.792E-03    -163.576E-03     79.4165E-03    -165.039E-03     327.843E-03    -163.296E-03     74.5338E-03
             661     6.87984E-03     102.034E-03    -74.5592E+06    -118.926E+06     3.88796E+06     674.630E+03    -164.318E-03     327.885E-03    -163.567E-03     84.3820E-03    -165.251E-03     328.119E-03    -163.267E-03     79.0791E-03
             662     7.64457E-03     102.139E-03    -66.4472E+06    -96.4395E+06     15.7830E+06     1.06298E+06    -164.363E-03     327.918E-03    -163.555E-03     87.9959E-03    -165.393E-03     328.324E-03    -163.240E-03     82.3480E-03
             663     8.40916E-03     102.248E-03    -58.5596E+06    -74.0997E+06     26.5763E+06     1.22452E+06    -164.319E-03     327.856E-03    -163.537E-03     90.2043E-03    -165.428E-03     328.417E-03    -163.212E-03     84.2695E-03
             664     9.17381E-03     102.358E-03    -50.9867E+06    -49.5436E+06     36.6916E+06     1.09467E+06    -164.216E-03     327.727E-03    -163.512E-03     91.0482E-03    -165.390E-03     328.438E-03    -163.182E-03     84.8714E-03
             665     9.93883E-03     102.468E-03    -43.8199E+06    -18.2311E+06     47.1778E+06     1.14617E+06    -164.047E-03     327.525E-03    -163.478E-03     90.4441E-03    -165.281E-03     328.402E-03    -163.152E-03     84.0668E-03
             666     10.7035E-03     102.577E-03    -36.8689E+06     14.9147E+06     58.1993E+06     1.11670E+06    -163.841E-03     327.287E-03    -163.446E-03     88.3395E-03    -165.122E-03     328.321E-03    -163.123E-03     81.7882E-03
             667     11.4683E-03     102.682E-03    -30.6437E+06     52.9300E+06     66.2020E+06     737.114E+03    -163.471E-03     326.863E-03    -163.392E-03     84.5292E-03    -164.785E-03     328.064E-03    -163.094E-03     77.8315E-03
             668     12.2331E-03     102.779E-03    -24.6232E+06     87.3762E+06     76.4162E+06     379.087E+03    -162.924E-03     326.273E-03    -163.349E-03     78.3098E-03    -164.246E-03     327.597E-03    -163.058E-03     71.4861E-03
             669     12.9988E-03     102.867E-03    -18.0376E+06     101.484E+06     87.2614E+06     535.165E+03    -162.401E-03     325.733E-03    -163.332E-03     67.7244E-03    -163.636E-03     327.011E-03    -163.017E-03     60.9550E-03
             670     13.7641E-03     102.937E-03    -12.2510E+06     107.230E+06     99.1814E+06     453.153E+03    -162.195E-03     325.535E-03    -163.340E-03     57.3595E-03    -163.375E-03     326.764E-03    -162.981E-03     50.4433E-03
             671     14.5273E-03     102.999E-03    -6.12817E+06     111.233E+06     108.235E+06     386.958E+03    -162.140E-03     325.487E-03    -163.347E-03     35.2943E-03    -163.039E-03     326.445E-03    -162.958E-03     29.3951E-03
             672     764.304E-06     102.819E-03    -147.290E+06    -302.455E+06    -143.008E+06     585.098E+03    -163.554E-03     326.997E-03    -163.444E-03     13.4940E-03    -163.662E-03     325.924E-03    -163.507E-03     12.7624E-03
             673     1.52827E-03     102.842E-03    -141.674E+06    -286.133E+06    -127.039E+06     587.312E+03    -163.523E-03     327.045E-03    -163.521E-03     24.7389E-03    -163.686E-03     326.057E-03    -163.536E-03     23.4004E-03
             674     2.29282E-03     102.879E-03    -133.481E+06    -264.083E+06    -106.395E+06     169.181E+03    -163.489E-03     327.026E-03    -163.536E-03     36.0308E-03    -163.732E-03     326.166E-03    -163.492E-03     34.0375E-03
             675     3.05727E-03     102.930E-03    -123.751E+06    -238.529E+06    -83.6287E+06     333.170E+03    -163.634E-03     327.182E-03    -163.548E-03     46.7093E-03    -163.978E-03     326.483E-03    -163.441E-03     44.0786E-03
             676     3.82152E-03     102.994E-03    -113.873E+06    -212.963E+06    -61.4261E+06     827.852E+03    -163.808E-03     327.380E-03    -163.572E-03     56.5997E-03    -164.269E-03     326.859E-03    -163.405E-03     53.3511E-03
             677     4.58612E-03     103.068E-03    -103.401E+06    -188.099E+06    -41.4431E+06     771.676E+03    -163.923E-03     327.509E-03    -163.586E-03     65.3819E-03    -164.505E-03     327.177E-03    -163.371E-03     61.5390E-03
             678     5.35063E-03     103.153E-03    -92.9053E+06    -164.398E+06    -24.1380E+06     601.061E+03    -164.072E-03     327.660E-03    -163.588E-03     73.0181E-03    -164.776E-03     327.520E-03    -163.335E-03     68.6262E-03
             679     6.11525E-03     103.247E-03    -83.7166E+06    -141.767E+06    -9.41867E+06     916.127E+03    -164.233E-03     327.817E-03    -163.583E-03     79.3765E-03    -165.057E-03     327.867E-03    -163.304E-03     74.4991E-03
             680     6.87981E-03     103.347E-03    -75.1597E+06    -119.002E+06     3.73870E+06     1.04176E+06    -164.338E-03     327.914E-03    -163.576E-03     84.3901E-03    -165.274E-03     328.150E-03    -163.276E-03     79.0913E-03
             681     7.64428E-03     103.453E-03    -66.5896E+06    -97.0124E+06     15.5967E+06     1.03782E+06    -164.329E-03     327.893E-03    -163.563E-03     87.9502E-03    -165.359E-03     328.296E-03    -163.248E-03     82.2993E-03
             682     8.40918E-03     103.561E-03    -58.3967E+06    -74.0839E+06     26.5727E+06     1.10757E+06    -164.284E-03     327.825E-03    -163.542E-03     90.1321E-03    -165.392E-03     328.386E-03    -163.217E-03     84.1950E-03
             683     9.17403E-03     103.672E-03    -50.8445E+06    -49.4787E+06     36.7959E+06     1.05368E+06    -164.239E-03     327.755E-03    -163.516E-03     90.9775E-03    -165.412E-03     328.465E-03    -163.186E-03     84.8010E-03
             684     9.93848E-03     103.782E-03    -43.7354E+06    -18.6076E+06     47.1784E+06     1.12135E+06    -164.087E-03     327.572E-03    -163.485E-03     90.5104E-03    -165.321E-03     328.447E-03    -163.158E-03     84.1311E-03
             685     10.7034E-03     103.891E-03    -36.9864E+06     15.1228E+06     58.2655E+06     1.36630E+06    -163.798E-03     327.249E-03    -163.451E-03     88.5614E-03    -165.081E-03     328.285E-03    -163.128E-03     82.0172E-03
             686     11.4684E-03     103.995E-03    -30.4717E+06     53.3688E+06     66.6643E+06     1.54017E+06    -163.398E-03     326.793E-03    -163.394E-03     84.5772E-03    -164.713E-03     327.995E-03    -163.094E-03     77.8914E-03
             687     12.2337E-03     104.093E-03    -24.4250E+06     88.4057E+06     77.2476E+06     1.20130E+06    -162.931E-03     326.281E-03    -163.350E-03     78.1399E-03    -164.256E-03     327.609E-03    -163.057E-03     71.3246E-03
             688     12.9983E-03     104.180E-03    -18.6458E+06     101.809E+06     86.9159E+06     332.738E+03    -162.620E-03     325.957E-03    -163.336E-03     67.6365E-03    -163.859E-03     327.239E-03    -163.022E-03     60.8511E-03
             689     13.7630E-03     104.251E-03    -12.2553E+06     107.149E+06     98.9037E+06     426.837E+03    -162.268E-03     325.620E-03    -163.352E-03     57.6326E-03    -163.450E-03     326.852E-03    -162.995E-03     50.7110E-03
             690     14.5294E-03     104.313E-03    -6.05021E+06     111.930E+06     108.686E+06     314.214E+03    -161.962E-03     325.320E-03    -163.358E-03     35.5672E-03    -162.864E-03     326.283E-03    -162.968E-03     29.6762E-03
             691     764.181E-06     104.133E-03    -146.849E+06    -302.894E+06    -143.492E+06    -154.977E+03    -163.478E-03     326.877E-03    -163.399E-03     13.5214E-03    -163.583E-03     325.802E-03    -163.465E-03     12.7810E-03
             692     1.52867E-03     104.156E-03    -141.354E+06    -286.746E+06    -127.711E+06     269.095E+03    -163.480E-03     326.942E-03    -163.461E-03     24.6465E-03    -163.640E-03     325.952E-03    -163.479E-03     23.2970E-03
             693     2.29284E-03     104.193E-03    -133.438E+06    -263.947E+06    -106.274E+06     513.918E+03    -163.586E-03     327.090E-03    -163.505E-03     35.9365E-03    -163.829E-03     326.231E-03    -163.460E-03     33.9486E-03
             694     3.05711E-03     104.244E-03    -124.168E+06    -238.916E+06    -83.4656E+06     436.396E+03    -163.690E-03     327.237E-03    -163.548E-03     46.6671E-03    -164.035E-03     326.536E-03    -163.438E-03     44.0382E-03
             695     3.82173E-03     104.307E-03    -113.514E+06    -213.143E+06    -61.2354E+06     529.213E+03    -163.811E-03     327.388E-03    -163.577E-03     56.5162E-03    -164.270E-03     326.865E-03    -163.410E-03     53.2635E-03
             696     4.58604E-03     104.382E-03    -103.044E+06    -188.206E+06    -41.5309E+06     718.935E+03    -163.978E-03     327.572E-03    -163.594E-03     65.3343E-03    -164.559E-03     327.239E-03    -163.380E-03     61.4890E-03
             697     5.35052E-03     104.467E-03    -93.6048E+06    -164.895E+06    -24.6497E+06     1.07602E+06    -164.114E-03     327.715E-03    -163.601E-03     73.0010E-03    -164.820E-03     327.575E-03    -163.350E-03     68.6123E-03
             698     6.11510E-03     104.560E-03    -84.1385E+06    -141.955E+06    -9.54462E+06     1.15476E+06    -164.228E-03     327.828E-03    -163.599E-03     79.3692E-03    -165.053E-03     327.878E-03    -163.319E-03     74.4940E-03
             699     6.87966E-03     104.661E-03    -74.9090E+06    -119.010E+06     3.88563E+06     1.12425E+06    -164.295E-03     327.883E-03    -163.588E-03     84.3598E-03    -165.230E-03     328.118E-03    -163.288E-03     79.0630E-03
             700     7.64448E-03     104.766E-03    -66.5399E+06    -96.8756E+06     15.7299E+06     1.01850E+06    -164.329E-03     327.900E-03    -163.572E-03     87.9378E-03    -165.359E-03     328.305E-03    -163.256E-03     82.2846E-03
             701     8.40900E-03     104.875E-03    -58.6892E+06    -74.3672E+06     26.3572E+06     1.03449E+06    -164.319E-03     327.869E-03    -163.550E-03     90.1264E-03    -165.428E-03     328.430E-03    -163.226E-03     84.1865E-03
             702     9.17365E-03     104.985E-03    -51.2611E+06    -49.6302E+06     36.5105E+06     1.19315E+06    -164.212E-03     327.736E-03    -163.524E-03     90.9774E-03    -165.386E-03     328.446E-03    -163.195E-03     84.8050E-03
             703     9.93873E-03     105.096E-03    -44.1655E+06    -18.7664E+06     47.0716E+06     1.31792E+06    -164.034E-03     327.524E-03    -163.490E-03     90.4793E-03    -165.269E-03     328.399E-03    -163.163E-03     84.1054E-03
             704     10.7036E-03     105.204E-03    -37.4610E+06     14.7591E+06     57.9141E+06     1.50144E+06    -163.765E-03     327.218E-03    -163.453E-03     88.3691E-03    -165.048E-03     328.253E-03    -163.131E-03     81.8267E-03
             705     11.4685E-03     105.309E-03    -30.8929E+06     53.4950E+06     66.1926E+06     1.45479E+06    -163.410E-03     326.804E-03    -163.394E-03     84.3675E-03    -164.725E-03     328.008E-03    -163.096E-03     77.6807E-03
             706     12.2331E-03     105.406E-03    -24.4381E+06     88.7310E+06     76.9969E+06     1.48930E+06    -163.042E-03     326.397E-03    -163.355E-03     78.0063E-03    -164.365E-03     327.725E-03    -163.063E-03     71.1897E-03
             707     12.9986E-03     105.494E-03    -18.2284E+06     102.857E+06     88.2574E+06     1.01499E+06    -162.686E-03     326.039E-03    -163.352E-03     67.7733E-03    -163.928E-03     327.324E-03    -163.034E-03     60.9912E-03
             708     13.7635E-03     105.565E-03    -12.0451E+06     108.057E+06     100.290E+06     13.8462E+03    -162.267E-03     325.637E-03    -163.370E-03     57.3746E-03    -163.451E-03     326.871E-03    -163.008E-03     50.4330E-03
             709     14.5278E-03     105.625E-03    -5.87855E+06     112.280E+06     108.716E+06    -99.4406E+03    -161.929E-03     325.298E-03    -163.369E-03     35.2208E-03    -162.829E-03     326.261E-03    -162.980E-03     29.3143E-03
             710     764.319E-06     105.446E-03    -146.922E+06    -303.192E+06    -142.363E+06     575.692E+03    -163.351E-03     326.860E-03    -163.509E-03     13.4058E-03    -163.457E-03     325.781E-03    -163.568E-03     12.6856E-03
             711     1.52849E-03     105.469E-03    -141.684E+06    -287.077E+06    -127.399E+06     475.133E+03    -163.499E-03     326.958E-03    -163.460E-03     24.5697E-03    -163.660E-03     325.967E-03    -163.475E-03     23.2235E-03
             712     2.29288E-03     105.506E-03    -133.513E+06    -264.290E+06    -106.424E+06     373.609E+03    -163.627E-03     327.139E-03    -163.512E-03     35.9077E-03    -163.869E-03     326.278E-03    -163.467E-03     33.9156E-03
             713     3.05717E-03     105.557E-03    -123.811E+06    -238.824E+06    -83.3126E+06     532.386E+03    -163.727E-03     327.291E-03    -163.564E-03     46.6064E-03    -164.072E-03     326.590E-03    -163.454E-03     43.9771E-03
             714     3.82139E-03     105.621E-03    -113.786E+06    -213.638E+06    -61.5282E+06     758.170E+03    -163.821E-03     327.417E-03    -163.595E-03     56.4991E-03    -164.281E-03     326.892E-03    -163.428E-03     53.2475E-03
             715     4.58599E-03     105.696E-03    -103.637E+06    -188.728E+06    -41.8093E+06     1.03490E+06    -163.970E-03     327.580E-03    -163.610E-03     65.3593E-03    -164.552E-03     327.246E-03    -163.395E-03     61.5176E-03
             716     5.35050E-03     105.781E-03    -93.4403E+06    -165.044E+06    -24.5026E+06     954.347E+03    -164.149E-03     327.767E-03    -163.617E-03     73.0234E-03    -164.854E-03     327.625E-03    -163.365E-03     68.6315E-03
             717     6.11494E-03     105.874E-03    -83.7015E+06    -142.296E+06    -9.48465E+06     1.11054E+06    -164.248E-03     327.864E-03    -163.616E-03     79.3801E-03    -165.070E-03     327.911E-03    -163.336E-03     74.5026E-03
             718     6.87966E-03     105.974E-03    -74.9286E+06    -119.258E+06     3.82109E+06     1.34400E+06    -164.306E-03     327.911E-03    -163.605E-03     84.2897E-03    -165.240E-03     328.144E-03    -163.304E-03     78.9942E-03
             719     7.64421E-03     106.080E-03    -66.6706E+06    -96.7424E+06     15.7932E+06     1.40483E+06    -164.351E-03     327.940E-03    -163.589E-03     87.7839E-03    -165.382E-03     328.344E-03    -163.273E-03     82.1345E-03
             720     8.40901E-03     106.189E-03    -58.9316E+06    -74.1878E+06     26.5175E+06     1.21168E+06    -164.320E-03     327.889E-03    -163.569E-03     89.9497E-03    -165.431E-03     328.450E-03    -163.243E-03     84.0091E-03
             721     9.17381E-03     106.299E-03    -51.5947E+06    -49.9459E+06     36.4736E+06     1.41275E+06    -164.202E-03     327.743E-03    -163.541E-03     90.7842E-03    -165.377E-03     328.452E-03    -163.212E-03     84.6100E-03
             722     9.93841E-03     106.409E-03    -44.5396E+06    -18.8209E+06     46.8936E+06     1.49128E+06    -164.023E-03     327.528E-03    -163.505E-03     90.2962E-03    -165.258E-03     328.402E-03    -163.179E-03     83.9246E-03
             723     10.7032E-03     106.518E-03    -37.6153E+06     14.4678E+06     57.7772E+06     1.35686E+06    -163.773E-03     327.241E-03    -163.468E-03     88.1580E-03    -165.054E-03     328.273E-03    -163.145E-03     81.6122E-03
             724     11.4681E-03     106.622E-03    -30.8899E+06     53.4893E+06     65.9365E+06     1.61307E+06    -163.416E-03     326.825E-03    -163.408E-03     84.2084E-03    -164.730E-03     328.027E-03    -163.111E-03     77.5223E-03
             725     12.2335E-03     106.720E-03    -24.5372E+06     89.2680E+06     76.9003E+06     1.13872E+06    -163.088E-03     326.458E-03    -163.369E-03     78.0240E-03    -164.413E-03     327.789E-03    -163.079E-03     71.2029E-03
             726     12.9978E-03     106.808E-03    -18.1639E+06     103.835E+06     88.8255E+06     840.234E+03    -162.635E-03     326.004E-03    -163.369E-03     67.5721E-03    -163.877E-03     327.292E-03    -163.049E-03     60.7944E-03
             727     13.7630E-03     106.879E-03    -11.6857E+06     109.293E+06     100.858E+06     623.372E+03    -162.136E-03     325.516E-03    -163.380E-03     57.5489E-03    -163.322E-03     326.755E-03    -163.017E-03     50.6314E-03
             728     14.5281E-03     106.940E-03    -5.57044E+06     112.511E+06     108.783E+06     49.1833E+03    -161.882E-03     325.255E-03    -163.373E-03     35.7571E-03    -162.784E-03     326.221E-03    -162.984E-03     29.8578E-03
             729     764.178E-06     106.759E-03    -147.692E+06    -304.421E+06    -143.940E+06     416.343E+03    -163.491E-03     326.921E-03    -163.430E-03     13.4659E-03    -163.597E-03     325.839E-03    -163.494E-03     12.7329E-03
             730     1.52854E-03     106.783E-03    -141.437E+06    -287.202E+06    -127.612E+06     451.959E+03    -163.569E-03     327.066E-03    -163.497E-03     24.7004E-03    -163.728E-03     326.074E-03    -163.514E-03     23.3569E-03
             731     2.29267E-03     106.820E-03    -133.632E+06    -264.541E+06    -106.622E+06     606.124E+03    -163.644E-03     327.198E-03    -163.554E-03     35.8348E-03    -163.887E-03     326.336E-03    -163.510E-03     33.8504E-03
             732     3.05704E-03     106.871E-03    -124.401E+06    -239.325E+06    -83.7165E+06     698.286E+03    -163.690E-03     327.284E-03    -163.594E-03     46.5475E-03    -164.036E-03     326.581E-03    -163.485E-03     43.9216E-03
             733     3.82151E-03     106.934E-03    -113.983E+06    -213.894E+06    -61.4280E+06     732.473E+03    -163.828E-03     327.445E-03    -163.617E-03     56.4991E-03    -164.288E-03     326.919E-03    -163.449E-03     53.2449E-03
             734     4.58593E-03     107.009E-03    -103.132E+06    -189.012E+06    -41.6740E+06     748.218E+03    -163.995E-03     327.625E-03    -163.630E-03     65.3736E-03    -164.575E-03     327.289E-03    -163.415E-03     61.5261E-03
             735     5.35035E-03     107.095E-03    -93.1251E+06    -165.334E+06    -24.5467E+06     1.03201E+06    -164.150E-03     327.786E-03    -163.635E-03     72.9940E-03    -164.853E-03     327.642E-03    -163.383E-03     68.6030E-03
             736     6.11497E-03     107.188E-03    -83.9125E+06    -142.721E+06    -9.62195E+06     1.24694E+06    -164.288E-03     327.923E-03    -163.635E-03     79.2881E-03    -165.111E-03     327.969E-03    -163.354E-03     74.4089E-03
             737     6.87941E-03     107.288E-03    -74.6637E+06    -119.704E+06     3.85374E+06     1.42350E+06    -164.378E-03     328.006E-03    -163.628E-03     84.2399E-03    -165.310E-03     328.237E-03    -163.327E-03     78.9395E-03
             738     7.64402E-03     107.393E-03    -66.0885E+06    -96.8867E+06     15.9958E+06     1.58025E+06    -164.401E-03     328.017E-03    -163.616E-03     87.7578E-03    -165.429E-03     328.421E-03    -163.300E-03     82.1030E-03
             739     8.40859E-03     107.502E-03    -58.1726E+06    -74.1799E+06     26.9178E+06     1.78495E+06    -164.347E-03     327.945E-03    -163.598E-03     89.8428E-03    -165.454E-03     328.504E-03    -163.271E-03     83.9039E-03
             740     9.17325E-03     107.612E-03    -50.8084E+06    -50.3050E+06     36.7966E+06     1.80313E+06    -164.240E-03     327.811E-03    -163.571E-03     90.6343E-03    -165.411E-03     328.517E-03    -163.241E-03     84.4596E-03
             741     9.93819E-03     107.723E-03    -43.9659E+06    -18.5926E+06     47.2229E+06     1.77479E+06    -164.027E-03     327.562E-03    -163.535E-03     90.1470E-03    -165.260E-03     328.435E-03    -163.208E-03     83.7782E-03
             742     10.7032E-03     107.831E-03    -37.3008E+06     14.6728E+06     58.2860E+06     1.69661E+06    -163.741E-03     327.237E-03    -163.496E-03     88.0529E-03    -165.021E-03     328.268E-03    -163.172E-03     81.5126E-03
             743     11.4680E-03     107.936E-03    -30.6179E+06     53.4697E+06     66.1688E+06     1.26489E+06    -163.464E-03     326.898E-03    -163.434E-03     84.1411E-03    -164.777E-03     328.100E-03    -163.136E-03     77.4439E-03
             744     12.2326E-03     108.033E-03    -23.9254E+06     90.0184E+06     76.9393E+06     1.20167E+06    -163.017E-03     326.408E-03    -163.391E-03     77.9743E-03    -164.339E-03     327.741E-03    -163.102E-03     71.1586E-03
             745     12.9980E-03     108.122E-03    -17.6877E+06     104.483E+06     88.3144E+06     850.505E+03    -162.448E-03     325.827E-03    -163.379E-03     67.5629E-03    -163.687E-03     327.118E-03    -163.063E-03     60.7938E-03
             746     13.7630E-03     108.191E-03    -11.8035E+06     110.085E+06     100.555E+06     528.540E+03    -161.949E-03     325.329E-03    -163.380E-03     57.4690E-03    -163.135E-03     326.573E-03    -163.020E-03     50.5525E-03
             747     14.5289E-03     108.253E-03    -5.86329E+06     113.118E+06     109.158E+06     423.040E+03    -161.794E-03     325.164E-03    -163.370E-03     35.4932E-03    -162.698E-03     326.132E-03    -162.979E-03     29.6072E-03
             748     764.272E-06     108.072E-03    -147.202E+06    -304.187E+06    -143.711E+06    -387.702E+03    -163.823E-03     327.093E-03    -163.270E-03     13.3556E-03    -163.927E-03     326.011E-03    -163.334E-03     12.6149E-03
             749     1.52838E-03     108.096E-03    -142.232E+06    -287.860E+06    -128.625E+06     56.2487E+03    -163.562E-03     327.123E-03    -163.562E-03     24.6848E-03    -163.723E-03     326.130E-03    -163.581E-03     23.3353E-03
             750     2.29259E-03     108.134E-03    -134.158E+06    -265.247E+06    -107.173E+06     541.719E+03    -163.612E-03     327.202E-03    -163.590E-03     35.9490E-03    -163.855E-03     326.338E-03    -163.547E-03     33.9600E-03
             751     3.05688E-03     108.184E-03    -124.129E+06    -239.190E+06     -83.496E+06     581.585E+03    -163.726E-03     327.347E-03    -163.620E-03     46.6110E-03    -164.072E-03     326.644E-03    -163.511E-03     43.9785E-03
             752     3.82136E-03     108.248E-03    -113.596E+06    -214.050E+06    -61.4543E+06     455.529E+03    -163.869E-03     327.514E-03    -163.645E-03     56.4742E-03    -164.327E-03     326.987E-03    -163.477E-03     53.2144E-03
             753     4.58570E-03     108.323E-03    -103.504E+06    -189.642E+06    -42.1247E+06     758.900E+03    -164.022E-03     327.680E-03    -163.659E-03     65.2967E-03    -164.601E-03     327.342E-03    -163.444E-03     61.4484E-03
             754     5.35029E-03     108.408E-03    -93.4583E+06    -165.794E+06    -24.8312E+06     983.612E+03    -164.174E-03     327.838E-03    -163.664E-03     72.9525E-03    -164.877E-03     327.693E-03    -163.413E-03     68.5586E-03
             755     6.11466E-03     108.502E-03    -83.5990E+06    -142.934E+06    -9.58946E+06     1.04455E+06    -164.339E-03     328.004E-03    -163.665E-03     79.2388E-03    -165.161E-03     328.050E-03    -163.385E-03     74.3503E-03
             756     6.87925E-03     108.602E-03    -74.5982E+06    -120.184E+06     3.68209E+06     1.18628E+06    -164.409E-03     328.070E-03    -163.660E-03     84.1316E-03    -165.341E-03     328.299E-03    -163.359E-03     78.8225E-03
             757     7.64382E-03     108.708E-03    -65.9564E+06    -97.3616E+06     15.8757E+06     1.44461E+06    -164.410E-03     328.057E-03    -163.648E-03     87.7007E-03    -165.437E-03     328.458E-03    -163.331E-03     82.0436E-03
             758     8.40846E-03     108.816E-03    -57.8993E+06    -74.9964E+06     26.7159E+06     1.88043E+06    -164.408E-03     328.038E-03    -163.629E-03     89.8313E-03    -165.513E-03     328.593E-03    -163.303E-03     83.8905E-03
             759     9.17317E-03     108.926E-03    -50.3643E+06    -50.4109E+06     36.8472E+06     2.01939E+06    -164.329E-03     327.935E-03    -163.606E-03     90.5890E-03    -165.498E-03     328.639E-03    -163.276E-03     84.4109E-03
             760     9.93772E-03     109.036E-03    -43.0765E+06    -18.6818E+06     47.4835E+06     2.03475E+06    -164.074E-03     327.647E-03    -163.573E-03     89.9334E-03    -165.302E-03     328.518E-03    -163.246E-03     83.5601E-03
             761     10.7025E-03     109.145E-03    -36.0298E+06     14.8859E+06     58.7989E+06     2.13208E+06    -163.750E-03     327.284E-03    -163.534E-03     87.8435E-03    -165.024E-03     328.313E-03    -163.210E-03     81.3048E-03
             762     11.4675E-03     109.249E-03    -30.0598E+06     54.3044E+06     67.0702E+06     1.83712E+06    -163.363E-03     326.833E-03    -163.469E-03     84.0765E-03    -164.675E-03     328.036E-03    -163.169E-03     77.3914E-03
             763     12.2326E-03     109.348E-03    -24.4646E+06     90.3644E+06     77.0360E+06     1.30708E+06    -162.784E-03     326.196E-03    -163.412E-03     77.9379E-03    -164.108E-03     327.531E-03    -163.122E-03     71.1349E-03
             764     12.9977E-03     109.434E-03    -18.0630E+06     104.928E+06     87.7513E+06     1.15253E+06    -162.264E-03     325.647E-03    -163.383E-03     67.5852E-03    -163.503E-03     326.939E-03    -163.070E-03     60.8392E-03
             765     13.7632E-03     109.506E-03    -11.8326E+06     110.860E+06     100.546E+06     852.631E+03    -161.977E-03     325.358E-03    -163.381E-03     57.5045E-03    -163.163E-03     326.604E-03    -163.022E-03     50.6034E-03
             766     14.5275E-03     109.566E-03    -5.75525E+06     114.100E+06     109.642E+06     312.627E+03    -161.735E-03     325.106E-03    -163.372E-03     35.6705E-03    -162.640E-03     326.078E-03    -162.981E-03     29.7869E-03
             767     763.967E-06     109.387E-03    -147.347E+06    -304.020E+06    -143.641E+06     451.891E+03    -163.815E-03     327.256E-03    -163.442E-03     13.3629E-03    -163.920E-03     326.176E-03    -163.505E-03     12.6257E-03
             768     1.52812E-03     109.409E-03    -142.414E+06    -287.801E+06    -128.554E+06     131.513E+03    -163.532E-03     327.155E-03    -163.623E-03     24.6246E-03    -163.694E-03     326.162E-03    -163.642E-03     23.2708E-03
             769     2.29273E-03     109.447E-03    -134.308E+06    -265.398E+06    -107.345E+06    -56.5716E+03    -163.576E-03     327.194E-03    -163.617E-03     35.9753E-03    -163.820E-03     326.330E-03    -163.575E-03     33.9783E-03
             770     3.05701E-03     109.498E-03    -124.336E+06    -239.753E+06    -84.2378E+06     239.152E+03    -163.776E-03     327.415E-03    -163.639E-03     46.6378E-03    -164.121E-03     326.711E-03    -163.532E-03     43.9997E-03
             771     3.82111E-03     109.562E-03    -114.094E+06    -214.323E+06    -61.9494E+06     544.281E+03    -163.950E-03     327.623E-03    -163.673E-03     56.5486E-03    -164.409E-03     327.096E-03    -163.506E-03     53.2873E-03
             772     4.58566E-03     109.637E-03    -103.792E+06    -189.820E+06    -42.3455E+06     484.721E+03    -164.113E-03     327.810E-03    -163.697E-03     65.2927E-03    -164.694E-03     327.472E-03    -163.483E-03     61.4348E-03
             773     5.34994E-03     109.722E-03    -93.5107E+06    -166.089E+06    -25.1630E+06     595.904E+03    -164.268E-03     327.978E-03    -163.711E-03     72.8180E-03    -164.971E-03     327.833E-03    -163.460E-03     68.4112E-03
             774     6.11452E-03     109.815E-03    -84.0494E+06    -143.373E+06    -10.1495E+06     856.415E+03    -164.348E-03     328.062E-03    -163.713E-03     79.0818E-03    -165.171E-03     328.106E-03    -163.434E-03     74.1872E-03
             775     6.87888E-03     109.916E-03    -74.9200E+06    -120.432E+06     3.32891E+06     959.737E+03    -164.390E-03     328.094E-03    -163.704E-03     83.9887E-03    -165.322E-03     328.322E-03    -163.404E-03     78.6732E-03
             776     7.64346E-03     110.021E-03    -66.4521E+06    -98.0306E+06     15.2694E+06     1.16817E+06    -164.438E-03     328.125E-03    -163.687E-03     87.6021E-03    -165.464E-03     328.523E-03    -163.372E-03     81.9391E-03
             777     8.40813E-03     110.130E-03     -58.304E+06    -75.8061E+06     26.0561E+06     1.43282E+06    -164.455E-03     328.124E-03    -163.669E-03     89.6855E-03    -165.559E-03     328.676E-03    -163.344E-03     83.7354E-03
             778     9.17258E-03     110.240E-03    -50.5579E+06    -50.9100E+06     36.4029E+06     1.69492E+06    -164.329E-03     327.974E-03    -163.645E-03     90.4370E-03    -165.497E-03     328.676E-03    -163.316E-03     84.2552E-03
             779     9.93734E-03     110.350E-03    -43.4783E+06    -19.1202E+06     47.1344E+06     2.06717E+06    -164.082E-03     327.692E-03    -163.610E-03     89.9530E-03    -165.311E-03     328.562E-03    -163.284E-03     83.5804E-03
             780     10.7022E-03     110.458E-03    -36.9387E+06     14.3737E+06     58.1439E+06     2.42297E+06    -163.741E-03     327.309E-03    -163.568E-03     88.0256E-03    -165.019E-03     328.339E-03    -163.245E-03     81.4926E-03
             781     11.4670E-03     110.563E-03    -30.3121E+06     54.6249E+06     67.2486E+06     2.71386E+06    -163.172E-03     326.668E-03    -163.496E-03     84.1524E-03    -164.484E-03     327.872E-03    -163.195E-03     77.4937E-03
             782     12.2325E-03     110.660E-03    -24.1668E+06     91.7720E+06     78.2605E+06     2.37338E+06    -162.628E-03     326.057E-03    -163.429E-03     77.8961E-03    -163.954E-03     327.396E-03    -163.135E-03     71.1137E-03
             783     12.9979E-03     110.748E-03    -18.5474E+06     106.013E+06     88.3353E+06     1.05359E+06    -162.305E-03     325.699E-03    -163.394E-03     67.5228E-03    -163.549E-03     326.997E-03    -163.079E-03     60.7659E-03
             784     13.7629E-03     110.818E-03    -12.0689E+06     111.567E+06     101.080E+06     410.747E+03    -161.936E-03     325.328E-03    -163.392E-03     57.2626E-03    -163.125E-03     326.578E-03    -163.031E-03     50.3463E-03
             785     14.5292E-03     110.880E-03    -5.59807E+06     114.831E+06     110.290E+06     505.632E+03    -161.586E-03     324.963E-03    -163.378E-03     35.2365E-03    -162.491E-03     325.937E-03    -162.985E-03     29.3466E-03
             786     764.114E-06     110.700E-03    -148.246E+06    -304.538E+06    -144.473E+06    -158.719E+03    -163.712E-03     327.247E-03    -163.536E-03     13.5743E-03    -163.820E-03     326.167E-03    -163.601E-03     12.8320E-03
             787     1.52841E-03     110.724E-03    -142.365E+06    -287.511E+06    -128.965E+06    -127.213E+03    -163.661E-03     327.305E-03    -163.644E-03     24.5033E-03    -163.823E-03     326.315E-03    -163.666E-03     23.1429E-03
             788     2.29233E-03     110.761E-03    -134.555E+06    -265.250E+06    -107.821E+06     118.316E+03    -163.671E-03     327.344E-03    -163.673E-03     35.8296E-03    -163.916E-03     326.482E-03    -163.632E-03     33.8337E-03
             789     3.05674E-03     110.812E-03    -125.367E+06    -239.898E+06    -84.9410E+06     80.6658E+03    -163.776E-03     327.470E-03    -163.695E-03     46.5185E-03    -164.124E-03     326.768E-03    -163.590E-03     43.8771E-03
             790     3.82127E-03     110.876E-03    -114.698E+06    -214.513E+06    -62.7314E+06     51.7975E+03    -164.005E-03     327.729E-03    -163.723E-03     56.3516E-03    -164.466E-03     327.203E-03    -163.559E-03     53.0811E-03
             791     4.58531E-03     110.951E-03    -104.212E+06    -189.829E+06    -43.0296E+06     209.099E+03    -164.219E-03     327.973E-03    -163.753E-03     65.1651E-03    -164.802E-03     327.636E-03    -163.542E-03     61.2969E-03
             792     5.34963E-03     111.036E-03    -94.3543E+06    -166.440E+06    -25.9434E+06     370.198E+03    -164.327E-03     328.099E-03    -163.772E-03     72.7281E-03    -165.033E-03     327.954E-03    -163.523E-03     68.3108E-03
             793     6.11384E-03     111.129E-03    -84.4972E+06    -143.660E+06    -10.7250E+06     470.113E+03    -164.337E-03     328.107E-03    -163.771E-03     79.0248E-03    -165.160E-03     328.152E-03    -163.494E-03     74.1216E-03
             794     6.87860E-03     111.230E-03    -75.4195E+06    -120.848E+06     2.62581E+06     734.690E+03    -164.410E-03     328.165E-03    -163.755E-03     83.9838E-03    -165.343E-03     328.393E-03    -163.457E-03     78.6643E-03
             795     7.64317E-03     111.335E-03    -66.8920E+06    -98.3525E+06     14.6892E+06     981.552E+03    -164.505E-03     328.243E-03    -163.738E-03     87.5232E-03    -165.532E-03     328.641E-03    -163.425E-03     81.8547E-03
             796     8.40753E-03     111.444E-03    -58.9591E+06    -76.3017E+06     25.4201E+06     1.12059E+06    -164.417E-03     328.134E-03    -163.717E-03     89.6571E-03    -165.521E-03     328.685E-03    -163.394E-03     83.7053E-03
             797     9.17229E-03     111.554E-03    -51.5771E+06    -51.7218E+06     35.5872E+06     1.54724E+06    -164.230E-03     327.914E-03    -163.684E-03     90.4632E-03    -165.399E-03     328.614E-03    -163.356E-03     84.2878E-03
             798     9.93713E-03     111.664E-03    -44.5494E+06    -20.2918E+06     46.2092E+06     2.18849E+06    -164.015E-03     327.655E-03    -163.639E-03     89.9790E-03    -165.245E-03     328.520E-03    -163.314E-03     83.6150E-03
             799     10.7019E-03     111.772E-03    -37.6677E+06     13.8246E+06     57.2521E+06     2.56530E+06    -163.657E-03     327.245E-03    -163.589E-03     87.8814E-03    -164.935E-03     328.273E-03    -163.268E-03     81.3560E-03
             800     11.4673E-03     111.876E-03    -31.0037E+06     54.4718E+06     66.6401E+06     2.59688E+06    -163.176E-03     326.690E-03    -163.514E-03     83.8155E-03    -164.490E-03     327.894E-03    -163.215E-03     77.1494E-03
             801     12.2324E-03     111.974E-03    -24.2129E+06     92.5656E+06     78.5667E+06     2.39221E+06    -162.641E-03     326.091E-03    -163.450E-03     77.5621E-03    -163.968E-03     327.432E-03    -163.156E-03     70.7719E-03
             802     12.9974E-03     112.061E-03    -17.8171E+06     108.162E+06     89.5907E+06     1.99234E+06    -162.211E-03     325.625E-03    -163.414E-03     67.5016E-03    -163.457E-03     326.932E-03    -163.097E-03     60.7551E-03
             803     13.7626E-03     112.132E-03    -12.5426E+06     112.698E+06     101.647E+06     993.034E+03    -161.829E-03     325.234E-03    -163.405E-03     57.3668E-03    -163.024E-03     326.490E-03    -163.042E-03     50.4602E-03
             804     14.5270E-03     112.192E-03    -6.55833E+06     115.271E+06     110.500E+06     77.7811E+03    -161.388E-03     324.771E-03    -163.383E-03     35.2900E-03    -162.299E-03     325.747E-03    -162.988E-03     29.4014E-03
             805     764.249E-06     112.015E-03    -148.661E+06    -304.105E+06    -144.804E+06    -171.311E+03    -163.797E-03     327.359E-03    -163.562E-03     13.4577E-03    -163.907E-03     326.282E-03    -163.630E-03     12.7174E-03
             806     1.52799E-03     112.037E-03    -143.804E+06    -287.614E+06    -129.908E+06    -51.0451E+03    -163.769E-03     327.480E-03    -163.712E-03     24.3269E-03    -163.936E-03     326.492E-03    -163.736E-03     22.9721E-03
             807     2.29232E-03     112.075E-03    -135.660E+06    -265.148E+06    -108.806E+06    -88.6154E+03    -163.801E-03     327.559E-03    -163.758E-03     35.7475E-03    -164.049E-03     326.701E-03    -163.721E-03     33.7408E-03
             808     3.05645E-03     112.126E-03    -125.694E+06    -239.459E+06    -85.5012E+06    -107.566E+03    -163.911E-03     327.704E-03    -163.793E-03     46.4683E-03    -164.261E-03     327.006E-03    -163.691E-03     43.8169E-03
             809     3.82048E-03     112.190E-03    -115.571E+06    -214.281E+06    -63.5871E+06    -239.534E+03    -164.044E-03     327.864E-03    -163.820E-03     56.2565E-03    -164.508E-03     327.342E-03    -163.660E-03     52.9782E-03
             810     4.58495E-03     112.265E-03    -105.133E+06    -190.003E+06    -43.9433E+06    -238.779E+03    -164.169E-03     328.004E-03    -163.834E-03     65.1080E-03    -164.754E-03     327.668E-03    -163.626E-03     61.2360E-03
             811     5.34920E-03     112.350E-03    -94.8095E+06    -166.559E+06    -26.6202E+06    -90.1579E+03    -164.274E-03     328.109E-03    -163.835E-03     72.7205E-03    -164.981E-03     327.965E-03    -163.589E-03     68.2972E-03
             812     6.11384E-03     112.443E-03    -85.2258E+06    -143.875E+06    -11.5939E+06     45.3436E+03    -164.406E-03     328.232E-03    -163.826E-03     78.9814E-03    -165.232E-03     328.278E-03    -163.552E-03     74.0683E-03
             813     6.87817E-03     112.544E-03    -75.9470E+06    -121.259E+06     1.80842E+06     146.623E+03    -164.531E-03     328.345E-03    -163.814E-03     83.9277E-03    -165.464E-03     328.573E-03    -163.520E-03     78.5964E-03
             814     7.64248E-03     112.649E-03    -67.0910E+06    -99.2915E+06     13.9118E+06     608.968E+03    -164.486E-03     328.284E-03    -163.798E-03     87.3826E-03    -165.511E-03     328.678E-03    -163.487E-03     81.7088E-03
             815     8.40725E-03     112.758E-03    -59.1305E+06    -76.7096E+06     24.8863E+06     1.20368E+06    -164.339E-03     328.107E-03    -163.768E-03     89.4617E-03    -165.441E-03     328.655E-03    -163.447E-03     83.5140E-03
             816     9.17204E-03     112.868E-03    -51.7822E+06    -52.4557E+06     34.9387E+06     1.57703E+06    -164.221E-03     327.949E-03    -163.728E-03     90.2051E-03    -165.388E-03     328.645E-03    -163.402E-03     84.0279E-03
             817     9.93672E-03     112.978E-03    -44.4796E+06    -21.6952E+06     45.3287E+06     1.98225E+06    -163.979E-03     327.657E-03    -163.678E-03     89.5484E-03    -165.202E-03     328.515E-03    -163.356E-03     83.1812E-03
             818     10.7017E-03     113.086E-03    -37.5653E+06     13.1940E+06     56.6651E+06     2.55433E+06    -163.575E-03     327.197E-03    -163.622E-03     87.3700E-03    -164.847E-03     328.219E-03    -163.304E-03     80.8472E-03
             819     11.4665E-03     113.190E-03    -31.1739E+06     54.5822E+06     66.4377E+06     2.74833E+06    -163.157E-03     326.702E-03    -163.544E-03     83.5618E-03    -164.471E-03     327.906E-03    -163.246E-03     76.8937E-03
             820     12.2315E-03     113.287E-03    -24.9379E+06     93.2356E+06     78.4470E+06     2.22623E+06    -162.650E-03     326.129E-03    -163.479E-03     77.3926E-03    -163.980E-03     327.474E-03    -163.186E-03     70.6016E-03
             821     12.9973E-03     113.374E-03    -18.6475E+06     108.501E+06     88.6971E+06     2.02080E+06    -162.016E-03     325.450E-03    -163.433E-03     67.3215E-03    -163.263E-03     326.758E-03    -163.120E-03     60.5891E-03
             822     13.7629E-03     113.446E-03    -11.3987E+06     114.375E+06     102.201E+06     1.54822E+06    -161.445E-03     324.855E-03    -163.411E-03     57.1994E-03    -162.635E-03     326.114E-03    -163.049E-03     50.3208E-03
             823     14.5294E-03     113.505E-03    -4.93839E+06     117.111E+06     111.870E+06     295.160E+03    -161.324E-03     324.702E-03    -163.378E-03     35.2153E-03    -162.230E-03     325.682E-03    -162.982E-03     29.3422E-03
             824     763.772E-06     113.329E-03    -149.715E+06    -303.937E+06    -146.312E+06     367.259E+03    -163.761E-03     327.626E-03    -163.865E-03     13.3909E-03    -163.875E-03     326.553E-03    -163.938E-03     12.6479E-03
             825     1.52806E-03     113.352E-03    -144.680E+06    -287.148E+06    -130.663E+06    -31.0995E+03    -163.782E-03     327.605E-03    -163.823E-03     24.3712E-03    -163.953E-03     326.622E-03    -163.850E-03     23.0074E-03
             826     2.29197E-03     113.389E-03    -136.527E+06    -264.451E+06    -109.390E+06    -337.583E+03    -163.924E-03     327.775E-03    -163.851E-03     35.8004E-03    -164.177E-03     326.922E-03    -163.816E-03     33.7876E-03
             827     3.05599E-03     113.440E-03    -126.800E+06    -239.236E+06    -86.5194E+06    -707.001E+03    -164.038E-03     327.932E-03    -163.893E-03     46.5617E-03    -164.393E-03     327.238E-03    -163.795E-03     43.9007E-03
             828     3.82028E-03     113.504E-03    -116.326E+06    -214.009E+06    -64.5940E+06    -624.530E+03    -164.103E-03     328.022E-03    -163.919E-03     56.3498E-03    -164.571E-03     327.504E-03    -163.763E-03     53.0618E-03
             829     4.58443E-03     113.579E-03    -105.997E+06    -189.705E+06    -44.7977E+06    -542.562E+03    -164.153E-03     328.074E-03    -163.921E-03     65.0617E-03    -164.742E-03     327.743E-03    -163.716E-03     61.1816E-03
             830     5.34904E-03     113.664E-03    -95.6787E+06    -166.441E+06    -27.5269E+06    -740.983E+03    -164.293E-03     328.202E-03    -163.909E-03     72.5373E-03    -165.002E-03     328.061E-03    -163.667E-03     68.1046E-03
             831     6.11325E-03     113.758E-03    -85.6546E+06    -143.951E+06    -12.4359E+06    -745.544E+03    -164.511E-03     328.410E-03    -163.899E-03     78.7877E-03    -165.336E-03     328.457E-03    -163.629E-03     73.8600E-03
             832     6.87751E-03     113.858E-03    -76.4733E+06    -121.659E+06     938.624E+03    -342.775E+03    -164.564E-03     328.454E-03    -163.889E-03     83.7191E-03    -165.497E-03     328.681E-03    -163.597E-03     78.3767E-03
             833     7.64212E-03     113.963E-03    -68.0304E+06    -100.211E+06     12.7659E+06    -40.3850E+03    -164.490E-03     328.358E-03    -163.868E-03     87.1351E-03    -165.516E-03     328.750E-03    -163.560E-03     81.4471E-03
             834     8.40669E-03     114.072E-03    -59.6269E+06    -77.7977E+06     23.6961E+06     443.237E+03    -164.429E-03     328.266E-03    -163.837E-03     89.0759E-03    -165.530E-03     328.810E-03    -163.519E-03     83.1086E-03
             835     9.17123E-03     114.182E-03    -51.5832E+06    -53.4559E+06     34.0861E+06     1.05946E+06    -164.244E-03     328.042E-03    -163.798E-03     89.7403E-03    -165.405E-03     328.732E-03    -163.475E-03     83.5502E-03
             836     9.93600E-03     114.292E-03    -44.4655E+06    -22.6281E+06     44.6448E+06     1.65962E+06    -163.875E-03     327.618E-03    -163.743E-03     89.1126E-03    -165.094E-03     328.469E-03    -163.422E-03     82.7429E-03
             837     10.7008E-03     114.399E-03    -37.5161E+06     11.9693E+06     56.0849E+06     2.39008E+06    -163.476E-03     327.153E-03    -163.677E-03     87.1054E-03    -164.744E-03     328.167E-03    -163.359E-03     80.5844E-03
             838     11.4663E-03     114.503E-03    -30.6451E+06     54.2023E+06      66.315E+06     2.89885E+06    -163.061E-03     326.651E-03    -163.589E-03     83.3155E-03    -164.369E-03     327.850E-03    -163.292E-03     76.6572E-03
             839     12.2318E-03     114.600E-03    -24.2664E+06     94.2732E+06     78.8247E+06     2.91260E+06    -162.547E-03     326.063E-03    -163.516E-03     77.0346E-03    -163.873E-03     327.409E-03    -163.223E-03     70.2550E-03
             840     12.9965E-03     114.687E-03    -18.0822E+06     110.373E+06     89.5501E+06     2.09113E+06    -161.864E-03     325.327E-03    -163.463E-03     66.8426E-03    -163.110E-03     326.641E-03    -163.149E-03     60.1089E-03
             841     13.7623E-03     114.757E-03    -12.2841E+06     115.389E+06     102.076E+06     908.992E+03    -161.281E-03     324.710E-03    -163.429E-03     56.7667E-03    -162.475E-03     325.974E-03    -163.068E-03     49.8768E-03
             842     14.5276E-03     114.817E-03    -6.06207E+06     117.514E+06     111.522E+06     521.539E+03    -161.180E-03     324.569E-03    -163.389E-03     34.8912E-03    -162.091E-03     325.552E-03    -162.993E-03     29.0186E-03
             843     763.862E-06     114.643E-03    -151.476E+06    -303.586E+06    -147.461E+06    -667.285E+03    -163.816E-03     327.762E-03    -163.946E-03     13.3946E-03    -163.937E-03     326.695E-03    -164.024E-03     12.6351E-03
             844     1.52780E-03     114.666E-03    -144.974E+06    -286.237E+06    -131.648E+06    -666.941E+03    -163.891E-03     327.789E-03    -163.897E-03     24.5358E-03    -164.064E-03     326.812E-03    -163.930E-03     23.1671E-03
             845     2.29184E-03     114.704E-03    -136.977E+06    -263.654E+06    -110.404E+06    -656.041E+03    -164.035E-03     327.971E-03    -163.936E-03     35.8828E-03    -164.290E-03     327.124E-03    -163.907E-03     33.8664E-03
             846     3.05589E-03     114.755E-03    -127.737E+06    -238.398E+06    -87.4966E+06    -800.042E+03    -164.111E-03     328.092E-03    -163.981E-03     46.5209E-03    -164.471E-03     327.405E-03    -163.887E-03     43.8539E-03
             847     3.81985E-03     114.818E-03    -117.670E+06    -213.647E+06    -65.5628E+06    -1.02869E+06    -164.192E-03     328.198E-03    -164.007E-03     56.2384E-03    -164.665E-03     327.686E-03    -163.854E-03     52.9395E-03
             848     4.58414E-03     114.893E-03    -106.671E+06    -189.025E+06    -45.6450E+06    -1.33705E+06    -164.311E-03     328.326E-03    -164.015E-03     64.8759E-03    -164.903E-03     328.000E-03    -163.814E-03     60.9744E-03
             849     5.34822E-03     114.978E-03    -96.2014E+06    -165.895E+06    -28.4401E+06    -1.49265E+06    -164.456E-03     328.469E-03    -164.013E-03     72.3845E-03    -165.167E-03     328.332E-03    -163.776E-03     67.9318E-03
             850     6.11257E-03     115.072E-03    -86.6287E+06    -144.124E+06    -13.5238E+06    -1.29325E+06    -164.552E-03     328.558E-03    -164.005E-03     78.6178E-03    -165.380E-03     328.606E-03    -163.738E-03     73.6770E-03
             851     6.87698E-03     115.172E-03    -77.5399E+06    -122.105E+06    -256.560E+03    -1.06112E+06    -164.583E-03     328.571E-03    -163.988E-03     83.3553E-03    -165.518E-03     328.798E-03    -163.700E-03     77.9962E-03
             852     7.64138E-03     115.277E-03    -68.6530E+06    -100.368E+06     11.7882E+06    -809.812E+03    -164.590E-03     328.555E-03    -163.965E-03     86.7164E-03    -165.615E-03     328.946E-03    -163.661E-03     81.0103E-03
             853     8.40570E-03     115.386E-03    -60.4078E+06    -78.5205E+06     22.5737E+06    -693.697E+03    -164.483E-03     328.417E-03    -163.934E-03     88.7484E-03    -165.583E-03     328.959E-03    -163.620E-03     82.7592E-03
             854     9.17028E-03     115.496E-03    -52.4814E+06    -54.9269E+06     32.8015E+06    -93.2533E+03    -164.186E-03     328.074E-03    -163.889E-03     89.4382E-03    -165.345E-03     328.757E-03    -163.569E-03     83.2336E-03
             855     9.93518E-03     115.605E-03    -44.6506E+06    -24.0770E+06     43.7175E+06     934.330E+03    -163.809E-03     327.632E-03    -163.823E-03     88.7712E-03    -165.022E-03     328.475E-03    -163.505E-03     82.3944E-03
             856     10.7005E-03     115.713E-03    -37.4867E+06     10.1375E+06     55.0638E+06     1.84259E+06    -163.464E-03     327.213E-03    -163.750E-03     86.6418E-03    -164.724E-03     328.217E-03    -163.435E-03     80.1116E-03
             857     11.4653E-03     115.816E-03    -30.9236E+06     52.8934E+06     65.4085E+06     2.83225E+06    -162.935E-03     326.589E-03    -163.655E-03     82.7281E-03    -164.236E-03     327.779E-03    -163.359E-03     76.0724E-03
             858     12.2303E-03     115.913E-03    -24.4285E+06     95.0000E+06     78.7046E+06     3.08400E+06    -162.273E-03     325.840E-03    -163.567E-03     76.6850E-03    -163.599E-03     327.188E-03    -163.275E-03     69.9119E-03
             859     12.9966E-03     116.000E-03    -18.1664E+06     112.019E+06     89.6335E+06     2.56683E+06    -161.782E-03     325.282E-03    -163.501E-03     66.3526E-03    -163.028E-03     326.602E-03    -163.189E-03     59.6242E-03
             860     13.7622E-03     116.070E-03    -12.3233E+06     117.061E+06     102.558E+06     1.67060E+06    -161.335E-03     324.802E-03    -163.467E-03     56.3882E-03    -162.529E-03     326.070E-03    -163.106E-03     49.5155E-03
             861     14.5280E-03     116.131E-03    -6.15439E+06     118.838E+06     112.286E+06     564.873E+03    -160.884E-03     324.304E-03    -163.420E-03     34.7302E-03    -161.797E-03     325.292E-03    -163.022E-03     28.8672E-03
             862     763.948E-06     115.958E-03    -151.138E+06    -301.346E+06    -147.871E+06    -958.828E+03    -163.961E-03     327.775E-03    -163.814E-03     13.4033E-03    -164.083E-03     326.719E-03    -163.897E-03     12.6411E-03
             863     1.52779E-03     115.981E-03    -146.290E+06    -285.214E+06    -133.154E+06    -1.21166E+06    -164.120E-03     328.064E-03    -163.944E-03     24.6670E-03    -164.299E-03     327.097E-03    -163.984E-03     23.2969E-03
             864     2.29158E-03     116.018E-03    -138.299E+06    -263.086E+06    -111.947E+06    -1.21211E+06    -164.185E-03     328.222E-03    -164.037E-03     35.7788E-03    -164.446E-03     327.382E-03    -164.014E-03     33.7538E-03
             865     3.05542E-03     116.070E-03    -128.707E+06    -237.808E+06    -88.6830E+06    -1.14579E+06    -164.208E-03     328.299E-03    -164.090E-03     46.2987E-03    -164.571E-03     327.617E-03    -164.002E-03     43.6234E-03
             866     3.81956E-03     116.133E-03    -117.850E+06    -211.954E+06    -65.9455E+06    -1.62039E+06    -164.327E-03     328.446E-03    -164.119E-03     56.0616E-03    -164.803E-03     327.943E-03    -163.971E-03     52.7466E-03
             867     4.58349E-03     116.208E-03    -107.284E+06    -188.178E+06    -46.5779E+06    -2.08500E+06    -164.502E-03     328.638E-03    -164.136E-03     64.6897E-03    -165.097E-03     328.319E-03    -163.940E-03     60.7664E-03
             868     5.34761E-03     116.293E-03    -97.3236E+06    -165.576E+06    -29.5694E+06    -1.94389E+06    -164.625E-03     328.770E-03    -164.145E-03     72.2023E-03    -165.341E-03     328.638E-03    -163.911E-03     67.7291E-03
             869     6.11172E-03     116.387E-03    -87.4890E+06    -143.627E+06    -14.3662E+06    -2.08893E+06    -164.690E-03     328.832E-03    -164.142E-03     78.2934E-03    -165.521E-03     328.884E-03    -163.879E-03     73.3285E-03
             870     6.87598E-03     116.487E-03    -77.9189E+06    -121.989E+06    -1.11499E+06    -2.24084E+06    -164.720E-03     328.847E-03    -164.127E-03     82.9187E-03    -165.655E-03     329.076E-03    -163.843E-03     77.5296E-03
             871     7.64017E-03     116.592E-03    -69.0369E+06    -100.855E+06     10.7493E+06    -1.90887E+06    -164.632E-03     328.734E-03    -164.101E-03     86.2508E-03    -165.656E-03     329.123E-03    -163.801E-03     80.5201E-03
             872     8.40475E-03     116.700E-03    -60.6329E+06    -78.6118E+06     21.9005E+06    -1.50757E+06    -164.400E-03     328.460E-03    -164.059E-03     88.2448E-03    -165.498E-03     328.999E-03    -163.748E-03     82.2453E-03
             873     9.16948E-03     116.810E-03    -52.8355E+06    -55.6391E+06     32.0121E+06    -1.20037E+06    -164.162E-03     328.164E-03    -164.002E-03     88.8315E-03    -165.317E-03     328.841E-03    -163.684E-03     82.6099E-03
             874     9.93432E-03     116.919E-03    -45.3510E+06    -26.1789E+06     42.1896E+06    -634.174E+03    -163.864E-03     327.794E-03    -163.930E-03     88.0818E-03    -165.072E-03     328.626E-03    -163.616E-03     81.6762E-03
             875     10.6989E-03     117.026E-03    -37.6953E+06     7.66867E+06     53.6951E+06     547.237E+03    -163.363E-03     327.213E-03    -163.850E-03     86.0883E-03    -164.615E-03     328.203E-03    -163.538E-03     79.5434E-03
             876     11.4642E-03     117.130E-03    -30.2683E+06     50.3052E+06     64.4308E+06     2.42119E+06    -162.720E-03     326.460E-03    -163.740E-03     82.2834E-03    -164.010E-03     327.634E-03    -163.447E-03     75.6318E-03
             877     12.2304E-03     117.226E-03    -23.9313E+06     94.8113E+06     78.3781E+06     3.62343E+06    -162.109E-03     325.744E-03    -163.635E-03     76.1932E-03    -163.428E-03     327.088E-03    -163.346E-03     69.4338E-03
             878     12.9955E-03     117.313E-03    -17.8258E+06     114.280E+06     90.2541E+06     2.72750E+06    -161.683E-03     325.242E-03    -163.560E-03     65.9842E-03    -162.930E-03     326.571E-03    -163.248E-03     59.2490E-03
             879     13.7608E-03     117.383E-03    -11.3778E+06     118.471E+06     103.291E+06     1.67171E+06    -161.095E-03     324.610E-03    -163.515E-03     55.9069E-03    -162.287E-03     325.882E-03    -163.154E-03     49.0244E-03
             880     14.5268E-03     117.442E-03    -5.58984E+06     120.056E+06     112.978E+06     1.31681E+06    -160.416E-03     323.865E-03    -163.449E-03     34.4411E-03    -161.328E-03     324.856E-03    -163.050E-03     28.5972E-03
             881     764.037E-06     117.272E-03    -152.031E+06    -299.383E+06    -147.984E+06    -190.473E+03    -164.130E-03     328.113E-03    -163.983E-03     13.4184E-03    -164.259E-03     327.068E-03    -164.068E-03     12.6779E-03
             882     1.52763E-03     117.296E-03    -147.221E+06    -283.146E+06    -133.245E+06    -980.858E+03    -164.280E-03     328.395E-03    -164.115E-03     24.4231E-03    -164.466E-03     327.440E-03    -164.157E-03     23.0451E-03
             883     2.29116E-03     117.334E-03    -139.449E+06    -261.617E+06    -112.551E+06    -1.74575E+06    -164.286E-03     328.483E-03    -164.197E-03     35.5523E-03    -164.553E-03     327.653E-03    -164.179E-03     33.5122E-03
             884     3.05505E-03     117.384E-03    -129.214E+06    -236.342E+06    -89.4306E+06    -2.32838E+06    -164.379E-03     328.623E-03    -164.243E-03     46.1574E-03    -164.745E-03     327.951E-03    -164.161E-03     43.4583E-03
             885     3.81884E-03     117.448E-03    -118.517E+06    -211.120E+06    -67.3297E+06    -2.34860E+06    -164.538E-03     328.817E-03    -164.279E-03     55.8149E-03    -165.017E-03     328.321E-03    -164.137E-03     52.4790E-03
             886     4.58279E-03     117.523E-03    -108.285E+06    -186.998E+06    -47.3880E+06    -2.35291E+06    -164.682E-03     328.987E-03    -164.306E-03     64.3549E-03    -165.281E-03     328.676E-03    -164.115E-03     60.4172E-03
             887     5.34668E-03     117.608E-03    -97.8606E+06    -164.386E+06    -30.0653E+06    -3.01244E+06    -164.818E-03     329.139E-03    -164.321E-03     71.7625E-03    -165.537E-03     329.014E-03    -164.091E-03     67.2607E-03
             888     6.11067E-03     117.702E-03    -87.5616E+06    -142.855E+06    -15.0475E+06    -3.26170E+06    -164.888E-03     329.210E-03    -164.322E-03     77.8339E-03    -165.719E-03     329.267E-03    -164.063E-03     72.8353E-03
             889     6.87458E-03     117.802E-03    -78.3645E+06    -121.509E+06    -1.87983E+06    -3.14404E+06    -164.843E-03     329.151E-03    -164.308E-03     82.5032E-03    -165.779E-03     329.383E-03    -164.028E-03     77.0859E-03
             890     7.63892E-03     117.907E-03    -69.6898E+06    -100.862E+06     9.84510E+06    -3.12221E+06    -164.693E-03     328.969E-03    -164.276E-03     85.6921E-03    -165.717E-03     329.359E-03    -163.980E-03     79.9314E-03
             891     8.40328E-03     118.015E-03    -61.3615E+06    -79.2094E+06     20.6943E+06    -2.72546E+06    -164.475E-03     328.703E-03    -164.227E-03     87.4338E-03    -165.570E-03     329.238E-03    -163.920E-03     81.4074E-03
             892     9.16794E-03     118.124E-03    -53.4892E+06    -56.5631E+06     30.7455E+06    -2.17309E+06    -164.193E-03     328.357E-03    -164.164E-03     87.9394E-03    -165.343E-03     329.027E-03    -163.851E-03     81.6972E-03
             893     9.93245E-03     118.233E-03    -46.1978E+06    -26.9483E+06     41.0436E+06    -1.70044E+06    -163.757E-03     327.838E-03    -164.081E-03     87.2845E-03    -164.961E-03     328.663E-03    -163.770E-03     80.8673E-03
             894     10.6978E-03     118.340E-03    -39.0427E+06     5.91897E+06     52.1829E+06    -1.06129E+06    -163.162E-03     327.144E-03    -163.982E-03     85.2239E-03    -164.409E-03     328.122E-03    -163.673E-03     78.6685E-03
             895     11.4634E-03     118.442E-03    -31.7630E+06     45.6583E+06     61.9338E+06     562.737E+03    -162.559E-03     326.412E-03    -163.853E-03     81.3812E-03    -163.839E-03     327.562E-03    -163.564E-03     74.7091E-03
             896     12.2283E-03     118.539E-03    -24.5080E+06     92.8411E+06     76.8559E+06     2.76315E+06    -161.894E-03     325.626E-03    -163.732E-03     75.4508E-03    -163.204E-03     326.956E-03    -163.446E-03     68.6929E-03
             897     12.9945E-03     118.625E-03    -17.7235E+06     116.254E+06     90.1636E+06     3.35575E+06    -161.078E-03     324.706E-03    -163.628E-03     65.7710E-03    -162.323E-03     326.039E-03    -163.320E-03     59.0856E-03
             898     13.7609E-03     118.695E-03    -12.0919E+06     119.251E+06     102.984E+06     2.70078E+06    -160.374E-03     323.918E-03    -163.544E-03     56.1893E-03    -161.569E-03     325.195E-03    -163.184E-03     49.3641E-03
             899     14.5272E-03     118.753E-03    -6.28588E+06     121.858E+06     113.511E+06     1.73721E+06    -160.093E-03     323.545E-03    -163.451E-03     34.9178E-03    -161.013E-03     324.546E-03    -163.051E-03     29.1027E-03
             900     763.331E-06     118.588E-03    -153.080E+06    -298.127E+06    -149.455E+06    -353.122E+03    -164.509E-03     328.896E-03    -164.386E-03     13.4933E-03    -164.643E-03     327.861E-03    -164.479E-03     12.7440E-03
             901     1.52681E-03     118.612E-03    -147.408E+06    -280.708E+06    -133.534E+06    -956.951E+03    -164.360E-03     328.807E-03    -164.446E-03     24.2134E-03    -164.550E-03     327.864E-03    -164.493E-03     22.8332E-03
             902     2.29077E-03     118.649E-03    -139.302E+06    -258.997E+06    -112.481E+06    -1.95043E+06    -164.408E-03     328.856E-03    -164.448E-03     35.2439E-03    -164.678E-03     328.038E-03    -164.432E-03     33.1923E-03
             903     3.05442E-03     118.700E-03    -129.852E+06    -234.164E+06    -89.7777E+06    -2.52761E+06    -164.603E-03     329.077E-03    -164.474E-03     45.8499E-03    -164.975E-03     328.417E-03    -164.395E-03     43.1363E-03
             904     3.81798E-03     118.764E-03    -119.624E+06    -209.632E+06    -67.7962E+06    -3.17416E+06    -164.768E-03     329.281E-03    -164.512E-03     55.4475E-03    -165.254E-03     328.794E-03    -164.374E-03     52.0876E-03
             905     4.58164E-03     118.839E-03    -108.384E+06    -185.467E+06    -47.8678E+06    -3.83365E+06    -164.922E-03     329.463E-03    -164.541E-03     64.0172E-03    -165.524E-03     329.160E-03    -164.354E-03     60.0441E-03
             906     5.34535E-03     118.924E-03    -97.7378E+06    -162.786E+06    -30.6099E+06    -4.03794E+06    -165.044E-03     329.601E-03    -164.557E-03     71.3220E-03    -165.763E-03     329.484E-03    -164.332E-03     66.7887E-03
             907     6.10908E-03     119.018E-03    -88.3201E+06    -142.066E+06    -15.9226E+06    -4.14000E+06    -165.048E-03     329.604E-03    -164.557E-03     77.2964E-03    -165.881E-03     329.666E-03    -164.302E-03     72.2687E-03
             908     6.87321E-03     119.118E-03    -78.8493E+06    -120.968E+06    -2.67878E+06    -4.22377E+06    -164.981E-03     329.518E-03    -164.537E-03     81.8408E-03    -165.916E-03     329.751E-03    -164.261E-03     76.3949E-03
             909     7.63718E-03     119.222E-03    -69.9182E+06    -100.286E+06     9.18585E+06    -4.18069E+06    -164.861E-03     329.363E-03    -164.502E-03     84.8945E-03    -165.883E-03     329.753E-03    -164.209E-03     79.1051E-03
             910     8.40143E-03     119.330E-03    -61.6520E+06    -79.7643E+06     19.7809E+06    -3.86043E+06    -164.623E-03     329.073E-03    -164.451E-03     86.6364E-03    -165.713E-03     329.604E-03    -164.147E-03     80.5791E-03
             911     9.16563E-03     119.439E-03    -53.8592E+06    -57.6357E+06     29.6117E+06    -3.11727E+06    -164.170E-03     328.547E-03    -164.377E-03     87.1512E-03    -165.314E-03     329.209E-03    -164.067E-03     80.8930E-03
             912     9.93081E-03     119.547E-03    -46.5483E+06    -27.8310E+06     40.1176E+06    -2.04664E+06    -163.577E-03     327.851E-03    -164.274E-03     86.4191E-03    -164.773E-03     328.667E-03    -163.965E-03     80.0063E-03
             913     10.6958E-03     119.653E-03    -40.4526E+06     4.93582E+06     51.0445E+06    -1.10488E+06    -162.986E-03     327.139E-03    -164.152E-03     84.3421E-03    -164.230E-03     328.108E-03    -163.845E-03     77.7972E-03
             914     11.4608E-03     119.755E-03    -34.7054E+06     42.6451E+06     59.7574E+06    -432.653E+03    -162.257E-03     326.255E-03    -163.998E-03     80.8342E-03    -163.538E-03     327.391E-03    -163.711E-03     74.1712E-03
             915     12.2274E-03     119.851E-03    -28.0140E+06     89.1968E+06     73.6531E+06     978.452E+03    -161.318E-03     325.156E-03    -163.838E-03     75.2264E-03    -162.632E-03     326.473E-03    -163.559E-03     68.4782E-03
             916     12.9934E-03     119.937E-03    -20.9753E+06     114.808E+06       87.01E+06     2.34764E+06    -160.350E-03     324.037E-03    -163.687E-03     65.2491E-03    -161.599E-03     325.367E-03    -163.388E-03     58.5872E-03
             917     13.7608E-03     120.005E-03    -13.1249E+06     120.497E+06     102.466E+06     2.56344E+06    -159.761E-03     323.331E-03    -163.570E-03     55.4143E-03    -160.955E-03     324.608E-03    -163.213E-03     48.6205E-03
             918     14.5281E-03     120.065E-03    -5.96835E+06     125.084E+06     114.907E+06     1.50090E+06    -159.794E-03     323.251E-03    -163.457E-03     34.1624E-03    -160.713E-03     324.259E-03    -163.055E-03     28.3675E-03
             919     763.032E-06     119.905E-03    -153.131E+06    -295.625E+06    -149.852E+06    -1.07184E+06    -164.944E-03     329.553E-03    -164.610E-03     13.6061E-03    -165.081E-03     328.532E-03    -164.708E-03     12.8374E-03
             920     1.52659E-03     119.928E-03    -147.828E+06    -278.535E+06    -134.727E+06    -1.70313E+06    -164.665E-03     329.431E-03    -164.766E-03     24.2103E-03    -164.858E-03     328.501E-03    -164.821E-03     22.8132E-03
             921     2.28981E-03     119.965E-03    -139.693E+06    -256.351E+06    -113.027E+06    -2.30019E+06    -164.767E-03     329.538E-03    -164.771E-03     35.1416E-03    -165.043E-03     328.735E-03    -164.762E-03     33.0739E-03
             922     3.05322E-03     120.017E-03    -129.802E+06    -231.544E+06    -89.7793E+06    -3.11946E+06    -164.891E-03     329.693E-03    -164.802E-03     45.5741E-03    -165.267E-03     329.046E-03    -164.727E-03     42.8390E-03
             923     3.81680E-03     120.080E-03    -118.990E+06    -206.698E+06    -67.5858E+06    -4.06896E+06    -165.034E-03     329.866E-03    -164.832E-03     55.0259E-03    -165.520E-03     329.392E-03    -164.698E-03     51.6384E-03
             924     4.58027E-03     120.156E-03    -108.541E+06    -183.513E+06    -48.2282E+06    -4.68531E+06    -165.175E-03     330.028E-03    -164.853E-03     63.5334E-03    -165.778E-03     329.735E-03    -164.671E-03     59.5314E-03
             925     5.34374E-03     120.241E-03    -98.3215E+06    -161.505E+06    -31.2456E+06    -4.92725E+06    -165.266E-03     330.127E-03    -164.862E-03     70.7853E-03    -165.987E-03     330.017E-03    -164.641E-03     66.2231E-03
             926     6.10743E-03     120.334E-03    -88.1173E+06    -140.405E+06    -16.0931E+06    -5.31753E+06    -165.307E-03     330.164E-03    -164.858E-03     76.5854E-03    -166.139E-03     330.232E-03    -164.607E-03     71.5227E-03
             927     6.87098E-03     120.434E-03    -78.6293E+06    -120.005E+06    -3.04070E+06    -5.61029E+06    -165.215E-03     330.052E-03    -164.836E-03     80.9554E-03    -166.147E-03     330.286E-03    -164.563E-03     75.4745E-03
             928     7.63494E-03     120.538E-03    -69.7076E+06    -100.187E+06     8.62876E+06    -5.35724E+06    -164.984E-03     329.778E-03    -164.794E-03     83.9917E-03    -165.999E-03     330.164E-03    -164.504E-03     78.1753E-03
             929     8.39893E-03     120.645E-03    -61.2943E+06    -79.8669E+06     19.3970E+06    -4.92801E+06    -164.594E-03     329.320E-03    -164.725E-03     85.7464E-03    -165.676E-03     329.844E-03    -164.424E-03     79.6709E-03
             930     9.16366E-03     120.753E-03    -53.5261E+06    -58.6034E+06     29.0908E+06    -4.07000E+06    -164.078E-03     328.706E-03    -164.628E-03     86.2383E-03    -165.211E-03     329.356E-03    -164.320E-03     79.9734E-03
             931     9.92817E-03     120.861E-03    -46.2785E+06    -30.3491E+06     39.0876E+06    -2.63275E+06    -163.445E-03     327.944E-03    -164.499E-03     85.5764E-03    -164.627E-03     328.741E-03    -164.193E-03     79.1666E-03
             932     10.6936E-03     120.967E-03    -39.0403E+06     2.49138E+06     50.6017E+06    -665.271E+03    -162.681E-03     327.030E-03    -164.349E-03     83.6263E-03    -163.905E-03     327.978E-03    -164.043E-03     77.1060E-03
             933     11.4599E-03     121.068E-03    -32.3674E+06     42.9544E+06     60.6639E+06     157.330E+03    -161.803E-03     325.963E-03    -164.160E-03     79.9868E-03    -163.065E-03     327.086E-03    -163.872E-03     73.3610E-03
             934     12.2256E-03     121.163E-03    -26.0984E+06     86.4612E+06     74.1421E+06     296.877E+03    -160.740E-03     324.701E-03    -163.962E-03     74.1113E-03    -162.030E-03     325.991E-03    -163.679E-03     67.3883E-03
             935     12.9931E-03     121.248E-03    -19.5445E+06     112.379E+06     87.0423E+06     1.79582E+06    -159.856E-03     323.627E-03    -163.772E-03     64.2508E-03    -161.086E-03     324.934E-03    -163.471E-03     57.6071E-03
             936     13.7596E-03     121.316E-03    -13.5552E+06     122.831E+06     102.070E+06     1.66822E+06    -159.443E-03     323.064E-03    -163.621E-03     55.1058E-03    -160.638E-03     324.352E-03    -163.269E-03     48.3166E-03
             937     14.5260E-03     121.376E-03    -6.71894E+06     126.799E+06     114.607E+06     427.907E+03    -159.143E-03     322.626E-03    -163.482E-03     34.1321E-03    -160.068E-03     323.644E-03    -163.083E-03     28.3393E-03
             938     763.182E-06     121.222E-03    -153.300E+06    -291.842E+06    -149.249E+06    -1.13045E+06    -165.274E-03     330.202E-03    -164.927E-03     13.0263E-03    -165.419E-03     329.199E-03    -165.028E-03     12.2568E-03
             939     1.52596E-03     121.245E-03    -147.766E+06    -274.943E+06    -134.160E+06    -2.33208E+06    -165.099E-03     330.217E-03    -165.117E-03     23.9214E-03    -165.298E-03     329.304E-03    -165.175E-03     22.5024E-03
             940     2.28908E-03     121.283E-03    -139.431E+06    -253.152E+06    -113.172E+06    -3.32495E+06    -165.204E-03     330.356E-03    -165.152E-03     35.0370E-03    -165.483E-03     329.569E-03    -165.148E-03     32.9393E-03
             941     3.05211E-03     121.334E-03    -129.297E+06    -228.689E+06    -89.8525E+06    -4.29285E+06    -165.325E-03     330.523E-03    -165.198E-03     45.3403E-03    -165.702E-03     329.889E-03    -165.128E-03     42.5722E-03
             942     3.81514E-03     121.398E-03    -118.868E+06    -204.145E+06    -67.9683E+06    -4.87832E+06    -165.432E-03     330.665E-03    -165.233E-03     54.6832E-03    -165.920E-03     330.203E-03    -165.105E-03     51.2652E-03
             943     4.57830E-03     121.473E-03    -108.420E+06    -180.850E+06    -48.1353E+06    -5.36876E+06    -165.536E-03     330.792E-03    -165.256E-03     62.9293E-03    -166.141E-03     330.510E-03    -165.077E-03     58.8982E-03
             944     5.34172E-03     121.558E-03    -97.7785E+06    -159.126E+06    -30.9458E+06    -6.21580E+06    -165.596E-03     330.858E-03    -165.262E-03     69.9425E-03    -166.316E-03     330.756E-03    -165.044E-03     65.3414E-03
             945     6.10493E-03     121.651E-03    -87.5154E+06    -138.810E+06    -16.1476E+06    -6.72243E+06    -165.572E-03     330.822E-03    -165.250E-03     75.6375E-03    -166.399E-03     330.892E-03    -165.002E-03     70.5382E-03
             946     6.86844E-03     121.750E-03    -78.0595E+06    -118.764E+06    -3.00879E+06    -6.73901E+06    -165.398E-03     330.614E-03    -165.215E-03     79.9926E-03    -166.324E-03     330.849E-03    -164.945E-03     74.4798E-03
             947     7.63204E-03     121.854E-03    -69.1899E+06    -99.5184E+06     8.59164E+06    -6.85744E+06    -165.031E-03     330.183E-03    -165.152E-03     82.9984E-03    -166.039E-03     330.567E-03    -164.864E-03     77.1529E-03
             948     8.39637E-03     121.961E-03    -60.6694E+06    -80.3606E+06     18.9842E+06    -6.37096E+06    -164.533E-03     329.588E-03    -165.055E-03     84.5955E-03    -165.602E-03     330.102E-03    -164.756E-03     78.5038E-03
             949     9.16069E-03     122.068E-03    -52.5908E+06    -60.0211E+06     28.6427E+06    -5.46245E+06    -163.929E-03     328.855E-03    -164.926E-03     84.9951E-03    -165.044E-03     329.488E-03    -164.620E-03     78.7195E-03
             950     9.92597E-03     122.175E-03    -44.6207E+06    -32.2666E+06     38.9264E+06    -4.41115E+06    -163.184E-03     327.949E-03    -164.764E-03     84.3329E-03    -164.344E-03     328.723E-03    -164.458E-03     77.9152E-03
             951     10.6913E-03     122.280E-03    -36.4872E+06    -1.58553E+06     50.0317E+06    -2.54146E+06    -162.297E-03     326.872E-03    -164.575E-03     82.3510E-03    -163.490E-03     327.785E-03    -164.270E-03     75.8310E-03
             952     11.4570E-03     122.380E-03    -28.9565E+06     41.6323E+06     60.9972E+06    -292.817E+03    -161.260E-03     325.601E-03    -164.341E-03     78.8429E-03    -162.491E-03     326.700E-03    -164.055E-03     72.2511E-03
             953     12.2241E-03     122.474E-03    -22.9929E+06     84.6730E+06     74.9178E+06     1.51360E+06    -160.229E-03     324.333E-03    -164.103E-03     73.1602E-03    -161.491E-03     325.596E-03    -163.818E-03     66.4969E-03
             954     12.9909E-03     122.557E-03    -17.8314E+06     110.168E+06     86.3206E+06     2.57197E+06    -159.379E-03     323.250E-03    -163.872E-03     63.7070E-03    -160.589E-03     324.538E-03    -163.574E-03     57.1090E-03
             955     13.7589E-03     122.627E-03    -11.9808E+06     126.225E+06     102.214E+06     2.10005E+06    -158.744E-03     322.423E-03    -163.679E-03     54.9530E-03    -159.933E-03     323.722E-03    -163.334E-03     48.2069E-03
             956     14.5271E-03     122.685E-03    -6.25341E+06     128.659E+06     114.956E+06     437.986E+03    -158.444E-03     321.948E-03    -163.505E-03     33.9791E-03    -159.368E-03     322.974E-03    -163.107E-03     28.2077E-03
             957     762.331E-06     122.541E-03    -152.595E+06    -287.051E+06    -149.098E+06    -1.86296E+06    -165.578E-03     331.137E-03    -165.558E-03     12.8885E-03    -165.726E-03     330.156E-03    -165.666E-03     12.1004E-03
             958     1.52526E-03     122.563E-03    -146.909E+06    -270.825E+06    -133.489E+06    -2.81298E+06    -165.610E-03     331.206E-03    -165.596E-03     23.7443E-03    -165.812E-03     330.311E-03    -165.657E-03     22.3103E-03
             959     2.28794E-03     122.601E-03    -138.774E+06    -249.084E+06    -112.368E+06    -3.90127E+06    -165.738E-03     331.385E-03    -165.647E-03     34.6195E-03    -166.020E-03     330.616E-03    -165.647E-03     32.5056E-03
             960     3.05063E-03     122.652E-03    -129.347E+06    -225.098E+06    -89.6290E+06    -5.00113E+06    -165.826E-03     331.529E-03    -165.703E-03     44.7093E-03    -166.208E-03     330.912E-03    -165.637E-03     41.9133E-03
             961     3.81337E-03     122.716E-03    -118.715E+06    -201.027E+06    -67.6212E+06    -5.96498E+06    -165.912E-03     331.653E-03    -165.741E-03     54.0027E-03    -166.403E-03     331.205E-03    -165.616E-03     50.5481E-03
             962     4.57619E-03     122.791E-03    -107.496E+06    -177.654E+06    -47.6903E+06    -6.80948E+06    -166.004E-03     331.766E-03    -165.762E-03     62.2201E-03    -166.608E-03     331.496E-03    -165.587E-03     58.1456E-03
             963     5.33872E-03     122.876E-03    -97.0006E+06    -156.321E+06    -30.6164E+06    -7.49200E+06    -166.011E-03     331.775E-03    -165.764E-03     69.1610E-03    -166.730E-03     331.683E-03    -165.549E-03     64.5166E-03
             964     6.10189E-03     122.969E-03    -87.3390E+06    -136.815E+06    -15.9933E+06    -7.96493E+06    -165.835E-03     331.573E-03    -165.738E-03     74.6892E-03    -166.661E-03     331.650E-03    -165.493E-03     69.5518E-03
             965     6.86520E-03     123.068E-03    -77.7672E+06    -117.367E+06    -2.99291E+06    -8.31885E+06    -165.499E-03     331.174E-03    -165.675E-03     78.8495E-03    -166.419E-03     331.410E-03    -165.407E-03     73.3045E-03
             966     7.62898E-03     123.171E-03    -68.5594E+06    -98.0587E+06     8.75400E+06    -8.40287E+06    -165.067E-03     330.645E-03    -165.579E-03     81.7236E-03    -166.065E-03     331.026E-03    -165.293E-03     75.8553E-03
             967     8.39284E-03     123.277E-03    -60.1897E+06    -80.4880E+06     18.6033E+06    -8.26214E+06    -164.484E-03     329.932E-03    -165.448E-03     83.2477E-03    -165.540E-03     330.434E-03    -165.151E-03     77.1356E-03
             968     9.15753E-03     123.383E-03    -51.8087E+06    -60.5767E+06     28.1388E+06    -7.71841E+06    -163.696E-03     328.976E-03    -165.280E-03     83.6251E-03    -164.795E-03     329.594E-03    -164.976E-03     77.3376E-03
             969     9.92242E-03     123.489E-03    -43.7847E+06    -33.9051E+06     38.1524E+06    -6.72788E+06    -162.771E-03     327.841E-03    -165.070E-03     83.0771E-03    -163.910E-03     328.593E-03    -164.766E-03     76.6648E-03
             970     10.6883E-03     123.593E-03    -36.7453E+06    -5.42750E+06     48.4436E+06    -4.89492E+06    -161.737E-03     326.565E-03    -164.827E-03     81.2544E-03    -162.909E-03     327.447E-03    -164.524E-03     74.7568E-03
             971     11.4552E-03     123.692E-03    -30.4629E+06     35.6150E+06     58.2358E+06    -1.14672E+06    -160.604E-03     325.142E-03    -164.537E-03     77.8720E-03    -161.816E-03     326.203E-03    -164.254E-03     71.3321E-03
             972     12.2224E-03     123.785E-03    -24.5967E+06     81.1147E+06     72.1962E+06     2.62699E+06    -159.595E-03     323.839E-03    -164.245E-03     72.4032E-03    -160.843E-03     325.079E-03    -163.966E-03     65.8141E-03
             973     12.9902E-03     123.868E-03    -18.8181E+06     111.978E+06     84.6428E+06     3.04446E+06    -158.745E-03     322.710E-03    -163.964E-03     63.2287E-03    -159.952E-03     324.002E-03    -163.676E-03     56.6876E-03
             974     13.7577E-03     123.935E-03    -12.5478E+06     128.081E+06     101.319E+06     1.48112E+06    -157.901E-03     321.630E-03    -163.729E-03     54.6499E-03    -159.089E-03     322.934E-03    -163.390E-03     47.9505E-03
             975     14.5258E-03     123.994E-03    -6.09830E+06     129.777E+06     115.478E+06     912.356E+03    -157.528E-03     321.040E-03    -163.512E-03     34.2623E-03    -158.450E-03     322.067E-03    -163.114E-03     28.5633E-03
             976     762.437E-06     123.860E-03    -151.463E+06    -281.555E+06    -147.440E+06    -1.87642E+06    -166.153E-03     332.330E-03    -166.177E-03     12.7437E-03    -166.306E-03     331.373E-03    -166.286E-03     11.9512E-03
             977     1.52440E-03     123.883E-03    -146.306E+06    -266.214E+06    -132.681E+06    -3.01089E+06    -166.348E-03     332.570E-03    -166.222E-03     23.5006E-03    -166.555E-03     331.697E-03    -166.287E-03     22.0497E-03
             978     2.28636E-03     123.921E-03    -138.341E+06    -244.406E+06    -111.632E+06    -4.31872E+06    -166.400E-03     332.706E-03    -166.306E-03     34.1158E-03    -166.686E-03     331.957E-03    -166.309E-03     31.9792E-03
             979     3.04848E-03     123.972E-03    -128.611E+06    -220.526E+06    -88.6927E+06    -5.67213E+06    -166.417E-03     332.775E-03    -166.359E-03     44.1143E-03    -166.801E-03     332.178E-03    -166.296E-03     41.2901E-03
             980     3.81077E-03     124.036E-03    -117.819E+06    -196.847E+06    -66.7462E+06    -7.00084E+06    -166.482E-03     332.869E-03    -166.387E-03     53.2506E-03    -166.974E-03     332.438E-03    -166.265E-03     49.7613E-03
             981     4.57303E-03     124.111E-03    -107.083E+06    -174.179E+06    -47.3335E+06    -7.95397E+06    -166.463E-03     332.854E-03    -166.391E-03     61.2914E-03    -167.068E-03     332.598E-03    -166.220E-03     57.1778E-03
             982     5.33589E-03     124.196E-03    -96.9501E+06    -153.447E+06    -30.3828E+06    -8.59613E+06    -166.336E-03     332.702E-03    -166.366E-03     68.1467E-03    -167.054E-03     332.619E-03    -166.155E-03     63.4718E-03
             983     6.09835E-03     124.288E-03    -86.9699E+06    -134.067E+06    -15.6497E+06    -9.26201E+06    -166.075E-03     332.382E-03    -166.306E-03     73.6128E-03    -166.898E-03     332.465E-03    -166.064E-03     68.4450E-03
             984     6.86146E-03     124.386E-03    -77.6321E+06    -114.899E+06    -2.99945E+06    -9.90291E+06    -165.648E-03     331.855E-03    -166.207E-03     77.7094E-03    -166.563E-03     332.095E-03    -165.943E-03     72.1381E-03
             985     7.62493E-03     124.489E-03    -68.9134E+06    -96.9212E+06     8.00469E+06    -10.0677E+06    -165.053E-03     331.121E-03    -166.068E-03     80.4901E-03    -166.042E-03     331.499E-03    -165.788E-03     74.6125E-03
             986     8.38909E-03     124.593E-03    -60.3633E+06    -79.3095E+06     18.0860E+06    -10.0321E+06    -164.258E-03     330.146E-03    -165.888E-03     82.0250E-03    -165.302E-03     330.642E-03    -165.595E-03     75.9196E-03
             987     9.15365E-03     124.699E-03    -52.6722E+06    -60.2023E+06     27.1296E+06    -9.84803E+06    -163.310E-03     328.971E-03    -165.661E-03     82.5226E-03    -164.396E-03     329.578E-03    -165.362E-03     76.2569E-03
             988     9.91940E-03     124.803E-03    -45.6524E+06    -36.1414E+06     36.1521E+06    -8.62798E+06    -162.184E-03     327.572E-03    -165.388E-03     82.0303E-03    -163.308E-03     328.301E-03    -165.088E-03     75.6657E-03
             989     10.6857E-03     124.905E-03    -38.8675E+06    -9.71870E+06     45.8639E+06    -5.91696E+06    -160.993E-03     326.070E-03    -165.078E-03     80.3137E-03    -162.146E-03     326.919E-03    -164.778E-03     73.8918E-03
             990     11.4526E-03     125.003E-03    -32.4869E+06     27.2203E+06     54.4943E+06    -1.70198E+06    -159.850E-03     324.571E-03    -164.722E-03     77.1797E-03    -161.036E-03     325.581E-03    -164.441E-03     70.7283E-03
             991     12.2202E-03     125.095E-03    -26.0986E+06     76.2294E+06     69.0514E+06     2.14247E+06    -158.699E-03     323.061E-03    -164.362E-03     72.3520E-03    -159.928E-03     324.268E-03    -164.090E-03     65.8698E-03
             992     12.9884E-03     125.177E-03    -19.5679E+06     114.323E+06     83.1547E+06     2.91819E+06    -157.706E-03     321.718E-03    -164.012E-03     63.7891E-03    -158.905E-03     323.013E-03    -163.734E-03     57.3746E-03
             993     13.7575E-03     125.244E-03    -13.2445E+06     129.840E+06     100.541E+06     1.69183E+06    -157.079E-03     320.803E-03    -163.724E-03     55.6305E-03    -158.265E-03     322.111E-03    -163.390E-03     49.0454E-03
             994     14.5270E-03     125.301E-03    -6.63710E+06     130.989E+06     116.275E+06     517.551E+03    -157.042E-03     320.521E-03    -163.479E-03     35.2661E-03    -157.969E-03     321.552E-03    -163.078E-03     29.6303E-03
             995     761.474E-06     125.182E-03    -150.843E+06    -276.565E+06    -146.711E+06    -1.18860E+06    -167.049E-03     334.065E-03    -167.016E-03     12.5646E-03    -167.207E-03     333.131E-03    -167.129E-03     11.7663E-03
             996     1.52293E-03     125.206E-03    -145.219E+06    -260.335E+06    -131.234E+06    -3.09937E+06    -167.100E-03     334.170E-03    -167.071E-03     23.0813E-03    -167.311E-03     333.322E-03    -167.139E-03     21.6200E-03
             997     2.28449E-03     125.243E-03    -137.253E+06    -239.215E+06    -110.740E+06    -4.89612E+06    -167.056E-03     334.164E-03    -167.108E-03     33.6725E-03    -167.345E-03     333.438E-03    -167.116E-03     31.5144E-03
             998     3.04623E-03     125.294E-03    -127.442E+06    -215.606E+06    -87.7077E+06    -6.26632E+06    -167.124E-03     334.256E-03    -167.132E-03     43.6607E-03    -167.510E-03     333.678E-03    -167.073E-03     40.8121E-03
             999     3.80784E-03     125.358E-03    -117.180E+06    -192.144E+06    -65.9868E+06    -7.45729E+06    -167.128E-03     334.273E-03    -167.144E-03     52.6217E-03    -167.623E-03     333.860E-03    -167.026E-03     49.1069E-03
            1000     4.56976E-03     125.433E-03    -106.911E+06    -170.204E+06    -46.8048E+06    -8.59114E+06    -166.971E-03     334.095E-03    -167.124E-03     60.4604E-03    -167.578E-03     333.854E-03    -166.956E-03     56.3202E-03
            1001     5.33159E-03     125.517E-03    -96.4704E+06    -149.736E+06    -29.9158E+06    -9.62392E+06    -166.622E-03     333.678E-03    -167.057E-03     67.1294E-03    -167.337E-03     333.606E-03    -166.849E-03     62.4344E-03
            1002     6.09449E-03     125.608E-03    -86.6454E+06    -130.953E+06    -15.7044E+06    -10.4391E+06    -166.185E-03     333.125E-03    -166.939E-03     72.5704E-03    -167.002E-03     333.214E-03    -166.702E-03     67.4007E-03
            1003     6.85743E-03     125.706E-03    -77.6307E+06    -112.241E+06    -3.40161E+06    -10.8184E+06    -165.664E-03     332.445E-03    -166.780E-03     76.7097E-03    -166.571E-03     332.688E-03    -166.522E-03     71.1525E-03
            1004     7.62086E-03     125.807E-03    -69.2570E+06    -94.8399E+06     7.49323E+06    -11.2313E+06    -164.849E-03     331.429E-03    -166.579E-03     79.5354E-03    -165.829E-03     331.804E-03    -166.304E-03     73.6855E-03
            1005     8.38509E-03     125.910E-03    -61.3264E+06    -77.9420E+06     17.1700E+06    -11.4250E+06    -163.828E-03     330.155E-03    -166.326E-03     81.1834E-03    -164.861E-03     330.643E-03    -166.039E-03     75.1311E-03
            1006     9.15039E-03     126.014E-03    -53.8776E+06    -59.4476E+06     26.0987E+06    -11.0829E+06    -162.709E-03     328.731E-03    -166.022E-03     81.7650E-03    -163.781E-03     329.325E-03    -165.728E-03     75.5773E-03
            1007     9.91604E-03     126.117E-03    -46.8907E+06    -38.3501E+06     34.4692E+06    -9.75563E+06    -161.413E-03     327.083E-03    -165.670E-03     81.3266E-03    -162.515E-03     327.782E-03    -165.374E-03     75.0629E-03
            1008     10.6831E-03     126.217E-03    -40.0980E+06    -14.5622E+06     43.2649E+06    -7.19944E+06    -160.017E-03     325.293E-03    -165.276E-03     80.0626E-03    -161.144E-03     326.100E-03    -164.980E-03     73.7644E-03
            1009     11.4510E-03     126.313E-03    -33.4526E+06     18.8746E+06     51.0577E+06    -3.10014E+06    -158.689E-03     323.521E-03    -164.832E-03     77.6189E-03    -159.842E-03     324.475E-03    -164.556E-03     71.3113E-03
            1010     12.2200E-03     126.403E-03    -26.5507E+06     71.4329E+06     66.8492E+06     851.912E+03    -157.520E-03     321.908E-03    -164.388E-03     73.3585E-03    -158.725E-03     323.078E-03    -164.119E-03     67.0250E-03
            1011     12.9897E-03     126.485E-03    -19.7772E+06     115.877E+06     81.5834E+06     2.00486E+06    -156.839E-03     320.804E-03    -163.965E-03     64.9380E-03    -158.030E-03     322.099E-03    -163.696E-03     58.6404E-03
            1012     13.7594E-03     126.550E-03    -13.0605E+06     131.842E+06     99.6663E+06     1.07272E+06    -156.896E-03     320.545E-03    -163.649E-03     56.2252E-03    -158.077E-03     321.858E-03    -163.322E-03     49.6956E-03
            1013     14.5282E-03     126.609E-03    -6.43596E+06     132.348E+06     117.230E+06     160.863E+03    -157.241E-03     320.658E-03    -163.417E-03     35.3117E-03    -158.167E-03     321.691E-03    -163.013E-03     29.6873E-03
            1014     760.673E-06     126.507E-03    -149.357E+06    -270.744E+06    -146.436E+06    -2.40522E+06    -168.054E-03     336.032E-03    -167.978E-03     12.8522E-03    -168.213E-03     335.125E-03    -168.101E-03     12.0388E-03
            1015     1.52137E-03     126.530E-03    -143.922E+06    -254.638E+06    -130.655E+06    -3.61320E+06    -167.908E-03     335.925E-03    -168.017E-03     22.9025E-03    -168.122E-03     335.103E-03    -168.092E-03     21.4214E-03
            1016     2.28253E-03     126.567E-03    -135.972E+06    -233.510E+06    -109.574E+06    -5.07853E+06    -167.862E-03     335.870E-03    -168.008E-03     33.2730E-03    -168.153E-03     335.167E-03    -168.020E-03     31.1017E-03
            1017     3.04343E-03     126.618E-03    -126.599E+06    -210.204E+06    -86.9927E+06    -6.65446E+06    -167.813E-03     335.810E-03    -167.996E-03     43.1226E-03    -168.202E-03     335.255E-03    -167.943E-03     40.2615E-03
            1018     3.80461E-03     126.682E-03    -116.366E+06    -187.427E+06    -65.3380E+06    -7.87379E+06    -167.663E-03     335.626E-03    -167.962E-03     52.0561E-03    -168.158E-03     335.231E-03    -167.849E-03     48.5311E-03
            1019     4.56592E-03     126.756E-03    -105.837E+06    -165.679E+06    -46.0143E+06    -9.04925E+06    -167.372E-03     335.259E-03    -167.887E-03     59.9395E-03    -167.976E-03     335.033E-03    -167.723E-03     55.8003E-03
            1020     5.32802E-03     126.839E-03    -95.9816E+06    -145.702E+06    -29.7430E+06    -10.0780E+06    -166.906E-03     334.665E-03    -167.760E-03     66.5302E-03    -167.617E-03     334.605E-03    -167.558E-03     61.8483E-03
            1021     6.09020E-03     126.929E-03    -86.8228E+06    -127.234E+06    -15.8702E+06    -10.8680E+06    -166.249E-03     333.827E-03    -167.578E-03     71.9357E-03    -167.060E-03     333.924E-03    -167.347E-03     66.8034E-03
            1022     6.85327E-03     127.026E-03    -77.9296E+06    -109.580E+06    -3.73859E+06    -11.5812E+06    -165.372E-03     332.710E-03    -167.338E-03     76.0480E-03    -166.268E-03     332.951E-03    -167.085E-03     70.5552E-03
            1023     7.61714E-03     127.125E-03    -69.5798E+06    -92.3889E+06     7.17600E+06    -11.7731E+06    -164.339E-03     331.381E-03    -167.042E-03     78.9598E-03    -165.304E-03     331.751E-03    -166.772E-03     73.2025E-03
            1024     8.38189E-03     127.227E-03    -62.1803E+06    -75.6725E+06     16.6653E+06    -11.9603E+06    -163.148E-03     329.841E-03    -166.693E-03     80.8128E-03    -164.165E-03     330.320E-03    -166.409E-03     74.8826E-03
            1025     9.14732E-03     127.329E-03    -55.1227E+06    -58.6433E+06     24.9526E+06    -11.9302E+06    -161.748E-03     328.035E-03    -166.287E-03     81.6991E-03    -162.800E-03     328.611E-03    -165.997E-03     75.6628E-03
            1026     9.91437E-03     127.430E-03    -48.1054E+06    -40.1949E+06     32.6346E+06    -10.7809E+06    -160.270E-03     326.099E-03    -165.830E-03     81.7155E-03    -161.346E-03     326.768E-03    -165.539E-03     75.6242E-03
            1027     10.6822E-03     127.527E-03    -41.2778E+06    -17.9719E+06     40.9970E+06    -8.82932E+06    -158.800E-03     324.134E-03    -165.334E-03     80.7879E-03    -159.899E-03     324.904E-03    -165.043E-03     74.6637E-03
            1028     11.4514E-03     127.621E-03    -34.1503E+06     11.6512E+06     48.4386E+06    -5.79821E+06    -157.549E-03     322.354E-03    -164.805E-03     78.4767E-03    -158.668E-03     323.253E-03    -164.530E-03     72.3214E-03
            1029     12.2213E-03     127.710E-03    -26.7806E+06     65.4004E+06     64.6503E+06    -1.56387E+06    -156.783E-03     321.080E-03    -164.298E-03     74.0594E-03    -157.956E-03     322.204E-03    -164.031E-03     67.8523E-03
            1030     12.9913E-03     127.791E-03    -19.7831E+06     116.712E+06     79.7388E+06     884.178E+03    -156.691E-03     320.532E-03    -163.841E-03     65.5749E-03    -157.867E-03     321.821E-03    -163.583E-03     59.3646E-03
            1031     13.7602E-03     127.858E-03    -13.3351E+06     133.131E+06     97.2409E+06     511.558E+03    -157.052E-03     320.578E-03    -163.526E-03     57.3440E-03    -158.226E-03     321.895E-03    -163.213E-03     50.8828E-03
            1032     14.5283E-03     127.917E-03    -6.69762E+06     132.618E+06     116.498E+06    -166.076E+03    -157.594E-03     320.915E-03    -163.321E-03     36.5625E-03    -158.519E-03     321.949E-03    -162.921E-03     30.9877E-03
            1033     759.927E-06     127.833E-03    -147.472E+06    -263.305E+06    -143.716E+06     -2.3924E+06    -168.961E-03     337.856E-03    -168.895E-03     12.5204E-03    -169.124E-03     336.978E-03    -169.018E-03     11.7143E-03
            1034     1.52024E-03     127.857E-03    -142.505E+06    -248.643E+06    -129.333E+06    -4.05298E+06    -168.863E-03     337.799E-03    -168.936E-03     22.7954E-03    -169.079E-03     337.002E-03    -169.016E-03     21.3093E-03
            1035     2.28005E-03     127.894E-03    -134.453E+06    -227.581E+06    -108.437E+06    -5.40881E+06    -168.764E-03     337.696E-03    -168.932E-03     33.0000E-03    -169.058E-03     337.019E-03    -168.949E-03     30.8146E-03
            1036     3.04058E-03     127.944E-03    -125.187E+06    -204.759E+06    -86.1148E+06    -6.71187E+06    -168.401E-03     337.281E-03    -168.880E-03     42.7575E-03    -168.789E-03     336.747E-03    -168.832E-03     39.9036E-03
            1037     3.80141E-03     128.007E-03    -115.117E+06    -182.665E+06    -64.4816E+06    -7.99976E+06    -168.001E-03     336.765E-03    -168.764E-03     51.7304E-03    -168.492E-03     336.386E-03    -168.655E-03     48.2320E-03
            1038     4.56279E-03     128.080E-03    -105.180E+06    -161.257E+06    -45.6476E+06    -9.03503E+06    -167.555E-03     336.151E-03    -168.597E-03     59.5823E-03    -168.153E-03     335.937E-03    -168.439E-03     55.4925E-03
            1039     5.32433E-03     128.162E-03    -95.7142E+06    -141.491E+06    -29.5543E+06    -10.0188E+06    -166.955E-03     335.339E-03    -168.384E-03     66.2314E-03    -167.659E-03     335.286E-03    -168.188E-03     61.6202E-03
            1040     6.08672E-03     128.252E-03    -86.4895E+06    -123.323E+06    -15.5580E+06    -10.9278E+06    -166.020E-03     334.132E-03    -168.112E-03     71.7592E-03    -166.819E-03     334.232E-03    -167.886E-03     66.7208E-03
            1041     6.84996E-03     128.346E-03    -78.0172E+06    -106.212E+06    -3.51655E+06    -11.6211E+06    -164.799E-03     332.567E-03    -167.767E-03     76.1399E-03    -165.681E-03     332.805E-03    -167.518E-03     70.7781E-03
            1042     7.61441E-03     128.444E-03    -70.2424E+06    -90.1649E+06     6.70715E+06    -12.0424E+06    -163.499E-03     330.851E-03    -167.352E-03     79.3231E-03    -164.445E-03     331.209E-03    -167.086E-03     73.7335E-03
            1043     8.37971E-03     128.543E-03    -62.7978E+06    -73.3624E+06     16.1709E+06    -11.9311E+06    -162.039E-03     328.918E-03    -166.879E-03     81.3857E-03    -163.032E-03     329.381E-03    -166.601E-03     75.6623E-03
            1044     9.14667E-03     128.643E-03    -55.9615E+06    -56.9250E+06     24.4085E+06    -11.9939E+06    -160.465E-03     326.817E-03    -166.352E-03     82.5305E-03    -161.492E-03     327.373E-03    -166.067E-03     76.7230E-03
            1045     9.91455E-03     128.741E-03    -49.4278E+06    -40.5012E+06     31.5425E+06    -11.9097E+06    -158.970E-03     324.754E-03    -165.784E-03     82.6427E-03    -160.020E-03     325.393E-03    -165.496E-03     76.7700E-03
            1046     10.6839E-03     128.836E-03    -42.3193E+06    -19.3028E+06     39.7710E+06    -11.0662E+06    -157.777E-03     322.979E-03    -165.202E-03     81.6745E-03    -158.847E-03     323.715E-03    -164.914E-03     75.7400E-03
            1047     11.4536E-03     128.928E-03    -34.7902E+06     6.63216E+06     46.6555E+06    -9.12885E+06    -157.090E-03     321.718E-03    -164.628E-03     79.3633E-03    -158.177E-03     322.569E-03    -164.353E-03     73.3440E-03
            1048     12.2237E-03     129.016E-03    -27.3758E+06     56.9468E+06     61.6412E+06    -4.89122E+06    -156.787E-03     320.897E-03    -164.110E-03     75.1106E-03    -157.928E-03     321.965E-03    -163.845E-03     68.9973E-03
            1049     12.9932E-03     129.098E-03    -19.8338E+06     113.540E+06     75.9589E+06    -1.13818E+06    -156.853E-03     320.506E-03    -163.653E-03     67.0969E-03    -158.008E-03     321.773E-03    -163.409E-03     60.9717E-03
            1050     13.7627E-03     129.165E-03    -12.4741E+06     135.216E+06     95.3360E+06    -120.235E+03    -157.398E-03     320.755E-03    -163.357E-03     58.6544E-03    -158.562E-03     322.078E-03    -163.058E-03     52.2557E-03
            1051     14.5326E-03     129.224E-03    -5.93455E+06     133.258E+06     116.954E+06    -252.942E+03    -158.408E-03     321.610E-03    -163.203E-03     37.2574E-03    -159.327E-03     322.642E-03    -162.802E-03     31.7070E-03
            1052     759.348E-06     129.162E-03    -145.258E+06    -256.302E+06    -141.382E+06    -1.56481E+06    -169.872E-03     339.688E-03    -169.816E-03     12.2182E-03    -170.038E-03     338.839E-03    -169.941E-03     11.4249E-03
            1053     1.51858E-03     129.186E-03    -140.184E+06    -241.862E+06    -126.842E+06    -3.74459E+06    -169.627E-03     339.452E-03    -169.824E-03     22.6691E-03    -169.844E-03     338.680E-03    -169.904E-03     21.2092E-03
            1054     2.27826E-03     129.223E-03    -132.978E+06    -222.068E+06    -107.341E+06    -5.35443E+06    -169.300E-03     339.038E-03    -169.739E-03     33.0364E-03    -169.593E-03     338.382E-03    -169.760E-03     30.8796E-03
            1055     3.03806E-03     129.272E-03    -123.703E+06    -199.718E+06    -84.8279E+06    -6.39242E+06    -168.840E-03     338.444E-03    -169.604E-03     42.8789E-03    -169.225E-03     337.927E-03    -169.559E-03     40.0678E-03
            1056     3.79871E-03     129.334E-03    -114.033E+06    -177.781E+06    -63.4772E+06    -7.55483E+06    -168.229E-03     337.636E-03    -169.407E-03     51.8634E-03    -168.715E-03     337.270E-03    -169.301E-03     48.4390E-03
            1057     4.55979E-03     129.406E-03    -104.292E+06    -156.573E+06    -44.9519E+06    -8.78167E+06    -167.469E-03     336.609E-03    -169.140E-03     59.7548E-03    -168.059E-03     336.404E-03    -168.987E-03     55.7690E-03
            1058     5.32180E-03     129.487E-03    -94.5199E+06    -137.299E+06    -28.7721E+06    -9.79152E+06    -166.459E-03     335.262E-03    -168.804E-03     66.6715E-03    -167.147E-03     335.212E-03    -168.611E-03     62.2017E-03
            1059     6.08458E-03     129.574E-03    -85.7287E+06    -119.718E+06    -14.8858E+06    -10.4048E+06    -165.240E-03     333.634E-03    -168.393E-03     72.4782E-03    -166.021E-03     333.728E-03    -168.170E-03     67.6213E-03
            1060     6.84875E-03     129.666E-03    -77.5766E+06    -102.770E+06    -2.93105E+06    -10.9883E+06    -163.881E-03     331.794E-03    -167.913E-03     77.1641E-03    -164.741E-03     332.023E-03    -167.666E-03     72.0170E-03
            1061     7.61388E-03     129.761E-03    -69.9077E+06    -86.9859E+06     7.37725E+06    -11.6178E+06    -162.334E-03     329.705E-03    -167.370E-03     80.5799E-03    -163.255E-03     330.047E-03    -167.106E-03     75.2363E-03
            1062     8.38072E-03     129.858E-03    -62.6216E+06    -71.5834E+06     16.3592E+06    -11.9807E+06    -160.728E-03     327.500E-03    -166.772E-03     82.6886E-03    -161.690E-03     327.938E-03    -166.496E-03     77.2234E-03
            1063     9.14853E-03     129.955E-03    -55.4292E+06    -54.7620E+06     24.9267E+06    -12.1392E+06    -159.230E-03     325.369E-03    -166.139E-03     83.7469E-03    -160.222E-03     325.898E-03    -165.854E-03     78.2032E-03
            1064     9.91769E-03     130.050E-03    -48.5648E+06    -38.4936E+06     32.5859E+06    -12.3812E+06    -158.046E-03     323.543E-03    -165.497E-03     83.8447E-03    -159.060E-03     324.154E-03    -165.208E-03     78.2185E-03
            1065     10.6873E-03     130.144E-03    -42.3000E+06    -18.5786E+06     40.0236E+06    -12.5879E+06    -157.324E-03     322.202E-03    -164.878E-03     82.8793E-03    -158.363E-03     322.908E-03    -164.589E-03     77.1453E-03
            1066     11.4575E-03     130.235E-03    -36.0693E+06     4.13820E+06     46.0760E+06    -11.7319E+06    -157.070E-03     321.374E-03    -164.305E-03     80.8406E-03    -158.131E-03     322.189E-03    -164.028E-03     74.9707E-03
            1067     12.2269E-03     130.323E-03    -28.7325E+06     49.2033E+06     59.4243E+06    -8.64823E+06    -157.205E-03     321.018E-03    -163.813E-03     77.0517E-03    -158.322E-03     322.035E-03    -163.545E-03     71.0215E-03
            1068     12.9970E-03     130.404E-03    -20.8501E+06     108.979E+06     73.3559E+06    -4.49002E+06    -157.698E-03     321.095E-03    -163.397E-03     68.7329E-03    -158.839E-03     322.336E-03    -163.158E-03     62.6368E-03
            1069     13.7657E-03     130.473E-03    -13.6041E+06     134.926E+06     92.1082E+06    -2.03005E+06    -158.550E-03     321.708E-03    -163.158E-03     59.8070E-03    -159.712E-03     323.034E-03    -162.873E-03     53.3955E-03
            1070     14.5313E-03     130.534E-03    -6.22954E+06     132.038E+06     115.026E+06    -696.783E+03    -159.390E-03     322.465E-03    -163.075E-03     38.3343E-03    -160.307E-03     323.495E-03    -162.682E-03     32.7716E-03
            1071     758.533E-06     130.495E-03    -143.771E+06    -250.409E+06    -140.201E+06    -1.99186E+06    -170.460E-03     340.958E-03    -170.497E-03     12.5002E-03    -170.629E-03     340.134E-03    -170.627E-03     11.7184E-03
            1072     1.51737E-03     130.517E-03    -138.634E+06    -235.894E+06    -125.584E+06    -3.13639E+06    -169.957E-03     340.351E-03    -170.394E-03     22.9731E-03    -170.175E-03     339.603E-03    -170.479E-03     21.5495E-03
            1073     2.27695E-03     130.553E-03    -131.362E+06    -216.575E+06    -105.502E+06    -4.68670E+06    -169.428E-03     339.619E-03    -170.192E-03     33.6195E-03    -169.720E-03     338.982E-03    -170.215E-03     31.5420E-03
            1074     3.03705E-03     130.602E-03    -122.239E+06    -194.649E+06    -83.3662E+06    -6.22291E+06    -168.935E-03     338.896E-03    -169.962E-03     43.5440E-03    -169.315E-03     338.394E-03    -169.919E-03     40.8289E-03
            1075     3.79733E-03     130.662E-03    -112.323E+06    -172.836E+06    -62.4629E+06     -7.4361E+06    -168.103E-03     337.783E-03    -169.680E-03     52.6642E-03    -168.579E-03     337.427E-03    -169.579E-03     49.3663E-03
            1076     4.55874E-03     130.732E-03    -102.441E+06    -152.109E+06    -43.8086E+06    -8.34536E+06    -166.873E-03     336.173E-03    -169.300E-03     60.8797E-03    -167.447E-03     335.970E-03    -169.150E-03     57.0670E-03
            1077     5.32124E-03     130.810E-03    -93.2440E+06    -133.512E+06    -27.5425E+06    -9.03743E+06    -165.470E-03     334.289E-03    -168.818E-03     68.0085E-03    -166.139E-03     334.232E-03    -168.627E-03     63.7601E-03
            1078     6.08545E-03     130.895E-03    -84.3340E+06    -116.027E+06    -13.4813E+06     -9.7488E+06    -164.052E-03     332.310E-03    -168.258E-03     74.0386E-03    -164.806E-03     332.392E-03    -168.035E-03     69.4420E-03
            1079     6.85035E-03     130.985E-03    -75.8174E+06    -99.1938E+06    -1.31833E+06    -10.4828E+06    -162.576E-03     330.217E-03    -167.641E-03     78.8673E-03    -163.402E-03     330.426E-03    -167.394E-03     74.0077E-03
            1080     7.61692E-03     131.077E-03    -67.7610E+06    -83.6961E+06     9.31698E+06    -11.0598E+06    -161.019E-03     328.001E-03    -166.982E-03     82.3471E-03    -161.900E-03     328.317E-03    -166.716E-03     77.3055E-03
            1081     8.38450E-03     131.171E-03    -60.2924E+06    -68.6014E+06     18.5318E+06    -11.7055E+06    -159.555E-03     325.850E-03    -166.294E-03     84.5398E-03    -160.475E-03     326.258E-03    -166.015E-03     79.3746E-03
            1082     9.15341E-03     131.265E-03    -53.4179E+06    -52.0890E+06     26.8348E+06    -12.1656E+06    -158.400E-03     324.004E-03    -165.604E-03     85.5914E-03    -159.350E-03     324.502E-03    -165.317E-03     80.3288E-03
            1083     9.92307E-03     131.358E-03    -47.0285E+06    -36.5051E+06     34.3026E+06    -12.3189E+06    -157.699E-03     322.647E-03    -164.948E-03     85.6794E-03    -158.674E-03     323.226E-03    -164.656E-03     80.3069E-03
            1084     10.6931E-03     131.451E-03    -40.9639E+06    -16.1273E+06     41.9636E+06    -12.6434E+06    -157.454E-03     321.805E-03    -164.352E-03     84.7984E-03    -158.461E-03     322.488E-03    -164.059E-03     79.2740E-03
            1085     11.4628E-03     131.541E-03    -35.0436E+06     3.60203E+06     47.4221E+06    -12.4437E+06    -157.661E-03     321.492E-03    -163.832E-03     82.6200E-03    -158.695E-03     322.277E-03    -163.549E-03     76.8954E-03
            1086     12.2331E-03     131.629E-03    -29.0618E+06     45.9147E+06     59.2816E+06    -11.4859E+06    -158.287E-03     321.701E-03    -163.414E-03     78.6337E-03    -159.384E-03     322.686E-03    -163.142E-03     72.6670E-03
            1087     13.0009E-03     131.712E-03    -21.5459E+06     102.703E+06     71.7710E+06    -8.93841E+06    -159.192E-03     322.282E-03    -163.090E-03     70.3772E-03    -160.317E-03     323.487E-03    -162.849E-03     64.2727E-03
            1088     13.7676E-03     131.782E-03    -13.6138E+06     129.708E+06     89.7532E+06    -4.21726E+06    -159.965E-03     322.904E-03    -162.939E-03     61.4813E-03    -161.118E-03     324.208E-03    -162.658E-03     55.0407E-03
            1089     14.5362E-03     131.845E-03    -6.72847E+06     131.040E+06     113.839E+06    -1.11418E+06    -160.618E-03     323.552E-03    -162.934E-03     39.4663E-03    -161.539E-03     324.585E-03    -162.546E-03     33.8720E-03
            1090     758.613E-06     131.828E-03    -142.107E+06    -244.283E+06    -139.149E+06    -2.12285E+06    -170.239E-03     340.712E-03    -170.473E-03     12.9132E-03    -170.409E-03     339.914E-03    -170.608E-03     12.1622E-03
            1091     1.51778E-03     131.849E-03    -137.382E+06    -230.627E+06    -124.527E+06    -3.26702E+06    -169.846E-03     340.115E-03    -170.269E-03     23.5709E-03    -170.065E-03     339.388E-03    -170.358E-03     22.2121E-03
            1092     2.27727E-03     131.884E-03    -129.375E+06    -210.849E+06    -103.822E+06    -4.62175E+06    -169.252E-03     339.309E-03    -170.056E-03     34.4126E-03    -169.539E-03     338.689E-03    -170.082E-03     32.4461E-03
            1093     3.03725E-03     131.931E-03    -120.277E+06    -189.450E+06    -82.3339E+06    -6.16192E+06    -168.353E-03     338.112E-03    -169.759E-03     44.6303E-03    -168.723E-03     337.621E-03    -169.722E-03     42.0729E-03
            1094     3.79829E-03     131.990E-03    -110.426E+06    -168.219E+06    -61.3446E+06    -7.18094E+06    -167.129E-03     336.482E-03    -169.353E-03     54.0781E-03    -167.589E-03     336.130E-03    -169.256E-03     50.9807E-03
            1095     4.56056E-03     132.057E-03    -100.742E+06    -148.091E+06    -42.2742E+06    -7.98391E+06    -165.667E-03     334.502E-03    -168.835E-03     62.7166E-03    -166.220E-03     334.294E-03    -168.685E-03     59.1527E-03
            1096     5.32446E-03     132.133E-03    -91.0242E+06    -129.609E+06    -25.5489E+06    -8.84899E+06    -164.176E-03     332.402E-03    -168.226E-03     70.1925E-03    -164.816E-03     332.332E-03    -168.034E-03     66.2292E-03
            1097     6.08913E-03     132.214E-03    -81.4902E+06    -112.041E+06    -11.1025E+06    -9.77123E+06    -162.634E-03     330.188E-03    -167.554E-03     76.3995E-03    -163.351E-03     330.250E-03    -167.329E-03     72.1144E-03
            1098     6.85585E-03     132.301E-03    -72.5236E+06    -95.6487E+06     1.34897E+06    -10.5065E+06    -161.105E-03     327.943E-03    -166.839E-03     81.3341E-03    -161.885E-03     328.123E-03    -166.588E-03     76.8081E-03
            1099     7.62339E-03     132.391E-03    -64.1101E+06    -80.7555E+06     12.1459E+06    -11.0329E+06    -159.794E-03     325.903E-03    -166.109E-03     84.8787E-03    -160.624E-03     326.184E-03    -165.838E-03     80.1723E-03
            1100     8.39230E-03     132.482E-03    -56.4457E+06    -65.5711E+06     21.5830E+06    -11.2884E+06    -158.783E-03     324.178E-03    -165.395E-03     87.0042E-03    -159.651E-03     324.550E-03    -165.110E-03     82.1612E-03
            1101     9.16185E-03     132.574E-03    -49.5226E+06    -49.1482E+06     30.0757E+06    -11.4942E+06    -158.179E-03     322.905E-03    -164.726E-03     87.9658E-03    -159.080E-03     323.368E-03    -164.432E-03     82.9914E-03
            1102     9.93145E-03     132.666E-03    -43.1818E+06    -34.5169E+06     37.3963E+06    -11.7205E+06    -158.020E-03     322.150E-03    -164.130E-03     87.9514E-03    -158.949E-03     322.695E-03    -163.830E-03     82.8201E-03
            1103     10.7011E-03     132.757E-03    -37.1592E+06    -13.2696E+06     45.3372E+06    -12.0324E+06    -158.293E-03     321.916E-03    -163.623E-03     86.9323E-03    -159.260E-03     322.572E-03    -163.323E-03     81.6033E-03
            1104     11.4706E-03     132.849E-03    -31.7809E+06     4.31414E+06     50.4156E+06    -12.1356E+06    -159.114E-03     322.335E-03    -163.221E-03     84.6907E-03    -160.115E-03     323.093E-03    -162.929E-03     79.0955E-03
            1105     12.2376E-03     132.937E-03    -26.2301E+06     46.6570E+06     61.8263E+06    -11.9524E+06    -160.066E-03     322.999E-03    -162.933E-03     80.8041E-03    -161.140E-03     323.967E-03    -162.654E-03     74.9032E-03
            1106     13.0055E-03     133.022E-03    -21.1641E+06     99.7065E+06     72.7390E+06    -11.2024E+06    -160.935E-03     323.671E-03    -162.736E-03     72.4502E-03    -162.049E-03     324.854E-03    -162.486E-03     66.3528E-03
            1107     13.7723E-03     133.093E-03    -14.8747E+06     121.320E+06     85.8318E+06    -7.85833E+06    -161.734E-03     324.418E-03    -162.684E-03     62.6843E-03    -162.874E-03     325.687E-03    -162.410E-03     56.1782E-03
            1108     14.5356E-03     133.157E-03    -7.35652E+06     126.352E+06     109.130E+06    -2.66434E+06    -162.162E-03     324.930E-03    -162.768E-03     40.2080E-03    -163.074E-03     325.948E-03    -162.395E-03     34.5588E-03
            1109     759.479E-06     133.159E-03    -141.088E+06    -238.222E+06    -137.102E+06    -1.73767E+06    -169.420E-03     338.827E-03    -169.407E-03     13.1578E-03    -169.596E-03     338.054E-03    -169.543E-03     12.4717E-03
            1110     1.51907E-03     133.180E-03    -135.592E+06    -224.714E+06    -122.641E+06    -3.56016E+06    -168.973E-03     338.310E-03    -169.337E-03     24.3260E-03    -169.190E-03     337.603E-03    -169.428E-03     23.0758E-03
            1111     2.27889E-03     133.214E-03    -127.653E+06    -205.262E+06    -102.965E+06    -5.04982E+06    -168.151E-03     337.252E-03    -169.100E-03     35.7704E-03    -168.432E-03     336.649E-03    -169.132E-03     33.9579E-03
            1112     3.03998E-03     133.259E-03    -118.408E+06    -184.173E+06    -81.1176E+06    -6.20588E+06    -166.872E-03     335.583E-03    -168.712E-03     46.5692E-03    -167.229E-03     335.102E-03    -168.678E-03     44.2270E-03
            1113     3.80251E-03     133.315E-03    -108.667E+06    -163.538E+06    -59.6523E+06    -7.44252E+06    -165.427E-03     333.612E-03    -168.185E-03     56.3699E-03    -165.869E-03     333.260E-03    -168.088E-03     53.5374E-03
            1114     4.56643E-03     133.379E-03    -98.2751E+06    -143.588E+06    -40.1369E+06    -8.66204E+06    -163.970E-03     331.531E-03    -167.561E-03     65.2127E-03    -164.494E-03     331.313E-03    -167.411E-03     61.9497E-03
            1115     5.33127E-03     133.452E-03    -87.9782E+06    -125.472E+06    -23.1852E+06    -9.67706E+06    -162.466E-03     329.340E-03    -166.873E-03     73.0894E-03    -163.067E-03     329.250E-03    -166.680E-03     69.4624E-03
            1116     6.09801E-03     133.531E-03    -78.0927E+06    -108.151E+06    -8.50129E+06    -10.4687E+06    -161.057E-03     327.203E-03    -166.146E-03     79.6081E-03    -161.729E-03     327.238E-03    -165.918E-03     75.6775E-03
            1117     6.86547E-03     133.614E-03    -68.8303E+06    -92.2388E+06     4.21342E+06    -11.1352E+06    -159.857E-03     325.269E-03    -165.412E-03     84.6053E-03    -160.587E-03     325.415E-03    -165.157E-03     80.4320E-03
            1118     7.63449E-03     133.701E-03    -60.2345E+06    -77.9499E+06     15.0404E+06    -11.5100E+06    -159.012E-03     323.718E-03    -164.706E-03     88.0395E-03    -159.788E-03     323.960E-03    -164.430E-03     83.6731E-03
            1119     8.40367E-03     133.791E-03    -52.1440E+06    -63.1784E+06     24.6410E+06    -11.6768E+06    -158.628E-03     322.688E-03    -164.060E-03     90.0049E-03    -159.440E-03     323.019E-03    -163.770E-03     85.4669E-03
            1120     9.17293E-03     133.881E-03    -44.6369E+06    -47.1476E+06     33.3644E+06    -11.4517E+06    -158.635E-03     322.136E-03    -163.501E-03     90.8883E-03    -159.481E-03     322.559E-03    -163.201E-03     86.1803E-03
            1121     9.94241E-03     133.973E-03    -37.8271E+06    -32.4579E+06     41.0515E+06    -11.1779E+06    -159.073E-03     322.117E-03    -163.044E-03     90.7782E-03    -159.949E-03     322.624E-03    -162.737E-03     85.8758E-03
            1122     10.7111E-03     134.065E-03    -32.0483E+06    -11.0119E+06     48.9348E+06    -10.9821E+06    -159.886E-03     322.582E-03    -162.696E-03     89.7440E-03    -160.808E-03     323.209E-03    -162.389E-03     84.6048E-03
            1123     11.4786E-03     134.157E-03    -26.5268E+06     6.38530E+06     54.8927E+06    -11.3100E+06    -160.988E-03     323.452E-03    -162.464E-03     87.7676E-03    -161.952E-03     324.185E-03    -162.160E-03     82.3201E-03
            1124     12.2462E-03     134.248E-03    -21.2953E+06     48.2576E+06     65.6366E+06    -11.3214E+06    -162.148E-03     324.482E-03    -162.334E-03     83.9620E-03    -163.193E-03     325.433E-03    -162.045E-03     78.1656E-03
            1125     13.0111E-03     134.333E-03    -15.6733E+06     99.2641E+06     76.7492E+06    -10.1655E+06    -163.078E-03     325.369E-03    -162.290E-03     75.5289E-03    -164.166E-03     326.531E-03    -162.028E-03     69.5064E-03
            1126     13.7747E-03     134.407E-03    -10.9170E+06     114.271E+06     85.3130E+06    -7.61692E+06    -163.863E-03     326.226E-03    -162.363E-03     65.7616E-03    -164.977E-03     327.459E-03    -162.087E-03     59.2798E-03
            1127     14.5401E-03     134.471E-03    -5.84289E+06     118.937E+06     103.549E+06    -3.77016E+06    -164.500E-03     327.054E-03    -162.554E-03     42.2482E-03    -165.392E-03     328.048E-03    -162.201E-03     36.5564E-03
            1128     760.719E-06     134.487E-03    -139.302E+06    -232.053E+06    -136.112E+06    -1.96731E+06    -167.675E-03     334.882E-03    -167.207E-03     14.1218E-03    -167.851E-03     334.134E-03    -167.349E-03     13.5100E-03
            1129     1.52160E-03     134.507E-03    -134.050E+06    -217.998E+06    -121.352E+06    -3.83011E+06    -166.842E-03     334.165E-03    -167.323E-03     25.9018E-03    -167.059E-03     333.484E-03    -167.420E-03     24.7977E-03
            1130     2.28377E-03     134.539E-03    -126.329E+06    -199.280E+06    -101.838E+06    -5.57343E+06    -165.842E-03     332.851E-03    -167.009E-03     37.7877E-03    -166.118E-03     332.265E-03    -167.046E-03     36.1794E-03
            1131     3.04675E-03     134.582E-03    -116.894E+06    -178.716E+06    -79.5381E+06    -7.11016E+06    -164.557E-03     331.109E-03    -166.553E-03     48.8538E-03    -164.902E-03     330.635E-03    -166.522E-03     46.7722E-03
            1132     3.81095E-03     134.635E-03    -106.687E+06    -157.953E+06    -57.8957E+06    -8.59890E+06    -163.157E-03     329.139E-03    -165.983E-03     59.2000E-03    -163.576E-03     328.787E-03    -165.889E-03     56.6785E-03
            1133     4.57619E-03     134.697E-03    -96.0316E+06    -138.495E+06    -38.3092E+06    -10.0276E+06    -161.786E-03     327.123E-03    -165.338E-03     68.5482E-03    -162.279E-03     326.895E-03    -165.189E-03     65.6270E-03
            1134     5.34330E-03     134.766E-03    -85.4943E+06    -120.931E+06    -21.2494E+06    -11.0735E+06    -160.539E-03     325.194E-03    -164.655E-03     76.6806E-03    -161.102E-03     325.085E-03    -164.462E-03     73.4158E-03
            1135     6.11121E-03     134.842E-03    -75.5228E+06    -104.132E+06    -6.60761E+06    -11.9384E+06    -159.553E-03     323.523E-03    -163.970E-03     83.3060E-03    -160.180E-03     323.531E-03    -163.743E-03     79.7454E-03
            1136     6.88028E-03     134.924E-03    -66.0591E+06    -88.9663E+06     6.06035E+06    -12.3590E+06    -158.978E-03     322.303E-03    -163.326E-03     88.3791E-03    -159.658E-03     322.416E-03    -163.071E-03     84.5624E-03
            1137     7.64921E-03     135.009E-03    -57.3118E+06    -75.0260E+06     17.0098E+06    -12.6037E+06    -158.786E-03     321.539E-03    -162.754E-03     91.9643E-03    -159.512E-03     321.747E-03    -162.477E-03     87.9241E-03
            1138     8.41860E-03     135.098E-03    -49.2026E+06    -60.5849E+06     26.6758E+06    -12.6791E+06    -159.001E-03     321.275E-03    -162.274E-03     94.1464E-03    -159.765E-03     321.572E-03    -161.981E-03     89.9031E-03
            1139     9.18782E-03     135.188E-03    -41.8013E+06    -46.3467E+06     34.9802E+06    -12.2422E+06    -159.710E-03     321.615E-03    -161.905E-03     95.1266E-03    -160.509E-03     321.999E-03    -161.602E-03     90.6775E-03
            1140     9.95595E-03     135.281E-03    -35.1314E+06    -31.5125E+06     42.7744E+06    -11.3454E+06    -160.748E-03     322.406E-03    -161.659E-03     95.0513E-03    -161.583E-03     322.881E-03    -161.348E-03     90.3745E-03
            1141     10.7233E-03     135.374E-03    -28.9023E+06    -9.76513E+06     51.1683E+06    -10.5150E+06    -161.980E-03     323.508E-03    -161.528E-03     94.0600E-03    -162.866E-03     324.109E-03    -161.216E-03     89.1147E-03
            1142     11.4900E-03     135.467E-03    -23.6238E+06     8.89514E+06     57.8092E+06    -10.2453E+06    -163.338E-03     324.846E-03    -161.508E-03     91.8413E-03    -164.274E-03     325.563E-03    -161.197E-03     86.5622E-03
            1143     12.2544E-03     135.560E-03    -18.2887E+06     51.0465E+06     68.4674E+06    -11.0613E+06    -164.568E-03     326.140E-03    -161.572E-03     87.7769E-03    -165.592E-03     327.081E-03    -161.277E-03     82.1050E-03
            1144     13.0189E-03     135.649E-03    -13.3204E+06     95.9116E+06     77.3324E+06    -9.65227E+06    -165.673E-03     327.380E-03    -161.707E-03     78.7278E-03    -166.740E-03     328.516E-03    -161.440E-03     72.7661E-03
            1145     13.7830E-03     135.722E-03    -8.79067E+06     108.899E+06     86.2582E+06    -5.54618E+06    -166.804E-03     328.767E-03    -161.963E-03     67.7793E-03    -167.901E-03     329.969E-03    -161.677E-03     61.3029E-03
            1146     14.5432E-03     135.789E-03    -4.80646E+06     114.196E+06     102.496E+06    -2.51695E+06    -167.928E-03     330.258E-03    -162.330E-03     43.0673E-03    -168.806E-03     331.227E-03    -161.976E-03     37.3307E-03
            1147     763.317E-06     135.808E-03    -137.792E+06    -224.271E+06    -135.673E+06    -2.66341E+06    -164.228E-03     328.117E-03    -163.889E-03     15.1202E-03    -164.407E-03     327.402E-03    -164.042E-03     14.5949E-03
            1148     1.52731E-03     135.827E-03    -132.766E+06    -210.586E+06    -120.642E+06    -4.70685E+06    -163.443E-03     327.373E-03    -163.929E-03     27.4248E-03    -163.660E-03     326.720E-03    -164.035E-03     26.4814E-03
            1149     2.29142E-03     135.857E-03    -125.325E+06    -192.409E+06    -100.896E+06    -6.63408E+06    -162.477E-03     326.087E-03    -163.611E-03     39.7991E-03    -162.748E-03     325.522E-03    -163.655E-03     38.4219E-03
            1150     3.05684E-03     135.898E-03    -116.138E+06    -172.203E+06    -78.8173E+06    -8.40025E+06    -161.355E-03     324.526E-03    -163.170E-03     51.6453E-03    -161.689E-03     324.063E-03    -163.146E-03     49.8515E-03
            1151     3.82336E-03     135.948E-03    -105.612E+06    -151.585E+06    -57.1691E+06    -10.1535E+06    -160.267E-03     322.918E-03    -162.651E-03     62.6287E-03    -160.667E-03     322.570E-03    -162.564E-03     60.4391E-03
            1152     4.59157E-03     136.007E-03    -95.0732E+06    -132.820E+06    -37.7469E+06    -11.5303E+06    -159.310E-03     321.405E-03    -162.096E-03     72.3223E-03    -159.776E-03     321.171E-03    -161.954E-03     69.7651E-03
            1153     5.36003E-03     136.075E-03    -84.8876E+06    -115.879E+06    -20.9344E+06    -12.6874E+06    -158.623E-03     320.166E-03    -161.543E-03     80.7086E-03    -159.153E-03     320.043E-03    -161.356E-03     77.8161E-03
            1154     6.12940E-03     136.149E-03    -75.1577E+06    -99.7838E+06    -6.46369E+06    -13.4525E+06    -158.268E-03     319.294E-03    -161.026E-03     87.6750E-03    -158.858E-03     319.281E-03    -160.805E-03     84.4845E-03
            1155     6.89890E-03     136.229E-03    -66.2333E+06    -85.8007E+06     5.82463E+06    -13.8272E+06    -158.332E-03     318.912E-03    -160.580E-03     93.1633E-03    -158.976E-03     318.999E-03    -160.331E-03     89.7034E-03
            1156     7.66869E-03     136.315E-03    -57.9012E+06    -72.1457E+06     16.5998E+06    -13.8893E+06    -158.865E-03     319.096E-03    -160.231E-03     97.0785E-03    -159.556E-03     319.278E-03    -159.960E-03     93.3723E-03
            1157     8.43789E-03     136.403E-03    -50.4429E+06    -58.5901E+06     25.8578E+06    -13.6204E+06    -159.853E-03     319.852E-03    -159.999E-03     99.5041E-03    -160.586E-03     320.124E-03    -159.712E-03     95.5677E-03
            1158     9.20611E-03     136.495E-03    -43.7518E+06    -45.3988E+06     33.9007E+06    -12.9868E+06    -161.220E-03     321.115E-03    -159.895E-03     100.634E-03    -161.993E-03     321.474E-03    -159.596E-03     96.4585E-03
            1159     9.97335E-03     136.589E-03    -37.2537E+06    -30.9694E+06     41.4573E+06    -12.2444E+06    -162.874E-03     322.794E-03    -159.920E-03     100.583E-03    -163.689E-03     323.247E-03    -159.613E-03     96.1370E-03
            1160     10.7393E-03     136.684E-03    -31.1917E+06    -9.65938E+06     49.4512E+06    -10.9904E+06    -164.638E-03     324.699E-03    -160.061E-03     99.3468E-03    -165.508E-03     325.281E-03    -159.754E-03     94.5951E-03
            1161     11.5033E-03     136.780E-03    -25.5849E+06     10.3238E+06     56.8081E+06    -10.1070E+06    -166.413E-03     326.723E-03    -160.311E-03     96.6385E-03    -167.340E-03     327.432E-03    -160.004E-03     91.5134E-03
            1162     12.2669E-03     136.875E-03    -21.2490E+06     54.2083E+06     67.6035E+06    -9.55027E+06    -167.922E-03     328.556E-03    -160.634E-03     91.5758E-03    -168.949E-03     329.504E-03    -160.344E-03     86.0259E-03
            1163     13.0285E-03     136.965E-03    -17.3704E+06     93.2687E+06     74.8364E+06    -8.28699E+06    -169.364E-03     330.386E-03    -161.022E-03     81.5083E-03    -170.435E-03     331.509E-03    -160.758E-03     75.5942E-03
            1164     13.7867E-03     137.043E-03    -12.5004E+06     102.369E+06     82.4403E+06    -5.54781E+06    -170.778E-03     332.297E-03    -161.519E-03     69.7914E-03    -171.877E-03     333.476E-03    -161.237E-03     63.2621E-03
            1165     14.5459E-03     137.111E-03    -5.98780E+06     110.156E+06     100.292E+06    -2.31854E+06    -171.683E-03     333.791E-03    -162.108E-03     44.7254E-03    -172.561E-03     334.747E-03    -161.757E-03     38.9283E-03
            1166     767.123E-06     137.119E-03    -137.858E+06    -215.277E+06    -134.042E+06    -3.02881E+06    -159.170E-03     318.618E-03    -159.448E-03     15.9584E-03    -159.363E-03     317.944E-03    -159.606E-03     15.5240E-03
            1167     1.53404E-03     137.137E-03    -132.441E+06    -202.355E+06    -120.436E+06    -5.15804E+06    -158.728E-03     317.910E-03    -159.182E-03     28.9986E-03    -158.951E-03     317.291E-03    -159.298E-03     28.2245E-03
            1168     2.30231E-03     137.165E-03    -125.257E+06    -184.336E+06    -100.890E+06    -7.42093E+06    -158.043E-03     316.951E-03    -158.907E-03     42.2096E-03    -158.315E-03     316.413E-03    -158.963E-03     41.0713E-03
            1169     3.07129E-03     137.204E-03    -116.315E+06    -164.546E+06    -79.3969E+06    -9.55118E+06    -157.413E-03     315.991E-03    -158.579E-03     54.7017E-03    -157.740E-03     315.550E-03    -158.568E-03     53.1987E-03
            1170     3.84107E-03     137.253E-03    -106.564E+06    -144.789E+06    -58.3332E+06    -11.1935E+06    -156.911E-03     315.142E-03    -158.231E-03     66.1112E-03    -157.298E-03     314.805E-03    -158.158E-03     64.2576E-03
            1171     4.61066E-03     137.310E-03    -96.8320E+06    -126.896E+06    -39.3887E+06    -12.5518E+06    -156.595E-03     314.483E-03    -157.889E-03     76.3855E-03    -157.044E-03     314.251E-03    -157.761E-03     74.1922E-03
            1172     5.38140E-03     137.377E-03    -87.3726E+06    -110.502E+06    -22.9370E+06    -13.5132E+06    -156.597E-03     314.174E-03    -157.577E-03     85.4479E-03    -157.107E-03     314.047E-03    -157.405E-03     82.9353E-03
            1173     6.15207E-03     137.450E-03    -78.6002E+06    -95.4189E+06    -8.83321E+06    -14.1864E+06    -157.009E-03     314.337E-03    -157.328E-03     92.9736E-03    -157.579E-03     314.314E-03    -157.120E-03     90.1605E-03
            1174     6.92268E-03     137.531E-03    -70.5036E+06    -82.3243E+06     3.09166E+06    -14.4691E+06    -157.836E-03     315.006E-03    -157.170E-03     98.9627E-03    -158.461E-03     315.079E-03    -156.933E-03     95.8716E-03
            1175     7.69256E-03     137.616E-03    -63.2019E+06    -69.5134E+06     13.1582E+06    -14.3553E+06    -159.204E-03     316.328E-03    -157.125E-03     103.345E-03    -159.880E-03     316.495E-03    -156.867E-03     99.9924E-03
            1176     8.46126E-03     137.707E-03    -56.5411E+06    -56.3781E+06     22.0018E+06    -14.0299E+06    -161.063E-03     318.278E-03    -157.215E-03     106.081E-03    -161.788E-03     318.538E-03    -156.941E-03     102.467E-03
            1177     9.22866E-03     137.801E-03    -49.8954E+06    -43.9000E+06     29.8275E+06    -13.7666E+06    -163.219E-03     320.665E-03    -157.446E-03     107.270E-03    -163.986E-03     321.014E-03    -157.161E-03     103.373E-03
            1178     9.99445E-03     137.898E-03    -43.4633E+06    -29.8194E+06     36.9437E+06    -13.3630E+06    -165.602E-03     323.411E-03    -157.809E-03     106.983E-03    -166.414E-03     323.857E-03    -157.518E-03     102.768E-03
            1179     10.7580E-03     137.996E-03    -36.8623E+06    -9.60839E+06      44.672E+06    -12.9164E+06    -168.077E-03     326.371E-03    -158.293E-03     105.177E-03    -168.946E-03     326.945E-03    -158.003E-03     100.592E-03
            1180     11.5203E-03     138.095E-03    -30.1779E+06     9.91228E+06     52.3101E+06    -11.7886E+06    -170.406E-03     329.290E-03    -158.884E-03     101.567E-03    -171.330E-03     329.991E-03    -158.594E-03     96.5584E-03
            1181     12.2795E-03     138.193E-03    -23.4539E+06     53.6488E+06     64.5506E+06    -9.45559E+06    -172.393E-03     331.938E-03    -159.545E-03     95.5924E-03    -173.410E-03     332.875E-03    -159.266E-03     90.1228E-03
            1182     13.0373E-03     138.286E-03    -16.9025E+06     91.4655E+06     73.2048E+06    -7.32343E+06    -173.907E-03     334.157E-03    -160.250E-03     85.0834E-03    -174.963E-03     335.266E-03    -159.992E-03     79.2140E-03
            1183     13.7951E-03     138.368E-03    -11.4165E+06     100.317E+06     82.2276E+06    -5.61512E+06    -175.049E-03     336.077E-03    -161.029E-03     73.0898E-03    -176.141E-03     337.247E-03    -160.746E-03     66.5353E-03
            1184     14.5496E-03     138.438E-03    -6.42830E+06     105.275E+06     99.2600E+06    -3.58855E+06    -175.997E-03     337.860E-03    -161.862E-03     47.1682E-03    -176.874E-03     338.800E-03    -161.509E-03     41.2885E-03
            1185     771.408E-06     138.415E-03    -138.057E+06    -206.220E+06    -135.649E+06    -2.87331E+06    -153.194E-03     306.528E-03    -153.334E-03     17.2221E-03    -153.398E-03     305.899E-03    -153.513E-03     16.8803E-03
            1186     1.54395E-03     138.432E-03    -134.428E+06    -193.691E+06    -121.976E+06    -5.19099E+06    -153.027E-03     306.228E-03    -153.201E-03     30.6138E-03    -153.265E-03     305.652E-03    -153.335E-03     29.9996E-03
            1187     2.31629E-03     138.460E-03    -127.432E+06    -175.968E+06    -103.291E+06    -7.38672E+06    -152.910E-03     306.008E-03    -153.098E-03     44.2584E-03    -153.191E-03     305.508E-03    -153.174E-03     43.3477E-03
            1188     3.08870E-03     138.498E-03    -119.422E+06    -156.681E+06    -82.3171E+06    -9.29864E+06    -152.876E-03     305.876E-03    -153.000E-03     57.3724E-03    -153.209E-03     305.465E-03    -153.011E-03     56.1563E-03
            1189     3.86115E-03     138.546E-03    -110.862E+06    -138.064E+06    -61.8695E+06    -10.9309E+06    -152.994E-03     305.902E-03    -152.908E-03     69.6642E-03    -153.384E-03     305.585E-03    -152.856E-03     68.1382E-03
            1190     4.63458E-03     138.604E-03    -101.958E+06    -120.783E+06    -43.2215E+06    -12.1303E+06    -153.449E-03     306.294E-03    -152.845E-03     80.8111E-03    -153.897E-03     306.075E-03    -152.738E-03     78.9808E-03
            1191     5.40721E-03     138.670E-03    -93.5957E+06    -105.120E+06    -27.2593E+06    -13.0553E+06    -154.311E-03     307.152E-03    -152.841E-03     90.6619E-03    -154.818E-03     307.032E-03    -152.690E-03     88.5328E-03
            1192     6.17944E-03     138.745E-03    -85.6576E+06    -91.0378E+06    -13.6487E+06    -13.6008E+06    -155.602E-03     308.527E-03    -152.925E-03     98.9669E-03    -156.169E-03     308.506E-03    -152.737E-03     96.5433E-03
            1193     6.95075E-03     138.826E-03    -78.2723E+06    -78.7988E+06    -2.24009E+06    -13.8174E+06    -157.449E-03     310.572E-03    -153.123E-03     105.643E-03    -158.071E-03     310.643E-03    -152.907E-03     102.934E-03
            1194     7.72083E-03     138.915E-03    -71.2013E+06    -65.8186E+06     7.65800E+06    -14.1943E+06    -159.804E-03     313.261E-03    -153.456E-03     110.589E-03    -160.480E-03     313.427E-03    -153.219E-03     107.593E-03
            1195     8.48926E-03     139.008E-03    -63.7666E+06    -53.4056E+06     16.4300E+06    -14.8216E+06    -162.621E-03     316.559E-03    -153.938E-03     113.593E-03    -163.343E-03     316.818E-03    -153.686E-03     110.291E-03
            1196     9.25537E-03     139.107E-03    -56.4054E+06    -41.5946E+06     24.2476E+06    -15.0454E+06    -165.838E-03     320.414E-03    -154.576E-03     114.728E-03    -166.603E-03     320.762E-03    -154.313E-03     111.094E-03
            1197     10.0188E-03     139.207E-03    -48.9879E+06    -27.0119E+06     31.9278E+06    -15.6857E+06    -169.180E-03     324.540E-03    -155.360E-03     114.015E-03    -169.992E-03     324.990E-03    -155.090E-03     109.996E-03
            1198     10.7802E-03     139.311E-03    -41.5897E+06    -8.69507E+06     39.6639E+06    -15.7973E+06    -172.425E-03     328.693E-03    -156.267E-03     111.467E-03    -173.289E-03     329.264E-03    -155.996E-03     107.022E-03
            1199     11.5380E-03     139.414E-03    -34.2315E+06     10.0263E+06     47.8151E+06    -15.2680E+06    -175.350E-03     332.625E-03    -157.275E-03     106.863E-03    -176.267E-03     333.318E-03    -157.000E-03     101.942E-03
            1200     12.2950E-03     139.516E-03    -26.4258E+06     48.9182E+06     59.5700E+06    -13.2762E+06    -177.513E-03     335.840E-03    -158.327E-03     99.9989E-03    -178.515E-03     336.750E-03    -158.062E-03     94.5599E-03
            1201     13.0494E-03     139.614E-03    -18.8607E+06     89.3822E+06     69.8567E+06    -9.77368E+06    -178.985E-03     338.372E-03    -159.386E-03     88.4533E-03    -180.034E-03     339.469E-03    -159.139E-03     82.5645E-03
            1202     13.8014E-03     139.696E-03    -11.4216E+06     99.5330E+06     81.8020E+06    -8.20409E+06    -180.093E-03     340.583E-03    -160.490E-03     75.2728E-03    -181.180E-03     341.746E-03    -160.209E-03     68.6227E-03
            1203     14.5540E-03     139.772E-03    -4.50991E+06     97.7837E+06     98.0869E+06    -4.43824E+06    -180.776E-03     342.381E-03    -161.605E-03     48.4931E-03    -181.630E-03     343.281E-03    -161.249E-03     42.5164E-03
            1204     777.718E-06     139.694E-03    -144.758E+06    -198.349E+06    -140.682E+06    -2.34258E+06    -146.636E-03     292.915E-03    -146.279E-03     17.2661E-03    -146.876E-03     292.341E-03    -146.485E-03     17.0128E-03
            1205     1.55444E-03     139.712E-03    -140.128E+06    -185.619E+06    -127.935E+06    -4.27677E+06    -146.739E-03     293.232E-03    -146.493E-03     31.5288E-03    -147.004E-03     292.708E-03    -146.660E-03     31.0596E-03
            1206     2.33120E-03     139.740E-03    -134.522E+06    -168.481E+06    -109.649E+06    -6.18749E+06    -147.120E-03     293.723E-03    -146.603E-03     46.0705E-03    -147.428E-03     293.270E-03    -146.712E-03     45.3657E-03
            1207     3.10818E-03     139.778E-03    -127.120E+06    -149.581E+06    -88.6872E+06    -7.81003E+06    -147.644E-03     294.384E-03    -146.739E-03     60.1080E-03    -148.002E-03     294.013E-03    -146.782E-03     59.1563E-03
            1208     3.88524E-03     139.827E-03    -118.896E+06    -131.302E+06    -68.0354E+06     -9.3029E+06    -148.533E-03     295.446E-03    -146.913E-03     73.2630E-03    -148.943E-03     295.162E-03    -146.890E-03     72.0536E-03
            1209     4.66100E-03     139.885E-03    -110.591E+06    -115.115E+06    -49.6764E+06    -10.5141E+06    -149.887E-03     297.043E-03    -147.156E-03     85.2965E-03    -150.348E-03     296.846E-03    -147.078E-03     83.8224E-03
            1210     5.43633E-03     139.954E-03    -102.243E+06    -99.7547E+06    -33.6065E+06    -11.4295E+06    -151.672E-03     299.165E-03    -147.493E-03     96.0006E-03    -152.187E-03     299.060E-03    -147.369E-03     94.2517E-03
            1211     6.21057E-03     140.031E-03    -94.2727E+06    -86.4140E+06    -20.2227E+06    -12.4551E+06    -154.057E-03     302.004E-03    -147.947E-03     105.259E-03    -154.626E-03     301.990E-03    -147.786E-03     103.219E-03
            1212     6.98308E-03     140.117E-03    -85.9967E+06    -74.1502E+06    -8.67525E+06    -13.6154E+06    -157.123E-03     305.674E-03    -148.550E-03     112.698E-03    -157.743E-03     305.750E-03    -148.362E-03     110.352E-03
            1213     7.75322E-03     140.209E-03    -77.3052E+06    -60.5217E+06     1.83737E+06    -15.2580E+06    -160.691E-03     310.012E-03    -149.320E-03     118.049E-03    -161.360E-03     310.186E-03    -149.111E-03     115.374E-03
            1214     8.52072E-03     140.308E-03    -68.6906E+06    -48.9574E+06     11.0310E+06    -16.8575E+06    -164.699E-03     314.964E-03    -150.264E-03     121.284E-03    -165.411E-03     315.227E-03    -150.038E-03     118.256E-03
            1215     9.28521E-03     140.412E-03    -59.8405E+06    -37.7507E+06     19.5386E+06    -18.2300E+06    -169.057E-03     320.437E-03    -151.379E-03     122.355E-03    -169.810E-03     320.788E-03    -151.140E-03     118.931E-03
            1216     10.0465E-03     140.519E-03    -51.2041E+06    -23.0266E+06     28.1140E+06    -19.4419E+06    -173.501E-03     326.153E-03    -152.652E-03     121.228E-03    -174.301E-03     326.609E-03    -152.404E-03     117.364E-03
            1217     10.8037E-03     140.628E-03    -42.4859E+06    -6.63691E+06     36.6379E+06    -20.1365E+06    -177.620E-03     331.671E-03    -154.052E-03     117.875E-03    -178.467E-03     332.239E-03    -153.797E-03     113.530E-03
            1218     11.5591E-03     140.738E-03    -34.0974E+06     9.98907E+06     45.1433E+06    -19.2199E+06    -180.963E-03     336.494E-03    -155.531E-03     112.107E-03    -181.858E-03     337.173E-03    -155.270E-03     107.247E-03
            1219     12.3102E-03     140.845E-03    -27.1593E+06     46.6142E+06     56.7777E+06    -17.1368E+06    -183.308E-03     340.329E-03    -157.021E-03     103.895E-03    -184.287E-03     341.214E-03    -156.766E-03     98.4724E-03
            1220     13.0608E-03     140.946E-03    -19.5696E+06     85.3032E+06     67.8717E+06    -14.7716E+06    -184.788E-03     343.270E-03    -158.482E-03     91.3608E-03    -185.819E-03     344.338E-03    -158.238E-03     85.4088E-03
            1221     13.8098E-03     141.035E-03    -12.5040E+06     94.4503E+06     79.5597E+06    -10.0973E+06    -185.632E-03     345.567E-03    -159.935E-03     77.6471E-03    -186.707E-03     346.702E-03    -159.656E-03     70.9201E-03
            1222     14.5562E-03     141.110E-03    -6.90453E+06     89.8678E+06     95.0050E+06    -5.34036E+06    -185.691E-03     347.036E-03    -161.344E-03     50.3180E-03    -186.542E-03     347.906E-03    -160.990E-03     44.2304E-03
            1223     782.200E-06     140.956E-03    -159.692E+06    -192.407E+06    -155.872E+06    -1.46004E+06    -139.700E-03     279.023E-03    -139.323E-03     17.5671E-03    -140.000E-03     278.521E-03    -139.592E-03     17.3867E-03
            1224     1.56514E-03     140.974E-03    -155.204E+06    -179.307E+06    -142.077E+06    -2.93809E+06    -139.896E-03     279.460E-03    -139.565E-03     32.6621E-03    -140.221E-03     279.007E-03    -139.790E-03     32.3232E-03
            1225     2.34766E-03     141.003E-03    -148.477E+06    -161.727E+06    -122.216E+06    -4.75802E+06    -140.721E-03     280.485E-03    -139.764E-03     47.9738E-03    -141.083E-03     280.097E-03    -139.925E-03     47.4546E-03
            1226     3.12931E-03     141.043E-03    -140.099E+06    -143.071E+06    -99.9006E+06    -6.58991E+06    -142.009E-03     282.097E-03    -140.088E-03     62.6808E-03    -142.410E-03     281.780E-03    -140.177E-03     61.9648E-03
            1227     3.90988E-03     141.093E-03    -130.542E+06    -125.266E+06    -78.0512E+06    -8.16127E+06    -143.752E-03     284.281E-03    -140.529E-03     76.6606E-03    -144.193E-03     284.037E-03    -140.548E-03     75.7355E-03
            1228     4.68988E-03     141.155E-03    -120.620E+06    -109.077E+06    -58.4710E+06    -9.84747E+06    -146.026E-03     287.113E-03    -141.087E-03     89.5631E-03    -146.506E-03     286.945E-03    -141.047E-03     88.4038E-03
            1229     5.46812E-03     141.227E-03    -110.332E+06    -94.2855E+06    -41.7034E+06    -11.5822E+06    -148.968E-03     290.751E-03    -141.783E-03     100.987E-03    -149.487E-03     290.663E-03    -141.695E-03     99.5648E-03
            1230     6.24421E-03     141.309E-03    -99.6651E+06    -80.5771E+06    -27.0118E+06    -13.3671E+06    -152.635E-03     295.282E-03    -142.647E-03     110.864E-03    -153.193E-03     295.278E-03    -142.521E-03     109.151E-03
            1231     7.01760E-03     141.400E-03    -89.2744E+06    -67.2869E+06    -14.3696E+06    -15.9247E+06    -156.948E-03     300.645E-03    -143.697E-03     118.831E-03    -157.548E-03     300.731E-03    -143.542E-03     116.784E-03
            1232     7.78785E-03     141.499E-03    -79.1408E+06    -53.9331E+06    -2.86971E+06    -18.4385E+06    -161.860E-03     306.806E-03    -144.947E-03     124.620E-03    -162.504E-03     306.987E-03    -144.768E-03     122.208E-03
            1233     8.55440E-03     141.605E-03    -69.0544E+06    -42.5400E+06     7.65079E+06    -20.7015E+06    -167.222E-03     313.622E-03    -146.399E-03     128.099E-03    -167.909E-03     313.892E-03    -146.199E-03     125.285E-03
            1234     9.31692E-03     141.717E-03    -59.3858E+06    -31.6275E+06     17.0131E+06    -23.4901E+06    -172.744E-03     320.783E-03    -148.038E-03     129.120E-03    -173.474E-03     321.141E-03    -147.821E-03     125.851E-03
            1235     10.0750E-03     141.833E-03    -49.1173E+06    -18.0821E+06     26.6732E+06    -25.5729E+06    -178.184E-03     328.019E-03    -149.836E-03     127.761E-03    -178.956E-03     328.478E-03    -149.605E-03     123.999E-03
            1236     10.8296E-03     141.951E-03    -39.3613E+06    -4.84059E+06     35.4996E+06    -25.9048E+06    -183.087E-03     334.837E-03    -151.750E-03     123.789E-03    -183.901E-03     335.393E-03    -151.508E-03     119.509E-03
            1237     11.5790E-03     142.067E-03    -30.7777E+06     8.54937E+06     43.9085E+06    -24.1790E+06    -186.921E-03     340.642E-03    -153.721E-03     117.075E-03    -187.776E-03     341.293E-03    -153.470E-03     112.255E-03
            1238     12.3279E-03     142.180E-03    -21.9470E+06     45.3771E+06     57.0861E+06    -21.3021E+06    -189.497E-03     345.168E-03    -155.672E-03     107.980E-03    -190.431E-03     346.021E-03    -155.420E-03     102.574E-03
            1239     13.0726E-03     142.287E-03    -15.6336E+06     79.2902E+06     68.2829E+06    -16.9167E+06    -190.883E-03     348.435E-03    -157.553E-03     94.6875E-03    -191.873E-03     349.454E-03    -157.304E-03     88.7279E-03
            1240     13.8168E-03     142.376E-03    -10.6865E+06     86.5200E+06     79.1701E+06    -11.7576E+06    -191.289E-03     350.654E-03    -159.364E-03     80.0024E-03    -192.332E-03     351.737E-03    -159.079E-03     73.2239E-03
            1241     14.5618E-03     142.457E-03    -4.53959E+06     81.3576E+06     94.0845E+06    -6.44909E+06    -190.736E-03     351.806E-03    -161.070E-03     51.5226E-03    -191.556E-03     352.626E-03    -160.711E-03     45.3404E-03
            1242     788.391E-06     142.200E-03    -190.975E+06    -185.243E+06    -189.001E+06    -3.36190E+06    -132.636E-03     264.651E-03    -132.015E-03     18.7047E-03    -133.053E-03     264.277E-03    -132.415E-03     18.5525E-03
            1243     1.57623E-03     142.218E-03    -183.997E+06    -171.850E+06    -170.964E+06    -6.17596E+06    -133.136E-03     265.598E-03    -132.462E-03     34.1052E-03    -133.570E-03     265.261E-03    -132.801E-03     33.8266E-03
            1244     2.36374E-03     142.249E-03    -172.030E+06    -154.333E+06    -146.214E+06    -8.60651E+06    -134.400E-03     267.244E-03    -132.843E-03     49.8135E-03    -134.848E-03     266.953E-03    -133.101E-03     49.3941E-03
            1245     3.15042E-03     142.291E-03    -157.918E+06    -135.910E+06    -118.847E+06    -10.8375E+06    -136.373E-03     269.762E-03    -133.390E-03     65.0485E-03    -136.832E-03     269.521E-03    -133.558E-03     64.4728E-03
            1246     3.93577E-03     142.346E-03    -142.986E+06    -118.822E+06    -92.8408E+06    -12.8255E+06    -139.042E-03     273.153E-03    -134.112E-03     79.5457E-03    -139.512E-03     272.962E-03    -134.196E-03     78.7947E-03
            1247     4.71895E-03     142.412E-03    -127.995E+06    -102.742E+06    -70.0815E+06    -14.4808E+06    -142.425E-03     277.437E-03    -135.011E-03     92.7723E-03    -142.908E-03     277.302E-03    -135.027E-03     91.8198E-03
            1248     5.49981E-03     142.489E-03    -114.025E+06    -87.7055E+06    -50.6510E+06    -16.2768E+06    -146.632E-03     282.739E-03    -136.107E-03     104.628E-03    -147.134E-03     282.671E-03    -136.068E-03     103.433E-03
            1249     6.27752E-03     142.577E-03    -101.059E+06    -73.4092E+06    -34.0441E+06    -18.6523E+06    -151.591E-03     289.008E-03    -137.418E-03     114.872E-03    -152.119E-03     289.017E-03    -137.335E-03     113.384E-03
            1250     7.05173E-03     142.677E-03    -88.5522E+06    -59.1314E+06    -19.0537E+06    -21.3538E+06    -157.167E-03     296.116E-03    -138.949E-03     123.089E-03    -157.730E-03     296.211E-03    -138.830E-03     121.260E-03
            1251     7.82186E-03     142.784E-03    -76.6371E+06    -45.7314E+06    -5.30967E+06    -24.2086E+06    -163.322E-03     304.025E-03    -140.703E-03     129.086E-03    -163.925E-03     304.211E-03    -140.552E-03     126.867E-03
            1252     8.58722E-03     142.901E-03    -65.2488E+06    -35.1198E+06     6.52624E+06    -27.2602E+06    -169.835E-03     312.504E-03    -142.668E-03     132.743E-03    -170.479E-03     312.774E-03    -142.490E-03     130.079E-03
            1253     9.34752E-03     143.023E-03    -54.0245E+06    -23.3875E+06     17.7876E+06    -29.9496E+06    -176.399E-03     321.221E-03    -144.822E-03     134.018E-03    -177.086E-03     321.584E-03    -144.621E-03     130.870E-03
            1254     10.1032E-03     143.149E-03    -44.6828E+06    -13.2395E+06     27.2681E+06    -31.5291E+06    -182.641E-03     329.764E-03    -147.123E-03     132.765E-03    -183.373E-03     330.214E-03    -146.903E-03     129.106E-03
            1255     10.8535E-03     143.277E-03    -37.2802E+06    -4.39263E+06     35.0867E+06    -30.4729E+06    -188.089E-03     337.608E-03    -149.519E-03     128.490E-03    -188.867E-03     338.138E-03    -149.283E-03     124.318E-03
            1256     11.6014E-03     143.402E-03    -29.9360E+06     9.35462E+06     43.9668E+06    -29.5872E+06    -192.495E-03     344.442E-03    -151.947E-03     121.337E-03    -193.321E-03     345.070E-03    -151.697E-03     116.596E-03
            1257     12.3434E-03     143.522E-03    -22.7799E+06     39.3974E+06     55.0217E+06    -26.2880E+06    -195.303E-03     349.629E-03    -154.326E-03     111.374E-03    -196.202E-03     350.429E-03    -154.075E-03     106.035E-03
            1258     13.0859E-03     143.632E-03    -15.7584E+06     69.1433E+06     65.3267E+06    -18.8968E+06    -196.576E-03     353.171E-03    -156.595E-03     97.5859E-03    -197.521E-03     354.117E-03    -156.346E-03     91.7174E-03
            1259     13.8258E-03     143.728E-03    -9.74438E+06     77.4390E+06     77.1546E+06    -12.9231E+06    -196.762E-03     355.510E-03    -158.748E-03     82.6504E-03    -197.769E-03     356.534E-03    -158.460E-03     75.8936E-03
            1260     14.5641E-03     143.808E-03    -4.89663E+06     71.1322E+06     92.8947E+06    -6.80014E+06    -196.096E-03     356.857E-03    -160.761E-03     53.5319E-03    -196.896E-03     357.624E-03    -160.393E-03     47.3090E-03
            1261     794.103E-06     143.426E-03    -230.925E+06    -169.006E+06    -226.474E+06    -8.26112E+06    -125.805E-03     250.804E-03    -125.000E-03     19.0915E-03    -126.389E-03     250.623E-03    -125.552E-03     18.9186E-03
            1262     1.58737E-03     143.446E-03    -220.874E+06    -156.805E+06    -207.668E+06    -14.1862E+06    -126.857E-03     252.522E-03    -125.664E-03     34.6982E-03    -127.441E-03     252.364E-03    -126.155E-03     34.3949E-03
            1263     2.37965E-03     143.479E-03    -206.598E+06    -140.810E+06    -179.962E+06    -19.9690E+06    -128.693E-03     255.002E-03    -126.309E-03     50.8556E-03    -129.276E-03     254.871E-03    -126.705E-03     50.4016E-03
            1264     3.17061E-03     143.525E-03    -188.071E+06    -124.194E+06    -148.903E+06    -24.9198E+06    -131.378E-03     258.517E-03    -127.139E-03     66.2256E-03    -131.949E-03     258.410E-03    -127.431E-03     65.6165E-03
            1265     3.95950E-03     143.584E-03    -167.000E+06    -108.982E+06    -118.548E+06    -28.5084E+06    -135.012E-03     263.202E-03    -128.189E-03     80.7097E-03    -135.562E-03     263.114E-03    -128.382E-03     79.9357E-03
            1266     4.74576E-03     143.656E-03    -145.040E+06    -95.2087E+06    -90.9455E+06    -30.7668E+06    -139.571E-03     269.048E-03    -129.477E-03     93.9867E-03    -140.095E-03     268.983E-03    -129.584E-03     93.0304E-03
            1267     5.52868E-03     143.741E-03    -123.083E+06    -81.5399E+06    -65.9657E+06    -31.6469E+06    -144.969E-03     275.980E-03    -131.011E-03     105.900E-03    -145.473E-03     275.949E-03    -131.044E-03     104.734E-03
            1268     6.30768E-03     143.839E-03    -102.755E+06    -66.1906E+06    -43.3004E+06    -32.1771E+06    -151.121E-03     283.912E-03    -132.791E-03     116.021E-03    -151.621E-03     283.939E-03    -132.763E-03     114.598E-03
            1269     7.08203E-03     143.947E-03    -84.8546E+06    -52.0565E+06    -23.4581E+06    -33.0227E+06    -157.858E-03     292.670E-03    -134.812E-03     124.133E-03    -158.369E-03     292.765E-03    -134.731E-03     122.397E-03
            1270     7.85130E-03     144.066E-03    -69.8525E+06    -39.9910E+06    -6.50301E+06    -33.0343E+06    -164.914E-03     301.966E-03    -137.053E-03     130.226E-03    -165.451E-03     302.135E-03    -136.926E-03     128.132E-03
            1271     8.61542E-03     144.194E-03    -58.5079E+06    -27.4951E+06     7.93842E+06    -33.3089E+06    -172.114E-03     311.598E-03    -139.483E-03     134.164E-03    -172.698E-03     311.855E-03    -139.319E-03     131.658E-03
            1272     9.37441E-03     144.328E-03    -50.6730E+06    -16.3228E+06     19.5808E+06    -34.3908E+06    -179.281E-03     321.355E-03    -142.073E-03     135.899E-03    -179.924E-03     321.706E-03    -141.878E-03     132.927E-03
            1273     10.1274E-03     144.466E-03    -43.8009E+06    -7.87935E+06     29.3633E+06    -35.1581E+06    -186.007E-03     330.793E-03    -144.786E-03     135.062E-03    -186.707E-03     331.226E-03    -144.564E-03     131.588E-03
            1274     10.8764E-03     144.605E-03    -35.2843E+06    -2.43549E+06     37.6236E+06    -35.9726E+06    -191.972E-03     339.538E-03    -147.567E-03     131.178E-03    -192.707E-03     340.033E-03    -147.324E-03     127.164E-03
            1275     11.6191E-03     144.740E-03    -26.3280E+06     10.3130E+06     47.0006E+06    -34.5456E+06    -196.777E-03     347.134E-03    -150.357E-03     124.217E-03    -197.551E-03     347.716E-03    -150.098E-03     119.653E-03
            1276     12.3606E-03     144.869E-03    -19.4251E+06     29.1986E+06     55.7722E+06    -28.6327E+06    -200.118E-03     353.204E-03    -153.087E-03     113.862E-03    -200.939E-03     353.901E-03    -152.822E-03     108.756E-03
            1277     13.0973E-03     144.984E-03    -15.0576E+06     55.7307E+06     64.6620E+06    -20.1002E+06    -201.571E-03     357.258E-03    -155.688E-03     99.3400E-03    -202.444E-03     358.090E-03    -155.423E-03     93.7120E-03
            1278     13.8346E-03     145.084E-03    -10.8203E+06     70.4727E+06     77.7053E+06    -13.2513E+06    -201.713E-03     359.858E-03    -158.145E-03     83.6940E-03    -202.670E-03     360.802E-03    -157.843E-03     77.1293E-03
            1279     14.5724E-03     145.167E-03    -5.61873E+06     58.8968E+06     92.6507E+06    -7.44244E+06    -201.406E-03     361.853E-03    -160.447E-03     54.3869E-03    -202.168E-03     362.536E-03    -160.061E-03     48.2168E-03
            1280     798.478E-06     144.636E-03    -223.141E+06    -142.655E+06    -218.721E+06    -10.8872E+06    -120.586E-03     240.419E-03    -119.833E-03     18.4601E-03    -121.180E-03     240.347E-03    -120.396E-03     18.2714E-03
            1281     1.59623E-03     144.658E-03    -215.903E+06    -131.228E+06    -201.562E+06    -20.3200E+06    -121.937E-03     242.459E-03    -120.522E-03     33.2256E-03    -122.539E-03     242.412E-03    -121.027E-03     32.8724E-03
            1282     2.39266E-03     144.695E-03    -203.776E+06    -116.823E+06    -177.153E+06    -29.8154E+06    -124.433E-03     245.763E-03    -121.330E-03     48.7286E-03    -125.036E-03     245.741E-03    -121.751E-03     48.1931E-03
            1283     3.18689E-03     144.746E-03    -188.608E+06    -102.909E+06    -150.305E+06    -38.2310E+06    -127.899E-03     250.317E-03    -122.418E-03     63.6502E-03    -128.495E-03     250.314E-03    -122.747E-03     62.9296E-03
            1284     3.97847E-03     144.811E-03    -171.353E+06    -91.7738E+06    -124.718E+06    -45.0866E+06    -132.371E-03     256.152E-03    -123.781E-03     77.6668E-03    -132.949E-03     256.158E-03    -124.023E-03     76.7557E-03
            1285     4.76663E-03     144.891E-03    -152.655E+06    -81.6001E+06    -100.678E+06    -50.0041E+06    -137.840E-03     263.263E-03    -125.423E-03     90.4436E-03    -138.393E-03     263.277E-03    -125.587E-03     89.3368E-03
            1286     5.55049E-03     144.985E-03    -133.514E+06    -72.3565E+06    -78.7698E+06    -53.0852E+06    -144.171E-03     271.513E-03    -127.342E-03     101.866E-03    -144.701E-03     271.542E-03    -127.438E-03     100.546E-03
            1287     6.32962E-03     145.093E-03    -113.536E+06    -59.3951E+06    -56.7418E+06    -53.9356E+06    -151.119E-03     280.642E-03    -129.524E-03     111.717E-03    -151.635E-03     280.711E-03    -129.556E-03     110.171E-03
            1288     7.10354E-03     145.213E-03    -94.3769E+06    -48.0846E+06    -34.9871E+06    -52.6190E+06    -158.475E-03     290.420E-03    -131.945E-03     119.781E-03    -158.986E-03     290.529E-03    -131.913E-03     117.984E-03
            1289     7.87216E-03     145.344E-03    -76.4968E+06    -39.3448E+06    -14.4601E+06    -49.7192E+06    -165.993E-03     300.560E-03    -134.567E-03     126.000E-03    -166.509E-03     300.709E-03    -134.471E-03     123.917E-03
            1290     8.63540E-03     145.485E-03    -59.5452E+06    -27.0549E+06     5.39122E+06    -45.2789E+06    -173.487E-03     310.831E-03    -137.344E-03     130.319E-03    -174.020E-03     311.044E-03    -137.192E-03     127.924E-03
            1291     9.39275E-03     145.632E-03    -44.9823E+06    -14.8856E+06     23.0012E+06    -40.3772E+06    -180.720E-03     320.957E-03    -140.237E-03     132.589E-03    -181.283E-03     321.243E-03    -140.035E-03     129.842E-03
            1292     10.1455E-03     145.783E-03    -34.1186E+06    -2.91428E+06     37.0529E+06    -37.9464E+06    -187.436E-03     330.633E-03    -143.197E-03     132.605E-03    -188.041E-03     331.001E-03    -142.958E-03     129.436E-03
            1293     10.8920E-03     145.934E-03    -28.0228E+06     2.77884E+06     45.9983E+06    -37.5380E+06    -193.501E-03     339.687E-03    -146.186E-03     130.141E-03    -194.154E-03     340.119E-03    -145.919E-03     126.483E-03
            1294     11.6355E-03     146.081E-03    -24.6222E+06     8.89781E+06     52.4049E+06    -35.9816E+06    -198.801E-03     347.969E-03    -149.167E-03     124.478E-03    -199.504E-03     348.466E-03    -148.883E-03     120.311E-03
            1295     12.3730E-03     146.218E-03    -20.3530E+06     16.2418E+06     58.3326E+06    -30.1437E+06    -202.953E-03     355.059E-03    -152.106E-03     114.731E-03    -203.694E-03     355.617E-03    -151.808E-03     110.050E-03
            1296     13.1090E-03     146.342E-03    -13.7740E+06     43.0091E+06     69.4814E+06    -21.0268E+06    -205.562E-03     360.511E-03    -154.949E-03     99.8860E-03    -206.346E-03     361.198E-03    -154.644E-03     94.6838E-03
            1297     13.8423E-03     146.444E-03    -7.57613E+06     61.6381E+06     81.3274E+06    -13.4400E+06    -206.247E-03     363.897E-03    -157.650E-03     83.4840E-03    -207.108E-03     364.714E-03    -157.321E-03     77.3039E-03
            1298     14.5729E-03     146.533E-03    -3.23681E+06     46.4897E+06     94.2208E+06    -6.71375E+06    -205.535E-03     365.722E-03    -160.187E-03     54.8765E-03    -206.227E-03     366.295E-03    -159.779E-03     48.9450E-03
            1299     800.482E-06     145.836E-03    -165.503E+06    -111.253E+06    -161.557E+06    -11.8547E+06    -118.762E-03     236.865E-03    -118.103E-03     15.3933E-03    -119.196E-03     236.784E-03    -118.510E-03     15.1731E-03
            1300     1.60038E-03     145.861E-03    -158.679E+06    -99.4097E+06    -145.394E+06    -22.1829E+06    -120.309E-03     239.105E-03    -118.796E-03     28.0917E-03    -120.753E-03     239.054E-03    -119.149E-03     27.6752E-03
            1301     2.39835E-03     145.902E-03    -149.309E+06    -86.4432E+06    -125.108E+06    -32.4353E+06    -123.154E-03     242.871E-03    -119.717E-03     40.9940E-03    -123.606E-03     242.849E-03    -120.001E-03     40.3684E-03
            1302     3.19405E-03     145.959E-03    -138.928E+06    -75.4711E+06    -104.666E+06    -41.3459E+06    -127.032E-03     248.008E-03    -120.977E-03     53.5787E-03    -127.488E-03     248.007E-03    -121.189E-03     52.7428E-03
            1303     3.98631E-03     146.032E-03    -128.562E+06    -66.9557E+06    -86.3880E+06    -49.1156E+06    -131.922E-03     254.470E-03    -122.548E-03     65.5256E-03    -132.379E-03     254.484E-03    -122.697E-03     64.4772E-03
            1304     4.77452E-03     146.120E-03    -118.378E+06    -60.5441E+06    -70.6770E+06    -55.7357E+06    -137.682E-03     262.096E-03    -124.414E-03     76.6789E-03    -138.138E-03     262.123E-03    -124.508E-03     75.4105E-03
            1305     5.55821E-03     146.224E-03    -108.183E+06    -54.6105E+06    -56.1933E+06    -60.9505E+06    -144.108E-03     270.656E-03    -126.548E-03     86.9174E-03    -144.565E-03     270.699E-03    -126.593E-03     85.4344E-03
            1306     6.33675E-03     146.343E-03    -98.3742E+06    -47.6486E+06    -42.4705E+06    -64.3538E+06    -150.960E-03     279.871E-03    -128.911E-03     96.2191E-03    -151.423E-03     279.941E-03    -128.911E-03     94.5262E-03
            1307     7.11018E-03     146.475E-03    -87.4982E+06    -42.3241E+06    -28.2352E+06    -64.7438E+06    -158.101E-03     289.571E-03    -131.470E-03     104.342E-03    -158.567E-03     289.660E-03    -131.423E-03     102.452E-03
            1308     7.87812E-03     146.619E-03    -75.6845E+06    -36.3089E+06     -12.537E+06    -63.6752E+06    -165.414E-03     299.605E-03    -134.191E-03     111.174E-03    -165.886E-03     299.718E-03    -134.091E-03     109.074E-03
            1309     8.64042E-03     146.772E-03    -63.4623E+06    -30.0175E+06     2.93303E+06    -60.7252E+06    -172.609E-03     309.638E-03    -137.030E-03     116.624E-03    -173.089E-03     309.781E-03    -136.880E-03     114.304E-03
            1310     9.39803E-03     146.932E-03    -50.3127E+06    -20.9204E+06     19.5915E+06    -54.8728E+06    -179.374E-03     319.317E-03    -139.943E-03     120.391E-03    -179.867E-03     319.503E-03    -139.742E-03     117.853E-03
            1311     10.1501E-03     147.096E-03    -37.8584E+06    -6.90401E+06     37.6755E+06    -47.1234E+06    -185.595E-03     328.482E-03    -142.887E-03     122.306E-03    -186.117E-03     328.738E-03    -142.634E-03     119.525E-03
            1312     10.8990E-03     147.259E-03    -27.8967E+06    -496.423E+03     52.3006E+06    -38.6514E+06    -191.489E-03     337.322E-03    -145.833E-03     121.957E-03    -192.039E-03     337.622E-03    -145.530E-03     118.880E-03
            1313     11.6419E-03     147.418E-03    -21.6521E+06     7.15193E+06     61.9493E+06    -32.3171E+06    -196.998E-03     345.750E-03    -148.753E-03     118.785E-03    -197.588E-03     346.112E-03    -148.422E-03     115.324E-03
            1314     12.3817E-03     147.568E-03    -17.5060E+06     10.4551E+06     68.1814E+06    -28.8683E+06    -202.152E-03     353.807E-03    -151.655E-03     111.979E-03    -202.780E-03     354.215E-03    -151.304E-03     108.001E-03
            1315     13.1161E-03     147.700E-03    -12.8706E+06     30.8140E+06     77.0734E+06    -24.2387E+06    -206.485E-03     361.009E-03    -154.524E-03     99.7638E-03    -207.166E-03     361.533E-03    -154.165E-03     95.1739E-03
            1316     13.8464E-03     147.814E-03    -6.82669E+06     45.4243E+06     84.7015E+06    -14.3373E+06    -208.677E-03     365.990E-03    -157.313E-03     83.7779E-03    -209.426E-03     366.632E-03    -156.946E-03     78.2135E-03
            1317     14.5796E-03     147.898E-03    -1.88691E+06     33.1896E+06     96.5797E+06    -3.64119E+06    -208.386E-03     368.371E-03    -159.984E-03     55.6504E-03    -209.000E-03     368.816E-03    -159.547E-03     50.1982E-03
            1318     798.274E-06     147.037E-03    -99.9682E+06    -77.4586E+06    -96.6021E+06    -12.8452E+06    -122.646E-03     244.784E-03    -122.138E-03     9.28411E-03    -122.899E-03     244.681E-03    -122.363E-03     8.98658E-03
            1319     1.59543E-03     147.065E-03    -94.3304E+06    -67.5532E+06    -82.7537E+06    -22.0914E+06    -124.235E-03     247.072E-03    -122.838E-03     17.0026E-03    -124.497E-03     246.994E-03    -123.017E-03     16.4733E-03
            1320     2.39098E-03     147.110E-03    -87.0572E+06    -56.4658E+06    -65.0061E+06    -30.7994E+06    -126.853E-03     250.679E-03    -123.826E-03     24.6990E-03    -127.129E-03     250.627E-03    -123.942E-03     23.9260E-03
            1321     3.18358E-03     147.173E-03    -78.9414E+06    -48.2820E+06    -47.6154E+06    -38.4144E+06    -130.470E-03     255.617E-03    -125.147E-03     32.4012E-03    -130.752E-03     255.580E-03    -125.200E-03     31.3792E-03
            1322     3.97303E-03     147.252E-03    -70.7967E+06    -41.9210E+06    -32.3034E+06    -44.6872E+06    -134.814E-03     261.583E-03    -126.769E-03     39.7169E-03    -135.099E-03     261.557E-03    -126.768E-03     38.4525E-03
            1323     4.75851E-03     147.350E-03    -63.6142E+06    -37.6883E+06    -19.1903E+06    -49.8160E+06    -139.639E-03     268.279E-03    -128.640E-03     46.9234E-03    -139.929E-03     268.262E-03    -128.590E-03     45.4333E-03
            1324     5.53968E-03     147.463E-03    -57.6900E+06    -34.2436E+06    -7.76487E+06    -53.8164E+06    -144.785E-03     275.489E-03    -130.704E-03     54.0637E-03    -145.083E-03     275.481E-03    -130.609E-03     52.3703E-03
            1325     6.31667E-03     147.592E-03    -53.3061E+06    -31.0633E+06     1.57589E+06    -56.4018E+06    -150.148E-03     283.056E-03    -132.908E-03     61.2059E-03    -150.459E-03     283.062E-03    -132.778E-03     59.3459E-03
            1326     7.08911E-03     147.735E-03    -50.6533E+06    -29.4924E+06     8.25134E+06    -58.3010E+06    -155.685E-03     290.896E-03    -135.212E-03     68.4090E-03    -156.010E-03     290.914E-03    -135.054E-03     66.4117E-03
            1327     7.85708E-03     147.890E-03    -48.9691E+06    -26.9653E+06     14.7275E+06    -58.5878E+06    -161.296E-03     298.885E-03    -137.588E-03     75.6844E-03    -161.643E-03     298.921E-03    -137.405E-03     73.5915E-03
            1328     8.62077E-03     148.055E-03    -48.2505E+06    -24.2079E+06     21.6100E+06    -58.0878E+06    -166.903E-03     306.912E-03    -140.009E-03     82.9696E-03    -167.276E-03     306.969E-03    -139.796E-03     80.8068E-03
            1329     9.37962E-03     148.227E-03    -46.9387E+06    -20.8165E+06     29.5096E+06    -57.2260E+06    -172.362E-03     314.806E-03    -142.445E-03     89.8203E-03    -172.761E-03     314.884E-03    -142.199E-03     87.5880E-03
            1330     10.1355E-03     148.402E-03    -42.6053E+06    -15.0842E+06     40.4253E+06    -52.7558E+06    -177.848E-03     322.731E-03    -144.883E-03     95.7669E-03    -178.271E-03     322.836E-03    -144.597E-03     93.4748E-03
            1331     10.8863E-03     148.577E-03    -35.2297E+06    -11.9830E+06     52.6391E+06    -44.8190E+06    -183.441E-03     330.768E-03    -147.327E-03     100.084E-03    -183.875E-03     330.886E-03    -146.996E-03     97.7032E-03
            1332     11.6342E-03     148.748E-03    -26.2365E+06    -933.462E+03     65.8397E+06    -35.5133E+06    -189.161E-03     338.940E-03    -149.779E-03     101.752E-03    -189.621E-03     339.116E-03    -149.411E-03     99.1711E-03
            1333     12.3780E-03     148.909E-03    -19.5104E+06     6.43894E+06     79.2889E+06    -27.9275E+06    -195.005E-03     347.283E-03    -152.279E-03     99.8831E-03    -195.506E-03     347.511E-03    -151.863E-03     96.9227E-03
            1334     13.1165E-03     149.059E-03    -15.6949E+06     22.7930E+06     88.4208E+06    -22.5460E+06    -200.668E-03     355.466E-03    -154.799E-03     93.0642E-03    -201.236E-03     355.806E-03    -154.367E-03     89.5026E-03
            1335     13.8521E-03     149.177E-03    -13.2024E+06     23.7217E+06     87.4518E+06    -13.9888E+06    -205.620E-03     362.953E-03    -157.333E-03     80.7397E-03    -206.244E-03     363.364E-03    -156.911E-03     76.2192E-03
            1336     14.5788E-03     149.274E-03    -7.69572E+06     18.0965E+06     95.7838E+06    -4.26049E+06    -208.077E-03     367.967E-03    -159.890E-03     54.7605E-03    -208.601E-03     368.251E-03    -159.426E-03     50.2151E-03
            1337     788.811E-06     148.257E-03    -36.6684E+06    -44.1379E+06    -32.9382E+06    -11.4181E+06    -135.945E-03     270.557E-03    -134.612E-03    -526.669E-06    -136.032E-03     270.423E-03    -134.660E-03    -890.737E-06
            1338     1.57650E-03     148.287E-03    -33.1179E+06    -37.7015E+06    -23.3518E+06    -19.8611E+06    -136.418E-03     272.206E-03    -135.788E-03    -1.63736E-03    -136.510E-03     272.085E-03    -135.802E-03    -2.29846E-03
            1339     2.36249E-03     148.336E-03    -28.0347E+06    -30.3910E+06    -9.13280E+06    -26.5754E+06    -138.078E-03     274.758E-03    -136.680E-03    -2.27348E-03    -138.175E-03     274.646E-03    -136.641E-03    -3.23227E-03
            1340     3.14645E-03     148.403E-03    -22.7966E+06    -25.0064E+06     5.46313E+06    -31.8265E+06    -140.264E-03     278.118E-03    -137.854E-03    -2.59226E-03    -140.364E-03     278.007E-03    -137.758E-03    -3.83134E-03
            1341     3.92698E-03     148.489E-03    -18.7076E+06    -21.4171E+06     18.0330E+06    -35.7456E+06    -142.687E-03     281.939E-03    -139.253E-03    -2.64943E-03    -142.791E-03     281.826E-03    -139.104E-03    -4.14171E-03
            1342     4.70470E-03     148.591E-03    -16.1567E+06    -19.3318E+06     28.5108E+06    -38.1929E+06    -145.050E-03     285.847E-03    -140.796E-03    -2.13521E-03    -145.161E-03     285.729E-03    -140.602E-03    -3.84403E-03
            1343     5.47952E-03     148.711E-03    -15.3188E+06    -17.8384E+06     36.7264E+06    -39.6809E+06    -147.301E-03     289.711E-03    -142.411E-03    -660.765E-06    -147.424E-03     289.595E-03    -142.179E-03    -2.54465E-03
            1344     6.25151E-03     148.845E-03    -15.3816E+06    -16.2909E+06     43.3948E+06    -40.6755E+06    -149.463E-03     293.509E-03    -144.046E-03     1.82225E-03    -149.602E-03     293.399E-03    -143.783E-03    -191.535E-06
            1345     7.02092E-03     148.995E-03    -16.2635E+06     -15.981E+06     48.7981E+06    -40.7466E+06    -151.434E-03     297.094E-03    -145.660E-03     5.61375E-03    -151.591E-03     296.988E-03    -145.369E-03     3.52905E-03
            1346     7.78824E-03     149.157E-03    -17.6287E+06    -15.9161E+06     53.4944E+06    -40.3358E+06    -153.356E-03     300.570E-03    -147.214E-03     10.9205E-03    -153.533E-03     300.471E-03    -146.898E-03     8.82322E-03
            1347     8.55369E-03     149.329E-03    -18.5291E+06    -13.9944E+06     58.9616E+06    -39.9220E+06    -155.271E-03     303.956E-03    -148.686E-03     17.4904E-03    -155.470E-03     303.871E-03    -148.344E-03     15.4219E-03
            1348     9.31829E-03     149.509E-03    -19.5739E+06    -11.6528E+06     63.8316E+06    -39.4870E+06    -157.524E-03     307.588E-03    -150.065E-03     25.2941E-03    -157.746E-03     307.521E-03    -149.700E-03     23.2805E-03
            1349     10.0802E-03     149.693E-03    -22.3319E+06    -12.3585E+06     65.7805E+06    -38.5992E+06    -160.398E-03     311.761E-03    -151.364E-03     34.3843E-03    -160.645E-03     311.704E-03    -150.984E-03     32.4469E-03
            1350     10.8406E-03     149.879E-03    -25.4625E+06    -12.6729E+06     68.3901E+06    -37.1358E+06    -163.965E-03     316.584E-03    -152.619E-03     44.4187E-03    -164.245E-03     316.540E-03    -152.221E-03     42.5482E-03
            1351     11.5977E-03     150.060E-03    -26.2376E+06    -10.1685E+06     73.1787E+06    -33.9173E+06    -168.654E-03     322.522E-03    -153.868E-03     55.3294E-03    -168.967E-03     322.506E-03    -153.450E-03     53.4986E-03
            1352     12.3493E-03     150.238E-03    -22.3826E+06    -2.94585E+06     84.0437E+06    -26.7915E+06    -174.329E-03     329.505E-03    -155.175E-03     65.4347E-03    -174.677E-03     329.530E-03    -154.718E-03     63.5883E-03
            1353     13.0994E-03     150.395E-03    -15.5787E+06     15.5620E+06     95.8888E+06    -20.4156E+06    -181.643E-03     338.224E-03    -156.582E-03     72.7663E-03    -182.034E-03     338.346E-03    -156.102E-03     70.7128E-03
            1354     13.8411E-03     150.537E-03    -7.80577E+06     6.18299E+06     92.8950E+06    -12.7815E+06    -191.469E-03     349.664E-03    -158.195E-03     72.9546E-03    -191.863E-03     349.787E-03    -157.728E-03     70.2453E-03
            1355     14.5822E-03     150.638E-03    -560.362E+03     5.91808E+06     93.8015E+06    -4.44846E+06    -200.252E-03     360.364E-03    -160.112E-03     52.7661E-03    -200.583E-03     360.444E-03    -159.650E-03     49.8944E-03
            1356     769.405E-06     149.523E-03     24.9523E+06    -17.3110E+06     27.5844E+06    -7.12964E+06    -160.273E-03     320.673E-03    -160.400E-03    -15.5648E-03    -160.202E-03     320.462E-03    -160.273E-03    -15.9284E-03
            1357     1.53850E-03     149.553E-03     24.8746E+06    -13.6624E+06     34.0508E+06    -12.1743E+06    -160.003E-03     320.913E-03    -160.910E-03    -27.9984E-03    -159.940E-03     320.703E-03    -160.756E-03    -28.6379E-03
            1358     2.30658E-03     149.603E-03     24.3554E+06    -11.2073E+06     43.0601E+06    -15.8526E+06    -159.665E-03     321.165E-03    -161.500E-03    -40.6172E-03    -159.607E-03     320.946E-03    -161.304E-03    -41.5180E-03
            1359     3.07257E-03     149.672E-03     23.3255E+06    -9.01571E+06     53.1030E+06    -17.8847E+06    -158.891E-03     321.121E-03    -162.229E-03    -52.4637E-03    -158.839E-03     320.888E-03    -161.984E-03    -53.5811E-03
            1360     3.83783E-03     149.759E-03     21.6668E+06    -7.40464E+06     62.8354E+06    -18.9001E+06    -157.574E-03     320.584E-03    -163.009E-03    -62.6958E-03    -157.526E-03     320.337E-03    -162.716E-03    -63.9912E-03
            1361     4.60108E-03     149.864E-03     19.5137E+06    -7.06866E+06     70.8772E+06    -19.3131E+06    -155.905E-03     319.687E-03    -163.783E-03    -71.1484E-03    -155.861E-03     319.424E-03    -163.446E-03    -72.5907E-03
            1362     5.36357E-03     149.983E-03     17.2023E+06    -6.47681E+06     77.5594E+06    -19.4462E+06    -153.724E-03     318.229E-03    -164.505E-03    -77.6151E-03    -153.686E-03     317.954E-03    -164.133E-03    -79.1647E-03
            1363     6.12514E-03     150.119E-03     14.7250E+06    -6.01854E+06     83.6150E+06    -19.2273E+06    -150.968E-03     316.089E-03    -165.121E-03    -81.7636E-03    -150.939E-03     315.810E-03    -164.715E-03    -83.3743E-03
            1364     6.88692E-03     150.267E-03     12.1532E+06    -6.91358E+06     88.9976E+06    -18.6850E+06    -147.876E-03     313.463E-03    -165.587E-03    -83.6450E-03    -147.859E-03     313.177E-03    -165.150E-03    -85.2757E-03
            1365     7.64943E-03     150.429E-03     9.63421E+06    -6.87394E+06     93.5356E+06    -18.4870E+06    -144.442E-03     310.309E-03    -165.868E-03    -83.1911E-03    -144.441E-03     310.026E-03    -165.404E-03    -84.8137E-03
            1366     8.41317E-03     150.599E-03     7.10513E+06    -5.48668E+06     97.2070E+06    -18.4831E+06    -140.946E-03     306.884E-03    -165.937E-03    -80.5169E-03    -140.966E-03     306.616E-03    -165.454E-03    -82.1085E-03
            1367     9.17849E-03     150.778E-03     3.64642E+06    -4.65369E+06     99.3922E+06    -17.3689E+06    -137.728E-03     303.523E-03    -165.795E-03    -75.4899E-03    -137.774E-03     303.275E-03    -165.297E-03    -77.0132E-03
            1368     9.94636E-03     150.964E-03     585.167E+03    -4.27723E+06     100.674E+06    -16.3485E+06    -134.935E-03     300.380E-03    -165.445E-03    -67.8695E-03    -135.008E-03     300.154E-03    -164.936E-03    -69.3029E-03
            1369     10.7171E-03     151.151E-03    -1.34186E+06    -5.60631E+06     101.245E+06    -16.0476E+06    -133.046E-03     297.951E-03    -164.905E-03    -57.2690E-03    -133.139E-03     297.739E-03    -164.388E-03    -58.6049E-03
            1370     11.4902E-03     151.341E-03    -3.06958E+06    -7.06253E+06     99.4799E+06    -16.3626E+06    -132.304E-03     296.500E-03    -164.196E-03    -43.5082E-03    -132.413E-03     296.303E-03    -163.684E-03    -44.7254E-03
            1371     12.2689E-03     151.523E-03    -4.58925E+06    -6.91126E+06     96.7147E+06    -15.9417E+06    -134.076E-03     297.481E-03    -163.405E-03    -27.6057E-03    -134.199E-03     297.306E-03    -162.905E-03    -28.7094E-03
            1372     13.0439E-03     151.699E-03    -5.16223E+06     9.17957E+06     100.020E+06    -13.2494E+06    -139.933E-03     302.649E-03    -162.716E-03    -10.8128E-03    -140.099E-03     302.564E-03    -162.222E-03    -11.8789E-03
            1373     13.8170E-03     151.856E-03    -3.02719E+06    -355.196E+03     91.0096E+06    -7.88228E+06    -149.413E-03     311.669E-03    -162.256E-03     6.69792E-03    -149.573E-03     311.584E-03    -161.796E-03     5.42433E-03
            1374     14.5678E-03     151.995E-03     443.048E+03    -3.36107E+06     72.3535E+06    -3.25012E+06    -159.879E-03     321.927E-03    -162.048E-03     15.6109E-03    -160.008E-03     321.863E-03    -161.682E-03     14.3735E-03
            1375     14.5294E-03     75.4107E-03    -5.41918E+06     106.149E+06     107.470E+06    -51.6614E+03    -161.820E-03     325.178E-03    -163.359E-03     35.3287E-03    -162.704E-03     326.109E-03    -162.967E-03     29.4418E-03
            1376     13.7632E-03     75.3508E-03    -11.7770E+06     102.230E+06     98.2399E+06     186.132E+03    -162.177E-03     325.538E-03    -163.361E-03     57.3172E-03    -163.344E-03     326.741E-03    -163.001E-03     50.4010E-03
            1377     12.9982E-03     75.2798E-03    -17.9193E+06     95.3650E+06     85.9303E+06     484.860E+03    -162.724E-03     326.070E-03    -163.346E-03     67.5430E-03    -163.945E-03     327.317E-03    -163.029E-03     60.7633E-03
            1378     12.2340E-03     75.1930E-03    -23.4973E+06     82.7209E+06     76.7384E+06     910.450E+03    -163.130E-03     326.482E-03    -163.352E-03     77.9221E-03    -164.434E-03     327.774E-03    -163.054E-03     71.1122E-03
            1379     11.4684E-03     75.0949E-03    -29.7298E+06     51.5376E+06     66.6573E+06     6.40728E+03    -163.459E-03     326.844E-03    -163.385E-03     84.2344E-03    -164.762E-03     328.031E-03    -163.083E-03     77.5352E-03
            1380     10.7034E-03     74.9912E-03    -36.7484E+06     14.0680E+06     57.8661E+06    -374.099E+03    -163.768E-03     327.205E-03    -163.437E-03     88.1545E-03    -165.042E-03     328.230E-03    -163.115E-03     81.5996E-03
            1381     9.93873E-03     74.8832E-03    -43.7913E+06    -20.2542E+06     46.7378E+06    -153.959E+03    -164.087E-03     327.558E-03    -163.471E-03     90.2086E-03    -165.313E-03     328.421E-03    -163.144E-03     83.8239E-03
            1382     9.17415E-03     74.7734E-03    -50.7876E+06    -51.5614E+06     36.0929E+06    -113.484E+03    -164.292E-03     327.789E-03    -163.497E-03     90.6996E-03    -165.456E-03     328.485E-03    -163.168E-03     84.5163E-03
            1383     8.40925E-03     74.6634E-03    -58.3412E+06    -76.5547E+06     25.8458E+06    -91.9562E+03    -164.342E-03     327.857E-03    -163.515E-03     89.8328E-03    -165.441E-03     328.402E-03    -163.191E-03     83.8880E-03
            1384     7.64466E-03     74.5551E-03    -66.1666E+06    -98.8710E+06     15.3256E+06    -188.102E+03    -164.303E-03     327.836E-03    -163.533E-03     87.6450E-03    -165.324E-03     328.227E-03    -163.217E-03     81.9878E-03
            1385     6.87992E-03     74.4504E-03    -74.5801E+06    -120.708E+06     3.61308E+06    -61.0856E+03    -164.226E-03     327.776E-03    -163.550E-03     84.0721E-03    -165.153E-03     327.999E-03    -163.249E-03     78.7714E-03
            1386     6.11535E-03     74.3503E-03    -83.8154E+06    -143.266E+06    -9.75132E+06     80.8595E+03    -164.116E-03     327.682E-03    -163.566E-03     79.0940E-03    -164.934E-03     327.723E-03    -163.286E-03     74.2138E-03
            1387     5.35077E-03     74.2578E-03    -93.3309E+06    -165.959E+06    -24.8379E+06     43.7313E+03    -164.021E-03     327.598E-03    -163.577E-03     72.7925E-03    -164.721E-03     327.449E-03    -163.326E-03     68.4000E-03
            1388     4.58611E-03     74.1727E-03    -103.170E+06    -189.388E+06    -41.9629E+06    -85.1602E+03    -163.913E-03     327.491E-03    -163.578E-03     65.1955E-03    -164.490E-03     327.151E-03    -163.364E-03     61.3485E-03
            1389     3.82156E-03     74.0983E-03    -113.644E+06    -213.826E+06    -61.5139E+06    -130.594E+03    -163.769E-03     327.337E-03    -163.568E-03     56.3952E-03    -164.226E-03     326.810E-03    -163.401E-03     53.1403E-03
            1390     3.05709E-03     74.0351E-03    -123.944E+06    -239.170E+06    -83.2397E+06    -74.2490E+03    -163.708E-03     327.247E-03    -163.539E-03     46.5754E-03    -164.052E-03     326.543E-03    -163.429E-03     43.9440E-03
            1391     2.29294E-03     73.9839E-03    -133.286E+06    -264.148E+06    -106.219E+06    -19.8865E+03    -163.636E-03     327.115E-03    -163.479E-03     35.8418E-03    -163.878E-03     326.254E-03    -163.434E-03     33.8502E-03
            1392     1.52872E-03     73.9473E-03    -141.468E+06    -286.578E+06    -127.775E+06    -70.2049E+03    -163.446E-03     326.865E-03    -163.419E-03     24.4929E-03    -163.606E-03     325.876E-03    -163.437E-03     23.1459E-03
            1393     764.374E-06     73.9238E-03    -146.218E+06    -302.825E+06    -143.065E+06     175.766E+03    -163.398E-03     326.792E-03    -163.394E-03     13.4585E-03    -163.500E-03     325.715E-03    -163.458E-03     12.7285E-03
            1394     14.5271E-03     74.0973E-03    -5.87328E+06     105.351E+06     107.108E+06      97.544E+03    -161.879E-03     325.248E-03    -163.369E-03     35.3589E-03    -162.767E-03     326.178E-03    -162.978E-03     29.4640E-03
            1395     13.7634E-03     74.0365E-03    -11.9864E+06     101.926E+06     97.8477E+06    -229.033E+03    -162.348E-03     325.712E-03    -163.364E-03     57.3104E-03    -163.518E-03     326.917E-03    -163.005E-03     50.3713E-03
            1396     12.9986E-03     73.9666E-03    -17.7503E+06     95.4353E+06     86.0005E+06    -219.200E+03    -162.732E-03     326.078E-03    -163.345E-03     67.5279E-03    -163.954E-03     327.326E-03    -163.028E-03     60.7320E-03
            1397     12.2330E-03     73.8785E-03    -23.9159E+06     82.6388E+06     76.5467E+06     130.645E+03    -163.105E-03     326.457E-03    -163.352E-03     77.9877E-03    -164.413E-03     327.751E-03    -163.054E-03     71.1630E-03
            1398     11.4687E-03     73.7819E-03    -30.0103E+06     52.3319E+06     66.7277E+06     564.391E+03    -163.443E-03     326.828E-03    -163.385E-03     84.2283E-03    -164.747E-03     328.019E-03    -163.084E-03     77.5423E-03
            1399     10.7037E-03     73.6775E-03    -36.5645E+06     14.4925E+06     57.9549E+06     94.9668E+03    -163.806E-03     327.243E-03    -163.437E-03     88.1629E-03    -165.079E-03     328.269E-03    -163.115E-03     81.6165E-03
            1400     9.93878E-03     73.5695E-03    -43.5978E+06    -20.9815E+06     46.5331E+06    -315.606E+03    -164.148E-03     327.615E-03    -163.466E-03     90.1164E-03    -165.371E-03     328.473E-03    -163.140E-03     83.7300E-03
            1401     9.17398E-03     73.4596E-03    -50.7497E+06    -51.9052E+06     36.2089E+06     43.8711E+03    -164.296E-03     327.787E-03    -163.491E-03     90.5642E-03    -165.460E-03     328.481E-03    -163.161E-03     84.3810E-03
            1402     8.40952E-03     73.3498E-03    -58.1996E+06    -76.2731E+06     26.1890E+06     33.8496E+03    -164.296E-03     327.806E-03    -163.510E-03     89.7073E-03    -165.395E-03     328.351E-03    -163.184E-03     83.7637E-03
            1403     7.64465E-03     73.2417E-03    -66.3131E+06    -98.9956E+06     15.3264E+06    -42.5094E+03    -164.263E-03     327.792E-03    -163.530E-03     87.5770E-03    -165.284E-03     328.182E-03    -163.213E-03     81.9229E-03
            1404     6.88010E-03     73.1367E-03    -74.9222E+06    -121.122E+06     3.39373E+06     9.49002E+03    -164.177E-03     327.728E-03    -163.551E-03     84.0767E-03    -165.104E-03     327.949E-03    -163.250E-03     78.7775E-03
            1405     6.11523E-03     73.0372E-03    -83.7114E+06    -143.300E+06    -9.78108E+06     1.79216E+03    -164.097E-03     327.669E-03    -163.572E-03     79.1812E-03    -164.915E-03     327.709E-03    -163.291E-03     74.3041E-03
            1406     5.35053E-03     72.9439E-03    -93.0629E+06    -165.790E+06    -24.7121E+06    -146.871E+03    -164.060E-03     327.643E-03    -163.583E-03     72.9026E-03    -164.759E-03     327.494E-03    -163.331E-03     68.5087E-03
            1407     4.58619E-03     72.8594E-03    -103.376E+06    -189.715E+06    -41.8554E+06    -2.83413E+03    -163.945E-03     327.525E-03    -163.580E-03     65.1723E-03    -164.523E-03     327.184E-03    -163.364E-03     61.3256E-03
            1408     3.82160E-03     72.7849E-03    -113.710E+06    -214.035E+06    -61.5086E+06     40.5009E+03    -163.814E-03     327.375E-03    -163.561E-03     56.3287E-03    -164.271E-03     326.847E-03    -163.393E-03     53.0760E-03
            1409     3.05736E-03     72.7212E-03    -123.725E+06    -239.080E+06    -83.4368E+06    -141.789E+03    -163.676E-03     327.203E-03    -163.527E-03     46.5446E-03    -164.018E-03     326.499E-03    -163.418E-03     43.9121E-03
            1410     2.29285E-03     72.6708E-03    -133.668E+06    -264.509E+06    -106.422E+06     20.3732E+03    -163.534E-03     327.024E-03    -163.490E-03     35.8493E-03    -163.777E-03     326.162E-03    -163.445E-03     33.8600E-03
            1411     1.52849E-03     72.6335E-03    -141.558E+06    -286.676E+06    -127.795E+06     133.797E+03    -163.522E-03     326.956E-03    -163.434E-03     24.5551E-03    -163.682E-03     325.966E-03    -163.453E-03     23.2129E-03
            1412     764.337E-06     72.6111E-03    -147.024E+06    -303.119E+06    -142.929E+06    -213.500E+03    -163.533E-03     326.792E-03    -163.259E-03     13.6663E-03    -163.638E-03     325.714E-03    -163.321E-03     12.9308E-03
            1413     14.5294E-03     72.7835E-03    -5.30478E+06     105.854E+06     107.610E+06     81.2493E+03    -161.928E-03     325.297E-03    -163.369E-03     35.5798E-03    -162.816E-03     326.230E-03    -162.977E-03     29.6862E-03
            1414     13.7632E-03     72.7229E-03    -11.7498E+06     102.147E+06     98.0949E+06    -49.7974E+03    -162.346E-03     325.709E-03    -163.363E-03     57.3272E-03    -163.515E-03     326.914E-03    -163.003E-03     50.3895E-03
            1415     12.9983E-03     72.6525E-03    -18.3181E+06     94.7378E+06     85.2439E+06    -35.7096E+03    -162.702E-03     326.044E-03    -163.343E-03     67.4333E-03    -163.922E-03     327.289E-03    -163.027E-03     60.6485E-03
            1416     12.2339E-03     72.5654E-03    -24.4405E+06     81.8787E+06     75.8361E+06    -97.3801E+03    -163.040E-03     326.392E-03    -163.352E-03     77.9236E-03    -164.348E-03     327.683E-03    -163.056E-03     71.1005E-03
            1417     11.4682E-03     72.4679E-03    -30.7815E+06     51.9453E+06     66.4001E+06    -139.230E+03    -163.521E-03     326.908E-03    -163.387E-03     84.1961E-03    -164.829E-03     328.098E-03    -163.085E-03     77.4970E-03
            1418     10.7036E-03     72.3640E-03    -37.1837E+06     14.8741E+06     57.9621E+06     55.1390E+03    -163.942E-03     327.372E-03    -163.430E-03     88.0839E-03    -165.218E-03     328.401E-03    -163.108E-03     81.5294E-03
            1419     9.93892E-03     72.2556E-03    -44.1190E+06    -21.1001E+06     46.4816E+06     186.725E+03    -164.137E-03     327.591E-03    -163.454E-03     89.9984E-03    -165.362E-03     328.450E-03    -163.127E-03     83.6158E-03
            1420     9.17438E-03     72.1461E-03    -51.4332E+06    -52.0671E+06     36.0006E+06    -85.1454E+03    -164.204E-03     327.685E-03    -163.481E-03     90.4873E-03    -165.370E-03     328.379E-03    -163.151E-03     84.3037E-03
            1421     8.40938E-03     72.0363E-03    -58.8140E+06    -76.3558E+06     25.9809E+06    -123.001E+03    -164.222E-03     327.728E-03    -163.506E-03     89.7674E-03    -165.323E-03     328.274E-03    -163.180E-03     83.8269E-03
            1422     7.64481E-03     71.9283E-03    -66.6156E+06    -99.2508E+06     15.1726E+06    -12.1218E+03    -164.202E-03     327.735E-03    -163.533E-03     87.6869E-03    -165.223E-03     328.124E-03    -163.217E-03     82.0384E-03
            1423     6.87981E-03     71.8235E-03    -74.8811E+06    -121.108E+06     3.34144E+06    -106.737E+03    -164.176E-03     327.734E-03    -163.558E-03     84.1372E-03    -165.103E-03     327.955E-03    -163.257E-03     78.8393E-03
            1424     6.11521E-03     71.7238E-03    -83.8174E+06    -143.318E+06    -9.73869E+06    -208.726E+03    -164.166E-03     327.742E-03    -163.576E-03     79.1703E-03    -164.984E-03     327.782E-03    -163.295E-03     74.2913E-03
            1425     5.35071E-03     71.6304E-03    -93.6242E+06    -166.129E+06    -24.8898E+06     49.8875E+03    -164.069E-03     327.651E-03    -163.581E-03     72.7900E-03    -164.770E-03     327.501E-03    -163.329E-03     68.3998E-03
            1426     4.58598E-03     71.5458E-03    -103.377E+06    -189.934E+06    -42.0253E+06     20.0383E+03    -163.954E-03     327.529E-03    -163.575E-03     65.1188E-03    -164.531E-03     327.187E-03    -163.360E-03     61.2725E-03
            1427     3.82180E-03     71.4711E-03    -113.406E+06    -213.869E+06    -61.3664E+06    -146.551E+03    -163.811E-03     327.367E-03    -163.556E-03     56.3955E-03    -164.267E-03     326.839E-03    -163.388E-03     53.1413E-03
            1428     3.05720E-03     71.4080E-03    -124.069E+06    -239.253E+06    -83.6533E+06     43.1465E+03    -163.609E-03     327.140E-03    -163.531E-03     46.5837E-03    -163.953E-03     326.437E-03    -163.422E-03     43.9561E-03
            1429     2.29282E-03     71.3572E-03    -133.574E+06    -264.937E+06    -106.716E+06     45.4918E+03    -163.486E-03     327.000E-03    -163.514E-03     35.8732E-03    -163.727E-03     326.136E-03    -163.470E-03     33.8872E-03
            1430     1.52845E-03     71.3203E-03    -141.317E+06    -286.747E+06    -127.508E+06    -150.445E+03    -163.480E-03     326.981E-03    -163.501E-03     24.6246E-03    -163.639E-03     325.990E-03    -163.518E-03     23.2795E-03
            1431     764.297E-06     71.2969E-03    -146.527E+06    -303.361E+06    -143.347E+06     46.8733E+03    -163.576E-03     326.977E-03    -163.401E-03     13.4730E-03    -163.678E-03     325.898E-03    -163.465E-03     12.7335E-03
            1432     14.5273E-03     71.4699E-03    -5.75853E+06     105.400E+06     107.337E+06     201.981E+03    -161.931E-03     325.289E-03    -163.358E-03     35.4039E-03    -162.815E-03     326.216E-03    -162.966E-03     29.5336E-03
            1433     13.7634E-03     71.4090E-03    -11.8079E+06     101.908E+06     98.0580E+06     463.269E+03    -162.169E-03     325.525E-03    -163.356E-03     57.3205E-03    -163.335E-03     326.726E-03    -162.997E-03     50.4158E-03
            1434     12.9986E-03     71.3389E-03    -17.8087E+06     95.1199E+06     85.8696E+06     234.438E+03    -162.715E-03     326.057E-03    -163.342E-03     67.3199E-03    -163.933E-03     327.300E-03    -163.025E-03     60.5389E-03
            1435     12.2330E-03     71.2518E-03    -23.8750E+06     82.1862E+06     76.5899E+06    -229.793E+03    -163.203E-03     326.549E-03    -163.345E-03     77.6496E-03    -164.508E-03     327.838E-03    -163.047E-03     70.8162E-03
            1436     11.4687E-03     71.1543E-03    -30.3791E+06     51.3231E+06     66.6293E+06    -251.919E+03    -163.602E-03     326.972E-03    -163.370E-03     83.7789E-03    -164.905E-03     328.156E-03    -163.067E-03     77.0689E-03
            1437     10.7039E-03     71.0499E-03    -37.3297E+06     14.2393E+06     58.0229E+06     137.639E+03    -163.826E-03     327.238E-03    -163.412E-03     87.7684E-03    -165.100E-03     328.262E-03    -163.088E-03     81.2168E-03
            1438     9.93920E-03     70.9422E-03    -44.1283E+06    -20.7456E+06     46.6992E+06     176.816E+03    -163.969E-03     327.414E-03    -163.444E-03     90.0306E-03    -165.195E-03     328.273E-03    -163.117E-03     83.6558E-03
            1439     9.17413E-03     70.8325E-03    -51.0118E+06    -51.7869E+06     36.2305E+06    -45.7728E+03    -164.091E-03     327.572E-03    -163.481E-03     90.6534E-03    -165.255E-03     328.266E-03    -163.151E-03     84.4823E-03
            1440     8.40949E-03     70.7231E-03    -58.4826E+06    -76.5695E+06     26.0554E+06    -229.732E+03    -164.173E-03     327.689E-03    -163.515E-03     89.8940E-03    -165.272E-03     328.233E-03    -163.189E-03     83.9583E-03
            1441     7.64443E-03     70.6147E-03    -66.4198E+06    -99.5066E+06     15.1988E+06    -223.036E+03    -164.240E-03     327.784E-03    -163.544E-03     87.7033E-03    -165.260E-03     328.171E-03    -163.227E-03     82.0520E-03
            1442     6.87990E-03     70.5102E-03    -74.9484E+06    -121.053E+06     3.41015E+06    -119.386E+03    -164.280E-03     327.842E-03    -163.562E-03     84.0849E-03    -165.207E-03     328.063E-03    -163.261E-03     78.7851E-03
            1443     6.11528E-03     70.4099E-03    -84.0404E+06    -143.694E+06    -9.97582E+06    -12.1641E+03    -164.218E-03     327.788E-03    -163.570E-03     79.1068E-03    -165.036E-03     327.826E-03    -163.289E-03     74.2285E-03
            1444     5.35069E-03     70.3171E-03    -93.3183E+06    -166.516E+06    -24.9179E+06    -86.3004E+03    -164.059E-03     327.631E-03    -163.572E-03     72.7742E-03    -164.757E-03     327.479E-03    -163.320E-03     68.3847E-03
            1445     4.58632E-03     70.2322E-03    -103.410E+06    -190.033E+06    -42.0413E+06    -57.2610E+03    -163.883E-03     327.455E-03    -163.572E-03     65.2061E-03    -164.459E-03     327.112E-03    -163.357E-03     61.3634E-03
            1446     3.82152E-03     70.1578E-03    -113.840E+06    -213.925E+06    -61.6235E+06     83.7921E+03    -163.745E-03     327.310E-03    -163.565E-03     56.4023E-03    -164.202E-03     326.783E-03    -163.398E-03     53.1515E-03
            1447     3.05721E-03     70.0944E-03    -123.815E+06    -239.415E+06    -83.6985E+06    -54.4593E+03    -163.618E-03     327.167E-03    -163.549E-03     46.5186E-03    -163.960E-03     326.463E-03    -163.441E-03     43.8895E-03
            1448     2.29274E-03     70.0441E-03    -133.463E+06    -264.994E+06    -106.482E+06    -126.867E+03    -163.532E-03     327.062E-03    -163.531E-03     35.8790E-03    -163.772E-03     326.197E-03    -163.485E-03     33.8870E-03
            1449     1.52841E-03     70.0065E-03    -141.797E+06    -287.086E+06    -127.681E+06     72.0308E+03    -163.453E-03     326.975E-03    -163.523E-03     24.5158E-03    -163.614E-03     325.984E-03    -163.539E-03     23.1683E-03
            1450     763.914E-06     69.9839E-03    -147.054E+06    -303.258E+06    -143.122E+06     190.018E+03    -163.579E-03     327.041E-03    -163.462E-03     13.4867E-03    -163.684E-03     325.962E-03    -163.525E-03     12.7620E-03
            1451     14.5303E-03     70.1577E-03    -6.01946E+06     105.072E+06     107.175E+06     229.670E+03    -162.156E-03     325.506E-03    -163.350E-03     35.4151E-03    -163.043E-03     326.434E-03    -162.958E-03     29.5256E-03
            1452     13.7634E-03     70.0954E-03    -11.4714E+06     102.119E+06     98.8360E+06     225.263E+03    -162.201E-03     325.545E-03    -163.344E-03     57.3839E-03    -163.369E-03     326.748E-03    -162.981E-03     50.4671E-03
            1453     12.9982E-03     70.0253E-03    -17.4987E+06     95.3065E+06     86.4808E+06    -31.6493E+03    -162.740E-03     326.066E-03    -163.326E-03     67.0718E-03    -163.958E-03     327.310E-03    -163.006E-03     60.2717E-03
            1454     12.2343E-03     69.9377E-03    -23.9797E+06     82.0371E+06     76.5242E+06     90.1136E+03    -163.230E-03     326.554E-03    -163.324E-03     77.5109E-03    -164.536E-03     327.844E-03    -163.025E-03     70.6730E-03
            1455     11.4693E-03     69.8404E-03    -30.5682E+06     51.1446E+06     66.6934E+06     141.240E+03    -163.489E-03     326.840E-03    -163.351E-03     84.0596E-03    -164.794E-03     328.024E-03    -163.047E-03     77.3631E-03
            1456     10.7042E-03     69.7368E-03    -36.8996E+06     14.1515E+06     58.3133E+06    -20.7817E+03    -163.671E-03     327.074E-03    -163.403E-03     88.1057E-03    -164.944E-03     328.097E-03    -163.078E-03     81.5681E-03
            1457     9.93894E-03     69.6288E-03    -43.6054E+06    -20.5410E+06     46.9574E+06    -33.9193E+03    -163.839E-03     327.284E-03    -163.446E-03     90.1422E-03    -165.060E-03     328.142E-03    -163.118E-03     83.7815E-03
            1458     9.17414E-03     69.5193E-03    -50.7905E+06    -51.7219E+06     36.3327E+06    -145.483E+03    -164.047E-03     327.537E-03    -163.490E-03     90.6822E-03    -165.209E-03     328.230E-03    -163.160E-03     84.5174E-03
            1459     8.40908E-03     69.4094E-03    -58.3781E+06     -76.896E+06     26.0376E+06    -178.330E+03    -164.229E-03     327.754E-03    -163.524E-03     89.7996E-03    -165.327E-03     328.296E-03    -163.198E-03     83.8623E-03
            1460     7.64458E-03     69.3015E-03    -66.4551E+06    -99.6839E+06     15.1740E+06    -41.9580E+03    -164.317E-03     327.863E-03    -163.547E-03     87.6178E-03    -165.336E-03     328.249E-03    -163.230E-03     81.9671E-03
            1461     6.87991E-03     69.1962E-03    -74.8993E+06    -121.387E+06     3.29554E+06    -2.07636E+03    -164.310E-03     327.869E-03    -163.559E-03     84.0997E-03    -165.236E-03     328.088E-03    -163.258E-03     78.8014E-03
            1462     6.11537E-03     69.0967E-03    -83.8212E+06    -143.844E+06    -9.95641E+06    -2.92088E+03    -164.192E-03     327.759E-03    -163.567E-03     79.1461E-03    -165.009E-03     327.796E-03    -163.286E-03     74.2699E-03
            1463     5.35078E-03     69.0033E-03    -93.4714E+06    -166.743E+06    -25.0664E+06     29.2063E+03    -164.019E-03     327.592E-03    -163.574E-03     72.8416E-03    -164.717E-03     327.440E-03    -163.322E-03     68.4557E-03
            1464     4.58599E-03     68.9191E-03    -103.278E+06    -190.093E+06    -42.1112E+06    -33.0029E+03    -163.875E-03     327.453E-03    -163.578E-03     65.2589E-03    -164.451E-03     327.110E-03    -163.364E-03     61.4168E-03
            1465     3.82165E-03     68.8440E-03    -113.589E+06    -214.086E+06    -61.5938E+06    -166.026E+03    -163.727E-03     327.304E-03    -163.576E-03     56.3887E-03    -164.183E-03     326.775E-03    -163.409E-03     53.1351E-03
            1466     3.05709E-03     68.7812E-03    -124.200E+06    -239.685E+06    -83.6443E+06     33.1193E+03    -163.651E-03     327.212E-03    -163.562E-03     46.5160E-03    -163.994E-03     326.507E-03    -163.452E-03     43.8856E-03
            1467     2.29276E-03     68.7304E-03    -133.699E+06    -265.071E+06    -106.525E+06     167.582E+03    -163.587E-03     327.116E-03    -163.529E-03     35.8091E-03    -163.829E-03     326.251E-03    -163.483E-03     33.8215E-03
            1468     1.52855E-03     68.6932E-03    -141.437E+06    -287.024E+06    -127.449E+06     42.5781E+03    -163.501E-03     326.993E-03    -163.492E-03     24.4743E-03    -163.660E-03     326.000E-03    -163.508E-03     23.1331E-03
            1469     764.402E-06     68.6704E-03    -146.719E+06    -303.234E+06    -143.020E+06    -115.694E+03    -163.529E-03     326.941E-03    -163.412E-03     13.6234E-03    -163.632E-03     325.862E-03    -163.475E-03     12.8903E-03
            1470     14.5269E-03     68.8422E-03    -6.07022E+06     104.925E+06     107.023E+06    -280.966E+03    -162.266E-03     325.615E-03    -163.349E-03     35.2288E-03    -163.155E-03     326.545E-03    -162.957E-03     29.3045E-03
            1471     13.7642E-03     68.7827E-03    -11.4717E+06     102.043E+06     98.8084E+06     81.3982E+03    -162.447E-03     325.780E-03    -163.333E-03     57.5450E-03    -163.619E-03     326.987E-03    -162.971E-03     50.5977E-03
            1472     12.9994E-03     68.7110E-03    -17.7567E+06     94.8866E+06     85.9439E+06     368.432E+03    -162.636E-03     325.945E-03    -163.310E-03     67.6689E-03    -163.855E-03     327.190E-03    -162.992E-03     60.8931E-03
            1473     12.2338E-03     68.6242E-03    -23.9191E+06     82.0181E+06     76.2808E+06     411.345E+03    -162.975E-03     326.295E-03    -163.321E-03     78.0875E-03    -164.279E-03     327.585E-03    -163.023E-03     71.2828E-03
            1474     11.4686E-03     68.5271E-03    -29.9524E+06     51.3257E+06     66.8019E+06     160.590E+03    -163.380E-03     326.742E-03    -163.362E-03     84.4399E-03    -164.684E-03     327.928E-03    -163.059E-03     77.7567E-03
            1475     10.7037E-03     68.4231E-03    -36.7849E+06     14.1197E+06     58.1872E+06    -20.8010E+03    -163.704E-03     327.122E-03    -163.418E-03     88.2166E-03    -164.977E-03     328.145E-03    -163.094E-03     81.6782E-03
            1476     9.93910E-03     68.3157E-03    -43.6921E+06    -20.5951E+06     46.9670E+06    -125.413E+03    -163.944E-03     327.402E-03    -163.458E-03     90.2419E-03    -165.167E-03     328.261E-03    -163.130E-03     83.8723E-03
            1477     9.17395E-03     68.2059E-03    -50.8173E+06    -51.8728E+06     36.3166E+06    -7.82937E+03    -164.149E-03     327.645E-03    -163.495E-03     90.7010E-03    -165.312E-03     328.338E-03    -163.165E-03     84.5309E-03
            1478     8.40941E-03     68.0960E-03    -58.5351E+06    -77.0353E+06     25.9044E+06     100.402E+03    -164.276E-03     327.799E-03    -163.523E-03     89.7756E-03    -165.374E-03     328.340E-03    -163.197E-03     83.8422E-03
            1479     7.64460E-03     67.9877E-03    -66.4662E+06    -99.9585E+06     15.0259E+06     67.1576E+03    -164.326E-03     327.869E-03    -163.542E-03     87.6447E-03    -165.345E-03     328.253E-03    -163.226E-03     81.9966E-03
            1480     6.87992E-03     67.8829E-03    -74.9707E+06    -121.519E+06     3.22176E+06     92.2221E+03    -164.263E-03     327.819E-03    -163.556E-03     84.0825E-03    -165.188E-03     328.038E-03    -163.255E-03     78.7887E-03
            1481     6.11524E-03     67.7828E-03    -84.0672E+06    -144.016E+06    -10.0940E+06     85.8761E+03    -164.142E-03     327.712E-03    -163.570E-03     79.0864E-03    -164.959E-03     327.748E-03    -163.290E-03     74.2127E-03
            1482     5.35057E-03     67.6903E-03    -93.1610E+06    -166.593E+06    -24.8346E+06    -25.9811E+03    -164.042E-03     327.621E-03    -163.579E-03     72.7798E-03    -164.740E-03     327.469E-03    -163.327E-03     68.3907E-03
            1483     4.58617E-03     67.6052E-03    -103.297E+06    -190.070E+06      -41.97E+06    -147.255E+03    -163.895E-03     327.476E-03    -163.580E-03     65.1281E-03    -164.471E-03     327.131E-03    -163.365E-03     61.2842E-03
            1484     3.82155E-03     67.5309E-03    -114.083E+06    -214.352E+06    -61.7929E+06     87.3176E+03    -163.737E-03     327.311E-03    -163.574E-03     56.3044E-03    -164.195E-03     326.782E-03    -163.407E-03     53.0547E-03
            1485     3.05706E-03     67.4676E-03    -124.273E+06    -239.944E+06    -83.9399E+06     34.8182E+03    -163.670E-03     327.223E-03    -163.553E-03     46.5144E-03    -164.013E-03     326.517E-03    -163.445E-03     43.8867E-03
            1486     2.29289E-03     67.4165E-03    -133.514E+06    -265.100E+06    -106.678E+06    -243.992E+03    -163.570E-03     327.089E-03    -163.519E-03     35.7101E-03    -163.810E-03     326.223E-03    -163.474E-03     33.7176E-03
            1487     1.52841E-03     67.3802E-03    -141.236E+06    -287.120E+06    -127.381E+06    -131.361E+03    -163.503E-03     326.984E-03    -163.481E-03     24.6171E-03    -163.662E-03     325.991E-03    -163.497E-03     23.2743E-03
            1488     764.186E-06     67.3560E-03    -147.491E+06    -303.545E+06    -143.062E+06     171.831E+03    -163.490E-03     326.912E-03    -163.422E-03     13.5441E-03    -163.598E-03     325.833E-03    -163.483E-03     12.8016E-03
            1489     14.5302E-03     67.5290E-03    -5.80483E+06     104.425E+06     106.744E+06    -208.580E+03    -162.052E-03     325.394E-03    -163.342E-03     35.1915E-03    -162.935E-03     326.318E-03    -162.951E-03     29.2941E-03
            1490     13.7635E-03     67.4680E-03    -12.3867E+06     100.391E+06     96.9455E+06    -266.129E+03    -162.242E-03     325.575E-03    -163.333E-03     57.5368E-03    -163.409E-03     326.773E-03    -162.976E-03     50.6138E-03
            1491     12.9985E-03     67.3981E-03    -17.5586E+06     94.9421E+06     85.8682E+06     118.194E+03    -162.580E-03     325.903E-03    -163.323E-03     67.9514E-03    -163.797E-03     327.146E-03    -163.006E-03     61.1946E-03
            1492     12.2334E-03     67.3108E-03    -23.3869E+06     82.3502E+06     76.8405E+06     276.934E+03    -163.020E-03     326.358E-03    -163.337E-03     77.9203E-03    -164.323E-03     327.646E-03    -163.038E-03     71.1139E-03
            1493     11.4687E-03     67.2133E-03    -30.1295E+06     51.6037E+06     66.6962E+06     213.845E+03    -163.361E-03     326.736E-03    -163.375E-03     84.0310E-03    -164.664E-03     327.922E-03    -163.073E-03     77.3442E-03
            1494     10.7037E-03     67.1098E-03    -36.7902E+06     14.1763E+06     58.0976E+06     17.7975E+03    -163.693E-03     327.125E-03    -163.433E-03     88.0159E-03    -164.965E-03     328.149E-03    -163.109E-03     81.4728E-03
            1495     9.93850E-03     67.0020E-03    -43.9064E+06    -21.2611E+06     46.6144E+06    -28.3152E+03    -164.064E-03     327.533E-03    -163.469E-03     90.1492E-03    -165.287E-03     328.390E-03    -163.141E-03     83.7687E-03
            1496     9.17418E-03     66.8922E-03    -51.1512E+06    -52.0169E+06     36.2636E+06     210.203E+03    -164.251E-03     327.749E-03    -163.499E-03     90.6714E-03    -165.415E-03     328.443E-03    -163.168E-03     84.4969E-03
            1497     8.40924E-03     66.7825E-03    -58.5651E+06    -76.8415E+06     26.0392E+06     318.042E+03    -164.307E-03     327.828E-03    -163.520E-03     89.8296E-03    -165.405E-03     328.369E-03    -163.194E-03     83.9001E-03
            1498     7.64456E-03     66.6742E-03    -66.6444E+06    -99.9750E+06     14.9114E+06     132.520E+03    -164.324E-03     327.861E-03    -163.537E-03     87.6149E-03    -165.343E-03     328.245E-03    -163.221E-03     81.9698E-03
            1499     6.88001E-03     66.5692E-03    -74.9808E+06    -121.560E+06     3.24288E+06     19.8787E+03    -164.244E-03     327.796E-03    -163.552E-03     83.9776E-03    -165.169E-03     328.014E-03    -163.251E-03     78.6823E-03
            1500     6.11528E-03     66.4698E-03    -83.6707E+06    -143.974E+06    -9.84353E+06    -74.8866E+03    -164.156E-03     327.722E-03    -163.565E-03     78.9972E-03    -164.971E-03     327.757E-03    -163.284E-03     74.1215E-03
            1501     5.35074E-03     66.3764E-03    -93.5298E+06    -166.759E+06    -24.7934E+06    -40.8595E+03    -164.053E-03     327.625E-03    -163.572E-03     72.6833E-03    -164.752E-03     327.471E-03    -163.318E-03     68.2938E-03
            1502     4.58617E-03     66.2920E-03    -103.858E+06    -190.280E+06    -42.2021E+06     282.296E+03    -163.896E-03     327.464E-03    -163.569E-03     65.0412E-03    -164.473E-03     327.120E-03    -163.353E-03     61.2016E-03
            1503     3.82162E-03     66.2175E-03    -113.681E+06    -214.293E+06    -61.8248E+06     88.4319E+03    -163.768E-03     327.323E-03    -163.556E-03     56.2898E-03    -164.223E-03     326.793E-03    -163.389E-03     53.0416E-03
            1504     3.05736E-03     66.1538E-03    -123.659E+06    -239.727E+06    -83.5468E+06    -181.658E+03    -163.600E-03     327.139E-03    -163.539E-03     46.5010E-03    -163.941E-03     326.432E-03    -163.429E-03     43.8728E-03
            1505     2.29273E-03     66.1035E-03    -133.848E+06    -265.459E+06    -106.751E+06    -187.326E+03    -163.499E-03     327.022E-03    -163.523E-03     35.8170E-03    -163.740E-03     326.156E-03    -163.478E-03     33.8238E-03
            1506     1.52856E-03     66.0663E-03    -142.213E+06    -287.843E+06    -128.249E+06     25.1872E+03    -163.500E-03     327.001E-03    -163.502E-03     24.6671E-03    -163.661E-03     326.008E-03    -163.519E-03     23.3158E-03
            1507     764.242E-06     66.0432E-03    -146.865E+06    -303.285E+06    -143.497E+06     100.437E+03    -163.508E-03     326.969E-03    -163.461E-03     13.5265E-03    -163.612E-03     325.891E-03    -163.525E-03     12.7929E-03
            1508     14.5275E-03     66.2147E-03    -5.12923E+06     104.750E+06     107.153E+06     291.892E+03    -161.935E-03     325.290E-03    -163.355E-03     36.1657E-03    -162.820E-03     326.217E-03    -162.963E-03     30.2920E-03
            1509     13.7638E-03     66.1556E-03    -11.4799E+06     101.234E+06     97.8479E+06    -215.134E+03    -162.395E-03     325.742E-03    -163.347E-03     57.5060E-03    -163.561E-03     326.943E-03    -162.988E-03     50.5721E-03
            1510     12.9983E-03     66.0842E-03    -18.3013E+06     94.1271E+06     85.3311E+06    -599.551E+03    -162.753E-03     326.078E-03    -163.324E-03     67.2298E-03    -163.972E-03     327.318E-03    -163.008E-03     60.4320E-03
            1511     12.2338E-03     65.9968E-03    -24.5318E+06     81.1523E+06     75.8207E+06    -441.435E+03    -162.961E-03     326.293E-03    -163.332E-03     77.4481E-03    -164.265E-03     327.578E-03    -163.035E-03     70.6237E-03
            1512     11.4687E-03     65.9003E-03    -30.1355E+06     51.7122E+06     66.8436E+06     76.8775E+03    -163.271E-03     326.648E-03    -163.377E-03     84.0101E-03    -164.573E-03     327.833E-03    -163.074E-03     77.3271E-03
            1513     10.7035E-03     65.7963E-03    -36.7698E+06     14.1360E+06     58.1541E+06     178.327E+03    -163.724E-03     327.159E-03    -163.436E-03     88.0764E-03    -164.995E-03     328.182E-03    -163.112E-03     81.5375E-03
            1514     9.93903E-03     65.6883E-03    -43.7356E+06    -21.1916E+06     46.6799E+06     274.100E+03    -164.075E-03     327.546E-03    -163.471E-03     90.1002E-03    -165.297E-03     328.402E-03    -163.143E-03     83.7279E-03
            1515     9.17390E-03     65.5787E-03    -50.8480E+06    -52.5635E+06     36.1276E+06     272.271E+03    -164.281E-03     327.779E-03    -163.498E-03     90.5826E-03    -165.442E-03     328.468E-03    -163.168E-03     84.4095E-03
            1516     8.40937E-03     65.4689E-03    -58.3623E+06    -77.1727E+06     26.0854E+06     398.461E+03    -164.369E-03     327.885E-03    -163.516E-03     89.7284E-03    -165.465E-03     328.425E-03    -163.189E-03     83.7946E-03
            1517     7.64479E-03     65.3605E-03    -66.1920E+06    -99.3283E+06     15.3799E+06     330.141E+03    -164.310E-03     327.840E-03    -163.530E-03     87.5039E-03    -165.328E-03     328.226E-03    -163.213E-03     81.8611E-03
            1518     6.87994E-03     65.2560E-03    -74.7229E+06    -121.628E+06     3.35241E+06    -14.6441E+03    -164.238E-03     327.783E-03    -163.545E-03     83.9563E-03    -165.162E-03     328.000E-03    -163.243E-03     78.6604E-03
            1519     6.11541E-03     65.1560E-03    -84.0699E+06    -144.121E+06    -9.87905E+06     85.0182E+03    -164.175E-03     327.731E-03    -163.556E-03     79.0519E-03    -164.992E-03     327.767E-03    -163.275E-03     74.1769E-03
            1520     5.35082E-03     65.0631E-03    -93.8866E+06    -167.086E+06    -25.3063E+06     290.832E+03    -164.036E-03     327.596E-03    -163.559E-03     72.7186E-03    -164.736E-03     327.442E-03    -163.307E-03     68.3349E-03
            1521     4.58617E-03     64.9785E-03    -103.164E+06    -190.162E+06    -42.1173E+06    -113.585E+03    -163.909E-03     327.465E-03    -163.556E-03     65.0990E-03    -164.483E-03     327.120E-03    -163.341E-03     61.2551E-03
            1522     3.82184E-03     64.9038E-03    -113.376E+06    -214.246E+06    -61.2301E+06    -132.034E+03    -163.738E-03     327.285E-03    -163.547E-03     56.3487E-03    -164.193E-03     326.754E-03    -163.378E-03     53.0975E-03
            1523     3.05716E-03     64.8407E-03    -124.340E+06    -240.182E+06    -83.3243E+06     316.388E+03    -163.554E-03     327.091E-03    -163.537E-03     46.5145E-03    -163.898E-03     326.382E-03    -163.425E-03     43.8920E-03
            1524     2.29275E-03     64.7901E-03    -133.795E+06    -265.210E+06    -106.781E+06     394.144E+03    -163.500E-03     327.023E-03    -163.523E-03     35.8480E-03    -163.741E-03     326.158E-03    -163.479E-03     33.8681E-03
            1525     1.52832E-03     64.7526E-03    -141.713E+06    -287.942E+06    -128.329E+06    -171.680E+03    -163.512E-03     327.010E-03    -163.498E-03     24.5600E-03    -163.670E-03     326.015E-03    -163.517E-03     23.2107E-03
            1526     764.158E-06     64.7298E-03    -146.384E+06    -303.480E+06    -143.167E+06    -257.552E+03    -163.474E-03     326.960E-03    -163.486E-03     13.5383E-03    -163.575E-03     325.880E-03    -163.550E-03     12.8027E-03
            1527     14.5288E-03     64.9016E-03    -5.64226E+06     104.853E+06     107.434E+06     111.087E+03    -162.101E-03     325.461E-03    -163.360E-03     35.3214E-03    -162.987E-03     326.388E-03    -162.967E-03     29.4221E-03
            1528     13.7630E-03     64.8403E-03    -11.6757E+06     101.484E+06     98.3526E+06    -41.8622E+03    -162.460E-03     325.806E-03    -163.346E-03     57.1804E-03    -163.629E-03     327.008E-03    -162.985E-03     50.2271E-03
            1529     12.9996E-03     64.7704E-03     -17.945E+06     94.3607E+06     85.6664E+06     171.128E+03    -162.686E-03     326.007E-03    -163.322E-03     67.3592E-03    -163.905E-03     327.249E-03    -163.004E-03     60.5689E-03
            1530     12.2338E-03     64.6841E-03    -24.0811E+06     81.5237E+06     76.3486E+06    -279.896E+03    -162.837E-03     326.174E-03    -163.337E-03     77.9172E-03    -164.141E-03     327.461E-03    -163.039E-03     71.1072E-03
            1531     11.4684E-03     64.5869E-03    -30.9791E+06     50.4388E+06     66.1295E+06    -595.136E+03    -163.368E-03     326.749E-03    -163.381E-03     84.2771E-03    -164.673E-03     327.932E-03    -163.079E-03     77.5829E-03
            1532     10.7038E-03     64.4827E-03    -37.3213E+06     13.5556E+06     57.8391E+06     114.557E+03    -163.823E-03     327.258E-03    -163.435E-03     88.1331E-03    -165.097E-03     328.280E-03    -163.111E-03     81.5904E-03
            1533     9.93856E-03     64.3747E-03    -44.0600E+06    -21.0465E+06     46.6711E+06     406.746E+03    -164.115E-03     327.580E-03    -163.464E-03     90.0232E-03    -165.338E-03     328.436E-03    -163.137E-03     83.6525E-03
            1534     9.17414E-03     64.2649E-03    -51.4209E+06    -52.6870E+06     35.8462E+06     299.814E+03    -164.282E-03     327.771E-03    -163.488E-03     90.4189E-03    -165.445E-03     328.460E-03    -163.158E-03     84.2458E-03
            1535     8.40946E-03     64.1551E-03    -58.7886E+06    -77.3450E+06     25.7638E+06     116.807E+03    -164.300E-03     327.808E-03    -163.508E-03     89.6686E-03    -165.398E-03     328.347E-03    -163.181E-03     83.7334E-03
            1536     7.64469E-03     64.0472E-03    -66.5721E+06    -99.3977E+06     15.2774E+06     200.831E+03    -164.299E-03     327.824E-03    -163.526E-03     87.5565E-03    -165.319E-03     328.211E-03    -163.209E-03     81.9112E-03
            1537     6.88012E-03     63.9424E-03    -75.1648E+06    -121.434E+06     3.35223E+06     402.114E+03    -164.253E-03     327.792E-03    -163.539E-03     83.9761E-03    -165.179E-03     328.011E-03    -163.238E-03     78.6872E-03
            1538     6.11539E-03     63.8425E-03    -84.1237E+06    -144.391E+06    -10.2349E+06     251.041E+03    -164.136E-03     327.687E-03    -163.550E-03     79.0596E-03    -164.953E-03     327.722E-03    -163.270E-03     74.1885E-03
            1539     5.35073E-03     63.7497E-03    -92.8440E+06    -166.509E+06    -24.8514E+06    -237.184E+03    -164.042E-03     327.599E-03    -163.557E-03     72.7672E-03    -164.738E-03     327.446E-03    -163.305E-03     68.3751E-03
            1540     4.58633E-03     63.6649E-03    -103.397E+06    -190.479E+06    -41.8937E+06    -173.509E+03    -163.889E-03     327.446E-03    -163.557E-03     65.1472E-03    -164.465E-03     327.100E-03    -163.340E-03     61.3031E-03
            1541     3.82162E-03     63.5906E-03    -114.453E+06    -214.975E+06    -61.6953E+06     267.392E+03    -163.706E-03     327.256E-03    -163.550E-03     56.3305E-03    -164.165E-03     326.725E-03    -163.381E-03     53.0836E-03
            1542     3.05723E-03     63.5274E-03    -124.184E+06    -240.051E+06    -83.6242E+06     199.308E+03    -163.625E-03     327.157E-03    -163.532E-03     46.5125E-03    -163.968E-03     326.449E-03    -163.422E-03     43.8877E-03
            1543     2.29289E-03     63.4765E-03    -133.411E+06    -265.077E+06    -106.442E+06     50.4293E+03    -163.574E-03     327.069E-03    -163.495E-03     35.8256E-03    -163.814E-03     326.203E-03    -163.450E-03     33.8382E-03
            1544     1.52862E-03     63.4393E-03    -141.215E+06    -287.348E+06    -127.394E+06     127.829E+03    -163.521E-03     326.958E-03    -163.437E-03     24.4708E-03    -163.679E-03     325.964E-03    -163.452E-03     23.1257E-03
            1545     764.354E-06     63.4159E-03    -148.045E+06    -304.356E+06    -143.278E+06    -129.289E+03    -163.344E-03     326.788E-03    -163.444E-03     13.2185E-03    -163.452E-03     325.706E-03    -163.504E-03     12.4786E-03
            1546     14.5290E-03     63.5891E-03    -5.80637E+06     104.588E+06     107.489E+06         406.906    -162.160E-03     325.508E-03    -163.348E-03     35.6745E-03    -163.045E-03     326.432E-03    -162.954E-03     29.7917E-03
            1547     13.7644E-03     63.5264E-03    -11.8693E+06     101.051E+06     98.3708E+06     310.664E+03    -162.094E-03     325.437E-03    -163.343E-03     57.5655E-03    -163.259E-03     326.633E-03    -162.981E-03     50.6759E-03
            1548     12.9978E-03     63.4572E-03    -17.8019E+06     94.3123E+06     86.0462E+06    -64.0479E+03    -162.417E-03     325.756E-03    -163.338E-03     67.2766E-03    -163.634E-03     326.994E-03    -163.019E-03     60.5041E-03
            1549     12.2331E-03     63.3705E-03    -23.8177E+06     81.6627E+06     76.3775E+06     157.166E+03    -163.068E-03     326.421E-03    -163.353E-03     77.8322E-03    -164.372E-03     327.709E-03    -163.055E-03     71.0152E-03
            1550     11.4686E-03     63.2731E-03    -30.3062E+06     50.3429E+06     66.2743E+06     293.584E+03    -163.567E-03     326.951E-03    -163.384E-03     84.1477E-03    -164.869E-03     328.132E-03    -163.082E-03     77.4545E-03
            1551     10.7035E-03     63.1691E-03    -37.7103E+06     12.7461E+06     57.3829E+06     17.2093E+03    -163.910E-03     327.337E-03    -163.427E-03     88.0024E-03    -165.184E-03     328.356E-03    -163.104E-03     81.4511E-03
            1552     9.93920E-03     63.0609E-03    -44.7240E+06    -21.4552E+06     46.1598E+06     68.3056E+03    -164.123E-03     327.574E-03    -163.451E-03     89.9580E-03    -165.348E-03     328.431E-03    -163.125E-03     83.5784E-03
            1553     9.17436E-03     62.9512E-03    -51.3369E+06    -52.4396E+06     36.0088E+06     91.9649E+03    -164.198E-03     327.677E-03    -163.479E-03     90.4794E-03    -165.362E-03     328.368E-03    -163.148E-03     84.3071E-03
            1554     8.40946E-03     62.8419E-03    -58.8000E+06    -77.0572E+06     25.9298E+06     157.571E+03    -164.251E-03     327.755E-03    -163.503E-03     89.7010E-03    -165.349E-03     328.295E-03    -163.177E-03     83.7718E-03
            1555     7.64468E-03     62.7336E-03    -66.9397E+06    -99.8672E+06     14.9591E+06     82.8583E+03    -164.291E-03     327.814E-03    -163.523E-03     87.5378E-03    -165.311E-03     328.198E-03    -163.206E-03     81.8938E-03
            1556     6.88006E-03     62.6288E-03    -74.9064E+06    -121.548E+06     3.31639E+06     38.2931E+03    -164.245E-03     327.782E-03    -163.537E-03     83.9459E-03    -165.170E-03     328.000E-03    -163.236E-03     78.6510E-03
            1557     6.11543E-03     62.5294E-03    -83.4404E+06    -143.799E+06    -9.75270E+06    -159.030E+03    -164.157E-03     327.705E-03    -163.548E-03     79.0645E-03    -164.971E-03     327.740E-03    -163.267E-03     74.1889E-03
            1558     5.35084E-03     62.4360E-03    -93.6394E+06    -166.969E+06    -24.8217E+06     40.1672E+03    -164.015E-03     327.571E-03    -163.556E-03     72.7302E-03    -164.714E-03     327.417E-03    -163.302E-03     68.3437E-03
            1559     4.58614E-03     62.3517E-03    -103.717E+06    -190.739E+06    -42.0713E+06     446.287E+03    -163.848E-03     327.406E-03    -163.559E-03     65.0620E-03    -164.424E-03     327.060E-03    -163.342E-03     61.2244E-03
            1560     3.82172E-03     62.2771E-03    -113.733E+06    -214.828E+06    -61.8880E+06     32.8484E+03    -163.757E-03     327.306E-03    -163.548E-03     56.3327E-03    -164.212E-03     326.774E-03    -163.381E-03     53.0822E-03
            1561     3.05724E-03     62.2139E-03    -123.995E+06    -240.104E+06    -83.6929E+06    -282.689E+03    -163.693E-03     327.211E-03    -163.517E-03     46.5033E-03    -164.035E-03     326.503E-03    -163.408E-03     43.8686E-03
            1562     2.29289E-03     62.1630E-03    -133.512E+06    -265.394E+06    -106.099E+06    -45.0841E+03    -163.585E-03     327.050E-03    -163.465E-03     35.8196E-03    -163.826E-03     326.183E-03    -163.418E-03     33.8272E-03
            1563     1.52866E-03     62.1258E-03    -141.906E+06    -287.748E+06    -127.332E+06     336.694E+03    -163.445E-03     326.856E-03    -163.411E-03     24.5753E-03    -163.606E-03     325.861E-03    -163.424E-03     23.2353E-03
            1564     764.407E-06     62.1029E-03    -146.980E+06    -303.883E+06    -143.595E+06     545.641E+03    -163.486E-03     326.757E-03    -163.271E-03     13.2685E-03    -163.590E-03     325.677E-03    -163.335E-03     12.5448E-03
            1565     14.5282E-03     62.2733E-03    -5.66244E+06     104.430E+06     107.669E+06     143.271E+03    -162.142E-03     325.494E-03    -163.351E-03     35.5403E-03    -163.027E-03     326.417E-03    -162.956E-03     29.6478E-03
            1566     13.7632E-03     62.2142E-03    -11.4165E+06     101.387E+06     98.6921E+06    -44.0991E+03    -162.078E-03     325.424E-03    -163.346E-03     56.9832E-03    -163.243E-03     326.622E-03    -162.983E-03     50.0582E-03
            1567     12.9987E-03     62.1439E-03    -17.7317E+06     94.2636E+06     85.7324E+06     109.711E+03    -162.431E-03     325.770E-03    -163.339E-03     67.1521E-03    -163.648E-03     327.010E-03    -163.021E-03     60.3682E-03
            1568     12.2337E-03     62.0564E-03    -24.8675E+06     80.5529E+06     75.7234E+06     191.745E+03    -163.124E-03     326.476E-03    -163.352E-03     77.6878E-03    -164.430E-03     327.760E-03    -163.054E-03     70.8640E-03
            1569     11.4686E-03     61.9595E-03    -31.5725E+06     50.5563E+06     66.2072E+06     455.347E+03    -163.630E-03     327.011E-03    -163.380E-03     84.0846E-03    -164.939E-03     328.194E-03    -163.077E-03     77.3888E-03
            1570     10.7041E-03     61.8551E-03    -37.6175E+06     13.5670E+06     57.7497E+06     147.401E+03    -163.901E-03     327.321E-03    -163.420E-03     88.0561E-03    -165.176E-03     328.343E-03    -163.096E-03     81.5095E-03
            1571     9.93899E-03     61.7474E-03    -44.0419E+06    -21.6917E+06     46.4217E+06    -300.652E+03    -164.034E-03     327.482E-03    -163.448E-03     90.0774E-03    -165.256E-03     328.336E-03    -163.121E-03     83.7021E-03
            1572     9.17409E-03     61.6379E-03    -51.1759E+06    -52.9532E+06     35.9060E+06    -82.3765E+03    -164.195E-03     327.674E-03    -163.479E-03     90.5668E-03    -165.356E-03     328.361E-03    -163.148E-03     84.3966E-03
            1573     8.40945E-03     61.5282E-03    -58.5551E+06    -77.4115E+06     25.9245E+06     40.6105E+03    -164.319E-03     327.820E-03    -163.501E-03     89.6768E-03    -165.416E-03     328.359E-03    -163.174E-03     83.7407E-03
            1574     7.64489E-03     61.4201E-03    -66.0662E+06    -99.6068E+06     15.3635E+06     20.6230E+03    -164.264E-03     327.782E-03    -163.518E-03     87.4714E-03    -165.280E-03     328.166E-03    -163.201E-03     81.8256E-03
            1575     6.88003E-03     61.3155E-03    -74.6631E+06    -121.646E+06     3.41150E+06    -232.064E+03    -164.209E-03     327.745E-03    -163.536E-03     83.9707E-03    -165.133E-03     327.962E-03    -163.234E-03     78.6743E-03
            1576     6.11542E-03     61.2156E-03    -84.1800E+06    -144.136E+06    -9.83850E+06     126.323E+03    -164.180E-03     327.728E-03    -163.548E-03     79.0633E-03    -164.998E-03     327.763E-03    -163.266E-03     74.1892E-03
            1577     5.35085E-03     61.1228E-03    -93.6667E+06    -167.344E+06    -25.0242E+06     300.916E+03    -164.027E-03     327.578E-03    -163.551E-03     72.6725E-03    -164.725E-03     327.422E-03    -163.298E-03     68.2884E-03
            1578     4.58628E-03     61.0383E-03    -103.472E+06    -190.704E+06    -42.1529E+06     9.41895E+03    -163.871E-03     327.420E-03    -163.549E-03     65.0121E-03    -164.446E-03     327.073E-03    -163.334E-03     61.1703E-03
            1579     3.82165E-03     60.9637E-03    -113.539E+06    -214.466E+06    -61.4062E+06     8.47018E+03    -163.797E-03     327.330E-03    -163.533E-03     56.3074E-03    -164.252E-03     326.799E-03    -163.365E-03     53.0554E-03
            1580     3.05735E-03     60.9002E-03    -123.886E+06    -240.275E+06    -83.5515E+06     17.9084E+03    -163.696E-03     327.188E-03    -163.492E-03     46.4059E-03    -164.037E-03     326.478E-03    -163.381E-03     43.7737E-03
            1581     2.29307E-03     60.8497E-03    -133.936E+06    -265.887E+06    -106.699E+06     96.3546E+03    -163.497E-03     326.942E-03    -163.444E-03     35.7000E-03    -163.739E-03     326.073E-03    -163.398E-03     33.7159E-03
            1582     1.52857E-03     60.8126E-03    -141.904E+06    -288.035E+06    -127.775E+06     71.6470E+03    -163.338E-03     326.771E-03    -163.433E-03     24.4916E-03    -163.498E-03     325.775E-03    -163.448E-03     23.1525E-03
            1583     763.973E-06     60.7899E-03    -146.623E+06    -303.238E+06    -142.808E+06    -1.37191E+03    -163.646E-03     326.875E-03    -163.228E-03     13.5826E-03    -163.750E-03     325.796E-03    -163.290E-03     12.8479E-03
            1584     14.5294E-03     60.9603E-03    -5.78523E+06     104.296E+06     107.572E+06    -124.826E+03    -162.054E-03     325.405E-03    -163.352E-03     35.0805E-03    -162.939E-03     326.328E-03    -162.957E-03     29.1725E-03
            1585     13.7641E-03     60.9005E-03    -11.7400E+06     100.924E+06     98.2053E+06     385.095E+03    -162.073E-03     325.421E-03    -163.348E-03     57.0916E-03    -163.238E-03     326.618E-03    -162.986E-03     50.1741E-03
            1586     12.9985E-03     60.8305E-03    -18.2602E+06     93.6114E+06     85.1696E+06     700.260E+03    -162.601E-03     325.938E-03    -163.336E-03     67.7004E-03    -163.820E-03     327.177E-03    -163.020E-03     60.9386E-03
            1587     12.2332E-03     60.7430E-03    -24.2731E+06     81.0142E+06     75.9961E+06     658.986E+03    -163.141E-03     326.487E-03    -163.346E-03     78.0144E-03    -164.445E-03     327.773E-03    -163.049E-03     71.2066E-03
            1588     11.4687E-03     60.6453E-03    -30.0199E+06     50.7748E+06     66.6044E+06     6.45198E+03    -163.590E-03     326.965E-03    -163.375E-03     84.1344E-03    -164.891E-03     328.147E-03    -163.072E-03     77.4380E-03
            1589     10.7037E-03     60.5417E-03    -36.4267E+06     13.7563E+06     58.2610E+06    -166.922E+03    -163.849E-03     327.269E-03    -163.419E-03     87.9689E-03    -165.119E-03     328.289E-03    -163.095E-03     81.4191E-03
            1590     9.93895E-03     60.4339E-03    -43.6513E+06    -21.8175E+06      46.695E+06     158.837E+03    -164.058E-03     327.507E-03    -163.449E-03     89.8962E-03    -165.277E-03     328.358E-03    -163.120E-03     83.5246E-03
            1591     9.17426E-03     60.3244E-03    -51.1072E+06    -53.0306E+06     35.9164E+06    -32.3850E+03    -164.237E-03     327.712E-03    -163.475E-03     90.4091E-03    -165.397E-03     328.398E-03    -163.144E-03     84.2350E-03
            1592     8.40959E-03     60.2144E-03    -58.5139E+06    -77.5466E+06     25.8530E+06    -330.801E+03    -164.260E-03     327.756E-03    -163.497E-03     89.6230E-03    -165.355E-03     328.294E-03    -163.170E-03     83.6835E-03
            1593     7.64475E-03     60.1069E-03    -66.5051E+06    -100.075E+06     15.2033E+06    -202.734E+03    -164.262E-03     327.780E-03    -163.518E-03     87.5015E-03    -165.280E-03     328.163E-03    -163.200E-03     81.8515E-03
            1594     6.88011E-03     60.0020E-03    -75.1117E+06    -121.660E+06     3.44941E+06     359.460E+03    -164.257E-03     327.789E-03    -163.532E-03     83.9788E-03    -165.182E-03     328.006E-03    -163.230E-03     78.6907E-03
            1595     6.11542E-03     59.9022E-03    -83.8713E+06    -144.585E+06    -9.89727E+06     234.151E+03    -164.158E-03     327.699E-03    -163.541E-03     78.9581E-03    -164.973E-03     327.732E-03    -163.260E-03     74.0858E-03
            1596     5.35083E-03     59.8092E-03    -93.2556E+06    -167.111E+06    -24.8746E+06    -13.3179E+03    -164.036E-03     327.580E-03    -163.544E-03     72.6018E-03    -164.733E-03     327.424E-03    -163.291E-03     68.2128E-03
            1597     4.58630E-03     59.7249E-03    -103.387E+06    -190.726E+06    -41.9999E+06    -6.63120E+03    -163.948E-03     327.483E-03    -163.534E-03     65.0410E-03    -164.523E-03     327.135E-03    -163.318E-03     61.2018E-03
            1598     3.82195E-03     59.6502E-03    -113.741E+06    -214.950E+06    -61.4447E+06    -40.5626E+03    -163.783E-03     327.293E-03    -163.510E-03     56.3030E-03    -164.238E-03     326.759E-03    -163.340E-03     53.0535E-03
            1599     3.05747E-03     59.5867E-03    -124.054E+06    -240.264E+06    -83.6964E+06     133.837E+03    -163.570E-03     327.050E-03    -163.480E-03     46.4864E-03    -163.912E-03     326.342E-03    -163.370E-03     43.8610E-03
            1600     2.29299E-03     59.5365E-03    -133.404E+06    -265.746E+06    -106.705E+06     15.2980E+03    -163.455E-03     326.912E-03    -163.457E-03     35.7965E-03    -163.694E-03     326.043E-03    -163.412E-03     33.8083E-03
            1601     1.52856E-03     59.4996E-03    -141.285E+06    -287.772E+06    -127.458E+06    -226.520E+03    -163.420E-03     326.859E-03    -163.439E-03     24.5638E-03    -163.578E-03     325.863E-03    -163.454E-03     23.2158E-03
            1602     764.423E-06     59.4762E-03    -146.702E+06    -303.751E+06    -143.084E+06    -373.051E+03    -163.513E-03     326.850E-03    -163.337E-03     13.7015E-03    -163.616E-03     325.769E-03    -163.399E-03     12.9551E-03
            1603     14.5281E-03     59.6467E-03    -5.28697E+06     103.811E+06     106.835E+06     175.362E+03    -161.733E-03     325.101E-03    -163.368E-03     35.9014E-03    -162.617E-03     326.025E-03    -162.977E-03     30.0130E-03
            1604     13.7629E-03     59.5875E-03    -12.1412E+06     100.085E+06     97.5420E+06     151.336E+03    -162.398E-03     325.765E-03    -163.368E-03     57.6511E-03    -163.564E-03     326.961E-03    -163.008E-03     50.7338E-03
            1605     12.9982E-03     59.5166E-03    -17.7325E+06     93.6423E+06     86.0189E+06     387.215E+03    -162.938E-03     326.282E-03    -163.344E-03     67.5343E-03    -164.154E-03     327.517E-03    -163.024E-03     60.7576E-03
            1606     12.2338E-03     59.4291E-03    -23.5360E+06     81.6974E+06     76.7314E+06     86.7647E+03    -163.245E-03     326.583E-03    -163.338E-03     77.6518E-03    -164.547E-03     327.868E-03    -163.038E-03     70.8263E-03
            1607     11.4686E-03     59.3317E-03    -29.7557E+06     51.1315E+06     66.9895E+06    -48.8102E+03    -163.496E-03     326.860E-03    -163.364E-03     83.8120E-03    -164.795E-03     328.041E-03    -163.060E-03     77.1157E-03
            1608     10.7039E-03     59.2279E-03    -36.7422E+06     13.0853E+06     58.0003E+06     133.703E+03    -163.791E-03     327.202E-03    -163.411E-03     87.6607E-03    -165.059E-03     328.217E-03    -163.087E-03     81.1158E-03
            1609     9.93912E-03     59.1204E-03    -43.7056E+06    -22.1440E+06     46.5591E+06     77.5771E+03    -164.055E-03     327.495E-03    -163.441E-03     89.8620E-03    -165.273E-03     328.345E-03    -163.112E-03     83.4872E-03
            1610     9.17443E-03     59.0106E-03     -50.532E+06    -52.5989E+06     36.4648E+06     107.880E+03    -164.176E-03     327.647E-03    -163.471E-03     90.4884E-03    -165.335E-03     328.334E-03    -163.139E-03     84.3188E-03
            1611     8.40950E-03     58.9014E-03    -58.1988E+06    -77.3021E+06     26.2590E+06     167.366E+03    -164.237E-03     327.733E-03    -163.496E-03     89.6406E-03    -165.331E-03     328.270E-03    -163.169E-03     83.7126E-03
            1612     7.64472E-03     58.7932E-03    -66.5746E+06    -100.521E+06     15.1113E+06     144.620E+03    -164.319E-03     327.834E-03    -163.514E-03     87.4399E-03    -165.336E-03     328.213E-03    -163.196E-03     81.7964E-03
            1613     6.88016E-03     58.6885E-03    -74.9959E+06    -122.045E+06     3.36641E+06     101.963E+03    -164.290E-03     327.813E-03    -163.523E-03     83.8697E-03    -165.214E-03     328.028E-03    -163.220E-03     78.5761E-03
            1614     6.11562E-03     58.5887E-03    -83.8621E+06    -144.353E+06    -9.81997E+06     78.6334E+03    -164.146E-03     327.675E-03    -163.529E-03     78.9051E-03    -164.961E-03     327.708E-03    -163.247E-03     74.0329E-03
            1615     5.35092E-03     58.4960E-03    -93.3181E+06    -167.213E+06    -24.8241E+06     90.5306E+03    -164.034E-03     327.565E-03    -163.531E-03     72.5991E-03    -164.730E-03     327.408E-03    -163.278E-03     68.2173E-03
            1616     4.58638E-03     58.4113E-03    -103.008E+06    -190.743E+06    -41.7759E+06    -59.6204E+03    -163.921E-03     327.443E-03    -163.522E-03     65.0736E-03    -164.494E-03     327.094E-03    -163.305E-03     61.2352E-03
            1617     3.82194E-03     58.3367E-03    -113.678E+06    -215.116E+06    -61.4061E+06    -62.3929E+03    -163.700E-03     327.207E-03    -163.507E-03     56.3297E-03    -164.155E-03     326.673E-03    -163.337E-03     53.0794E-03
            1618     3.05730E-03     58.2739E-03    -124.270E+06    -240.546E+06    -83.7673E+06    -91.6312E+03    -163.489E-03     326.987E-03    -163.498E-03     46.5237E-03    -163.831E-03     326.278E-03    -163.388E-03     43.8993E-03
            1619     2.29271E-03     58.2230E-03    -133.510E+06    -265.674E+06    -106.559E+06    -89.3002E+03    -163.465E-03     326.957E-03    -163.492E-03     35.8542E-03    -163.704E-03     326.089E-03    -163.446E-03     33.8653E-03
            1620     1.52856E-03     58.1862E-03    -141.270E+06    -287.754E+06    -127.322E+06     15.0813E+03    -163.520E-03     326.978E-03    -163.458E-03     24.6169E-03    -163.679E-03     325.982E-03    -163.472E-03     23.2638E-03
            1621     764.187E-06     58.1628E-03    -146.994E+06    -304.087E+06    -142.971E+06     62.8850E+03    -163.459E-03     326.846E-03    -163.387E-03     13.6321E-03    -163.563E-03     325.763E-03    -163.448E-03     12.9024E-03
            1622     14.5275E-03     58.3336E-03    -5.23915E+06     103.892E+06     106.937E+06     316.148E+03    -161.970E-03     325.342E-03    -163.372E-03     34.9931E-03    -162.848E-03     326.261E-03    -162.981E-03     29.1001E-03
            1623     13.7630E-03     58.2726E-03    -11.0633E+06     100.560E+06     98.0324E+06     37.8631E+03    -162.480E-03     325.842E-03    -163.362E-03     56.6495E-03    -163.639E-03     327.034E-03    -163.002E-03     49.7082E-03
            1624     12.9989E-03     58.2023E-03    -17.3574E+06     93.3903E+06     85.7459E+06    -220.704E+03    -162.959E-03     326.290E-03    -163.332E-03     67.2223E-03    -164.173E-03     327.526E-03    -163.013E-03     60.4149E-03
            1625     12.2338E-03     58.1154E-03    -23.3814E+06     81.5073E+06     76.8647E+06     27.4884E+03    -163.247E-03     326.574E-03    -163.326E-03     77.7186E-03    -164.550E-03     327.860E-03    -163.026E-03     70.8842E-03
            1626     11.4692E-03     58.0182E-03    -30.0475E+06     50.7413E+06     66.9312E+06     330.806E+03    -163.479E-03     326.832E-03    -163.353E-03     83.9334E-03    -164.780E-03     328.012E-03    -163.048E-03     77.2436E-03
            1627     10.7041E-03     57.9146E-03    -36.7024E+06     13.3518E+06     58.2479E+06     323.000E+03    -163.725E-03     327.128E-03    -163.402E-03     87.8846E-03    -164.993E-03     328.144E-03    -163.077E-03     81.3538E-03
            1628     9.93918E-03     57.8067E-03    -43.6705E+06    -22.0338E+06     46.6846E+06     137.741E+03    -163.981E-03     327.419E-03    -163.437E-03     89.9715E-03    -165.199E-03     328.268E-03    -163.109E-03     83.6079E-03
            1629     9.17416E-03     57.6974E-03    -51.0763E+06    -53.0334E+06     36.1975E+06     147.732E+03    -164.181E-03     327.651E-03    -163.470E-03     90.4214E-03    -165.341E-03     328.336E-03    -163.138E-03     84.2546E-03
            1630     8.40949E-03     57.5877E-03    -58.5500E+06    -77.5316E+06     26.1281E+06     307.310E+03    -164.314E-03     327.804E-03    -163.491E-03     89.5179E-03    -165.409E-03     328.340E-03    -163.163E-03     83.5882E-03
            1631     7.64500E-03     57.4797E-03    -66.3132E+06    -100.293E+06     15.2948E+06     314.145E+03    -164.316E-03     327.820E-03    -163.504E-03     87.4096E-03    -165.332E-03     328.200E-03    -163.186E-03     81.7708E-03
            1632     6.88029E-03     57.3749E-03    -74.7295E+06    -122.086E+06     3.39346E+06     1.28232E+03    -164.242E-03     327.757E-03    -163.514E-03     83.9038E-03    -165.165E-03     327.970E-03    -163.212E-03     78.6113E-03
            1633     6.11554E-03     57.2754E-03    -83.6895E+06    -144.467E+06    -9.71508E+06    -53.9557E+03    -164.162E-03     327.684E-03    -163.522E-03     78.9439E-03    -164.976E-03     327.716E-03    -163.240E-03     74.0705E-03
            1634     5.35102E-03     57.1825E-03    -93.0325E+06    -167.125E+06    -24.4669E+06    -57.8659E+03    -164.031E-03     327.555E-03    -163.523E-03     72.6933E-03    -164.727E-03     327.397E-03    -163.269E-03     68.3104E-03
            1635     4.58650E-03     57.0979E-03    -103.546E+06    -191.020E+06    -41.8128E+06     52.7501E+03    -163.832E-03     327.353E-03    -163.522E-03     65.1003E-03    -164.407E-03     327.004E-03    -163.303E-03     61.2633E-03
            1636     3.82172E-03     57.0236E-03    -114.000E+06    -215.131E+06    -61.5713E+06     275.369E+03    -163.662E-03     327.179E-03    -163.516E-03     56.2406E-03    -164.119E-03     326.645E-03    -163.347E-03     52.9960E-03
            1637     3.05731E-03     56.9604E-03    -124.002E+06    -240.433E+06    -83.8309E+06     100.098E+03    -163.577E-03     327.077E-03    -163.500E-03     46.3745E-03    -163.918E-03     326.367E-03    -163.391E-03     43.7514E-03
            1638     2.29293E-03     56.9101E-03    -133.762E+06    -266.036E+06    -107.131E+06    -212.935E+03    -163.498E-03     326.971E-03    -163.474E-03     35.7276E-03    -163.737E-03     326.102E-03    -163.430E-03     33.7417E-03
            1639     1.52841E-03     56.8721E-03    -141.609E+06    -288.270E+06    -127.679E+06    -221.021E+03    -163.465E-03     326.906E-03    -163.441E-03     24.4534E-03    -163.623E-03     325.908E-03    -163.456E-03     23.1062E-03
            1640     764.390E-06     56.8499E-03    -146.594E+06    -303.767E+06    -142.789E+06     35.8360E+03    -163.373E-03     326.831E-03    -163.458E-03     13.4284E-03    -163.476E-03     325.749E-03    -163.519E-03     12.6907E-03
            1641     14.5299E-03     57.0202E-03    -6.33834E+06     103.402E+06     106.754E+06    -495.769E+03    -162.203E-03     325.555E-03    -163.352E-03     35.4892E-03    -163.090E-03     326.476E-03    -162.959E-03     29.5826E-03
            1642     13.7644E-03     56.9591E-03    -11.6331E+06     100.186E+06     98.2332E+06     175.375E+03    -162.356E-03     325.696E-03    -163.339E-03     57.4570E-03    -163.520E-03     326.888E-03    -162.977E-03     50.5441E-03
            1643     12.9984E-03     56.8888E-03    -17.5338E+06     93.4603E+06     85.8375E+06     272.747E+03    -162.737E-03     326.054E-03    -163.317E-03     67.2210E-03    -163.949E-03     327.287E-03    -162.998E-03     60.4465E-03
            1644     12.2339E-03     56.8012E-03    -23.8808E+06     81.0399E+06     76.2997E+06     111.136E+03    -163.057E-03     326.378E-03    -163.321E-03     77.5716E-03    -164.357E-03     327.660E-03    -163.023E-03     70.7571E-03
            1645     11.4687E-03     56.7047E-03    -30.1347E+06     50.2399E+06     66.5512E+06     344.255E+03    -163.431E-03     326.786E-03    -163.356E-03     84.0263E-03    -164.729E-03     327.963E-03    -163.052E-03     77.3478E-03
            1646     10.7040E-03     56.6010E-03    -36.8630E+06     13.2774E+06     58.1984E+06     505.457E+03    -163.800E-03     327.207E-03    -163.406E-03     87.9940E-03    -165.070E-03     328.223E-03    -163.081E-03     81.4640E-03
            1647     9.93903E-03     56.4934E-03    -43.8430E+06    -21.6704E+06     46.9183E+06     539.553E+03    -164.074E-03     327.510E-03    -163.436E-03     89.8726E-03    -165.294E-03     328.361E-03    -163.106E-03     83.5093E-03
            1648     9.17446E-03     56.3837E-03    -51.0325E+06    -53.0071E+06     36.2041E+06     282.115E+03    -164.228E-03     327.689E-03    -163.461E-03     90.3018E-03    -165.387E-03     328.374E-03    -163.129E-03     84.1349E-03
            1649     8.40981E-03     56.2741E-03    -58.5482E+06    -77.7400E+06     26.0091E+06     40.0271E+03    -164.270E-03     327.750E-03    -163.480E-03     89.5633E-03    -165.364E-03     328.285E-03    -163.153E-03     83.6340E-03
            1650     7.64492E-03     56.1663E-03    -66.3185E+06    -100.406E+06     15.2947E+06     10.2609E+03    -164.276E-03     327.773E-03    -163.498E-03     87.4713E-03    -165.291E-03     328.153E-03    -163.179E-03     81.8296E-03
            1651     6.88018E-03     56.0615E-03    -74.5312E+06    -121.839E+06     3.64290E+06     62.6782E+03    -164.226E-03     327.737E-03    -163.511E-03     83.8904E-03    -165.148E-03     327.951E-03    -163.208E-03     78.6005E-03
            1652     6.11563E-03     55.9619E-03    -83.5197E+06    -144.556E+06    -9.53098E+06    -50.2304E+03    -164.131E-03     327.653E-03    -163.521E-03     78.9538E-03    -164.944E-03     327.684E-03    -163.238E-03     74.0824E-03
            1653     5.35100E-03     55.8690E-03    -93.6596E+06    -167.594E+06    -24.6976E+06     204.783E+03    -163.989E-03     327.517E-03    -163.528E-03     72.7110E-03    -164.687E-03     327.359E-03    -163.272E-03     68.3300E-03
            1654     4.58627E-03     55.7848E-03    -103.652E+06    -190.971E+06    -42.0796E+06     399.689E+03    -163.839E-03     327.366E-03    -163.527E-03     65.0878E-03    -164.415E-03     327.018E-03    -163.310E-03     61.2546E-03
            1655     3.82190E-03     55.7101E-03    -113.633E+06    -215.085E+06    -61.7868E+06     100.485E+03    -163.725E-03     327.240E-03    -163.516E-03     56.2349E-03    -164.178E-03     326.706E-03    -163.348E-03     52.9897E-03
            1656     3.05735E-03     55.6472E-03    -123.807E+06    -240.424E+06    -83.5105E+06     41.0217E+03    -163.659E-03     327.143E-03    -163.484E-03     46.4231E-03    -163.999E-03     326.433E-03    -163.374E-03     43.7985E-03
            1657     2.29306E-03     55.5962E-03    -133.167E+06    -265.735E+06    -106.499E+06     31.6437E+03    -163.582E-03     327.005E-03    -163.424E-03     35.6929E-03    -163.819E-03     326.136E-03    -163.378E-03     33.7069E-03
            1658     1.52881E-03     55.5597E-03    -141.360E+06    -288.646E+06    -128.137E+06    -293.747E+03    -163.440E-03     326.788E-03    -163.348E-03     24.3646E-03    -163.595E-03     325.788E-03    -163.365E-03     23.0175E-03
            1659     764.184E-06     55.5357E-03    -147.412E+06    -304.759E+06    -143.227E+06    -262.097E+03    -163.253E-03     326.615E-03    -163.362E-03     13.0316E-03    -163.357E-03     325.530E-03    -163.423E-03     12.2892E-03
            1660     14.5274E-03     55.7062E-03    -5.87018E+06     103.013E+06     106.599E+06    -40.7514E+03    -162.068E-03     325.419E-03    -163.351E-03     35.8761E-03    -162.953E-03     326.340E-03    -162.959E-03     29.9770E-03
            1661     13.7630E-03     55.6453E-03    -12.9285E+06     98.7191E+06     96.8776E+06    -867.896E+03    -162.514E-03     325.850E-03    -163.336E-03     57.6496E-03    -163.682E-03     327.042E-03    -162.976E-03     50.7054E-03
            1662     12.9994E-03     55.5746E-03    -17.9545E+06     93.4241E+06     86.0138E+06    -283.785E+03    -162.730E-03     326.043E-03    -163.313E-03     67.2569E-03    -163.944E-03     327.276E-03    -162.993E-03     60.4767E-03
            1663     12.2339E-03     55.4885E-03    -23.6072E+06     81.1154E+06     76.9572E+06     592.424E+03    -162.985E-03     326.307E-03    -163.321E-03     77.5479E-03    -164.283E-03     327.586E-03    -163.020E-03     70.7530E-03
            1664     11.4688E-03     55.3910E-03    -30.6781E+06     50.0691E+06     66.6376E+06     369.547E+03    -163.440E-03     326.796E-03    -163.356E-03     83.7811E-03    -164.739E-03     327.970E-03    -163.051E-03     77.1045E-03
            1665     10.7038E-03     55.2874E-03    -37.2988E+06     12.8911E+06     58.1744E+06     399.772E+03    -163.830E-03     327.234E-03    -163.403E-03     87.6854E-03    -165.100E-03     328.248E-03    -163.077E-03     81.1495E-03
            1666     9.93933E-03     55.1796E-03    -43.9445E+06    -21.5744E+06     47.0222E+06     396.875E+03    -164.065E-03     327.496E-03    -163.430E-03     89.8549E-03    -165.286E-03     328.347E-03    -163.100E-03     83.4888E-03
            1667     9.17456E-03     55.0702E-03    -50.8625E+06    -52.5552E+06     36.4417E+06     193.337E+03    -164.181E-03     327.639E-03    -163.457E-03     90.4683E-03    -165.341E-03     328.325E-03    -163.125E-03     84.3057E-03
            1668     8.40957E-03     54.9609E-03    -58.1934E+06    -77.7131E+06     26.2061E+06     61.4804E+03    -164.257E-03     327.738E-03    -163.481E-03     89.7011E-03    -165.351E-03     328.273E-03    -163.152E-03     83.7739E-03
            1669     7.64495E-03     54.8526E-03    -66.1865E+06    -100.424E+06     15.3507E+06    -13.9002E+03    -164.286E-03     327.784E-03    -163.498E-03     87.4904E-03    -165.302E-03     328.164E-03    -163.180E-03     81.8469E-03
            1670     6.88039E-03     54.7482E-03    -74.8579E+06    -122.084E+06     3.57481E+06     35.2699E+03    -164.220E-03     327.732E-03    -163.512E-03     83.9118E-03    -165.143E-03     327.945E-03    -163.208E-03     78.6228E-03
            1671     6.11558E-03     54.6485E-03    -84.1426E+06    -144.909E+06    -9.88513E+06     344.068E+03    -164.112E-03     327.635E-03    -163.523E-03     78.9683E-03    -164.927E-03     327.666E-03    -163.240E-03     74.1025E-03
            1672     5.35086E-03     54.5559E-03    -93.3240E+06    -167.628E+06    -24.9914E+06     209.013E+03    -163.994E-03     327.522E-03    -163.529E-03     72.6122E-03    -164.689E-03     327.364E-03    -163.275E-03     68.2302E-03
            1673     4.58640E-03     54.4712E-03    -103.043E+06    -190.855E+06    -41.9754E+06    -80.6297E+03    -163.871E-03     327.397E-03    -163.526E-03     65.0107E-03    -164.444E-03     327.048E-03    -163.310E-03     61.1707E-03
            1674     3.82174E-03     54.3969E-03    -113.544E+06    -215.089E+06    -61.3830E+06     55.6339E+03    -163.772E-03     327.281E-03    -163.509E-03     56.2143E-03    -164.226E-03     326.746E-03    -163.339E-03     52.9657E-03
            1675     3.05743E-03     54.3336E-03    -123.932E+06    -240.586E+06    -83.4127E+06     64.9339E+03    -163.666E-03     327.134E-03    -163.468E-03     46.4075E-03    -164.007E-03     326.423E-03    -163.356E-03     43.7804E-03
            1676     2.29304E-03     54.2831E-03    -133.556E+06    -265.801E+06    -106.198E+06     167.652E+03    -163.549E-03     326.956E-03    -163.407E-03     35.7301E-03    -163.789E-03     326.086E-03    -163.359E-03     33.7435E-03
            1677     1.52883E-03     54.2460E-03    -141.733E+06    -288.426E+06    -127.666E+06     586.996E+03    -163.427E-03     326.759E-03    -163.332E-03     24.4878E-03    -163.585E-03     325.761E-03    -163.347E-03     23.1514E-03
            1678     764.696E-06     54.2237E-03    -147.267E+06    -305.267E+06    -144.062E+06     363.830E+03    -163.444E-03     326.575E-03    -163.131E-03     13.2050E-03    -163.546E-03     325.488E-03    -163.195E-03     12.4814E-03
            1679     14.5295E-03     54.3930E-03    -5.43813E+06     103.442E+06     107.089E+06     351.769E+03    -162.240E-03     325.583E-03    -163.343E-03     35.3947E-03    -163.118E-03     326.499E-03    -162.950E-03     29.5176E-03
            1680     13.7644E-03     54.3306E-03    -11.2362E+06     100.276E+06     98.0352E+06     16.0703E+03    -162.297E-03     325.626E-03    -163.329E-03     57.1222E-03    -163.455E-03     326.815E-03    -162.968E-03     50.2091E-03
            1681     12.9984E-03     54.2616E-03    -18.3295E+06     92.0855E+06     84.9216E+06    -855.084E+03    -162.628E-03     325.939E-03    -163.311E-03     67.0916E-03    -163.841E-03     327.168E-03    -162.993E-03     60.2992E-03
            1682     12.2337E-03     54.1744E-03    -24.4099E+06     79.5372E+06     75.8604E+06    -306.603E+03    -163.148E-03     326.465E-03    -163.317E-03     77.5738E-03    -164.448E-03     327.741E-03    -163.018E-03     70.7525E-03
            1683     11.4692E-03     54.0776E-03    -29.9143E+06     50.2701E+06     66.8797E+06     523.354E+03    -163.522E-03     326.868E-03    -163.346E-03     83.8106E-03    -164.819E-03     328.043E-03    -163.041E-03     77.1314E-03
            1684     10.7044E-03     53.9738E-03    -36.3487E+06     12.8950E+06     58.5155E+06     406.974E+03    -163.744E-03     327.138E-03    -163.394E-03     87.7961E-03    -165.009E-03     328.150E-03    -163.067E-03     81.2690E-03
            1685     9.93919E-03     53.8662E-03    -43.2136E+06    -21.4536E+06     47.2000E+06     222.481E+03    -163.940E-03     327.368E-03    -163.428E-03     89.8960E-03    -165.156E-03     328.218E-03    -163.098E-03     83.5382E-03
            1686     9.17418E-03     53.7568E-03    -50.3728E+06    -52.7741E+06     36.4884E+06     215.427E+03    -164.167E-03     327.628E-03    -163.461E-03     90.4373E-03    -165.323E-03     328.312E-03    -163.129E-03     84.2762E-03
            1687     8.40970E-03     53.6472E-03    -58.0916E+06    -77.7182E+06     26.2950E+06     327.174E+03    -164.299E-03     327.782E-03    -163.484E-03     89.5926E-03    -165.392E-03     328.317E-03    -163.155E-03     83.6654E-03
            1688     7.64496E-03     53.5393E-03    -66.3278E+06    -100.252E+06     15.3802E+06     286.871E+03    -164.261E-03     327.762E-03    -163.500E-03     87.4374E-03    -165.278E-03     328.142E-03    -163.182E-03     81.7996E-03
            1689     6.88009E-03     53.4347E-03    -74.8694E+06    -122.528E+06     3.36523E+06     289.996E+03    -164.206E-03     327.721E-03    -163.515E-03     83.8955E-03    -165.128E-03     327.932E-03    -163.212E-03     78.6089E-03
            1690     6.11555E-03     53.3352E-03    -83.6048E+06    -144.912E+06    -9.89231E+06     154.965E+03    -164.146E-03     327.672E-03    -163.525E-03     78.9560E-03    -164.959E-03     327.702E-03    -163.244E-03     74.0843E-03
            1691     5.35107E-03     53.2423E-03    -93.1007E+06    -167.331E+06    -24.8438E+06    -1.98041E+03    -164.036E-03     327.563E-03    -163.527E-03     72.6289E-03    -164.731E-03     327.406E-03    -163.273E-03     68.2412E-03
            1692     4.58636E-03     53.1581E-03    -103.332E+06    -191.109E+06    -42.0284E+06     140.368E+03    -163.904E-03     327.423E-03    -163.519E-03     65.0196E-03    -164.478E-03     327.073E-03    -163.302E-03     61.1801E-03
            1693     3.82198E-03     53.0833E-03    -113.683E+06    -215.464E+06    -61.4728E+06     128.666E+03    -163.762E-03     327.259E-03    -163.497E-03     56.2401E-03    -164.216E-03     326.723E-03    -163.327E-03     52.9935E-03
            1694     3.05752E-03     53.0203E-03    -123.941E+06    -240.395E+06    -83.3641E+06     233.289E+03    -163.583E-03     327.049E-03    -163.466E-03     46.4371E-03    -163.925E-03     326.339E-03    -163.354E-03     43.8143E-03
            1695     2.29310E-03     52.9698E-03    -133.868E+06    -266.062E+06    -106.723E+06     289.606E+03    -163.401E-03     326.846E-03    -163.445E-03     35.8467E-03    -163.642E-03     325.977E-03    -163.399E-03     33.8641E-03
            1696     1.52849E-03     52.9329E-03    -141.827E+06    -288.503E+06    -127.569E+06     236.782E+03    -163.324E-03     326.787E-03    -163.463E-03     24.6412E-03    -163.483E-03     325.788E-03    -163.477E-03     23.2975E-03
            1697     763.961E-06     52.9102E-03    -146.979E+06    -303.948E+06    -142.403E+06     415.731E+03    -163.629E-03     326.959E-03    -163.330E-03     13.6986E-03    -163.734E-03     325.876E-03    -163.388E-03     12.9797E-03
            1698     14.5287E-03     53.0784E-03    -6.06207E+06     103.248E+06     106.829E+06    -161.300E+03    -162.334E-03     325.669E-03    -163.335E-03     35.7162E-03    -163.218E-03     326.588E-03    -162.942E-03     29.8252E-03
            1699     13.7637E-03     53.0181E-03    -11.2348E+06     100.185E+06     98.5427E+06     72.4330E+03    -162.266E-03     325.587E-03    -163.321E-03     57.3092E-03    -163.427E-03     326.779E-03    -162.958E-03     50.3905E-03
            1700     12.9991E-03     52.9479E-03    -17.2030E+06     92.5279E+06     85.8389E+06     523.359E+03    -162.609E-03     325.912E-03    -163.304E-03     66.9261E-03    -163.816E-03     327.139E-03    -162.984E-03     60.1557E-03
            1701     12.2341E-03     52.8607E-03    -24.6707E+06     79.2679E+06     74.9209E+06    -149.670E+03    -163.007E-03     326.315E-03    -163.309E-03     77.4917E-03    -164.303E-03     327.588E-03    -163.013E-03     70.6884E-03
            1702     11.4690E-03     52.7639E-03    -31.1588E+06     49.5250E+06     65.5458E+06    -592.212E+03    -163.411E-03     326.756E-03    -163.346E-03     84.1104E-03    -164.711E-03     327.932E-03    -163.044E-03     77.4253E-03
            1703     10.7040E-03     52.6603E-03    -37.1201E+06     12.6369E+06     57.9105E+06    -159.795E+03    -163.780E-03     327.179E-03    -163.399E-03     88.0229E-03    -165.049E-03     328.193E-03    -163.074E-03     81.4892E-03
            1704     9.93922E-03     52.5530E-03    -43.7559E+06    -21.7296E+06     46.8327E+06     111.121E+03    -164.040E-03     327.470E-03    -163.430E-03     89.9276E-03    -165.258E-03     328.320E-03    -163.101E-03     83.5661E-03
            1705     9.17455E-03     52.4433E-03    -51.0429E+06    -53.0463E+06     36.1653E+06     390.192E+03    -164.212E-03     327.669E-03    -163.458E-03     90.3811E-03    -165.371E-03     328.354E-03    -163.126E-03     84.2190E-03
            1706     8.40964E-03     52.3336E-03    -58.5828E+06    -77.7699E+06     26.0151E+06     442.239E+03    -164.249E-03     327.728E-03    -163.479E-03     89.4932E-03    -165.343E-03     328.263E-03    -163.151E-03     83.5696E-03
            1707     7.64491E-03     52.2260E-03    -66.3280E+06    -100.274E+06     15.3193E+06     391.143E+03    -164.243E-03     327.741E-03    -163.498E-03     87.3426E-03    -165.259E-03     328.121E-03    -163.180E-03     81.7045E-03
            1708     6.88031E-03     52.1213E-03    -74.6790E+06    -122.429E+06     3.33714E+06     254.877E+03    -164.203E-03     327.716E-03    -163.514E-03     83.8236E-03    -165.124E-03     327.928E-03    -163.211E-03     78.5347E-03
            1709     6.11557E-03     52.0217E-03    -83.8598E+06    -144.764E+06    -9.95196E+06     153.348E+03    -164.126E-03     327.651E-03    -163.525E-03     78.9282E-03    -164.940E-03     327.683E-03    -163.244E-03     74.0565E-03
            1710     5.35082E-03     51.9290E-03    -93.5321E+06    -167.528E+06    -24.9755E+06     282.722E+03    -164.034E-03     327.563E-03    -163.529E-03     72.6478E-03    -164.731E-03     327.406E-03    -163.275E-03     68.2639E-03
            1711     4.58648E-03     51.8445E-03    -103.408E+06    -191.129E+06    -42.1252E+06     239.782E+03    -163.892E-03     327.414E-03    -163.521E-03     65.0945E-03    -164.467E-03     327.064E-03    -163.305E-03     61.2577E-03
            1712     3.82190E-03     51.7701E-03    -113.601E+06    -215.278E+06    -61.5148E+06     33.2180E+03    -163.687E-03     327.198E-03    -163.511E-03     56.3970E-03    -164.142E-03     326.663E-03    -163.341E-03     53.1506E-03
            1713     3.05735E-03     51.7070E-03    -124.323E+06    -240.889E+06    -83.6953E+06    -21.0008E+03    -163.507E-03     327.010E-03    -163.504E-03     46.5606E-03    -163.849E-03     326.299E-03    -163.392E-03     43.9358E-03
            1714     2.29273E-03     51.6567E-03    -133.927E+06    -266.168E+06    -106.748E+06     162.795E+03    -163.398E-03     326.907E-03    -163.509E-03     35.8217E-03    -163.639E-03     326.037E-03    -163.463E-03     33.8353E-03
            1715     1.52833E-03     51.6197E-03    -141.402E+06    -288.237E+06    -127.504E+06     87.3364E+03    -163.392E-03     326.932E-03    -163.540E-03     24.5017E-03    -163.550E-03     325.934E-03    -163.554E-03     23.1612E-03
            1716     764.006E-06     51.5966E-03    -146.284E+06    -303.492E+06    -142.998E+06    -106.305E+03    -163.647E-03     327.115E-03    -163.468E-03     13.5338E-03    -163.748E-03     326.035E-03    -163.531E-03     12.8021E-03
            1717     14.5289E-03     51.7646E-03    -5.30944E+06     103.886E+06     107.485E+06    -104.486E+03    -162.319E-03     325.660E-03    -163.340E-03     35.2772E-03    -163.201E-03     326.580E-03    -162.946E-03     29.3670E-03
            1718     13.7642E-03     51.7043E-03    -11.9516E+06     98.7398E+06     97.0315E+06    -2.82043E+03    -162.361E-03     325.679E-03    -163.319E-03     57.1306E-03    -163.521E-03     326.866E-03    -162.960E-03     50.2019E-03
            1719     12.9992E-03     51.6339E-03    -18.3840E+06     91.4309E+06     84.4454E+06     509.957E+03    -162.549E-03     325.850E-03    -163.302E-03     67.4609E-03    -163.760E-03     327.076E-03    -162.985E-03     60.7063E-03
            1720     12.2340E-03     51.5480E-03    -23.4438E+06     81.0853E+06     76.1588E+06     624.170E+03    -162.989E-03     326.304E-03    -163.316E-03     77.8654E-03    -164.284E-03     327.584E-03    -163.018E-03     71.0824E-03
            1721     11.4686E-03     51.4503E-03    -30.0005E+06     49.6449E+06     65.9802E+06    -158.279E+03    -163.454E-03     326.805E-03    -163.351E-03     83.8940E-03    -164.748E-03     327.977E-03    -163.050E-03     77.2164E-03
            1722     10.7039E-03     51.3468E-03    -37.5478E+06     11.8673E+06     57.4263E+06    -325.943E+03    -163.812E-03     327.213E-03    -163.401E-03     87.6049E-03    -165.078E-03     328.221E-03    -163.076E-03     81.0670E-03
            1723     9.93913E-03     51.2391E-03    -44.8040E+06    -22.5553E+06     46.0914E+06    -7.19682E+03    -164.096E-03     327.523E-03    -163.427E-03     89.7652E-03    -165.318E-03     328.372E-03    -163.099E-03     83.3929E-03
            1724     9.17444E-03     51.1297E-03    -51.6645E+06    -53.2374E+06     35.8244E+06     111.711E+03    -164.205E-03     327.657E-03    -163.451E-03     90.3304E-03    -165.367E-03     328.342E-03    -163.120E-03     84.1607E-03
            1725     8.40977E-03     51.0204E-03    -58.8466E+06    -77.5832E+06     25.8941E+06     153.889E+03    -164.210E-03     327.684E-03    -163.474E-03     89.4945E-03    -165.306E-03     328.221E-03    -163.147E-03     83.5684E-03
            1726     7.64499E-03     50.9125E-03    -66.7198E+06    -100.505E+06     14.9945E+06     136.701E+03    -164.222E-03     327.717E-03    -163.496E-03     87.3922E-03    -165.239E-03     328.097E-03    -163.178E-03     81.7514E-03
            1727     6.88023E-03     50.8079E-03    -75.1510E+06    -122.297E+06     3.18021E+06     232.198E+03    -164.197E-03     327.710E-03    -163.513E-03     83.9019E-03    -165.121E-03     327.924E-03    -163.211E-03     78.6133E-03
            1728     6.11555E-03     50.7085E-03    -83.9825E+06    -144.889E+06    -10.0641E+06     243.502E+03    -164.118E-03     327.644E-03    -163.526E-03     78.9704E-03    -164.933E-03     327.675E-03    -163.244E-03     74.1020E-03
            1729     5.35105E-03     50.6154E-03    -93.2921E+06    -167.589E+06    -24.8907E+06     89.0537E+03    -163.983E-03     327.517E-03    -163.534E-03     72.6740E-03    -164.679E-03     327.359E-03    -163.280E-03     68.2923E-03
            1730     4.58627E-03     50.5312E-03    -103.550E+06    -191.167E+06    -41.9008E+06     90.2332E+03    -163.818E-03     327.358E-03    -163.540E-03     65.0984E-03    -164.393E-03     327.008E-03    -163.322E-03     61.2620E-03
            1731     3.82169E-03     50.4568E-03    -114.134E+06    -215.247E+06    -61.5478E+06     381.005E+03    -163.640E-03     327.183E-03    -163.543E-03     56.2961E-03    -164.097E-03     326.649E-03    -163.373E-03     53.0530E-03
            1732     3.05709E-03     50.3938E-03    -124.134E+06    -240.774E+06    -84.0304E+06     220.144E+03    -163.518E-03     327.062E-03    -163.545E-03     46.4690E-03    -163.859E-03     326.352E-03    -163.436E-03     43.8435E-03
            1733     2.29279E-03     50.3432E-03    -133.779E+06    -266.382E+06    -107.082E+06    -275.625E+03    -163.519E-03     327.059E-03    -163.540E-03     35.7883E-03    -163.758E-03     326.188E-03    -163.495E-03     33.7931E-03
            1734     1.52847E-03     50.3063E-03    -141.793E+06    -288.196E+06    -127.479E+06    -15.6245E+03    -163.581E-03     327.082E-03    -163.501E-03     24.5659E-03    -163.740E-03     326.084E-03    -163.515E-03     23.2269E-03
            1735     764.445E-06     50.2826E-03    -146.893E+06    -303.779E+06    -142.984E+06     55.9856E+03    -163.605E-03     326.921E-03    -163.316E-03     13.5444E-03    -163.709E-03     325.840E-03    -163.378E-03     12.8112E-03
            1736     14.5287E-03     50.4501E-03    -5.81366E+06     103.009E+06     106.768E+06     129.782E+03    -162.114E-03     325.460E-03    -163.345E-03     35.4201E-03    -162.993E-03     326.374E-03    -162.953E-03     29.5448E-03
            1737     13.7638E-03     50.3907E-03    -11.8020E+06     98.7215E+06     97.0533E+06     746.708E+03    -162.272E-03     325.606E-03    -163.334E-03     57.2843E-03    -163.427E-03     326.788E-03    -162.975E-03     50.4009E-03
            1738     12.9984E-03     50.3214E-03    -17.5765E+06     92.1379E+06     85.1396E+06     21.7815E+03    -162.733E-03     326.050E-03    -163.317E-03     67.3365E-03    -163.941E-03     327.275E-03    -162.999E-03     60.5715E-03
            1739     12.2334E-03     50.2335E-03    -24.0409E+06     80.2776E+06     76.1853E+06    -342.339E+03    -163.253E-03     326.570E-03    -163.317E-03     77.4144E-03    -164.551E-03     327.847E-03    -163.018E-03     70.5862E-03
            1740     11.4693E-03     50.1368E-03    -30.5143E+06     49.9370E+06     66.4613E+06     705.076E+03    -163.541E-03     326.881E-03    -163.340E-03     83.4768E-03    -164.838E-03     328.054E-03    -163.036E-03     76.7982E-03
            1741     10.7043E-03     50.0333E-03    -37.2274E+06     12.3124E+06     57.6681E+06     504.219E+03    -163.752E-03     327.137E-03    -163.384E-03     87.5665E-03    -165.018E-03     328.146E-03    -163.060E-03     81.0403E-03
            1742     9.93942E-03     49.9256E-03    -44.1640E+06    -22.6546E+06     46.2708E+06     21.6919E+03    -163.980E-03     327.396E-03    -163.416E-03     89.7080E-03    -165.197E-03     328.242E-03    -163.088E-03     83.3425E-03
            1743     9.17457E-03     49.8163E-03    -51.3628E+06    -53.4570E+06     35.7566E+06     -76.355E+03    -164.116E-03     327.563E-03    -163.448E-03     90.2814E-03    -165.275E-03     328.247E-03    -163.117E-03     84.1155E-03
            1744     8.40971E-03     49.7070E-03    -58.7839E+06    -78.1110E+06     25.6990E+06    -136.400E+03    -164.195E-03     327.671E-03    -163.475E-03     89.5562E-03    -165.290E-03     328.205E-03    -163.148E-03     83.6269E-03
            1745     7.64493E-03     49.5992E-03    -66.6376E+06    -100.573E+06     15.0538E+06     74.5840E+03    -164.209E-03     327.708E-03    -163.499E-03     87.4350E-03    -165.225E-03     328.087E-03    -163.181E-03     81.7973E-03
            1746     6.88017E-03     49.4946E-03    -75.0005E+06    -122.543E+06     3.15258E+06     60.3622E+03    -164.173E-03     327.692E-03    -163.519E-03     83.9345E-03    -165.096E-03     327.904E-03    -163.217E-03     78.6462E-03
            1747     6.11557E-03     49.3949E-03    -83.9306E+06    -144.926E+06    -9.98496E+06     91.1109E+03    -164.098E-03     327.634E-03    -163.536E-03     79.0550E-03    -164.912E-03     327.665E-03    -163.254E-03     74.1861E-03
            1748     5.35078E-03     49.3023E-03    -93.8289E+06    -167.824E+06    -25.0400E+06     266.236E+03    -163.967E-03     327.516E-03    -163.549E-03     72.7384E-03    -164.665E-03     327.357E-03    -163.295E-03     68.3579E-03
            1749     4.58624E-03     49.2178E-03    -103.833E+06    -191.218E+06    -42.1857E+06     364.739E+03    -163.807E-03     327.365E-03    -163.558E-03     65.0677E-03    -164.384E-03     327.016E-03    -163.341E-03     61.2313E-03
            1750     3.82168E-03     49.1435E-03    -114.010E+06    -215.347E+06    -61.8914E+06     145.324E+03    -163.658E-03     327.220E-03    -163.563E-03     56.2418E-03    -164.113E-03     326.686E-03    -163.395E-03     52.9926E-03
            1751     3.05720E-03     49.0805E-03    -124.094E+06    -240.555E+06    -83.6211E+06     198.996E+03    -163.575E-03     327.137E-03    -163.563E-03     46.4802E-03    -163.917E-03     326.427E-03    -163.452E-03     43.8542E-03
            1752     2.29261E-03     49.0298E-03    -133.298E+06    -265.911E+06    -106.709E+06     218.044E+03    -163.573E-03     327.116E-03    -163.543E-03     35.8613E-03    -163.811E-03     326.247E-03    -163.498E-03     33.8770E-03
            1753     1.52851E-03     48.9924E-03    -141.559E+06    -288.575E+06    -128.289E+06    -395.967E+03    -163.551E-03     327.053E-03    -163.502E-03     24.7145E-03    -163.707E-03     326.055E-03    -163.520E-03     23.3605E-03
            1754     764.246E-06     48.9694E-03    -147.258E+06    -304.570E+06    -143.394E+06    -388.184E+03    -163.534E-03     326.951E-03    -163.417E-03     13.6381E-03    -163.638E-03     325.867E-03    -163.479E-03     12.8996E-03
            1755     14.5286E-03     49.1375E-03    -6.03742E+06     102.660E+06     106.630E+06     267.944E+03    -162.112E-03     325.468E-03    -163.356E-03     35.1964E-03    -162.993E-03     326.383E-03    -162.963E-03     29.3062E-03
            1756     13.7630E-03     49.0767E-03    -11.6836E+06     99.1416E+06     98.1617E+06     23.3153E+03    -162.461E-03     325.804E-03    -163.343E-03     56.7388E-03    -163.620E-03     326.989E-03    -162.979E-03     49.7997E-03
            1757     12.9990E-03     49.0071E-03    -17.6898E+06     92.3508E+06     85.8873E+06     329.664E+03    -163.003E-03     326.312E-03    -163.310E-03     66.7927E-03    -164.213E-03     327.539E-03    -162.988E-03     59.9964E-03
            1758     12.2347E-03     48.9196E-03    -24.6923E+06     79.4412E+06     75.7745E+06     440.990E+03    -163.152E-03     326.452E-03    -163.300E-03     77.2245E-03    -164.451E-03     327.726E-03    -163.001E-03     70.4099E-03
            1759     11.4691E-03     48.8234E-03    -31.2305E+06     49.2597E+06     66.1423E+06     114.566E+03    -163.381E-03     326.712E-03    -163.331E-03     83.7927E-03    -164.681E-03     327.884E-03    -163.026E-03     77.1151E-03
            1760     10.7043E-03     48.7197E-03    -37.3078E+06     12.7610E+06     57.9373E+06     115.510E+03    -163.752E-03     327.133E-03    -163.381E-03     87.9253E-03    -165.020E-03     328.147E-03    -163.056E-03     81.3954E-03
            1761     9.93942E-03     48.6123E-03    -43.9442E+06    -22.3059E+06     46.6266E+06     234.615E+03    -163.950E-03     327.365E-03    -163.415E-03     89.9020E-03    -165.167E-03     328.212E-03    -163.086E-03     83.5470E-03
            1762     9.17447E-03     48.5029E-03    -51.0864E+06    -53.3226E+06     35.9776E+06     114.969E+03    -164.080E-03     327.530E-03    -163.450E-03     90.3727E-03    -165.237E-03     328.213E-03    -163.119E-03     84.2158E-03
            1763     8.40963E-03     48.3937E-03    -58.7170E+06    -78.3818E+06     25.5262E+06    -75.0688E+03    -164.177E-03     327.657E-03    -163.480E-03     89.5704E-03    -165.270E-03     328.189E-03    -163.153E-03     83.6451E-03
            1764     7.64489E-03     48.2857E-03    -66.6481E+06    -101.071E+06     14.8807E+06    -38.2859E+03    -164.214E-03     327.719E-03    -163.505E-03     87.4436E-03    -165.229E-03     328.096E-03    -163.188E-03     81.8041E-03
            1765     6.88021E-03     48.1813E-03    -75.2633E+06    -122.631E+06     3.12117E+06     182.352E+03    -164.156E-03     327.683E-03    -163.527E-03     83.9310E-03    -165.080E-03     327.896E-03    -163.225E-03     78.6448E-03
            1766     6.11530E-03     48.0816E-03    -84.6393E+06    -145.353E+06    -10.3111E+06     351.015E+03    -164.053E-03     327.601E-03    -163.549E-03     79.0049E-03    -164.870E-03     327.632E-03    -163.267E-03     74.1391E-03
            1767     5.35078E-03     47.9888E-03    -93.7624E+06    -167.717E+06    -25.1469E+06     305.784E+03    -163.940E-03     327.507E-03    -163.567E-03     72.7114E-03    -164.638E-03     327.350E-03    -163.314E-03     68.3281E-03
            1768     4.58616E-03     47.9044E-03    -103.578E+06    -191.151E+06    -42.3642E+06    -60.9187E+03    -163.805E-03     327.386E-03    -163.581E-03     65.1515E-03    -164.380E-03     327.038E-03    -163.366E-03     61.3075E-03
            1769     3.82155E-03     47.8302E-03    -113.978E+06    -215.348E+06    -61.9390E+06    -76.9629E+03    -163.722E-03     327.308E-03    -163.586E-03     56.3961E-03    -164.178E-03     326.775E-03    -163.418E-03     53.1408E-03
            1770     3.05701E-03     47.7669E-03    -124.323E+06    -240.896E+06    -83.7185E+06     5.96889E+03    -163.685E-03     327.256E-03    -163.571E-03     46.5553E-03    -164.028E-03     326.545E-03    -163.460E-03     43.9228E-03
            1771     2.29290E-03     47.7163E-03    -133.749E+06    -265.772E+06    -106.416E+06     166.373E+03    -163.581E-03     327.118E-03    -163.537E-03     35.8417E-03    -163.822E-03     326.249E-03    -163.490E-03     33.8573E-03
            1772     1.52837E-03     47.6789E-03    -141.630E+06    -288.329E+06    -128.208E+06     214.600E+03    -163.471E-03     326.984E-03    -163.513E-03     24.5368E-03    -163.629E-03     325.987E-03    -163.530E-03     23.1949E-03
            1773     763.983E-06     47.6560E-03    -147.109E+06    -305.221E+06    -143.963E+06    -94.8397E+03    -163.551E-03     327.014E-03    -163.464E-03     13.4579E-03    -163.652E-03     325.928E-03    -163.527E-03     12.7156E-03
            1774     14.5284E-03     47.8226E-03    -5.61412E+06     102.562E+06     106.871E+06    -115.210E+03    -162.343E-03     325.692E-03    -163.349E-03     34.7073E-03    -163.220E-03     326.603E-03    -162.955E-03     28.7956E-03
            1775     13.7645E-03     47.7637E-03    -11.5503E+06     98.3990E+06     97.7324E+06     626.367E+03    -162.524E-03     325.850E-03    -163.326E-03     56.8600E-03    -163.679E-03     327.030E-03    -162.964E-03     49.9390E-03
            1776     12.9993E-03     47.6919E-03    -18.2009E+06     91.5145E+06     85.1427E+06     958.791E+03    -162.687E-03     325.987E-03    -163.300E-03     67.2619E-03    -163.897E-03     327.210E-03    -162.980E-03     60.5061E-03
            1777     12.2339E-03     47.6071E-03    -23.5222E+06     80.5664E+06     76.6933E+06     694.103E+03    -163.015E-03     326.323E-03    -163.308E-03     77.6856E-03    -164.310E-03     327.599E-03    -163.008E-03     70.8984E-03
            1778     11.4690E-03     47.5097E-03    -29.5510E+06     49.5223E+06     66.6594E+06     154.544E+03    -163.447E-03     326.789E-03    -163.342E-03     84.0186E-03    -164.739E-03     327.959E-03    -163.038E-03     77.3469E-03
            1779     10.7041E-03     47.4063E-03    -36.6083E+06     12.0962E+06     57.9290E+06     175.388E+03    -163.761E-03     327.152E-03    -163.391E-03     87.8386E-03    -165.025E-03     328.161E-03    -163.066E-03     81.3105E-03
            1780     9.93920E-03     47.2987E-03    -43.7674E+06    -22.1117E+06     46.7424E+06     410.233E+03    -163.973E-03     327.398E-03    -163.425E-03     89.8290E-03    -165.190E-03     328.245E-03    -163.096E-03     83.4736E-03
            1781     9.17446E-03     47.1897E-03    -51.0749E+06    -53.3153E+06     36.0406E+06     295.867E+03    -164.114E-03     327.572E-03    -163.458E-03     90.3725E-03    -165.272E-03     328.255E-03    -163.127E-03     84.2167E-03
            1782     8.40964E-03     47.0802E-03    -58.7224E+06    -78.1714E+06     25.6679E+06     278.110E+03    -164.173E-03     327.660E-03    -163.487E-03     89.5928E-03    -165.267E-03     328.194E-03    -163.160E-03     83.6728E-03
            1783     7.64482E-03     46.9725E-03    -66.9855E+06    -101.347E+06     14.6681E+06     168.855E+03    -164.183E-03     327.698E-03    -163.515E-03     87.4992E-03    -165.201E-03     328.076E-03    -163.197E-03     81.8613E-03
            1784     6.88001E-03     46.8677E-03    -75.3820E+06    -123.005E+06     3.08443E+06     203.933E+03    -164.163E-03     327.703E-03    -163.540E-03     83.9733E-03    -165.088E-03     327.915E-03    -163.237E-03     78.6837E-03
            1785     6.11551E-03     46.7685E-03    -83.9068E+06    -145.266E+06    -10.0113E+06     181.384E+03    -164.058E-03     327.620E-03    -163.562E-03     79.0471E-03    -164.873E-03     327.650E-03    -163.280E-03     74.1767E-03
            1786     5.35063E-03     46.6754E-03    -93.5139E+06    -167.646E+06    -25.0364E+06     1.81535E+03    -163.909E-03     327.494E-03    -163.585E-03     72.7496E-03    -164.607E-03     327.337E-03    -163.331E-03     68.3624E-03
            1787     4.58589E-03     46.5913E-03    -103.606E+06    -191.192E+06    -42.3322E+06     28.7081E+03    -163.831E-03     327.432E-03    -163.602E-03     65.0980E-03    -164.407E-03     327.085E-03    -163.386E-03     61.2507E-03
            1788     3.82136E-03     46.5165E-03    -113.809E+06    -215.618E+06    -61.7982E+06     99.0309E+03    -163.797E-03     327.398E-03    -163.601E-03     56.3232E-03    -164.252E-03     326.863E-03    -163.432E-03     53.0682E-03
            1789     3.05718E-03     46.4533E-03    -123.989E+06    -240.748E+06    -83.6743E+06    -9.09880E+03    -163.712E-03     327.287E-03    -163.575E-03     46.5049E-03    -164.053E-03     326.576E-03    -163.464E-03     43.8729E-03
            1790     2.29270E-03     46.4026E-03    -133.805E+06    -266.213E+06    -106.623E+06    -87.4259E+03    -163.601E-03     327.136E-03    -163.535E-03     35.8491E-03    -163.841E-03     326.265E-03    -163.488E-03     33.8569E-03
            1791     1.52857E-03     46.3657E-03    -141.984E+06    -288.481E+06    -127.518E+06     286.092E+03    -163.525E-03     327.016E-03    -163.491E-03     24.5628E-03    -163.685E-03     326.017E-03    -163.504E-03     23.2224E-03
            1792     764.450E-06     46.3421E-03    -147.210E+06    -304.791E+06    -143.277E+06     230.146E+03    -163.541E-03     326.922E-03    -163.380E-03     13.6081E-03    -163.645E-03     325.837E-03    -163.441E-03     12.8683E-03
            1793     14.5291E-03     46.5094E-03    -5.82633E+06     101.435E+06     106.163E+06    -88.4910E+03    -162.075E-03     325.420E-03    -163.345E-03     35.4994E-03    -162.951E-03     326.327E-03    -162.952E-03     29.6236E-03
            1794     13.7636E-03     46.4485E-03    -11.8997E+06     96.9117E+06     97.0782E+06     264.080E+03    -162.377E-03     325.713E-03    -163.335E-03     57.4088E-03    -163.531E-03     326.886E-03    -162.973E-03     50.5159E-03
            1795     12.9986E-03     46.3803E-03    -17.0306E+06     92.1776E+06     86.0196E+06     521.005E+03    -162.670E-03     325.987E-03    -163.317E-03     67.2384E-03    -163.875E-03     327.209E-03    -162.996E-03     60.4872E-03
            1796     12.2335E-03     46.2923E-03    -23.4644E+06     80.4587E+06     76.5517E+06     292.433E+03    -163.101E-03     326.423E-03    -163.322E-03     77.3006E-03    -164.393E-03     327.696E-03    -163.022E-03     70.5004E-03
            1797     11.4690E-03     46.1964E-03    -30.2194E+06     49.9496E+06     66.8142E+06     713.081E+03    -163.486E-03     326.839E-03    -163.353E-03     83.6825E-03    -164.781E-03     328.010E-03    -163.047E-03     77.0129E-03
            1798     10.7041E-03     46.0926E-03    -37.0188E+06     12.1529E+06     57.7728E+06     569.957E+03    -163.739E-03     327.139E-03    -163.400E-03     87.8035E-03    -165.004E-03     328.149E-03    -163.075E-03     81.2832E-03
            1799     9.93923E-03     45.9854E-03    -43.8505E+06    -22.5758E+06     46.5725E+06     249.320E+03    -163.975E-03     327.410E-03    -163.435E-03     89.8298E-03    -165.191E-03     328.256E-03    -163.106E-03     83.4713E-03
            1800     9.17430E-03     45.8761E-03    -50.8893E+06    -53.3502E+06     36.3272E+06     578.872E+03    -164.120E-03     327.590E-03    -163.470E-03     90.3786E-03    -165.278E-03     328.273E-03    -163.137E-03     84.2235E-03
            1801     8.40952E-03     45.7669E-03    -58.5429E+06    -78.1436E+06     26.0249E+06     598.719E+03    -164.167E-03     327.668E-03    -163.501E-03     89.6246E-03    -165.262E-03     328.202E-03    -163.172E-03     83.7042E-03
            1802     7.64470E-03     45.6591E-03    -66.3713E+06    -100.833E+06     15.1793E+06     342.667E+03    -164.169E-03     327.699E-03    -163.530E-03     87.5475E-03    -165.186E-03     328.079E-03    -163.212E-03     81.9092E-03
            1803     6.87998E-03     45.5544E-03    -74.6991E+06    -123.281E+06     3.26320E+06     47.8904E+03    -164.126E-03     327.686E-03    -163.560E-03     84.0633E-03    -165.049E-03     327.896E-03    -163.256E-03     78.7694E-03
            1804     6.11510E-03     45.4549E-03    -83.7661E+06    -145.219E+06    -9.89116E+06     87.8931E+03    -164.065E-03     327.651E-03    -163.587E-03     79.1443E-03    -164.880E-03     327.683E-03    -163.304E-03     74.2659E-03
            1805     5.35055E-03     45.3623E-03    -93.3308E+06    -167.605E+06    -24.9896E+06     162.217E+03    -164.008E-03     327.613E-03    -163.605E-03     72.8274E-03    -164.706E-03     327.457E-03    -163.351E-03     68.4361E-03
            1806     4.58604E-03     45.2775E-03    -103.242E+06    -191.300E+06    -42.0319E+06     81.5878E+03    -163.931E-03     327.541E-03    -163.611E-03     65.1552E-03    -164.505E-03     327.192E-03    -163.394E-03     61.3077E-03
            1807     3.82167E-03     45.2031E-03    -113.461E+06    -215.741E+06    -61.3735E+06     41.1174E+03    -163.797E-03     327.400E-03    -163.603E-03     56.3996E-03    -164.251E-03     326.863E-03    -163.433E-03     53.1444E-03
            1808     3.05704E-03     45.1396E-03    -124.044E+06    -240.950E+06    -83.4582E+06     81.7091E+03    -163.664E-03     327.248E-03    -163.585E-03     46.5662E-03    -164.006E-03     326.536E-03    -163.473E-03     43.9351E-03
            1809     2.29277E-03     45.0893E-03    -133.634E+06    -266.436E+06    -106.576E+06     133.878E+03    -163.585E-03     327.142E-03    -163.558E-03     35.8993E-03    -163.824E-03     326.271E-03    -163.511E-03     33.9098E-03
            1810     1.52844E-03     45.0517E-03    -141.399E+06    -288.882E+06    -127.240E+06        -16.1309    -163.546E-03     327.072E-03    -163.526E-03     24.7004E-03    -163.703E-03     326.071E-03    -163.538E-03     23.3560E-03
            1811     764.087E-06     45.0293E-03    -147.186E+06    -304.330E+06    -143.018E+06     218.363E+03    -163.564E-03     326.999E-03    -163.435E-03     13.6793E-03    -163.668E-03     325.916E-03    -163.496E-03     12.9414E-03
            1812     14.5280E-03     45.1953E-03    -5.28236E+06     101.696E+06     106.761E+06     373.702E+03    -162.021E-03     325.378E-03    -163.357E-03     35.4876E-03    -162.896E-03     326.286E-03    -162.963E-03     29.6156E-03
            1813     13.7632E-03     45.1356E-03    -11.7950E+06     96.9487E+06     96.9355E+06    -249.699E+03    -162.368E-03     325.714E-03    -163.347E-03     56.8191E-03    -163.520E-03     326.888E-03    -162.986E-03     49.8947E-03
            1814     12.9987E-03     45.0652E-03    -18.0554E+06     91.1939E+06     84.7875E+06    -148.231E+03    -162.792E-03     326.114E-03    -163.322E-03     66.8150E-03    -163.997E-03     327.334E-03    -163.004E-03     60.0376E-03
            1815     12.2344E-03     44.9794E-03    -24.0179E+06     80.0867E+06     76.1979E+06     721.866E+03    -163.085E-03     326.412E-03    -163.327E-03     77.4743E-03    -164.381E-03     327.685E-03    -163.027E-03     70.6831E-03
            1816     11.4688E-03     44.8825E-03    -30.4813E+06     49.6020E+06     66.7776E+06     615.468E+03    -163.454E-03     326.815E-03    -163.361E-03     83.8249E-03    -164.751E-03     327.986E-03    -163.055E-03     77.1555E-03
            1817     10.7039E-03     44.7794E-03    -36.7763E+06     12.4951E+06     58.3639E+06     528.241E+03    -163.745E-03     327.157E-03    -163.411E-03     87.6959E-03    -165.011E-03     328.166E-03    -163.084E-03     81.1719E-03
            1818     9.93895E-03     44.6718E-03    -43.6878E+06    -22.7728E+06     46.7961E+06     404.876E+03    -163.930E-03     327.378E-03    -163.447E-03     89.8328E-03    -165.147E-03     328.223E-03    -163.117E-03     83.4742E-03
            1819     9.17425E-03     44.5627E-03    -50.8711E+06    -53.8623E+06     36.3904E+06     438.883E+03    -164.093E-03     327.579E-03    -163.486E-03     90.3910E-03    -165.252E-03     328.261E-03    -163.152E-03     84.2284E-03
            1820     8.40935E-03     44.4535E-03    -58.0630E+06    -77.6420E+06     26.5217E+06     633.889E+03    -164.154E-03     327.674E-03    -163.520E-03     89.6673E-03    -165.249E-03     328.210E-03    -163.190E-03     83.7432E-03
            1821     7.64459E-03     44.3456E-03    -66.0308E+06    -100.562E+06     15.4095E+06     403.424E+03    -164.150E-03     327.702E-03    -163.552E-03     87.6252E-03    -165.167E-03     328.083E-03    -163.234E-03     81.9839E-03
            1822     6.87973E-03     44.2412E-03    -74.6534E+06    -123.067E+06     3.35505E+06     314.744E+03    -164.103E-03     327.690E-03    -163.587E-03     84.1389E-03    -165.027E-03     327.902E-03    -163.283E-03     78.8446E-03
            1823     6.11504E-03     44.1415E-03    -83.6756E+06    -145.486E+06    -9.93843E+06     183.542E+03    -164.085E-03     327.702E-03    -163.618E-03     79.2370E-03    -164.901E-03     327.734E-03    -163.335E-03     74.3561E-03
            1824     5.35036E-03     44.0485E-03    -92.9148E+06    -167.460E+06    -24.6125E+06     63.4495E+03    -164.071E-03     327.708E-03    -163.636E-03     72.9920E-03    -164.769E-03     327.552E-03    -163.382E-03     68.5946E-03
            1825     4.58591E-03     43.9640E-03    -103.097E+06    -191.518E+06    -41.6419E+06     50.3956E+03    -163.975E-03     327.616E-03    -163.640E-03     65.3912E-03    -164.551E-03     327.266E-03    -163.421E-03     61.5406E-03
            1826     3.82133E-03     43.8895E-03    -113.851E+06    -216.066E+06    -61.3764E+06     90.1407E+03    -163.825E-03     327.456E-03    -163.632E-03     56.5700E-03    -164.281E-03     326.920E-03    -163.460E-03     53.3106E-03
            1827     3.05703E-03     43.8262E-03    -123.759E+06    -240.750E+06    -83.2018E+06     242.500E+03    -163.693E-03     327.306E-03    -163.613E-03     46.6585E-03    -164.035E-03     326.595E-03    -163.501E-03     44.0257E-03
            1828     2.29262E-03     43.7755E-03    -133.256E+06    -266.390E+06    -106.251E+06     139.048E+03    -163.593E-03     327.185E-03    -163.591E-03     35.8887E-03    -163.832E-03     326.312E-03    -163.543E-03     33.8965E-03
            1829     1.52827E-03     43.7385E-03    -141.505E+06    -289.078E+06    -127.639E+06     30.3807E+03    -163.566E-03     327.133E-03    -163.566E-03     24.6431E-03    -163.723E-03     326.131E-03    -163.580E-03     23.2975E-03
            1830     764.227E-06     43.7149E-03    -146.991E+06    -304.359E+06    -142.667E+06     12.4988E+03    -163.628E-03     327.095E-03    -163.466E-03     13.3961E-03    -163.732E-03     326.010E-03    -163.525E-03     12.6594E-03
            1831     14.5290E-03     43.8821E-03    -5.84760E+06     101.139E+06     106.276E+06     70.8105E+03    -162.122E-03     325.476E-03    -163.354E-03     35.2143E-03    -162.997E-03     326.382E-03    -162.961E-03     29.3310E-03
            1832     13.7640E-03     43.8214E-03    -11.4673E+06     97.0773E+06     97.1279E+06     644.068E+03    -162.320E-03     325.664E-03    -163.344E-03     57.0758E-03    -163.469E-03     326.836E-03    -162.983E-03     50.1898E-03
            1833     12.9989E-03     43.7519E-03    -17.9933E+06     91.0059E+06     84.8039E+06     324.317E+03    -162.654E-03     325.980E-03    -163.326E-03     66.8629E-03    -163.857E-03     327.196E-03    -163.008E-03     60.1142E-03
            1834     12.2329E-03     43.6658E-03    -23.9481E+06     80.1964E+06     76.1339E+06     34.0334E+03    -163.087E-03     326.421E-03    -163.334E-03     77.3608E-03    -164.381E-03     327.694E-03    -163.035E-03     70.5628E-03
            1835     11.4687E-03     43.5686E-03    -29.4224E+06     49.3967E+06     67.0536E+06     95.8409E+03    -163.466E-03     326.834E-03    -163.368E-03     83.5680E-03    -164.757E-03     328.001E-03    -163.062E-03     76.8885E-03
            1836     10.7039E-03     43.4658E-03    -35.9887E+06     11.6035E+06     58.6833E+06     608.413E+03    -163.673E-03     327.096E-03    -163.423E-03     87.6154E-03    -164.935E-03     328.101E-03    -163.094E-03     81.0872E-03
            1837     9.93905E-03     43.3585E-03    -43.1159E+06    -22.0060E+06     47.4232E+06     1.10983E+06    -163.870E-03     327.334E-03    -163.464E-03     89.9219E-03    -165.087E-03     328.183E-03    -163.132E-03     83.5692E-03
            1838     9.17394E-03     43.2493E-03    -50.5405E+06    -53.7740E+06     36.4355E+06     565.602E+03    -164.032E-03     327.540E-03    -163.508E-03     90.5361E-03    -165.191E-03     328.223E-03    -163.175E-03     84.3756E-03
            1839     8.40920E-03     43.1401E-03    -58.1907E+06    -78.1720E+06     26.3202E+06     352.932E+03    -164.137E-03     327.686E-03    -163.548E-03     89.8165E-03    -165.233E-03     328.221E-03    -163.219E-03     83.8858E-03
            1840     7.64427E-03     43.0324E-03    -66.0774E+06    -100.253E+06     15.6427E+06     646.538E+03    -164.155E-03     327.741E-03    -163.586E-03     87.7207E-03    -165.175E-03     328.125E-03    -163.266E-03     82.0780E-03
            1841     6.87952E-03     42.9277E-03    -74.4153E+06    -122.915E+06     3.55806E+06     379.197E+03    -164.155E-03     327.776E-03    -163.621E-03     84.2259E-03    -165.079E-03     327.989E-03    -163.317E-03     78.9276E-03
            1842     6.11476E-03     42.8281E-03    -83.3265E+06    -145.327E+06    -9.53165E+06     161.729E+03    -164.135E-03     327.786E-03    -163.651E-03     79.3394E-03    -164.951E-03     327.817E-03    -163.367E-03     74.4563E-03
            1843     5.35017E-03     42.7349E-03    -93.1617E+06    -167.857E+06    -24.3691E+06     258.442E+03    -164.039E-03     327.713E-03    -163.674E-03     73.0188E-03    -164.738E-03     327.557E-03    -163.417E-03     68.6215E-03
            1844     4.58555E-03     42.6503E-03    -103.079E+06    -191.400E+06    -41.5718E+06     406.053E+03    -163.945E-03     327.633E-03    -163.688E-03     65.4164E-03    -164.522E-03     327.285E-03    -163.469E-03     61.5643E-03
            1845     3.82126E-03     42.5757E-03    -113.185E+06    -215.777E+06    -61.5066E+06         289.445    -163.876E-03     327.560E-03    -163.684E-03     56.6286E-03    -164.331E-03     327.025E-03    -163.514E-03     53.3615E-03
            1846     3.05685E-03     42.5125E-03    -123.664E+06    -241.315E+06    -83.2581E+06    -238.955E+03    -163.766E-03     327.432E-03    -163.666E-03     46.7492E-03    -164.107E-03     326.719E-03    -163.553E-03     44.1050E-03
            1847     2.29258E-03     42.4619E-03    -133.217E+06    -266.413E+06    -105.816E+06     273.216E+03    -163.685E-03     327.321E-03    -163.636E-03     35.9732E-03    -163.924E-03     326.449E-03    -163.586E-03     33.9785E-03
            1848     1.52845E-03     42.4247E-03    -141.080E+06    -288.611E+06    -127.418E+06     252.035E+03    -163.608E-03     327.207E-03    -163.599E-03     24.7240E-03    -163.764E-03     326.207E-03    -163.613E-03     23.3744E-03
            1849     764.161E-06     42.4014E-03    -146.738E+06    -304.751E+06    -143.083E+06    -196.292E+03    -163.662E-03     327.159E-03    -163.497E-03     13.5614E-03    -163.764E-03     326.073E-03    -163.558E-03     12.8262E-03
            1850     14.5283E-03     42.5694E-03    -5.36739E+06     100.810E+06     106.111E+06     465.946E+03    -162.172E-03     325.523E-03    -163.351E-03     35.4227E-03    -163.042E-03     326.424E-03    -162.959E-03     29.5645E-03
            1851     13.7632E-03     42.5070E-03    -11.8363E+06     96.6478E+06     97.1429E+06     105.692E+03    -162.363E-03     325.704E-03    -163.341E-03     56.7654E-03    -163.509E-03     326.869E-03    -162.978E-03     49.8869E-03
            1852     12.9983E-03     42.4391E-03    -17.3426E+06     91.4862E+06     85.8810E+06    -218.935E+03    -162.695E-03     326.016E-03    -163.321E-03     66.3256E-03    -163.895E-03     327.231E-03    -162.999E-03     59.5574E-03
            1853     12.2344E-03     42.3513E-03    -23.3531E+06     80.3416E+06     76.0577E+06    -372.522E+03    -162.965E-03     326.290E-03    -163.325E-03     76.9556E-03    -164.255E-03     327.562E-03    -163.027E-03     70.1496E-03
            1854     11.4690E-03     42.2557E-03    -30.0528E+06     48.2521E+06     66.2527E+06    -68.8291E+03    -163.193E-03     326.565E-03    -163.372E-03     83.6346E-03    -164.484E-03     327.728E-03    -163.067E-03     76.9638E-03
            1855     10.7036E-03     42.1523E-03    -36.6920E+06     10.6754E+06     58.1979E+06     631.092E+03    -163.578E-03     327.019E-03    -163.441E-03     87.8576E-03    -164.843E-03     328.023E-03    -163.113E-03     81.3321E-03
            1856     9.93857E-03     42.0452E-03    -43.2281E+06    -22.1138E+06     47.3134E+06     800.129E+03    -163.838E-03     327.327E-03    -163.489E-03     90.0016E-03    -165.057E-03     328.177E-03    -163.158E-03     83.6450E-03
            1857     9.17375E-03     41.9359E-03    -50.0304E+06    -53.1246E+06     36.9013E+06     1.00073E+06    -163.995E-03     327.535E-03    -163.540E-03     90.6423E-03    -165.154E-03     328.221E-03    -163.206E-03     84.4866E-03
            1858     8.40868E-03     41.8267E-03    -57.8107E+06    -78.1168E+06     26.5374E+06     718.461E+03    -164.112E-03     327.698E-03    -163.586E-03     89.8648E-03    -165.208E-03     328.235E-03    -163.256E-03     83.9369E-03
            1859     7.64401E-03     41.7188E-03    -65.8856E+06    -100.306E+06     15.8411E+06     376.723E+03    -164.192E-03     327.819E-03    -163.627E-03     87.8116E-03    -165.213E-03     328.204E-03    -163.307E-03     82.1584E-03
            1860     6.87921E-03     41.6143E-03    -74.2703E+06    -122.600E+06     3.89395E+06     408.923E+03    -164.231E-03     327.892E-03    -163.660E-03     84.3396E-03    -165.158E-03     328.108E-03    -163.356E-03     79.0326E-03
            1861     6.11465E-03     41.5143E-03    -83.4414E+06    -145.412E+06    -9.44933E+06     408.200E+03    -164.173E-03     327.862E-03    -163.689E-03     79.4261E-03    -164.992E-03     327.895E-03    -163.404E-03     74.5367E-03
            1862     5.35004E-03     41.4214E-03    -92.9887E+06    -168.035E+06    -24.4456E+06     355.857E+03    -164.064E-03     327.776E-03    -163.712E-03     73.1062E-03    -164.763E-03     327.620E-03    -163.456E-03     68.7027E-03
            1863     4.58549E-03     41.3366E-03    -102.821E+06    -191.276E+06    -41.5734E+06     182.296E+03    -163.955E-03     327.685E-03    -163.730E-03     65.4672E-03    -164.532E-03     327.338E-03    -163.511E-03     61.6081E-03
            1864     3.82086E-03     41.2618E-03    -113.033E+06    -215.325E+06    -61.1316E+06     378.506E+03    -163.852E-03     327.590E-03    -163.738E-03     56.6177E-03    -164.307E-03     327.056E-03    -163.568E-03     53.3541E-03
            1865     3.05659E-03     41.1986E-03    -123.644E+06    -241.561E+06    -83.5786E+06     295.559E+03    -163.785E-03     327.517E-03    -163.732E-03     46.7587E-03    -164.126E-03     326.804E-03    -163.620E-03     44.1174E-03
            1866     2.29236E-03     41.1480E-03    -133.389E+06    -266.869E+06    -106.530E+06    -178.359E+03    -163.740E-03     327.451E-03    -163.711E-03     36.1125E-03    -163.979E-03     326.578E-03    -163.663E-03     34.1093E-03
            1867     1.52818E-03     41.1108E-03    -141.247E+06    -288.483E+06    -126.955E+06     3.76706E+03    -163.681E-03     327.367E-03    -163.686E-03     24.7521E-03    -163.839E-03     326.367E-03    -163.697E-03     23.3965E-03
            1868     763.946E-06     41.0880E-03    -146.393E+06    -304.424E+06    -142.726E+06     362.748E+03    -163.827E-03     327.334E-03    -163.507E-03     13.6634E-03    -163.928E-03     326.249E-03    -163.567E-03     12.9303E-03
            1869     14.5288E-03     41.2532E-03    -5.78631E+06     100.935E+06     106.180E+06     288.967E+03    -162.590E-03     325.927E-03    -163.338E-03     34.4632E-03    -163.458E-03     326.825E-03    -162.945E-03     28.5807E-03
            1870     13.7645E-03     41.1951E-03    -11.3611E+06     97.5491E+06     97.9506E+06    -326.879E+03    -162.232E-03     325.550E-03    -163.318E-03     56.0808E-03    -163.377E-03     326.717E-03    -162.954E-03     49.1728E-03
            1871     12.9996E-03     41.1238E-03    -17.4800E+06     91.1385E+06     85.6686E+06    -372.529E+03    -162.324E-03     325.634E-03    -163.310E-03     66.8059E-03    -163.527E-03     326.850E-03    -162.988E-03     60.0513E-03
            1872     12.2338E-03     41.0391E-03    -23.6252E+06     80.0161E+06     75.5628E+06     18.5354E+03    -162.701E-03     326.034E-03    -163.333E-03     77.6080E-03    -163.992E-03     327.307E-03    -163.037E-03     70.8297E-03
            1873     11.4681E-03     40.9424E-03    -30.0221E+06     47.2251E+06     65.6013E+06     167.747E+03    -163.160E-03     326.552E-03    -163.392E-03     84.0480E-03    -164.450E-03     327.713E-03    -163.089E-03     77.3875E-03
            1874     10.7034E-03     40.8389E-03    -36.7003E+06     9.99549E+06     58.0247E+06     403.159E+03    -163.527E-03     326.996E-03    -163.469E-03     87.9284E-03    -164.791E-03     327.997E-03    -163.140E-03     81.4034E-03
            1875     9.93842E-03     40.7318E-03    -43.7087E+06    -22.5211E+06     47.0264E+06     551.818E+03    -163.816E-03     327.338E-03    -163.522E-03     90.0805E-03    -165.037E-03     328.188E-03    -163.191E-03     83.7179E-03
            1876     9.17332E-03     40.6226E-03    -50.9597E+06    -53.2862E+06     36.6104E+06     635.830E+03    -164.018E-03     327.593E-03    -163.576E-03     90.6991E-03    -165.183E-03     328.282E-03    -163.241E-03     84.5317E-03
            1877     8.40860E-03     40.5131E-03    -57.9949E+06    -77.2294E+06     26.7807E+06     775.241E+03    -164.100E-03     327.724E-03    -163.624E-03     89.9211E-03    -165.200E-03     328.266E-03    -163.294E-03     83.9890E-03
            1878     7.64355E-03     40.4054E-03    -65.8024E+06    -100.306E+06     15.7959E+06     511.065E+03    -164.202E-03     327.871E-03    -163.669E-03     87.9260E-03    -165.224E-03     328.258E-03    -163.349E-03     82.2671E-03
            1879     6.87897E-03     40.3003E-03    -74.4139E+06    -122.702E+06     3.80669E+06     473.447E+03    -164.246E-03     327.953E-03    -163.707E-03     84.4617E-03    -165.175E-03     328.171E-03    -163.402E-03     79.1464E-03
            1880     6.11428E-03     40.2008E-03    -83.2967E+06    -145.345E+06    -9.44526E+06     507.979E+03    -164.191E-03     327.930E-03    -163.739E-03     79.5681E-03    -165.011E-03     327.965E-03    -163.455E-03     74.6717E-03
            1881     5.34965E-03     40.1075E-03    -92.8133E+06    -167.732E+06    -24.4608E+06     323.083E+03    -164.129E-03     327.893E-03    -163.764E-03     73.2997E-03    -164.831E-03     327.740E-03    -163.508E-03     68.8873E-03
            1882     4.58524E-03     40.0228E-03    -103.025E+06    -191.258E+06    -41.7687E+06     221.835E+03    -164.032E-03     327.811E-03    -163.779E-03     65.5968E-03    -164.610E-03     327.466E-03    -163.561E-03     61.7297E-03
            1883     3.82093E-03     39.9481E-03    -113.509E+06    -215.932E+06    -61.3354E+06     342.252E+03    -163.884E-03     327.673E-03    -163.789E-03     56.6982E-03    -164.341E-03     327.138E-03    -163.618E-03     53.4293E-03
            1884     3.05642E-03     39.8847E-03    -123.266E+06    -240.982E+06    -82.8787E+06     497.845E+03    -163.798E-03     327.590E-03    -163.792E-03     46.7764E-03    -164.139E-03     326.878E-03    -163.678E-03     44.1350E-03
            1885     2.29215E-03     39.8339E-03    -132.733E+06    -266.441E+06    -105.998E+06     256.446E+03    -163.790E-03     327.568E-03    -163.778E-03     36.0039E-03    -164.027E-03     326.695E-03    -163.729E-03     34.0029E-03
            1886     1.52798E-03     39.7967E-03    -141.149E+06    -288.885E+06    -127.302E+06    -75.2052E+03    -163.821E-03     327.549E-03    -163.728E-03     24.5469E-03    -163.977E-03     326.548E-03    -163.741E-03     23.1875E-03
            1887     764.207E-06     39.7735E-03    -146.140E+06    -304.283E+06    -142.392E+06    -206.272E+03    -163.813E-03     327.373E-03    -163.561E-03     13.4850E-03    -163.913E-03     326.288E-03    -163.620E-03     12.7356E-03
            1888     14.5299E-03     39.9402E-03    -5.79002E+06     100.784E+06     106.092E+06    -478.243E+03    -162.301E-03     325.644E-03    -163.343E-03     35.2840E-03    -163.173E-03     326.545E-03    -162.950E-03     29.4054E-03
            1889     13.7643E-03     39.8808E-03    -11.0645E+06     97.6468E+06     98.2975E+06     214.679E+03    -162.089E-03     325.428E-03    -163.339E-03     57.3610E-03    -163.239E-03     326.600E-03    -162.973E-03     50.4849E-03
            1890     12.9983E-03     39.8124E-03    -17.3579E+06     91.0587E+06     85.8132E+06     413.002E+03    -162.217E-03     325.557E-03    -163.340E-03     67.6003E-03    -163.421E-03     326.775E-03    -163.018E-03     60.8787E-03
            1891     12.2328E-03     39.7254E-03    -24.0500E+06     79.3432E+06     75.1297E+06     136.382E+03    -162.780E-03     326.146E-03    -163.366E-03     77.6309E-03    -164.072E-03     327.416E-03    -163.070E-03     70.8572E-03
            1892     11.4685E-03     39.6288E-03    -30.4054E+06     46.9606E+06     65.2959E+06     446.483E+03    -163.265E-03     326.685E-03    -163.421E-03     83.8732E-03    -164.556E-03     327.846E-03    -163.118E-03     77.2075E-03
            1893     10.7030E-03     39.5259E-03    -37.1473E+06     9.57350E+06     57.5995E+06     479.012E+03    -163.519E-03     327.015E-03    -163.496E-03     87.9020E-03    -164.785E-03     328.016E-03    -163.168E-03     81.3744E-03
            1894     9.93777E-03     39.4183E-03    -43.9937E+06    -22.6652E+06     46.8256E+06     393.682E+03    -163.771E-03     327.324E-03    -163.553E-03     90.0920E-03    -164.995E-03     328.176E-03    -163.222E-03     83.7224E-03
            1895     9.17312E-03     39.3090E-03    -50.7571E+06    -53.2595E+06     36.5920E+06     362.954E+03    -163.979E-03     327.591E-03    -163.612E-03     90.7265E-03    -165.145E-03     328.281E-03    -163.279E-03     84.5496E-03
            1896     8.40801E-03     39.1998E-03    -58.2668E+06    -77.4839E+06     26.5891E+06     416.471E+03    -164.116E-03     327.782E-03    -163.666E-03     90.0696E-03    -165.219E-03     328.326E-03    -163.336E-03     84.1238E-03
            1897     7.64341E-03     39.0916E-03    -66.1531E+06    -100.106E+06     15.6854E+06     621.586E+03    -164.198E-03     327.912E-03    -163.715E-03     88.0980E-03    -165.224E-03     328.303E-03    -163.395E-03     82.4350E-03
            1898     6.87852E-03     38.9867E-03    -74.4341E+06    -122.786E+06     3.70996E+06     487.270E+03    -164.233E-03     327.992E-03    -163.759E-03     84.5898E-03    -165.164E-03     328.212E-03    -163.454E-03     79.2693E-03
            1899     6.11387E-03     38.8869E-03    -83.4031E+06    -145.169E+06    -9.45401E+06     373.018E+03    -164.245E-03     328.040E-03    -163.796E-03     79.6007E-03    -165.066E-03     328.078E-03    -163.511E-03     74.6948E-03
            1900     5.34940E-03     38.7936E-03    -92.9820E+06    -167.554E+06    -24.5010E+06     408.472E+03    -164.166E-03     327.988E-03    -163.822E-03     73.2973E-03    -164.869E-03     327.837E-03    -163.567E-03     68.8817E-03
            1901     4.58489E-03     38.7087E-03    -102.910E+06    -191.368E+06    -41.6377E+06     389.524E+03    -164.055E-03     327.898E-03    -163.843E-03     65.6630E-03    -164.633E-03     327.553E-03    -163.625E-03     61.7939E-03
            1902     3.82047E-03     38.6341E-03    -113.003E+06    -215.824E+06    -61.0625E+06     203.405E+03    -163.982E-03     327.835E-03    -163.854E-03     56.8374E-03    -164.438E-03     327.301E-03    -163.682E-03     53.5586E-03
            1903     3.05631E-03     38.5706E-03    -123.547E+06    -241.249E+06    -82.8716E+06     97.1412E+03    -163.927E-03     327.772E-03    -163.845E-03     46.9093E-03    -164.270E-03     327.060E-03    -163.731E-03     44.2568E-03
            1904     2.29213E-03     38.5197E-03    -132.967E+06    -266.180E+06    -105.615E+06     333.639E+03    -163.888E-03     327.699E-03    -163.812E-03     36.0439E-03    -164.127E-03     326.828E-03    -163.761E-03     34.0394E-03
            1905     1.52825E-03     38.4823E-03    -140.486E+06    -288.375E+06    -126.901E+06     131.719E+03    -163.809E-03     327.570E-03    -163.762E-03     24.6435E-03    -163.963E-03     326.570E-03    -163.774E-03     23.2829E-03
            1906     764.113E-06     38.4595E-03    -146.350E+06    -304.902E+06    -142.650E+06    -189.050E+03    -163.720E-03     327.464E-03    -163.744E-03     13.4240E-03    -163.820E-03     326.376E-03    -163.803E-03     12.6780E-03
            1907     14.5266E-03     38.6249E-03    -5.09727E+06     100.550E+06     106.080E+06    -218.045E+03    -161.625E-03     325.003E-03    -163.378E-03     34.9710E-03    -162.488E-03     325.897E-03    -162.986E-03     29.1318E-03
            1908     13.7623E-03     38.5682E-03    -11.8411E+06     96.1027E+06     96.6508E+06    -681.527E+03    -162.143E-03     325.531E-03    -163.388E-03     56.6059E-03    -163.289E-03     326.696E-03    -163.027E-03     49.7029E-03
            1909     12.9979E-03     38.4984E-03    -17.5834E+06     90.7593E+06     85.3888E+06     149.159E+03    -162.686E-03     326.065E-03    -163.379E-03     67.1040E-03    -163.891E-03     327.282E-03    -163.058E-03     60.3368E-03
            1910     12.2335E-03     38.4121E-03    -23.8735E+06     79.1898E+06     75.3255E+06     774.309E+03    -162.909E-03     326.299E-03    -163.390E-03     77.4226E-03    -164.200E-03     327.568E-03    -163.093E-03     70.6438E-03
            1911     11.4675E-03     38.3155E-03    -30.7045E+06     46.9774E+06     65.2496E+06     662.717E+03    -163.176E-03     326.620E-03    -163.444E-03     83.8563E-03    -164.471E-03     327.783E-03    -163.141E-03     77.1894E-03
            1912     10.7028E-03     38.2124E-03    -37.0065E+06     9.85339E+06     57.7242E+06     300.466E+03    -163.540E-03     327.062E-03    -163.522E-03     87.9116E-03    -164.808E-03     328.066E-03    -163.194E-03     81.3716E-03
            1913     9.93802E-03     38.1051E-03    -43.5529E+06    -22.8515E+06     46.9424E+06     249.955E+03    -163.735E-03     327.317E-03    -163.583E-03     90.1278E-03    -164.957E-03     328.168E-03    -163.252E-03     83.7565E-03
            1914     9.17254E-03     37.9957E-03    -50.7752E+06    -53.4698E+06     36.4155E+06     331.737E+03    -163.898E-03     327.547E-03    -163.649E-03     90.8275E-03    -165.064E-03     328.237E-03    -163.316E-03     84.6505E-03
            1915     8.40784E-03     37.8861E-03    -58.2069E+06    -77.9081E+06      26.404E+06     340.877E+03    -164.109E-03     327.820E-03    -163.711E-03     90.2026E-03    -165.213E-03     328.364E-03    -163.381E-03     84.2505E-03
            1916     7.64281E-03     37.7780E-03    -66.0883E+06    -100.212E+06     15.7517E+06     412.165E+03    -164.230E-03     327.994E-03    -163.764E-03     88.1442E-03    -165.258E-03     328.385E-03    -163.444E-03     82.4707E-03
            1917     6.87816E-03     37.6729E-03    -74.4707E+06    -122.497E+06     3.81718E+06     392.745E+03    -164.264E-03     328.074E-03    -163.810E-03     84.6284E-03    -165.196E-03     328.296E-03    -163.505E-03     79.3017E-03
            1918     6.11361E-03     37.5728E-03    -83.3343E+06    -145.231E+06    -9.47233E+06     289.065E+03    -164.276E-03     328.125E-03    -163.849E-03     79.6904E-03    -165.098E-03     328.163E-03    -163.565E-03     74.7795E-03
            1919     5.34912E-03     37.4796E-03    -92.8244E+06    -167.643E+06    -24.4082E+06     244.872E+03    -164.225E-03     328.103E-03    -163.878E-03     73.3218E-03    -164.928E-03     327.951E-03    -163.622E-03     68.8988E-03
            1920     4.58462E-03     37.3948E-03    -102.990E+06    -191.468E+06    -41.5226E+06     278.702E+03    -164.127E-03     328.024E-03    -163.897E-03     65.5910E-03    -164.706E-03     327.678E-03    -163.678E-03     61.7192E-03
            1921     3.82028E-03     37.3197E-03    -113.308E+06    -215.774E+06    -60.9600E+06     400.725E+03    -164.041E-03     327.945E-03    -163.904E-03     56.6710E-03    -164.498E-03     327.411E-03    -163.732E-03     53.3929E-03
            1922     3.05605E-03     37.2562E-03    -123.232E+06    -240.900E+06    -82.8618E+06     380.040E+03    -163.971E-03     327.864E-03    -163.892E-03     46.8718E-03    -164.312E-03     327.153E-03    -163.779E-03     44.2213E-03
            1923     2.29211E-03     37.2052E-03    -132.943E+06    -266.272E+06    -106.041E+06    -47.9313E+03    -163.871E-03     327.744E-03    -163.872E-03     36.1778E-03    -164.110E-03     326.873E-03    -163.823E-03     34.1675E-03
            1924     1.52785E-03     37.1682E-03    -141.356E+06    -288.491E+06    -127.140E+06     47.0211E+03    -163.775E-03     327.649E-03    -163.874E-03     24.7573E-03    -163.933E-03     326.650E-03    -163.886E-03     23.3971E-03
            1925     763.679E-06     37.1454E-03    -146.724E+06    -304.763E+06    -142.773E+06     332.342E+03    -163.970E-03     327.758E-03    -163.788E-03     13.4926E-03    -164.072E-03     326.672E-03    -163.847E-03     12.7537E-03
            1926     14.5297E-03     37.3140E-03    -5.55155E+06     100.605E+06     106.027E+06     175.640E+03    -161.736E-03     325.129E-03    -163.393E-03     34.7418E-03    -162.602E-03     326.026E-03    -163.001E-03     28.8935E-03
            1927     13.7628E-03     37.2538E-03    -11.8515E+06     96.4013E+06     96.6222E+06     324.265E+03    -162.168E-03     325.567E-03    -163.399E-03     56.2741E-03    -163.313E-03     326.732E-03    -163.038E-03     49.3821E-03
            1928     12.9980E-03     37.1843E-03    -19.1326E+06     89.6254E+06     83.9756E+06     8.32341E+03    -162.585E-03     325.975E-03    -163.390E-03     66.6025E-03    -163.791E-03     327.187E-03    -163.072E-03     59.8396E-03
            1929     12.2324E-03     37.0988E-03    -24.7876E+06      78.774E+06     74.8314E+06     265.428E+03    -162.832E-03     326.241E-03    -163.409E-03     77.3373E-03    -164.127E-03     327.510E-03    -163.113E-03     70.5506E-03
            1930     11.4680E-03     37.0023E-03    -29.8286E+06     47.3936E+06     65.6397E+06     155.343E+03    -163.171E-03     326.638E-03    -163.467E-03     83.8905E-03    -164.463E-03     327.802E-03    -163.164E-03     77.2179E-03
            1931     10.7025E-03     36.8989E-03    -36.1558E+06     9.52939E+06     57.9104E+06     305.221E+03    -163.440E-03     326.992E-03    -163.552E-03     87.9905E-03    -164.704E-03     327.994E-03    -163.224E-03     81.4549E-03
            1932     9.93713E-03     36.7917E-03    -43.3314E+06    -22.7080E+06     47.0328E+06     641.527E+03    -163.718E-03     327.337E-03    -163.619E-03     90.2646E-03    -164.942E-03     328.190E-03    -163.288E-03     83.8933E-03
            1933     9.17248E-03     36.6824E-03    -50.6796E+06    -53.5622E+06     36.3269E+06     366.703E+03    -163.969E-03     327.656E-03    -163.686E-03     90.9482E-03    -165.136E-03     328.347E-03    -163.354E-03     84.7652E-03
            1934     8.40720E-03     36.5725E-03    -58.1236E+06    -78.2151E+06     26.2810E+06     269.051E+03    -164.141E-03     327.889E-03    -163.747E-03     90.1935E-03    -165.244E-03     328.431E-03    -163.418E-03     84.2385E-03
            1935     7.64265E-03     36.4641E-03    -65.9305E+06    -100.284E+06     15.8435E+06     264.209E+03    -164.250E-03     328.052E-03    -163.802E-03     88.0565E-03    -165.276E-03     328.442E-03    -163.482E-03     82.3782E-03
            1936     6.87796E-03     36.3590E-03    -74.3904E+06    -122.534E+06     3.86235E+06     286.103E+03    -164.292E-03     328.141E-03    -163.849E-03     84.6026E-03    -165.224E-03     328.363E-03    -163.544E-03     79.2725E-03
            1937     6.11323E-03     36.2588E-03    -83.4207E+06    -145.348E+06    -9.49784E+06     333.901E+03    -164.307E-03     328.196E-03    -163.889E-03     79.6383E-03    -165.129E-03     328.233E-03    -163.605E-03     74.7280E-03
            1938     5.34871E-03     36.1653E-03    -92.8229E+06    -167.662E+06    -24.3482E+06     357.133E+03    -164.290E-03     328.205E-03    -163.916E-03     73.1644E-03    -164.991E-03     328.053E-03    -163.660E-03     68.7418E-03
            1939     4.58455E-03     36.0804E-03    -102.613E+06    -191.122E+06    -41.3978E+06     257.313E+03    -164.218E-03     328.145E-03    -163.927E-03     65.5271E-03    -164.795E-03     327.800E-03    -163.708E-03     61.6540E-03
            1940     3.82036E-03     36.0054E-03    -113.232E+06    -216.077E+06    -61.2272E+06     17.1594E+03    -164.081E-03     328.008E-03    -163.927E-03     56.6890E-03    -164.537E-03     327.472E-03    -163.756E-03     53.4108E-03
            1941     3.05613E-03     35.9420E-03    -123.657E+06    -241.109E+06    -82.9754E+06     139.158E+03    -163.906E-03     327.834E-03    -163.928E-03     46.8526E-03    -164.248E-03     327.121E-03    -163.814E-03     44.2053E-03
            1942     2.29170E-03     35.8908E-03    -132.897E+06    -265.879E+06    -105.685E+06     446.114E+03    -163.818E-03     327.758E-03    -163.940E-03     36.0861E-03    -164.057E-03     326.888E-03    -163.891E-03     34.0856E-03
            1943     1.52770E-03     35.8539E-03    -140.994E+06    -288.438E+06    -127.135E+06     288.087E+03    -163.898E-03     327.846E-03    -163.948E-03     24.6679E-03    -164.054E-03     326.847E-03    -163.961E-03     23.3142E-03
            1944     763.965E-06     35.8303E-03    -146.433E+06    -304.445E+06    -142.638E+06     193.605E+03    -164.103E-03     327.886E-03    -163.783E-03     13.5035E-03    -164.204E-03     326.800E-03    -163.842E-03     12.7672E-03
            1945     14.5261E-03     36.0000E-03    -6.33801E+06     99.6842E+06     104.996E+06     201.378E+03    -161.890E-03     325.277E-03    -163.387E-03     34.7246E-03    -162.757E-03     326.171E-03    -162.997E-03     28.8765E-03
            1946     13.7631E-03     35.9398E-03    -11.9350E+06     96.1714E+06     97.1760E+06     743.471E+03    -162.080E-03     325.477E-03    -163.397E-03     56.3811E-03    -163.222E-03     326.637E-03    -163.033E-03     49.5240E-03
            1947     12.9977E-03     35.8716E-03    -17.2163E+06     90.5455E+06     85.9578E+06     715.131E+03    -162.308E-03     325.710E-03    -163.402E-03     66.5936E-03    -163.505E-03     326.918E-03    -163.078E-03     59.8692E-03
            1948     12.2327E-03     35.7851E-03    -23.6286E+06     78.8143E+06     75.1877E+06    -213.881E+03    -162.751E-03     326.177E-03    -163.426E-03     77.2045E-03    -164.040E-03     327.444E-03    -163.130E-03     70.4117E-03
            1949     11.4671E-03     35.6888E-03    -30.4660E+06     46.8361E+06     65.1431E+06    -82.7756E+03    -163.067E-03     326.558E-03    -163.491E-03     83.8100E-03    -164.361E-03     327.721E-03    -163.189E-03     77.1344E-03
            1950     10.7021E-03     35.5859E-03    -37.3447E+06     9.09626E+06     57.2999E+06     277.501E+03    -163.391E-03     326.974E-03    -163.583E-03     88.0735E-03    -164.661E-03     327.977E-03    -163.255E-03     81.5356E-03
            1951     9.93705E-03     35.4783E-03    -43.9409E+06    -22.8272E+06     46.7353E+06     144.870E+03    -163.780E-03     327.432E-03    -163.652E-03     90.2220E-03    -165.006E-03     328.286E-03    -163.321E-03     83.8387E-03
            1952     9.17181E-03     35.3686E-03    -50.6091E+06    -53.5940E+06     36.5016E+06     294.372E+03    -164.088E-03     327.803E-03    -163.715E-03     90.8057E-03    -165.255E-03     328.494E-03    -163.381E-03     84.6145E-03
            1953     8.40743E-03     35.2589E-03    -58.0357E+06    -78.1710E+06     26.4131E+06     254.439E+03    -164.208E-03     327.977E-03    -163.769E-03     90.0963E-03    -165.310E-03     328.519E-03    -163.440E-03     84.1385E-03
            1954     7.64240E-03     35.1502E-03    -65.9484E+06    -100.319E+06     15.7668E+06     153.529E+03    -164.275E-03     328.095E-03    -163.820E-03     88.0139E-03    -165.300E-03     328.484E-03    -163.500E-03     82.3379E-03
            1955     6.87766E-03     35.0452E-03    -74.3379E+06    -122.779E+06     3.80164E+06     234.003E+03    -164.371E-03     328.234E-03    -163.864E-03     84.4363E-03    -165.301E-03     328.453E-03    -163.559E-03     79.1053E-03
            1956     6.11327E-03     34.9445E-03    -83.2543E+06    -145.406E+06    -9.48333E+06     365.985E+03    -164.359E-03     328.255E-03    -163.896E-03     79.4141E-03    -165.178E-03     328.290E-03    -163.612E-03     74.5065E-03
            1957     5.34895E-03     34.8511E-03    -92.4600E+06    -167.548E+06    -24.1889E+06     228.815E+03    -164.272E-03     328.193E-03    -163.922E-03     73.0532E-03    -164.970E-03     328.039E-03    -163.665E-03     68.6366E-03
            1958     4.58441E-03     34.7660E-03    -102.549E+06    -191.250E+06    -41.2940E+06     217.874E+03    -164.174E-03     328.114E-03    -163.940E-03     65.4506E-03    -164.749E-03     327.766E-03    -163.720E-03     61.5836E-03
            1959     3.82009E-03     34.6910E-03    -113.264E+06    -215.903E+06    -61.2225E+06     357.162E+03    -164.082E-03     328.026E-03    -163.944E-03     56.6501E-03    -164.537E-03     327.490E-03    -163.773E-03     53.3819E-03
            1960     3.05590E-03     34.6276E-03    -123.679E+06    -241.341E+06    -83.4138E+06     93.7825E+03    -164.007E-03     327.940E-03    -163.933E-03     46.6839E-03    -164.347E-03     327.227E-03    -163.821E-03     44.0391E-03
            1961     2.29186E-03     34.5767E-03    -133.065E+06    -266.212E+06    -105.854E+06     82.2024E+03    -163.895E-03     327.813E-03    -163.918E-03     35.8131E-03    -164.133E-03     326.941E-03    -163.868E-03     33.8164E-03
            1962     1.52776E-03     34.5389E-03    -140.568E+06    -287.868E+06    -126.504E+06     447.719E+03    -163.844E-03     327.759E-03    -163.915E-03     24.6111E-03    -163.999E-03     326.760E-03    -163.926E-03     23.2680E-03
            1963     763.889E-06     34.5157E-03    -145.682E+06    -303.908E+06    -142.067E+06     274.289E+03    -163.879E-03     327.829E-03    -163.950E-03     13.6187E-03    -163.978E-03     326.744E-03    -164.008E-03     12.8864E-03
            1964     14.5301E-03     34.6857E-03    -5.64484E+06     99.6984E+06     105.057E+06     559.870E+03    -161.871E-03     325.240E-03    -163.369E-03     34.2367E-03    -162.727E-03     326.125E-03    -162.980E-03     28.4232E-03
            1965     13.7629E-03     34.6274E-03    -11.4103E+06     95.9590E+06     97.0665E+06    -202.673E+03    -161.763E-03     325.150E-03    -163.387E-03     55.9992E-03    -162.898E-03     326.304E-03    -163.024E-03     49.1473E-03
            1966     12.9976E-03     34.5579E-03    -16.8131E+06     90.1208E+06     85.9228E+06    -70.2417E+03    -162.186E-03     325.591E-03    -163.404E-03     66.5168E-03    -163.382E-03     326.797E-03    -163.081E-03     59.7777E-03
            1967     12.2323E-03     34.4717E-03    -22.8067E+06     78.9953E+06     75.6250E+06     1.00216E+06    -162.540E-03     325.980E-03    -163.441E-03     77.1508E-03    -163.825E-03     327.246E-03    -163.144E-03     70.3857E-03
            1968     11.4673E-03     34.3761E-03    -29.9160E+06     46.8913E+06     65.4777E+06     825.057E+03    -163.012E-03     326.527E-03    -163.515E-03     83.8366E-03    -164.304E-03     327.689E-03    -163.212E-03     77.1742E-03
            1969     10.7017E-03     34.2723E-03    -36.6278E+06     9.45873E+06     57.7637E+06     81.0264E+03    -163.530E-03     327.136E-03    -163.605E-03     87.9534E-03    -164.797E-03     328.138E-03    -163.277E-03     81.4036E-03
            1970     9.93671E-03     34.1647E-03    -43.3798E+06    -23.3898E+06     46.9195E+06    -54.3152E+03    -163.871E-03     327.539E-03    -163.667E-03     90.0976E-03    -165.093E-03     328.387E-03    -163.336E-03     83.7109E-03
            1971     9.17216E-03     34.0549E-03    -50.6349E+06    -53.7812E+06     36.6045E+06     109.128E+03    -164.108E-03     327.834E-03    -163.727E-03     90.7636E-03    -165.273E-03     328.523E-03    -163.392E-03     84.5713E-03
            1972     8.40699E-03     33.9450E-03    -58.0332E+06    -77.8095E+06     26.5485E+06     128.446E+03    -164.280E-03     328.057E-03    -163.777E-03     89.9998E-03    -165.382E-03     328.599E-03    -163.447E-03     84.0396E-03
            1973     7.64244E-03     33.8366E-03    -65.8982E+06    -100.600E+06     15.5935E+06     161.900E+03    -164.409E-03     328.226E-03    -163.817E-03     87.9008E-03    -165.431E-03     328.611E-03    -163.497E-03     82.2268E-03
            1974     6.87799E-03     33.7307E-03    -74.2007E+06    -122.994E+06     3.65026E+06     212.925E+03    -164.434E-03     328.282E-03    -163.848E-03     84.3047E-03    -165.360E-03     328.497E-03    -163.544E-03     78.9809E-03
            1975     6.11348E-03     33.6306E-03    -82.9118E+06    -145.407E+06    -9.33573E+06     110.310E+03    -164.346E-03     328.223E-03    -163.877E-03     79.3182E-03    -165.161E-03     328.255E-03    -163.593E-03     74.4165E-03
            1976     5.34879E-03     33.5369E-03    -92.7648E+06    -167.770E+06    -24.1498E+06     309.245E+03    -164.250E-03     328.153E-03    -163.902E-03     73.0043E-03    -164.948E-03     327.996E-03    -163.645E-03     68.5974E-03
            1977     4.58457E-03     33.4518E-03    -103.279E+06    -191.522E+06    -41.7948E+06     528.319E+03    -164.184E-03     328.099E-03    -163.915E-03     65.2360E-03    -164.760E-03     327.749E-03    -163.696E-03     61.3813E-03
            1978     3.82020E-03     33.3769E-03    -113.155E+06    -215.772E+06    -61.3867E+06     341.853E+03    -164.127E-03     328.034E-03    -163.907E-03     56.3085E-03    -164.579E-03     327.496E-03    -163.737E-03     53.0466E-03
            1979     3.05610E-03     33.3128E-03    -122.708E+06    -240.632E+06    -82.7931E+06     219.148E+03    -164.065E-03     327.938E-03    -163.873E-03     46.3444E-03    -164.401E-03     327.224E-03    -163.760E-03     43.7067E-03
            1980     2.29222E-03     33.2622E-03    -132.719E+06    -266.335E+06    -106.077E+06     36.1838E+03    -163.936E-03     327.752E-03    -163.816E-03     35.6125E-03    -164.171E-03     326.878E-03    -163.768E-03     33.6215E-03
            1981     1.52812E-03     33.2249E-03    -140.960E+06    -288.420E+06    -127.041E+06    -81.6391E+03    -163.751E-03     327.529E-03    -163.778E-03     24.4804E-03    -163.906E-03     326.528E-03    -163.791E-03     23.1363E-03
            1982     763.707E-06     33.2011E-03    -145.634E+06    -303.349E+06    -141.448E+06     134.871E+03    -163.717E-03     327.535E-03    -163.818E-03     13.4488E-03    -163.817E-03     326.452E-03    -163.874E-03     12.7152E-03
            1983     14.5276E-03     33.3738E-03    -5.34870E+06     99.9608E+06     105.913E+06     26.7318E+03    -162.012E-03     325.381E-03    -163.369E-03     34.3763E-03    -162.871E-03     326.269E-03    -162.977E-03     28.5376E-03
            1984     13.7632E-03     33.3144E-03    -11.0723E+06     96.5929E+06     96.6496E+06     441.552E+03    -161.768E-03     325.145E-03    -163.377E-03     56.2593E-03    -162.905E-03     326.305E-03    -163.017E-03     49.4067E-03
            1985     12.9980E-03     33.2447E-03    -18.2949E+06     89.1053E+06     83.8050E+06     428.746E+03    -161.887E-03     325.286E-03    -163.399E-03     66.6286E-03    -163.087E-03     326.494E-03    -163.083E-03     59.9064E-03
            1986     12.2323E-03     33.1595E-03    -24.2401E+06     78.3222E+06     74.9880E+06     97.6670E+03    -162.439E-03     325.894E-03    -163.455E-03     77.4056E-03    -163.730E-03     327.159E-03    -163.158E-03     70.6418E-03
            1987     11.4664E-03     33.0622E-03    -29.2416E+06     47.0436E+06     65.9167E+06     380.301E+03    -163.197E-03     326.726E-03    -163.529E-03     83.8588E-03    -164.485E-03     327.886E-03    -163.225E-03     77.1870E-03
            1988     10.7020E-03     32.9589E-03    -35.4589E+06     9.83160E+06     58.5401E+06     698.755E+03    -163.643E-03     327.253E-03    -163.610E-03     87.7764E-03    -164.903E-03     328.253E-03    -163.280E-03     81.2334E-03
            1989     9.93699E-03     32.8510E-03    -42.7283E+06    -23.2632E+06     47.1838E+06     522.776E+03    -163.912E-03     327.576E-03    -163.665E-03     90.0007E-03    -165.129E-03     328.422E-03    -163.333E-03     83.6228E-03
            1990     9.17176E-03     32.7412E-03    -49.9764E+06    -53.7352E+06     36.7420E+06     287.559E+03    -164.170E-03     327.889E-03    -163.719E-03     90.6195E-03    -165.330E-03     328.574E-03    -163.385E-03     84.4330E-03
            1991     8.40729E-03     32.6311E-03    -57.6022E+06    -77.7618E+06     26.6080E+06     293.161E+03    -164.402E-03     328.161E-03    -163.759E-03     89.7844E-03    -165.499E-03     328.700E-03    -163.430E-03     83.8289E-03
            1992     7.64271E-03     32.5223E-03    -65.7379E+06    -100.838E+06     15.5171E+06     256.238E+03    -164.495E-03     328.282E-03    -163.787E-03     87.6549E-03    -165.513E-03     328.663E-03    -163.468E-03     81.9867E-03
            1993     6.87812E-03     32.4168E-03    -74.1815E+06    -123.039E+06     3.71722E+06     225.276E+03    -164.421E-03     328.232E-03    -163.811E-03     84.1110E-03    -165.344E-03     328.444E-03    -163.506E-03     78.7984E-03
            1994     6.11352E-03     32.3165E-03    -83.4472E+06    -145.656E+06    -9.50544E+06     357.741E+03    -164.374E-03     328.207E-03    -163.832E-03     79.0939E-03    -165.188E-03     328.235E-03    -163.548E-03     74.2046E-03
            1995     5.34929E-03     32.2228E-03    -93.3034E+06    -168.133E+06    -24.6719E+06     538.343E+03    -164.336E-03     328.175E-03    -163.840E-03     72.6583E-03    -165.031E-03     328.014E-03    -163.584E-03     68.2634E-03
            1996     4.58476E-03     32.1376E-03    -102.693E+06    -191.050E+06    -41.7232E+06     361.510E+03    -164.274E-03     328.099E-03    -163.825E-03     64.8756E-03    -164.844E-03     327.747E-03    -163.607E-03     61.0300E-03
            1997     3.82079E-03     32.0622E-03    -112.462E+06    -215.291E+06    -61.0351E+06     41.9935E+03    -164.131E-03     327.921E-03    -163.790E-03     55.9550E-03    -164.578E-03     327.381E-03    -163.619E-03     52.7019E-03
            1998     3.05664E-03     31.9988E-03    -123.372E+06    -241.064E+06    -83.0644E+06     123.377E+03    -163.881E-03     327.631E-03    -163.749E-03     46.1485E-03    -164.218E-03     326.914E-03    -163.636E-03     43.5243E-03
            1999     2.29226E-03     31.9478E-03    -132.788E+06    -265.866E+06    -105.891E+06     405.635E+03    -163.786E-03     327.491E-03    -163.705E-03     35.6059E-03    -164.021E-03     326.618E-03    -163.657E-03     33.6266E-03
            2000     1.52832E-03     31.9108E-03    -140.288E+06    -288.119E+06    -127.132E+06    -43.9330E+03    -163.788E-03     327.414E-03    -163.625E-03     24.4945E-03    -163.940E-03     326.414E-03    -163.640E-03     23.1516E-03
            2001     764.518E-06     31.8873E-03    -146.161E+06    -304.227E+06    -142.561E+06    -480.601E+03    -163.725E-03     327.137E-03    -163.412E-03     13.5800E-03    -163.825E-03     326.052E-03    -163.472E-03     12.8483E-03
            2002     14.5287E-03     32.0590E-03    -6.10108E+06     98.7754E+06     105.134E+06    -407.342E+03    -161.735E-03     325.123E-03    -163.388E-03     34.1622E-03    -162.596E-03     326.007E-03    -162.996E-03     28.3110E-03
            2003     13.7635E-03     32.0011E-03    -11.8722E+06     96.5404E+06     97.2305E+06     642.520E+03    -161.769E-03     325.178E-03    -163.409E-03     56.6737E-03    -162.914E-03     326.342E-03    -163.045E-03     49.8224E-03
            2004     12.9973E-03     31.9331E-03    -17.2726E+06     90.5779E+06     85.6132E+06     1.24589E+06    -162.125E-03     325.553E-03    -163.428E-03     67.2864E-03    -163.330E-03     326.769E-03    -163.106E-03     60.5657E-03
            2005     12.2316E-03     31.8459E-03    -23.7765E+06     78.4973E+06     74.9957E+06    -442.802E+03    -162.787E-03     326.248E-03    -163.461E-03     77.4696E-03    -164.078E-03     327.516E-03    -163.166E-03     70.6682E-03
            2006     11.4673E-03     31.7488E-03    -30.5326E+06     45.9374E+06     65.0912E+06    -305.021E+03    -163.262E-03     326.784E-03    -163.522E-03     83.7286E-03    -164.553E-03     327.941E-03    -163.219E-03     77.0454E-03
            2007     10.7018E-03     31.6451E-03    -36.9141E+06     9.43605E+06     57.7724E+06     333.521E+03    -163.670E-03     327.269E-03    -163.598E-03     87.7109E-03    -164.934E-03     328.268E-03    -163.270E-03     81.1707E-03
            2008     9.93686E-03     31.5375E-03    -43.3981E+06    -22.7483E+06     46.9078E+06     531.284E+03    -164.060E-03     327.704E-03    -163.645E-03     89.8467E-03    -165.278E-03     328.552E-03    -163.314E-03     83.4690E-03
            2009     9.17244E-03     31.4274E-03    -50.4796E+06    -53.8403E+06     36.2865E+06     449.379E+03    -164.347E-03     328.030E-03    -163.682E-03     90.3433E-03    -165.505E-03     328.712E-03    -163.350E-03     84.1605E-03
            2010     8.40763E-03     31.3171E-03    -57.9834E+06     -78.203E+06     26.2300E+06     391.106E+03    -164.476E-03     328.183E-03    -163.708E-03     89.5089E-03    -165.569E-03     328.717E-03    -163.379E-03     83.5640E-03
            2011     7.64315E-03     31.2082E-03    -65.8142E+06    -100.702E+06     15.6123E+06     494.545E+03    -164.489E-03     328.216E-03    -163.726E-03     87.3217E-03    -165.503E-03     328.593E-03    -163.407E-03     81.6678E-03
            2012     6.87862E-03     31.1030E-03    -74.5233E+06    -123.170E+06     3.60504E+06     567.561E+03    -164.490E-03     328.228E-03    -163.738E-03     83.7273E-03    -165.410E-03     328.435E-03    -163.433E-03     78.4291E-03
            2013     6.11421E-03     31.0023E-03    -83.5974E+06    -145.773E+06    -9.77914E+06     619.452E+03    -164.497E-03     328.232E-03    -163.735E-03     78.6892E-03    -165.306E-03     328.255E-03    -163.451E-03     73.8154E-03
            2014     5.34976E-03     30.9086E-03    -92.3742E+06    -167.521E+06    -24.4938E+06     194.000E+03    -164.443E-03     328.152E-03    -163.709E-03     72.2037E-03    -165.130E-03     327.988E-03    -163.455E-03     67.8171E-03
            2015     4.58581E-03     30.8233E-03    -102.260E+06    -190.876E+06    -41.4008E+06    -115.952E+03    -164.230E-03     327.898E-03    -163.668E-03     64.4943E-03    -164.794E-03     327.542E-03    -163.450E-03     60.6593E-03
            2016     3.82142E-03     30.7482E-03    -113.197E+06    -215.668E+06    -61.0911E+06     296.858E+03    -163.936E-03     327.561E-03    -163.625E-03     55.6809E-03    -164.383E-03     327.018E-03    -163.454E-03     52.4487E-03
            2017     3.05702E-03     30.6850E-03    -123.333E+06    -240.936E+06    -83.2571E+06     424.165E+03    -163.716E-03     327.299E-03    -163.583E-03     45.8908E-03    -164.050E-03     326.582E-03    -163.472E-03     43.2843E-03
            2018     2.29267E-03     30.6342E-03    -132.662E+06    -265.935E+06    -105.977E+06     43.7474E+03    -163.578E-03     327.126E-03    -163.548E-03     35.4032E-03    -163.811E-03     326.251E-03    -163.500E-03     33.4359E-03
            2019     1.52832E-03     30.5964E-03    -140.587E+06    -287.886E+06    -126.519E+06     267.414E+03    -163.557E-03     327.062E-03    -163.506E-03     24.3511E-03    -163.710E-03     326.062E-03    -163.517E-03     23.0243E-03
            2020     764.135E-06     30.5739E-03    -146.080E+06    -304.029E+06    -142.562E+06     242.069E+03    -163.566E-03     326.944E-03    -163.378E-03     13.4747E-03    -163.666E-03     325.859E-03    -163.438E-03     12.7467E-03
            2021     14.5273E-03     30.7456E-03    -5.45396E+06     98.6240E+06     104.886E+06     801.955E+03    -161.250E-03     324.657E-03    -163.407E-03     34.3637E-03    -162.105E-03     325.538E-03    -163.017E-03     28.5619E-03
            2022     13.7612E-03     30.6892E-03    -12.0829E+06     96.8512E+06     97.8011E+06     328.657E+03    -161.787E-03     325.233E-03    -163.446E-03     56.1335E-03    -162.932E-03     326.395E-03    -163.080E-03     49.2758E-03
            2023     12.9967E-03     30.6184E-03    -17.9708E+06     90.3723E+06     85.8936E+06    -377.898E+03    -162.565E-03     326.017E-03    -163.452E-03     67.0494E-03    -163.774E-03     327.234E-03    -163.127E-03     60.2779E-03
            2024     12.2328E-03     30.5324E-03    -23.6299E+06     78.3700E+06     74.9258E+06     645.525E+03    -163.055E-03     326.516E-03    -163.461E-03     77.4554E-03    -164.347E-03     327.785E-03    -163.166E-03     70.6493E-03
            2025     11.4668E-03     30.4354E-03    -30.2247E+06     46.0666E+06     65.0459E+06     566.567E+03    -163.408E-03     326.916E-03    -163.508E-03     83.8526E-03    -164.698E-03     328.074E-03    -163.206E-03     77.1761E-03
            2026     10.7022E-03     30.3316E-03    -37.2082E+06     9.12948E+06     57.2032E+06    -45.9992E+03    -163.849E-03     327.420E-03    -163.571E-03     87.6084E-03    -165.111E-03     328.416E-03    -163.244E-03     81.0621E-03
            2027     9.93752E-03     30.2234E-03    -44.0135E+06    -23.2877E+06     46.3957E+06     28.2427E+03    -164.248E-03     327.850E-03    -163.601E-03     89.6307E-03    -165.465E-03     328.693E-03    -163.272E-03     83.2451E-03
            2028     9.17277E-03     30.1133E-03    -50.9133E+06    -53.8033E+06     36.0840E+06     356.005E+03    -164.487E-03     328.108E-03    -163.622E-03     90.1620E-03    -165.644E-03     328.789E-03    -163.289E-03     83.9820E-03
            2029     8.40850E-03     30.0031E-03    -58.3499E+06    -78.1818E+06     26.1161E+06     420.654E+03    -164.546E-03     328.177E-03    -163.631E-03     89.2780E-03    -165.636E-03     328.707E-03    -163.303E-03     83.3440E-03
            2030     7.64382E-03     29.8945E-03    -66.2960E+06    -101.051E+06     15.3058E+06     484.655E+03    -164.596E-03     328.228E-03    -163.632E-03     87.0354E-03    -165.606E-03     328.600E-03    -163.313E-03     81.3937E-03
            2031     6.87939E-03     29.7888E-03    -74.4232E+06    -123.033E+06     3.51267E+06     540.165E+03    -164.669E-03     328.284E-03    -163.615E-03     83.3383E-03    -165.582E-03     328.486E-03    -163.311E-03     78.0526E-03
            2032     6.11513E-03     29.6884E-03    -82.9199E+06    -145.232E+06    -9.52816E+06     130.655E+03    -164.617E-03     328.193E-03    -163.576E-03     78.2355E-03    -165.418E-03     328.211E-03    -163.293E-03     73.3740E-03
            2033     5.35107E-03     29.5944E-03    -92.4605E+06    -167.435E+06    -24.3209E+06     94.6047E+03    -164.384E-03     327.907E-03    -163.523E-03     71.7981E-03    -165.067E-03     327.738E-03    -163.268E-03     67.4340E-03
            2034     4.58661E-03     29.5095E-03    -102.881E+06    -191.149E+06    -41.6079E+06     445.827E+03    -164.055E-03     327.523E-03    -163.468E-03     64.1024E-03    -164.619E-03     327.164E-03    -163.250E-03     60.2958E-03
            2035     3.82212E-03     29.4350E-03    -113.192E+06    -215.913E+06    -61.5748E+06     381.346E+03    -163.780E-03     327.193E-03    -163.413E-03     55.3058E-03    -164.224E-03     326.647E-03    -163.243E-03     52.0952E-03
            2036     3.05768E-03     29.3714E-03    -122.823E+06    -240.574E+06    -83.0484E+06     213.512E+03    -163.606E-03     326.956E-03    -163.350E-03     45.4729E-03    -163.936E-03     326.237E-03    -163.238E-03     42.8841E-03
            2037     2.29339E-03     29.3210E-03    -132.201E+06    -265.746E+06    -105.723E+06     156.291E+03    -163.405E-03     326.687E-03    -163.281E-03     34.9736E-03    -163.635E-03     325.810E-03    -163.233E-03     33.0199E-03
            2038     1.52882E-03     29.2836E-03    -140.650E+06    -288.396E+06    -126.700E+06     34.5854E+03    -163.197E-03     326.443E-03    -163.246E-03     23.9728E-03    -163.349E-03     325.440E-03    -163.257E-03     22.6540E-03
            2039     764.270E-06     29.2601E-03    -145.742E+06    -303.130E+06    -141.230E+06     321.241E+03    -163.186E-03     326.471E-03    -163.286E-03     13.0235E-03    -163.287E-03     325.389E-03    -163.341E-03     12.2981E-03
            2040     14.5276E-03     29.4334E-03    -5.45963E+06     98.6124E+06     105.433E+06     867.305E+03    -161.394E-03     324.796E-03    -163.402E-03     33.3808E-03    -162.244E-03     325.671E-03    -163.010E-03     27.5753E-03
            2041     13.7630E-03     29.3754E-03    -11.2612E+06     97.1537E+06     97.5064E+06     347.152E+03    -161.717E-03     325.149E-03    -163.432E-03     55.7280E-03    -162.855E-03     326.309E-03    -163.069E-03     48.8699E-03
            2042     12.9975E-03     29.3050E-03    -17.8413E+06     89.7911E+06     84.8540E+06    -128.450E+03    -162.416E-03     325.859E-03    -163.443E-03     67.0737E-03    -163.621E-03     327.073E-03    -163.123E-03     60.3165E-03
            2043     12.2313E-03     29.2185E-03    -24.2585E+06     77.5956E+06     74.7735E+06     347.039E+03    -163.101E-03     326.562E-03    -163.461E-03     77.4580E-03    -164.395E-03     327.828E-03    -163.164E-03     70.6529E-03
            2044     11.4675E-03     29.1215E-03    -29.9980E+06     46.4662E+06     65.3094E+06     529.495E+03    -163.763E-03     327.255E-03    -163.493E-03     83.7342E-03    -165.053E-03     328.415E-03    -163.190E-03     77.0361E-03
            2045     10.7027E-03     29.0176E-03    -36.3226E+06     9.50248E+06     57.6838E+06     612.916E+03    -164.164E-03     327.694E-03    -163.530E-03     87.5028E-03    -165.422E-03     328.690E-03    -163.203E-03     80.9513E-03
            2046     9.93801E-03     28.9094E-03    -43.5668E+06    -23.5823E+06     46.5102E+06     399.965E+03    -164.407E-03     327.946E-03    -163.539E-03     89.4685E-03    -165.618E-03     328.784E-03    -163.209E-03     83.0916E-03
            2047     9.17371E-03     28.7992E-03    -50.8290E+06    -53.8373E+06     36.2104E+06     225.653E+03    -164.575E-03     328.119E-03    -163.544E-03     89.9356E-03    -165.727E-03     328.794E-03    -163.211E-03     83.7650E-03
            2048     8.40900E-03     28.6892E-03    -58.1738E+06    -78.2088E+06     26.1947E+06     338.746E+03    -164.748E-03     328.279E-03    -163.531E-03     88.9668E-03    -165.832E-03     328.804E-03    -163.203E-03     83.0385E-03
            2049     7.64482E-03     28.5804E-03    -65.9160E+06    -100.926E+06     15.3951E+06     263.049E+03    -164.861E-03     328.358E-03    -163.497E-03     86.5948E-03    -165.863E-03     328.723E-03    -163.178E-03     80.9597E-03
            2050     6.88066E-03     28.4748E-03    -74.2107E+06    -122.759E+06     3.59149E+06     2.45677E+03    -164.824E-03     328.263E-03    -163.439E-03     82.8434E-03    -165.729E-03     328.459E-03    -163.136E-03     77.5704E-03
            2051     6.11657E-03     28.3743E-03    -83.2102E+06    -145.245E+06    -9.62028E+06     134.755E+03    -164.614E-03     327.981E-03    -163.367E-03     77.7022E-03    -165.409E-03     327.993E-03    -163.084E-03     72.8649E-03
            2052     5.35212E-03     28.2810E-03    -93.0253E+06    -167.958E+06    -24.8710E+06     358.706E+03    -164.259E-03     327.549E-03    -163.290E-03     71.2203E-03    -164.937E-03     327.372E-03    -163.035E-03     66.8889E-03
            2053     4.58766E-03     28.1964E-03    -102.668E+06    -191.318E+06    -41.9041E+06     391.933E+03    -163.948E-03     327.159E-03    -163.211E-03     63.4718E-03    -164.503E-03     326.792E-03    -162.994E-03     59.6943E-03
            2054     3.82326E-03     28.1218E-03    -112.290E+06    -215.220E+06    -61.1579E+06     304.929E+03    -163.670E-03     326.794E-03    -163.123E-03     54.6753E-03    -164.106E-03     326.244E-03    -162.954E-03     51.4892E-03
            2055     3.05879E-03     28.0587E-03    -122.706E+06    -240.796E+06    -83.0192E+06     228.974E+03    -163.364E-03     326.395E-03    -163.031E-03     45.0314E-03    -163.690E-03     325.671E-03    -162.919E-03     42.4656E-03
            2056     2.29408E-03     28.0082E-03    -132.217E+06    -265.692E+06    -105.459E+06     380.430E+03    -163.142E-03     326.080E-03    -162.938E-03     34.6714E-03    -163.371E-03     325.202E-03    -162.888E-03     32.7353E-03
            2057     1.52960E-03     27.9713E-03    -139.746E+06    -287.625E+06    -126.316E+06     348.097E+03    -162.948E-03     325.798E-03    -162.849E-03     23.7866E-03    -163.097E-03     324.796E-03    -162.861E-03     22.4823E-03
            2058     764.758E-06     27.9481E-03    -145.595E+06    -303.550E+06    -141.925E+06    -258.635E+03    -162.692E-03     325.606E-03    -162.914E-03     13.1893E-03    -162.790E-03     324.522E-03    -162.973E-03     12.4773E-03
            2059     14.5292E-03     28.1218E-03    -5.23777E+06     97.6529E+06     105.307E+06     468.626E+03    -161.486E-03     324.883E-03    -163.397E-03     34.4159E-03    -162.339E-03     325.759E-03    -163.004E-03     28.6059E-03
            2060     13.7622E-03     28.0623E-03    -11.1533E+06     97.1816E+06     97.6538E+06     763.279E+03    -161.869E-03     325.291E-03    -163.422E-03     56.9892E-03    -163.014E-03     326.458E-03    -163.058E-03     50.1429E-03
            2061     12.9968E-03     27.9921E-03    -17.1360E+06     90.4892E+06     85.7968E+06     671.720E+03    -162.555E-03     325.982E-03    -163.427E-03     67.0995E-03    -163.762E-03     327.200E-03    -163.104E-03     60.3330E-03
            2062     12.2327E-03     27.9045E-03    -23.5347E+06     78.1750E+06     75.2253E+06     337.038E+03    -163.227E-03     326.659E-03    -163.432E-03     77.0552E-03    -164.516E-03     327.924E-03    -163.135E-03     70.2402E-03
            2063     11.4673E-03     27.8071E-03    -30.1665E+06     45.6442E+06     64.9469E+06     100.081E+03    -163.868E-03     327.320E-03    -163.452E-03     83.3828E-03    -165.154E-03     328.473E-03    -163.150E-03     76.6786E-03
            2064     10.7032E-03     27.7032E-03    -36.6252E+06     9.11181E+06     57.5844E+06     568.100E+03    -164.352E-03     327.829E-03    -163.476E-03     87.2874E-03    -165.609E-03     328.821E-03    -163.149E-03     80.7328E-03
            2065     9.93898E-03     27.5952E-03    -43.0548E+06    -22.6277E+06     47.0832E+06     704.340E+03    -164.640E-03     328.105E-03    -163.464E-03     89.2299E-03    -165.848E-03     328.942E-03    -163.134E-03     82.8572E-03
            2066     9.17433E-03     27.4854E-03    -50.1487E+06    -53.7817E+06     36.4279E+06     395.134E+03    -164.873E-03     328.312E-03    -163.439E-03     89.5271E-03    -166.016E-03     328.979E-03    -163.106E-03     83.3637E-03
            2067     8.41032E-03     27.3749E-03    -57.6415E+06    -78.4114E+06     26.2637E+06     213.255E+03    -165.051E-03     328.439E-03    -163.387E-03     88.3880E-03    -166.124E-03     328.953E-03    -163.059E-03     82.4711E-03
            2068     7.64629E-03     27.2662E-03    -65.5332E+06    -100.613E+06     15.5582E+06     171.748E+03    -165.078E-03     328.388E-03    -163.310E-03     85.9374E-03    -166.070E-03     328.745E-03    -162.991E-03     80.3209E-03
            2069     6.88227E-03     27.1609E-03    -74.0688E+06    -122.821E+06     3.54867E+06     303.392E+03    -164.895E-03     328.108E-03    -163.213E-03     82.1943E-03    -165.790E-03     328.294E-03    -162.909E-03     76.9520E-03
            2070     6.11798E-03     27.0608E-03    -83.1253E+06    -145.638E+06    -9.91205E+06     402.877E+03    -164.580E-03     327.686E-03    -163.106E-03     76.9474E-03    -165.364E-03     327.687E-03    -162.824E-03     72.1463E-03
            2071     5.35374E-03     26.9680E-03    -92.1754E+06    -167.722E+06    -24.8717E+06     294.109E+03    -164.226E-03     327.217E-03    -162.991E-03     70.3694E-03    -164.891E-03     327.032E-03    -162.739E-03     66.0682E-03
            2072     4.58934E-03     26.8836E-03    -102.003E+06    -191.230E+06    -41.9357E+06     52.4861E+03    -163.834E-03     326.706E-03    -162.872E-03     62.7386E-03    -164.380E-03     326.332E-03    -162.656E-03     58.9890E-03
            2073     3.82477E-03     26.8094E-03    -112.581E+06    -215.691E+06    -61.2385E+06     264.144E+03    -163.405E-03     326.159E-03    -162.754E-03     54.0491E-03    -163.836E-03     325.602E-03    -162.584E-03     50.8949E-03
            2074     3.05991E-03     26.7469E-03    -122.460E+06    -240.316E+06    -82.7862E+06     578.917E+03    -163.023E-03     325.664E-03    -162.641E-03     44.5407E-03    -163.345E-03     324.938E-03    -162.529E-03     42.0080E-03
            2075     2.29504E-03     26.6966E-03    -131.999E+06    -265.507E+06    -105.428E+06     377.367E+03    -162.754E-03     325.291E-03    -162.536E-03     34.3074E-03    -162.980E-03     324.411E-03    -162.487E-03     32.3978E-03
            2076     1.52997E-03     26.6597E-03    -140.082E+06    -287.339E+06    -125.735E+06     433.806E+03    -162.583E-03     325.016E-03    -162.433E-03     23.4988E-03    -162.733E-03     324.014E-03    -162.442E-03     22.2122E-03
            2077     765.188E-06     26.6370E-03    -145.557E+06    -302.885E+06    -141.435E+06     763.537E+03    -162.428E-03     324.735E-03    -162.307E-03     12.8985E-03    -162.528E-03     323.653E-03    -162.364E-03     12.2069E-03
            2078     14.5259E-03     26.8075E-03    -5.51795E+06     97.0325E+06     104.733E+06     399.398E+03    -161.627E-03     325.032E-03    -163.404E-03     34.2070E-03    -162.483E-03     325.908E-03    -163.013E-03     28.3670E-03
            2079     13.7626E-03     26.7493E-03    -11.4578E+06     97.4546E+06     97.6900E+06     536.109E+03    -162.288E-03     325.703E-03    -163.415E-03     56.5304E-03    -163.438E-03     326.875E-03    -163.051E-03     49.6276E-03
            2080     12.9983E-03     26.6775E-03    -17.4208E+06     90.5251E+06     85.6578E+06     486.827E+03    -162.874E-03     326.270E-03    -163.396E-03     67.1743E-03    -164.086E-03     327.493E-03    -163.074E-03     60.3785E-03
            2081     12.2329E-03     26.5909E-03    -23.1772E+06     78.3798E+06     75.2752E+06     626.996E+03    -163.446E-03     326.829E-03    -163.383E-03     77.3426E-03    -164.735E-03     328.096E-03    -163.087E-03     70.5268E-03
            2082     11.4687E-03     26.4931E-03    -29.5724E+06     45.8002E+06     65.2114E+06     644.713E+03    -164.007E-03     327.397E-03    -163.390E-03     83.3800E-03    -165.289E-03     328.547E-03    -163.087E-03     76.6909E-03
            2083     10.7040E-03     26.3888E-03    -36.4124E+06     8.92981E+06     57.6046E+06     359.344E+03    -164.490E-03     327.888E-03    -163.399E-03     86.9348E-03    -165.739E-03     328.873E-03    -163.071E-03     80.3896E-03
            2084     9.93949E-03     26.2809E-03    -43.2813E+06    -22.6512E+06     46.8211E+06     273.887E+03    -164.968E-03     328.328E-03    -163.360E-03     88.7667E-03    -166.169E-03     329.160E-03    -163.031E-03     82.3917E-03
            2085     9.17592E-03     26.1707E-03    -50.1458E+06    -53.4321E+06     36.4179E+06     434.507E+03    -165.320E-03     328.611E-03    -163.292E-03     88.9395E-03    -166.455E-03     329.273E-03    -162.960E-03     82.7803E-03
            2086     8.41203E-03     26.0607E-03    -57.5801E+06    -78.1921E+06     26.1076E+06     415.891E+03    -165.366E-03     328.555E-03    -163.190E-03     87.7121E-03    -166.428E-03     329.060E-03    -162.862E-03     81.8167E-03
            2087     7.64812E-03     25.9520E-03    -65.5536E+06    -100.826E+06     15.2027E+06     415.774E+03    -165.227E-03     328.294E-03    -163.066E-03     85.1650E-03    -166.207E-03     328.639E-03    -162.749E-03     79.5829E-03
            2088     6.88412E-03     25.8473E-03    -73.8139E+06    -123.008E+06     3.27790E+06     485.216E+03    -164.972E-03     327.898E-03    -162.926E-03     81.2043E-03    -165.854E-03     328.072E-03    -162.624E-03     75.9976E-03
            2089     6.12007E-03     25.7477E-03    -82.4494E+06    -145.366E+06    -9.88341E+06     437.289E+03    -164.581E-03     327.356E-03    -162.774E-03     75.9039E-03    -165.351E-03     327.345E-03    -162.493E-03     71.1421E-03
            2090     5.35575E-03     25.6553E-03    -92.0578E+06    -167.613E+06    -24.7797E+06     415.238E+03    -164.130E-03     326.745E-03    -162.615E-03     69.4315E-03    -164.785E-03     326.550E-03    -162.362E-03     65.1734E-03
            2091     4.59124E-03     25.5716E-03    -102.069E+06    -191.005E+06    -41.9065E+06     624.809E+03    -163.622E-03     326.075E-03    -162.453E-03     61.8299E-03    -164.159E-03     325.694E-03    -162.238E-03     58.1295E-03
            2092     3.82634E-03     25.4981E-03    -112.282E+06    -215.687E+06    -61.5482E+06     390.962E+03    -163.103E-03     325.398E-03    -162.296E-03     53.1536E-03    -163.525E-03     324.835E-03    -162.128E-03     50.0427E-03
            2093     3.06136E-03     25.4359E-03    -122.642E+06    -240.523E+06    -82.9487E+06     280.907E+03    -162.663E-03     324.810E-03    -162.147E-03     43.6945E-03    -162.980E-03     324.079E-03    -162.036E-03     41.1929E-03
            2094     2.29615E-03     25.3861E-03    -131.803E+06    -264.848E+06    -105.073E+06     607.792E+03    -162.300E-03     324.310E-03    -162.010E-03     33.5636E-03    -162.523E-03     323.430E-03    -161.960E-03     31.6854E-03
            2095     1.53093E-03     25.3495E-03    -139.771E+06    -287.166E+06    -126.162E+06     341.017E+03    -162.024E-03     323.916E-03    -161.892E-03     22.9178E-03    -162.171E-03     322.914E-03    -161.904E-03     21.6480E-03
            2096     765.360E-06     25.3269E-03    -145.392E+06    -302.039E+06    -141.202E+06     293.203E+03    -162.115E-03     323.663E-03    -161.548E-03     12.5640E-03    -162.215E-03     322.584E-03    -161.605E-03     11.8716E-03
            2097     14.5299E-03     25.4952E-03    -5.89595E+06     96.4522E+06     104.234E+06     59.9041E+03    -161.862E-03     325.250E-03    -163.389E-03     34.3191E-03    -162.719E-03     326.126E-03    -162.999E-03     28.4708E-03
            2098     13.7631E-03     25.4346E-03    -11.2657E+06     97.4398E+06     97.7009E+06     802.237E+03    -162.262E-03     325.657E-03    -163.395E-03     57.1874E-03    -163.413E-03     326.830E-03    -163.031E-03     50.3093E-03
            2099     12.9978E-03     25.3643E-03    -17.2311E+06     90.4995E+06     85.4136E+06     668.012E+03    -163.095E-03     326.464E-03    -163.369E-03     67.6795E-03    -164.305E-03     327.686E-03    -163.048E-03     60.8981E-03
            2100     12.2335E-03     25.2763E-03    -23.5082E+06     77.8971E+06     74.6498E+06     565.625E+03    -163.863E-03     327.198E-03    -163.334E-03     77.3908E-03    -165.151E-03     328.463E-03    -163.040E-03     70.5657E-03
            2101     11.4691E-03     25.1785E-03    -29.7948E+06     46.1189E+06     64.9017E+06     823.131E+03    -164.421E-03     327.732E-03    -163.310E-03     83.0977E-03    -165.699E-03     328.879E-03    -163.010E-03     76.4078E-03
            2102     10.7051E-03     25.0747E-03    -36.1108E+06     9.67824E+06     57.5264E+06     633.321E+03    -164.915E-03     328.198E-03    -163.283E-03     86.4897E-03    -166.157E-03     329.179E-03    -162.957E-03     79.9536E-03
            2103     9.94137E-03     24.9660E-03    -43.0310E+06    -22.7792E+06     46.4122E+06     248.946E+03    -165.388E-03     328.588E-03    -163.201E-03     88.0304E-03    -166.576E-03     329.408E-03    -162.873E-03     81.6700E-03
            2104     9.17746E-03     24.8559E-03    -50.1934E+06    -53.8331E+06     35.8649E+06     393.476E+03    -165.647E-03     328.732E-03    -163.085E-03     88.0125E-03    -166.768E-03     329.380E-03    -162.755E-03     81.8741E-03
            2105     8.41405E-03     24.7461E-03    -57.5855E+06    -78.0820E+06     25.8582E+06     706.356E+03    -165.650E-03     328.583E-03    -162.933E-03     86.6331E-03    -166.698E-03     329.075E-03    -162.607E-03     80.7684E-03
            2106     7.65042E-03     24.6383E-03    -65.4929E+06    -100.610E+06     14.9390E+06     650.426E+03    -165.438E-03     328.192E-03    -162.754E-03     83.9654E-03    -166.402E-03     328.523E-03    -162.439E-03     78.4245E-03
            2107     6.88667E-03     24.5337E-03    -73.8944E+06    -122.931E+06     2.89686E+06     452.002E+03    -165.050E-03     327.607E-03    -162.558E-03     79.9025E-03    -165.915E-03     327.765E-03    -162.258E-03     74.7437E-03
            2108     6.12263E-03     24.4352E-03    -82.8958E+06    -145.371E+06    -10.2975E+06     512.790E+03    -164.550E-03     326.901E-03    -162.351E-03     74.5994E-03    -165.307E-03     326.877E-03    -162.072E-03     69.8895E-03
            2109     5.35822E-03     24.3434E-03    -92.2405E+06    -167.581E+06    -25.0038E+06     640.567E+03    -163.994E-03     326.131E-03    -162.137E-03     68.0862E-03    -164.636E-03     325.923E-03    -161.885E-03     63.8863E-03
            2110     4.59352E-03     24.2606E-03    -102.011E+06    -190.823E+06    -41.8234E+06     632.943E+03    -163.382E-03     325.302E-03    -161.920E-03     60.3632E-03    -163.907E-03     324.909E-03    -161.704E-03     56.7175E-03
            2111     3.82867E-03     24.1877E-03    -112.090E+06    -214.975E+06    -61.1839E+06     782.433E+03    -162.748E-03     324.455E-03    -161.707E-03     51.8384E-03    -163.162E-03     323.885E-03    -161.538E-03     48.7824E-03
            2112     3.06339E-03     24.1264E-03    -122.246E+06    -240.357E+06    -82.9561E+06     611.609E+03    -162.203E-03     323.707E-03    -161.504E-03     42.6501E-03    -162.513E-03     322.970E-03    -161.393E-03     40.1965E-03
            2113     2.29789E-03     24.0769E-03    -131.829E+06    -264.911E+06    -105.301E+06     394.841E+03    -161.732E-03     323.049E-03    -161.317E-03     32.7189E-03    -161.952E-03     322.166E-03    -161.269E-03     30.8706E-03
            2114     1.53201E-03     24.0411E-03    -139.337E+06    -286.460E+06    -125.694E+06     507.834E+03    -161.351E-03     322.512E-03    -161.161E-03     22.3118E-03    -161.496E-03     321.510E-03    -161.172E-03     21.0712E-03
            2115     766.124E-06     24.0186E-03    -144.162E+06    -301.399E+06    -141.200E+06     130.205E+03    -161.191E-03     322.166E-03    -160.974E-03     12.2487E-03    -161.285E-03     321.087E-03    -161.034E-03     11.5734E-03
            2116     14.5265E-03     24.1814E-03    -5.19286E+06     95.9389E+06     104.207E+06     299.588E+03    -162.076E-03     325.457E-03    -163.381E-03     35.0837E-03    -162.932E-03     326.333E-03    -162.991E-03     29.2271E-03
            2117     13.7628E-03     24.1219E-03    -11.5188E+06     97.0218E+06     97.5491E+06     12.1497E+03    -162.717E-03     326.085E-03    -163.368E-03     56.9136E-03    -163.867E-03     327.256E-03    -163.004E-03     50.0023E-03
            2118     12.9983E-03     24.0492E-03    -17.4760E+06     90.1520E+06     85.5989E+06     505.599E+03    -163.443E-03     326.760E-03    -163.318E-03     66.9866E-03    -164.648E-03     327.976E-03    -162.995E-03     60.1896E-03
            2119     12.2344E-03     23.9614E-03    -23.5172E+06     77.9200E+06     74.5895E+06     977.158E+03    -164.225E-03     327.479E-03    -163.254E-03     76.6141E-03    -165.505E-03     328.736E-03    -162.960E-03     69.7913E-03
            2120     11.4705E-03     23.8639E-03    -29.7934E+06     46.5547E+06     64.5784E+06     552.612E+03    -164.946E-03     328.137E-03    -163.191E-03     82.3509E-03    -166.215E-03     329.278E-03    -162.892E-03     75.6541E-03
            2121     10.7068E-03     23.7594E-03    -36.4589E+06     9.78084E+06     56.9755E+06     353.936E+03    -165.545E-03     328.655E-03    -163.110E-03     85.5998E-03    -166.775E-03     329.626E-03    -162.787E-03     79.0624E-03
            2122     9.94339E-03     23.6511E-03    -43.1610E+06    -22.6753E+06     46.0312E+06     777.788E+03    -165.873E-03     328.842E-03    -162.970E-03     86.9721E-03    -167.046E-03     329.648E-03    -162.644E-03     80.6420E-03
            2123     9.18033E-03     23.5412E-03    -50.5521E+06    -53.9748E+06     35.1689E+06     816.984E+03    -165.995E-03     328.790E-03    -162.795E-03     86.6633E-03    -167.097E-03     329.419E-03    -162.468E-03     80.5698E-03
            2124     8.41684E-03     23.4317E-03    -58.0472E+06    -78.1993E+06     25.2330E+06     654.648E+03    -165.939E-03     328.522E-03    -162.583E-03     85.0315E-03    -166.968E-03     328.994E-03    -162.259E-03     79.2130E-03
            2125     7.65354E-03     23.3243E-03    -65.7701E+06    -100.224E+06     14.6596E+06     722.466E+03    -165.658E-03     327.994E-03    -162.336E-03     82.1168E-03    -166.600E-03     328.305E-03    -162.022E-03     76.6326E-03
            2126     6.88986E-03     23.2211E-03    -74.1322E+06    -122.572E+06     2.70033E+06     681.952E+03    -165.137E-03     327.205E-03    -162.068E-03     77.8933E-03    -165.981E-03     327.342E-03    -161.769E-03     72.8063E-03
            2127     6.12579E-03     23.1231E-03    -82.9139E+06    -145.313E+06    -10.4277E+06     571.134E+03    -164.513E-03     326.299E-03    -161.787E-03     72.4690E-03    -165.247E-03     326.254E-03    -161.508E-03     67.8355E-03
            2128     5.36154E-03     23.0325E-03    -92.1328E+06    -167.420E+06    -25.0911E+06     573.986E+03    -163.785E-03     325.283E-03    -161.498E-03     65.9885E-03    -164.407E-03     325.056E-03    -161.247E-03     61.8665E-03
            2129     4.59690E-03     22.9504E-03    -101.992E+06    -190.751E+06    -42.0176E+06     558.861E+03    -162.992E-03     324.205E-03    -161.213E-03     58.4947E-03    -163.502E-03     323.798E-03    -160.999E-03     54.9252E-03
            2130     3.83154E-03     22.8791E-03    -112.033E+06    -215.057E+06    -61.0845E+06     663.152E+03    -162.252E-03     323.191E-03    -160.939E-03     50.2126E-03    -162.654E-03     322.608E-03    -160.770E-03     47.2251E-03
            2131     3.06579E-03     22.8182E-03    -121.719E+06    -239.539E+06    -82.3533E+06     882.875E+03    -161.548E-03     322.227E-03    -160.679E-03     41.2108E-03    -161.848E-03     321.484E-03    -160.567E-03     38.8241E-03
            2132     2.29973E-03     22.7699E-03    -130.854E+06    -264.355E+06    -105.005E+06     617.148E+03    -160.930E-03     321.382E-03    -160.452E-03     31.6153E-03    -161.141E-03     320.495E-03    -160.404E-03     29.8225E-03
            2133     1.53341E-03     22.7345E-03    -138.679E+06    -286.160E+06    -125.286E+06     230.989E+03    -160.503E-03     320.775E-03    -160.272E-03     21.6567E-03    -160.644E-03     319.771E-03    -160.283E-03     20.4437E-03
            2134     766.777E-06     22.7125E-03    -144.245E+06    -300.451E+06    -139.836E+06     327.522E+03    -160.131E-03     320.361E-03    -160.231E-03     11.7792E-03    -160.228E-03     319.285E-03    -160.285E-03     11.1231E-03
            2135     14.5291E-03     22.8660E-03    -5.32747E+06     95.8951E+06     104.151E+06     249.013E+03    -162.872E-03     326.221E-03    -163.349E-03     34.2567E-03    -163.725E-03     327.093E-03    -162.959E-03     28.3578E-03
            2136     13.7645E-03     22.8074E-03    -11.2822E+06     97.1445E+06     97.5929E+06     423.769E+03    -163.323E-03     326.616E-03    -163.294E-03     55.9822E-03    -164.466E-03     327.781E-03    -162.930E-03     49.0471E-03
            2137     13.0004E-03     22.7345E-03    -18.0093E+06     89.4052E+06     84.8819E+06     349.543E+03    -163.893E-03     327.098E-03    -163.205E-03     66.5277E-03    -165.093E-03     328.306E-03    -162.884E-03     59.7254E-03
            2138     12.2359E-03     22.6468E-03    -23.5553E+06     77.8191E+06     74.4789E+06     414.005E+03    -164.639E-03     327.746E-03    -163.107E-03     75.8231E-03    -165.908E-03     328.992E-03    -162.814E-03     69.0063E-03
            2139     11.4723E-03     22.5480E-03    -29.1460E+06     46.7489E+06     64.5158E+06     896.190E+03    -165.517E-03     328.516E-03    -162.998E-03     81.3492E-03    -166.771E-03     329.644E-03    -162.701E-03     74.6668E-03
            2140     10.7095E-03     22.4440E-03    -36.2767E+06     9.39777E+06     56.4351E+06     1.44446E+06    -166.154E-03     329.011E-03    -162.858E-03     84.2904E-03    -167.365E-03     329.964E-03    -162.536E-03     77.7840E-03
            2141     9.94665E-03     22.3357E-03    -44.1202E+06    -22.5585E+06     45.3437E+06     1.59876E+06    -166.474E-03     329.120E-03    -162.646E-03     85.3603E-03    -167.630E-03     329.908E-03    -162.323E-03     79.0700E-03
            2142     9.18362E-03     22.2263E-03    -51.3804E+06    -52.8143E+06     34.8746E+06     1.04294E+06    -166.552E-03     328.942E-03    -162.390E-03     84.6689E-03    -167.634E-03     329.553E-03    -162.064E-03     78.6270E-03
            2143     8.42092E-03     22.1175E-03    -58.6833E+06    -77.8300E+06     24.7908E+06     462.056E+03    -166.339E-03     328.427E-03    -162.088E-03     82.6204E-03    -167.340E-03     328.872E-03    -161.766E-03     76.8695E-03
            2144     7.65777E-03     22.0110E-03    -66.2894E+06    -100.308E+06     14.2567E+06     374.221E+03    -165.887E-03     327.637E-03    -161.750E-03     79.3792E-03    -166.799E-03     327.917E-03    -161.437E-03     73.9762E-03
            2145     6.89445E-03     21.9088E-03    -74.1537E+06    -122.319E+06     2.68402E+06     463.231E+03    -165.266E-03     326.649E-03    -161.383E-03     74.9573E-03    -166.077E-03     326.755E-03    -161.085E-03     69.9645E-03
            2146     6.13074E-03     21.8122E-03    -82.6649E+06    -145.089E+06    -10.3118E+06     467.511E+03    -164.414E-03     325.415E-03    -161.001E-03     69.4883E-03    -165.117E-03     325.339E-03    -160.722E-03     64.9635E-03
            2147     5.36625E-03     21.7228E-03    -91.9037E+06    -167.380E+06    -24.9498E+06     528.288E+03    -163.395E-03     324.015E-03    -160.620E-03     63.0578E-03    -163.988E-03     323.760E-03    -160.369E-03     59.0502E-03
            2148     4.60089E-03     21.6425E-03    -101.365E+06    -190.576E+06    -41.7285E+06     587.004E+03    -162.420E-03     322.674E-03    -160.253E-03     55.7593E-03    -162.905E-03     322.243E-03    -160.039E-03     52.3024E-03
            2149     3.83529E-03     21.5718E-03    -111.034E+06    -214.856E+06    -60.7322E+06     471.983E+03    -161.529E-03     321.430E-03    -159.901E-03     47.6960E-03    -161.909E-03     320.829E-03    -159.732E-03     44.8078E-03
            2150     3.06924E-03     21.5125E-03    -120.932E+06    -239.318E+06    -81.7688E+06     447.866E+03    -160.633E-03     320.208E-03    -159.575E-03     38.9978E-03    -160.919E-03     319.452E-03    -159.461E-03     36.6923E-03
            2151     2.30231E-03     21.4653E-03    -130.075E+06    -263.576E+06    -103.938E+06     598.186E+03    -159.851E-03     319.153E-03    -159.302E-03     29.8666E-03    -160.053E-03     318.259E-03    -159.251E-03     28.1460E-03
            2152     1.53498E-03     21.4304E-03    -138.005E+06    -285.685E+06    -124.705E+06     640.691E+03    -159.303E-03     318.410E-03    -159.108E-03     20.4298E-03    -159.438E-03     317.403E-03    -159.117E-03     19.2738E-03
            2153     767.538E-06     21.4092E-03    -142.893E+06    -299.370E+06    -139.759E+06     317.394E+03    -159.033E-03     318.037E-03    -159.004E-03     11.1766E-03    -159.124E-03     316.963E-03    -159.061E-03     10.5364E-03
            2154     14.5294E-03     21.5523E-03    -5.98295E+06     95.1344E+06     103.506E+06     260.088E+03    -163.768E-03     327.063E-03    -163.295E-03     34.9049E-03    -164.623E-03     327.934E-03    -162.907E-03     28.9899E-03
            2155     13.7654E-03     21.4918E-03    -11.5899E+06     96.7794E+06     97.0041E+06     656.447E+03    -164.071E-03     327.263E-03    -163.192E-03     56.1485E-03    -165.213E-03     328.426E-03    -162.830E-03     49.2071E-03
            2156     13.0017E-03     21.4198E-03    -17.1667E+06     90.1696E+06     84.8842E+06     588.762E+03    -164.707E-03     327.758E-03    -163.051E-03     65.9805E-03    -165.902E-03     328.965E-03    -162.732E-03     59.1495E-03
            2157     12.2388E-03     21.3309E-03    -24.0890E+06     76.9567E+06     73.2628E+06     717.430E+03    -165.463E-03     328.351E-03    -162.889E-03     75.0239E-03    -166.723E-03     329.587E-03    -162.599E-03     68.1995E-03
            2158     11.4759E-03     21.2327E-03    -31.6776E+06     45.3776E+06     62.7263E+06     1.80607E+06    -166.251E-03     328.962E-03    -162.711E-03     80.1232E-03    -167.497E-03     330.075E-03    -162.417E-03     73.4641E-03
            2159     10.7130E-03     21.1276E-03    -38.5596E+06     9.99017E+06     55.4860E+06     2.16528E+06    -166.936E-03     329.427E-03    -162.491E-03     82.4306E-03    -168.136E-03     330.364E-03    -162.172E-03     75.9603E-03
            2160     9.95084E-03     21.0203E-03    -44.9387E+06    -21.1278E+06     45.2862E+06     1.32758E+06    -167.349E-03     329.530E-03    -162.181E-03     82.7980E-03    -168.481E-03     330.296E-03    -161.858E-03     76.5479E-03
            2161     9.18896E-03     20.9110E-03    -51.2996E+06    -51.5650E+06     35.2369E+06     584.711E+03    -167.341E-03     329.147E-03    -161.806E-03     81.4776E-03    -168.386E-03     329.725E-03    -161.481E-03     75.5025E-03
            2162     8.42668E-03     20.8035E-03    -58.2301E+06    -77.2982E+06     25.0933E+06     110.065E+03    -166.922E-03     328.297E-03    -161.375E-03     78.8698E-03    -167.878E-03     328.699E-03    -161.053E-03     73.2179E-03
            2163     7.66410E-03     20.6983E-03    -65.5889E+06    -100.310E+06     14.5272E+06    -60.6545E+03    -166.209E-03     327.113E-03    -160.904E-03     75.3118E-03    -167.072E-03     327.344E-03    -160.590E-03     70.0344E-03
            2164     6.90094E-03     20.5973E-03    -73.5173E+06    -122.460E+06     2.91615E+06     8.79120E+03    -165.287E-03     325.691E-03    -160.405E-03     70.7189E-03    -166.049E-03     325.749E-03    -160.106E-03     65.8708E-03
            2165     6.13713E-03     20.5026E-03    -81.8747E+06    -145.047E+06    -9.91151E+06     203.786E+03    -164.173E-03     324.066E-03    -159.893E-03     65.1700E-03    -164.829E-03     323.946E-03    -159.614E-03     60.7999E-03
            2166     5.37249E-03     20.4153E-03    -90.7501E+06    -167.228E+06    -24.3893E+06     277.151E+03    -162.950E-03     322.331E-03    -159.381E-03     58.7569E-03    -163.501E-03     322.037E-03    -159.129E-03     54.9065E-03
            2167     4.60724E-03     20.3365E-03    -100.269E+06    -190.442E+06    -40.9811E+06     393.542E+03    -161.683E-03     320.567E-03    -158.885E-03     51.6121E-03    -162.132E-03     320.103E-03    -158.668E-03     48.3109E-03
            2168     3.84093E-03     20.2676E-03    -110.095E+06    -214.489E+06    -59.9157E+06     544.997E+03    -160.422E-03     318.843E-03    -158.421E-03     43.9077E-03    -160.775E-03     318.217E-03    -158.250E-03     41.1683E-03
            2169     3.07363E-03     20.2099E-03    -119.856E+06    -239.043E+06    -80.9475E+06     494.366E+03    -159.317E-03     317.323E-03    -158.006E-03     35.7382E-03    -159.583E-03     316.549E-03    -157.890E-03     33.5568E-03
            2170     2.30601E-03     20.1638E-03    -129.431E+06    -263.578E+06    -103.181E+06     657.163E+03    -158.410E-03     316.059E-03    -157.649E-03     27.2653E-03    -158.600E-03     315.153E-03    -157.595E-03     25.6402E-03
            2171     1.53769E-03     20.1303E-03    -137.202E+06    -284.627E+06    -123.588E+06     813.097E+03    -157.728E-03     315.090E-03    -157.363E-03     18.4962E-03    -157.857E-03     314.080E-03    -157.369E-03     17.4139E-03
            2172     768.791E-06     20.1091E-03    -142.782E+06    -298.124E+06    -138.564E+06     521.341E+03    -157.307E-03     314.434E-03    -157.126E-03     9.96912E-03    -157.399E-03     313.362E-03    -157.180E-03     9.37907E-03
            2173     14.5294E-03     20.2346E-03    -5.52117E+06     94.8661E+06     103.620E+06     386.178E+03    -164.817E-03     328.073E-03    -163.256E-03     34.7508E-03    -165.676E-03     328.948E-03    -162.867E-03     28.7603E-03
            2174     13.7673E-03     20.1761E-03    -11.2520E+06     96.4647E+06     96.9385E+06     209.709E+03    -165.261E-03     328.347E-03    -163.086E-03     55.8330E-03    -166.408E-03     329.516E-03    -162.725E-03     48.7928E-03
            2175     13.0048E-03     20.1030E-03    -17.7402E+06     88.8870E+06     83.6407E+06     1.50976E+06    -165.948E-03     328.811E-03    -162.863E-03     65.6773E-03    -167.144E-03     330.018E-03    -162.548E-03     58.7999E-03
            2176     12.2420E-03     20.0150E-03    -24.9468E+06     75.9311E+06     72.1737E+06     3.08480E+06    -166.864E-03     329.471E-03    -162.606E-03     74.2090E-03    -168.120E-03     330.698E-03    -162.319E-03     67.3722E-03
            2177     11.4799E-03     19.9158E-03    -31.9887E+06     46.0870E+06     62.8366E+06     2.82533E+06    -167.748E-03     330.060E-03    -162.312E-03     78.2475E-03    -168.978E-03     331.157E-03    -162.018E-03     71.5881E-03
            2178     10.7187E-03     19.8115E-03    -38.1368E+06     12.6376E+06     56.5963E+06     1.28657E+06    -168.304E-03     330.259E-03    -161.955E-03     79.4075E-03    -169.472E-03     331.172E-03    -161.635E-03     72.9618E-03
            2179     9.95757E-03     19.7035E-03    -43.9543E+06    -19.7151E+06     46.1528E+06     3.80066E+03    -168.557E-03     330.048E-03    -161.491E-03     78.8785E-03    -169.639E-03     330.771E-03    -161.168E-03     72.6922E-03
            2180     9.19648E-03     19.5960E-03    -50.1664E+06    -51.4192E+06     35.7260E+06    -424.259E+03    -168.391E-03     329.340E-03    -160.949E-03     76.7635E-03    -169.375E-03     329.860E-03    -160.623E-03     70.8919E-03
            2181     8.43517E-03     19.4895E-03    -56.7276E+06    -76.8838E+06     25.8759E+06    -415.005E+03    -167.730E-03     328.066E-03    -160.336E-03     73.4835E-03    -168.618E-03     328.405E-03    -160.013E-03     67.9786E-03
            2182     7.67330E-03     19.3865E-03    -64.0249E+06    -100.282E+06     15.2603E+06    -346.567E+03    -166.655E-03     326.330E-03    -159.675E-03     69.4045E-03    -167.446E-03     326.493E-03    -159.360E-03     64.3121E-03
            2183     6.91051E-03     19.2877E-03    -71.9022E+06    -122.525E+06     3.72319E+06    -150.074E+03    -165.289E-03     324.278E-03    -158.988E-03     64.5267E-03    -165.981E-03     324.269E-03    -158.688E-03     59.8904E-03
            2184     6.14668E-03     19.1953E-03    -80.4064E+06    -145.074E+06    -9.15488E+06    -6.49401E+03    -163.819E-03     322.110E-03    -158.291E-03     58.8166E-03    -164.411E-03     321.929E-03    -158.010E-03     54.6683E-03
            2185     5.38198E-03     19.1102E-03    -89.4989E+06    -167.120E+06    -23.6591E+06     218.547E+03    -162.231E-03     319.825E-03    -157.595E-03     52.5918E-03    -162.726E-03     319.479E-03    -157.341E-03     48.9650E-03
            2186     4.61604E-03     19.0339E-03    -99.0174E+06    -190.373E+06    -40.2000E+06     386.133E+03    -160.555E-03     317.477E-03    -156.923E-03     45.9396E-03    -160.958E-03     316.970E-03    -156.704E-03     42.8519E-03
            2187     3.84886E-03     18.9676E-03    -108.979E+06    -214.373E+06    -58.9589E+06     556.810E+03    -158.922E-03     315.222E-03    -156.300E-03     38.7881E-03    -159.241E-03     314.564E-03    -156.126E-03     36.2433E-03
            2188     3.08073E-03     18.9116E-03    -119.010E+06    -238.830E+06    -80.1856E+06     895.386E+03    -157.454E-03     313.200E-03    -155.746E-03     31.3294E-03    -157.696E-03     312.404E-03    -155.628E-03     29.3213E-03
            2189     2.31135E-03     18.8674E-03    -127.930E+06    -263.052E+06    -102.003E+06     989.563E+03    -156.290E-03     311.566E-03    -155.276E-03     23.8222E-03    -156.463E-03     310.646E-03    -155.219E-03     22.3313E-03
            2190     1.54147E-03     18.8348E-03    -135.871E+06    -283.564E+06    -122.282E+06     877.275E+03    -155.416E-03     310.305E-03    -154.889E-03     16.2480E-03    -155.536E-03     309.291E-03    -154.892E-03     15.2584E-03
            2191     771.330E-06     18.8150E-03    -141.754E+06    -296.496E+06    -138.205E+06     775.461E+03    -154.768E-03     309.378E-03    -154.610E-03     8.82802E-03    -154.855E-03     308.310E-03    -154.666E-03     8.30254E-03
            2192     14.5311E-03     18.9178E-03    -5.22477E+06     94.8711E+06     103.541E+06    -35.0438E+03    -165.845E-03     329.047E-03    -163.202E-03     34.4758E-03    -166.702E-03     329.922E-03    -162.815E-03     28.4382E-03
            2193     13.7683E-03     18.8577E-03    -11.1201E+06     96.1268E+06     97.6929E+06     1.27543E+06    -166.511E-03     329.482E-03    -162.971E-03     55.8484E-03    -167.661E-03     330.650E-03    -162.606E-03     48.7824E-03
            2194     13.0067E-03     18.7856E-03    -17.3335E+06     84.7965E+06     84.1911E+06     2.27192E+06    -167.933E-03     330.582E-03    -162.649E-03     65.1876E-03    -169.121E-03     331.766E-03    -162.326E-03     58.2548E-03
            2195     12.2461E-03     18.6964E-03    -22.6663E+06     73.8744E+06     73.6965E+06     3.60191E+06    -169.271E-03     331.508E-03    -162.238E-03     72.3051E-03    -170.500E-03     332.706E-03    -161.943E-03     65.4109E-03
            2196     11.4865E-03     18.5973E-03    -27.7511E+06     50.3656E+06     66.1413E+06     3.37050E+06    -170.063E-03     331.814E-03    -161.751E-03     75.0441E-03    -171.250E-03     332.890E-03    -161.453E-03     68.3798E-03
            2197     10.7270E-03     18.4934E-03    -33.7647E+06     16.0499E+06     59.2936E+06     1.10461E+06    -170.424E-03     331.608E-03    -161.183E-03     75.2461E-03    -171.532E-03     332.481E-03    -160.861E-03     68.8441E-03
            2198     9.96733E-03     18.3870E-03    -40.4954E+06    -18.2525E+06     47.9606E+06    -116.889E+03    -170.346E-03     330.841E-03    -160.496E-03     73.5722E-03    -171.354E-03     331.502E-03    -160.171E-03     67.4902E-03
            2199     9.20765E-03     18.2803E-03    -47.5173E+06    -50.9725E+06     36.9474E+06    -634.395E+03    -169.745E-03     329.464E-03    -159.719E-03     70.3878E-03    -170.648E-03     329.910E-03    -159.391E-03     64.6734E-03
            2200     8.44755E-03     18.1764E-03    -54.7076E+06    -76.9557E+06     26.7820E+06    -619.097E+03    -168.686E-03     327.550E-03    -158.864E-03     66.5152E-03    -169.490E-03     327.810E-03    -158.540E-03     61.2079E-03
            2201     7.68651E-03     18.0758E-03    -62.2522E+06    -100.250E+06     16.1420E+06    -325.391E+03    -167.216E-03     325.167E-03    -157.951E-03     61.9828E-03    -167.925E-03     325.253E-03    -157.635E-03     57.1176E-03
            2202     6.92425E-03     17.9806E-03    -70.3558E+06    -122.498E+06     4.53441E+06    -48.4611E+03    -165.365E-03     322.370E-03    -157.005E-03     56.8682E-03    -165.980E-03     322.287E-03    -156.702E-03     52.4798E-03
            2203     6.16068E-03     17.8908E-03    -79.0456E+06    -144.978E+06    -8.44958E+06     278.884E+03    -163.273E-03     319.327E-03    -156.054E-03     51.3115E-03    -163.797E-03     319.080E-03    -155.771E-03     47.4294E-03
            2204     5.39546E-03     17.8093E-03    -88.0658E+06    -167.081E+06    -22.8442E+06     472.179E+03    -161.081E-03     316.204E-03    -155.124E-03     45.3587E-03    -161.517E-03     315.802E-03    -154.868E-03     41.9952E-03
            2205     4.62852E-03     17.7363E-03    -97.5478E+06    -190.091E+06    -39.2063E+06     732.534E+03    -158.903E-03     313.141E-03    -154.238E-03     39.2306E-03    -159.258E-03     312.589E-03    -154.017E-03     36.3936E-03
            2206     3.86024E-03     17.6727E-03    -107.433E+06    -214.063E+06    -58.1243E+06     889.555E+03    -156.824E-03     310.242E-03    -153.419E-03     32.8764E-03    -157.105E-03     309.550E-03    -153.243E-03     30.5568E-03
            2207     3.09020E-03     17.6200E-03    -117.240E+06    -238.412E+06    -79.2194E+06      884.67E+03    -154.944E-03     307.636E-03    -152.691E-03     26.4865E-03    -155.159E-03     306.817E-03    -152.572E-03     24.6687E-03
            2208     2.31900E-03     17.5777E-03    -126.811E+06    -262.607E+06    -100.720E+06     1.17791E+06    -153.373E-03     305.461E-03    -152.087E-03     20.0534E-03    -153.531E-03     304.527E-03    -152.026E-03     18.7164E-03
            2209     1.54658E-03     17.5471E-03    -135.049E+06    -282.314E+06    -121.057E+06     1.54494E+06    -152.150E-03     303.789E-03    -151.639E-03     13.5416E-03    -152.264E-03     302.772E-03    -151.639E-03     12.6628E-03
            2210     772.953E-06     17.5283E-03    -140.217E+06    -293.908E+06    -136.510E+06     997.848E+03    -151.369E-03     302.856E-03    -151.486E-03     7.43122E-03    -151.454E-03     301.794E-03    -151.539E-03     6.96496E-03
            2211     14.5309E-03     17.5982E-03    -5.22813E+06     94.1022E+06     102.439E+06     99.4429E+03    -167.242E-03     330.378E-03    -163.136E-03     34.6623E-03    -168.100E-03     331.254E-03    -162.753E-03     28.5641E-03
            2212     13.7704E-03     17.5395E-03    -11.0396E+06     95.5298E+06     97.5698E+06     149.940E+03    -168.688E-03     331.494E-03    -162.806E-03     55.2373E-03    -169.838E-03     332.661E-03    -162.440E-03     48.0506E-03
            2213     13.0106E-03     17.4640E-03    -15.7444E+06     82.3111E+06     85.3542E+06     974.608E+03    -170.737E-03     333.069E-03    -162.332E-03     63.6198E-03    -171.908E-03     334.229E-03    -162.002E-03     56.5658E-03
            2214     12.2529E-03     17.3745E-03    -20.4827E+06     71.0851E+06     74.9230E+06     2.12642E+06    -172.306E-03     334.019E-03    -161.713E-03     69.4452E-03    -173.497E-03     335.173E-03    -161.412E-03     62.4717E-03
            2215     11.4953E-03     17.2764E-03    -25.7273E+06     53.5085E+06     68.3919E+06     2.57252E+06    -173.033E-03     334.013E-03    -160.981E-03     71.1388E-03    -174.178E-03     335.059E-03    -160.679E-03     64.4553E-03
            2216     10.7379E-03     17.1734E-03    -31.7315E+06     19.7555E+06     61.1241E+06     1.44765E+06    -173.200E-03     333.337E-03    -160.137E-03     70.1276E-03    -174.252E-03     334.170E-03    -159.814E-03     63.7749E-03
            2217     9.98097E-03     17.0686E-03    -38.5383E+06    -16.7211E+06     49.2630E+06     415.259E+03    -172.665E-03     331.821E-03    -159.157E-03     67.3600E-03    -173.604E-03     332.422E-03    -158.830E-03     61.3872E-03
            2218     9.22322E-03     16.9651E-03    -45.6161E+06    -49.7326E+06     38.2119E+06     251.499E+03    -171.472E-03     329.551E-03    -158.079E-03     63.5039E-03    -172.300E-03     329.930E-03    -157.750E-03     57.9556E-03
            2219     8.46417E-03     16.8641E-03    -53.2591E+06    -76.7300E+06     27.3372E+06    -42.7311E+03    -169.866E-03     326.783E-03    -156.917E-03     58.9594E-03    -170.594E-03     326.970E-03    -156.592E-03     53.8533E-03
            2220     7.70401E-03     16.7672E-03    -61.0314E+06    -100.180E+06     16.5287E+06    -3.36686E+03    -167.824E-03     323.514E-03    -155.690E-03     53.8866E-03    -168.458E-03     323.529E-03    -155.373E-03     49.2466E-03
            2221     6.94241E-03     16.6758E-03    -69.0733E+06    -122.427E+06     4.93243E+06     317.469E+03    -165.316E-03     319.744E-03    -154.429E-03     48.5944E-03    -165.861E-03     319.595E-03    -154.126E-03     44.4535E-03
            2222     6.17860E-03     16.5911E-03    -77.6432E+06    -144.790E+06    -7.93746E+06     666.063E+03    -162.490E-03     315.664E-03    -153.174E-03     43.2096E-03    -162.950E-03     315.358E-03    -152.891E-03     39.5883E-03
            2223     5.41260E-03     16.5136E-03    -86.6336E+06    -166.775E+06    -22.1686E+06     947.031E+03    -159.596E-03     311.557E-03    -151.961E-03     37.6267E-03    -159.979E-03     311.105E-03    -151.704E-03     34.5255E-03
            2224     4.64469E-03     16.4450E-03    -96.1024E+06    -189.675E+06    -38.5511E+06     1.19492E+06    -156.725E-03     307.544E-03    -150.819E-03     32.0660E-03    -157.037E-03     306.953E-03    -150.598E-03     29.4797E-03
            2225     3.87425E-03     16.3855E-03    -105.994E+06    -213.398E+06    -57.3241E+06     1.25415E+06    -154.021E-03     303.805E-03    -149.784E-03     26.6137E-03    -154.269E-03     303.085E-03    -149.607E-03     24.5199E-03
            2226     3.10211E-03     16.3362E-03    -116.178E+06    -237.858E+06    -78.0665E+06     1.52379E+06    -151.705E-03     300.582E-03    -148.877E-03     21.2734E-03    -151.898E-03     299.744E-03    -148.754E-03     19.6471E-03
            2227     2.32821E-03     16.2969E-03    -125.737E+06    -261.912E+06    -99.9463E+06     1.84599E+06    -149.755E-03     297.873E-03    -148.118E-03     15.9351E-03    -149.899E-03     296.930E-03    -148.056E-03     14.7511E-03
            2228     1.55291E-03     16.2688E-03    -133.574E+06    -280.203E+06    -120.085E+06     1.45578E+06    -148.280E-03     295.814E-03    -147.535E-03     10.6173E-03    -148.386E-03     294.798E-03    -147.535E-03     9.83796E-03
            2229     777.038E-06     16.2511E-03    -139.122E+06    -291.388E+06    -135.079E+06     803.957E+03    -147.172E-03     294.506E-03    -147.334E-03     5.70988E-03    -147.256E-03     293.451E-03    -147.385E-03     5.30137E-03
            2230     14.5326E-03     16.2774E-03    -5.26880E+06     93.8194E+06     101.622E+06      18.148E+03    -169.580E-03     332.621E-03    -163.042E-03     34.7587E-03    -170.447E-03     333.509E-03    -162.662E-03     28.5201E-03
            2231     13.7736E-03     16.2161E-03    -10.7855E+06     94.9465E+06     96.6265E+06    -429.580E+03    -171.915E-03     334.466E-03    -162.551E-03     55.0928E-03    -173.073E-03     335.643E-03    -162.190E-03     47.7217E-03
            2232     13.0172E-03     16.1397E-03    -16.7774E+06     81.6602E+06     84.3928E+06    -238.802E+03    -174.182E-03     336.049E-03    -161.867E-03     62.2693E-03    -175.350E-03     337.202E-03    -161.539E-03     55.0743E-03
            2233     12.2611E-03     16.0495E-03    -21.9552E+06     70.2260E+06     74.2860E+06     326.076E+03    -175.721E-03     336.725E-03    -161.003E-03     66.4847E-03    -176.894E-03     337.853E-03    -160.702E-03     59.4112E-03
            2234     11.5066E-03     15.9521E-03    -27.0247E+06     53.4073E+06     67.8512E+06     485.343E+03    -176.527E-03     336.511E-03    -159.984E-03     66.8085E-03    -177.640E-03     337.521E-03    -159.683E-03     60.0640E-03
            2235     10.7527E-03     15.8508E-03    -32.4651E+06     22.2489E+06     61.4624E+06     930.633E+03    -176.337E-03     335.157E-03    -158.820E-03     64.7331E-03    -177.349E-03     335.955E-03    -158.498E-03     58.3933E-03
            2236     9.99763E-03     15.7493E-03    -38.8380E+06    -15.3793E+06     49.2048E+06     722.419E+03    -175.264E-03     332.765E-03    -157.502E-03     61.0468E-03    -176.153E-03     333.320E-03    -157.177E-03     55.1481E-03
            2237     9.24160E-03     15.6496E-03    -45.7141E+06    -49.1278E+06     38.0209E+06     496.692E+03    -173.590E-03     329.661E-03    -156.071E-03     56.4519E-03    -174.363E-03     329.988E-03    -155.744E-03     51.0118E-03
            2238     8.48458E-03     15.5528E-03    -52.7341E+06    -75.4912E+06     27.4726E+06     625.408E+03    -171.309E-03     325.851E-03    -154.542E-03     51.2194E-03    -171.979E-03     325.987E-03    -154.219E-03     46.2666E-03
            2239     7.72564E-03     15.4610E-03    -60.3546E+06    -99.9216E+06     16.2525E+06     504.306E+03    -168.435E-03     321.384E-03    -152.949E-03     45.7284E-03    -169.009E-03     321.343E-03    -152.635E-03     41.2797E-03
            2240     6.96413E-03     15.3751E-03    -68.3390E+06    -122.361E+06     4.64175E+06     679.878E+03    -165.164E-03     316.495E-03    -151.331E-03     40.1998E-03    -165.652E-03     316.293E-03    -151.031E-03     36.2725E-03
            2241     6.20024E-03     15.2963E-03    -76.5688E+06    -144.542E+06    -7.91796E+06     1.06408E+06    -161.585E-03     311.312E-03    -149.727E-03     34.7430E-03    -161.993E-03     310.958E-03    -149.446E-03     31.3472E-03
            2242     5.43356E-03     15.2247E-03    -85.4727E+06    -166.367E+06    -22.0233E+06     1.35678E+06    -157.806E-03     305.991E-03    -148.185E-03     29.5301E-03    -158.144E-03     305.498E-03    -147.930E-03     26.6600E-03
            2243     4.66373E-03     15.1616E-03    -95.0848E+06    -189.130E+06    -38.2145E+06     1.64093E+06    -154.112E-03     300.866E-03    -146.754E-03     24.5427E-03    -154.388E-03     300.244E-03    -146.533E-03     22.1731E-03
            2244     3.89138E-03     15.1076E-03    -105.089E+06    -212.451E+06    -56.6414E+06     2.11381E+06    -150.722E-03     296.192E-03    -145.470E-03     19.9798E-03    -150.945E-03     295.452E-03    -145.293E-03     18.0863E-03
            2245     3.11631E-03     15.0623E-03    -115.092E+06    -237.151E+06    -77.1162E+06     2.34354E+06    -147.792E-03     292.156E-03    -144.365E-03     15.7367E-03    -147.967E-03     291.304E-03    -144.239E-03     14.2821E-03
            2246     2.33928E-03     15.0270E-03    -124.299E+06    -260.211E+06    -98.3883E+06     2.25147E+06    -145.452E-03     288.903E-03    -143.451E-03     11.6413E-03    -145.585E-03     287.955E-03    -143.385E-03     10.5875E-03
            2247     1.56061E-03     15.0013E-03    -132.226E+06    -277.417E+06    -118.938E+06     1.80368E+06    -143.708E-03     286.438E-03    -142.730E-03     7.78617E-03    -143.810E-03     285.428E-03    -142.730E-03     7.10092E-03
            2248     780.573E-06     14.9855E-03    -137.926E+06    -288.717E+06    -134.344E+06     1.08836E+06    -142.460E-03     284.760E-03    -142.300E-03     4.17392E-03    -142.541E-03     283.715E-03    -142.353E-03     3.81409E-03
            2249     14.5338E-03     14.9533E-03    -5.70069E+06     93.5427E+06     101.368E+06    -82.3686E+03    -172.622E-03     335.501E-03    -162.879E-03     34.8909E-03    -173.495E-03     336.392E-03    -162.500E-03     28.5279E-03
            2250     13.7782E-03     14.8883E-03    -11.6558E+06     94.3493E+06     96.3206E+06    -300.144E+03    -175.473E-03     337.670E-03    -162.197E-03     54.6769E-03    -176.641E-03     338.852E-03    -161.835E-03     47.1332E-03
            2251     13.0242E-03     14.8109E-03    -16.9314E+06     82.2995E+06     85.0265E+06    -592.421E+03    -178.058E-03     339.332E-03    -161.274E-03     60.4878E-03    -179.229E-03     340.488E-03    -160.943E-03     53.1049E-03
            2252     12.2724E-03     14.7208E-03    -22.4840E+06     70.8586E+06     74.1918E+06    -1.05239E+06    -179.631E-03     339.754E-03    -160.123E-03     63.5247E-03    -180.793E-03     340.873E-03    -159.822E-03     56.3061E-03
            2253     11.5208E-03     14.6241E-03    -28.0263E+06     52.7847E+06     66.7209E+06    -1.21095E+06    -180.164E-03     338.948E-03    -158.785E-03     62.6843E-03    -181.253E-03     339.933E-03    -158.487E-03     55.8481E-03
            2254     10.7689E-03     14.5259E-03    -33.8694E+06     21.4389E+06     59.9366E+06    -579.585E+03    -179.603E-03     336.883E-03    -157.280E-03     59.3503E-03    -180.585E-03     337.648E-03    -156.962E-03     52.9653E-03
            2255     10.0168E-03     14.4286E-03    -39.7999E+06    -14.2783E+06     48.3891E+06     246.698E+03    -178.141E-03     333.736E-03    -155.595E-03     54.7916E-03    -178.997E-03     334.261E-03    -155.275E-03     48.8973E-03
            2256     9.26348E-03     14.3336E-03    -46.1650E+06    -48.2634E+06     37.2022E+06     393.006E+03    -175.885E-03     329.661E-03    -153.776E-03     49.4984E-03    -176.620E-03     329.954E-03    -153.453E-03     44.1051E-03
            2257     8.50794E-03     14.2427E-03    -53.0263E+06    -75.1109E+06     26.4984E+06     477.061E+03    -172.813E-03     324.662E-03    -151.849E-03     43.7609E-03    -173.442E-03     324.761E-03    -151.531E-03     38.8922E-03
            2258     7.74976E-03     14.1577E-03    -60.1470E+06    -99.1819E+06     15.5716E+06     836.927E+03    -169.162E-03     319.021E-03    -149.859E-03     37.8446E-03    -169.695E-03     318.944E-03    -149.550E-03     33.5174E-03
            2259     6.98891E-03     14.0787E-03    -67.9013E+06    -122.164E+06     3.89200E+06     1.03793E+06    -165.040E-03     312.886E-03    -147.846E-03     32.0003E-03    -165.487E-03     312.647E-03    -147.551E-03     28.2167E-03
            2260     6.22475E-03     14.0071E-03    -76.1381E+06    -144.316E+06    -8.42322E+06     1.42999E+06    -160.535E-03     306.397E-03    -145.862E-03     26.5380E-03    -160.906E-03     306.011E-03    -145.585E-03     23.2952E-03
            2261     5.45693E-03     13.9434E-03    -85.0651E+06    -165.790E+06    -22.3799E+06     1.90105E+06    -155.848E-03     299.812E-03    -143.965E-03     21.6366E-03    -156.156E-03     299.295E-03    -143.713E-03     18.9220E-03
            2262     4.68553E-03     13.8874E-03    -94.6087E+06    -188.561E+06    -38.4505E+06     2.32725E+06    -151.279E-03     293.492E-03    -142.212E-03     17.2706E-03    -151.533E-03     292.851E-03    -141.994E-03     15.0551E-03
            2263     3.91052E-03     13.8396E-03    -104.320E+06    -211.645E+06    -56.3970E+06     2.75403E+06    -147.101E-03     287.753E-03    -140.652E-03     13.5504E-03    -147.307E-03     287.000E-03    -140.476E-03     11.7995E-03
            2264     3.13249E-03     13.8003E-03    -114.034E+06    -235.563E+06    -76.2628E+06     2.93295E+06    -143.469E-03     282.792E-03    -139.323E-03     10.3615E-03    -143.632E-03     281.933E-03    -139.197E-03     9.03182E-03
            2265     2.35164E-03     13.7690E-03    -123.437E+06    -258.043E+06    -97.5836E+06     2.67569E+06    -140.566E-03     278.820E-03    -138.253E-03     7.55609E-03    -140.693E-03     277.873E-03    -138.188E-03     6.59989E-03
            2266     1.56897E-03     13.7467E-03    -131.222E+06    -274.455E+06    -117.856E+06     2.18232E+06    -138.491E-03     275.948E-03    -137.457E-03     4.97716E-03    -138.591E-03     274.947E-03    -137.458E-03     4.35732E-03
            2267     784.831E-06     13.7333E-03    -136.337E+06    -285.254E+06    -132.801E+06     1.31774E+06    -137.235E-03     274.174E-03    -136.938E-03     2.61982E-03    -137.315E-03     273.140E-03    -136.991E-03     2.29099E-03
            2268     14.5384E-03     13.6239E-03    -5.32257E+06     93.9763E+06     102.430E+06     245.155E+03    -176.781E-03     339.443E-03    -162.662E-03     36.0013E-03    -177.679E-03     340.358E-03    -162.278E-03     29.3976E-03
            2269     13.7849E-03     13.5575E-03    -10.8009E+06     95.6827E+06     97.8436E+06    -608.620E+03    -179.391E-03     341.136E-03    -161.745E-03     54.8468E-03    -180.587E-03     342.349E-03    -161.379E-03     47.0312E-03
            2270     13.0341E-03     13.4770E-03    -16.6436E+06     82.7703E+06     85.1832E+06    -1.16930E+06    -181.989E-03     342.549E-03    -160.561E-03     59.3675E-03    -183.170E-03     343.719E-03    -160.231E-03     51.7716E-03
            2271     12.2847E-03     13.3880E-03    -22.3957E+06     71.5131E+06     73.8605E+06    -1.53051E+06    -183.653E-03     342.767E-03    -159.114E-03     61.1796E-03    -184.815E-03     343.890E-03    -158.816E-03     53.7828E-03
            2272     11.5361E-03     13.2929E-03    -28.6047E+06     52.8673E+06     65.4430E+06    -1.70998E+06    -183.927E-03     341.371E-03    -157.444E-03     58.8752E-03    -185.008E-03     342.349E-03    -157.152E-03     51.9013E-03
            2273     10.7877E-03     13.1987E-03    -34.7251E+06     20.5779E+06     58.0717E+06    -1.55926E+06    -182.955E-03     338.538E-03    -155.584E-03     54.3168E-03    -183.920E-03     339.286E-03    -155.273E-03     47.8313E-03
            2274     10.0380E-03     13.1061E-03    -40.6595E+06    -14.8002E+06     46.7270E+06    -936.853E+03    -181.024E-03     334.548E-03    -153.523E-03     49.0652E-03    -181.863E-03     335.055E-03    -153.209E-03     43.0932E-03
            2275     9.28644E-03     13.0173E-03    -46.7789E+06    -47.8161E+06     35.8139E+06    -7.65508E+03    -178.111E-03     329.423E-03    -151.312E-03     43.0678E-03    -178.827E-03     329.700E-03    -150.995E-03     37.6384E-03
            2276     8.53247E-03     12.9343E-03    -53.3992E+06    -74.6509E+06     25.1347E+06     361.594E+03    -174.351E-03     323.333E-03    -148.983E-03     36.7278E-03    -174.958E-03     323.415E-03    -148.671E-03     31.8541E-03
            2277     7.77568E-03     12.8568E-03    -60.6065E+06    -99.0592E+06     14.1840E+06     741.402E+03    -169.869E-03     316.456E-03    -146.587E-03     30.4366E-03    -170.380E-03     316.361E-03    -146.284E-03     26.1295E-03
            2278     7.01521E-03     12.7869E-03    -68.2475E+06    -121.790E+06     2.81945E+06     1.40590E+06    -164.742E-03     308.924E-03    -144.182E-03     24.5501E-03    -165.169E-03     308.670E-03    -143.893E-03     20.8148E-03
            2279     6.25049E-03     12.7245E-03    -76.5105E+06    -144.036E+06    -9.53374E+06     1.87398E+06    -159.238E-03     301.074E-03    -141.836E-03     19.3952E-03    -159.592E-03     300.674E-03    -141.564E-03     16.2162E-03
            2280     5.48156E-03     12.6698E-03    -85.1659E+06    -165.337E+06    -23.2637E+06     2.35376E+06    -153.687E-03     293.296E-03    -139.608E-03     15.0708E-03    -153.982E-03     292.770E-03    -139.362E-03     12.4220E-03
            2281     4.70821E-03     12.6226E-03    -94.3469E+06    -187.890E+06    -39.0200E+06     2.82668E+06    -148.342E-03     285.897E-03    -137.556E-03     11.5227E-03    -148.584E-03     285.251E-03    -137.342E-03     9.37246E-03
            2282     3.93069E-03     12.5828E-03    -103.890E+06    -210.712E+06    -56.5036E+06     3.12546E+06    -143.432E-03     279.160E-03    -135.729E-03     8.63069E-03    -143.630E-03     278.405E-03    -135.555E-03     6.93797E-03
            2283     3.14934E-03     12.5499E-03    -113.437E+06    -233.733E+06    -75.8396E+06     3.29925E+06    -139.162E-03     273.333E-03    -134.170E-03     6.25586E-03    -139.321E-03     272.478E-03    -134.046E-03     4.97571E-03
            2284     2.36490E-03     12.5245E-03    -122.490E+06    -255.341E+06    -96.9806E+06     3.02642E+06    -135.698E-03     268.614E-03    -132.917E-03     4.31587E-03    -135.822E-03     267.677E-03    -132.854E-03     3.40143E-03
            2285     1.57770E-03     12.5057E-03    -130.010E+06    -271.497E+06    -116.918E+06     2.14464E+06    -133.225E-03     265.218E-03    -131.993E-03     2.64515E-03    -133.323E-03     264.228E-03    -131.996E-03     2.05060E-03
            2286     789.324E-06     12.4943E-03    -134.662E+06    -281.451E+06    -131.119E+06     1.22792E+06    -131.782E-03     263.149E-03    -131.367E-03     1.18138E-03    -131.861E-03     262.129E-03    -131.419E-03     863.789E-06
            2287     14.5410E-03     12.2900E-03    -5.04144E+06     94.6205E+06     103.382E+06    -454.462E+03    -181.191E-03     343.624E-03    -162.433E-03     37.5217E-03    -182.123E-03     344.574E-03    -162.046E-03     30.6323E-03
            2288     13.7920E-03     12.2202E-03    -10.3287E+06     96.7809E+06     99.1404E+06    -105.355E+03    -183.858E-03     345.120E-03    -161.262E-03     56.2635E-03    -185.098E-03     346.380E-03    -160.892E-03     48.1433E-03
            2289     13.0441E-03     12.1406E-03    -16.7319E+06     83.1759E+06     85.2436E+06    -715.875E+03    -186.374E-03     346.164E-03    -159.789E-03     59.3095E-03    -187.587E-03     347.365E-03    -159.459E-03     51.4533E-03
            2290     12.2979E-03     12.0501E-03    -23.1368E+06     71.5699E+06     72.7142E+06    -1.47489E+06    -187.780E-03     345.807E-03    -158.027E-03     58.9072E-03    -188.961E-03     346.949E-03    -157.734E-03     51.2696E-03
            2291     11.5529E-03     11.9586E-03    -28.6243E+06     54.1142E+06     64.5617E+06    -1.62203E+06    -187.531E-03     343.556E-03    -156.026E-03     55.0926E-03    -188.619E-03     344.549E-03    -155.740E-03     47.9252E-03
            2292     10.8066E-03     11.8689E-03    -34.7592E+06     20.6142E+06     56.5342E+06    -1.92051E+06    -186.139E-03     339.958E-03    -153.819E-03     50.0014E-03    -187.108E-03     340.715E-03    -153.516E-03     43.3351E-03
            2293     10.0595E-03     11.7823E-03    -41.2014E+06    -15.9606E+06     44.6918E+06    -1.43668E+06    -183.714E-03     335.111E-03    -151.397E-03     43.8180E-03    -184.554E-03     335.620E-03    -151.091E-03     37.6809E-03
            2294     9.31002E-03     11.7015E-03    -47.6254E+06    -48.3002E+06     33.9385E+06    -616.437E+03    -180.137E-03     328.948E-03    -148.811E-03     37.0993E-03    -180.854E-03     329.228E-03    -148.502E-03     31.5298E-03
            2295     8.55773E-03     11.6265E-03    -54.3217E+06    -74.6156E+06     23.6188E+06     351.399E+03    -175.515E-03     321.627E-03    -146.112E-03     30.4615E-03    -176.123E-03     321.711E-03    -145.807E-03     25.4854E-03
            2296     7.80156E-03     11.5594E-03    -61.3841E+06    -98.9573E+06     12.8420E+06     1.02677E+06    -169.936E-03     313.308E-03    -143.372E-03     24.4092E-03    -170.448E-03     313.215E-03    -143.075E-03     20.0347E-03
            2297     7.04081E-03     11.4998E-03    -69.0550E+06    -121.747E+06     1.50991E+06     1.45060E+06    -163.786E-03     304.454E-03    -140.668E-03     19.2232E-03    -164.216E-03     304.203E-03    -140.383E-03     15.4419E-03
            2298     6.27530E-03     11.4485E-03    -76.9069E+06    -143.588E+06    -10.6615E+06     1.99779E+06    -157.458E-03     295.523E-03    -138.065E-03     14.9430E-03    -157.816E-03     295.131E-03    -137.798E-03     11.7343E-03
            2299     5.50449E-03     11.4043E-03    -85.3630E+06    -165.024E+06    -24.2883E+06     2.40972E+06    -151.220E-03     286.839E-03    -135.618E-03     11.5075E-03    -151.518E-03     286.319E-03    -135.377E-03     8.83699E-03
            2300     4.72884E-03     11.3672E-03    -94.2152E+06    -187.376E+06    -39.3475E+06     2.90007E+06    -145.352E-03     278.729E-03    -133.377E-03     8.76706E-03    -145.597E-03     278.089E-03    -133.166E-03     6.59513E-03
            2301     3.94870E-03     11.3362E-03    -103.243E+06    -209.485E+06    -56.1072E+06     3.31059E+06    -140.012E-03     271.389E-03    -131.377E-03     6.58636E-03    -140.213E-03     270.642E-03    -131.204E-03     4.87201E-03
            2302     3.16446E-03     11.3114E-03    -112.522E+06    -231.938E+06    -74.9529E+06     3.25335E+06    -135.363E-03     265.017E-03    -129.654E-03     4.78551E-03    -135.524E-03     264.172E-03    -129.529E-03     3.48136E-03
            2303     2.37663E-03     11.2918E-03    -121.319E+06    -252.523E+06    -95.2866E+06     2.84240E+06    -131.566E-03     259.801E-03    -128.235E-03     3.29210E-03    -131.692E-03     258.876E-03    -128.170E-03     2.35563E-03
            2304     1.58638E-03     11.2780E-03    -128.834E+06    -268.181E+06    -115.295E+06     1.99911E+06    -128.686E-03     255.841E-03    -127.155E-03     2.04215E-03    -128.785E-03     254.864E-03    -127.156E-03     1.43241E-03
            2305     793.616E-06     11.2691E-03    -133.803E+06    -278.358E+06    -129.874E+06     778.047E+03    -126.942E-03     253.335E-03    -126.392E-03     931.047E-06    -127.024E-03     252.328E-03    -126.444E-03     599.432E-06
            2306     14.5444E-03     10.9485E-03    -4.67187E+06     94.7808E+06     103.680E+06    -333.166E+03    -185.426E-03     347.631E-03    -162.205E-03     39.0028E-03    -186.393E-03     348.617E-03    -161.817E-03     31.8076E-03
            2307     13.7980E-03     10.8790E-03    -11.2747E+06     95.9832E+06     98.7022E+06    -1.13595E+06    -188.587E-03     349.363E-03    -160.776E-03     57.0436E-03    -189.884E-03     350.674E-03    -160.405E-03     48.5135E-03
            2308     13.0542E-03     10.7970E-03    -16.6244E+06     84.2889E+06     86.0562E+06    -700.355E+03    -191.084E-03     350.088E-03    -159.004E-03     58.8520E-03    -192.346E-03     351.341E-03    -158.672E-03     50.6148E-03
            2309     12.3125E-03     10.7084E-03    -22.3151E+06     73.0196E+06      73.188E+06    -781.050E+03    -191.686E-03     348.611E-03    -156.924E-03     56.9274E-03    -192.900E-03     349.793E-03    -156.632E-03     48.9966E-03
            2310     11.5694E-03     10.6218E-03    -28.5025E+06     55.0049E+06     64.0275E+06    -1.72183E+06    -190.909E-03     345.516E-03    -154.607E-03     52.2253E-03    -192.029E-03     346.545E-03    -154.325E-03     44.7739E-03
            2311     10.8259E-03     10.5367E-03    -34.6953E+06     20.7774E+06     55.5552E+06    -1.62790E+06    -189.064E-03     341.139E-03    -152.076E-03     45.9636E-03    -190.061E-03     341.927E-03    -151.778E-03     39.0200E-03
            2312     10.0806E-03     10.4577E-03    -41.4137E+06    -16.5190E+06     43.3926E+06    -1.10070E+06    -185.856E-03     335.183E-03    -149.327E-03     38.9805E-03    -186.718E-03     335.716E-03    -149.026E-03     32.5989E-03
            2313     9.33284E-03     10.3854E-03    -48.2071E+06    -48.9513E+06     32.4766E+06    -374.510E+03    -181.245E-03     327.683E-03    -146.438E-03     32.1849E-03    -181.984E-03     327.985E-03    -146.135E-03     26.4054E-03
            2314     8.58113E-03     10.3213E-03    -55.0552E+06    -75.2890E+06     22.3155E+06     378.204E+03    -175.317E-03     318.809E-03    -143.492E-03     26.1683E-03    -175.948E-03     318.914E-03    -143.191E-03     21.0242E-03
            2315     7.82451E-03     10.2658E-03    -62.3108E+06    -98.9387E+06     11.8541E+06     1.13426E+06    -168.610E-03     309.190E-03    -140.580E-03     21.2895E-03    -169.147E-03     309.122E-03    -140.287E-03     16.7902E-03
            2316     7.06243E-03     10.2188E-03    -69.5862E+06    -121.319E+06     835.140E+03     1.56733E+06    -161.657E-03     299.432E-03    -137.776E-03     17.5361E-03    -162.110E-03     299.207E-03    -137.495E-03     13.6590E-03
            2317     6.29467E-03     10.1791E-03    -77.4861E+06    -143.344E+06    -11.3599E+06     1.60621E+06    -154.838E-03     289.968E-03    -135.131E-03     14.6185E-03    -155.219E-03     289.600E-03    -134.867E-03     11.3212E-03
            2318     5.52184E-03     10.1466E-03    -85.8098E+06    -164.899E+06    -24.3380E+06     1.98352E+06    -148.374E-03     281.057E-03    -132.683E-03     12.3300E-03    -148.693E-03     280.558E-03    -132.441E-03     9.57939E-03
            2319     4.74387E-03     10.1197E-03    -94.2079E+06    -186.826E+06    -38.4676E+06     2.32198E+06    -142.400E-03     272.865E-03    -130.465E-03     10.4639E-03    -142.664E-03     272.243E-03    -130.250E-03     8.22117E-03
            2320     3.96123E-03     10.0984E-03    -103.111E+06    -208.646E+06    -54.6395E+06     2.44832E+06    -137.076E-03     265.574E-03    -128.498E-03     8.81141E-03    -137.292E-03     264.842E-03    -128.319E-03     7.03166E-03
            2321     3.17449E-03     10.0815E-03    -111.769E+06    -230.317E+06    -72.5544E+06     2.54847E+06    -132.489E-03     259.295E-03    -126.806E-03     7.23047E-03    -132.660E-03     258.463E-03    -126.673E-03     5.87318E-03
            2322     2.38443E-03     10.0689E-03    -120.250E+06    -249.986E+06    -92.8747E+06     2.08173E+06    -128.725E-03     254.133E-03    -125.408E-03     5.69136E-03    -128.859E-03     253.222E-03    -125.336E-03     4.71017E-03
            2323     1.59114E-03     10.0599E-03    -127.618E+06    -265.324E+06    -113.057E+06     1.20357E+06    -125.900E-03     250.233E-03    -124.332E-03     3.96138E-03    -126.004E-03     249.269E-03    -124.328E-03     3.31607E-03
            2324     796.269E-06     10.0548E-03    -132.702E+06    -276.095E+06    -128.304E+06     665.829E+03    -124.009E-03     247.685E-03    -123.676E-03     2.18966E-03    -124.090E-03     246.687E-03    -123.725E-03     1.84627E-03
            2325     14.5478E-03     9.60337E-03    -4.65847E+06     94.7498E+06     103.972E+06    -617.120E+03    -190.229E-03     352.203E-03    -161.974E-03     40.5929E-03    -191.246E-03     353.238E-03    -161.585E-03     32.9913E-03
            2326     13.8051E-03     9.53111E-03    -10.3108E+06     96.1521E+06     98.2672E+06    -508.747E+03    -193.262E-03     353.532E-03    -160.270E-03     57.6276E-03    -194.612E-03     354.902E-03    -159.903E-03     48.6892E-03
            2327     13.0653E-03     9.44740E-03    -16.7120E+06     85.0145E+06     85.3912E+06    -912.718E+03    -194.941E-03     353.164E-03    -158.223E-03     58.2074E-03    -196.254E-03     354.472E-03    -157.895E-03     49.6120E-03
            2328     12.3248E-03     9.36464E-03    -21.8723E+06     74.0460E+06     73.4348E+06    -1.20173E+06    -195.212E-03     351.085E-03    -155.872E-03     55.4273E-03    -196.478E-03     352.324E-03    -155.581E-03     47.1288E-03
            2329     11.5849E-03     9.28046E-03    -27.6704E+06     55.2184E+06     63.5824E+06    -1.00282E+06    -194.123E-03     347.385E-03    -153.262E-03     49.4623E-03    -195.292E-03     348.469E-03    -152.984E-03     41.6263E-03
            2330     10.8440E-03     9.20316E-03    -34.6395E+06     20.8515E+06     54.7458E+06    -438.219E+03    -191.160E-03     341.609E-03    -150.449E-03     42.3263E-03    -192.204E-03     342.447E-03    -150.155E-03     35.0453E-03
            2331     10.1003E-03     9.13262E-03    -41.6755E+06    -16.3780E+06     42.7550E+06     159.249E+03    -186.409E-03     333.890E-03    -147.480E-03     35.5579E-03    -187.316E-03     334.469E-03    -147.183E-03     28.9079E-03
            2332     9.35268E-03     9.07134E-03    -48.7553E+06    -49.3563E+06     31.8310E+06     527.961E+03    -180.090E-03     324.562E-03    -144.472E-03     29.8173E-03    -180.871E-03     324.905E-03    -144.171E-03     23.8399E-03
            2333     8.59961E-03     9.02028E-03    -55.8879E+06    -75.4036E+06     21.8073E+06     904.737E+03    -172.825E-03     314.350E-03    -141.525E-03     25.6760E-03    -173.500E-03     314.498E-03    -141.226E-03     20.3935E-03
            2334     7.84049E-03     8.97802E-03    -63.0755E+06    -98.8193E+06     11.9670E+06     1.03025E+06    -165.341E-03     304.063E-03    -138.722E-03     22.8737E-03    -165.922E-03     304.037E-03    -138.427E-03     18.2699E-03
            2335     7.07552E-03     8.94393E-03    -70.6883E+06    -120.854E+06     1.39295E+06     1.03421E+06    -158.084E-03     294.193E-03    -136.109E-03     20.9719E-03    -158.583E-03     294.009E-03    -135.824E-03     17.0113E-03
            2336     6.30499E-03     8.91657E-03    -78.4084E+06    -142.842E+06    -9.93017E+06     975.077E+03    -151.294E-03     285.013E-03    -133.720E-03     19.5659E-03    -151.716E-03     284.681E-03    -133.449E-03     16.2060E-03
            2337     5.52901E-03     8.89504E-03    -86.1654E+06    -164.620E+06    -21.7965E+06     653.211E+03    -145.142E-03     276.716E-03    -131.573E-03     18.3833E-03    -145.497E-03     276.244E-03    -131.319E-03     15.5764E-03
            2338     4.74843E-03     8.87847E-03    -94.3253E+06    -186.431E+06    -35.0260E+06     500.967E+03    -139.715E-03     269.393E-03    -129.677E-03     17.1307E-03    -140.008E-03     268.792E-03    -129.445E-03     14.8375E-03
            2339     3.96368E-03     8.86589E-03    -102.531E+06    -208.064E+06    -50.2986E+06     315.075E+03    -135.008E-03     263.045E-03    -128.038E-03     15.5628E-03    -135.245E-03     262.327E-03    -127.839E-03     13.7388E-03
            2340     3.17547E-03     8.85647E-03    -110.962E+06    -229.847E+06    -68.7310E+06     111.722E+03    -131.103E-03     257.765E-03    -126.662E-03     13.5638E-03    -131.289E-03     256.941E-03    -126.511E-03     12.1654E-03
            2341     2.38402E-03     8.85020E-03    -119.011E+06    -248.826E+06    -90.2250E+06     128.778E+03    -128.040E-03     253.590E-03    -125.551E-03     10.9921E-03    -128.180E-03     252.686E-03    -125.469E-03     9.98238E-03
            2342     1.59081E-03     8.84550E-03    -125.947E+06    -264.379E+06    -111.282E+06     186.303E+03    -125.797E-03     250.534E-03    -124.737E-03     7.86695E-03    -125.899E-03     249.573E-03    -124.727E-03     7.20738E-03
            2343     795.762E-06     8.84355E-03    -131.180E+06    -275.165E+06    -126.655E+06     287.655E+03    -124.500E-03     248.749E-03    -124.249E-03     4.51811E-03    -124.579E-03     247.752E-03    -124.293E-03     4.16943E-03
            2344     14.5506E-03     8.25135E-03    -5.82418E+06     93.7877E+06     103.112E+06    -1.56962E+06    -194.524E-03     356.274E-03    -161.750E-03     42.7017E-03    -195.599E-03     357.363E-03    -161.362E-03     34.7423E-03
            2345     13.8129E-03     8.17539E-03    -10.6923E+06     95.9458E+06     98.2843E+06    -547.781E+03    -197.432E-03     357.241E-03    -159.809E-03     59.3919E-03    -198.860E-03     358.687E-03    -159.441E-03     50.0415E-03
            2346     13.0741E-03     8.09811E-03    -15.9147E+06     87.1336E+06     85.7084E+06     23.7836E+03    -198.844E-03     356.345E-03    -157.501E-03     57.6556E-03    -200.222E-03     357.728E-03    -157.176E-03     48.6555E-03
            2347     12.3369E-03     8.01422E-03    -23.0075E+06     73.0142E+06     71.3711E+06    -909.281E+03    -198.422E-03     353.305E-03    -154.883E-03     53.0728E-03    -199.755E-03     354.610E-03    -154.599E-03     44.3141E-03
            2348     11.5999E-03     7.93758E-03    -29.8368E+06     54.4531E+06     61.7709E+06     69.1685E+03    -195.806E-03     347.854E-03    -152.049E-03     46.2452E-03    -197.042E-03     349.000E-03    -151.775E-03     38.0160E-03
            2349     10.8596E-03     7.86857E-03    -36.2553E+06     21.0138E+06     53.7093E+06     831.024E+03    -190.720E-03     339.829E-03    -149.109E-03     39.7214E-03    -191.823E-03     340.725E-03    -148.818E-03     32.1703E-03
            2350     10.1154E-03     7.80993E-03    -42.7131E+06    -16.5848E+06     42.8722E+06     1.26134E+06    -183.634E-03     329.805E-03    -146.171E-03     34.9857E-03    -184.597E-03     330.435E-03    -145.870E-03     28.1879E-03
            2351     9.36481E-03     7.76291E-03     -49.696E+06    -48.6757E+06     33.0457E+06     1.57396E+06    -175.615E-03     318.979E-03    -143.364E-03     32.1180E-03    -176.454E-03     319.375E-03    -143.056E-03     26.0976E-03
            2352     8.60762E-03     7.72564E-03    -57.2141E+06    -74.5584E+06     23.6054E+06     979.756E+03    -167.619E-03     308.381E-03    -140.762E-03     30.7737E-03    -168.353E-03     308.582E-03    -140.453E-03     25.5002E-03
            2353     7.84434E-03     7.69719E-03    -64.3985E+06    -98.0965E+06     14.5455E+06     265.908E+03    -160.112E-03     298.521E-03    -138.409E-03     30.3036E-03    -160.751E-03     298.543E-03    -138.100E-03     25.7330E-03
            2354     7.07516E-03     7.67530E-03    -71.2593E+06    -119.958E+06     5.36367E+06    -626.282E+03    -153.320E-03     289.638E-03    -136.318E-03     30.1091E-03    -153.869E-03     289.494E-03    -136.014E-03     26.1933E-03
            2355     6.30077E-03     7.65930E-03    -78.1912E+06    -142.162E+06    -4.27361E+06    -1.63281E+06    -147.395E-03     281.889E-03    -134.494E-03     29.7081E-03    -147.859E-03     281.585E-03    -134.196E-03     26.3916E-03
            2356     5.52197E-03     7.64762E-03    -85.1265E+06    -164.042E+06    -15.1301E+06    -2.51841E+06    -142.336E-03     275.261E-03    -132.925E-03     28.6596E-03    -142.721E-03     274.807E-03    -132.640E-03     25.8913E-03
            2357     4.73928E-03     7.63938E-03    -92.2401E+06    -186.665E+06    -28.0906E+06    -3.34085E+06    -138.074E-03     269.679E-03    -131.606E-03     26.9158E-03    -138.385E-03     269.082E-03    -131.342E-03     24.6458E-03
            2358     3.95361E-03     7.63376E-03    -99.9496E+06    -209.169E+06    -44.7607E+06    -3.32180E+06    -134.667E-03     265.186E-03    -130.519E-03     24.4518E-03    -134.911E-03     264.462E-03    -130.294E-03     22.6412E-03
            2359     3.16517E-03     7.63047E-03    -108.625E+06    -231.137E+06    -66.3830E+06    -2.78951E+06    -132.116E-03     261.752E-03    -129.636E-03     21.0469E-03    -132.300E-03     260.922E-03    -129.476E-03     19.6530E-03
            2360     2.37547E-03     7.62770E-03    -116.967E+06    -250.588E+06    -89.5936E+06    -1.99131E+06    -130.228E-03     259.179E-03    -128.952E-03     16.6431E-03    -130.361E-03     258.267E-03    -128.867E-03     15.6298E-03
            2361     1.58397E-03     7.62713E-03    -123.769E+06    -265.673E+06    -110.125E+06    -907.707E+03    -128.939E-03     257.422E-03    -128.483E-03     11.6553E-03    -129.033E-03     256.451E-03    -128.469E-03     10.9942E-03
            2362     791.844E-06     7.62579E-03    -128.446E+06    -275.768E+06    -124.552E+06    -445.494E+03    -128.285E-03     256.540E-03    -128.255E-03     6.77749E-03    -128.354E-03     255.533E-03    -128.291E-03     6.42421E-03
            2363     14.5543E-03     6.89350E-03    -5.06020E+06     95.1871E+06     103.984E+06    -767.791E+03    -198.639E-03     360.183E-03    -161.544E-03     43.8539E-03    -199.760E-03     361.323E-03    -161.155E-03     35.5639E-03
            2364     13.8158E-03     6.81831E-03    -11.4786E+06     94.4882E+06     98.2480E+06    -1.79005E+06    -200.988E-03     360.373E-03    -159.385E-03     58.8621E-03    -202.487E-03     361.881E-03    -159.014E-03     49.0468E-03
            2365     13.0829E-03     6.73829E-03    -16.7996E+06     85.7049E+06     85.4558E+06    -460.349E+03    -202.106E-03     358.960E-03    -156.853E-03     56.3871E-03    -203.565E-03     360.416E-03    -156.526E-03     46.8853E-03
            2366     12.3495E-03     6.66354E-03    -22.5391E+06     72.0641E+06     71.1697E+06     1.45023E+06    -199.977E-03     354.022E-03    -154.045E-03     51.1204E-03    -201.381E-03     355.397E-03    -153.761E-03     41.9491E-03
            2367     11.6116E-03     6.59368E-03    -29.3179E+06     53.9049E+06     63.0691E+06     1.92614E+06    -193.990E-03     345.162E-03    -151.172E-03     44.7350E-03    -195.277E-03     346.355E-03    -150.892E-03     36.3297E-03
            2368     10.8701E-03     6.53816E-03    -36.5462E+06     20.9332E+06     56.1793E+06     2.33973E+06    -185.585E-03     334.007E-03    -148.422E-03     40.8231E-03    -186.732E-03     334.938E-03    -148.119E-03     33.3302E-03
            2369     10.1204E-03     6.49519E-03    -44.5510E+06    -16.2066E+06     45.7140E+06     2.29317E+06    -176.495E-03     322.395E-03    -145.900E-03     40.0189E-03    -177.508E-03     323.063E-03    -145.584E-03     33.4280E-03
            2370     9.36357E-03     6.46286E-03    -51.8887E+06    -46.6297E+06     37.4383E+06     996.366E+03    -167.937E-03     311.620E-03    -143.683E-03     40.5532E-03    -168.827E-03     312.054E-03    -143.353E-03     34.8136E-03
            2371     8.60022E-03     6.43951E-03    -57.8751E+06    -72.3017E+06     29.7740E+06    -977.294E+03    -160.421E-03     302.195E-03    -141.774E-03     41.6394E-03    -161.195E-03     302.423E-03    -141.437E-03     36.6693E-03
            2372     7.83108E-03     6.42278E-03    -63.5656E+06    -96.4673E+06     22.3121E+06    -3.12548E+06    -154.070E-03     294.235E-03    -140.165E-03     42.4278E-03    -154.736E-03     294.270E-03    -139.821E-03     38.1434E-03
            2373     7.05732E-03     6.41157E-03    -69.0180E+06    -118.601E+06     14.5425E+06    -5.13081E+06    -148.850E-03     287.676E-03    -138.827E-03     42.4274E-03    -149.414E-03     287.534E-03    -138.482E-03     38.7580E-03
            2374     6.27969E-03     6.40400E-03    -74.2268E+06    -141.492E+06     4.85483E+06    -7.03401E+06    -144.668E-03     282.395E-03    -137.727E-03     41.3310E-03    -145.133E-03     282.081E-03    -137.390E-03     38.2078E-03
            2375     5.49928E-03     6.39920E-03    -79.9177E+06    -164.812E+06    -8.07470E+06    -8.32159E+06    -141.373E-03     278.208E-03    -136.835E-03     39.0957E-03    -141.745E-03     277.735E-03    -136.521E-03     36.4635E-03
            2376     4.71662E-03     6.39697E-03    -86.5190E+06    -189.717E+06    -24.6815E+06    -7.91467E+06    -138.909E-03     275.034E-03    -136.125E-03     35.7068E-03    -139.196E-03     274.410E-03    -135.847E-03     33.5304E-03
            2377     3.93182E-03     6.39586E-03    -94.6383E+06    -213.839E+06    -46.0513E+06    -6.01795E+06    -137.165E-03     272.721E-03    -135.556E-03     31.2329E-03    -137.376E-03     271.968E-03    -135.339E-03     29.4848E-03
            2378     3.14662E-03     6.39493E-03    -103.530E+06    -235.436E+06    -69.7190E+06    -3.46330E+06    -135.926E-03     271.040E-03    -135.114E-03     25.9118E-03    -136.075E-03     270.186E-03    -134.971E-03     24.5643E-03
            2379     2.36017E-03     6.39528E-03    -112.224E+06    -253.843E+06    -91.6300E+06    -1.46798E+06    -135.138E-03     269.933E-03    -134.795E-03     20.0028E-03    -135.242E-03     268.999E-03    -134.722E-03     19.0216E-03
            2380     1.57383E-03     6.39519E-03    -119.688E+06    -267.585E+06    -109.647E+06    -589.468E+03    -134.769E-03     269.323E-03    -134.553E-03     13.7736E-03    -134.842E-03     268.335E-03    -134.540E-03     13.1260E-03
            2381     787.346E-06     6.39534E-03    -124.452E+06    -276.739E+06    -121.846E+06     51.6790E+03    -134.230E-03     268.822E-03    -134.592E-03     7.67866E-03    -134.282E-03     267.800E-03    -134.620E-03     7.33501E-03
            2382     14.5567E-03     5.52937E-03    -4.97067E+06     96.6059E+06     104.878E+06    -564.772E+03    -202.572E-03     363.956E-03    -161.384E-03     45.0156E-03    -203.751E-03     365.156E-03    -160.993E-03     36.3649E-03
            2383     13.8257E-03     5.45643E-03    -11.5581E+06     94.1467E+06     98.5681E+06    -409.141E+03    -203.823E-03     362.858E-03    -159.035E-03     61.2001E-03    -205.429E-03     364.471E-03    -158.662E-03     50.9723E-03
            2384     13.0906E-03     5.37861E-03    -18.5135E+06     82.2384E+06     85.1931E+06    -367.953E+03    -202.828E-03     359.216E-03    -156.388E-03     57.0483E-03    -204.378E-03     360.746E-03    -156.054E-03     47.2059E-03
            2385     12.3558E-03     5.30950E-03    -23.4443E+06     68.8893E+06     72.6545E+06     1.85603E+06    -196.416E-03     350.063E-03    -153.646E-03     51.0618E-03    -197.850E-03     351.450E-03    -153.349E-03     41.9497E-03
            2386     11.6171E-03     5.25672E-03    -29.9497E+06     52.4541E+06     66.9174E+06     4.89286E+06    -186.124E-03     337.254E-03    -151.130E-03     48.8644E-03    -187.423E-03     338.442E-03    -150.828E-03     40.9089E-03
            2387     10.8664E-03     5.21923E-03    -39.0123E+06     22.8687E+06     62.3893E+06     4.75514E+06    -175.684E-03     324.690E-03    -149.006E-03     49.9313E-03    -176.846E-03     325.618E-03    -148.671E-03     43.1084E-03
            2388     10.1082E-03     5.19159E-03    -46.1756E+06    -11.4521E+06     53.8615E+06     846.532E+03    -166.804E-03     314.067E-03    -147.262E-03     51.8115E-03    -167.817E-03     314.721E-03    -146.909E-03     45.9504E-03
            2389     9.34325E-03     5.17309E-03    -50.7588E+06    -43.2048E+06     47.0453E+06    -3.36703E+06    -159.558E-03     305.443E-03    -145.885E-03     53.3523E-03    -160.421E-03     305.839E-03    -145.513E-03     48.3205E-03
            2390     8.57305E-03     5.16018E-03    -54.6783E+06    -69.1341E+06     40.3161E+06    -6.73207E+06    -153.994E-03     298.809E-03    -144.815E-03     54.0244E-03    -154.726E-03     298.987E-03    -144.434E-03     49.6879E-03
            2391     7.79933E-03     5.15226E-03    -58.2526E+06    -93.8606E+06     31.6383E+06    -10.1868E+06    -149.922E-03     293.914E-03    -143.992E-03     53.3931E-03    -150.533E-03     293.893E-03    -143.613E-03     49.6329E-03
            2392     7.02292E-03     5.14731E-03    -61.6869E+06    -118.229E+06     19.6842E+06    -12.9045E+06    -147.004E-03     290.358E-03    -143.354E-03     51.4035E-03    -147.498E-03     290.157E-03    -142.995E-03     48.1327E-03
            2393     6.24501E-03     5.14473E-03    -65.7474E+06    -143.557E+06     4.25981E+06    -13.7375E+06    -144.883E-03     287.749E-03    -142.867E-03     48.1543E-03    -145.268E-03     287.378E-03    -142.542E-03     45.3267E-03
            2394     5.46541E-03     5.14411E-03    -71.6437E+06    -170.190E+06    -14.2069E+06    -12.2227E+06    -143.472E-03     285.974E-03    -142.502E-03     43.8339E-03    -143.760E-03     285.442E-03    -142.222E-03     41.4263E-03
            2395     4.68506E-03     5.14403E-03    -79.7488E+06    -197.900E+06    -34.1947E+06    -8.70409E+06    -142.662E-03     284.891E-03    -142.229E-03     38.6893E-03    -142.869E-03     284.209E-03    -141.997E-03     36.6867E-03
            2396     3.90525E-03     5.14452E-03    -88.8958E+06    -221.920E+06    -55.3608E+06    -4.13635E+06    -142.164E-03     284.174E-03    -142.010E-03     33.0076E-03    -142.308E-03     283.372E-03    -141.836E-03     31.3978E-03
            2397     3.12418E-03     5.14559E-03    -97.7792E+06    -241.171E+06    -75.8199E+06    -383.669E+03    -141.846E-03     283.682E-03    -141.836E-03     26.7795E-03    -141.942E-03     282.791E-03    -141.724E-03     25.5375E-03
            2398     2.34333E-03     5.14617E-03    -105.008E+06    -255.587E+06    -93.2536E+06     1.40960E+06    -141.702E-03     283.405E-03    -141.703E-03     20.2876E-03    -141.761E-03     282.450E-03    -141.647E-03     19.3784E-03
            2399     1.56213E-03     5.14664E-03    -110.157E+06    -267.712E+06    -105.561E+06     1.71519E+06    -141.654E-03     283.252E-03    -141.598E-03     13.8438E-03    -141.683E-03     282.242E-03    -141.577E-03     13.2428E-03
            2400     781.031E-06     5.14681E-03    -113.037E+06    -275.535E+06    -112.215E+06     1.29947E+06    -141.408E-03     283.061E-03    -141.653E-03     7.36034E-03    -141.419E-03     282.013E-03    -141.650E-03     7.03645E-03
            2401     14.5587E-03     4.16614E-03    -6.65194E+06     95.3927E+06     103.473E+06     193.769E+03    -204.868E-03     366.386E-03    -161.518E-03     54.6465E-03    -206.176E-03     367.709E-03    -161.130E-03     45.7810E-03
            2402     13.8227E-03     4.08819E-03    -13.1436E+06     92.6916E+06     98.4110E+06     1.26321E+06    -205.567E-03     364.652E-03    -159.085E-03     68.3426E-03    -207.302E-03     366.385E-03    -158.709E-03     57.9389E-03
            2403     13.0936E-03     4.01729E-03    -19.4255E+06     83.2400E+06     88.3714E+06     2.25804E+06    -197.799E-03     354.356E-03    -156.557E-03     61.4948E-03    -199.378E-03     355.909E-03    -156.208E-03     52.0510E-03
            2404     12.3549E-03     3.96667E-03    -28.7345E+06     64.2879E+06     73.5447E+06     3.17829E+06    -185.468E-03     339.786E-03    -154.318E-03     59.8100E-03    -186.859E-03     341.094E-03    -154.001E-03     51.7683E-03
            2405     11.6006E-03     3.93613E-03    -36.0069E+06     49.9214E+06     68.1163E+06     4.05737E+06    -174.422E-03     326.997E-03    -152.575E-03     60.8678E-03    -175.638E-03     328.069E-03    -152.255E-03     54.2228E-03
            2406     10.8403E-03     3.91270E-03    -39.1025E+06     30.6098E+06     69.5137E+06     1.12802E+06    -165.707E-03     317.012E-03    -151.305E-03     62.1313E-03    -166.754E-03     317.830E-03    -150.945E-03     56.6172E-03
            2407     10.0740E-03     3.89834E-03    -41.8148E+06    -3.62519E+06     61.8401E+06    -5.25284E+06    -159.244E-03     309.623E-03    -150.379E-03     62.0735E-03    -160.109E-03     310.149E-03    -150.004E-03     57.4039E-03
            2408     9.30367E-03     3.88825E-03    -44.8149E+06    -38.1884E+06     50.6706E+06    -11.1672E+06    -154.726E-03     304.455E-03    -149.729E-03     61.0037E-03    -155.432E-03     304.720E-03    -149.355E-03     56.9689E-03
            2409     8.53095E-03     3.88223E-03    -47.1575E+06    -66.4566E+06     37.0860E+06    -15.7420E+06    -151.758E-03     301.034E-03    -149.277E-03     58.5835E-03    -152.326E-03     301.092E-03    -148.926E-03     55.0460E-03
            2410     7.75645E-03     3.87810E-03    -49.4278E+06    -94.1976E+06     21.7884E+06    -18.0019E+06    -149.883E-03     298.858E-03    -148.974E-03     55.1010E-03    -150.327E-03     298.727E-03    -148.657E-03     51.9792E-03
            2411     6.98145E-03     3.87600E-03    -53.5132E+06    -122.207E+06     4.48092E+06    -17.7210E+06    -148.759E-03     297.538E-03    -148.780E-03     50.8212E-03    -149.096E-03     297.237E-03    -148.503E-03     48.0689E-03
            2412     6.20553E-03     3.87566E-03    -60.4587E+06    -152.013E+06    -14.8379E+06    -14.7657E+06    -148.218E-03     296.877E-03    -148.659E-03     45.9398E-03    -148.467E-03     296.413E-03    -148.425E-03     43.5424E-03
            2413     5.42990E-03     3.87579E-03    -68.8358E+06    -181.132E+06    -32.6016E+06    -9.60001E+06    -148.036E-03     296.629E-03    -148.592E-03     40.6608E-03    -148.216E-03     296.013E-03    -148.393E-03     38.6200E-03
            2414     4.65444E-03     3.87654E-03    -77.4823E+06    -208.717E+06    -48.8304E+06    -3.96320E+06    -148.001E-03     296.559E-03    -148.558E-03     35.1230E-03    -148.123E-03     295.803E-03    -148.387E-03     33.4305E-03
            2415     3.87783E-03     3.87762E-03    -85.5958E+06    -230.132E+06    -64.1639E+06     701.293E+03    -148.078E-03     296.611E-03    -148.533E-03     29.4386E-03    -148.155E-03     295.750E-03    -148.396E-03     28.0754E-03
            2416     3.10248E-03     3.87842E-03    -91.6766E+06    -243.687E+06    -78.2500E+06     3.15034E+06    -148.216E-03     296.718E-03    -148.502E-03     23.7171E-03    -148.258E-03     295.793E-03    -148.407E-03     22.6539E-03
            2417     2.32692E-03     3.87955E-03    -95.5331E+06    -255.057E+06    -88.7979E+06     3.52929E+06    -148.334E-03     296.809E-03    -148.475E-03     18.0978E-03    -148.343E-03     295.827E-03    -148.411E-03     17.3116E-03
            2418     1.55148E-03     3.88010E-03    -97.6259E+06    -265.175E+06    -94.8474E+06     3.30483E+06    -148.378E-03     296.846E-03    -148.468E-03     12.3001E-03    -148.359E-03     295.811E-03    -148.417E-03     11.7799E-03
            2419     775.698E-06     3.88067E-03    -99.0303E+06    -270.500E+06    -98.4121E+06     2.13642E+06    -148.412E-03     296.912E-03    -148.499E-03     6.53032E-03    -148.378E-03     295.848E-03    -148.456E-03     6.24889E-03
            2420     14.5419E-03     2.79252E-03    -6.27586E+06     94.0851E+06     104.052E+06     1.73248E+06    -207.222E-03     369.557E-03    -162.336E-03     70.0991E-03    -208.637E-03     370.983E-03    -161.943E-03     61.3839E-03
            2421     13.8193E-03     2.71157E-03    -10.6413E+06     90.0867E+06     100.079E+06     3.78680E+06    -201.056E-03     361.077E-03    -160.021E-03     75.6101E-03    -202.695E-03     362.713E-03    -159.636E-03     66.2364E-03
            2422     13.0788E-03     2.67229E-03    -19.5306E+06     83.0330E+06     88.5024E+06     6.08329E+06    -186.783E-03     344.769E-03    -157.986E-03     69.5378E-03    -188.109E-03     346.068E-03    -157.635E-03     62.1321E-03
            2423     12.3208E-03     2.64408E-03    -27.0603E+06     67.3094E+06     75.2414E+06     4.04353E+06    -174.906E-03     331.393E-03    -156.488E-03     68.2696E-03    -176.003E-03     332.417E-03    -156.170E-03     62.4577E-03
            2424     11.5617E-03     2.62512E-03    -31.0190E+06     54.8129E+06     61.5199E+06    -1.74510E+06    -167.001E-03     322.423E-03    -155.421E-03     64.7097E-03    -167.885E-03     323.214E-03    -155.148E-03     60.0525E-03
            2425     10.7966E-03     2.61358E-03    -33.4851E+06     37.7491E+06     53.1085E+06    -6.80631E+06    -161.319E-03     316.033E-03    -154.713E-03     61.5796E-03    -162.047E-03     316.622E-03    -154.454E-03     57.7154E-03
            2426     10.0284E-03     2.60562E-03    -35.9148E+06     3.81964E+06     40.4448E+06    -11.9917E+06    -157.593E-03     311.852E-03    -154.260E-03     57.8533E-03    -158.170E-03     312.198E-03    -154.011E-03     54.5508E-03
            2427     9.25847E-03     2.60058E-03    -38.5778E+06    -33.5061E+06     22.8651E+06    -17.6168E+06    -155.339E-03     309.304E-03    -153.964E-03     53.6689E-03    -155.781E-03     309.422E-03    -153.745E-03     50.7436E-03
            2428     8.48737E-03     2.59673E-03    -42.2809E+06    -67.8959E+06     7.39007E+06    -20.0543E+06    -153.937E-03     307.739E-03    -153.802E-03     49.1765E-03    -154.270E-03     307.658E-03    -153.605E-03     46.5666E-03
            2429     7.71604E-03     2.59462E-03    -48.2743E+06    -100.985E+06    -8.33574E+06    -18.4748E+06    -153.115E-03     306.847E-03    -153.732E-03     44.4913E-03    -153.365E-03     306.590E-03    -153.557E-03     42.1757E-03
            2430     6.94363E-03     2.59366E-03    -56.2163E+06    -132.823E+06    -22.6428E+06    -14.0117E+06    -152.741E-03     306.476E-03    -153.736E-03     39.7094E-03    -152.930E-03     306.058E-03    -153.575E-03     37.6816E-03
            2431     6.17178E-03     2.59315E-03    -64.6423E+06    -163.621E+06    -35.5043E+06    -8.58516E+06    -152.706E-03     306.492E-03    -153.786E-03     35.0639E-03    -152.845E-03     305.922E-03    -153.632E-03     33.3143E-03
            2432     5.39975E-03     2.59352E-03    -72.4329E+06    -192.736E+06    -46.6439E+06    -3.52103E+06    -152.854E-03     306.714E-03    -153.860E-03     30.6509E-03    -152.949E-03     306.002E-03    -153.709E-03     29.1639E-03
            2433     4.62753E-03     2.59422E-03    -78.9386E+06    -217.479E+06    -56.9695E+06     869.213E+03    -153.130E-03     307.064E-03    -153.934E-03     26.2856E-03    -153.187E-03     306.232E-03    -153.789E-03     25.0498E-03
            2434     3.85675E-03     2.59498E-03    -83.3664E+06    -233.993E+06    -67.3601E+06     3.37724E+06    -153.398E-03     307.383E-03    -153.985E-03     21.8798E-03    -153.420E-03     306.472E-03    -153.862E-03     20.8743E-03
            2435     3.08485E-03     2.59585E-03    -85.9726E+06    -242.754E+06    -76.5363E+06     3.77963E+06    -153.598E-03     307.622E-03    -154.024E-03     17.5190E-03    -153.593E-03     306.670E-03    -153.930E-03     16.7177E-03
            2436     2.31328E-03     2.59666E-03    -87.7969E+06    -253.010E+06    -82.0862E+06     3.52274E+06    -153.792E-03     307.871E-03    -154.080E-03     13.2600E-03    -153.761E-03     306.867E-03    -153.996E-03     12.6600E-03
            2437     1.54193E-03     2.59694E-03    -89.3041E+06    -261.637E+06    -85.7773E+06     3.06373E+06    -153.943E-03     308.089E-03    -154.147E-03     9.01814E-03    -153.894E-03     307.041E-03    -154.067E-03     8.61817E-03
            2438     770.928E-06     2.59781E-03    -90.5462E+06    -264.171E+06    -89.5644E+06     2.06716E+06    -154.152E-03     308.327E-03    -154.175E-03     5.00695E-03    -154.095E-03     307.269E-03    -154.109E-03     4.79602E-03
            2439     14.5282E-03     1.40231E-03    -4.55134E+06     92.3050E+06     105.776E+06     1.88304E+06    -216.626E-03     381.074E-03    -164.448E-03     88.8676E-03    -217.859E-03     382.312E-03    -164.046E-03     81.6849E-03
            2440     13.7860E-03     1.35832E-03    -9.02331E+06     87.6892E+06     101.622E+06     5.29192E+06    -197.804E-03     359.888E-03    -162.084E-03     72.0370E-03    -198.868E-03     360.939E-03    -161.690E-03     66.2608E-03
            2441     13.0330E-03     1.34082E-03    -14.5046E+06     84.5008E+06     85.6311E+06     5.34534E+06    -182.422E-03     342.774E-03    -160.352E-03     57.0228E-03    -183.173E-03     343.526E-03    -160.025E-03     53.1356E-03
            2442     12.2812E-03     1.32396E-03    -17.1728E+06     76.3715E+06     63.2531E+06     1.32829E+06    -173.053E-03     332.186E-03    -159.133E-03     49.7582E-03    -173.638E-03     332.798E-03    -158.903E-03     46.7364E-03
            2443     11.5202E-03     1.31552E-03    -20.9097E+06     62.7353E+06     37.9638E+06    -3.08991E+06    -166.721E-03     324.995E-03    -158.275E-03     43.1357E-03    -167.171E-03     325.485E-03    -158.146E-03     40.7484E-03
            2444     10.7566E-03     1.31019E-03    -26.9115E+06     42.7271E+06     13.6116E+06    -7.29748E+06    -162.679E-03     320.371E-03    -157.692E-03     38.5197E-03    -163.046E-03     320.754E-03    -157.647E-03     36.4898E-03
            2445     9.99112E-03     1.30627E-03    -32.5949E+06     9.90243E+06    -4.87290E+06    -12.0308E+06    -160.132E-03     317.467E-03    -157.335E-03     34.5344E-03    -160.417E-03     317.685E-03    -157.326E-03     32.7419E-03
            2446     9.22433E-03     1.30344E-03    -39.0377E+06    -33.1566E+06    -17.2717E+06    -14.6713E+06    -158.470E-03     315.620E-03    -157.151E-03     30.9295E-03    -158.681E-03     315.624E-03    -157.132E-03     29.3244E-03
            2447     8.45660E-03     1.30174E-03    -47.4460E+06    -74.5116E+06    -25.0807E+06    -13.2771E+06    -157.342E-03     314.429E-03    -157.087E-03     27.6126E-03    -157.505E-03     314.232E-03    -157.036E-03     26.1952E-03
            2448     7.68754E-03     1.30059E-03    -56.8892E+06    -110.494E+06    -32.7959E+06    -9.79945E+06    -156.664E-03     313.758E-03    -157.094E-03     24.4719E-03    -156.797E-03     313.390E-03    -157.015E-03     23.2355E-03
            2449     6.91901E-03     1.29992E-03    -65.0543E+06    -143.257E+06    -39.8716E+06    -6.25357E+06    -156.347E-03     313.498E-03    -157.151E-03     21.5699E-03    -156.451E-03     312.978E-03    -157.049E-03     20.4966E-03
            2450     6.14956E-03     1.29986E-03    -71.0858E+06    -172.720E+06    -45.8259E+06    -2.94103E+06    -156.256E-03     313.502E-03    -157.246E-03     18.8015E-03    -156.329E-03     312.842E-03    -157.122E-03     17.8786E-03
            2451     5.38015E-03     1.30000E-03    -75.8198E+06    -200.139E+06    -52.0043E+06    -45.7533E+03    -156.377E-03     313.738E-03    -157.360E-03     16.1845E-03    -156.417E-03     312.948E-03    -157.220E-03     15.4009E-03
            2452     4.61138E-03     1.30012E-03    -79.3467E+06    -221.486E+06    -58.8325E+06     1.71573E+06    -156.625E-03     314.094E-03    -157.469E-03     13.7788E-03    -156.635E-03     313.207E-03    -157.327E-03     13.1189E-03
            2453     3.84170E-03     1.30050E-03    -81.6312E+06    -234.278E+06    -66.6424E+06     2.32452E+06    -156.901E-03     314.458E-03    -157.557E-03     11.4398E-03    -156.887E-03     313.516E-03    -157.433E-03     10.8901E-03
            2454     3.07337E-03     1.30126E-03    -83.0309E+06    -241.440E+06    -73.8358E+06     2.48466E+06    -157.185E-03     314.814E-03    -157.629E-03     9.23934E-03    -157.153E-03     313.843E-03    -157.528E-03     8.80051E-03
            2455     2.30506E-03     1.30141E-03    -83.9756E+06    -250.757E+06    -78.5062E+06     2.19777E+06    -157.432E-03     315.132E-03    -157.700E-03     6.93611E-03    -157.380E-03     314.119E-03    -157.608E-03     6.60407E-03
            2456     1.53662E-03     1.30218E-03    -84.6000E+06    -258.555E+06    -81.4970E+06     1.57906E+06    -157.622E-03     315.383E-03    -157.762E-03     4.61328E-03    -157.554E-03     314.333E-03    -157.671E-03     4.38777E-03
            2457     768.090E-06     1.30158E-03    -85.0150E+06    -259.676E+06    -83.6014E+06     976.868E+03    -157.824E-03     315.551E-03    -157.727E-03     2.50888E-03    -157.752E-03     314.498E-03    -157.645E-03     2.38971E-03


