********************************************************************************
Field Output Report, written Tue May 28 20:19:31 2024

Source 1
---------

   ODB: G:/Abaqus_calc_2019/1740/Vel_20/odb/zeides_2a_8_red_250_cal_0_vel_20_fric_0100.odb
   Step: Step-1
   Frame: Increment   3163606: Step Time =   0.4127

Loc 1 : Nodal values from source 1

Output sorted by column "Nodal Label".

Field Output reported at nodes for region: DIE_2A_8_D0_36-1.Region_1
   Computation algorithm: EXTRAPOLATE_COMPUTE_AVERAGE
   Averaged at nodes
   Averaging regions: ODB_REGIONS

      Node Label     COORD.COOR1     COORD.COOR2
                          @Loc 1          @Loc 1
-------------------------------------------------
               1     18.7742E-03     128.624E-03


Field Output reported at nodes for region: DIE_2A_8_D0_36-1.Region_2
   Computation algorithm: EXTRAPOLATE_COMPUTE_AVERAGE
   Averaged at nodes
   Averaging regions: ODB_REGIONS

      Node Label     COORD.COOR1     COORD.COOR2
                          @Loc 1          @Loc 1
-------------------------------------------------
               1     18.7742E-03     128.624E-03


Field Output reported at nodes for part: WIRE-1
   Computation algorithm: EXTRAPOLATE_COMPUTE_AVERAGE
   Averaged at nodes
   Averaging regions: ODB_REGIONS

      Node Label     COORD.COOR1     COORD.COOR2           S.S11           S.S22           S.S33           S.S12         PE.PE11         PE.PE22         PE.PE33         PE.PE12         LE.LE11         LE.LE22         LE.LE33         LE.LE12
                          @Loc 1          @Loc 1          @Loc 1          @Loc 1          @Loc 1          @Loc 1          @Loc 1          @Loc 1          @Loc 1          @Loc 1          @Loc 1          @Loc 1          @Loc 1          @Loc 1
-------------------------------------------------------------------------------------------------------------------------------------------------------------------------------------------------------------------------------------------------
               1     45.9275E-09     57.4440E-03    -42.7408E+06    -123.757E+06    -42.7833E+06     192.470E+03    -25.4916E-03     50.9114E-03    -25.4198E-03     3.16172E-03    -25.4637E-03     50.4168E-03    -25.3923E-03     3.16242E-03
               2     17.5506E-03     58.1873E-03    -664.278E+03     109.205E+06     66.9938E+06     450.782E+03    -24.4223E-03     49.8225E-03    -25.4002E-03     19.5842E-03    -24.7234E-03     50.3146E-03    -25.2226E-03     19.5483E-03
               3     17.4791E-03     116.344E-03    -10.0966E+06     28.5385E+06     29.6821E+06    -6.65283E+06     11.3470E-03     16.6419E-03    -27.9889E-03     10.4782E-03     11.2291E-03     16.7732E-03    -27.8672E-03     10.3924E-03
               4     283.567E-09     115.079E-03     18.1886E+06    -3.00816E+06     18.5179E+06    -1.40132E+06    -25.7807E-03     51.7852E-03    -26.0044E-03    -391.759E-06    -25.7140E-03     51.7152E-03    -25.9339E-03    -410.599E-06
               5     130.300E-09     62.4500E-18    -21.0106E+06    -98.3358E+06    -20.8064E+06    -97.2018E+03    -23.3271E-03     46.6262E-03    -23.2991E-03     172.516E-06    -23.2590E-03     46.1954E-03    -23.2301E-03     171.328E-06
               6     17.4556E-03     62.4500E-18    -824.223E+03      83.088E+06     59.8403E+06     3.29720E+06    -34.1018E-03     63.4634E-03    -29.3615E-03     39.3410E-03    -34.3376E-03     63.8133E-03    -29.1816E-03     39.3138E-03
               7     877.409E-06     57.4471E-03    -42.0391E+06    -125.714E+06    -40.7192E+06     330.996E+03    -25.4863E-03     50.9363E-03    -25.4500E-03     5.35955E-03    -25.4553E-03     50.4280E-03    -25.4103E-03     5.36080E-03
               8     1.75481E-03     57.4542E-03    -40.4483E+06    -126.042E+06    -36.2575E+06     356.780E+03    -25.4889E-03     50.9775E-03    -25.4886E-03     9.95686E-03    -25.4563E-03     50.4590E-03    -25.4284E-03     9.95568E-03
               9     2.63220E-03     57.4659E-03    -38.4237E+06    -122.538E+06    -30.9131E+06     211.104E+03    -25.5049E-03     51.0105E-03    -25.5057E-03     14.7619E-03    -25.4755E-03     50.4994E-03    -25.4268E-03     14.7556E-03
              10     3.50964E-03     57.4822E-03    -35.8962E+06    -115.382E+06    -24.9546E+06    -10.2206E+03    -25.5164E-03     51.0325E-03    -25.5161E-03     19.5682E-03    -25.4944E-03     50.5458E-03    -25.4215E-03     19.5554E-03
              11     4.38707E-03     57.5030E-03    -32.9252E+06    -107.495E+06    -18.6427E+06    -115.280E+03    -25.5392E-03     51.0628E-03    -25.5236E-03     24.3288E-03    -25.5243E-03     50.6035E-03    -25.4132E-03     24.3104E-03
              12     5.26455E-03     57.5283E-03    -29.9466E+06    -101.616E+06    -12.7056E+06     79.4042E+03    -25.5843E-03     51.1158E-03    -25.5315E-03     29.0000E-03    -25.5737E-03     50.6749E-03    -25.4042E-03     28.9789E-03
              13     6.14200E-03     57.5580E-03    -27.1489E+06    -93.8919E+06    -7.96286E+06     189.791E+03    -25.6311E-03     51.1619E-03    -25.5308E-03     33.5719E-03    -25.6272E-03     50.7515E-03    -25.3951E-03     33.5462E-03
              14     7.01952E-03     57.5919E-03    -24.5285E+06    -84.7754E+06    -3.78719E+06     166.598E+03    -25.6830E-03     51.2082E-03    -25.5252E-03     38.0148E-03    -25.6891E-03     50.8372E-03    -25.3856E-03     37.9817E-03
              15     7.89703E-03     57.6300E-03    -22.4240E+06    -76.9659E+06    -503.955E+03     365.500E+03    -25.7470E-03     51.2648E-03    -25.5178E-03     42.2801E-03    -25.7637E-03     50.9301E-03    -25.3762E-03     42.2412E-03
              16     8.77456E-03     57.6720E-03    -20.2509E+06    -70.2887E+06     1.77302E+06     822.669E+03    -25.8237E-03     51.3312E-03    -25.5076E-03     46.3040E-03    -25.8492E-03     51.0302E-03    -25.3674E-03     46.2612E-03
              17     9.65208E-03     57.7177E-03    -17.8525E+06    -61.9712E+06     3.14961E+06     580.901E+03    -25.8905E-03     51.3811E-03    -25.4906E-03     50.0956E-03    -25.9271E-03     51.1252E-03    -25.3591E-03     50.0384E-03
              18     10.5297E-03     57.7668E-03    -15.7735E+06    -54.4563E+06     3.70982E+06     45.3493E+03    -25.9459E-03     51.4167E-03    -25.4709E-03     53.5030E-03    -25.9959E-03     51.2067E-03    -25.3505E-03     53.4261E-03
              19     11.4072E-03     57.8189E-03    -14.3227E+06    -44.2109E+06     2.17084E+06     93.0577E+03    -25.9932E-03     51.4307E-03    -25.4375E-03     56.3615E-03    -26.0646E-03     51.2880E-03    -25.3418E-03     56.2712E-03
              20     12.2847E-03     57.8734E-03    -12.9926E+06    -24.7925E+06     3.71816E+06    -80.6000E+03    -26.0348E-03     51.4416E-03    -25.4068E-03     59.6038E-03    -26.1523E-03     51.4141E-03    -25.3334E-03     59.4965E-03
              21     13.1622E-03     57.9318E-03    -11.8321E+06    -4.17800E+06     2.27167E+06    -84.0924E+03    -26.0683E-03     51.4273E-03    -25.3591E-03     63.6644E-03    -26.2436E-03     51.5392E-03    -25.3245E-03     63.5406E-03
              22     14.0404E-03     57.9940E-03    -11.3999E+06     47.1778E+06     10.6716E+06     853.757E+03    -25.8624E-03     51.1728E-03    -25.3104E-03     67.5794E-03    -26.1638E-03     51.5702E-03    -25.3089E-03     67.4613E-03
              23     14.9181E-03     58.0599E-03    -9.92277E+06     96.4067E+06     30.2513E+06     674.390E+03    -25.5571E-03     50.8692E-03    -25.3121E-03     64.0704E-03    -25.9663E-03     51.4978E-03    -25.2863E-03     63.9633E-03
              24     15.7953E-03     58.1148E-03    -7.49715E+06     107.661E+06     47.2936E+06    -312.562E+03    -25.2618E-03     50.6161E-03    -25.3543E-03     56.5900E-03    -25.6993E-03     51.2721E-03    -25.2631E-03     56.4963E-03
              25     16.6761E-03     58.1670E-03    -3.54512E+06     110.767E+06     62.4650E+06    -3.56574E+03    -24.7406E-03     50.1346E-03    -25.3941E-03     36.9987E-03    -25.1198E-03     50.7133E-03    -25.2372E-03     36.9405E-03
              26     17.5539E-03     59.1822E-03    -713.042E+03     109.466E+06     67.2562E+06    -536.906E+03    -24.2030E-03     49.6070E-03    -25.4040E-03     20.2561E-03    -24.5069E-03     50.1020E-03    -25.2254E-03     20.2083E-03
              27     17.5495E-03     60.1808E-03    -2.29543E+06     109.000E+06     66.8707E+06    -293.213E+03    -25.1151E-03     50.5158E-03    -25.4007E-03     19.6246E-03    -25.4259E-03     51.0116E-03    -25.2211E-03     19.5761E-03
              28     17.5536E-03     61.1774E-03    -1.73926E+06     109.354E+06     67.4399E+06    -132.366E+03    -25.1508E-03     50.5561E-03    -25.4053E-03     20.3648E-03    -25.4611E-03     51.0530E-03    -25.2242E-03     20.3177E-03
              29     17.5495E-03     62.1784E-03    -2.51187E+06     108.070E+06     66.7295E+06    -83.5202E+03    -24.7761E-03     50.1926E-03    -25.4166E-03     20.9171E-03    -25.0877E-03     50.6856E-03    -25.2360E-03     20.8725E-03
              30     17.5535E-03     63.1719E-03    -2.59455E+06     108.095E+06     66.5103E+06     747.709E+03    -24.5982E-03     50.0141E-03    -25.4159E-03     20.9939E-03    -24.9090E-03     50.5067E-03    -25.2363E-03     20.9613E-03
              31     17.5500E-03     64.1722E-03    -762.124E+03     109.066E+06     67.1077E+06     357.142E+03    -24.2142E-03     49.6231E-03    -25.4090E-03     20.4848E-03    -24.5169E-03     50.1159E-03    -25.2305E-03     20.4486E-03
              32     17.5541E-03     65.1664E-03    -1.26726E+06     108.895E+06     66.8212E+06    -924.074E+03    -24.2285E-03     49.6337E-03    -25.4052E-03     19.8499E-03    -24.5331E-03     50.1269E-03    -25.2271E-03     19.7973E-03
              33     17.5495E-03     66.1634E-03    -2.88172E+06     108.694E+06     67.6969E+06     154.448E+03    -25.0323E-03     50.4505E-03    -25.4182E-03     19.1832E-03    -25.3457E-03     50.9436E-03    -25.2332E-03     19.1421E-03
              34     17.5527E-03     67.1647E-03    -554.396E+03     109.428E+06     67.3810E+06     872.205E+03    -24.1410E-03     49.5518E-03    -25.4108E-03     21.2014E-03    -24.4452E-03     50.0475E-03    -25.2318E-03     21.1710E-03
              35     17.5527E-03     68.1562E-03    -2.08665E+06     107.997E+06     66.4012E+06    -1.07278E+06    -24.9531E-03     50.3344E-03    -25.3813E-03     20.7758E-03    -25.2609E-03     50.8259E-03    -25.2029E-03     20.7179E-03
              36     17.5501E-03     69.1601E-03    -2.37884E+06     108.649E+06     66.6484E+06     812.452E+03    -25.0896E-03     50.4930E-03    -25.4035E-03     18.0098E-03    -25.3973E-03     50.9848E-03    -25.2243E-03     17.9765E-03
              37     17.5535E-03     70.1499E-03    -400.516E+03     110.621E+06     68.1723E+06    -128.773E+03    -24.0750E-03     49.4948E-03    -25.4198E-03     20.3269E-03    -24.3807E-03     49.9940E-03    -25.2387E-03     20.2846E-03
              38     17.5501E-03     71.1558E-03    -2.64953E+06     108.634E+06     66.8909E+06    -230.554E+03    -24.7461E-03     50.1598E-03    -25.4137E-03     20.4455E-03    -25.0587E-03     50.6547E-03    -25.2329E-03     20.3994E-03
              39     17.5527E-03     72.1455E-03    -2.79915E+06     109.093E+06     67.0524E+06     930.831E+03    -24.7867E-03     50.1982E-03    -25.4116E-03     20.6347E-03    -25.1004E-03     50.6949E-03    -25.2305E-03     20.6036E-03
              40     17.5511E-03     73.1480E-03    -1.40976E+06     110.250E+06     68.6116E+06     90.6279E+03    -24.5676E-03     49.9791E-03    -25.4115E-03     20.1657E-03    -24.8769E-03     50.4758E-03    -25.2262E-03     20.1252E-03
              41     17.5524E-03     74.1441E-03    -332.357E+03     110.375E+06     67.8808E+06    -99.0126E+03    -23.8296E-03     49.2398E-03    -25.4101E-03     20.8137E-03    -24.1343E-03     49.7384E-03    -25.2303E-03     20.7728E-03
              42     17.5523E-03     75.1366E-03    -975.705E+03     110.469E+06     67.7266E+06    -401.675E+03    -24.6939E-03     50.0758E-03    -25.3819E-03     20.2263E-03    -25.0006E-03     50.5749E-03    -25.2020E-03     20.1780E-03
              43     17.5516E-03     76.1417E-03    -2.96157E+06     109.566E+06     66.9196E+06     19.3424E+03    -25.0602E-03     50.4571E-03    -25.3969E-03     20.3024E-03    -25.3754E-03     50.9567E-03    -25.2168E-03     20.2582E-03
              44     17.5515E-03     77.1328E-03    -3.08072E+06     109.265E+06     66.4949E+06     501.526E+03    -24.7934E-03     50.2053E-03    -25.4119E-03     20.2990E-03    -25.1084E-03     50.7045E-03    -25.2334E-03     20.2620E-03
              45     17.5517E-03     78.1325E-03    -1.22446E+06     110.681E+06     68.0079E+06     114.211E+03    -24.8693E-03     50.2683E-03    -25.3990E-03     18.8469E-03    -25.1759E-03     50.7663E-03    -25.2177E-03     18.8052E-03
              46     17.5523E-03     79.1306E-03    -1.45243E+06     110.829E+06     68.0000E+06    -331.672E+03    -24.5834E-03     49.9852E-03    -25.4018E-03     20.5340E-03    -24.8941E-03     50.4870E-03    -25.2204E-03     20.4878E-03
              47     17.5513E-03     80.1276E-03    -1.43147E+06     110.893E+06     67.4532E+06     743.272E+03    -24.3743E-03     49.7778E-03    -25.4035E-03     20.3105E-03    -24.6840E-03     50.2805E-03    -25.2250E-03     20.2789E-03
              48     17.5528E-03     81.1237E-03    -333.481E+03     112.597E+06     68.7077E+06    -307.217E+03    -23.8786E-03     49.2906E-03    -25.4120E-03     19.9183E-03    -24.1866E-03     49.7979E-03    -25.2312E-03     19.8751E-03
              49     17.5512E-03     82.1211E-03    -2.42403E+06     111.277E+06     67.4703E+06    -817.438E+03    -24.8377E-03     50.2353E-03    -25.3975E-03     20.9637E-03    -25.1547E-03     50.7430E-03    -25.2180E-03     20.9092E-03
              50     17.5521E-03     83.1191E-03    -3.10682E+06     110.748E+06     66.8552E+06     895.684E+03    -25.7106E-03     51.0923E-03    -25.3816E-03     20.9487E-03    -26.0283E-03     51.5982E-03    -25.2034E-03     20.9127E-03
              51     17.5513E-03     84.1189E-03    -2.35561E+06     111.804E+06     67.6893E+06     953.673E+03    -24.7697E-03     50.1743E-03    -25.4046E-03     20.4870E-03    -25.0854E-03     50.6823E-03    -25.2249E-03     20.4565E-03
              52     17.5522E-03     85.1131E-03    -1.42134E+06     112.407E+06     67.3213E+06     341.778E+03    -23.9467E-03     49.3495E-03    -25.4028E-03     20.1678E-03    -24.2576E-03     49.8592E-03    -25.2272E-03     20.1325E-03
              53     17.5526E-03     86.1100E-03    -446.073E+03     113.766E+06     68.6193E+06    -448.469E+03    -24.0272E-03     49.4253E-03    -25.3981E-03     19.4089E-03    -24.3362E-03     49.9376E-03    -25.2193E-03     19.3635E-03
              54     17.5513E-03     87.1092E-03    -2.09998E+06     113.347E+06     67.5060E+06    -281.875E+03    -24.3641E-03     49.7593E-03    -25.3952E-03     20.1839E-03    -24.6814E-03     50.2758E-03    -25.2190E-03     20.1384E-03
              55     17.5529E-03     88.1017E-03    -883.918E+03     113.749E+06     67.1356E+06    -27.8999E+03    -24.8026E-03     50.1598E-03    -25.3572E-03     20.2396E-03    -25.1128E-03     50.6761E-03    -25.1852E-03     20.1947E-03
              56     17.5525E-03     89.1056E-03    -1.12016E+06     113.281E+06     67.4809E+06    -377.738E+03    -24.7546E-03     50.1167E-03    -25.3621E-03     19.9035E-03    -25.0656E-03     50.6303E-03    -25.1874E-03     19.8549E-03
              57     17.5516E-03     90.0980E-03    -2.42425E+06     111.910E+06     64.7104E+06     205.985E+03    -24.5223E-03     49.8797E-03    -25.3574E-03     19.8814E-03    -24.8347E-03     50.3931E-03    -25.1926E-03     19.8409E-03
              58     17.5539E-03     91.0951E-03    -2.00031E+06     112.498E+06     65.3621E+06    -497.960E+03    -24.9656E-03     50.2922E-03    -25.3267E-03     19.4401E-03    -25.2766E-03     50.8059E-03    -25.1601E-03     19.3890E-03
              59     17.5517E-03     92.0981E-03    -1.85235E+06     111.610E+06     64.1847E+06    -382.952E+03    -24.9115E-03     50.2233E-03    -25.3118E-03     21.0768E-03    -25.2218E-03     50.7370E-03    -25.1500E-03     21.0267E-03
              60     17.5546E-03     93.0892E-03    -2.03939E+06     110.512E+06     62.7259E+06    -359.048E+03    -25.0036E-03     50.2855E-03    -25.2819E-03     20.9126E-03    -25.3100E-03     50.7951E-03    -25.1255E-03     20.8621E-03
              61     17.5525E-03     94.0921E-03    -1.76265E+06     109.407E+06     61.6986E+06     162.297E+03    -25.1003E-03     50.3511E-03    -25.2508E-03     20.5507E-03    -25.4015E-03     50.8555E-03    -25.0984E-03     20.5070E-03
              62     17.5555E-03     95.0866E-03    -1.11947E+06     108.804E+06     59.3476E+06    -214.444E+03    -24.8870E-03     50.0837E-03    -25.1967E-03     21.6739E-03    -25.1824E-03     50.5893E-03    -25.0561E-03     21.6255E-03
              63     17.5548E-03     96.0842E-03    -545.995E+03     107.416E+06     58.0622E+06    -1.63872E+06    -25.7047E-03     50.8302E-03    -25.1255E-03     20.4697E-03    -25.9918E-03     51.3284E-03    -24.9901E-03     20.3995E-03
              64     17.5562E-03     97.0843E-03    -3.28702E+06     103.479E+06     54.1470E+06    -1.26261E+06    -26.3623E-03     51.4276E-03    -25.0653E-03     20.1908E-03    -26.6529E-03     51.9169E-03    -24.9398E-03     20.1224E-03
              65     17.5564E-03     98.0797E-03    -1.49534E+06     100.912E+06     50.5334E+06    -1.31507E+06    -27.1045E-03     52.0748E-03    -24.9703E-03     21.3907E-03    -27.3788E-03     52.5556E-03    -24.8618E-03     21.3177E-03
              66     17.5587E-03     99.0852E-03    -257.836E+03     98.4276E+06     46.0006E+06    -1.55338E+06    -28.1040E-03     52.9561E-03    -24.8521E-03     23.4953E-03    -28.3650E-03     53.4322E-03    -24.7645E-03     23.4136E-03
              67     17.5589E-03     100.083E-03    -1.77253E+06     93.3707E+06     43.9114E+06    -1.88887E+06    -29.8434E-03     54.6005E-03    -24.7570E-03     24.4637E-03    -30.1039E-03     55.0588E-03    -24.6703E-03     24.3692E-03
              68     17.5597E-03     101.088E-03    -2.94993E+06     87.4415E+06     39.2711E+06    -2.49980E+06    -31.5353E-03     56.1975E-03    -24.6622E-03     24.2194E-03    -31.7874E-03     56.6357E-03    -24.5884E-03     24.1087E-03
              69     17.5606E-03     102.091E-03     85.5318E+03     79.3202E+06     34.7775E+06    -4.48618E+06    -33.0071E-03     57.5692E-03    -24.5621E-03     26.0551E-03    -33.2301E-03     57.9733E-03    -24.5034E-03     25.9097E-03
              70     17.5613E-03     103.098E-03    -1.13411E+06     67.4383E+06     32.8598E+06    -6.95364E+06    -35.5241E-03     60.0036E-03    -24.4795E-03     26.4861E-03    -35.7350E-03     60.3546E-03    -24.4113E-03     26.2949E-03
              71     17.5610E-03     104.107E-03     -737.08E+03     51.3707E+06     30.1042E+06    -7.33569E+06    -37.7966E-03     62.2156E-03    -24.4190E-03     27.5071E-03    -37.9825E-03     62.4940E-03    -24.3419E-03     27.2956E-03
              72     17.5618E-03     105.117E-03    -5.06386E+06     30.3670E+06     24.4480E+06    -9.39009E+06    -40.3353E-03     64.6778E-03    -24.3424E-03     29.7573E-03    -40.5106E-03     64.8721E-03    -24.2569E-03     29.5003E-03
              73     17.5619E-03     106.132E-03     2.47241E+06     8.48839E+06     24.1856E+06    -9.44854E+06    -43.4862E-03     67.7374E-03    -24.2512E-03     31.8273E-03    -43.5973E-03     67.8175E-03    -24.1462E-03     31.5465E-03
              74     17.5632E-03     107.148E-03    -322.338E+03    -10.9846E+06     20.4087E+06    -8.66907E+06    -46.8089E-03     70.9656E-03    -24.1568E-03     33.7061E-03    -46.9081E-03     70.9658E-03    -24.0383E-03     33.4059E-03
              75     17.5623E-03     108.169E-03     363.664E+03    -31.3936E+06     17.0243E+06    -7.76125E+06    -50.1861E-03     74.2509E-03    -24.0648E-03     37.0313E-03    -50.2572E-03     74.1631E-03    -23.9347E-03     36.7112E-03
              76     17.5643E-03     109.195E-03    -1.32350E+06    -52.7535E+06     13.6388E+06    -8.78201E+06    -54.1424E-03     78.0984E-03    -23.9560E-03     43.2961E-03    -54.2009E-03     77.9262E-03    -23.8094E-03     42.9245E-03
              77     17.5633E-03     110.225E-03     5.58576E+06    -66.3556E+06     12.8242E+06    -3.55873E+06    -58.8907E-03     82.7033E-03    -23.8126E-03     49.6240E-03    -58.9076E-03     82.4683E-03    -23.6604E-03     49.2773E-03
              78     17.5657E-03     111.260E-03     1.11661E+06    -60.1121E+06     15.7916E+06     6.12545E+06    -62.4944E-03     86.2160E-03    -23.7216E-03     53.7467E-03    -62.5630E-03     86.0303E-03    -23.5571E-03     53.4803E-03
              79     17.5630E-03     112.296E-03    -13.8778E+06    -64.1531E+06     26.5603E+06    -9.19422E+06    -64.6187E-03     88.3166E-03    -23.6979E-03     59.4105E-03    -64.7963E-03     88.1404E-03    -23.4520E-03     58.8924E-03
              80     17.5698E-03     113.331E-03     16.2157E+06    -80.8894E+06     36.5768E+06    -2.30087E+06    -65.1220E-03     88.7346E-03    -23.6127E-03     68.9865E-03    -65.1706E-03     88.4508E-03    -23.3360E-03     68.5148E-03
              81     17.5668E-03     114.386E-03     7.05366E+06    -54.3279E+06     8.56968E+06     24.6172E+06    -54.7729E-03     78.5662E-03    -23.7933E-03     86.3771E-03    -54.8703E-03     78.4783E-03    -23.6819E-03     86.3342E-03
              82     17.5609E-03     115.418E-03    -9.72523E+06     1.89806E+06     8.44653E+06     11.1853E+06    -16.7573E-03     42.7776E-03    -26.0203E-03     54.3431E-03    -16.9053E-03     42.8943E-03    -25.9667E-03     54.3552E-03
              83     16.5499E-03     116.265E-03    -10.2266E+06    -19.2451E+06     19.2017E+06     4.38219E+06    -5.18431E-03     33.6051E-03    -28.4208E-03     14.1394E-03    -5.23159E-03     33.5047E-03    -28.2820E-03     14.1863E-03
              84     15.6836E-03     116.118E-03    -17.4836E+06     3.66308E+06     18.8196E+06     3.76294E+06    -18.8507E-03     47.6969E-03    -28.8462E-03     20.8565E-03    -18.9773E-03     47.7161E-03    -28.7321E-03     20.8883E-03
              85     14.8045E-03     115.975E-03    -17.2685E+06     8.67346E+06      16.871E+06    -9.14368E+06    -16.8986E-03     45.8796E-03    -28.9810E-03     18.4502E-03    -17.0268E-03     45.9262E-03    -28.8842E-03     18.3168E-03
              86     13.9304E-03     115.850E-03    -9.90548E+06    -11.8397E+06     21.6595E+06    -2.99783E+06    -19.8451E-03     49.0433E-03    -29.1982E-03     10.2147E-03    -19.9148E-03     48.9666E-03    -29.0584E-03     10.1586E-03
              87     13.0609E-03     115.734E-03    -11.4973E+06     8.08383E+06     33.2741E+06    -661.341E+03    -23.7281E-03     52.9808E-03    -29.2527E-03     5.45157E-03    -23.8513E-03     52.9876E-03    -29.0813E-03     5.42396E-03
              88     12.1936E-03     115.633E-03    -10.1214E+06    -3.28186E+06     33.6658E+06    -5.85339E+06    -26.6161E-03     55.7481E-03    -29.1320E-03     2.04747E-03    -26.7159E-03     55.6947E-03    -28.9442E-03     1.95253E-03
              89     11.3281E-03     115.542E-03    -6.10200E+06    -1.19306E+06     37.4933E+06    -4.34730E+06    -28.1485E-03     57.0519E-03    -28.9033E-03     80.4685E-06    -28.2361E-03     56.9974E-03    -28.7053E-03     6.59804E-06
              90     10.4613E-03     115.465E-03    -4.58279E+06    -1.54376E+06     39.0131E+06    -3.16550E+06    -29.0489E-03     57.6626E-03    -28.6136E-03    -757.897E-06    -29.1296E-03     57.6023E-03    -28.4097E-03    -814.378E-06
              91     9.59434E-03     115.395E-03    -3.41471E+06     299.387E+03     40.1828E+06    -3.62335E+06    -29.5296E-03     57.8062E-03    -28.2766E-03    -1.22183E-03    -29.6082E-03     57.7520E-03    -28.0712E-03    -1.28239E-03
              92     8.72634E-03     115.335E-03    -1.64237E+06    -1.09733E+06     40.4530E+06    -3.99322E+06    -29.4694E-03     57.3848E-03    -27.9154E-03    -1.46952E-03    -29.5372E-03     57.3209E-03    -27.7092E-03    -1.53305E-03
              93     7.85763E-03     115.283E-03     348.213E+03    -220.334E+03     39.6599E+06    -3.94844E+06    -29.1080E-03     56.6548E-03    -27.5468E-03    -1.52199E-03    -29.1656E-03     56.5938E-03    -27.3487E-03    -1.58315E-03
              94     6.98758E-03     115.238E-03     2.13347E+06    -879.036E+03     36.9565E+06    -3.61114E+06    -28.6195E-03     55.8062E-03    -27.1867E-03    -1.48287E-03    -28.6630E-03     55.7435E-03    -27.0038E-03    -1.53805E-03
              95     6.11661E-03     115.199E-03     4.31541E+06     190.682E+03     34.6200E+06    -4.00974E+06    -28.0327E-03     54.8841E-03    -26.8514E-03    -1.41086E-03    -28.0632E-03     54.8271E-03    -26.6849E-03    -1.46977E-03
              96     5.24460E-03     115.167E-03     7.02181E+06    -1.22763E+06     31.0653E+06    -3.97742E+06    -27.4197E-03     53.9710E-03    -26.5513E-03    -1.29997E-03    -27.4293E-03     53.9082E-03    -26.4044E-03    -1.35719E-03
              97     4.37171E-03     115.140E-03     9.69013E+06    -248.115E+03     28.0950E+06    -3.55954E+06    -26.8945E-03     53.1892E-03    -26.2946E-03    -1.14730E-03    -26.8878E-03     53.1318E-03    -26.1679E-03    -1.19799E-03
              98     3.49810E-03     115.118E-03     12.2894E+06    -859.494E+03     25.1975E+06    -3.36178E+06    -26.4410E-03     52.5278E-03    -26.0868E-03    -979.100E-06    -26.4162E-03     52.4679E-03    -25.9774E-03    -1.02623E-03
              99     2.62394E-03     115.101E-03     14.9769E+06    -704.403E+03     22.6128E+06    -2.99870E+06    -26.0740E-03     52.0073E-03    -25.9333E-03    -825.631E-06    -26.0321E-03     51.9480E-03    -25.8410E-03    -867.152E-06
             100     1.74935E-03     115.090E-03     17.2760E+06    -1.27541E+06     20.4125E+06    -2.36620E+06    -25.8034E-03     51.6625E-03    -25.8591E-03    -741.338E-06    -25.7459E-03     51.6003E-03    -25.7803E-03    -773.817E-06
             101     874.018E-06     115.081E-03     18.2094E+06    -1.21238E+06     19.3325E+06    -1.68070E+06    -25.7324E-03     51.6578E-03    -25.9254E-03    -562.757E-06    -25.6690E-03     51.5960E-03    -25.8534E-03    -585.582E-06
             102    -469.042E-09     114.079E-03     15.2600E+06    -3.73162E+06     15.3813E+06    -1.25507E+06    -23.2379E-03     46.6299E-03    -23.3920E-03     496.172E-06    -23.1795E-03     46.5658E-03    -23.3318E-03     479.143E-06
             103     396.501E-09     113.092E-03     5.68629E+06    -10.1811E+06     5.74727E+06    -2.37115E+06    -19.1830E-03     38.3530E-03    -19.1700E-03     1.49337E-03    -19.1484E-03     38.2853E-03    -19.1347E-03     1.46196E-03
             104    -296.890E-09     112.109E-03    -8.19249E+06    -19.0277E+06    -8.20335E+06    -2.52239E+06    -16.5938E-03     33.2252E-03    -16.6314E-03     1.83052E-03    -16.5954E-03     33.1538E-03    -16.6329E-03     1.79737E-03
             105     130.504E-09     111.132E-03    -24.2675E+06    -27.2470E+06    -24.1268E+06    -2.39769E+06    -15.1034E-03     30.2990E-03    -15.1956E-03     2.23406E-03    -15.1502E-03     30.2330E-03    -15.2415E-03     2.20274E-03
             106    -127.845E-09     110.155E-03    -43.2036E+06    -35.9863E+06    -42.6467E+06    -3.15595E+06    -14.5621E-03     29.1183E-03    -14.5562E-03     2.70045E-03    -14.6640E-03     29.0630E-03    -14.6546E-03     2.65948E-03
             107     138.583E-09     109.179E-03    -64.4741E+06    -45.7940E+06    -64.8009E+06    -2.91547E+06    -14.5234E-03     29.0730E-03    -14.5496E-03     3.16157E-03    -14.6853E-03     29.0316E-03    -14.7137E-03     3.12377E-03
             108    -204.041E-09     108.202E-03    -86.1524E+06    -53.7983E+06    -86.3225E+06    -1.85944E+06    -14.9432E-03     29.8882E-03    -14.9450E-03     3.41061E-03    -15.1707E-03     29.8694E-03    -15.1737E-03     3.38650E-03
             109     259.127E-09     107.225E-03    -88.1115E+06    -57.0152E+06    -88.9256E+06    -73.2869E+03    -15.7295E-03     31.4416E-03    -15.7121E-03     3.55105E-03    -15.9584E-03     31.4133E-03    -15.9462E-03     3.55001E-03
             110    -298.148E-09     106.245E-03    -62.9504E+06    -52.8060E+06    -63.5798E+06     2.55568E+06    -16.7784E-03     33.6021E-03    -16.8237E-03     3.60400E-03    -16.9243E-03     33.5216E-03    -16.9737E-03     3.63689E-03
             111     244.057E-09     105.264E-03    -37.2628E+06    -44.0459E+06    -36.4048E+06     2.64260E+06    -18.0681E-03     36.0877E-03    -18.0196E-03     3.64196E-03    -18.1377E-03     35.9743E-03    -18.0837E-03     3.67594E-03
             112    -100.423E-09     104.279E-03    -23.1143E+06    -38.2928E+06    -22.9959E+06     1.03682E+06    -19.3465E-03     38.5970E-03    -19.2505E-03     3.68657E-03    -19.3732E-03     38.4725E-03    -19.2765E-03     3.69970E-03
             113     121.901E-09     103.293E-03    -17.4901E+06    -37.1786E+06    -16.8804E+06    -433.535E+03    -20.4621E-03     40.9857E-03    -20.5237E-03     3.62487E-03    -20.4711E-03     40.8498E-03    -20.5288E-03     3.61885E-03
             114    -250.549E-09     102.304E-03    -15.3321E+06    -39.8691E+06    -15.6632E+06    -1.15151E+06    -21.5266E-03     43.1373E-03    -21.6107E-03     3.43860E-03    -21.5227E-03     42.9830E-03    -21.6090E-03     3.42315E-03
             115     222.071E-09     101.313E-03    -16.9495E+06    -43.5017E+06    -16.6621E+06    -1.18550E+06    -22.4999E-03     44.9648E-03    -22.4649E-03     3.36110E-03    -22.4974E-03     44.7961E-03    -22.4605E-03     3.34502E-03
             116    -133.735E-09     100.320E-03    -19.6157E+06    -48.2423E+06    -19.6179E+06    -1.57990E+06    -23.2482E-03     46.4517E-03    -23.2035E-03     3.38070E-03    -23.2479E-03     46.2675E-03    -23.2032E-03     3.35931E-03
             117     119.032E-09     99.3265E-03    -22.7953E+06    -53.5441E+06    -22.7819E+06    -1.59541E+06    -23.8183E-03     47.6287E-03    -23.8104E-03     3.33092E-03    -23.8216E-03     47.4272E-03    -23.8137E-03     3.30913E-03
             118    -95.4039E-09     98.3316E-03    -26.4709E+06    -59.7583E+06    -26.4434E+06    -2.06210E+06    -24.2563E-03     48.5451E-03    -24.2888E-03     3.30789E-03    -24.2636E-03     48.3232E-03    -24.2960E-03     3.27993E-03
             119     9.94061E-09     97.3359E-03    -30.6431E+06    -66.8756E+06    -30.6728E+06    -2.01966E+06    -24.5633E-03     49.2173E-03    -24.6541E-03     3.26484E-03    -24.5750E-03     48.9720E-03    -24.6660E-03     3.23732E-03
             120    -89.1755E-09     96.3400E-03    -34.6156E+06    -73.6436E+06    -34.7041E+06    -1.87606E+06    -24.8565E-03     49.7409E-03    -24.8844E-03     3.23204E-03    -24.8725E-03     49.4733E-03    -24.9009E-03     3.20625E-03
             121     113.658E-09     95.3431E-03    -35.9287E+06    -79.2681E+06    -36.2012E+06    -1.72302E+06    -25.0869E-03     50.1362E-03    -25.0493E-03     3.23928E-03    -25.0991E-03     49.8446E-03    -25.0633E-03     3.21534E-03
             122    -80.0817E-09     94.3464E-03    -39.6383E+06    -85.0131E+06    -39.7184E+06    -1.61987E+06    -25.1885E-03     50.3922E-03    -25.2036E-03     3.24131E-03    -25.2059E-03     50.0823E-03    -25.2215E-03     3.21864E-03
             123     14.3373E-09     93.3492E-03    -44.2939E+06    -90.0221E+06    -44.2865E+06    -1.46707E+06    -25.2891E-03     50.5900E-03    -25.3009E-03     3.19210E-03    -25.3158E-03     50.2685E-03    -25.3275E-03     3.17150E-03
             124     26.2243E-09     92.3521E-03    -45.7515E+06    -95.0854E+06    -45.6777E+06    -1.41978E+06    -25.3876E-03     50.7342E-03    -25.3466E-03     3.23408E-03    -25.4122E-03     50.3915E-03    -25.3708E-03     3.21407E-03
             125     1.19114E-09     91.3545E-03    -47.0396E+06    -99.4723E+06    -47.2485E+06    -977.752E+03    -25.4117E-03     50.8237E-03    -25.4121E-03     3.22531E-03    -25.4341E-03     50.4632E-03    -25.4359E-03     3.21094E-03
             126    -36.4623E-09     90.3575E-03    -48.1713E+06    -102.765E+06    -47.9287E+06    -1.04616E+06    -25.4335E-03     50.8952E-03    -25.4617E-03     3.12771E-03    -25.4558E-03     50.5209E-03    -25.4825E-03     3.11245E-03
             127     20.4129E-09     89.3598E-03    -48.3931E+06    -106.796E+06    -48.5973E+06    -1.32582E+06    -25.4571E-03     50.9466E-03    -25.4895E-03     3.16681E-03    -25.4737E-03     50.5534E-03    -25.5075E-03     3.14792E-03
             128    -68.1817E-09     88.3625E-03    -49.4648E+06    -110.798E+06    -49.4857E+06    -1.11730E+06    -25.4610E-03     50.9655E-03    -25.5044E-03     3.18149E-03    -25.4759E-03     50.5551E-03    -25.5195E-03     3.16529E-03
             129     34.9048E-09     87.3649E-03    -49.6185E+06    -114.287E+06    -49.6938E+06    -916.353E+03    -25.4998E-03     50.9941E-03    -25.4943E-03     3.21175E-03    -25.5101E-03     50.5668E-03    -25.5051E-03     3.19811E-03
             130     2.37399E-09     86.3675E-03    -49.3720E+06    -117.163E+06    -49.2530E+06    -819.478E+03    -25.5194E-03     51.0095E-03    -25.4902E-03     3.22342E-03    -25.5249E-03     50.5669E-03    -25.4949E-03     3.21105E-03
             131     8.21452E-09     85.3700E-03    -49.2724E+06    -119.859E+06    -49.3186E+06    -722.807E+03    -25.4972E-03     50.9756E-03    -25.4784E-03     3.13382E-03    -25.4982E-03     50.5194E-03    -25.4797E-03     3.12277E-03
             132     9.15011E-09     84.3729E-03    -49.0396E+06    -122.090E+06    -49.1698E+06    -672.376E+03    -25.4877E-03     50.9711E-03    -25.4835E-03     3.08994E-03    -25.4845E-03     50.5032E-03    -25.4812E-03     3.07953E-03
             133    -24.9902E-09     83.3752E-03    -48.6621E+06    -123.883E+06    -48.6583E+06    -517.708E+03    -25.5300E-03     51.0251E-03    -25.4950E-03     3.13421E-03    -25.5231E-03     50.5469E-03    -25.4881E-03     3.12574E-03
             134     97.7032E-09     82.3779E-03    -48.0841E+06    -125.406E+06    -48.1015E+06    -315.005E+03    -25.5516E-03     51.0504E-03    -25.4988E-03     3.21585E-03    -25.5405E-03     50.5630E-03    -25.4877E-03     3.20999E-03
             135    -82.6734E-09     81.3802E-03    -47.0108E+06    -126.237E+06    -47.0989E+06    -169.626E+03    -25.5061E-03     51.0091E-03    -25.5030E-03     3.26705E-03    -25.4898E-03     50.5145E-03    -25.4873E-03     3.26308E-03
             136     67.1110E-09     80.3830E-03    -46.8656E+06    -127.277E+06    -46.6877E+06    -371.869E+03    -25.5025E-03     50.9844E-03    -25.4819E-03     3.26457E-03    -25.4845E-03     50.4838E-03    -25.4628E-03     3.25802E-03
             137    -18.3675E-09     79.3855E-03    -47.0005E+06    -128.350E+06    -47.2518E+06    -167.928E+03    -25.4639E-03     50.9753E-03    -25.5114E-03     3.22891E-03    -25.4442E-03     50.4704E-03    -25.4934E-03     3.22498E-03
             138    -121.502E-09     78.3884E-03    -47.0376E+06    -128.312E+06    -47.0642E+06     209.968E+03    -25.4473E-03     50.9955E-03    -25.5482E-03     3.23787E-03    -25.4282E-03     50.4906E-03    -25.5293E-03     3.23876E-03
             139     79.1117E-09     77.3905E-03    -46.1559E+06    -127.462E+06    -46.2044E+06     184.012E+03    -25.5158E-03     51.0080E-03    -25.4922E-03     3.31623E-03    -25.4947E-03     50.5048E-03    -25.4715E-03     3.31676E-03
             140    -950.846E-12     76.3935E-03    -45.8684E+06    -126.904E+06    -45.6870E+06     129.481E+03    -25.4978E-03     50.9577E-03    -25.4598E-03     3.33229E-03    -25.4769E-03     50.4561E-03    -25.4378E-03     3.33210E-03
             141    -13.7419E-09     75.3960E-03    -45.5747E+06    -126.940E+06    -45.5851E+06     26.3740E+03    -25.4753E-03     50.9167E-03    -25.4413E-03     3.23977E-03    -25.4529E-03     50.4143E-03    -25.4191E-03     3.23830E-03
             142     82.9719E-09     74.3989E-03    -45.0942E+06    -126.748E+06    -45.1290E+06     60.8896E+03    -25.4851E-03     50.9025E-03    -25.4175E-03     3.17560E-03    -25.4612E-03     50.3998E-03    -25.3940E-03     3.17459E-03
             143    -38.8266E-09     73.4016E-03    -44.6652E+06    -126.208E+06    -44.6139E+06     11.3370E+03    -25.4627E-03     50.9316E-03    -25.4689E-03     3.15490E-03    -25.4382E-03     50.4302E-03    -25.4442E-03     3.15326E-03
             144    -20.4449E-09     72.4042E-03    -44.3629E+06    -125.997E+06    -44.4239E+06     25.8653E+03    -25.4545E-03     50.9612E-03    -25.5067E-03     3.19354E-03    -25.4291E-03     50.4601E-03    -25.4818E-03     3.19212E-03
             145    -17.5964E-09     71.4067E-03    -44.5442E+06    -126.193E+06    -44.4893E+06    -30.2284E+03    -25.4890E-03     50.9530E-03    -25.4639E-03     3.24484E-03    -25.4642E-03     50.4513E-03    -25.4388E-03     3.24268E-03
             146     95.3049E-09     70.4095E-03    -44.9496E+06    -126.642E+06    -44.8385E+06    -304.925E+03    -25.4945E-03     50.9557E-03    -25.4612E-03     3.26463E-03    -25.4705E-03     50.4528E-03    -25.4366E-03     3.25889E-03
             147    -118.451E-09     69.4122E-03    -44.5533E+06    -127.952E+06    -44.5840E+06    -323.943E+03    -25.4310E-03     50.9572E-03    -25.5261E-03     3.20149E-03    -25.4035E-03     50.4468E-03    -25.4989E-03     3.19555E-03
             148    -30.5077E-09     68.4149E-03    -43.0347E+06    -128.984E+06    -43.0291E+06    -389.693E+03    -25.4398E-03     50.9759E-03    -25.5362E-03     3.13876E-03    -25.4054E-03     50.4559E-03    -25.5019E-03     3.13198E-03
             149     5.71630E-09     67.4175E-03    -42.5071E+06    -130.027E+06    -42.6597E+06    -388.575E+03    -25.5155E-03     51.0141E-03    -25.4986E-03     3.12502E-03    -25.4775E-03     50.4876E-03    -25.4617E-03     3.11822E-03
             150     42.2995E-09     66.4201E-03    -42.5398E+06    -130.482E+06    -42.6740E+06     147.535E+03    -25.5215E-03     51.0210E-03    -25.4995E-03     3.19130E-03    -25.4831E-03     50.4923E-03    -25.4619E-03     3.19142E-03
             151    -57.9276E-09     65.4226E-03    -42.6289E+06    -129.697E+06    -42.5862E+06     225.231E+03    -25.4728E-03     51.0025E-03    -25.5297E-03     3.25813E-03    -25.4361E-03     50.4778E-03    -25.4928E-03     3.25924E-03
             152    -30.8642E-09     64.4253E-03    -42.7510E+06    -128.539E+06    -43.0750E+06     579.933E+03    -25.4602E-03     50.9599E-03    -25.4996E-03     3.20078E-03    -25.4251E-03     50.4418E-03    -25.4667E-03     3.20651E-03
             153     41.9648E-09     63.4281E-03    -43.8995E+06    -126.913E+06    -43.4112E+06     443.658E+03    -25.5071E-03     50.9406E-03    -25.4335E-03     3.14076E-03    -25.4796E-03     50.4328E-03    -25.4028E-03     3.14474E-03
             154     77.0659E-09     62.4308E-03    -44.4974E+06    -126.151E+06    -44.5534E+06    -74.7095E+03    -25.5030E-03     50.9557E-03    -25.4527E-03     3.15011E-03    -25.4779E-03     50.4543E-03    -25.4281E-03     3.14734E-03
             155    -113.207E-09     61.4333E-03    -43.9514E+06    -125.598E+06    -44.1356E+06     202.666E+03    -25.4601E-03     50.9671E-03    -25.5070E-03     3.18333E-03    -25.4336E-03     50.4670E-03    -25.4819E-03     3.18417E-03
             156     60.0255E-09     60.4360E-03    -43.6865E+06    -125.056E+06    -43.6365E+06     175.312E+03    -25.4631E-03     50.9573E-03    -25.4942E-03     3.24102E-03    -25.4369E-03     50.4588E-03    -25.4677E-03     3.24155E-03
             157    -65.8412E-09     59.4385E-03    -43.2294E+06    -124.625E+06    -43.3943E+06     165.913E+03    -25.4493E-03     50.9274E-03    -25.4781E-03     3.26182E-03    -25.4218E-03     50.4300E-03    -25.4516E-03     3.26223E-03
             158     14.3374E-09     58.4414E-03    -43.0704E+06    -124.341E+06    -42.9327E+06     169.395E+03    -25.4594E-03     50.9120E-03    -25.4526E-03     3.17558E-03    -25.4321E-03     50.4152E-03    -25.4245E-03     3.17603E-03
             159     14.4553E-09     56.4468E-03    -42.4046E+06    -122.899E+06    -42.2856E+06     53.6219E+03    -25.4927E-03     50.9190E-03    -25.4263E-03     3.20361E-03    -25.4651E-03     50.4275E-03    -25.3980E-03     3.20247E-03
             160     38.1580E-09     55.4493E-03    -42.8946E+06    -123.111E+06    -42.7842E+06    -311.495E+03    -25.4842E-03     50.9078E-03    -25.4237E-03     3.20153E-03    -25.4580E-03     50.4167E-03    -25.3969E-03     3.19568E-03
             161     11.7418E-09     54.4522E-03    -43.2999E+06    -123.546E+06    -43.4094E+06     104.993E+03    -25.4567E-03     50.9093E-03    -25.4526E-03     3.21901E-03    -25.4310E-03     50.4175E-03    -25.4277E-03     3.21862E-03
             162    -60.6735E-09     53.4546E-03    -42.5757E+06    -123.226E+06    -42.4460E+06     140.588E+03    -25.4155E-03     50.9118E-03    -25.4963E-03     3.24453E-03    -25.3881E-03     50.4191E-03    -25.4681E-03     3.24459E-03
             163    -35.7385E-09     52.4575E-03    -41.7282E+06    -122.953E+06    -41.8929E+06     84.0930E+03    -25.3892E-03     50.8637E-03    -25.4745E-03     3.19915E-03    -25.3587E-03     50.3704E-03    -25.4452E-03     3.19846E-03
             164    -24.3353E-09     51.4603E-03    -41.3518E+06    -122.451E+06    -41.3282E+06     225.148E+03    -25.4219E-03     50.8617E-03    -25.4398E-03     3.13598E-03    -25.3911E-03     50.3695E-03    -25.4089E-03     3.13711E-03
             165     48.4677E-09     50.4630E-03    -41.4208E+06    -122.281E+06    -41.3409E+06    -231.393E+03    -25.4476E-03     50.8922E-03    -25.4446E-03     3.22318E-03    -25.4174E-03     50.4009E-03    -25.4139E-03     3.21837E-03
             166    -71.3540E-09     49.4655E-03    -41.8556E+06    -122.415E+06    -42.1929E+06     177.841E+03    -25.4313E-03     50.8510E-03    -25.4197E-03     3.28429E-03    -25.4018E-03     50.3609E-03    -25.3925E-03     3.28479E-03
             167     105.686E-09     48.4684E-03    -41.3798E+06    -121.332E+06    -41.1662E+06     571.059E+03    -25.3993E-03     50.7875E-03    -25.3882E-03     3.28331E-03    -25.3705E-03     50.3007E-03    -25.3581E-03     3.28890E-03
             168    -123.180E-09     47.4712E-03    -40.3092E+06    -120.774E+06    -40.0041E+06    -222.275E+03    -25.3872E-03     50.7747E-03    -25.3875E-03     3.18701E-03    -25.3556E-03     50.2875E-03    -25.3539E-03     3.18232E-03
             169     138.973E-09     46.4742E-03    -40.8133E+06    -121.988E+06    -40.9977E+06    -543.231E+03    -25.3901E-03     50.7419E-03    -25.3518E-03     3.09936E-03    -25.3578E-03     50.2508E-03    -25.3208E-03     3.09054E-03
             170    -94.2343E-09     45.4770E-03    -41.7865E+06    -122.189E+06    -42.1725E+06     549.875E+03    -25.3484E-03     50.6946E-03    -25.3462E-03     3.16576E-03    -25.3190E-03     50.2055E-03    -25.3193E-03     3.17111E-03
             171     44.3520E-09     44.4799E-03    -40.8532E+06    -120.391E+06    -40.5462E+06     457.952E+03    -25.3212E-03     50.6753E-03    -25.3541E-03     3.19620E-03    -25.2921E-03     50.1915E-03    -25.3230E-03     3.20038E-03
             172    -53.5486E-09     43.4828E-03    -39.6368E+06    -120.157E+06    -39.6722E+06    -328.816E+03    -25.3049E-03     50.5992E-03    -25.2944E-03     3.13836E-03    -25.2713E-03     50.1136E-03    -25.2610E-03     3.13236E-03
             173     76.2246E-09     42.4860E-03    -39.8997E+06    -120.916E+06    -39.9958E+06     5.70177E+03    -25.2228E-03     50.5123E-03    -25.2895E-03     3.08557E-03    -25.1889E-03     50.0237E-03    -25.2563E-03     3.08393E-03
             174    -221.523E-09     41.4891E-03    -40.3815E+06    -121.014E+06    -40.3100E+06    -157.081E+03    -25.1996E-03     50.4937E-03    -25.2942E-03     3.04928E-03    -25.1675E-03     50.0058E-03    -25.2617E-03     3.04555E-03
             175     197.230E-09     40.4920E-03    -41.2478E+06    -121.755E+06    -41.3089E+06    -278.996E+03    -25.2174E-03     50.3963E-03    -25.1789E-03     3.03223E-03    -25.1871E-03     49.9074E-03    -25.1491E-03     3.02692E-03
             176    -110.432E-09     39.4956E-03    -41.3640E+06    -121.759E+06    -41.5070E+06     70.2835E+03    -25.1403E-03     50.2510E-03    -25.1108E-03     3.09308E-03    -25.1102E-03     49.7626E-03    -25.0818E-03     3.09224E-03
             177     69.1540E-09     38.4987E-03    -40.4072E+06    -120.767E+06    -40.4870E+06     349.791E+03    -25.0502E-03     50.1395E-03    -25.0894E-03     3.14807E-03    -25.0183E-03     49.6532E-03    -25.0581E-03     3.15084E-03
             178    -102.394E-09     37.5022E-03    -39.8840E+06    -120.331E+06    -39.5926E+06     -47.057E+03    -24.9451E-03     49.9288E-03    -24.9837E-03     3.17071E-03    -24.9126E-03     49.4426E-03    -24.9494E-03     3.16838E-03
             179     66.4123E-09     36.5062E-03    -40.5680E+06    -121.064E+06    -40.6288E+06    -275.888E+03    -24.8438E-03     49.6912E-03    -24.8474E-03     3.04904E-03    -24.8121E-03     49.2038E-03    -24.8161E-03     3.04378E-03
             180    -41.8073E-09     35.5103E-03    -40.5769E+06    -121.104E+06    -40.7516E+06     337.803E+03    -24.7653E-03     49.4977E-03    -24.7324E-03     2.95985E-03    -24.7334E-03     49.0103E-03    -24.7017E-03     2.96254E-03
             181     68.6891E-09     34.5143E-03    -39.5840E+06    -119.990E+06    -39.3839E+06     141.348E+03    -24.6056E-03     49.2391E-03    -24.6335E-03     2.99820E-03    -24.5723E-03     48.7538E-03    -24.5990E-03     2.99831E-03
             182    -146.684E-09     33.5189E-03    -39.6474E+06    -119.840E+06    -39.8700E+06    -62.9862E+03    -24.4321E-03     48.9081E-03    -24.4760E-03     3.00694E-03    -24.3987E-03     48.4243E-03    -24.4441E-03     3.00445E-03
             183     140.821E-09     32.5236E-03    -40.3054E+06    -119.744E+06    -40.2191E+06     77.8310E+03    -24.2962E-03     48.5694E-03    -24.2732E-03     3.02263E-03    -24.2657E-03     48.0876E-03    -24.2422E-03     3.02202E-03
             184    -97.9235E-09     31.5289E-03    -40.8514E+06    -120.269E+06    -40.6712E+06    -349.279E+03    -24.0758E-03     48.1606E-03    -24.0848E-03     2.93937E-03    -24.0466E-03     47.6777E-03    -24.0545E-03     2.93327E-03
             185     37.2119E-09     30.5347E-03    -41.4817E+06    -121.134E+06    -41.8908E+06    -63.2289E+03    -23.8265E-03     47.6934E-03    -23.8670E-03     2.80298E-03    -23.7974E-03     47.2088E-03    -23.8406E-03     2.80063E-03
             186    -56.0068E-09     29.5408E-03    -41.3503E+06    -120.449E+06    -41.3427E+06     293.515E+03    -23.5936E-03     47.2383E-03    -23.6447E-03     2.77784E-03    -23.5656E-03     46.7561E-03    -23.6168E-03     2.78011E-03
             187    -18.7935E-09     28.5473E-03    -40.7767E+06    -119.893E+06    -40.7018E+06     56.2666E+03    -23.3946E-03     46.7406E-03    -23.3460E-03     2.72714E-03    -23.3655E-03     46.2594E-03    -23.3166E-03     2.72638E-03
             188     176.310E-09     27.5545E-03    -40.6932E+06    -119.466E+06    -40.5243E+06     257.647E+03    -23.1273E-03     46.1651E-03    -23.0378E-03     2.71893E-03    -23.0987E-03     45.6857E-03    -23.0082E-03     2.72083E-03
             189    -178.027E-09     26.5623E-03    -40.3352E+06    -118.309E+06    -40.2562E+06     234.612E+03    -22.7460E-03     45.5562E-03    -22.8101E-03     2.60667E-03    -22.7177E-03     45.0816E-03    -22.7814E-03     2.60832E-03
             190     64.6136E-09     25.5706E-03    -39.8834E+06    -117.244E+06    -40.1531E+06     420.151E+03    -22.4635E-03     44.9348E-03    -22.4713E-03     2.49121E-03    -22.4346E-03     44.4648E-03    -22.4442E-03     2.49533E-03
             191     29.1338E-09     24.5795E-03    -39.2952E+06    -116.087E+06    -39.0034E+06     316.767E+03    -22.1463E-03     44.2471E-03    -22.1008E-03     2.47980E-03    -22.1178E-03     43.7804E-03    -22.0705E-03     2.48261E-03
             192    -42.5196E-09     23.5893E-03    -39.1733E+06    -115.883E+06    -39.0749E+06    -149.159E+03    -21.7847E-03     43.5205E-03    -21.7358E-03     2.35079E-03    -21.7558E-03     43.0547E-03    -21.7063E-03     2.34764E-03
             193     140.603E-09     22.5996E-03    -38.8252E+06    -115.702E+06    -39.1432E+06     238.983E+03    -21.4417E-03     42.8210E-03    -21.3793E-03     2.27578E-03    -21.4113E-03     42.3557E-03    -21.3510E-03     2.27768E-03
             194    -134.803E-09     21.6108E-03    -38.7135E+06    -114.848E+06    -38.4318E+06     195.896E+03    -21.0454E-03     42.1147E-03    -21.0693E-03     2.23987E-03    -21.0166E-03     41.6524E-03    -21.0388E-03     2.24126E-03
             195     87.7137E-09     20.6224E-03    -38.4654E+06    -114.261E+06    -38.8154E+06     168.817E+03    -20.6907E-03     41.3504E-03    -20.6597E-03     2.11649E-03    -20.6610E-03     40.8913E-03    -20.6324E-03     2.11761E-03
             196     7.83515E-09     19.6353E-03    -37.8778E+06    -112.845E+06    -37.8926E+06     754.404E+03    -20.3256E-03     40.5935E-03    -20.2679E-03     1.99843E-03    -20.2964E-03     40.1393E-03    -20.2388E-03     2.00717E-03
             197    -3.74359E-09     18.6483E-03    -36.4776E+06    -110.248E+06    -36.5539E+06     764.572E+03    -19.8993E-03     39.8121E-03    -19.9127E-03     1.81718E-03    -19.8688E-03     39.3669E-03    -19.8828E-03     1.82613E-03
             198    -26.5151E-09     17.6627E-03    -34.5593E+06    -107.509E+06    -34.7656E+06     769.649E+03    -19.4774E-03     38.9454E-03    -19.4679E-03     1.66798E-03    -19.4439E-03     38.5085E-03    -19.4358E-03     1.67704E-03
             199     69.9198E-09     16.6775E-03    -33.8423E+06    -105.693E+06    -33.2389E+06     231.190E+03    -18.9551E-03     37.9390E-03    -18.9839E-03     1.52980E-03    -18.9228E-03     37.5079E-03    -18.9478E-03     1.53199E-03
             200    -158.518E-09     15.6938E-03    -33.0766E+06    -104.659E+06    -33.8790E+06     435.240E+03    -18.3382E-03     36.6699E-03    -18.3317E-03     1.23253E-03    -18.3026E-03     36.2438E-03    -18.3014E-03     1.23749E-03
             201     248.832E-09     14.7113E-03    -31.8306E+06    -101.434E+06    -31.9770E+06     1.62252E+06    -17.7103E-03     35.2434E-03    -17.5331E-03     1.00850E-03    -17.6759E-03     34.8289E-03    -17.4997E-03     1.02883E-03
             202    -27.8098E-09     13.7302E-03    -28.5940E+06    -96.5457E+06    -28.2101E+06     1.35378E+06    -16.7966E-03     33.4876E-03    -16.6910E-03     774.922E-06    -16.7586E-03     33.0874E-03    -16.6506E-03     791.888E-06
             203    -2.07308E-09     12.7509E-03     -22.354E+06    -92.7992E+06    -22.4186E+06     987.495E+03    -15.6696E-03     31.2541E-03    -15.5845E-03     488.562E-06    -15.6143E-03     30.8551E-03    -15.5296E-03     500.921E-06
             204     182.661E-09     11.7744E-03    -21.2234E+06    -91.0032E+06    -20.5725E+06     80.8729E+03    -14.4525E-03     28.7400E-03    -14.2874E-03     320.500E-06    -14.3968E-03     28.3457E-03    -14.2276E-03     321.161E-06
             205    -62.4200E-09     10.8001E-03    -26.4648E+06    -91.5935E+06    -26.5301E+06    -494.717E+03    -13.1845E-03     26.3024E-03    -13.1179E-03     221.199E-06    -13.1455E-03     25.9214E-03    -13.0793E-03     214.391E-06
             206     60.0760E-09     9.82842E-03    -31.6951E+06    -93.6826E+06    -31.4373E+06    -673.192E+03    -12.4457E-03     24.8285E-03    -12.3827E-03     372.322E-06    -12.4227E-03     24.4517E-03    -12.3581E-03     363.209E-06
             207     57.1749E-09     8.85701E-03    -33.6454E+06    -95.9158E+06    -33.0341E+06    -576.937E+03    -12.5625E-03     25.0652E-03    -12.5027E-03     793.476E-06    -12.5436E-03     24.6825E-03    -12.4800E-03     785.660E-06
             208    -61.4069E-09     7.88460E-03    -29.8827E+06    -96.7959E+06    -29.9634E+06    -79.4497E+03    -13.5013E-03     27.0088E-03    -13.5076E-03     1.16875E-03    -13.4668E-03     26.6117E-03    -13.4737E-03     1.16739E-03
             209     53.4905E-09     6.90936E-03    -27.9870E+06    -97.1817E+06    -28.0284E+06    -205.392E+03    -15.0128E-03     30.0363E-03    -15.0234E-03     1.39534E-03    -14.9712E-03     29.6316E-03    -14.9821E-03     1.39237E-03
             210    -64.7333E-09     5.93093E-03    -28.5732E+06    -98.0035E+06    -28.5562E+06    -243.263E+03    -16.7168E-03     33.4651E-03    -16.7483E-03     1.45736E-03    -16.6762E-03     33.0580E-03    -16.7075E-03     1.45391E-03
             211     20.7213E-09     4.94910E-03    -27.8096E+06    -98.8000E+06    -27.8860E+06    -188.971E+03    -18.4643E-03     36.9461E-03    -18.4819E-03     1.40222E-03    -18.4196E-03     36.5329E-03    -18.4377E-03     1.39948E-03
             212    -8.56783E-09     3.96382E-03    -26.4717E+06    -98.7063E+06    -26.7731E+06     291.344E+03    -20.0612E-03     40.1408E-03    -20.0796E-03     1.27420E-03    -20.0116E-03     39.7245E-03    -20.0319E-03     1.27770E-03
             213    -39.4150E-09     2.97563E-03    -24.0397E+06    -97.7047E+06    -23.9548E+06     236.742E+03    -21.3921E-03     42.8140E-03    -21.4219E-03     1.05025E-03    -21.3358E-03     42.3952E-03    -21.3652E-03     1.05307E-03
             214     35.5144E-09     1.98528E-03    -22.0325E+06    -97.6326E+06    -22.0245E+06    -180.519E+03    -22.4187E-03     44.8790E-03    -22.4602E-03     743.440E-06    -22.3552E-03     44.4548E-03    -22.3968E-03     740.936E-06
             215    -104.896E-09     993.014E-06    -21.0946E+06    -98.2207E+06    -21.4008E+06    -150.974E+03    -23.0804E-03     46.1836E-03    -23.1031E-03     364.821E-06    -23.0121E-03     45.7543E-03    -23.0371E-03     362.844E-06
             216     879.196E-06     62.4500E-18    -20.9279E+06    -98.0942E+06    -20.8519E+06     5.67682E+03    -23.3830E-03     46.7097E-03    -23.3267E-03     318.291E-06    -23.3150E-03     46.2799E-03    -23.2584E-03     318.356E-06
             217     1.75834E-03     62.4500E-18    -20.9274E+06    -101.067E+06    -20.2822E+06     251.003E+03    -23.5710E-03     46.9758E-03    -23.4048E-03     613.582E-06    -23.4997E-03     46.5302E-03    -23.3293E-03     616.698E-06
             218     2.63722E-03     62.4500E-18    -21.2346E+06    -104.514E+06    -19.5943E+06     543.882E+03    -23.8903E-03     47.4100E-03    -23.5197E-03     927.395E-06    -23.8165E-03     46.9467E-03    -23.4354E-03     934.212E-06
             219     3.51573E-03     62.4500E-18    -21.2988E+06    -105.284E+06    -20.2240E+06     14.7306E+03    -24.3156E-03     47.9793E-03    -23.6636E-03     1.27345E-03    -24.2401E-03     47.5130E-03    -23.5812E-03     1.27334E-03
             220     4.39385E-03     62.4500E-18    -20.8658E+06    -106.012E+06    -21.2036E+06    -328.670E+03    -24.8484E-03     48.6903E-03    -23.8419E-03     1.64634E-03    -24.7683E-03     48.2212E-03    -23.7639E-03     1.64169E-03
             221     5.27142E-03     62.4500E-18    -20.1890E+06    -106.897E+06    -22.4828E+06    -584.266E+03    -25.4938E-03     49.5486E-03    -24.0548E-03     2.07285E-03    -25.4071E-03     49.0760E-03    -23.9829E-03     2.06478E-03
             222     6.14833E-03     62.4500E-18    -19.1288E+06    -105.223E+06    -25.6058E+06    -1.29485E+06    -26.2366E-03     50.5263E-03    -24.2898E-03     2.53523E-03    -26.1425E-03     50.0651E-03    -24.2375E-03     2.51777E-03
             223     7.02463E-03     62.4500E-18    -17.0745E+06    -101.114E+06    -29.1694E+06    -2.30720E+06    -27.0802E-03     51.6321E-03    -24.5519E-03     3.07492E-03    -26.9766E-03     51.1936E-03    -24.5264E-03     3.04416E-03
             224     7.89994E-03     62.4500E-18    -13.5365E+06    -93.9735E+06    -33.1828E+06    -3.74309E+06    -28.0110E-03     52.8494E-03    -24.8384E-03     3.69114E-03    -27.8943E-03     52.4473E-03    -24.8484E-03     3.64147E-03
             225     8.77459E-03     62.4500E-18    -8.95463E+06    -80.6481E+06    -41.2781E+06    -4.46948E+06    -29.0093E-03     54.1338E-03    -25.1245E-03     4.40813E-03    -28.8774E-03     53.8035E-03    -25.2010E-03     4.34863E-03
             226     9.64802E-03     62.4500E-18    -4.81629E+06    -64.2646E+06    -49.6696E+06    -4.37426E+06    -30.0718E-03     55.5055E-03    -25.4337E-03     5.24717E-03    -29.9308E-03     55.2633E-03    -25.5819E-03     5.18827E-03
             227     10.5207E-03     62.4500E-18    -1.75744E+06    -45.1558E+06    -52.7813E+06    -3.82443E+06    -31.1707E-03     56.9640E-03    -25.7933E-03     6.22856E-03    -31.0376E-03     56.8175E-03    -25.9892E-03     6.17584E-03
             228     11.3920E-03     62.4500E-18     907.491E+03    -20.7096E+06    -50.6294E+06    -3.87847E+06    -32.2567E-03     58.4515E-03    -26.1948E-03     7.34865E-03    -32.1489E-03     58.4202E-03    -26.4192E-03     7.29382E-03
             229     12.2627E-03     62.4500E-18     3.11794E+06     13.2852E+06    -42.4717E+06    -2.50213E+06    -33.2543E-03     59.8831E-03    -26.6289E-03     8.79613E-03    -33.1967E-03     60.0070E-03    -26.8650E-03     8.75725E-03
             230     13.1316E-03     62.4500E-18     2.72924E+06     46.6793E+06    -22.7953E+06     104.715E+03    -34.0374E-03     61.1673E-03    -27.1299E-03     10.3552E-03    -34.0590E-03     61.4303E-03    -27.3155E-03     10.3469E-03
             231     14.0009E-03     62.4500E-18     1.49483E+06     67.4424E+06     8.19633E+06     738.048E+03    -34.7285E-03     62.4306E-03    -27.7021E-03     12.1870E-03    -34.8317E-03     62.7548E-03    -27.7611E-03     12.1829E-03
             232     14.8682E-03     62.4500E-18     2.30215E+06     78.6490E+06     38.9358E+06     642.977E+03    -35.2454E-03     63.5174E-03    -28.2721E-03     14.7276E-03    -35.4060E-03     63.8523E-03    -28.1948E-03     14.7187E-03
             233     15.7348E-03     62.4500E-18     2.61991E+06     83.5787E+06     58.1086E+06     1.23378E+06    -35.8865E-03     64.6688E-03    -28.7822E-03     21.6513E-03    -36.0843E-03     65.0030E-03    -28.6167E-03     21.6350E-03
             234     16.5957E-03     62.4500E-18     684.489E+03     83.9783E+06     61.7292E+06     2.47216E+06    -35.2438E-03     64.4335E-03    -29.1897E-03     33.2657E-03    -35.4683E-03     64.7765E-03    -29.0038E-03     33.2400E-03
             235     17.5041E-03     1.00783E-03    -1.53847E+06     85.7104E+06     59.8734E+06     2.92053E+06    -32.7442E-03     61.0765E-03    -28.3323E-03     34.3299E-03    -32.9881E-03     61.4447E-03    -28.1550E-03     34.2960E-03
             236     17.5282E-03     2.01657E-03    -1.51715E+06     90.2611E+06     60.5344E+06     2.91505E+06    -36.8634E-03     63.4550E-03    -26.5916E-03     24.5747E-03    -37.1167E-03     63.8495E-03    -26.4176E-03     24.5139E-03
             237     17.5434E-03     3.03408E-03    -1.32430E+06     93.4177E+06     62.4706E+06     1.19608E+06    -45.9337E-03     71.4732E-03    -25.5396E-03     17.1352E-03    -46.1944E-03     71.8808E-03    -25.3607E-03     17.0088E-03
             238     17.5458E-03     4.06168E-03    -2.55278E+06     94.2490E+06     63.3970E+06     1.17115E+06    -50.1398E-03     75.2329E-03    -25.0931E-03     14.0427E-03    -50.4102E-03     75.6455E-03    -24.9091E-03     13.8910E-03
             239     17.5496E-03     5.08393E-03    -979.778E+03     95.7514E+06     64.7460E+06     814.956E+03    -49.6819E-03     74.6465E-03    -24.9646E-03     13.0791E-03    -49.9485E-03     75.0618E-03    -24.7783E-03     12.9219E-03
             240     17.5494E-03     6.10568E-03    -2.01923E+06     95.6023E+06     63.9972E+06    -737.813E+03    -48.4934E-03     73.4701E-03    -24.9767E-03     11.3825E-03    -48.7619E-03     73.8854E-03    -24.7924E-03     11.2139E-03
             241     17.5470E-03     7.12753E-03    -2.84817E+06     95.0149E+06     62.2057E+06     1.12109E+06    -45.6075E-03     70.6792E-03    -25.0717E-03     9.73236E-03    -45.8747E-03     71.0931E-03    -24.8943E-03     9.60351E-03
             242     17.5499E-03     8.13862E-03    -307.071E+03     96.8408E+06     63.1435E+06    -57.9171E+03    -41.8080E-03     66.9598E-03    -25.1518E-03     9.74455E-03    -42.0652E-03     67.3766E-03    -24.9761E-03     9.61910E-03
             243     17.5475E-03     9.15627E-03    -2.71926E+06     95.8144E+06     61.8209E+06    -521.619E+03    -40.7719E-03     65.9897E-03    -25.2178E-03     9.61610E-03    -41.0380E-03     66.4071E-03    -25.0437E-03     9.49083E-03
             244     17.5465E-03     10.1671E-03    -1.05047E+06     96.8091E+06     61.7666E+06     1.39885E+06    -38.9157E-03     64.1811E-03    -25.2654E-03     9.77376E-03    -39.1756E-03     64.6015E-03    -25.0954E-03     9.67935E-03
             245     17.5505E-03     11.1746E-03    -597.325E+03     97.6990E+06     62.7909E+06    -612.176E+03    -37.6805E-03     62.9451E-03    -25.2646E-03     11.3994E-03    -37.9420E-03     63.3696E-03    -25.0914E-03     11.2841E-03
             246     17.5459E-03     12.1947E-03    -2.96134E+06     96.2013E+06     62.2974E+06     469.930E+03    -37.0641E-03     62.3614E-03    -25.2972E-03     13.4284E-03    -37.3377E-03     62.7853E-03    -25.1209E-03     13.3288E-03
             247     17.5502E-03     13.1939E-03    -750.625E+03     96.9736E+06     62.5483E+06     1.01886E+06    -35.2529E-03     60.5465E-03    -25.2937E-03     13.7952E-03    -35.5172E-03     60.9709E-03    -25.1204E-03     13.7094E-03
             248     17.5495E-03     14.2058E-03    -2.50826E+06     96.8680E+06     61.6826E+06    -794.641E+03    -35.4133E-03     60.6798E-03    -25.2665E-03     13.3079E-03    -35.6855E-03     61.1085E-03    -25.0949E-03     13.1993E-03
             249     17.5481E-03     15.2169E-03    -1.85664E+06     98.0922E+06     60.9253E+06     878.254E+03    -34.4624E-03     59.7384E-03    -25.2760E-03     15.2637E-03    -34.7361E-03     60.1770E-03    -25.1109E-03     15.1774E-03
             250     17.5522E-03     16.2160E-03    -964.654E+03     98.6328E+06     62.3169E+06    -291.905E+03    -33.7934E-03     59.0583E-03    -25.2650E-03     15.9419E-03    -34.0659E-03     59.4970E-03    -25.0950E-03     15.8441E-03
             251     17.5477E-03     17.2330E-03    -1.78969E+06     98.5989E+06     62.9955E+06     513.727E+03    -33.6031E-03     58.8759E-03    -25.2727E-03     17.1447E-03    -33.8833E-03     59.3171E-03    -25.0981E-03     17.0580E-03
             252     17.5527E-03     18.2302E-03    -1.88606E+06     99.3106E+06     63.0130E+06     609.587E+03    -32.4954E-03     57.7763E-03    -25.2810E-03     18.3672E-03    -32.7788E-03     58.2228E-03    -25.1072E-03     18.2861E-03
             253     17.5484E-03     19.2408E-03    -2.17877E+06     99.5073E+06     63.4070E+06     267.166E+03    -32.1193E-03     57.4047E-03    -25.2854E-03     17.5100E-03    -32.4044E-03     57.8517E-03    -25.1095E-03     17.4286E-03
             254     17.5524E-03     20.2423E-03    -1.64905E+06     101.617E+06     64.0387E+06      242.21E+03    -30.9953E-03     56.2880E-03    -25.2927E-03     18.7168E-03    -31.2841E-03     56.7461E-03    -25.1175E-03     18.6392E-03
             255     17.5502E-03     21.2456E-03    -1.84483E+06     101.726E+06     64.7383E+06    -570.910E+03    -30.5290E-03     55.8367E-03    -25.3077E-03     18.0063E-03    -30.8191E-03     56.2939E-03    -25.1288E-03     17.9225E-03
             256     17.5507E-03     22.2515E-03    -1.12840E+06     102.362E+06     65.2343E+06     1.48117E+06    -29.4034E-03     54.7441E-03    -25.3406E-03     18.8698E-03    -29.6937E-03     55.2047E-03    -25.1613E-03     18.8175E-03
             257     17.5516E-03     23.2476E-03    -829.193E+03     103.060E+06     65.3722E+06    -38.3753E+03    -28.8043E-03     54.1361E-03    -25.3318E-03     19.5477E-03    -29.0949E-03     54.6001E-03    -25.1531E-03     19.4785E-03
             258     17.5508E-03     24.2553E-03    -1.58151E+06     102.933E+06     64.7880E+06    -505.574E+03    -29.0830E-03     54.4036E-03    -25.3206E-03     19.5308E-03    -29.3767E-03     54.8693E-03    -25.1437E-03     19.4553E-03
             259     17.5517E-03     25.2522E-03    -2.26691E+06     103.632E+06     64.5908E+06     868.455E+03    -28.5968E-03     53.9260E-03    -25.3292E-03     20.3659E-03    -28.8957E-03     54.3974E-03    -25.1532E-03     20.3110E-03
             260     17.5510E-03     26.2571E-03    -1.87420E+06     104.832E+06     65.1526E+06     644.088E+03    -27.7089E-03     53.0623E-03    -25.3534E-03     19.8361E-03    -28.0080E-03     53.5381E-03    -25.1770E-03     19.7836E-03
             261     17.5514E-03     27.2542E-03    -2.41058E+06     105.591E+06     65.4860E+06     198.310E+03    -27.1748E-03     52.5557E-03    -25.3809E-03     20.1809E-03    -27.4799E-03     53.0371E-03    -25.2031E-03     20.1254E-03
             262     17.5504E-03     28.2543E-03    -1.90574E+06     105.434E+06     65.4617E+06     269.162E+03    -27.1466E-03     52.5146E-03    -25.3680E-03     19.7850E-03    -27.4474E-03     52.9931E-03    -25.1908E-03     19.7311E-03
             263     17.5529E-03     29.2544E-03    -1.12798E+06     106.230E+06     66.1660E+06    -336.907E+03    -26.5244E-03     51.8868E-03    -25.3624E-03     20.2941E-03    -26.8236E-03     52.3672E-03    -25.1840E-03     20.2357E-03
             264     17.5505E-03     30.2542E-03    -2.46404E+06     106.073E+06     65.8592E+06     568.697E+03    -26.2400E-03     51.6242E-03    -25.3843E-03     20.3851E-03    -26.5459E-03     52.1070E-03    -25.2052E-03     20.3404E-03
             265     17.5518E-03     31.2514E-03    -314.477E+03     107.801E+06     67.5230E+06     819.726E+03    -25.6868E-03     51.0821E-03    -25.3954E-03     20.4629E-03    -25.9866E-03     51.5677E-03    -25.2136E-03     20.4240E-03
             266     17.5520E-03     32.2503E-03    -238.945E+03     107.923E+06     67.8463E+06    -567.153E+03    -25.1550E-03     50.5528E-03    -25.3978E-03     20.1828E-03    -25.4548E-03     51.0381E-03    -25.2147E-03     20.1290E-03
             267     17.5512E-03     33.2480E-03    -3.61587E+06     106.193E+06     64.9093E+06    -414.760E+03    -25.8293E-03     51.2225E-03    -25.3932E-03     19.6759E-03    -26.1400E-03     51.7090E-03    -25.2173E-03     19.6209E-03
             268     17.5512E-03     34.2445E-03    -2.54588E+06     107.470E+06     66.0317E+06     481.500E+03    -26.0918E-03     51.4876E-03    -25.3958E-03     19.2033E-03    -26.3992E-03     51.9760E-03    -25.2178E-03     19.1595E-03
             269     17.5515E-03     35.2482E-03    -96.6215E+03     108.494E+06     66.4584E+06     353.932E+03    -24.7048E-03     50.1086E-03    -25.4038E-03     21.7060E-03    -25.0044E-03     50.6003E-03    -25.2287E-03     21.6659E-03
             270     17.5527E-03     36.2413E-03    -2.45157E+06     106.585E+06     64.6172E+06    -513.535E+03    -25.3287E-03     50.7164E-03    -25.3877E-03     22.7819E-03    -25.6367E-03     51.2067E-03    -25.2156E-03     22.7275E-03
             271     17.5498E-03     37.2426E-03    -1.69915E+06     107.258E+06     66.3008E+06     1.07469E+06    -25.3806E-03     50.7832E-03    -25.4026E-03     19.6236E-03    -25.6836E-03     51.2687E-03    -25.2241E-03     19.5909E-03
             272     17.5537E-03     38.2361E-03    -382.894E+03     108.805E+06     67.7542E+06    -1.03279E+06    -24.4094E-03     49.8231E-03    -25.4137E-03     19.9931E-03    -24.7112E-03     50.3135E-03    -25.2322E-03     19.9375E-03
             273     17.5500E-03     39.2355E-03    -3.46857E+06     107.311E+06     66.5023E+06    -928.319E+03    -25.7279E-03     51.1248E-03    -25.3969E-03     20.0969E-03    -26.0420E-03     51.6148E-03    -25.2149E-03     20.0377E-03
             274     17.5523E-03     40.2359E-03    -1.74169E+06     108.560E+06     67.1793E+06     1.45289E+06    -25.1582E-03     50.5622E-03    -25.4040E-03     21.6623E-03    -25.4680E-03     51.0564E-03    -25.2229E-03     21.6352E-03
             275     17.5518E-03     41.2315E-03    -730.257E+03     109.131E+06     67.6045E+06    -314.193E+03    -24.4800E-03     49.8819E-03    -25.4019E-03     22.4685E-03    -24.7869E-03     50.3775E-03    -25.2210E-03     22.4212E-03
             276     17.5518E-03     42.2303E-03    -2.65859E+06     107.673E+06     66.5049E+06    -373.234E+03    -24.9858E-03     50.3944E-03    -25.4086E-03     20.8076E-03    -25.2968E-03     50.8854E-03    -25.2283E-03     20.7585E-03
             277     17.5509E-03     43.2252E-03    -2.80728E+06     107.445E+06     66.3372E+06     1.07773E+06    -24.9355E-03     50.3501E-03    -25.4146E-03     20.4848E-03    -25.2458E-03     50.8395E-03    -25.2346E-03     20.4548E-03
             278     17.5524E-03     44.2248E-03    -950.181E+03     108.757E+06     67.9739E+06    -207.403E+03    -24.6940E-03     50.1052E-03    -25.4112E-03     20.1755E-03    -24.9987E-03     50.5955E-03    -25.2277E-03     20.1301E-03
             279     17.5513E-03     45.2209E-03    -1.76348E+06     108.305E+06     67.7634E+06    -716.756E+03    -24.7557E-03     50.1720E-03    -25.4163E-03     20.4289E-03    -25.0645E-03     50.6626E-03    -25.2320E-03     20.3771E-03
             280     17.5516E-03     46.2192E-03    -1.89705E+06     107.907E+06     67.2016E+06     835.405E+03    -24.6958E-03     50.1131E-03    -25.4174E-03     20.5607E-03    -25.0033E-03     50.6021E-03    -25.2351E-03     20.5289E-03
             281     17.5519E-03     47.2164E-03     661.580E+03     109.179E+06     67.8193E+06     194.617E+03    -23.7582E-03     49.1714E-03    -25.4132E-03     20.6408E-03    -24.0551E-03     49.6616E-03    -25.2334E-03     20.6036E-03
             282     17.5527E-03     48.2113E-03    -2.07270E+06     107.828E+06     66.3372E+06    -910.071E+03    -24.7242E-03     50.1305E-03    -25.4064E-03     19.9421E-03    -25.0317E-03     50.6211E-03    -25.2280E-03     19.8870E-03
             283     17.5494E-03     49.2108E-03    -3.14791E+06     107.531E+06     66.0004E+06     581.630E+03    -25.5233E-03     50.9324E-03    -25.4091E-03     19.2013E-03    -25.8350E-03     51.4233E-03    -25.2305E-03     19.1617E-03
             284     17.5536E-03     50.2073E-03     70.1841E+03     109.379E+06     68.3531E+06     130.977E+03    -24.4163E-03     49.8301E-03    -25.4138E-03     20.4016E-03    -24.7177E-03     50.3218E-03    -25.2307E-03     20.3607E-03
             285     17.5505E-03     51.2069E-03    -2.50116E+06     107.924E+06     67.2857E+06    -431.908E+03    -24.7266E-03     50.1452E-03    -25.4186E-03     21.0287E-03    -25.0387E-03     50.6364E-03    -25.2351E-03     20.9802E-03
             286     17.5517E-03     52.2024E-03    -2.51602E+06     107.719E+06     65.9409E+06     829.949E+03    -24.5668E-03     49.9805E-03    -25.4137E-03     20.7190E-03    -24.8761E-03     50.4720E-03    -25.2365E-03     20.6868E-03
             287     17.5526E-03     53.1994E-03    -348.047E+03     108.751E+06     67.6533E+06    -677.796E+03    -24.0022E-03     49.4146E-03    -25.4124E-03     20.2106E-03    -24.3034E-03     49.9045E-03    -25.2314E-03     20.1618E-03
             288     17.5510E-03     54.1976E-03    -3.00159E+06     107.517E+06     66.4521E+06    -766.036E+03    -24.9251E-03     50.3379E-03    -25.4128E-03     20.2223E-03    -25.2377E-03     50.8289E-03    -25.2321E-03     20.1684E-03
             289     17.5517E-03     55.1926E-03    -2.78059E+06     107.757E+06     66.7970E+06     606.670E+03    -25.4591E-03     50.8647E-03    -25.4056E-03     20.3803E-03    -25.7708E-03     51.3553E-03    -25.2238E-03     20.3417E-03
             290     17.5515E-03     56.1959E-03    -947.681E+03     108.468E+06     67.4517E+06     699.247E+03    -24.2629E-03     49.6765E-03    -25.4136E-03     21.2102E-03    -24.5675E-03     50.1672E-03    -25.2322E-03     21.1779E-03
             291     17.5526E-03     57.1874E-03    -2.07084E+06     108.124E+06     66.6676E+06    -16.6426E+03    -24.2967E-03     49.7071E-03    -25.4104E-03     21.4967E-03    -24.6058E-03     50.1994E-03    -25.2308E-03     21.4551E-03
             292     877.400E-06     58.4443E-03    -42.3349E+06    -126.282E+06    -41.0129E+06     222.137E+03    -25.4755E-03     50.9432E-03    -25.4677E-03     5.37167E-03    -25.4446E-03     50.4328E-03    -25.4283E-03     5.37153E-03
             293     1.75479E-03     58.4516E-03    -40.5579E+06    -126.410E+06    -36.4887E+06     466.531E+03    -25.4945E-03     50.9865E-03    -25.4921E-03     9.96565E-03    -25.4615E-03     50.4667E-03    -25.4324E-03     9.96589E-03
             294     2.63221E-03     58.4632E-03    -38.2612E+06    -122.350E+06    -30.6029E+06     385.342E+03    -25.5059E-03     51.0164E-03    -25.5105E-03     14.7648E-03    -25.4765E-03     50.5055E-03    -25.4306E-03     14.7608E-03
             295     3.50961E-03     58.4795E-03    -35.5988E+06    -114.993E+06    -24.5324E+06    -45.9255E+03    -25.5187E-03     51.0390E-03    -25.5203E-03     19.5683E-03    -25.4964E-03     50.5533E-03    -25.4246E-03     19.5550E-03
             296     4.38707E-03     58.5003E-03    -32.9597E+06    -107.703E+06    -18.6465E+06    -65.1591E+03    -25.5412E-03     51.0681E-03    -25.5269E-03     24.3356E-03    -25.5262E-03     50.6078E-03    -25.4161E-03     24.3177E-03
             297     5.26451E-03     58.5256E-03    -30.3541E+06    -101.931E+06    -12.9915E+06     186.781E+03    -25.5794E-03     51.1127E-03    -25.5334E-03     29.0156E-03    -25.5698E-03     50.6713E-03    -25.4065E-03     28.9959E-03
             298     6.14203E-03     58.5553E-03    -27.7125E+06    -93.9030E+06    -8.10839E+06     278.055E+03    -25.6264E-03     51.1588E-03    -25.5324E-03     33.5897E-03    -25.6252E-03     50.7493E-03    -25.3966E-03     33.5652E-03
             299     7.01950E-03     58.5893E-03    -25.1975E+06    -84.8659E+06    -4.00498E+06     312.874E+03    -25.6786E-03     51.2048E-03    -25.5262E-03     38.0413E-03    -25.6875E-03     50.8346E-03    -25.3866E-03     38.0101E-03
             300     7.89703E-03     58.6274E-03    -22.6254E+06    -77.5283E+06    -625.445E+03     616.165E+03    -25.7359E-03     51.2542E-03    -25.5184E-03     42.3102E-03    -25.7525E-03     50.9171E-03    -25.3763E-03     42.2746E-03
             301     8.77456E-03     58.6694E-03    -20.1399E+06    -70.3853E+06     1.67630E+06     583.428E+03    -25.8000E-03     51.3053E-03    -25.5053E-03     46.3627E-03    -25.8247E-03     51.0038E-03    -25.3657E-03     46.3169E-03
             302     9.65214E-03     58.7151E-03    -17.7732E+06    -61.2684E+06     3.35838E+06     99.2462E+03    -25.8683E-03     51.3551E-03    -25.4867E-03     50.1394E-03    -25.9059E-03     51.1023E-03    -25.3553E-03     50.0761E-03
             303     10.5297E-03     58.7642E-03    -15.9170E+06    -54.5986E+06     3.74839E+06     67.5981E+03    -25.9356E-03     51.4022E-03    -25.4666E-03     53.5230E-03    -25.9862E-03     51.1916E-03    -25.3456E-03     53.4465E-03
             304     11.4073E-03     58.8163E-03    -14.5669E+06    -44.2201E+06     2.10802E+06     155.303E+03    -26.0019E-03     51.4348E-03    -25.4329E-03     56.4514E-03    -26.0744E-03     51.2925E-03    -25.3371E-03     56.3620E-03
             305     12.2848E-03     58.8709E-03    -13.6582E+06    -24.4997E+06     3.63341E+06     37.3085E+03    -26.0358E-03     51.4386E-03    -25.4029E-03     59.7571E-03    -26.1570E-03     51.4138E-03    -25.3294E-03     59.6514E-03
             306     13.1626E-03     58.9292E-03    -13.1829E+06    -4.94697E+06     1.45386E+06     513.229E+03    -26.0551E-03     51.4090E-03    -25.3539E-03     63.7686E-03    -26.2347E-03     51.5200E-03    -25.3203E-03     63.6528E-03
             307     14.0397E-03     58.9913E-03    -11.8146E+06     46.4049E+06     9.68693E+06      651.09E+03    -25.8794E-03     51.1828E-03    -25.3034E-03     67.5142E-03    -26.1799E-03     51.5780E-03    -25.3051E-03     67.3935E-03
             308     14.9181E-03     59.0566E-03    -9.26475E+06     97.0380E+06     31.0639E+06     613.771E+03    -25.5912E-03     50.9034E-03    -25.3122E-03     64.2163E-03    -25.9994E-03     51.5331E-03    -25.2841E-03     64.1084E-03
             309     15.7964E-03     59.1131E-03    -7.01630E+06     108.205E+06     48.3412E+06     389.229E+03    -25.3711E-03     50.7307E-03    -25.3596E-03     56.9397E-03    -25.8088E-03     51.3873E-03    -25.2646E-03     56.8545E-03
             310     16.6704E-03     59.1643E-03    -3.46445E+06     110.653E+06     62.2425E+06    -352.930E+03    -24.7228E-03     50.1193E-03    -25.3965E-03     37.4557E-03    -25.1018E-03     50.6984E-03    -25.2408E-03     37.3928E-03
             311     877.408E-06     59.4417E-03    -42.6550E+06    -126.655E+06    -41.4023E+06     205.550E+03    -25.4723E-03     50.9563E-03    -25.4839E-03     5.41041E-03    -25.4420E-03     50.4451E-03    -25.4454E-03     5.41006E-03
             312     1.75479E-03     59.4488E-03    -41.1210E+06    -127.127E+06    -37.1298E+06     473.009E+03    -25.4963E-03     50.9934E-03    -25.4970E-03     9.96146E-03    -25.4642E-03     50.4717E-03    -25.4387E-03     9.96178E-03
             313     2.63218E-03     59.4606E-03    -38.9772E+06    -121.946E+06    -32.0435E+06     346.106E+03    -25.5012E-03     51.0092E-03    -25.5080E-03     14.7708E-03    -25.4739E-03     50.5035E-03    -25.4349E-03     14.7663E-03
             314     3.50961E-03     59.4769E-03    -36.4413E+06    -114.571E+06    -25.8569E+06    -109.402E+03    -25.5115E-03     51.0281E-03    -25.5166E-03     19.5781E-03    -25.4921E-03     50.5476E-03    -25.4269E-03     19.5640E-03
             315     4.38705E-03     59.4977E-03    -33.5590E+06    -108.195E+06    -18.9152E+06     54.7825E+03    -25.5353E-03     51.0633E-03    -25.5280E-03     24.3460E-03    -25.5221E-03     50.6018E-03    -25.4171E-03     24.3297E-03
             316     5.26454E-03     59.5230E-03    -30.5832E+06    -102.122E+06    -12.7437E+06     323.405E+03    -25.5751E-03     51.1105E-03    -25.5353E-03     29.0234E-03    -25.5668E-03     50.6680E-03    -25.4066E-03     29.0055E-03
             317     6.14200E-03     59.5527E-03    -27.7043E+06    -94.0417E+06    -7.89793E+06     399.943E+03    -25.6182E-03     51.1512E-03    -25.5330E-03     33.6013E-03    -25.6170E-03     50.7407E-03    -25.3959E-03     33.5783E-03
             318     7.01953E-03     59.5866E-03    -25.0392E+06    -85.0221E+06    -3.77308E+06     516.389E+03    -25.6639E-03     51.1891E-03    -25.5253E-03     38.0552E-03    -25.6721E-03     50.8176E-03    -25.3845E-03     38.0268E-03
             319     7.89706E-03     59.6247E-03    -22.4934E+06    -77.7509E+06    -445.511E+03     419.090E+03    -25.7201E-03     51.2358E-03    -25.5157E-03     42.3276E-03    -25.7360E-03     50.8971E-03    -25.3726E-03     42.2896E-03
             320     8.77463E-03     59.6667E-03    -19.7891E+06    -70.0450E+06     1.95623E+06     190.708E+03    -25.7879E-03     51.2888E-03    -25.5009E-03     46.3798E-03    -25.8117E-03     50.9880E-03    -25.3608E-03     46.3291E-03
             321     9.65220E-03     59.7124E-03    -17.7095E+06    -61.1270E+06     3.63691E+06     115.122E+03    -25.8586E-03     51.3410E-03    -25.4824E-03     50.1437E-03    -25.8964E-03     51.0884E-03    -25.3499E-03     50.0806E-03
             322     10.5298E-03     59.7615E-03    -16.2602E+06    -54.9646E+06     3.89485E+06     313.649E+03    -25.9297E-03     51.3925E-03    -25.4628E-03     53.4975E-03    -25.9817E-03     51.1803E-03    -25.3401E-03     53.4242E-03
             323     11.4074E-03     59.8135E-03    -15.0674E+06    -44.0647E+06     2.19258E+06     323.269E+03    -25.9848E-03     51.4129E-03    -25.4280E-03     56.4503E-03    -26.0602E-03     51.2719E-03    -25.3313E-03     56.3631E-03
             324     12.2850E-03     59.8683E-03    -14.0502E+06    -24.6601E+06     3.91599E+06     418.065E+03    -26.0061E-03     51.4044E-03    -25.3983E-03     59.6956E-03    -26.1295E-03     51.3790E-03    -25.3226E-03     59.5948E-03
             325     13.1625E-03     59.9264E-03    -12.8634E+06    -5.42546E+06     1.62718E+06     420.835E+03    -26.0031E-03     51.3492E-03    -25.3461E-03     63.6743E-03    -26.1805E-03     51.4570E-03    -25.3114E-03     63.5576E-03
             326     14.0407E-03     59.9887E-03    -11.5540E+06     46.9535E+06     11.2747E+06     513.995E+03    -25.9786E-03     51.2818E-03    -25.3032E-03     67.6235E-03    -26.2820E-03     51.6782E-03    -25.2982E-03     67.4999E-03
             327     14.9180E-03     60.0540E-03    -10.2551E+06     96.1982E+06     30.0855E+06     892.393E+03    -25.5441E-03     50.8491E-03    -25.3050E-03     64.2807E-03    -25.9557E-03     51.4785E-03    -25.2792E-03     64.1759E-03
             328     15.7953E-03     60.1105E-03    -6.48579E+06     108.194E+06     47.5260E+06     51.5263E+03    -25.0653E-03     50.4056E-03    -25.3404E-03     57.0672E-03    -25.4991E-03     51.0626E-03    -25.2502E-03     56.9801E-03
             329     16.6778E-03     60.1611E-03    -2.80210E+06     111.832E+06     63.9647E+06    -549.396E+03    -25.0589E-03     50.4479E-03    -25.3890E-03     37.3200E-03    -25.4393E-03     51.0298E-03    -25.2273E-03     37.2542E-03
             330     877.371E-06     60.4390E-03    -43.0892E+06    -127.102E+06    -41.7952E+06     282.556E+03    -25.4755E-03     50.9708E-03    -25.4953E-03     5.40571E-03    -25.4461E-03     50.4586E-03    -25.4575E-03     5.40635E-03
             331     1.75477E-03     60.4462E-03    -41.5255E+06    -127.754E+06    -37.7980E+06     476.664E+03    -25.4930E-03     50.9940E-03    -25.5010E-03     9.97106E-03    -25.4611E-03     50.4708E-03    -25.4445E-03     9.97143E-03
             332     2.63218E-03     60.4579E-03    -39.5438E+06    -121.523E+06    -33.3654E+06     312.249E+03    -25.4944E-03     50.9982E-03    -25.5039E-03     14.7802E-03    -25.4686E-03     50.4974E-03    -25.4372E-03     14.7752E-03
             333     3.50961E-03     60.4742E-03    -37.2611E+06    -114.115E+06    -27.0214E+06    -128.062E+03    -25.5016E-03     51.0130E-03    -25.5114E-03     19.5867E-03    -25.4853E-03     50.5377E-03    -25.4271E-03     19.5724E-03
             334     4.38707E-03     60.4950E-03    -34.4377E+06    -108.782E+06    -19.2658E+06    -97.5979E+03    -25.5297E-03     51.0572E-03    -25.5275E-03     24.3532E-03    -25.5196E-03     50.5945E-03    -25.4162E-03     24.3350E-03
             335     5.26453E-03     60.5203E-03    -31.1799E+06    -102.246E+06    -12.8663E+06     160.556E+03    -25.5670E-03     51.1013E-03    -25.5343E-03     29.0334E-03    -25.5613E-03     50.6593E-03    -25.4052E-03     29.0135E-03
             336     6.14203E-03     60.5500E-03    -27.9594E+06    -94.2649E+06    -7.88988E+06     275.097E+03    -25.6072E-03     51.1386E-03    -25.5314E-03     33.6049E-03    -25.6070E-03     50.7273E-03    -25.3936E-03     33.5804E-03
             337     7.01955E-03     60.5839E-03    -24.9684E+06    -85.3167E+06    -3.64119E+06     480.096E+03    -25.6525E-03     51.1753E-03    -25.5228E-03     38.0478E-03    -25.6602E-03     50.8020E-03    -25.3811E-03     38.0189E-03
             338     7.89711E-03     60.6220E-03    -22.3062E+06    -77.4087E+06    -16.3874E+03     378.314E+03    -25.7142E-03     51.2274E-03    -25.5131E-03     42.3021E-03    -25.7303E-03     50.8895E-03    -25.3686E-03     42.2636E-03
             339     8.77466E-03     60.6640E-03    -20.2593E+06    -69.9356E+06     1.97996E+06     88.2089E+03    -25.7857E-03     51.2834E-03    -25.4977E-03     46.3546E-03    -25.8120E-03     50.9838E-03    -25.3570E-03     46.3025E-03
             340     9.65223E-03     60.7098E-03    -18.3644E+06    -61.5554E+06     3.43258E+06     370.349E+03    -25.8582E-03     51.3378E-03    -25.4796E-03     50.1096E-03    -25.8984E-03     51.0844E-03    -25.3466E-03     50.0497E-03
             341     10.5298E-03     60.7588E-03    -16.5902E+06    -54.9508E+06     3.98986E+06     471.144E+03    -25.9395E-03     51.4008E-03    -25.4614E-03     53.4433E-03    -25.9933E-03     51.1891E-03    -25.3377E-03     53.3719E-03
             342     11.4073E-03     60.8110E-03    -15.2448E+06    -44.2717E+06     2.02958E+06     630.696E+03    -25.9929E-03     51.4194E-03    -25.4265E-03     56.3723E-03    -26.0687E-03     51.2780E-03    -25.3300E-03     56.2888E-03
             343     12.2850E-03     60.8656E-03    -13.9862E+06    -24.5162E+06     3.87033E+06     462.254E+03    -25.9757E-03     51.3717E-03    -25.3960E-03     59.5953E-03    -26.0988E-03     51.3469E-03    -25.3208E-03     59.4952E-03
             344     13.1627E-03     60.9239E-03    -12.8861E+06    -5.01951E+06     1.88435E+06     169.470E+03    -26.0011E-03     51.3455E-03    -25.3444E-03     63.4755E-03    -26.1797E-03     51.4551E-03    -25.3091E-03     63.3553E-03
             345     14.0401E-03     60.9856E-03    -11.6289E+06     45.9136E+06     10.4874E+06     626.599E+03    -25.8946E-03     51.1908E-03    -25.2962E-03     67.6558E-03    -26.1958E-03     51.5833E-03    -25.2935E-03     67.5341E-03
             346     14.9179E-03     61.0524E-03    -8.64052E+06     97.0977E+06     30.8998E+06     61.8071E+03    -25.5457E-03     50.8442E-03    -25.2985E-03     63.9790E-03    -25.9513E-03     51.4742E-03    -25.2722E-03     63.8637E-03
             347     15.7974E-03     61.1057E-03    -6.08763E+06     108.915E+06     48.3672E+06    -144.836E+03    -25.1947E-03     50.5351E-03    -25.3404E-03     56.5319E-03    -25.6277E-03     51.1927E-03    -25.2476E-03     56.4412E-03
             348     16.6706E-03     61.1603E-03    -3.72765E+06     110.973E+06     63.3558E+06     131.155E+03    -25.0924E-03     50.4832E-03    -25.3908E-03     37.6404E-03    -25.4747E-03     51.0625E-03    -25.2295E-03     37.5827E-03
             349     877.382E-06     61.4364E-03    -43.3720E+06    -127.651E+06    -42.2759E+06     276.513E+03    -25.4717E-03     50.9740E-03    -25.5023E-03     5.38831E-03    -25.4422E-03     50.4601E-03    -25.4657E-03     5.38885E-03
             350     1.75478E-03     61.4435E-03    -41.7303E+06    -128.070E+06    -37.9823E+06     287.916E+03    -25.4887E-03     50.9905E-03    -25.5018E-03     9.98212E-03    -25.4571E-03     50.4662E-03    -25.4455E-03     9.98006E-03
             351     2.63218E-03     61.4553E-03    -39.4149E+06    -121.297E+06    -32.9672E+06     166.237E+03    -25.4911E-03     50.9958E-03    -25.5047E-03     14.7784E-03    -25.4656E-03     50.4953E-03    -25.4365E-03     14.7716E-03
             352     3.50962E-03     61.4715E-03    -36.9917E+06    -113.766E+06    -26.5705E+06     5.28468E+03    -25.5001E-03     51.0118E-03    -25.5117E-03     19.5883E-03    -25.4836E-03     50.5371E-03    -25.4259E-03     19.5757E-03
             353     4.38707E-03     61.4924E-03    -34.3316E+06    -108.999E+06    -19.2299E+06    -96.4328E+03    -25.5279E-03     51.0545E-03    -25.5265E-03     24.3510E-03    -25.5171E-03     50.5905E-03    -25.4148E-03     24.3328E-03
             354     5.26455E-03     61.5176E-03    -31.3316E+06    -102.417E+06    -12.9572E+06    -24.1573E+03    -25.5599E-03     51.0924E-03    -25.5325E-03     29.0272E-03    -25.5546E-03     50.6499E-03    -25.4034E-03     29.0049E-03
             355     6.14205E-03     61.5473E-03    -28.2866E+06    -94.4267E+06    -7.84184E+06     86.8735E+03    -25.6041E-03     51.1342E-03    -25.5301E-03     33.5895E-03    -25.6053E-03     50.7226E-03    -25.3914E-03     33.5626E-03
             356     7.01957E-03     61.5812E-03    -25.3333E+06    -85.6747E+06    -3.67135E+06     230.727E+03    -25.6577E-03     51.1798E-03    -25.5221E-03     38.0178E-03    -25.6666E-03     50.8053E-03    -25.3795E-03     37.9857E-03
             357     7.89711E-03     61.6193E-03    -22.5763E+06    -77.2093E+06     16.0905E+03     326.927E+03    -25.7211E-03     51.2340E-03    -25.5129E-03     42.2678E-03    -25.7389E-03     50.8975E-03    -25.3681E-03     42.2285E-03
             358     8.77466E-03     61.6613E-03    -20.2400E+06    -70.0708E+06     2.14998E+06     484.927E+03    -25.7966E-03     51.2959E-03    -25.4994E-03     46.2923E-03    -25.8229E-03     50.9954E-03    -25.3577E-03     46.2452E-03
             359     9.65225E-03     61.7070E-03    -18.4318E+06    -61.8041E+06     3.27303E+06     503.290E+03    -25.8711E-03     51.3521E-03    -25.4811E-03     50.0540E-03    -25.9110E-03     51.0978E-03    -25.3484E-03     49.9958E-03
             360     10.5298E-03     61.7562E-03    -16.6199E+06    -54.8676E+06     3.76918E+06     463.430E+03    -25.9512E-03     51.4141E-03    -25.4630E-03     53.4007E-03    -26.0050E-03     51.2033E-03    -25.3405E-03     53.3290E-03
             361     11.4074E-03     61.8082E-03    -14.7345E+06    -44.5904E+06     1.96426E+06     393.898E+03    -25.9987E-03     51.4278E-03    -25.4291E-03     56.3280E-03    -26.0714E-03     51.2842E-03    -25.3333E-03     56.2414E-03
             362     12.2849E-03     61.8630E-03    -13.4542E+06    -24.3572E+06     3.93011E+06     653.869E+03    -25.9888E-03     51.3877E-03    -25.3989E-03     59.4889E-03    -26.1094E-03     51.3627E-03    -25.3244E-03     59.3913E-03
             363     13.1626E-03     61.9209E-03    -12.6070E+06    -4.84858E+06     1.88687E+06     638.791E+03    -25.9990E-03     51.3466E-03    -25.3476E-03     63.4340E-03    -26.1765E-03     51.4567E-03    -25.3128E-03     63.3199E-03
             364     14.0402E-03     61.9834E-03    -10.9552E+06     46.2189E+06     10.4429E+06    -412.490E+03    -25.9134E-03     51.2121E-03    -25.2987E-03     67.4992E-03    -26.2114E-03     51.6050E-03    -25.2976E-03     67.3641E-03
             365     14.9189E-03     62.0483E-03    -8.83380E+06     97.2729E+06     31.3776E+06    -407.427E+03    -25.5883E-03     50.8952E-03    -25.3070E-03     63.7172E-03    -25.9947E-03     51.5247E-03    -25.2783E-03     63.5958E-03
             366     15.7942E-03     62.1054E-03    -6.11962E+06     109.277E+06     48.9348E+06     542.957E+03    -25.3446E-03     50.6987E-03    -25.3541E-03     56.5100E-03    -25.7788E-03     51.3571E-03    -25.2590E-03     56.4265E-03
             367     16.6775E-03     62.1548E-03    -3.41886E+06     111.062E+06     63.1395E+06     403.367E+03    -25.0460E-03     50.4487E-03    -25.4027E-03     37.9485E-03    -25.4272E-03     51.0289E-03    -25.2431E-03     37.8936E-03
             368     877.378E-06     62.4337E-03    -43.7083E+06    -128.018E+06    -42.4484E+06     7.53866E+03    -25.4944E-03     50.9688E-03    -25.4744E-03     5.37383E-03    -25.4658E-03     50.4539E-03    -25.4377E-03     5.37089E-03
             369     1.75477E-03     62.4409E-03    -41.8235E+06    -128.099E+06    -37.8455E+06     59.5914E+03    -25.4877E-03     50.9886E-03    -25.5008E-03     9.98490E-03    -25.4567E-03     50.4641E-03    -25.4436E-03     9.97990E-03
             370     2.63219E-03     62.4526E-03    -39.6085E+06    -121.229E+06    -32.8218E+06    -18.3741E+03    -25.4897E-03     50.9941E-03    -25.5043E-03     14.7776E-03    -25.4655E-03     50.4940E-03    -25.4352E-03     14.7684E-03
             371     3.50963E-03     62.4689E-03    -37.0644E+06    -113.740E+06    -26.5713E+06     5.15088E+03    -25.5005E-03     51.0113E-03    -25.5109E-03     19.5843E-03    -25.4843E-03     50.5369E-03    -25.4251E-03     19.5718E-03
             372     4.38708E-03     62.4897E-03    -34.2011E+06    -108.928E+06    -19.1605E+06     14.4357E+03    -25.5282E-03     51.0542E-03    -25.5260E-03     24.3405E-03    -25.5169E-03     50.5903E-03    -25.4142E-03     24.3237E-03
             373     5.26455E-03     62.5150E-03    -31.2796E+06    -102.622E+06    -12.8163E+06     64.0727E+03    -25.5655E-03     51.0989E-03    -25.5334E-03     29.0038E-03    -25.5599E-03     50.6551E-03    -25.4033E-03     28.9826E-03
             374     6.14205E-03     62.5446E-03    -28.4450E+06    -94.4517E+06    -7.79610E+06     123.658E+03    -25.6121E-03     51.1437E-03    -25.5316E-03     33.5630E-03    -25.6141E-03     50.7321E-03    -25.3924E-03     33.5365E-03
             375     7.01956E-03     62.5786E-03    -25.6005E+06    -85.7701E+06    -3.66691E+06     26.2554E+03    -25.6688E-03     51.1937E-03    -25.5250E-03     37.9885E-03    -25.6789E-03     50.8191E-03    -25.3818E-03     37.9537E-03
             376     7.89708E-03     62.6166E-03    -22.8588E+06    -77.5200E+06    -267.435E+03     215.661E+03    -25.7374E-03     51.2534E-03    -25.5160E-03     42.2467E-03    -25.7557E-03     50.9162E-03    -25.3718E-03     42.2059E-03
             377     8.77461E-03     62.6586E-03    -20.3434E+06    -70.3383E+06     1.98737E+06     471.598E+03    -25.8183E-03     51.3227E-03    -25.5044E-03     46.2635E-03    -25.8445E-03     51.0212E-03    -25.3629E-03     46.2161E-03
             378     9.65211E-03     62.7044E-03    -17.9485E+06    -61.6862E+06     3.39755E+06     491.498E+03    -25.8895E-03     51.3770E-03    -25.4874E-03     50.0253E-03    -25.9275E-03     51.1224E-03    -25.3550E-03     49.9668E-03
             379     10.5297E-03     62.7535E-03    -15.9292E+06    -54.8176E+06     3.96442E+06     286.627E+03    -25.9615E-03     51.4315E-03    -25.4700E-03     53.3751E-03    -26.0123E-03     51.2196E-03    -25.3476E-03     53.3011E-03
             380     11.4072E-03     62.8056E-03    -14.5881E+06    -44.7563E+06     2.18867E+06     348.009E+03    -25.9856E-03     51.4223E-03    -25.4368E-03     56.2384E-03    -26.0575E-03     51.2773E-03    -25.3398E-03     56.1513E-03
             381     12.2849E-03     62.8602E-03    -13.1258E+06    -24.7235E+06     4.18911E+06     586.205E+03    -25.9872E-03     51.3929E-03    -25.4057E-03     59.5192E-03    -26.1059E-03     51.3651E-03    -25.3299E-03     59.4209E-03
             382     13.1624E-03     62.9185E-03    -11.3982E+06    -4.44136E+06     2.47052E+06     431.773E+03    -26.0858E-03     51.4416E-03    -25.3559E-03     63.3476E-03    -26.2589E-03     51.5514E-03    -25.3205E-03     63.2302E-03
             383     14.0404E-03     62.9800E-03    -11.0531E+06     47.4144E+06     11.6015E+06     56.6644E+03    -25.9968E-03     51.3124E-03    -25.3156E-03     67.4049E-03    -26.2987E-03     51.7097E-03    -25.3103E-03     67.2752E-03
             384     14.9166E-03     63.0472E-03    -10.2750E+06     96.7656E+06     30.9382E+06    -280.576E+03    -25.5488E-03     50.8701E-03    -25.3213E-03     63.7252E-03    -25.9605E-03     51.4991E-03    -25.2920E-03     63.6056E-03
             385     15.7980E-03     63.1003E-03    -6.69595E+06     108.685E+06     48.0502E+06    -85.8222E+03    -25.2645E-03     50.6255E-03    -25.3610E-03     56.7246E-03    -25.7004E-03     51.2840E-03    -25.2686E-03     56.6333E-03
             386     16.6694E-03     63.1556E-03    -3.42986E+06     111.227E+06     63.3702E+06     473.220E+03    -24.9300E-03     50.3373E-03    -25.4073E-03     38.2827E-03    -25.3126E-03     50.9188E-03    -25.2467E-03     38.2294E-03
             387     877.391E-06     63.4310E-03    -43.3059E+06    -128.187E+06    -41.7293E+06     212.555E+03    -25.5024E-03     50.9656E-03    -25.4632E-03     5.36249E-03    -25.4727E-03     50.4482E-03    -25.4232E-03     5.36221E-03
             388     1.75479E-03     63.4382E-03    -41.6595E+06    -127.878E+06    -37.7430E+06    -124.939E+03    -25.4955E-03     50.9947E-03    -25.4992E-03     9.97396E-03    -25.4642E-03     50.4710E-03    -25.4421E-03     9.96656E-03
             389     2.63220E-03     63.4499E-03    -39.4074E+06    -121.251E+06    -32.8935E+06    -148.989E+03    -25.4920E-03     50.9965E-03    -25.5045E-03     14.7686E-03    -25.4666E-03     50.4961E-03    -25.4360E-03     14.7577E-03
             390     3.50961E-03     63.4662E-03    -37.0302E+06    -113.888E+06    -26.7073E+06    -6.06716E+03    -25.5013E-03     51.0125E-03    -25.5112E-03     19.5735E-03    -25.4846E-03     50.5375E-03    -25.4259E-03     19.5607E-03
             391     4.38708E-03     63.4870E-03    -34.4023E+06    -109.050E+06    -19.2594E+06     178.406E+03    -25.5337E-03     51.0609E-03    -25.5272E-03     24.3315E-03    -25.5231E-03     50.5969E-03    -25.4155E-03     24.3169E-03
             392     5.26454E-03     63.5123E-03    -31.4132E+06    -102.574E+06    -12.7981E+06     117.809E+03    -25.5793E-03     51.1156E-03    -25.5363E-03     28.9918E-03    -25.5744E-03     50.6722E-03    -25.4060E-03     28.9712E-03
             393     6.14201E-03     63.5419E-03    -28.2752E+06    -94.6230E+06    -7.87371E+06     129.688E+03    -25.6256E-03     51.1611E-03    -25.5356E-03     33.5459E-03    -25.6264E-03     50.7485E-03    -25.3967E-03     33.5194E-03
             394     7.01951E-03     63.5759E-03    -25.5330E+06    -85.5204E+06    -3.71802E+06     121.124E+03    -25.6797E-03     51.2092E-03    -25.5295E-03     37.9804E-03    -25.6898E-03     50.8359E-03    -25.3871E-03     37.9467E-03
             395     7.89703E-03     63.6139E-03    -23.0295E+06    -78.0055E+06    -560.870E+03     102.420E+03    -25.7482E-03     51.2696E-03    -25.5214E-03     42.2451E-03    -25.7663E-03     50.9306E-03    -25.3777E-03     42.2028E-03
             396     8.77453E-03     63.6560E-03    -20.5628E+06    -70.4826E+06     1.64398E+06     303.483E+03    -25.8249E-03     51.3342E-03    -25.5094E-03     46.2991E-03    -25.8515E-03     51.0329E-03    -25.3691E-03     46.2496E-03
             397     9.65209E-03     63.7017E-03    -18.3266E+06    -61.5105E+06     3.19920E+06     146.084E+03    -25.9042E-03     51.3976E-03    -25.4933E-03     50.0708E-03    -25.9441E-03     51.1447E-03    -25.3615E-03     50.0079E-03
             398     10.5296E-03     63.7509E-03    -16.4805E+06    -55.0236E+06     3.79276E+06     298.561E+03    -25.9682E-03     51.4455E-03    -25.4772E-03     53.4161E-03    -26.0211E-03     51.2335E-03    -25.3546E-03     53.3423E-03
             399     11.4072E-03     63.8030E-03    -14.9919E+06    -44.8252E+06     2.13671E+06     456.880E+03    -25.9880E-03     51.4321E-03    -25.4441E-03     56.2211E-03    -26.0617E-03     51.2873E-03    -25.3467E-03     56.1355E-03
             400     12.2847E-03     63.8575E-03    -13.5156E+06    -24.6417E+06     4.05137E+06     67.6720E+03    -25.9889E-03     51.4012E-03    -25.4123E-03     59.4949E-03    -26.1094E-03     51.3745E-03    -25.3367E-03     59.3899E-03
             401     13.1626E-03     63.9158E-03    -12.3881E+06    -4.73144E+06     2.33295E+06    -47.8139E+03    -26.1428E-03     51.5081E-03    -25.3652E-03     63.5888E-03    -26.3205E-03     51.6182E-03    -25.3287E-03     63.4649E-03
             402     14.0391E-03     63.9782E-03    -10.7330E+06     46.9648E+06     11.0159E+06     826.472E+03    -25.9248E-03     51.2448E-03    -25.3200E-03     67.4161E-03    -26.2230E-03     51.6396E-03    -25.3174E-03     67.2970E-03
             403     14.9194E-03     64.0431E-03    -8.78413E+06     98.2787E+06     32.3896E+06     458.098E+03    -25.4969E-03     50.8235E-03    -25.3267E-03     64.0935E-03    -25.9056E-03     51.4560E-03    -25.2945E-03     63.9840E-03
             404     15.7930E-03     64.0996E-03    -7.64679E+06     108.436E+06     48.6729E+06    -205.739E+03    -25.3383E-03     50.7065E-03    -25.3682E-03     57.0007E-03    -25.7798E-03     51.3645E-03    -25.2710E-03     56.9079E-03
             405     16.6784E-03     64.1502E-03    -3.99427E+06     110.374E+06     62.3171E+06     311.449E+03    -24.7278E-03     50.1310E-03    -25.4033E-03     37.7316E-03    -25.1092E-03     50.7094E-03    -25.2459E-03     37.6774E-03
             406     877.410E-06     64.4284E-03    -42.3024E+06    -128.590E+06    -41.2837E+06     490.328E+03    -25.4811E-03     50.9794E-03    -25.4983E-03     5.36950E-03    -25.4464E-03     50.4579E-03    -25.4569E-03     5.37282E-03
             407     1.75477E-03     64.4355E-03    -41.1177E+06    -127.362E+06    -37.3280E+06     69.9297E+03    -25.4993E-03     51.0025E-03    -25.5032E-03     9.94689E-03    -25.4665E-03     50.4799E-03    -25.4456E-03     9.94200E-03
             408     2.63216E-03     64.4473E-03    -39.4397E+06    -121.387E+06    -32.9812E+06    -144.204E+03    -25.4962E-03     51.0038E-03    -25.5076E-03     14.7609E-03    -25.4706E-03     50.5030E-03    -25.4394E-03     14.7500E-03
             409     3.50962E-03     64.4635E-03    -37.2033E+06    -114.163E+06    -26.8949E+06     122.341E+03    -25.5096E-03     51.0245E-03    -25.5149E-03     19.5574E-03    -25.4931E-03     50.5486E-03    -25.4299E-03     19.5463E-03
             410     4.38705E-03     64.4843E-03    -34.3245E+06    -109.109E+06    -19.3425E+06     150.913E+03    -25.5418E-03     51.0735E-03    -25.5316E-03     24.3162E-03    -25.5306E-03     50.6091E-03    -25.4204E-03     24.3012E-03
             411     5.26451E-03     64.5096E-03    -31.1893E+06    -102.486E+06    -12.9688E+06     95.7676E+03    -25.5834E-03     51.1234E-03    -25.5400E-03     28.9919E-03    -25.5773E-03     50.6804E-03    -25.4110E-03     28.9710E-03
             412     6.14197E-03     64.5393E-03    -28.2281E+06    -94.6937E+06    -8.03376E+06     17.0653E+03    -25.6347E-03     51.1745E-03    -25.5399E-03     33.5518E-03    -25.6349E-03     50.7617E-03    -25.4018E-03     33.5239E-03
             413     7.01947E-03     64.5732E-03    -25.2892E+06    -85.6733E+06    -3.76587E+06     168.087E+03    -25.6879E-03     51.2224E-03    -25.5345E-03     38.0006E-03    -25.6965E-03     50.8480E-03    -25.3924E-03     37.9675E-03
             414     7.89696E-03     64.6114E-03    -22.7096E+06    -77.9406E+06    -204.837E+03     213.179E+03    -25.7505E-03     51.2783E-03    -25.5278E-03     42.2611E-03    -25.7676E-03     50.9387E-03    -25.3829E-03     42.2202E-03
             415     8.77453E-03     64.6533E-03    -20.3258E+06    -70.6451E+06     1.78561E+06     54.6296E+03    -25.8243E-03     51.3388E-03    -25.5145E-03     46.3270E-03    -25.8497E-03     51.0361E-03    -25.3737E-03     46.2744E-03
             416     9.65203E-03     64.6992E-03    -18.2430E+06    -61.4899E+06     3.42756E+06     273.723E+03    -25.8973E-03     51.3953E-03    -25.4980E-03     50.1107E-03    -25.9370E-03     51.1420E-03    -25.3652E-03     50.0495E-03
             417     10.5296E-03     64.7482E-03    -16.5262E+06    -55.3496E+06     3.93462E+06     328.724E+03    -25.9505E-03     51.4313E-03    -25.4808E-03     53.4488E-03    -26.0033E-03     51.2175E-03    -25.3569E-03     53.3755E-03
             418     11.4071E-03     64.8004E-03    -14.8909E+06    -44.7066E+06     2.33999E+06     283.557E+03    -25.9894E-03     51.4355E-03    -25.4461E-03     56.3207E-03    -26.0630E-03     51.2908E-03    -25.3480E-03     56.2329E-03
             419     12.2847E-03     64.8548E-03    -13.9083E+06    -24.4514E+06     4.10094E+06     337.933E+03    -26.0194E-03     51.4343E-03    -25.4149E-03     59.6738E-03    -26.1424E-03     51.4092E-03    -25.3388E-03     59.5720E-03
             420     13.1620E-03     64.9132E-03    -13.3548E+06    -4.92452E+06     2.00751E+06     363.853E+03    -25.9883E-03     51.3513E-03    -25.3630E-03     63.8463E-03    -26.1694E-03     51.4617E-03    -25.3265E-03     63.7291E-03
             421     14.0408E-03     64.9755E-03    -12.1159E+06     46.6201E+06     10.4099E+06    -146.385E+03    -25.8989E-03     51.2103E-03    -25.3114E-03     67.5104E-03    -26.2023E-03     51.6060E-03    -25.3094E-03     67.3792E-03
             422     14.9163E-03     65.0403E-03    -9.50701E+06     97.6706E+06     31.1053E+06     638.527E+03    -25.5589E-03     50.8747E-03    -25.3158E-03     64.1161E-03    -25.9693E-03     51.5078E-03    -25.2881E-03     64.0084E-03
             423     15.7989E-03     65.0968E-03    -6.83684E+06     109.075E+06     48.9149E+06     1.20281E+06    -25.3030E-03     50.6649E-03    -25.3619E-03     57.2057E-03    -25.7417E-03     51.3245E-03    -25.2656E-03     57.1313E-03
             424     16.6683E-03     65.1487E-03    -3.52175E+06     110.914E+06     63.0272E+06    -225.173E+03    -24.7825E-03     50.1829E-03    -25.4004E-03     37.5345E-03    -25.1633E-03     50.7622E-03    -25.2410E-03     37.4730E-03
             425     877.343E-06     65.4257E-03    -42.0460E+06    -129.220E+06    -41.2735E+06     281.870E+03    -25.4831E-03     50.9993E-03    -25.5162E-03     5.40119E-03    -25.4462E-03     50.4742E-03    -25.4743E-03     5.40179E-03
             426     1.75477E-03     65.4329E-03    -40.4997E+06    -126.931E+06    -37.1096E+06     168.387E+03    -25.5001E-03     51.0095E-03    -25.5094E-03     9.94490E-03    -25.4652E-03     50.4879E-03    -25.4522E-03     9.94128E-03
             427     2.63218E-03     65.4446E-03    -38.4540E+06    -121.526E+06    -31.4068E+06     106.798E+03    -25.5125E-03     51.0326E-03    -25.5202E-03     14.7478E-03    -25.4841E-03     50.5274E-03    -25.4452E-03     14.7401E-03
             428     3.50956E-03     65.4609E-03    -36.1255E+06    -114.509E+06    -25.6526E+06     237.381E+03    -25.5244E-03     51.0520E-03    -25.5276E-03     19.5463E-03    -25.5038E-03     50.5711E-03    -25.4375E-03     19.5367E-03
             429     4.38701E-03     65.4817E-03    -33.5298E+06    -108.846E+06    -19.3223E+06     141.695E+03    -25.5462E-03     51.0837E-03    -25.5375E-03     24.3150E-03    -25.5314E-03     50.6196E-03    -25.4277E-03     24.2999E-03
             430     5.26447E-03     65.5070E-03    -30.7068E+06    -102.642E+06    -13.1113E+06     72.9527E+03    -25.5824E-03     51.1271E-03    -25.5447E-03     28.9972E-03    -25.5735E-03     50.6828E-03    -25.4169E-03     28.9761E-03
             431     6.14197E-03     65.5367E-03    -27.8500E+06    -94.5589E+06    -7.77160E+06     115.938E+03    -25.6333E-03     51.1782E-03    -25.5450E-03     33.5620E-03    -25.6322E-03     50.7652E-03    -25.4063E-03     33.5354E-03
             432     7.01943E-03     65.5706E-03    -25.2521E+06    -86.0322E+06    -3.60498E+06     119.193E+03    -25.6870E-03     51.2264E-03    -25.5394E-03     38.0084E-03    -25.6950E-03     50.8499E-03    -25.3961E-03     37.9747E-03
             433     7.89699E-03     65.6087E-03    -22.6046E+06    -77.8457E+06    -2.02569E+03     248.340E+03    -25.7499E-03     51.2815E-03    -25.5316E-03     42.2850E-03    -25.7668E-03     50.9419E-03    -25.3860E-03     42.2446E-03
             434     8.77445E-03     65.6508E-03    -20.4779E+06    -70.5921E+06     2.02221E+06     242.657E+03    -25.8171E-03     51.3354E-03    -25.5183E-03     46.3462E-03    -25.8437E-03     51.0328E-03    -25.3761E-03     46.2960E-03
             435     9.65203E-03     65.6964E-03    -18.5443E+06    -61.9223E+06     3.12549E+06     290.774E+03    -25.8645E-03     51.3624E-03    -25.4980E-03     50.1550E-03    -25.9046E-03     51.1078E-03    -25.3657E-03     50.0942E-03
             436     10.5296E-03     65.7457E-03    -16.5610E+06    -55.0502E+06     3.91093E+06     268.148E+03    -25.9179E-03     51.3958E-03    -25.4779E-03     53.4698E-03    -25.9712E-03     51.1836E-03    -25.3545E-03     53.3959E-03
             437     11.4072E-03     65.7975E-03    -15.0354E+06    -44.9378E+06     2.11675E+06     149.585E+03    -25.9684E-03     51.4096E-03    -25.4412E-03     56.3763E-03    -26.0422E-03     51.2643E-03    -25.3437E-03     56.2868E-03
             438     12.2848E-03     65.8523E-03    -13.5052E+06    -24.8199E+06     4.09301E+06     548.093E+03    -25.9775E-03     51.3858E-03    -25.4083E-03     59.7245E-03    -26.0980E-03     51.3584E-03    -25.3323E-03     59.6255E-03
             439     13.1628E-03     65.9104E-03    -12.0460E+06    -4.60991E+06     2.22672E+06     507.797E+03    -25.9415E-03     51.2942E-03    -25.3527E-03     63.6545E-03    -26.1167E-03     51.4037E-03    -25.3174E-03     63.5393E-03
             440     14.0397E-03     65.9724E-03    -11.4007E+06     47.0591E+06     11.0370E+06     558.262E+03    -25.8736E-03     51.1755E-03    -25.3019E-03     67.6179E-03    -26.1754E-03     51.5719E-03    -25.2985E-03     67.4957E-03
             441     14.9196E-03     66.0385E-03    -10.8825E+06     96.4395E+06     29.8632E+06     540.650E+03    -25.7642E-03     51.0722E-03    -25.3080E-03     64.1287E-03    -26.1794E-03     51.7045E-03    -25.2828E-03     64.0177E-03
             442     15.7927E-03     66.0931E-03    -6.60333E+06     109.046E+06     47.8064E+06    -156.376E+03    -25.2470E-03     50.6028E-03    -25.3558E-03     56.7550E-03    -25.6833E-03     51.2640E-03    -25.2653E-03     56.6631E-03
             443     16.6797E-03     66.1467E-03    -2.89484E+06     112.055E+06     64.3903E+06    -134.909E+03    -24.9161E-03     50.3231E-03    -25.4070E-03     37.0053E-03    -25.2966E-03     50.9043E-03    -25.2433E-03     36.9459E-03
             444     877.393E-06     66.4231E-03    -42.0172E+06    -129.468E+06    -41.2045E+06     10.6812E+03    -25.5094E-03     51.0144E-03    -25.5050E-03     5.36782E-03    -25.4721E-03     50.4880E-03    -25.4624E-03     5.36492E-03
             445     1.75476E-03     66.4302E-03    -40.6826E+06    -126.907E+06    -37.2588E+06     13.4118E+03    -25.5068E-03     51.0228E-03    -25.5160E-03     9.95009E-03    -25.4726E-03     50.5018E-03    -25.4593E-03     9.94447E-03
             446     2.63212E-03     66.4420E-03    -38.7180E+06    -121.779E+06    -31.8868E+06     200.181E+03    -25.5174E-03     51.0428E-03    -25.5254E-03     14.7574E-03    -25.4893E-03     50.5374E-03    -25.4521E-03     14.7509E-03
             447     3.50955E-03     66.4582E-03    -36.1980E+06    -114.596E+06    -25.8631E+06     221.021E+03    -25.5252E-03     51.0580E-03    -25.5327E-03     19.5634E-03    -25.5046E-03     50.5770E-03    -25.4434E-03     19.5535E-03
             448     4.38699E-03     66.4790E-03    -33.4170E+06    -108.777E+06    -19.2961E+06     218.218E+03    -25.5490E-03     51.0914E-03    -25.5424E-03     24.3296E-03    -25.5338E-03     50.6274E-03    -25.4327E-03     24.3155E-03
             449     5.26445E-03     66.5043E-03    -30.5946E+06    -102.622E+06    -12.9927E+06     150.032E+03    -25.5843E-03     51.1338E-03    -25.5495E-03     29.0104E-03    -25.5750E-03     50.6893E-03    -25.4213E-03     28.9903E-03
             450     6.14191E-03     66.5340E-03    -27.8059E+06    -94.7768E+06    -7.78513E+06     219.527E+03    -25.6264E-03     51.1750E-03    -25.5485E-03     33.5790E-03    -25.6248E-03     50.7608E-03    -25.4097E-03     33.5537E-03
             451     7.01945E-03     66.5680E-03    -25.1532E+06    -86.0720E+06    -3.44341E+06     382.500E+03    -25.6810E-03     51.2233E-03    -25.5422E-03     38.0163E-03    -25.6888E-03     50.8462E-03    -25.3982E-03     37.9861E-03
             452     7.89691E-03     66.6061E-03    -22.9172E+06    -78.0209E+06    -200.805E+03     366.992E+03    -25.7380E-03     51.2701E-03    -25.5322E-03     42.3035E-03    -25.7559E-03     50.9304E-03    -25.3868E-03     42.2648E-03
             453     8.77452E-03     66.6481E-03    -20.5404E+06    -70.5407E+06     1.86812E+06     396.722E+03    -25.7958E-03     51.3124E-03    -25.5166E-03     46.3643E-03    -25.8225E-03     51.0104E-03    -25.3752E-03     46.3162E-03
             454     9.65204E-03     66.6938E-03    -18.3823E+06    -61.9667E+06     2.97340E+06     247.622E+03    -25.8413E-03     51.3355E-03    -25.4942E-03     50.1483E-03    -25.8803E-03     51.0806E-03    -25.3628E-03     50.0870E-03
             455     10.5297E-03     66.7429E-03    -16.5893E+06    -54.9974E+06     3.66908E+06     180.744E+03    -25.9028E-03     51.3751E-03    -25.4723E-03     53.4823E-03    -25.9559E-03     51.1635E-03    -25.3502E-03     53.4074E-03
             456     11.4072E-03     66.7950E-03    -15.1677E+06    -45.0513E+06     1.95210E+06     300.970E+03    -25.9525E-03     51.3881E-03    -25.4356E-03     56.3429E-03    -26.0265E-03     51.2427E-03    -25.3385E-03     56.2553E-03
             457     12.2849E-03     66.8495E-03    -13.9715E+06    -25.2164E+06     3.56956E+06     200.454E+03    -25.9479E-03     51.3487E-03    -25.4008E-03     59.6562E-03    -26.0694E-03     51.3206E-03    -25.3261E-03     59.5530E-03
             458     13.1623E-03     66.9078E-03    -13.0899E+06    -4.56093E+06     2.00443E+06     487.331E+03    -26.0106E-03     51.3595E-03    -25.3488E-03     63.4912E-03    -26.1910E-03     51.4714E-03    -25.3132E-03     63.3752E-03
             459     14.0408E-03     66.9696E-03    -11.9618E+06     46.4261E+06     10.7362E+06     999.708E+03    -25.9353E-03     51.2383E-03    -25.3030E-03     67.4461E-03    -26.2391E-03     51.6333E-03    -25.2992E-03     67.3289E-03
             460     14.9169E-03     67.0357E-03    -8.65056E+06     97.9041E+06     31.3515E+06     142.484E+03    -25.6755E-03     50.9856E-03    -25.3101E-03     64.2643E-03    -26.0842E-03     51.6202E-03    -25.2828E-03     64.1487E-03
             461     15.7983E-03     67.0921E-03    -6.86365E+06     109.415E+06     49.0093E+06    -750.719E+03    -25.4413E-03     50.8056E-03    -25.3644E-03     56.5334E-03    -25.8808E-03     51.4670E-03    -25.2680E-03     56.4329E-03
             462     16.6679E-03     67.1414E-03    -3.93642E+06     110.860E+06     63.7395E+06     109.737E+03    -24.7314E-03     50.1419E-03    -25.4104E-03     37.6349E-03    -25.1148E-03     50.7200E-03    -25.2468E-03     37.5779E-03
             463     877.332E-06     67.4204E-03    -42.1240E+06    -129.346E+06     -41.282E+06    -187.045E+03    -25.5133E-03     51.0193E-03    -25.5060E-03     5.35130E-03    -25.4766E-03     50.4937E-03    -25.4637E-03     5.34585E-03
             464     1.75473E-03     67.4276E-03    -41.0017E+06    -127.275E+06    -37.6072E+06     165.068E+03    -25.5113E-03     51.0299E-03    -25.5186E-03     9.97123E-03    -25.4777E-03     50.5080E-03    -25.4626E-03     9.96759E-03
             465     2.63215E-03     67.4393E-03    -39.2115E+06    -121.860E+06    -32.7880E+06     213.826E+03    -25.5112E-03     51.0354E-03    -25.5242E-03     14.7715E-03    -25.4841E-03     50.5316E-03    -25.4546E-03     14.7653E-03
             466     3.50955E-03     67.4556E-03    -36.8183E+06    -114.535E+06    -26.5514E+06     62.1114E+03    -25.5226E-03     51.0537E-03    -25.5311E-03     19.5796E-03    -25.5041E-03     50.5749E-03    -25.4444E-03     19.5678E-03
             467     4.38699E-03     67.4764E-03    -33.9462E+06    -108.962E+06    -19.3013E+06     108.872E+03    -25.5501E-03     51.0945E-03    -25.5444E-03     24.3420E-03    -25.5373E-03     50.6303E-03    -25.4337E-03     24.3264E-03
             468     5.26443E-03     67.5017E-03    -30.9770E+06    -102.644E+06    -13.0563E+06     274.510E+03    -25.5816E-03     51.1325E-03    -25.5509E-03     29.0247E-03    -25.5741E-03     50.6885E-03    -25.4224E-03     29.0062E-03
             469     6.14194E-03     67.5314E-03    -28.1417E+06    -94.9573E+06    -8.01986E+06     303.033E+03    -25.6221E-03     51.1708E-03    -25.5487E-03     33.5972E-03    -25.6216E-03     50.7565E-03    -25.4103E-03     33.5731E-03
             470     7.01941E-03     67.5653E-03    -25.3289E+06    -86.3056E+06    -3.76526E+06     413.170E+03    -25.6711E-03     51.2120E-03    -25.5409E-03     38.0412E-03    -25.6789E-03     50.8344E-03    -25.3978E-03     38.0114E-03
             471     7.89699E-03     67.6034E-03    -22.5180E+06    -78.0303E+06    -141.285E+03     524.291E+03    -25.7250E-03     51.2552E-03    -25.5302E-03     42.3078E-03    -25.7410E-03     50.9147E-03    -25.3851E-03     42.2711E-03
             472     8.77449E-03     67.6454E-03    -20.1460E+06    -70.4350E+06     1.92904E+06     264.118E+03    -25.7818E-03     51.2949E-03    -25.5131E-03     46.3598E-03    -25.8068E-03     50.9927E-03    -25.3722E-03     46.3100E-03
             473     9.65212E-03     67.6911E-03    -17.9735E+06    -61.8225E+06     3.18870E+06     155.172E+03    -25.8404E-03     51.3313E-03    -25.4908E-03     50.1174E-03    -25.8779E-03     51.0762E-03    -25.3592E-03     50.0550E-03
             474     10.5297E-03     67.7402E-03    -16.1462E+06    -55.2873E+06     3.79521E+06     285.975E+03    -25.8903E-03     51.3591E-03    -25.4688E-03     53.4677E-03    -25.9410E-03     51.1452E-03    -25.3462E-03     53.3942E-03
             475     11.4073E-03     67.7923E-03    -14.6831E+06    -45.0366E+06     2.23062E+06     376.841E+03    -25.9472E-03     51.3790E-03    -25.4317E-03     56.3541E-03    -26.0192E-03     51.2325E-03    -25.3340E-03     56.2677E-03
             476     12.2849E-03     67.8467E-03    -13.6444E+06    -25.2334E+06     3.74845E+06     457.138E+03    -25.9373E-03     51.3337E-03    -25.3963E-03     59.6159E-03    -26.0572E-03     51.3046E-03    -25.3212E-03     59.5162E-03
             477     13.1629E-03     67.9051E-03    -12.6613E+06    -5.11282E+06     1.91624E+06     693.996E+03    -26.0259E-03     51.3697E-03    -25.3438E-03     63.7536E-03    -26.2030E-03     51.4781E-03    -25.3084E-03     63.6408E-03
             478     14.0395E-03     67.9670E-03    -10.5221E+06     47.1307E+06     11.1888E+06    -75.7034E+03    -26.0286E-03     51.3286E-03    -25.3000E-03     67.8059E-03    -26.3274E-03     51.7249E-03    -25.2971E-03     67.6747E-03
             479     14.9189E-03     68.0331E-03    -8.70567E+06     98.0051E+06     32.4742E+06     8.62272E+03    -25.4255E-03     50.7342E-03    -25.3086E-03     64.4848E-03    -25.8346E-03     51.3660E-03    -25.2758E-03     64.3702E-03
             480     15.7937E-03     68.0886E-03    -6.39352E+06     109.762E+06     48.7931E+06     1.25937E+06    -24.9631E-03     50.2974E-03    -25.3343E-03     57.5706E-03    -25.3995E-03     50.9591E-03    -25.2402E-03     57.5001E-03
             481     16.6786E-03     68.1413E-03    -3.30994E+06     111.285E+06     62.0678E+06     177.468E+03    -24.9612E-03     50.3267E-03    -25.3655E-03     38.3073E-03    -25.3407E-03     50.9095E-03    -25.2117E-03     38.2508E-03
             482     877.415E-06     68.4178E-03    -42.6322E+06    -129.214E+06    -41.7483E+06    -210.452E+03    -25.4764E-03     50.9958E-03    -25.5193E-03     5.37182E-03    -25.4418E-03     50.4723E-03    -25.4789E-03     5.36608E-03
             483     1.75476E-03     68.4250E-03    -41.2476E+06    -127.791E+06    -37.9094E+06     156.562E+03    -25.5135E-03     51.0242E-03    -25.5107E-03     9.98610E-03    -25.4799E-03     50.5005E-03    -25.4552E-03     9.98234E-03
             484     2.63213E-03     68.4367E-03    -39.1375E+06    -121.747E+06    -32.5022E+06     217.812E+03    -25.5147E-03     51.0362E-03    -25.5215E-03     14.7822E-03    -25.4878E-03     50.5324E-03    -25.4508E-03     14.7761E-03
             485     3.50956E-03     68.4530E-03    -36.8058E+06    -114.462E+06    -26.4153E+06     91.2322E+03    -25.5227E-03     51.0520E-03    -25.5294E-03     19.5901E-03    -25.5044E-03     50.5734E-03    -25.4421E-03     19.5786E-03
             486     4.38699E-03     68.4738E-03    -34.2096E+06    -109.168E+06    -19.4411E+06     135.247E+03    -25.5447E-03     51.0869E-03    -25.5422E-03     24.3521E-03    -25.5327E-03     50.6222E-03    -25.4315E-03     24.3369E-03
             487     5.26447E-03     68.4991E-03    -31.2364E+06    -102.844E+06    -13.0594E+06     234.987E+03    -25.5801E-03     51.1293E-03    -25.5492E-03     29.0354E-03    -25.5735E-03     50.6846E-03    -25.4201E-03     29.0164E-03
             488     6.14192E-03     68.5287E-03    -28.1868E+06    -95.0148E+06    -8.06285E+06     329.037E+03    -25.6203E-03     51.1667E-03    -25.5464E-03     33.6007E-03    -25.6198E-03     50.7522E-03    -25.4081E-03     33.5770E-03
             489     7.01947E-03     68.5627E-03    -25.2642E+06    -86.3614E+06    -3.81362E+06     206.456E+03    -25.6616E-03     51.1996E-03    -25.5380E-03     38.0440E-03    -25.6689E-03     50.8217E-03    -25.3952E-03     38.0115E-03
             490     7.89697E-03     68.6007E-03    -22.4243E+06    -78.2203E+06    -210.062E+03     184.765E+03    -25.7159E-03     51.2425E-03    -25.5266E-03     42.3110E-03    -25.7311E-03     50.9010E-03    -25.3817E-03     42.2700E-03
             491     8.77457E-03     68.6427E-03    -19.8706E+06    -70.2308E+06     2.32046E+06     330.307E+03    -25.7798E-03     51.2905E-03    -25.5107E-03     46.3498E-03    -25.8043E-03     50.9884E-03    -25.3684E-03     46.3009E-03
             492     9.65212E-03     68.6884E-03    -17.9435E+06    -61.7695E+06     3.55688E+06     166.804E+03    -25.8379E-03     51.3268E-03    -25.4890E-03     50.1157E-03    -25.8758E-03     51.0714E-03    -25.3556E-03     50.0535E-03
             493     10.5297E-03     68.7376E-03    -16.2382E+06    -55.6375E+06     3.97728E+06     306.484E+03    -25.9008E-03     51.3683E-03    -25.4674E-03     53.4279E-03    -25.9517E-03     51.1525E-03    -25.3433E-03     53.3547E-03
             494     11.4074E-03     68.7894E-03    -14.6887E+06    -44.9440E+06     2.66154E+06     333.479E+03    -25.9385E-03     51.3698E-03    -25.4313E-03     56.3152E-03    -26.0111E-03     51.2230E-03    -25.3315E-03     56.2283E-03
             495     12.2850E-03     68.8443E-03    -13.2729E+06    -25.6682E+06     4.39600E+06     578.144E+03    -25.9503E-03     51.3480E-03    -25.3977E-03     59.4687E-03    -26.0686E-03     51.3152E-03    -25.3192E-03     59.3704E-03
             496     13.1626E-03     68.9018E-03    -11.7776E+06    -4.81362E+06     2.90174E+06     380.778E+03    -26.0082E-03     51.3534E-03    -25.3452E-03     63.6346E-03    -26.1829E-03     51.4607E-03    -25.3066E-03     63.5174E-03
             497     14.0412E-03     68.9652E-03    -11.5219E+06     47.8924E+06     12.4440E+06     169.625E+03    -25.9158E-03     51.2172E-03    -25.3014E-03     67.6097E-03    -26.2219E-03     51.6163E-03    -25.2919E-03     67.4821E-03
             498     14.9173E-03     69.0299E-03    -10.4269E+06     96.9267E+06     30.7171E+06     922.362E+03    -25.3467E-03     50.6413E-03    -25.2946E-03     63.6550E-03    -25.7588E-03     51.2714E-03    -25.2665E-03     63.5521E-03
             499     15.7993E-03     69.0855E-03    -6.44683E+06     109.288E+06     47.3018E+06    -64.5190E+03    -25.1840E-03     50.5083E-03    -25.3244E-03     56.2426E-03    -25.6171E-03     51.1694E-03    -25.2370E-03     56.1526E-03
             500     16.6725E-03     69.1365E-03    -3.18403E+06     111.983E+06     63.1787E+06    -239.174E+03    -25.2699E-03     50.6525E-03    -25.3825E-03     36.1900E-03    -25.6500E-03     51.2356E-03    -25.2244E-03     36.1264E-03
             501     877.366E-06     69.4152E-03    -43.8058E+06    -128.937E+06    -42.5479E+06    -262.054E+03    -25.4642E-03     50.9765E-03    -25.5123E-03     5.39139E-03    -25.4347E-03     50.4572E-03    -25.4745E-03     5.38499E-03
             502     1.75478E-03     69.4224E-03    -42.0696E+06    -128.270E+06    -38.0541E+06    -17.9773E+03    -25.5032E-03     51.0091E-03    -25.5059E-03     9.97131E-03    -25.4728E-03     50.4844E-03    -25.4492E-03     9.96531E-03
             503     2.63218E-03     69.4341E-03    -39.9478E+06    -121.731E+06    -33.2351E+06     161.526E+03    -25.5089E-03     51.0222E-03    -25.5133E-03     14.7837E-03    -25.4850E-03     50.5207E-03    -25.4450E-03     14.7768E-03
             504     3.50957E-03     69.4503E-03    -37.4520E+06    -114.402E+06    -27.0591E+06     104.223E+03    -25.5175E-03     51.0396E-03    -25.5220E-03     19.5944E-03    -25.5017E-03     50.5631E-03    -25.4371E-03     19.5831E-03
             505     4.38702E-03     69.4711E-03    -34.4975E+06    -109.380E+06    -19.5359E+06     134.933E+03    -25.5422E-03     51.0802E-03    -25.5380E-03     24.3526E-03    -25.5312E-03     50.6151E-03    -25.4271E-03     24.3374E-03
             506     5.26447E-03     69.4964E-03    -31.3851E+06    -102.866E+06    -13.0834E+06     144.182E+03    -25.5766E-03     51.1219E-03    -25.5453E-03     29.0373E-03    -25.5707E-03     50.6774E-03    -25.4160E-03     29.0171E-03
             507     6.14198E-03     69.5261E-03    -28.2507E+06    -95.1575E+06    -8.03049E+06     111.520E+03    -25.6165E-03     51.1595E-03    -25.5430E-03     33.6008E-03    -25.6162E-03     50.7444E-03    -25.4042E-03     33.5742E-03
             508     7.01946E-03     69.5600E-03    -25.2822E+06    -86.1346E+06    -3.67921E+06     64.0394E+03    -25.6594E-03     51.1941E-03    -25.5346E-03     38.0384E-03    -25.6674E-03     50.8172E-03    -25.3915E-03     38.0042E-03
             509     7.89704E-03     69.5981E-03    -22.6564E+06    -78.3920E+06    -132.853E+03    -15.5443E+03    -25.7158E-03     51.2400E-03    -25.5242E-03     42.2955E-03    -25.7320E-03     50.8979E-03    -25.3784E-03     42.2519E-03
             510     8.77458E-03     69.6400E-03    -20.2298E+06    -70.5244E+06     2.15027E+06     214.182E+03    -25.7813E-03     51.2893E-03    -25.5080E-03     46.3240E-03    -25.8069E-03     50.9865E-03    -25.3657E-03     46.2735E-03
             511     9.65217E-03     69.6858E-03    -18.1716E+06    -61.6681E+06     3.72152E+06     485.690E+03    -25.8438E-03     51.3318E-03    -25.4880E-03     50.0558E-03    -25.8832E-03     51.0770E-03    -25.3536E-03     49.9976E-03
             512     10.5298E-03     69.7348E-03    -16.4984E+06    -55.7511E+06     3.96551E+06     303.333E+03    -25.9302E-03     51.3980E-03    -25.4678E-03     53.3968E-03    -25.9823E-03     51.1820E-03    -25.3432E-03     53.3234E-03
             513     11.4072E-03     69.7870E-03    -15.1053E+06    -45.1061E+06     2.31356E+06     407.014E+03    -25.9722E-03     51.4052E-03    -25.4329E-03     56.2038E-03    -26.0463E-03     51.2588E-03    -25.3341E-03     56.1176E-03
             514     12.2851E-03     69.8412E-03    -13.4921E+06    -25.5306E+06     4.21359E+06      99.359E+03    -26.0030E-03     51.4056E-03    -25.4026E-03     59.4098E-03    -26.1224E-03     51.3742E-03    -25.3249E-03     59.3049E-03
             515     13.1625E-03     69.8998E-03    -12.2877E+06    -5.22868E+06     2.36888E+06     403.880E+03    -26.0506E-03     51.4033E-03    -25.3526E-03     63.5134E-03    -26.2269E-03     51.5105E-03    -25.3154E-03     63.3958E-03
             516     14.0394E-03     69.9615E-03    -11.3334E+06     47.0352E+06     11.3244E+06     1.51665E+06    -25.7753E-03     51.0776E-03    -25.3024E-03     67.4038E-03    -26.0762E-03     51.4724E-03    -25.2975E-03     67.2949E-03
             517     14.9191E-03     70.0279E-03    -8.99794E+06       98.38E+06     31.6367E+06     109.912E+03    -25.7899E-03     51.0988E-03    -25.3088E-03     63.4649E-03    -26.1994E-03     51.7337E-03    -25.2803E-03     63.3486E-03
             518     15.7934E-03     70.0812E-03    -7.53934E+06     109.026E+06     47.9490E+06    -258.077E+03    -25.6503E-03     51.0182E-03    -25.3679E-03     56.5767E-03    -26.0917E-03     51.6809E-03    -25.2753E-03     56.4802E-03
             519     16.6728E-03     70.1387E-03    -4.03801E+06     111.137E+06     62.9628E+06     406.684E+03    -24.6456E-03     50.0618E-03    -25.4162E-03     37.8547E-03    -25.0293E-03     50.6432E-03    -25.2567E-03     37.8019E-03
             520     877.389E-06     70.4125E-03    -44.2747E+06    -128.518E+06    -42.8007E+06    -248.457E+03    -25.4957E-03     50.9766E-03    -25.4809E-03     5.41547E-03    -25.4687E-03     50.4605E-03    -25.4443E-03     5.40922E-03
             521     1.75476E-03     70.4197E-03    -42.4343E+06    -128.567E+06    -38.1753E+06    -123.470E+03    -25.4957E-03     51.0023E-03    -25.5065E-03     9.96955E-03    -25.4666E-03     50.4768E-03    -25.4495E-03     9.96218E-03
             522     2.63215E-03     70.4314E-03    -39.9950E+06    -121.806E+06    -33.1341E+06    -18.5928E+03    -25.4965E-03     51.0075E-03    -25.5111E-03     14.7777E-03    -25.4728E-03     50.5056E-03    -25.4421E-03     14.7685E-03
             523     3.50961E-03     70.4477E-03    -37.3984E+06    -114.379E+06    -26.8645E+06     23.3088E+03    -25.5116E-03     51.0299E-03    -25.5183E-03     19.5839E-03    -25.4958E-03     50.5532E-03    -25.4326E-03     19.5716E-03
             524     4.38703E-03     70.4685E-03    -34.5766E+06    -109.505E+06    -19.5952E+06     31.0684E+03    -25.5400E-03     51.0736E-03    -25.5335E-03     24.3469E-03    -25.5291E-03     50.6080E-03    -25.4226E-03     24.3304E-03
             525     5.26450E-03     70.4938E-03    -31.4962E+06    -102.855E+06    -13.2428E+06     66.9111E+03    -25.5701E-03     51.1104E-03    -25.5403E-03     29.0324E-03    -25.5646E-03     50.6663E-03    -25.4117E-03     29.0112E-03
             526     6.14199E-03     70.5234E-03    -28.4770E+06    -95.0638E+06    -7.98777E+06    -47.6410E+03    -25.6141E-03     51.1532E-03    -25.5391E-03     33.5946E-03    -25.6151E-03     50.7388E-03    -25.3999E-03     33.5659E-03
             527     7.01953E-03     70.5573E-03    -25.6309E+06    -86.2045E+06    -3.77577E+06    -36.0107E+03    -25.6682E-03     51.1998E-03    -25.5316E-03     38.0185E-03    -25.6777E-03     50.8232E-03    -25.3883E-03     37.9829E-03
             528     7.89702E-03     70.5954E-03    -22.9915E+06    -78.2817E+06    -240.345E+03     7.53323E+03    -25.7275E-03     51.2501E-03    -25.5226E-03     42.2653E-03    -25.7454E-03     50.9091E-03    -25.3769E-03     42.2219E-03
             529     8.77458E-03     70.6374E-03    -20.6785E+06    -71.1619E+06     1.69270E+06     206.351E+03    -25.7917E-03     51.2990E-03    -25.5073E-03     46.2858E-03    -25.8179E-03     50.9942E-03    -25.3657E-03     46.2353E-03
             530     9.65215E-03     70.6830E-03    -18.5302E+06    -61.7327E+06     3.25477E+06     468.036E+03    -25.8689E-03     51.3570E-03    -25.4880E-03     50.0363E-03    -25.9094E-03     51.1031E-03    -25.3554E-03     49.9777E-03
             531     10.5297E-03     70.7322E-03    -16.6216E+06    -55.5714E+06     3.71724E+06     395.341E+03    -25.9378E-03     51.4074E-03    -25.4696E-03     53.3650E-03    -25.9904E-03     51.1929E-03    -25.3463E-03     53.2927E-03
             532     11.4074E-03     70.7842E-03    -14.8835E+06    -45.2612E+06     1.87150E+06     224.443E+03    -26.0142E-03     51.4496E-03    -25.4353E-03     56.2478E-03    -26.0863E-03     51.3027E-03    -25.3388E-03     56.1592E-03
             533     12.2846E-03     70.8387E-03    -13.7291E+06    -24.9911E+06     3.84212E+06     68.1608E+03    -26.0487E-03     51.4563E-03    -25.4076E-03     59.4887E-03    -26.1697E-03     51.4288E-03    -25.3323E-03     59.3831E-03
             534     13.1624E-03     70.8969E-03    -12.5894E+06    -6.46928E+06     1.35060E+06     290.887E+03    -26.0114E-03     51.3682E-03    -25.3568E-03     63.5474E-03    -26.1854E-03     51.4706E-03    -25.3224E-03     63.4290E-03
             535     14.0407E-03     70.9593E-03    -9.92692E+06     46.6651E+06     10.8835E+06     375.571E+03    -25.9774E-03     51.2873E-03    -25.3099E-03     67.2999E-03    -26.2710E-03     51.6797E-03    -25.3087E-03     67.1745E-03
             536     14.9175E-03     71.0239E-03    -8.19214E+06     98.9734E+06     32.5141E+06     890.020E+03    -25.7146E-03     51.0394E-03    -25.3248E-03     64.4383E-03    -26.1238E-03     51.6766E-03    -25.2939E-03     64.3320E-03
             537     15.7959E-03     71.0836E-03    -6.36180E+06     110.153E+06     49.5916E+06     943.953E+03    -25.1902E-03     50.5597E-03    -25.3695E-03     57.1751E-03    -25.6288E-03     51.2230E-03    -25.2720E-03     57.0982E-03
             538     16.6755E-03     71.1279E-03    -3.56715E+06     111.749E+06     63.4623E+06     55.0799E+03    -24.8288E-03     50.2347E-03    -25.4059E-03     37.4041E-03    -25.2109E-03     50.8169E-03    -25.2455E-03     37.3470E-03
             539     877.384E-06     71.4099E-03    -43.8864E+06    -128.195E+06    -42.5639E+06    -114.129E+03    -25.4921E-03     50.9731E-03    -25.4809E-03     5.40096E-03    -25.4640E-03     50.4576E-03    -25.4442E-03     5.39647E-03
             540     1.75476E-03     71.4170E-03    -42.2433E+06    -128.552E+06    -38.2125E+06    -199.566E+03    -25.4955E-03     50.9994E-03    -25.5039E-03     9.97158E-03    -25.4654E-03     50.4737E-03    -25.4473E-03     9.96323E-03
             541     2.63219E-03     71.4288E-03    -40.1210E+06    -121.869E+06    -33.2334E+06    -152.913E+03    -25.4945E-03     51.0035E-03    -25.5090E-03     14.7848E-03    -25.4713E-03     50.5016E-03    -25.4402E-03     14.7739E-03
             542     3.50959E-03     71.4450E-03    -37.5858E+06    -114.424E+06    -27.0231E+06    -79.8262E+03    -25.5039E-03     51.0193E-03    -25.5154E-03     19.5834E-03    -25.4887E-03     50.5429E-03    -25.4301E-03     19.5698E-03
             543     4.38706E-03     71.4658E-03    -34.6440E+06    -109.552E+06    -19.6605E+06    -31.2517E+03    -25.5331E-03     51.0632E-03    -25.5300E-03     24.3402E-03    -25.5224E-03     50.5975E-03    -25.4193E-03     24.3229E-03
             544     5.26452E-03     71.4911E-03    -31.5670E+06    -102.922E+06    -13.2365E+06    -1.02078E+03    -25.5722E-03     51.1095E-03    -25.5373E-03     29.0145E-03    -25.5669E-03     50.6652E-03    -25.4085E-03     28.9924E-03
             545     6.14203E-03     71.5208E-03    -28.6092E+06    -94.9070E+06    -8.08544E+06     5.07570E+03    -25.6205E-03     51.1571E-03    -25.5366E-03     33.5727E-03    -25.6222E-03     50.7438E-03    -25.3979E-03     33.5447E-03
             546     7.01949E-03     71.5547E-03    -25.8635E+06    -86.3245E+06    -3.97946E+06    -37.0758E+03    -25.6764E-03     51.2068E-03    -25.5304E-03     37.9953E-03    -25.6866E-03     50.8302E-03    -25.3876E-03     37.9597E-03
             547     7.89704E-03     71.5927E-03    -23.3339E+06    -78.3744E+06    -575.147E+03     105.673E+03    -25.7373E-03     51.2594E-03    -25.5221E-03     42.2476E-03    -25.7563E-03     50.9190E-03    -25.3775E-03     42.2055E-03
             548     8.77456E-03     71.6347E-03    -20.9378E+06    -71.3920E+06     1.40946E+06     142.870E+03    -25.8124E-03     51.3211E-03    -25.5087E-03     46.2741E-03    -25.8391E-03     51.0160E-03    -25.3678E-03     46.2227E-03
             549     9.65210E-03     71.6804E-03    -18.5827E+06    -61.9722E+06     2.84297E+06     173.587E+03    -25.8856E-03     51.3756E-03    -25.4900E-03     50.0603E-03    -25.9254E-03     51.1212E-03    -25.3590E-03     49.9979E-03
             550     10.5297E-03     71.7296E-03    -16.4105E+06    -55.3966E+06     3.74760E+06     220.796E+03    -25.9597E-03     51.4337E-03    -25.4740E-03     53.3377E-03    -26.0115E-03     51.2198E-03    -25.3512E-03     53.2630E-03
             551     11.4071E-03     71.7814E-03    -15.0432E+06    -45.3368E+06     1.76961E+06     214.643E+03    -26.0025E-03     51.4426E-03    -25.4401E-03     56.2593E-03    -26.0751E-03     51.2957E-03    -25.3437E-03     56.1705E-03
             552     12.2850E-03     71.8363E-03    -14.0125E+06    -24.9662E+06     3.76784E+06     396.421E+03    -26.0501E-03     51.4619E-03    -25.4118E-03     59.5414E-03    -26.1726E-03     51.4351E-03    -25.3365E-03     59.4401E-03
             553     13.1623E-03     71.8941E-03    -12.8515E+06    -5.79705E+06     1.55812E+06    -155.556E+03    -26.1191E-03     51.4841E-03    -25.3651E-03     63.2796E-03    -26.2960E-03     51.5903E-03    -25.3302E-03     63.1543E-03
             554     14.0397E-03     71.9562E-03    -12.2831E+06     46.0454E+06     10.2068E+06    -463.107E+03    -26.0462E-03     51.3704E-03    -25.3242E-03     67.5483E-03    -26.3511E-03     51.7655E-03    -25.3221E-03     67.4110E-03
             555     14.9171E-03     72.0233E-03    -9.82622E+06     97.6037E+06     30.0965E+06     488.928E+03    -25.3918E-03     50.7149E-03    -25.3230E-03     63.8385E-03    -25.8021E-03     51.3495E-03    -25.2998E-03     63.7293E-03
             556     15.7974E-03     72.0757E-03    -5.96186E+06     110.512E+06     48.6452E+06     698.697E+03    -25.0165E-03     50.3729E-03    -25.3564E-03     56.3410E-03    -25.4509E-03     51.0375E-03    -25.2648E-03     56.2622E-03
             557     16.6714E-03     72.1328E-03    -3.63881E+06     112.430E+06     64.4581E+06     594.432E+03    -24.9941E-03     50.3973E-03    -25.4032E-03     37.7632E-03    -25.3802E-03     50.9827E-03    -25.2386E-03     37.7118E-03
             558     877.378E-06     72.4072E-03    -43.7984E+06    -128.020E+06    -42.5141E+06    -33.5376E+03    -25.4652E-03     50.9658E-03    -25.5005E-03     5.38068E-03    -25.4370E-03     50.4510E-03    -25.4639E-03     5.37723E-03
             559     1.75479E-03     72.4144E-03    -42.2568E+06    -128.404E+06    -38.1558E+06    -124.168E+03    -25.4876E-03     50.9872E-03    -25.4996E-03     9.97773E-03    -25.4579E-03     50.4623E-03    -25.4429E-03     9.97036E-03
             560     2.63216E-03     72.4261E-03    -40.1024E+06    -121.843E+06    -33.3113E+06    -171.115E+03    -25.4978E-03     51.0023E-03    -25.5045E-03     14.7903E-03    -25.4744E-03     50.5006E-03    -25.4362E-03     14.7791E-03
             561     3.50962E-03     72.4424E-03    -37.6189E+06    -114.459E+06    -27.1763E+06    -172.450E+03    -25.5068E-03     51.0193E-03    -25.5126E-03     19.5832E-03    -25.4915E-03     50.5430E-03    -25.4279E-03     19.5684E-03
             562     4.38706E-03     72.4631E-03    -34.7938E+06    -109.639E+06    -19.7848E+06    -102.241E+03    -25.5369E-03     51.0657E-03    -25.5287E-03     24.3282E-03    -25.5266E-03     50.6000E-03    -25.4182E-03     24.3100E-03
             563     5.26453E-03     72.4885E-03    -31.7489E+06    -102.959E+06    -13.4045E+06    -22.0375E+03    -25.5787E-03     51.1156E-03    -25.5369E-03     28.9968E-03    -25.5740E-03     50.6716E-03    -25.4086E-03     28.9745E-03
             564     6.14198E-03     72.5181E-03    -28.6950E+06    -94.9038E+06    -8.30799E+06    -20.7163E+03    -25.6260E-03     51.1626E-03    -25.5367E-03     33.5605E-03    -25.6278E-03     50.7498E-03    -25.3990E-03     33.5322E-03
             565     7.01951E-03     72.5520E-03    -25.8619E+06    -86.4042E+06    -4.07305E+06     70.7279E+03    -25.6808E-03     51.2124E-03    -25.5316E-03     37.9862E-03    -25.6907E-03     50.8355E-03    -25.3892E-03     37.9519E-03
             566     7.89701E-03     72.5900E-03    -23.2335E+06    -78.5465E+06    -701.026E+03     111.782E+03    -25.7482E-03     51.2719E-03    -25.5237E-03     42.2312E-03    -25.7662E-03     50.9307E-03    -25.3796E-03     42.1891E-03
             567     8.77455E-03     72.6321E-03    -20.7196E+06    -71.1167E+06     1.41418E+06    -61.4534E+03    -25.8265E-03     51.3377E-03    -25.5112E-03     46.2773E-03    -25.8526E-03     51.0336E-03    -25.3709E-03     46.2232E-03
             568     9.65205E-03     72.6777E-03    -18.5296E+06    -62.3311E+06     2.61893E+06    -48.9919E+03    -25.8963E-03     51.3896E-03    -25.4932E-03     50.0624E-03    -25.9350E-03     51.1336E-03    -25.3629E-03     49.9971E-03
             569     10.5296E-03     72.7269E-03    -16.7568E+06    -55.3565E+06     3.50306E+06     141.700E+03    -25.9796E-03     51.4576E-03    -25.4781E-03     53.3791E-03    -26.0328E-03     51.2447E-03    -25.3560E-03     53.3034E-03
             570     11.4071E-03     72.7789E-03    -15.2614E+06    -45.6181E+06     1.71563E+06     337.634E+03    -26.0251E-03     51.4718E-03    -25.4467E-03     56.2075E-03    -26.0984E-03     51.3241E-03    -25.3499E-03     56.1201E-03
             571     12.2846E-03     72.8334E-03    -13.8371E+06    -25.0165E+06     3.70635E+06     358.336E+03    -26.0302E-03     51.4475E-03    -25.4172E-03     59.5500E-03    -26.1513E-03     51.4199E-03    -25.3424E-03     59.4485E-03
             572     13.1623E-03     72.8920E-03    -12.9197E+06    -5.27035E+06     1.60690E+06     178.069E+03    -26.1669E-03     51.5376E-03    -25.3707E-03     63.5564E-03    -26.3455E-03     51.6470E-03    -25.3363E-03     63.4352E-03
             573     14.0395E-03     72.9537E-03    -11.7556E+06     45.9841E+06     9.93517E+06     176.026E+03    -25.9275E-03     51.2528E-03    -25.3253E-03     67.6449E-03    -26.2285E-03     51.6465E-03    -25.3252E-03     67.5173E-03
             574     14.9188E-03     73.0195E-03    -10.1950E+06     97.6304E+06     30.1891E+06    -316.754E+03    -25.5798E-03     50.9083E-03    -25.3285E-03     63.9779E-03    -25.9923E-03     51.5436E-03    -25.3043E-03     63.8577E-03
             575     15.7932E-03     73.0753E-03    -7.33488E+06     109.609E+06     47.3086E+06     407.774E+03    -25.1347E-03     50.5005E-03    -25.3658E-03     56.5062E-03    -25.5733E-03     51.1650E-03    -25.2776E-03     56.4224E-03
             576     16.6771E-03     73.1257E-03    -3.24818E+06     112.545E+06     63.6401E+06     898.572E+03    -24.6211E-03     50.0252E-03    -25.4041E-03     37.4860E-03    -25.0023E-03     50.6098E-03    -25.2443E-03     37.4409E-03
             577     877.381E-06     73.4045E-03    -44.0288E+06    -128.118E+06    -42.5885E+06     91.2982E+03    -25.4728E-03     50.9511E-03    -25.4783E-03     5.37388E-03    -25.4455E-03     50.4363E-03    -25.4417E-03     5.37202E-03
             578     1.75478E-03     73.4117E-03    -42.3574E+06    -128.188E+06    -38.1001E+06     5.29828E+03    -25.4891E-03     50.9836E-03    -25.4946E-03     9.98804E-03    -25.4602E-03     50.4598E-03    -25.4378E-03     9.98233E-03
             579     2.63222E-03     73.4235E-03    -40.1539E+06    -121.638E+06    -33.2080E+06    -256.758E+03    -25.4997E-03     51.0021E-03    -25.5024E-03     14.7814E-03    -25.4770E-03     50.5014E-03    -25.4338E-03     14.7691E-03
             580     3.50961E-03     73.4397E-03    -37.6396E+06    -114.580E+06    -27.2123E+06    -210.433E+03    -25.5170E-03     51.0294E-03    -25.5124E-03     19.5693E-03    -25.5016E-03     50.5525E-03    -25.4277E-03     19.5540E-03
             581     4.38705E-03     73.4605E-03    -34.8823E+06    -109.698E+06    -19.9955E+06    -55.7424E+03    -25.5469E-03     51.0767E-03    -25.5298E-03     24.3195E-03    -25.5366E-03     50.6111E-03    -25.4201E-03     24.3018E-03
             582     5.26450E-03     73.4858E-03    -31.9161E+06    -102.993E+06    -13.6809E+06    -46.6465E+03    -25.5812E-03     51.1198E-03    -25.5386E-03     28.9924E-03    -25.5769E-03     50.6763E-03    -25.4114E-03     28.9697E-03
             583     6.14200E-03     73.5155E-03    -28.9786E+06    -94.8772E+06    -8.65220E+06    -43.5491E+03    -25.6265E-03     51.1646E-03    -25.5380E-03     33.5569E-03    -25.6294E-03     50.7528E-03    -25.4017E-03     33.5283E-03
             584     7.01947E-03     73.5493E-03    -26.0483E+06    -86.5236E+06    -4.42679E+06    -73.3137E+03    -25.6857E-03     51.2187E-03    -25.5330E-03     37.9868E-03    -25.6958E-03     50.8421E-03    -25.3919E-03     37.9506E-03
             585     7.89699E-03     73.5875E-03    -23.1593E+06    -78.4708E+06    -946.213E+03    -114.721E+03    -25.7543E-03     51.2796E-03    -25.5253E-03     42.2439E-03    -25.7718E-03     50.9390E-03    -25.3827E-03     42.1989E-03
             586     8.77448E-03     73.6294E-03    -20.7066E+06    -70.9862E+06     1.21079E+06    -147.045E+03    -25.8306E-03     51.3437E-03    -25.5131E-03     46.2974E-03    -25.8565E-03     51.0406E-03    -25.3741E-03     46.2421E-03
             587     9.65204E-03     73.6752E-03    -18.6553E+06    -62.4968E+06     2.36718E+06    -115.138E+03    -25.9010E-03     51.3966E-03    -25.4956E-03     50.0798E-03    -25.9397E-03     51.1403E-03    -25.3661E-03     50.0137E-03
             588     10.5296E-03     73.7242E-03    -16.8054E+06    -55.6805E+06     3.12862E+06     103.858E+03    -25.9646E-03     51.4438E-03    -25.4792E-03     53.4446E-03    -26.0171E-03     51.2298E-03    -25.3584E-03     53.3685E-03
             589     11.4071E-03     73.7764E-03    -15.0746E+06    -45.6047E+06     1.72819E+06     151.312E+03    -26.0211E-03     51.4688E-03    -25.4477E-03     56.3284E-03    -26.0935E-03     51.3208E-03    -25.3511E-03     56.2388E-03
             590     12.2846E-03     73.8308E-03    -13.7017E+06    -25.3855E+06     3.41212E+06     345.178E+03    -26.0053E-03     51.4211E-03    -25.4158E-03     59.7575E-03    -26.1248E-03     51.3919E-03    -25.3421E-03     59.6560E-03
             591     13.1623E-03     73.8892E-03    -12.6638E+06    -5.16779E+06     1.85598E+06     575.594E+03    -26.0247E-03     51.3897E-03    -25.3651E-03     63.8137E-03    -26.2018E-03     51.4982E-03    -25.3299E-03     63.6989E-03
             592     14.0403E-03     73.9513E-03    -12.0590E+06     46.0853E+06     9.80325E+06     352.973E+03    -25.9676E-03     51.2830E-03    -25.3154E-03     67.5473E-03    -26.2695E-03     51.6772E-03    -25.3157E-03     67.4220E-03
             593     14.9166E-03     74.0167E-03    -9.99789E+06     97.6872E+06     30.5420E+06     138.373E+03    -25.4667E-03     50.7855E-03    -25.3188E-03     64.2877E-03    -25.8788E-03     51.4203E-03    -25.2933E-03     64.1743E-03
             594     15.7982E-03     74.0727E-03    -7.17374E+06     110.021E+06     48.6504E+06     208.676E+03    -25.3605E-03     50.7241E-03    -25.3636E-03     56.9418E-03    -25.8016E-03     51.3891E-03    -25.2695E-03     56.8540E-03
             595     16.6698E-03     74.1232E-03    -3.31205E+06     112.237E+06     63.3156E+06     124.039E+03    -24.7340E-03     50.1381E-03    -25.4041E-03     37.7242E-03    -25.1162E-03     50.7234E-03    -25.2455E-03     37.6667E-03
             596     877.431E-06     74.4018E-03    -44.4060E+06    -128.540E+06    -43.0483E+06     202.872E+03    -25.4934E-03     50.9441E-03    -25.4508E-03     5.37618E-03    -25.4667E-03     50.4285E-03    -25.4152E-03     5.37576E-03
             597     1.75479E-03     74.4091E-03    -42.7118E+06    -127.796E+06    -38.6832E+06     41.6075E+03    -25.4997E-03     50.9916E-03    -25.4920E-03     9.97377E-03    -25.4723E-03     50.4712E-03    -25.4381E-03     9.96852E-03
             598     2.63216E-03     74.4207E-03    -40.5237E+06    -121.242E+06    -33.7322E+06    -348.335E+03    -25.5011E-03     51.0041E-03    -25.5030E-03     14.7748E-03    -25.4801E-03     50.5067E-03    -25.4371E-03     14.7614E-03
             599     3.50961E-03     74.4371E-03    -38.0477E+06    -114.896E+06    -27.4645E+06    -243.851E+03    -25.5174E-03     51.0326E-03    -25.5152E-03     19.5680E-03    -25.5033E-03     50.5552E-03    -25.4308E-03     19.5522E-03
             600     4.38703E-03     74.4578E-03    -35.2403E+06    -109.811E+06    -20.2780E+06     11.7005E+03    -25.5470E-03     51.0788E-03    -25.5318E-03     24.3261E-03    -25.5379E-03     50.6136E-03    -25.4229E-03     24.3093E-03
             601     5.26449E-03     74.4832E-03    -32.2341E+06    -102.832E+06    -14.0427E+06    -58.5548E+03    -25.5845E-03     51.1242E-03    -25.5397E-03     28.9996E-03    -25.5816E-03     50.6825E-03    -25.4141E-03     28.9768E-03
             602     6.14195E-03     74.5127E-03    -29.1537E+06    -94.9196E+06    -9.08558E+06    -149.745E+03    -25.6298E-03     51.1689E-03    -25.5391E-03     33.5626E-03    -25.6328E-03     50.7578E-03    -25.4046E-03     33.5326E-03
             603     7.01946E-03     74.5468E-03    -26.2021E+06    -86.2413E+06    -4.81781E+06    -336.786E+03    -25.6819E-03     51.2154E-03    -25.5335E-03     38.0057E-03    -25.6926E-03     50.8409E-03    -25.3945E-03     37.9663E-03
             604     7.89697E-03     74.5847E-03    -23.4390E+06    -78.5783E+06    -1.35340E+06    -445.685E+03    -25.7479E-03     51.2734E-03    -25.5256E-03     42.2743E-03    -25.7659E-03     50.9333E-03    -25.3844E-03     42.2251E-03
             605     8.77451E-03     74.6268E-03    -20.8640E+06    -71.0086E+06     931.494E+03    -270.899E+03    -25.8201E-03     51.3328E-03    -25.5127E-03     46.3429E-03    -25.8464E-03     51.0302E-03    -25.3748E-03     46.2862E-03
             606     9.65199E-03     74.6725E-03    -18.5509E+06    -62.4619E+06     2.27387E+06    -280.839E+03    -25.8761E-03     51.3699E-03    -25.4939E-03     50.1456E-03    -25.9141E-03     51.1138E-03    -25.3650E-03     50.0776E-03
             607     10.5296E-03     74.7217E-03    -16.4368E+06    -56.0664E+06     2.97343E+06    -198.740E+03    -25.9172E-03     51.3913E-03    -25.4741E-03     53.5457E-03    -25.9669E-03     51.1750E-03    -25.3541E-03     53.4661E-03
             608     11.4072E-03     74.7736E-03    -14.7560E+06    -45.5995E+06     1.67525E+06     4.75563E+03    -25.9529E-03     51.3911E-03    -25.4382E-03     56.4702E-03    -26.0235E-03     51.2425E-03    -25.3423E-03     56.3792E-03
             609     12.2849E-03     74.8283E-03    -13.3249E+06    -25.7513E+06     3.39091E+06     227.324E+03    -25.9654E-03     51.3686E-03    -25.4032E-03     59.8014E-03    -26.0824E-03     51.3371E-03    -25.3296E-03     59.6986E-03
             610     13.1626E-03     74.8864E-03    -12.3464E+06    -5.72270E+06     1.68510E+06     750.469E+03    -25.9382E-03     51.2866E-03    -25.3484E-03     63.9055E-03    -26.1122E-03     51.3916E-03    -25.3138E-03     63.7938E-03
             611     14.0398E-03     74.9488E-03    -11.2015E+06     46.6148E+06     10.3107E+06     805.400E+03    -25.7872E-03     51.0791E-03    -25.2918E-03     67.9612E-03    -26.0861E-03     51.4737E-03    -25.2916E-03     67.8433E-03
             612     14.9192E-03     75.0141E-03    -10.0569E+06     98.0700E+06     31.0214E+06     405.807E+03    -25.6539E-03     50.9511E-03    -25.2973E-03     64.4375E-03    -26.0681E-03     51.5879E-03    -25.2698E-03     64.3266E-03
             613     15.7942E-03     75.0689E-03    -7.77299E+06     109.735E+06     48.0211E+06     85.7622E+03    -25.1651E-03     50.5047E-03    -25.3395E-03     57.0237E-03    -25.6083E-03     51.1705E-03    -25.2473E-03     56.9360E-03
             614     16.6772E-03     75.1233E-03    -3.35783E+06     112.423E+06     62.7600E+06    -270.129E+03    -24.6879E-03     50.0614E-03    -25.3734E-03     37.6501E-03    -25.0694E-03     50.6481E-03    -25.2178E-03     37.5890E-03
             615     877.376E-06     75.3992E-03    -44.8979E+06    -128.973E+06    -43.7020E+06     137.802E+03    -25.4916E-03     50.9569E-03    -25.4653E-03     5.41916E-03    -25.4658E-03     50.4407E-03    -25.4317E-03     5.41789E-03
             616     1.75476E-03     75.4064E-03    -43.3043E+06    -127.298E+06    -39.9488E+06    -65.8829E+03    -25.5051E-03     50.9985E-03    -25.4934E-03     9.97844E-03    -25.4796E-03     50.4832E-03    -25.4458E-03     9.97179E-03
             617     2.63218E-03     75.4181E-03    -41.2867E+06    -120.755E+06    -34.9339E+06    -466.024E+03    -25.4998E-03     51.0039E-03    -25.5041E-03     14.7699E-03    -25.4816E-03     50.5117E-03    -25.4438E-03     14.7549E-03
             618     3.50958E-03     75.4344E-03    -38.7554E+06    -115.340E+06    -27.8955E+06    -317.931E+03    -25.5103E-03     51.0297E-03    -25.5194E-03     19.5709E-03    -25.4984E-03     50.5516E-03    -25.4354E-03     19.5542E-03
             619     4.38703E-03     75.4552E-03    -35.7107E+06    -109.850E+06    -20.5563E+06    -124.914E+03    -25.5421E-03     51.0762E-03    -25.5340E-03     24.3264E-03    -25.5350E-03     50.6119E-03    -25.4257E-03     24.3078E-03
             620     5.26448E-03     75.4805E-03    -32.4184E+06    -102.591E+06    -14.3979E+06    -238.946E+03    -25.5821E-03     51.1220E-03    -25.5399E-03     29.0093E-03    -25.5799E-03     50.6823E-03    -25.4161E-03     28.9842E-03
             621     6.14195E-03     75.5102E-03    -29.1313E+06    -94.6704E+06    -9.28573E+06    -542.174E+03    -25.6269E-03     51.1660E-03    -25.5390E-03     33.5805E-03    -25.6299E-03     50.7564E-03    -25.4059E-03     33.5455E-03
             622     7.01945E-03     75.5440E-03    -25.9780E+06    -86.1166E+06    -4.86634E+06    -615.399E+03    -25.6741E-03     51.2072E-03    -25.5331E-03     38.0299E-03    -25.6838E-03     50.8331E-03    -25.3949E-03     37.9869E-03
             623     7.89698E-03     75.5822E-03    -23.2051E+06    -78.4664E+06    -1.26469E+06    -637.708E+03    -25.7326E-03     51.2571E-03    -25.5245E-03     42.3047E-03    -25.7498E-03     50.9170E-03    -25.3834E-03     42.2531E-03
             624     8.77450E-03     75.6241E-03    -20.6169E+06    -71.1870E+06     851.431E+03    -674.249E+03    -25.7887E-03     51.2974E-03    -25.5087E-03     46.3783E-03    -25.8133E-03     50.9936E-03    -25.3714E-03     46.3165E-03
             625     9.65212E-03     75.6699E-03    -18.2088E+06    -62.3269E+06     2.35495E+06    -593.645E+03    -25.8325E-03     51.3194E-03    -25.4869E-03     50.1728E-03    -25.8691E-03     51.0632E-03    -25.3583E-03     50.1009E-03
             626     10.5297E-03     75.7188E-03    -16.2391E+06    -56.3318E+06     2.95531E+06    -536.126E+03    -25.8764E-03     51.3407E-03    -25.4643E-03     53.5279E-03    -25.9246E-03     51.1227E-03    -25.3443E-03     53.4441E-03
             627     11.4074E-03     75.7710E-03    -14.5024E+06    -45.9527E+06     1.55960E+06    -236.154E+03    -25.9193E-03     51.3450E-03    -25.4257E-03     56.4439E-03    -25.9879E-03     51.1944E-03    -25.3302E-03     56.3499E-03
             628     12.2850E-03     75.8254E-03    -13.1904E+06    -26.0677E+06     3.40523E+06     101.629E+03    -25.9116E-03     51.3009E-03    -25.3893E-03     59.7236E-03    -26.0275E-03     51.2675E-03    -25.3154E-03     59.6194E-03
             629     13.1627E-03     75.8838E-03    -11.8852E+06    -6.43126E+06     1.56589E+06     491.832E+03    -25.8655E-03     51.1963E-03    -25.3309E-03     63.6773E-03    -26.0358E-03     51.2971E-03    -25.2965E-03     63.5626E-03
             630     14.0413E-03     75.9454E-03    -10.6167E+06     46.4314E+06     10.1963E+06     998.476E+03    -25.7824E-03     51.0549E-03    -25.2724E-03     67.5243E-03    -26.0777E-03     51.4478E-03    -25.2734E-03     67.4087E-03
             631     14.9182E-03     76.0114E-03    -9.43783E+06     98.1970E+06     30.4627E+06     1.59128E+06    -25.5862E-03     50.8606E-03    -25.2744E-03     64.4563E-03    -25.9967E-03     51.4979E-03    -25.2508E-03     64.3608E-03
             632     15.7972E-03     76.0684E-03    -6.50123E+06     110.789E+06     48.5278E+06    -11.3979E+03    -25.3279E-03     50.6514E-03    -25.3235E-03     56.2998E-03    -25.7655E-03     51.3186E-03    -25.2321E-03     56.2095E-03
             633     16.6731E-03     76.1150E-03    -3.62268E+06     112.830E+06     63.2942E+06    -957.262E+03    -25.1298E-03     50.5081E-03    -25.3784E-03     36.6628E-03    -25.5131E-03     51.0957E-03    -25.2203E-03     36.5903E-03
             634     877.407E-06     76.3964E-03    -45.1599E+06    -128.989E+06    -43.9195E+06    -24.3753E+03    -25.5036E-03     50.9849E-03    -25.4813E-03     5.46565E-03    -25.4788E-03     50.4694E-03    -25.4484E-03     5.46225E-03
             635     1.75477E-03     76.4038E-03    -43.5536E+06    -126.807E+06    -40.5098E+06    -330.326E+03    -25.5007E-03     51.0022E-03    -25.5015E-03     9.97564E-03    -25.4763E-03     50.4905E-03    -25.4570E-03     9.96560E-03
             636     2.63212E-03     76.4154E-03    -41.6397E+06    -120.358E+06    -35.4013E+06    -511.369E+03    -25.4968E-03     51.0048E-03    -25.5080E-03     14.7671E-03    -25.4802E-03     50.5158E-03    -25.4501E-03     14.7515E-03
             637     3.50957E-03     76.4318E-03    -39.1749E+06    -115.620E+06    -28.0862E+06    -451.193E+03    -25.5105E-03     51.0346E-03    -25.5241E-03     19.5755E-03    -25.5000E-03     50.5561E-03    -25.4401E-03     19.5570E-03
             638     4.38700E-03     76.4525E-03    -36.0226E+06    -109.688E+06    -20.7993E+06    -450.262E+03    -25.5357E-03     51.0721E-03    -25.5365E-03     24.3344E-03    -25.5300E-03     50.6095E-03    -25.4292E-03     24.3117E-03
             639     5.26446E-03     76.4779E-03    -32.5743E+06    -102.215E+06    -14.6910E+06    -733.446E+03    -25.5685E-03     51.1079E-03    -25.5395E-03     29.0189E-03    -25.5671E-03     50.6707E-03    -25.4175E-03     28.9875E-03
             640     6.14197E-03     76.5075E-03    -29.2791E+06    -94.2825E+06    -9.51458E+06    -944.148E+03    -25.6133E-03     51.1501E-03    -25.5369E-03     33.5946E-03    -25.6172E-03     50.7430E-03    -25.4053E-03     33.5545E-03
             641     7.01946E-03     76.5415E-03    -26.2513E+06    -86.0832E+06    -5.19634E+06    -1.05001E+06    -25.6625E-03     51.1922E-03    -25.5298E-03     38.0390E-03    -25.6731E-03     50.8191E-03    -25.3929E-03     37.9904E-03
             642     7.89701E-03     76.5794E-03    -23.2307E+06    -78.3082E+06    -1.51057E+06    -1.03665E+06    -25.7104E-03     51.2298E-03    -25.5194E-03     42.3162E-03    -25.7276E-03     50.8909E-03    -25.3797E-03     42.2595E-03
             643     8.77459E-03     76.6215E-03    -20.5577E+06    -71.1717E+06     691.492E+03    -1.04418E+06    -25.7663E-03     51.2686E-03    -25.5023E-03     46.3562E-03    -25.7904E-03     50.9650E-03    -25.3658E-03     46.2896E-03
             644     9.65218E-03     76.6670E-03    -18.3159E+06    -62.3908E+06     2.04439E+06    -987.117E+03    -25.8201E-03     51.2991E-03    -25.4790E-03     50.1116E-03    -25.8567E-03     51.0433E-03    -25.3518E-03     50.0346E-03
             645     10.5298E-03     76.7163E-03    -16.2977E+06    -56.4781E+06     2.67974E+06    -786.860E+03    -25.8872E-03     51.3445E-03    -25.4573E-03     53.4058E-03    -25.9352E-03     51.1264E-03    -25.3384E-03     53.3186E-03
             646     11.4074E-03     76.7680E-03    -14.8161E+06    -46.4751E+06     907.691E+03    -494.002E+03    -25.9311E-03     51.3504E-03    -25.4194E-03     56.2937E-03    -25.9995E-03     51.1987E-03    -25.3260E-03     56.1962E-03
             647     12.2851E-03     76.8229E-03    -13.4364E+06    -26.4328E+06     2.96781E+06    -171.081E+03    -25.9174E-03     51.3026E-03    -25.3852E-03     59.4121E-03    -26.0332E-03     51.2682E-03    -25.3125E-03     59.3043E-03
             648     13.1631E-03     76.8806E-03    -12.2842E+06    -7.03721E+06     1.13487E+06     279.562E+03    -25.9662E-03     51.2981E-03    -25.3319E-03     63.1765E-03    -26.1371E-03     51.3971E-03    -25.2982E-03     63.0581E-03
             649     14.0400E-03     76.9429E-03    -11.6405E+06     45.3037E+06     9.20234E+06     1.16506E+06    -25.9450E-03     51.2263E-03    -25.2812E-03     67.2948E-03    -26.2431E-03     51.6172E-03    -25.2840E-03     67.1797E-03
             650     14.9184E-03     77.0088E-03    -8.63474E+06     98.2624E+06     30.1365E+06     787.448E+03    -25.4026E-03     50.6847E-03    -25.2821E-03     63.6441E-03    -25.8070E-03     51.3199E-03    -25.2614E-03     63.5390E-03
             651     15.7968E-03     77.0638E-03    -5.21382E+06     112.206E+06     49.9909E+06    -196.552E+03    -25.3944E-03     50.7283E-03    -25.3339E-03     56.4454E-03    -25.8300E-03     51.3988E-03    -25.2391E-03     56.3524E-03
             652     16.6734E-03     77.1179E-03    -3.79185E+06     113.149E+06     64.3746E+06     97.8199E+03    -25.3184E-03     50.7145E-03    -25.3961E-03     37.6353E-03    -25.7072E-03     51.3049E-03    -25.2328E-03     37.5750E-03
             653     877.326E-06     77.3940E-03    -45.5355E+06    -128.650E+06    -44.3375E+06    -128.218E+03    -25.5020E-03     51.0038E-03    -25.5018E-03     5.45421E-03    -25.4789E-03     50.4911E-03    -25.4709E-03     5.44948E-03
             654     1.75471E-03     77.4010E-03    -43.9916E+06    -126.158E+06    -40.5368E+06    -564.801E+03    -25.4864E-03     50.9942E-03    -25.5079E-03     9.99212E-03    -25.4651E-03     50.4865E-03    -25.4638E-03     9.97904E-03
             655     2.63217E-03     77.4129E-03    -41.9176E+06    -120.324E+06    -35.1761E+06    -526.180E+03    -25.4956E-03     51.0071E-03    -25.5115E-03     14.7893E-03    -25.4807E-03     50.5183E-03    -25.4522E-03     14.7736E-03
             656     3.50955E-03     77.4290E-03    -39.3232E+06    -115.406E+06    -27.9457E+06    -530.891E+03    -25.5131E-03     51.0398E-03    -25.5267E-03     19.5883E-03    -25.5039E-03     50.5623E-03    -25.4420E-03     19.5688E-03
             657     4.38699E-03     77.4499E-03    -36.1790E+06    -109.287E+06    -21.0040E+06    -859.195E+03    -25.5298E-03     51.0665E-03    -25.5366E-03     24.3496E-03    -25.5252E-03     50.6063E-03    -25.4307E-03     24.3216E-03
             658     5.26448E-03     77.4751E-03    -32.8446E+06    -101.630E+06    -15.1127E+06    -1.20784E+06    -25.5593E-03     51.0964E-03    -25.5372E-03     29.0266E-03    -25.5596E-03     50.6631E-03    -25.4177E-03     28.9891E-03
             659     6.14196E-03     77.5049E-03    -29.5346E+06    -94.0438E+06    -9.99501E+06    -1.42436E+06    -25.6016E-03     51.1350E-03    -25.5334E-03     33.5923E-03    -25.6065E-03     50.7302E-03    -25.4042E-03     33.5459E-03
             660     7.01950E-03     77.5387E-03    -26.3686E+06    -85.8109E+06    -5.59197E+06    -1.47060E+06    -25.6504E-03     51.1756E-03    -25.5252E-03     38.0218E-03    -25.6614E-03     50.8046E-03    -25.3905E-03     37.9678E-03
             661     7.89704E-03     77.5768E-03    -23.5617E+06    -78.1828E+06    -2.02867E+06    -1.57521E+06    -25.7041E-03     51.2183E-03    -25.5141E-03     42.2725E-03    -25.7224E-03     50.8812E-03    -25.3768E-03     42.2088E-03
             662     8.77462E-03     77.6187E-03    -20.8506E+06    -71.1228E+06     215.746E+03    -1.51594E+06    -25.7715E-03     51.2693E-03    -25.4978E-03     46.2972E-03    -25.7965E-03     50.9671E-03    -25.3633E-03     46.2245E-03
             663     9.65220E-03     77.6644E-03    -18.4567E+06    -62.5901E+06     1.54343E+06    -1.30320E+06    -25.8476E-03     51.3240E-03    -25.4764E-03     50.0343E-03    -25.8839E-03     51.0681E-03    -25.3511E-03     49.9530E-03
             664     10.5298E-03     77.7134E-03    -16.5384E+06    -56.6226E+06     2.20431E+06    -1.08706E+06    -25.9302E-03     51.3882E-03    -25.4580E-03     53.3256E-03    -25.9785E-03     51.1704E-03    -25.3409E-03     53.2342E-03
             665     11.4073E-03     77.7655E-03    -14.9065E+06    -46.9502E+06     426.342E+03    -686.948E+03    -25.9925E-03     51.4169E-03    -25.4244E-03     56.1603E-03    -26.0601E-03     51.2637E-03    -25.3325E-03     56.0599E-03
             666     12.2849E-03     77.8199E-03    -13.7156E+06    -26.7898E+06     2.45186E+06    -267.615E+03    -26.0183E-03     51.4139E-03    -25.3957E-03     59.2662E-03    -26.1343E-03     51.3790E-03    -25.3247E-03     59.1566E-03
             667     13.1622E-03     77.8782E-03    -12.6981E+06    -7.87988E+06     322.738E+03     281.507E+03    -26.0723E-03     51.4204E-03    -25.3481E-03     63.1508E-03    -26.2432E-03     51.5173E-03    -25.3166E-03     63.0317E-03
             668     14.0405E-03     77.9400E-03    -10.3437E+06     45.4845E+06     10.0688E+06     338.555E+03    -25.9626E-03     51.2670E-03    -25.3044E-03     67.4001E-03    -26.2557E-03     51.6557E-03    -25.3050E-03     67.2742E-03
             669     14.9178E-03     78.0063E-03    -8.28333E+06     99.0939E+06     31.0689E+06    -56.4952E+03    -25.6243E-03     50.9358E-03    -25.3115E-03     63.5805E-03    -26.0300E-03     51.5738E-03    -25.2878E-03     63.4630E-03
             670     15.7951E-03     78.0610E-03    -7.02812E+06     110.880E+06     47.9664E+06     734.818E+03    -25.0660E-03     50.4168E-03    -25.3509E-03     56.6362E-03    -25.5058E-03     51.0862E-03    -25.2616E-03     56.5575E-03
             671     16.6752E-03     78.1143E-03    -3.62146E+06     113.248E+06     63.8016E+06     856.036E+03    -24.7804E-03     50.1718E-03    -25.3914E-03     37.2520E-03    -25.1651E-03     50.7606E-03    -25.2313E-03     37.2060E-03
             672     877.367E-06     78.3912E-03    -46.4600E+06    -128.137E+06    -45.4358E+06    -204.789E+03    -25.4634E-03     50.9873E-03    -25.5239E-03     5.42481E-03    -25.4441E-03     50.4800E-03    -25.4979E-03     5.41911E-03
             673     1.75479E-03     78.3985E-03    -44.8832E+06    -125.351E+06    -41.1319E+06    -691.699E+03    -25.4855E-03     50.9881E-03    -25.5026E-03     9.99829E-03    -25.4690E-03     50.4866E-03    -25.4615E-03     9.98358E-03
             674     2.63212E-03     78.4101E-03    -42.5033E+06    -120.383E+06    -34.9956E+06    -706.151E+03    -25.4961E-03     51.0092E-03    -25.5132E-03     14.7869E-03    -25.4843E-03     50.5208E-03    -25.4520E-03     14.7688E-03
             675     3.50957E-03     78.4265E-03    -39.5100E+06    -114.935E+06    -28.0100E+06    -781.646E+03    -25.5083E-03     51.0342E-03    -25.5260E-03     19.5831E-03    -25.5005E-03     50.5595E-03    -25.4421E-03     19.5604E-03
             676     4.38701E-03     78.4472E-03    -36.2463E+06    -108.507E+06    -21.3382E+06    -1.24553E+06    -25.5298E-03     51.0635E-03    -25.5337E-03     24.3417E-03    -25.5261E-03     50.6078E-03    -25.4305E-03     24.3087E-03
             677     5.26447E-03     78.4725E-03    -32.9210E+06    -101.072E+06    -15.5943E+06    -1.64581E+06    -25.5604E-03     51.0945E-03    -25.5341E-03     29.0196E-03    -25.5612E-03     50.6648E-03    -25.4178E-03     28.9764E-03
             678     6.14197E-03     78.5021E-03    -29.7094E+06    -93.5469E+06    -10.5156E+06    -1.92585E+06    -25.6007E-03     51.1312E-03    -25.5306E-03     33.5732E-03    -25.6064E-03     50.7299E-03    -25.4044E-03     33.5204E-03
             679     7.01949E-03     78.5361E-03    -26.5756E+06    -85.6328E+06    -6.19188E+06    -2.06404E+06    -25.6514E-03     51.1740E-03    -25.5226E-03     37.9947E-03    -25.6628E-03     50.8051E-03    -25.3909E-03     37.9330E-03
             680     7.89704E-03     78.5741E-03    -23.5609E+06    -77.8718E+06    -2.48884E+06    -2.00358E+06    -25.7187E-03     51.2313E-03    -25.5126E-03     42.2296E-03    -25.7367E-03     50.8965E-03    -25.3780E-03     42.1603E-03
             681     8.77457E-03     78.6160E-03    -20.9927E+06    -71.0567E+06    -321.690E+03    -2.06422E+06    -25.7964E-03     51.2948E-03    -25.4984E-03     46.2521E-03    -25.8214E-03     50.9939E-03    -25.3665E-03     46.1722E-03
             682     9.65215E-03     78.6617E-03    -18.5793E+06    -62.8946E+06     926.972E+03    -1.82396E+06    -25.8782E-03     51.3576E-03    -25.4794E-03     50.0053E-03    -25.9138E-03     51.1013E-03    -25.3566E-03     49.9172E-03
             683     10.5297E-03     78.7108E-03    -16.4512E+06    -56.8248E+06     1.75081E+06    -1.39397E+06    -25.9665E-03     51.4302E-03    -25.4637E-03     53.3145E-03    -26.0135E-03     51.2120E-03    -25.3487E-03     53.2191E-03
             684     11.4072E-03     78.7628E-03    -14.8959E+06    -47.4255E+06    -29.6049E+03    -988.610E+03    -26.0285E-03     51.4611E-03    -25.4326E-03     56.2073E-03    -26.0947E-03     51.3061E-03    -25.3424E-03     56.1029E-03
             685     12.2847E-03     78.8175E-03    -13.3279E+06    -27.5027E+06     1.93123E+06    -322.800E+03    -26.0341E-03     51.4382E-03    -25.4041E-03     59.4587E-03    -26.1463E-03     51.3998E-03    -25.3352E-03     59.3486E-03
             686     13.1625E-03     78.8754E-03    -11.7179E+06    -7.60793E+06     573.295E+03    -113.043E+03    -26.1629E-03     51.5230E-03    -25.3601E-03     63.4392E-03    -26.3302E-03     51.6200E-03    -25.3292E-03     63.3145E-03
             687     14.0396E-03     78.9374E-03    -10.8977E+06     45.2556E+06     8.85391E+06    -348.815E+03    -26.0350E-03     51.3510E-03    -25.3160E-03     67.3690E-03    -26.3287E-03     51.7410E-03    -25.3216E-03     67.2339E-03
             688     14.9177E-03     79.0036E-03    -9.56144E+06     98.4309E+06     29.7145E+06     668.387E+03    -25.4269E-03     50.7465E-03    -25.3196E-03     63.8353E-03    -25.8353E-03     51.3843E-03    -25.2999E-03     63.7289E-03
             689     15.7961E-03     79.0587E-03    -7.07631E+06     111.226E+06     47.4579E+06     1.45994E+06    -25.0356E-03     50.3879E-03    -25.3523E-03     57.0340E-03    -25.4755E-03     51.0599E-03    -25.2661E-03     56.9647E-03
             690     16.6725E-03     79.1104E-03    -3.64627E+06     113.308E+06     62.8007E+06     429.209E+03    -24.7833E-03     50.1726E-03    -25.3893E-03     38.0669E-03    -25.1683E-03     50.7648E-03    -25.2343E-03     38.0143E-03
             691     877.381E-06     79.3887E-03    -46.5063E+06    -127.349E+06    -45.6203E+06    -383.652E+03    -25.4804E-03     50.9844E-03    -25.5040E-03     5.40501E-03    -25.4622E-03     50.4815E-03    -25.4801E-03     5.39703E-03
             692     1.75471E-03     79.3958E-03    -45.0485E+06    -124.561E+06    -41.2702E+06    -763.102E+03    -25.4932E-03     50.9963E-03    -25.5031E-03     9.97637E-03    -25.4785E-03     50.4991E-03    -25.4635E-03     9.96073E-03
             693     2.63216E-03     79.4076E-03    -42.7253E+06    -120.150E+06    -35.2074E+06    -954.392E+03    -25.4931E-03     51.0083E-03    -25.5152E-03     14.7759E-03    -25.4825E-03     50.5216E-03    -25.4551E-03     14.7546E-03
             694     3.50954E-03     79.4238E-03    -39.7663E+06    -114.256E+06    -28.5498E+06    -1.22733E+06    -25.5050E-03     51.0296E-03    -25.5246E-03     19.5712E-03    -25.4988E-03     50.5594E-03    -25.4440E-03     19.5427E-03
             695     4.38700E-03     79.4446E-03    -36.5160E+06    -107.592E+06    -22.0847E+06    -1.66969E+06    -25.5291E-03     51.0596E-03    -25.5305E-03     24.3277E-03    -25.5271E-03     50.6100E-03    -25.4319E-03     24.2891E-03
             696     5.26447E-03     79.4698E-03    -33.2467E+06    -100.335E+06    -16.2841E+06    -2.14285E+06    -25.5635E-03     51.0953E-03    -25.5317E-03     29.0043E-03    -25.5660E-03     50.6708E-03    -25.4195E-03     28.9546E-03
             697     6.14196E-03     79.4995E-03    -30.0645E+06    -92.9961E+06    -11.2731E+06    -2.40157E+06    -25.6084E-03     51.1374E-03    -25.5290E-03     33.5545E-03    -25.6156E-03     50.7404E-03    -25.4069E-03     33.4954E-03
             698     7.01947E-03     79.5334E-03    -27.0467E+06    -85.1052E+06    -6.95915E+06    -2.65668E+06    -25.6626E-03     51.1850E-03    -25.5223E-03     37.9751E-03    -25.6761E-03     50.8205E-03    -25.3945E-03     37.9056E-03
             699     7.89698E-03     79.5714E-03    -24.0353E+06    -77.7875E+06    -3.40061E+06    -2.76833E+06    -25.7310E-03     51.2444E-03    -25.5134E-03     42.2286E-03    -25.7502E-03     50.9120E-03    -25.3828E-03     42.1494E-03
             700     8.77452E-03     79.6134E-03    -21.1701E+06    -70.8155E+06    -911.021E+03    -2.56558E+06    -25.8159E-03     51.3172E-03    -25.5013E-03     46.2648E-03    -25.8413E-03     51.0187E-03    -25.3725E-03     46.1783E-03
             701     9.65203E-03     79.6591E-03    -18.8747E+06    -63.1392E+06     319.240E+03    -2.37846E+06    -25.8864E-03     51.3702E-03    -25.4838E-03     50.0422E-03    -25.9222E-03     51.1140E-03    -25.3633E-03     49.9470E-03
             702     10.5296E-03     79.7082E-03    -16.7985E+06    -57.2874E+06     1.00197E+06    -1.90340E+06    -25.9674E-03     51.4350E-03    -25.4675E-03     53.4120E-03    -26.0144E-03     51.2160E-03    -25.3551E-03     53.3100E-03
             703     11.4071E-03     79.7602E-03    -14.8714E+06    -47.7621E+06    -384.367E+03    -1.44523E+06    -26.0054E-03     51.4415E-03    -25.4361E-03     56.2690E-03    -26.0704E-03     51.2853E-03    -25.3472E-03     56.1590E-03
             704     12.2848E-03     79.8147E-03    -13.2679E+06    -28.3849E+06     1.53111E+06    -871.431E+03    -26.0233E-03     51.4296E-03    -25.4063E-03     59.5096E-03    -26.1333E-03     51.3874E-03    -25.3383E-03     59.3924E-03
             705     13.1623E-03     79.8728E-03    -12.3233E+06    -8.07311E+06      98.948E+03    -178.931E+03    -26.1404E-03     51.5011E-03    -25.3606E-03     63.7146E-03    -26.3095E-03     51.5974E-03    -25.3306E-03     63.5892E-03
             706     14.0398E-03     79.9356E-03    -12.0278E+06     44.6887E+06     8.40312E+06     600.673E+03    -25.9775E-03     51.2922E-03    -25.3147E-03     67.6187E-03    -26.2753E-03     51.6816E-03    -25.3200E-03     67.4963E-03
             707     14.9175E-03     80.0000E-03    -10.4787E+06     97.5590E+06     28.4537E+06     604.050E+03    -25.4492E-03     50.7625E-03    -25.3133E-03     63.7558E-03    -25.8594E-03     51.3993E-03    -25.2973E-03     63.6482E-03
             708     15.7961E-03     80.0557E-03    -6.74347E+06     111.662E+06     47.4532E+06     70.2231E+03    -25.1543E-03     50.5073E-03    -25.3531E-03     56.5479E-03    -25.5930E-03     51.1810E-03    -25.2679E-03     56.4595E-03
             709     16.6754E-03     80.1083E-03    -2.93663E+06     114.166E+06     63.6145E+06     404.400E+03    -24.7586E-03     50.1547E-03    -25.3961E-03     37.5762E-03    -25.1418E-03     50.7483E-03    -25.2393E-03     37.5232E-03
             710     877.346E-06     80.3860E-03    -46.3133E+06    -126.461E+06    -45.2412E+06    -478.575E+03    -25.5031E-03     50.9950E-03    -25.4918E-03     5.41995E-03    -25.4858E-03     50.4956E-03    -25.4675E-03     5.41075E-03
             711     1.75475E-03     80.3932E-03    -44.9441E+06    -123.826E+06    -41.3732E+06    -711.018E+03    -25.4989E-03     51.0059E-03    -25.5070E-03     9.97012E-03    -25.4845E-03     50.5124E-03    -25.4692E-03     9.95515E-03
             712     2.63210E-03     80.4048E-03    -42.8557E+06    -119.405E+06    -35.8283E+06    -1.13127E+06    -25.4957E-03     51.0124E-03    -25.5167E-03     14.7648E-03    -25.4859E-03     50.5305E-03    -25.4606E-03     14.7412E-03
             713     3.50955E-03     80.4212E-03    -40.0855E+06    -113.337E+06    -29.4085E+06    -1.65300E+06    -25.5047E-03     51.0289E-03    -25.5241E-03     19.5599E-03    -25.5002E-03     50.5650E-03    -25.4487E-03     19.5259E-03
             714     4.38697E-03     80.4419E-03    -36.9553E+06    -106.605E+06    -22.9739E+06    -2.18207E+06    -25.5280E-03     51.0573E-03    -25.5293E-03     24.3200E-03    -25.5283E-03     50.6146E-03    -25.4360E-03     24.2749E-03
             715     5.26445E-03     80.4672E-03    -33.7370E+06    -99.4284E+06    -17.1038E+06    -2.62016E+06    -25.5662E-03     51.0971E-03    -25.5310E-03     28.9955E-03    -25.5712E-03     50.6791E-03    -25.4234E-03     28.9396E-03
             716     6.14192E-03     80.4968E-03    -30.5389E+06    -92.3300E+06    -12.0245E+06    -3.00187E+06    -25.6158E-03     51.1452E-03    -25.5294E-03     33.5496E-03    -25.6252E-03     50.7533E-03    -25.4113E-03     33.4827E-03
             717     7.01942E-03     80.5307E-03    -27.3369E+06    -84.3603E+06    -7.62764E+06    -3.28457E+06    -25.6689E-03     51.1923E-03    -25.5233E-03     37.9809E-03    -25.6840E-03     50.8330E-03    -25.3995E-03     37.9034E-03
             718     7.89694E-03     80.5687E-03    -24.4421E+06    -77.4706E+06    -4.08252E+06    -3.45424E+06    -25.7328E-03     51.2480E-03    -25.5152E-03     42.2519E-03    -25.7535E-03     50.9188E-03    -25.3878E-03     42.1638E-03
             719     8.77447E-03     80.6107E-03    -21.8277E+06    -70.9133E+06    -1.82815E+06    -3.25803E+06    -25.8028E-03     51.3047E-03    -25.5019E-03     46.3193E-03    -25.8300E-03     51.0080E-03    -25.3766E-03     46.2240E-03
             720     9.65202E-03     80.6564E-03    -19.3361E+06    -63.1442E+06    -291.736E+03    -2.89873E+06    -25.8749E-03     51.3590E-03    -25.4841E-03     50.1018E-03    -25.9122E-03     51.1043E-03    -25.3660E-03     49.9999E-03
             721     10.5296E-03     80.7055E-03    -17.1090E+06    -57.7237E+06     287.636E+03    -2.62303E+06    -25.9396E-03     51.4054E-03    -25.4658E-03     53.4986E-03    -25.9864E-03     51.1857E-03    -25.3558E-03     53.3875E-03
             722     11.4072E-03     80.7577E-03    -15.2969E+06    -48.1878E+06    -1.18011E+06    -2.05649E+06    -25.9803E-03     51.4122E-03    -25.4319E-03     56.3225E-03    -26.0457E-03     51.2556E-03    -25.3457E-03     56.2047E-03
             723     12.2847E-03     80.8118E-03    -13.6322E+06    -29.2618E+06     650.731E+03    -1.44398E+06    -25.9925E-03     51.3926E-03    -25.4001E-03     59.7066E-03    -26.1020E-03     51.3479E-03    -25.3346E-03     59.5821E-03
             724     13.1623E-03     80.8706E-03    -12.3779E+06    -9.71834E+06    -1.17899E+06    -201.663E+03    -25.9664E-03     51.3125E-03    -25.3461E-03     63.9323E-03    -26.1311E-03     51.4022E-03    -25.3199E-03     63.8079E-03
             725     14.0403E-03     80.9322E-03    -11.0064E+06     44.2707E+06     8.14787E+06     1.09539E+06    -25.8171E-03     51.1084E-03    -25.2914E-03     67.7091E-03    -26.1079E-03     51.4937E-03    -25.2989E-03     67.5947E-03
             726     14.9183E-03     80.9982E-03    -9.49588E+06     98.5231E+06     29.0631E+06     822.594E+03    -25.8015E-03     51.0995E-03    -25.2980E-03     64.2565E-03    -26.2110E-03     51.7408E-03    -25.2818E-03     64.1493E-03
             727     15.7950E-03     81.0527E-03    -7.71198E+06     111.097E+06      46.596E+06     226.750E+03    -25.5697E-03     50.9268E-03    -25.3571E-03     56.8111E-03    -26.0131E-03     51.6021E-03    -25.2740E-03     56.7216E-03
             728     16.6717E-03     81.1055E-03    -3.37835E+06     113.976E+06     63.0891E+06    -28.8800E+03    -24.5524E-03     49.9586E-03    -25.4062E-03     37.2232E-03    -24.9362E-03     50.5521E-03    -25.2511E-03     37.1653E-03
             729     877.385E-06     81.3834E-03    -46.6738E+06    -125.571E+06    -45.7544E+06    -395.915E+03    -25.5023E-03     51.0077E-03    -25.5054E-03     5.40462E-03    -25.4874E-03     50.5141E-03    -25.4844E-03     5.39648E-03
             730     1.75470E-03     81.3905E-03    -45.2839E+06    -123.006E+06    -41.9374E+06    -832.338E+03    -25.4994E-03     51.0108E-03    -25.5114E-03     9.94339E-03    -25.4871E-03     50.5227E-03    -25.4771E-03     9.92685E-03
             731     2.63212E-03     81.4023E-03    -43.0383E+06    -118.241E+06    -36.4265E+06    -1.37766E+06    -25.5001E-03     51.0189E-03    -25.5188E-03     14.7526E-03    -25.4921E-03     50.5440E-03    -25.4671E-03     14.7258E-03
             732     3.50950E-03     81.4185E-03    -40.3578E+06    -112.163E+06    -30.1509E+06    -2.06936E+06    -25.5074E-03     51.0328E-03    -25.5254E-03     19.5544E-03    -25.5049E-03     50.5763E-03    -25.4550E-03     19.5150E-03
             733     4.38696E-03     81.4393E-03    -37.3136E+06    -105.463E+06    -23.6901E+06    -2.66923E+06    -25.5290E-03     51.0594E-03    -25.5305E-03     24.3144E-03    -25.5316E-03     50.6240E-03    -25.4419E-03     24.2630E-03
             734     5.26441E-03     81.4645E-03    -34.1046E+06    -98.4156E+06    -17.7701E+06    -3.19652E+06    -25.5644E-03     51.0964E-03    -25.5320E-03     28.9993E-03    -25.5719E-03     50.6849E-03    -25.4287E-03     28.9360E-03
             735     6.14190E-03     81.4942E-03    -30.8714E+06    -91.3842E+06    -12.6184E+06    -3.63491E+06    -25.6112E-03     51.1412E-03    -25.5299E-03     33.5638E-03    -25.6229E-03     50.7554E-03    -25.4157E-03     33.4888E-03
             736     7.01939E-03     81.5280E-03    -27.8162E+06    -83.6007E+06    -8.30927E+06    -3.99504E+06    -25.6632E-03     51.1862E-03    -25.5230E-03     38.0065E-03    -25.6808E-03     50.8324E-03    -25.4030E-03     37.9198E-03
             737     7.89692E-03     81.5661E-03    -24.8560E+06    -76.9994E+06    -4.71574E+06    -4.06675E+06    -25.7225E-03     51.2369E-03    -25.5144E-03     42.2836E-03    -25.7451E-03     50.9115E-03    -25.3903E-03     42.1877E-03
             738     8.77446E-03     81.6080E-03    -22.1614E+06    -70.9337E+06    -2.60646E+06    -3.91142E+06    -25.7812E-03     51.2804E-03    -25.4992E-03     46.3405E-03    -25.8089E-03     50.9852E-03    -25.3773E-03     46.2369E-03
             739     9.65207E-03     81.6537E-03    -19.6342E+06    -63.0675E+06    -1.12536E+06    -3.77774E+06    -25.8434E-03     51.3218E-03    -25.4784E-03     50.1581E-03    -25.8810E-03     51.0691E-03    -25.3642E-03     50.0450E-03
             740     10.5296E-03     81.7029E-03    -17.3477E+06    -58.1502E+06    -581.678E+03    -3.34269E+06    -25.8951E-03     51.3526E-03    -25.4575E-03     53.5290E-03    -25.9412E-03     51.1324E-03    -25.3509E-03     53.4088E-03
             741     11.4073E-03     81.7548E-03    -15.4292E+06    -48.7427E+06    -2.19499E+06    -2.71989E+06    -25.9233E-03     51.3425E-03    -25.4192E-03     56.4435E-03    -25.9870E-03     51.1847E-03    -25.3371E-03     56.3174E-03
             742     12.2849E-03     81.8094E-03    -13.9178E+06    -29.7677E+06    -207.109E+03    -2.07152E+06    -25.9212E-03     51.3053E-03    -25.3841E-03     59.7682E-03    -26.0301E-03     51.2597E-03    -25.3218E-03     59.6359E-03
             743     13.1629E-03     81.8673E-03    -12.4713E+06    -11.5542E+06    -2.30183E+06    -916.912E+03    -25.9204E-03     51.2476E-03    -25.3273E-03     63.7613E-03    -26.0808E-03     51.3295E-03    -25.3039E-03     63.6280E-03
             744     14.0404E-03     81.9298E-03    -10.8744E+06     42.9073E+06     6.74420E+06     300.705E+03    -25.8332E-03     51.1035E-03    -25.2703E-03     67.5082E-03    -26.1196E-03     51.4840E-03    -25.2830E-03     67.3832E-03
             745     14.9186E-03     81.9947E-03    -8.83442E+06     98.7212E+06     28.3469E+06     1.27315E+06    -25.5952E-03     50.8678E-03    -25.2726E-03     64.5984E-03    -26.0008E-03     51.5103E-03    -25.2612E-03     64.4984E-03
             746     15.7963E-03     82.0525E-03    -6.39793E+06     112.627E+06     47.4075E+06     1.06397E+06    -25.3350E-03     50.6592E-03    -25.3243E-03     57.4863E-03    -25.7756E-03     51.3396E-03    -25.2413E-03     57.4098E-03
             747     16.6750E-03     82.1011E-03    -3.85683E+06     114.318E+06     63.2550E+06    -261.899E+03    -25.0246E-03     50.4057E-03    -25.3811E-03     37.9709E-03    -25.4135E-03     51.0033E-03    -25.2250E-03     37.9079E-03
             748     877.290E-06     82.3807E-03    -47.4375E+06    -124.565E+06    -46.5155E+06    -518.354E+03    -25.5220E-03     51.0315E-03    -25.5095E-03     5.37359E-03    -25.5112E-03     50.5451E-03    -25.4926E-03     5.36386E-03
             749     1.75471E-03     82.3880E-03    -45.8784E+06    -121.776E+06    -42.5851E+06    -1.14462E+06    -25.4911E-03     51.0104E-03    -25.5193E-03     9.93748E-03    -25.4826E-03     50.5302E-03    -25.4891E-03     9.91690E-03
             750     2.63207E-03     82.3996E-03    -43.6125E+06    -116.966E+06    -37.2025E+06    -1.83868E+06    -25.4953E-03     51.0158E-03    -25.5206E-03     14.7525E-03    -25.4909E-03     50.5493E-03    -25.4737E-03     14.7197E-03
             751     3.50951E-03     82.4159E-03    -40.8341E+06    -110.694E+06    -30.7885E+06    -2.49158E+06    -25.5097E-03     51.0358E-03    -25.5262E-03     19.5621E-03    -25.5107E-03     50.5882E-03    -25.4604E-03     19.5173E-03
             752     4.38691E-03     82.4366E-03    -37.7977E+06    -104.128E+06    -24.3126E+06    -3.21369E+06    -25.5313E-03     51.0629E-03    -25.5316E-03     24.3232E-03    -25.5375E-03     50.6357E-03    -25.4473E-03     24.2647E-03
             753     5.26439E-03     82.4619E-03    -34.5456E+06    -97.1320E+06    -18.4098E+06    -3.85797E+06    -25.5581E-03     51.0905E-03    -25.5324E-03     29.0047E-03    -25.5687E-03     50.6870E-03    -25.4335E-03     28.9328E-03
             754     6.14187E-03     82.4915E-03    -31.2484E+06    -90.3019E+06    -13.2333E+06    -4.39133E+06    -25.5986E-03     51.1276E-03    -25.5290E-03     33.5729E-03    -25.6127E-03     50.7487E-03    -25.4190E-03     33.4881E-03
             755     7.01940E-03     82.5254E-03    -28.1120E+06    -82.8113E+06    -8.86787E+06    -4.61484E+06    -25.6501E-03     51.1710E-03    -25.5210E-03     38.0146E-03    -25.6695E-03     50.8224E-03    -25.4045E-03     37.9199E-03
             756     7.89692E-03     82.5634E-03    -25.2300E+06    -76.4047E+06    -5.37937E+06    -4.81500E+06    -25.7058E-03     51.2163E-03    -25.5106E-03     42.2867E-03    -25.7301E-03     50.8955E-03    -25.3901E-03     42.1811E-03
             757     8.77451E-03     82.6054E-03    -22.2502E+06    -70.6469E+06    -3.27927E+06    -4.90560E+06    -25.7659E-03     51.2598E-03    -25.4939E-03     46.3444E-03    -25.7935E-03     50.9671E-03    -25.3756E-03     46.2279E-03
             758     9.65204E-03     82.6510E-03    -19.6568E+06    -63.1341E+06    -1.80715E+06    -4.53565E+06    -25.8085E-03     51.2799E-03    -25.4714E-03     50.1514E-03    -25.8452E-03     51.0279E-03    -25.3604E-03     50.0286E-03
             759     10.5298E-03     82.7001E-03    -17.5699E+06    -58.3765E+06    -1.19841E+06    -4.14148E+06    -25.8539E-03     51.3024E-03    -25.4485E-03     53.4785E-03    -25.8998E-03     51.0822E-03    -25.3444E-03     53.3481E-03
             760     11.4074E-03     82.7520E-03    -15.7026E+06    -49.3486E+06    -2.87338E+06    -3.55807E+06    -25.9037E-03     51.3124E-03    -25.4088E-03     56.3374E-03    -25.9669E-03     51.1530E-03    -25.3288E-03     56.2005E-03
             761     12.2852E-03     82.8065E-03    -14.2034E+06    -30.5073E+06    -774.520E+03    -2.63171E+06    -25.9549E-03     51.3307E-03    -25.3758E-03     59.5341E-03    -26.0634E-03     51.2828E-03    -25.3149E-03     59.3943E-03
             762     13.1625E-03     82.8648E-03    -13.0143E+06    -12.8840E+06    -3.13818E+06    -1.59942E+06    -25.9727E-03     51.2956E-03    -25.3229E-03     63.3609E-03    -26.1327E-03     51.3728E-03    -25.3010E-03     63.2183E-03
             763     14.0407E-03     82.9265E-03    -11.4545E+06     41.5750E+06     5.93803E+06    -570.466E+03    -25.9096E-03     51.1805E-03    -25.2709E-03     67.4536E-03    -26.1968E-03     51.5574E-03    -25.2848E-03     67.3163E-03
             764     14.9180E-03     82.9928E-03    -9.23651E+06     97.9116E+06     26.6307E+06     279.415E+03    -25.4160E-03     50.6812E-03    -25.2653E-03     63.8984E-03    -25.8188E-03     51.3216E-03    -25.2607E-03     63.7866E-03
             765     15.7973E-03     83.0477E-03    -5.72557E+06     113.064E+06     46.8567E+06     443.115E+03    -24.8757E-03     50.1790E-03    -25.3033E-03     56.1141E-03    -25.3087E-03     50.8572E-03    -25.2247E-03     56.0329E-03
             766     16.6747E-03     83.1003E-03    -3.23264E+06     115.187E+06     64.0993E+06     565.964E+03    -25.2462E-03     50.6081E-03    -25.3619E-03     37.4689E-03    -25.6321E-03     51.2056E-03    -25.2037E-03     37.4163E-03
             767     877.351E-06     83.3783E-03    -48.0679E+06    -123.201E+06    -47.2164E+06    -830.662E+03    -25.5133E-03     51.0169E-03    -25.5036E-03     5.35064E-03    -25.5066E-03     50.5392E-03    -25.4914E-03     5.33687E-03
             768     1.75467E-03     83.3853E-03    -46.5009E+06    -120.229E+06    -43.3130E+06    -1.48916E+06    -25.4974E-03     51.0115E-03    -25.5140E-03     9.96249E-03    -25.4933E-03     50.5410E-03    -25.4888E-03     9.93746E-03
             769     2.63209E-03     83.3971E-03    -44.2860E+06    -115.337E+06    -37.7284E+06    -2.28795E+06    -25.5003E-03     51.0204E-03    -25.5201E-03     14.7600E-03    -25.5009E-03     50.5637E-03    -25.4773E-03     14.7214E-03
             770     3.50947E-03     83.4132E-03    -41.4967E+06    -109.181E+06    -31.3818E+06    -3.03726E+06    -25.5084E-03     51.0348E-03    -25.5265E-03     19.5596E-03    -25.5141E-03     50.5966E-03    -25.4649E-03     19.5077E-03
             771     4.38693E-03     83.4341E-03    -38.3396E+06    -102.398E+06    -24.9071E+06    -3.82691E+06    -25.5277E-03     51.0586E-03    -25.5309E-03     24.3234E-03    -25.5382E-03     50.6417E-03    -25.4514E-03     24.2570E-03
             772     5.26435E-03     83.4592E-03    -35.0820E+06    -95.6925E+06    -19.0658E+06    -4.58156E+06    -25.5534E-03     51.0846E-03    -25.5312E-03     29.0007E-03    -25.5678E-03     50.6900E-03    -25.4369E-03     28.9195E-03
             773     6.14187E-03     83.4889E-03    -31.8958E+06    -89.0137E+06    -13.9653E+06    -5.10830E+06    -25.5889E-03     51.1158E-03    -25.5269E-03     33.5723E-03    -25.6071E-03     50.7453E-03    -25.4214E-03     33.4783E-03
             774     7.01936E-03     83.5227E-03    -28.7011E+06    -82.0023E+06    -9.69613E+06    -5.49489E+06    -25.6365E-03     51.1542E-03    -25.5177E-03     38.0079E-03    -25.6589E-03     50.8117E-03    -25.4056E-03     37.9018E-03
             775     7.89695E-03     83.5608E-03    -25.4857E+06    -75.4645E+06    -6.06957E+06    -5.72347E+06    -25.6898E-03     51.1957E-03    -25.5059E-03     42.2659E-03    -25.7158E-03     50.8809E-03    -25.3898E-03     42.1486E-03
             776     8.77449E-03     83.6026E-03    -22.8205E+06    -70.2376E+06    -4.08484E+06    -5.83208E+06    -25.7507E-03     51.2393E-03    -25.4886E-03     46.3153E-03    -25.7806E-03     50.9507E-03    -25.3741E-03     46.1868E-03
             777     9.65216E-03     83.6483E-03    -20.4008E+06    -63.3603E+06    -2.89367E+06    -5.43806E+06    -25.8093E-03     51.2750E-03    -25.4656E-03     50.0801E-03    -25.8478E-03     51.0245E-03    -25.3587E-03     49.9455E-03
             778     10.5297E-03     83.6973E-03    -18.0362E+06    -58.2133E+06    -2.03726E+06    -5.01824E+06    -25.8744E-03     51.3187E-03    -25.4444E-03     53.3505E-03    -25.9217E-03     51.1013E-03    -25.3440E-03     53.2086E-03
             779     11.4075E-03     83.7492E-03    -16.1711E+06    -50.0903E+06    -3.95913E+06    -4.47537E+06    -25.9604E-03     51.3684E-03    -25.4080E-03     56.2082E-03    -26.0233E-03     51.2076E-03    -25.3318E-03     56.0591E-03
             780     12.2848E-03     83.8038E-03    -14.3550E+06    -31.4865E+06    -1.91421E+06    -3.53054E+06    -25.9955E-03     51.3737E-03    -25.3782E-03     59.4567E-03    -26.1016E-03     51.3226E-03    -25.3213E-03     59.3052E-03
             781     13.1628E-03     83.8620E-03    -12.3762E+06    -13.7743E+06    -3.56559E+06    -2.36778E+06    -26.0809E-03     51.4129E-03    -25.3320E-03     63.2471E-03    -26.2361E-03     51.4856E-03    -25.3119E-03     63.0938E-03
             782     14.0401E-03     83.9237E-03    -11.0283E+06     39.9601E+06     4.82237E+06    -1.01800E+06    -25.9819E-03     51.2647E-03    -25.2828E-03     67.3241E-03    -26.2631E-03     51.6346E-03    -25.3006E-03     67.1805E-03
             783     14.9184E-03     83.9902E-03    -9.14963E+06     97.6526E+06     26.4324E+06    -281.780E+03    -25.4129E-03     50.6946E-03    -25.2817E-03     63.5130E-03    -25.8132E-03     51.3325E-03    -25.2779E-03     63.3941E-03
             784     15.7950E-03     84.0445E-03    -6.45148E+06     112.863E+06     45.9852E+06     327.038E+03    -25.1971E-03     50.5225E-03    -25.3254E-03     56.3335E-03    -25.6333E-03     51.2031E-03    -25.2498E-03     56.2479E-03
             785     16.6745E-03     84.0968E-03    -3.80829E+06     114.727E+06     62.7028E+06     883.567E+03    -25.0617E-03     50.4455E-03    -25.3838E-03     37.8007E-03    -25.4494E-03     51.0451E-03    -25.2311E-03     37.7519E-03
             786     877.353E-06     84.3756E-03    -48.5280E+06    -121.311E+06    -47.7081E+06    -1.08009E+06    -25.4963E-03     50.9866E-03    -25.4903E-03     5.33044E-03    -25.4940E-03     50.5198E-03    -25.4825E-03     5.31348E-03
             787     1.75475E-03     84.3828E-03    -47.0055E+06    -118.356E+06    -43.7607E+06    -1.92179E+06    -25.5090E-03     51.0135E-03    -25.5045E-03     9.95354E-03    -25.5094E-03     50.5538E-03    -25.4835E-03     9.92291E-03
             788     2.63205E-03     84.3944E-03    -44.6847E+06    -113.505E+06    -38.0662E+06    -2.70753E+06    -25.5096E-03     51.0279E-03    -25.5183E-03     14.7471E-03    -25.5143E-03     50.5814E-03    -25.4793E-03     14.7031E-03
             789     3.50947E-03     84.4107E-03    -41.8727E+06    -107.288E+06    -31.7180E+06     -3.6077E+06    -25.5081E-03     51.0346E-03    -25.5265E-03     19.5582E-03    -25.5179E-03     50.6069E-03    -25.4688E-03     19.4989E-03
             790     4.38687E-03     84.4314E-03    -38.7638E+06    -100.567E+06    -25.4824E+06    -4.46657E+06    -25.5203E-03     51.0496E-03    -25.5293E-03     24.3214E-03    -25.5348E-03     50.6434E-03    -25.4547E-03     24.2467E-03
             791     5.26437E-03     84.4567E-03    -35.5821E+06    -93.9947E+06    -19.6756E+06    -5.22195E+06    -25.5500E-03     51.0789E-03    -25.5289E-03     28.9921E-03    -25.5685E-03     50.6944E-03    -25.4394E-03     28.9025E-03
             792     6.14183E-03     84.4862E-03    -32.4300E+06    -87.6726E+06    -14.7445E+06    -5.80227E+06    -25.5866E-03     51.1108E-03    -25.5242E-03     33.5555E-03    -25.6084E-03     50.7489E-03    -25.4238E-03     33.4525E-03
             793     7.01939E-03     84.5201E-03    -29.3983E+06    -80.6349E+06    -10.5669E+06    -6.33749E+06    -25.6258E-03     51.1400E-03    -25.5142E-03     37.9933E-03    -25.6524E-03     50.8065E-03    -25.4074E-03     37.8764E-03
             794     7.89690E-03     84.5580E-03    -26.5191E+06    -74.5419E+06    -7.15168E+06    -6.76219E+06    -25.6826E-03     51.1844E-03    -25.5018E-03     42.2441E-03    -25.7135E-03     50.8773E-03    -25.3910E-03     42.1133E-03
             795     8.77454E-03     84.6000E-03    -23.6103E+06    -69.7075E+06    -5.08660E+06    -6.69793E+06    -25.7601E-03     51.2457E-03    -25.4856E-03     46.2673E-03    -25.7932E-03     50.9623E-03    -25.3757E-03     46.1276E-03
             796     9.65204E-03     84.6455E-03    -20.9380E+06    -63.2633E+06    -3.97753E+06    -6.55611E+06    -25.8327E-03     51.2969E-03    -25.4642E-03     50.0176E-03    -25.8724E-03     51.0492E-03    -25.3620E-03     49.8685E-03
             797     10.5297E-03     84.6946E-03    -18.5735E+06    -58.2755E+06    -3.22131E+06    -6.08384E+06    -25.9291E-03     51.3749E-03    -25.4458E-03     53.3482E-03    -25.9774E-03     51.1597E-03    -25.3504E-03     53.1924E-03
             798     11.4071E-03     84.7465E-03    -16.4146E+06    -50.4386E+06    -4.85667E+06    -5.52669E+06    -25.9961E-03     51.4100E-03    -25.4139E-03     56.2290E-03    -26.0585E-03     51.2492E-03    -25.3413E-03     56.0663E-03
             799     12.2850E-03     84.8012E-03    -14.5235E+06    -32.4655E+06    -2.97095E+06    -4.65606E+06    -26.0148E-03     51.4001E-03    -25.3853E-03     59.4672E-03    -26.1187E-03     51.3457E-03    -25.3320E-03     59.3012E-03
             800     13.1623E-03     84.8591E-03    -13.1885E+06    -15.4447E+06    -4.94301E+06    -3.47047E+06    -26.0975E-03     51.4371E-03    -25.3396E-03     63.4248E-03    -26.2525E-03     51.5048E-03    -25.3228E-03     63.2573E-03
             801     14.0399E-03     84.9216E-03    -11.5102E+06     38.0106E+06     3.66364E+06    -1.83233E+06    -25.9327E-03     51.2219E-03    -25.2892E-03     67.6268E-03    -26.2111E-03     51.5838E-03    -25.3093E-03     67.4736E-03
             802     14.9173E-03     84.9868E-03    -9.03631E+06     96.8583E+06     25.2355E+06    -284.076E+03    -25.5214E-03     50.8073E-03    -25.2859E-03     63.6972E-03    -25.9183E-03     51.4427E-03    -25.2870E-03     63.5779E-03
             803     15.7974E-03     85.0417E-03    -6.88346E+06     112.621E+06     45.0073E+06     604.355E+03    -25.4137E-03     50.7520E-03    -25.3383E-03     57.0098E-03    -25.8527E-03     51.4358E-03    -25.2666E-03     56.9260E-03
             804     16.6721E-03     85.0961E-03    -3.68702E+06     114.955E+06     62.4414E+06     735.960E+03    -24.7172E-03     50.1113E-03    -25.3940E-03     38.2781E-03    -25.1055E-03     50.7135E-03    -25.2432E-03     38.2284E-03
             805     877.368E-06     85.3731E-03    -48.7049E+06    -118.943E+06    -47.7551E+06    -1.25067E+06    -25.5038E-03     50.9937E-03    -25.4898E-03     5.34246E-03    -25.5058E-03     50.5390E-03    -25.4855E-03     5.32330E-03
             806     1.75466E-03     85.3802E-03    -47.2312E+06    -116.141E+06    -43.8591E+06    -2.23287E+06    -25.5040E-03     51.0109E-03    -25.5069E-03     9.93861E-03    -25.5086E-03     50.5627E-03    -25.4893E-03     9.90396E-03
             807     2.63207E-03     85.3919E-03    -45.0012E+06    -111.419E+06    -38.5578E+06    -3.21914E+06    -25.5005E-03     51.0166E-03    -25.5161E-03     14.7437E-03    -25.5091E-03     50.5817E-03    -25.4821E-03     14.6931E-03
             808     3.50945E-03     85.4080E-03    -42.1855E+06    -105.092E+06    -32.2843E+06    -4.16165E+06    -25.5065E-03     51.0291E-03    -25.5225E-03     19.5589E-03    -25.5203E-03     50.6136E-03    -25.4704E-03     19.4924E-03
             809     4.38690E-03     85.4288E-03    -39.1437E+06    -98.6032E+06    -25.9631E+06    -5.05238E+06    -25.5197E-03     51.0461E-03    -25.5264E-03     24.3174E-03    -25.5382E-03     50.6510E-03    -25.4565E-03     24.2351E-03
             810     5.26433E-03     85.4540E-03    -36.0105E+06    -92.1563E+06    -20.3201E+06    -5.82049E+06    -25.5477E-03     51.0733E-03    -25.5256E-03     28.9911E-03    -25.5700E-03     50.6995E-03    -25.4414E-03     28.8939E-03
             811     6.14184E-03     85.4836E-03    -32.8089E+06    -85.9982E+06    -15.3275E+06    -6.57971E+06    -25.5871E-03     51.1086E-03    -25.5215E-03     33.5429E-03    -25.6123E-03     50.7565E-03    -25.4259E-03     33.4299E-03
             812     7.01932E-03     85.5173E-03    -29.6820E+06    -79.2062E+06    -11.1452E+06    -7.09067E+06    -25.6263E-03     51.1383E-03    -25.5120E-03     37.9707E-03    -25.6555E-03     50.8133E-03    -25.4098E-03     37.8440E-03
             813     7.89694E-03     85.5554E-03    -26.7995E+06    -73.2177E+06    -7.72827E+06    -7.52238E+06    -25.6886E-03     51.1887E-03    -25.5002E-03     42.2339E-03    -25.7220E-03     50.8895E-03    -25.3938E-03     42.0933E-03
             814     8.77441E-03     85.5972E-03    -24.0387E+06    -69.0071E+06    -5.88866E+06    -7.91153E+06    -25.7678E-03     51.2525E-03    -25.4847E-03     46.2801E-03    -25.8030E-03     50.9744E-03    -25.3792E-03     46.1247E-03
             815     9.65204E-03     85.6429E-03    -21.3347E+06    -62.9488E+06    -4.81637E+06    -7.66052E+06    -25.8436E-03     51.3078E-03    -25.4642E-03     50.0704E-03    -25.8846E-03     51.0635E-03    -25.3661E-03     49.9071E-03
             816     10.5295E-03     85.6918E-03    -18.8893E+06    -58.2108E+06    -4.03692E+06    -7.32525E+06    -25.9322E-03     51.3785E-03    -25.4463E-03     53.4853E-03    -25.9809E-03     51.1652E-03    -25.3547E-03     53.3135E-03
             817     11.4072E-03     85.7441E-03    -16.7130E+06    -50.6920E+06    -5.68911E+06    -6.76890E+06    -26.0001E-03     51.4146E-03    -25.4145E-03     56.3603E-03    -26.0624E-03     51.2541E-03    -25.3452E-03     56.1817E-03
             818     12.2846E-03     85.7982E-03    -14.6421E+06    -33.6080E+06    -4.08191E+06    -5.86004E+06    -25.9700E-03     51.3533E-03    -25.3833E-03     59.6878E-03    -26.0710E-03     51.2949E-03    -25.3338E-03     59.5068E-03
             819     13.1624E-03     85.8569E-03    -12.7932E+06    -16.8234E+06    -6.00809E+06    -4.45503E+06    -25.9678E-03     51.2986E-03    -25.3308E-03     63.8234E-03    -26.1170E-03     51.3600E-03    -25.3179E-03     63.6444E-03
             820     14.0403E-03     85.9181E-03    -11.2537E+06     36.0554E+06     2.37221E+06    -2.52405E+06    -25.8480E-03     51.1208E-03    -25.2729E-03     67.7774E-03    -26.1196E-03     51.4737E-03    -25.2970E-03     67.6162E-03
             821     14.9189E-03     85.9846E-03    -10.0268E+06     94.6926E+06     23.5223E+06    -391.153E+03    -25.8198E-03     51.0951E-03    -25.2753E-03     64.3523E-03    -26.2178E-03     51.7254E-03    -25.2804E-03     64.2295E-03
             822     15.7937E-03     86.0394E-03    -7.54129E+06     111.902E+06     42.8373E+06     770.223E+03    -25.4460E-03     50.7781E-03    -25.3321E-03     56.9460E-03    -25.8841E-03     51.4624E-03    -25.2692E-03     56.8644E-03
             823     16.6755E-03     86.0924E-03    -3.00768E+06     115.442E+06     61.5667E+06     157.915E+03    -24.4796E-03     49.8654E-03    -25.3857E-03     37.1204E-03    -24.8612E-03     50.4675E-03    -25.2409E-03     37.0656E-03
             824     877.315E-06     86.3705E-03    -48.8499E+06    -116.290E+06    -47.8677E+06    -1.33916E+06    -25.5066E-03     51.0047E-03    -25.4981E-03     5.37811E-03    -25.5129E-03     50.5637E-03    -25.4980E-03     5.35777E-03
             825     1.75470E-03     86.3777E-03    -47.3810E+06    -113.618E+06    -44.1277E+06    -2.45602E+06    -25.4918E-03     51.0001E-03    -25.5083E-03     9.93906E-03    -25.5004E-03     50.5651E-03    -25.4955E-03     9.90152E-03
             826     2.63206E-03     86.3892E-03    -45.2157E+06    -108.850E+06    -38.8803E+06    -3.66174E+06    -25.4936E-03     51.0065E-03    -25.5129E-03     14.7447E-03    -25.5066E-03     50.5853E-03    -25.4839E-03     14.6884E-03
             827     3.50947E-03     86.4055E-03    -42.5389E+06    -102.799E+06    -32.8070E+06    -4.74462E+06    -25.5026E-03     51.0208E-03    -25.5182E-03     19.5431E-03    -25.5207E-03     50.6181E-03    -25.4715E-03     19.4691E-03
             828     4.38687E-03     86.4262E-03    -39.4587E+06    -96.3811E+06    -26.4127E+06    -5.67066E+06    -25.5189E-03     51.0416E-03    -25.5227E-03     24.3050E-03    -25.5416E-03     50.6586E-03    -25.4578E-03     24.2147E-03
             829     5.26435E-03     86.4514E-03    -36.2007E+06    -90.1594E+06    -20.6458E+06    -6.54558E+06    -25.5443E-03     51.0671E-03    -25.5228E-03     28.9820E-03    -25.5700E-03     50.7041E-03    -25.4428E-03     28.8754E-03
             830     6.14181E-03     86.4809E-03    -33.0391E+06    -84.0508E+06    -15.7249E+06    -7.29760E+06    -25.5789E-03     51.0969E-03    -25.5180E-03     33.5428E-03    -25.6075E-03     50.7554E-03    -25.4268E-03     33.4205E-03
             831     7.01935E-03     86.5148E-03    -29.9138E+06    -77.6065E+06    -11.6481E+06    -8.04879E+06    -25.6284E-03     51.1367E-03    -25.5083E-03     37.9868E-03    -25.6604E-03     50.8207E-03    -25.4106E-03     37.8478E-03
             832     7.89684E-03     86.5526E-03    -26.7549E+06    -71.8289E+06    -8.21023E+06    -8.45868E+06    -25.6819E-03     51.1782E-03    -25.4963E-03     42.2821E-03    -25.7164E-03     50.8865E-03    -25.3944E-03     42.1295E-03
             833     8.77447E-03     86.5946E-03    -24.0684E+06    -67.7881E+06    -6.17473E+06    -8.70679E+06    -25.7454E-03     51.2261E-03    -25.4807E-03     46.3443E-03    -25.7820E-03     50.9545E-03    -25.3784E-03     46.1788E-03
             834     9.65203E-03     86.6400E-03    -21.6672E+06    -62.5423E+06    -5.49426E+06    -8.89594E+06    -25.8183E-03     51.2760E-03    -25.4577E-03     50.1926E-03    -25.8605E-03     51.0352E-03    -25.3631E-03     50.0135E-03
             835     10.5297E-03     86.6893E-03    -19.2104E+06    -57.8704E+06    -4.84475E+06    -8.61522E+06    -25.8914E-03     51.3279E-03    -25.4366E-03     53.6478E-03    -25.9410E-03     51.1179E-03    -25.3490E-03     53.4597E-03
             836     11.4072E-03     86.7410E-03    -16.8286E+06    -50.9000E+06    -6.46858E+06    -8.30783E+06    -25.9289E-03     51.3301E-03    -25.4012E-03     56.5702E-03    -25.9902E-03     51.1697E-03    -25.3353E-03     56.3722E-03
             837     12.2850E-03     86.7959E-03    -14.6613E+06    -34.4515E+06    -4.88451E+06    -7.27515E+06    -25.9060E-03     51.2721E-03    -25.3661E-03     59.8044E-03    -26.0047E-03     51.2107E-03    -25.3193E-03     59.6054E-03
             838     13.1630E-03     86.8532E-03    -12.9598E+06    -18.2695E+06    -6.72368E+06    -5.74756E+06    -25.9865E-03     51.3007E-03    -25.3142E-03     63.8044E-03    -26.1333E-03     51.3562E-03    -25.3025E-03     63.6086E-03
             839     14.0405E-03     86.9163E-03    -11.8469E+06     32.6592E+06     1.02673E+06    -3.11883E+06    -26.0312E-03     51.2951E-03    -25.2639E-03     67.4872E-03    -26.2997E-03     51.6346E-03    -25.2890E-03     67.3166E-03
             840     14.9178E-03     86.9807E-03    -9.84222E+06     92.2512E+06     21.7329E+06    -442.806E+03    -25.6169E-03     50.8787E-03    -25.2619E-03     64.4551E-03    -26.0083E-03     51.4997E-03    -25.2727E-03     64.3324E-03
             841     15.7975E-03     87.0394E-03    -6.50507E+06     112.527E+06     42.5120E+06     19.2226E+03    -25.3085E-03     50.6191E-03    -25.3106E-03     57.2413E-03    -25.7419E-03     51.3056E-03    -25.2518E-03     57.1513E-03
             842     16.6718E-03     87.0869E-03    -3.44631E+06     115.847E+06     61.5820E+06    -220.480E+03    -24.8608E-03     50.2360E-03    -25.3752E-03     37.4046E-03    -25.2466E-03     50.8422E-03    -25.2302E-03     37.3427E-03
             843     877.333E-06     87.3680E-03    -49.1066E+06    -113.436E+06    -48.2946E+06    -1.48108E+06    -25.4945E-03     50.9911E-03    -25.4966E-03     5.36931E-03    -25.5057E-03     50.5654E-03    -25.5024E-03     5.34714E-03
             844     1.75468E-03     87.3750E-03    -47.6340E+06    -110.640E+06    -44.4518E+06    -2.77938E+06    -25.4903E-03     50.9926E-03    -25.5023E-03     9.93361E-03    -25.5040E-03     50.5734E-03    -25.4951E-03     9.89190E-03
             845     2.63206E-03     87.3867E-03    -45.4229E+06    -106.059E+06    -38.9645E+06    -4.06126E+06    -25.4914E-03     51.0011E-03    -25.5097E-03     14.7416E-03    -25.5093E-03     50.5943E-03    -25.4849E-03     14.6801E-03
             846     3.50944E-03     87.4028E-03    -42.6742E+06    -100.088E+06    -32.8046E+06    -5.30302E+06    -25.4967E-03     51.0121E-03    -25.5154E-03     19.5438E-03    -25.5194E-03     50.6232E-03    -25.4725E-03     19.4626E-03
             847     4.38689E-03     87.4236E-03    -39.5562E+06    -94.0036E+06    -26.6811E+06    -6.41434E+06    -25.5102E-03     51.0285E-03    -25.5182E-03     24.3086E-03    -25.5364E-03     50.6579E-03    -25.4580E-03     24.2087E-03
             848     5.26432E-03     87.4487E-03    -36.3653E+06    -87.9502E+06    -20.9838E+06    -7.25465E+06    -25.5278E-03     51.0446E-03    -25.5168E-03     28.9904E-03    -25.5570E-03     50.6933E-03    -25.4415E-03     28.8747E-03
             849     6.14183E-03     87.4783E-03    -33.1642E+06    -81.9622E+06    -16.1128E+06     -8.1095E+06    -25.5584E-03     51.0682E-03    -25.5098E-03     33.5745E-03    -25.5901E-03     50.7379E-03    -25.4235E-03     33.4418E-03
             850     7.01936E-03     87.5120E-03    -30.1366E+06    -75.5969E+06    -12.0116E+06    -8.86447E+06    -25.6026E-03     51.1010E-03    -25.4984E-03     38.0470E-03    -25.6380E-03     50.7959E-03    -25.4051E-03     37.8975E-03
             851     7.89694E-03     87.5500E-03    -27.3815E+06    -70.4624E+06    -8.79417E+06    -9.43625E+06    -25.6511E-03     51.1357E-03    -25.4846E-03     42.3503E-03    -25.6898E-03     50.8526E-03    -25.3867E-03     42.1852E-03
             852     8.77452E-03     87.5917E-03    -24.4576E+06    -66.4568E+06    -6.74137E+06    -9.72622E+06    -25.7102E-03     51.1766E-03    -25.4664E-03     46.4389E-03    -25.7498E-03     50.9130E-03    -25.3683E-03     46.2605E-03
             853     9.65215E-03     87.6375E-03    -21.7009E+06    -61.4301E+06    -5.86998E+06    -10.0618E+06    -25.7733E-03     51.2148E-03    -25.4415E-03     50.2861E-03    -25.8167E-03     50.9801E-03    -25.3503E-03     50.0922E-03
             854     10.5298E-03     87.6863E-03    -19.0857E+06    -57.4650E+06    -5.51778E+06    -10.2144E+06    -25.8320E-03     51.2482E-03    -25.4162E-03     53.7553E-03    -25.8805E-03     51.0410E-03    -25.3328E-03     53.5469E-03
             855     11.4075E-03     87.7386E-03    -16.8383E+06    -50.5339E+06    -7.00200E+06    -9.78828E+06    -25.8793E-03     51.2580E-03    -25.3787E-03     56.5825E-03    -25.9403E-03     51.1002E-03    -25.3160E-03     56.3656E-03
             856     12.2854E-03     87.7925E-03    -14.9647E+06    -35.6858E+06    -5.86120E+06    -8.83334E+06    -25.9675E-03     51.3134E-03    -25.3459E-03     59.7393E-03    -26.0648E-03     51.2478E-03    -25.3017E-03     59.5198E-03
             857     13.1626E-03     87.8512E-03    -13.6760E+06    -20.5701E+06    -8.01522E+06    -6.64966E+06    -26.0858E-03     51.3869E-03    -25.3010E-03     63.8028E-03    -26.2313E-03     51.4340E-03    -25.2915E-03     63.5947E-03
             858     14.0404E-03     87.9128E-03    -12.4308E+06     29.5738E+06     38.6827E+03    -3.95201E+06    -26.0439E-03     51.3007E-03    -25.2568E-03     68.0240E-03    -26.3106E-03     51.6282E-03    -25.2815E-03     67.8426E-03
             859     14.9180E-03     87.9797E-03    -9.71763E+06     90.4427E+06     20.4538E+06    -1.99631E+06    -25.6082E-03     50.8584E-03    -25.2502E-03     64.4009E-03    -25.9948E-03     51.4723E-03    -25.2650E-03     64.2587E-03
             860     15.7957E-03     88.0330E-03    -6.98188E+06     112.025E+06     41.3538E+06    -588.663E+03    -24.9350E-03     50.2238E-03    -25.2889E-03     56.7446E-03    -25.3665E-03     50.9084E-03    -25.2344E-03     56.6497E-03
             861     16.6764E-03     88.0890E-03    -3.41778E+06     115.462E+06     61.0218E+06     10.2514E+03    -24.7049E-03     50.0474E-03    -25.3425E-03     37.5262E-03    -25.0877E-03     50.6511E-03    -25.1999E-03     37.4685E-03
             862     877.358E-06     88.3654E-03    -48.8211E+06    -110.129E+06    -47.9724E+06    -1.79396E+06    -25.4761E-03     50.9739E-03    -25.4977E-03     5.35965E-03    -25.4911E-03     50.5638E-03    -25.5071E-03     5.33345E-03
             863     1.75469E-03     88.3725E-03    -47.2332E+06    -107.396E+06    -43.9854E+06    -3.12856E+06    -25.4881E-03     50.9838E-03    -25.4957E-03     9.93983E-03    -25.5053E-03     50.5796E-03    -25.4914E-03     9.89361E-03
             864     2.63206E-03     88.3841E-03    -44.9699E+06    -102.978E+06    -38.5030E+06    -4.51254E+06    -25.4834E-03     50.9874E-03    -25.5040E-03     14.7489E-03    -25.5042E-03     50.5947E-03    -25.4820E-03     14.6816E-03
             865     3.50947E-03     88.4003E-03    -42.1797E+06    -97.0249E+06    -32.4498E+06    -5.88130E+06    -25.4838E-03     50.9918E-03    -25.5080E-03     19.5637E-03    -25.5090E-03     50.6169E-03    -25.4684E-03     19.4751E-03
             866     4.38687E-03     88.4209E-03    -39.1793E+06    -91.3865E+06    -26.4928E+06    -7.05831E+06    -25.4894E-03     50.9981E-03    -25.5087E-03     24.3289E-03    -25.5178E-03     50.6398E-03    -25.4518E-03     24.2208E-03
             867     5.26439E-03     88.4461E-03     -35.979E+06    -85.5595E+06    -21.0242E+06     -8.0486E+06    -25.5008E-03     51.0046E-03    -25.5038E-03     29.0204E-03    -25.5315E-03     50.6648E-03    -25.4327E-03     28.8945E-03
             868     6.14190E-03     88.4756E-03    -32.8028E+06    -79.6221E+06    -16.0680E+06    -8.91883E+06    -25.5280E-03     51.0227E-03    -25.4946E-03     33.6188E-03    -25.5613E-03     50.7034E-03    -25.4120E-03     33.4758E-03
             869     7.01947E-03     88.5094E-03    -29.8369E+06    -73.7276E+06    -11.9474E+06    -9.54839E+06    -25.5621E-03     51.0432E-03    -25.4812E-03     38.0899E-03    -25.5987E-03     50.7469E-03    -25.3907E-03     37.9318E-03
             870     7.89708E-03     88.5472E-03    -26.8854E+06    -68.3893E+06    -8.69648E+06    -10.2968E+06    -25.6072E-03     51.0711E-03    -25.4639E-03     42.3999E-03    -25.6466E-03     50.7975E-03    -25.3693E-03     42.2239E-03
             871     8.77471E-03     88.5891E-03    -24.0341E+06    -65.0178E+06    -6.90932E+06    -11.0744E+06    -25.6717E-03     51.1147E-03    -25.4430E-03     46.5146E-03    -25.7110E-03     50.8578E-03    -25.3484E-03     46.3190E-03
             872     9.65240E-03     88.6345E-03    -21.1815E+06    -59.8746E+06    -5.92379E+06    -11.4801E+06    -25.7432E-03     51.1600E-03    -25.4168E-03     50.3684E-03    -25.7862E-03     50.9324E-03    -25.3289E-03     50.1563E-03
             873     10.5300E-03     88.6837E-03    -18.6590E+06    -56.6026E+06    -5.72828E+06    -11.7201E+06    -25.8020E-03     51.1930E-03    -25.3910E-03     53.7679E-03    -25.8492E-03     50.9897E-03    -25.3105E-03     53.5402E-03
             874     11.4078E-03     88.7354E-03    -16.5502E+06    -50.7014E+06    -7.67223E+06    -11.1573E+06    -25.8938E-03     51.2475E-03    -25.3537E-03     56.6697E-03    -25.9522E-03     51.0894E-03    -25.2945E-03     56.4353E-03
             875     12.2852E-03     88.7902E-03    -14.9167E+06    -36.3585E+06    -6.55064E+06    -10.0585E+06    -25.9702E-03     51.2937E-03    -25.3236E-03     59.9751E-03    -26.0652E-03     51.2258E-03    -25.2820E-03     59.7400E-03
             876     13.1632E-03     88.8480E-03    -12.8430E+06    -23.3179E+06    -8.89653E+06    -7.98244E+06    -26.0846E-03     51.3647E-03    -25.2800E-03     64.1588E-03    -26.2209E-03     51.3983E-03    -25.2721E-03     63.9338E-03
             877     14.0407E-03     88.9106E-03    -10.5019E+06     26.4532E+06    -688.203E+03    -4.96252E+06    -26.0022E-03     51.2365E-03    -25.2343E-03     68.1029E-03    -26.2534E-03     51.5463E-03    -25.2608E-03     67.9092E-03
             878     14.9192E-03     88.9760E-03    -10.1642E+06     88.5906E+06     20.1279E+06    -1.96992E+06    -25.5803E-03     50.8100E-03    -25.2296E-03     64.6375E-03    -25.9650E-03     51.4147E-03    -25.2427E-03     64.4965E-03
             879     15.7959E-03     89.0329E-03    -7.69217E+06     111.228E+06     38.7880E+06    -940.399E+03    -25.1895E-03     50.4524E-03    -25.2629E-03     56.8446E-03    -25.6198E-03     51.1378E-03    -25.2191E-03     56.7435E-03
             880     16.6739E-03     89.0804E-03    -2.92773E+06     115.044E+06     58.5997E+06    -940.058E+03    -24.8920E-03     50.2194E-03    -25.3274E-03     37.0709E-03    -25.2688E-03     50.8244E-03    -25.1970E-03     36.9994E-03
             881     877.324E-06     89.3629E-03    -48.0449E+06    -106.424E+06    -47.1020E+06    -1.92620E+06    -25.4636E-03     50.9479E-03    -25.4843E-03     5.37136E-03    -25.4813E-03     50.5539E-03    -25.4958E-03     5.34344E-03
             882     1.75471E-03     89.3699E-03    -46.7351E+06    -103.892E+06    -43.4834E+06    -3.38532E+06    -25.4706E-03     50.9517E-03    -25.4811E-03     9.95936E-03    -25.4911E-03     50.5636E-03    -25.4801E-03     9.90985E-03
             883     2.63208E-03     89.3816E-03    -44.5536E+06    -99.4652E+06    -38.3961E+06    -5.00780E+06    -25.4669E-03     50.9535E-03    -25.4866E-03     14.7630E-03    -25.4908E-03     50.5775E-03    -25.4698E-03     14.6894E-03
             884     3.50949E-03     89.3977E-03    -41.8759E+06    -93.7625E+06    -32.3572E+06    -6.46457E+06    -25.4561E-03     50.9456E-03    -25.4895E-03     19.5853E-03    -25.4846E-03     50.5865E-03    -25.4546E-03     19.4892E-03
             885     4.38698E-03     89.4184E-03    -38.7941E+06    -88.4503E+06    -26.2172E+06    -7.75107E+06    -25.4568E-03     50.9455E-03    -25.4888E-03     24.3485E-03    -25.4878E-03     50.6009E-03    -25.4354E-03     24.2315E-03
             886     5.26447E-03     89.4434E-03    -35.5983E+06    -82.8575E+06    -20.7587E+06    -8.88583E+06    -25.4698E-03     50.9517E-03    -25.4819E-03     29.0461E-03    -25.5028E-03     50.6245E-03    -25.4140E-03     28.9095E-03
             887     6.14203E-03     89.4729E-03    -32.4454E+06    -77.2884E+06    -16.0512E+06    -9.74632E+06    -25.4882E-03     50.9583E-03    -25.4700E-03     33.6457E-03    -25.5231E-03     50.6502E-03    -25.3912E-03     33.4922E-03
             888     7.01963E-03     89.5065E-03    -29.2300E+06    -71.5962E+06    -11.9172E+06    -10.5278E+06    -25.5149E-03     50.9687E-03    -25.4538E-03     38.1297E-03    -25.5517E-03     50.6821E-03    -25.3672E-03     37.9591E-03
             889     7.89727E-03     89.5445E-03    -26.1022E+06    -65.9917E+06    -8.50886E+06    -11.4169E+06    -25.5595E-03     50.9935E-03    -25.4339E-03     42.4600E-03    -25.5986E-03     50.7303E-03    -25.3429E-03     42.2698E-03
             890     8.77498E-03     89.5861E-03    -23.2287E+06    -63.0281E+06    -6.53192E+06    -12.2413E+06    -25.6357E-03     51.0485E-03    -25.4127E-03     46.5752E-03    -25.6744E-03     50.7998E-03    -25.3203E-03     46.3647E-03
             891     9.65262E-03     89.6318E-03    -20.7485E+06    -58.2259E+06    -5.74572E+06    -12.8621E+06    -25.7152E-03     51.1013E-03    -25.3861E-03     50.4426E-03    -25.7586E-03     50.8810E-03    -25.3003E-03     50.2130E-03
             892     10.5304E-03     89.6807E-03    -18.5041E+06    -55.5194E+06    -5.58028E+06    -12.9848E+06    -25.8086E-03     51.1714E-03    -25.3628E-03     53.8367E-03    -25.8569E-03     50.9731E-03    -25.2833E-03     53.5927E-03
             893     11.4079E-03     89.7327E-03    -16.4377E+06    -50.9673E+06    -7.84219E+06    -12.6036E+06    -25.8800E-03     51.2076E-03    -25.3276E-03     56.7930E-03    -25.9371E-03     51.0482E-03    -25.2690E-03     56.5401E-03
             894     12.2860E-03     89.7872E-03    -14.6082E+06    -37.1509E+06    -6.43564E+06    -11.1823E+06    -25.9497E-03     51.2494E-03    -25.2997E-03     60.0106E-03    -26.0422E-03     51.1768E-03    -25.2568E-03     59.7612E-03
             895     13.1635E-03     89.8453E-03    -13.2570E+06    -25.0943E+06    -9.19232E+06    -9.67243E+06    -26.0995E-03     51.3575E-03    -25.2580E-03     64.0896E-03    -26.2350E-03     51.3835E-03    -25.2483E-03     63.8425E-03
             896     14.0412E-03     89.9079E-03    -11.9314E+06     21.9513E+06    -2.10199E+06    -6.61144E+06    -26.0570E-03     51.2728E-03    -25.2158E-03     68.0396E-03    -26.3065E-03     51.5640E-03    -25.2408E-03     67.8242E-03
             897     14.9181E-03     89.9734E-03    -7.96110E+06     85.2092E+06     17.8962E+06    -2.57275E+06    -25.4505E-03     50.6498E-03    -25.1993E-03     64.0978E-03    -25.8147E-03     51.2363E-03    -25.2218E-03     63.9497E-03
             898     15.7986E-03     90.0284E-03    -4.82300E+06     111.485E+06     38.7636E+06    -1.62990E+06    -25.4328E-03     50.6736E-03    -25.2408E-03     57.0512E-03    -25.8502E-03     51.3573E-03    -25.2016E-03     56.9392E-03
             899     16.6741E-03     90.0822E-03    -3.59876E+06     114.885E+06     58.8131E+06    -913.961E+03    -25.2048E-03     50.5317E-03    -25.3270E-03     37.7460E-03    -25.5875E-03     51.1390E-03    -25.1943E-03     37.6724E-03
             900     877.392E-06     90.3602E-03     -47.526E+06    -102.592E+06    -46.5260E+06    -1.85928E+06    -25.4397E-03     50.8972E-03    -25.4575E-03     5.35747E-03    -25.4612E-03     50.5208E-03    -25.4725E-03     5.33044E-03
             901     1.75474E-03     90.3674E-03    -46.0066E+06    -99.8923E+06    -42.9480E+06    -3.64510E+06    -25.4402E-03     50.8943E-03    -25.4540E-03     9.97375E-03    -25.4636E-03     50.5243E-03    -25.4572E-03     9.92091E-03
             902     2.63215E-03     90.3789E-03    -43.9176E+06    -95.6349E+06    -37.8069E+06    -5.44426E+06    -25.4336E-03     50.8918E-03    -25.4582E-03     14.7822E-03    -25.4608E-03     50.5332E-03    -25.4449E-03     14.7030E-03
             903     3.50960E-03     90.3951E-03    -41.2702E+06    -90.2198E+06    -31.8227E+06    -7.04365E+06    -25.4221E-03     50.8819E-03    -25.4598E-03     19.5984E-03    -25.4535E-03     50.5388E-03    -25.4283E-03     19.4949E-03
             904     4.38708E-03     90.4156E-03    -38.2588E+06    -85.1304E+06    -25.7790E+06    -8.51219E+06    -25.4177E-03     50.8752E-03    -25.4575E-03     24.3706E-03    -25.4515E-03     50.5458E-03    -25.4075E-03     24.2439E-03
             905     5.26463E-03     90.4408E-03    -35.1339E+06    -80.0298E+06    -20.4307E+06    -9.63325E+06    -25.4268E-03     50.8760E-03    -25.4492E-03     29.0781E-03    -25.4622E-03     50.5617E-03    -25.3843E-03     28.9320E-03
             906     6.14221E-03     90.4701E-03    -31.9469E+06    -74.5571E+06    -15.9013E+06    -10.7328E+06    -25.4388E-03     50.8731E-03    -25.4343E-03     33.6857E-03    -25.4753E-03     50.5777E-03    -25.3594E-03     33.5196E-03
             907     7.01986E-03     90.5038E-03    -28.6553E+06    -69.0577E+06    -11.7702E+06    -11.8270E+06    -25.4628E-03     50.8788E-03    -25.4160E-03     38.1865E-03    -25.5005E-03     50.6037E-03    -25.3331E-03     37.9994E-03
             908     7.89759E-03     90.5415E-03    -25.4975E+06    -63.6439E+06    -8.19955E+06    -12.5980E+06    -25.5190E-03     50.9147E-03    -25.3957E-03     42.5317E-03    -25.5589E-03     50.6620E-03    -25.3075E-03     42.3264E-03
             909     8.77525E-03     90.5834E-03    -22.8702E+06    -60.8809E+06    -6.12098E+06    -13.1988E+06    -25.6012E-03     50.9767E-03    -25.3755E-03     46.6495E-03    -25.6417E-03     50.7376E-03    -25.2846E-03     46.4268E-03
             910     9.65303E-03     90.6287E-03    -20.8088E+06    -56.4115E+06    -5.53684E+06    -13.6410E+06    -25.6838E-03     51.0330E-03    -25.3492E-03     50.5230E-03    -25.7303E-03     50.8215E-03    -25.2650E-03     50.2836E-03
             911     10.5307E-03     90.6779E-03    -18.8816E+06    -53.9692E+06    -5.62079E+06    -14.1981E+06    -25.7881E-03     51.1144E-03    -25.3264E-03     53.9728E-03    -25.8404E-03     50.9244E-03    -25.2488E-03     53.7134E-03
             912     11.4085E-03     90.7297E-03    -16.9224E+06    -50.8590E+06    -8.41142E+06    -13.9584E+06    -25.9054E-03     51.1989E-03    -25.2935E-03     56.8919E-03    -25.9644E-03     51.0417E-03    -25.2373E-03     56.6215E-03
             913     12.2859E-03     90.7843E-03    -14.8148E+06    -38.2854E+06    -7.34403E+06    -12.8803E+06    -26.0051E-03     51.2753E-03    -25.2702E-03     60.1816E-03    -26.0957E-03     51.1987E-03    -25.2299E-03     59.9101E-03
             914     13.1636E-03     90.8427E-03    -12.9345E+06    -26.4550E+06    -9.79856E+06    -10.8863E+06    -26.0881E-03     51.3204E-03    -25.2324E-03     64.2885E-03    -26.2192E-03     51.3401E-03    -25.2242E-03     64.0260E-03
             915     14.0412E-03     90.9049E-03    -11.0645E+06     18.3887E+06    -2.84109E+06    -8.02695E+06    -25.9320E-03     51.1203E-03    -25.1883E-03     68.3389E-03    -26.1702E-03     51.3927E-03    -25.2131E-03     68.1067E-03
             916     14.9199E-03     90.9708E-03    -8.83392E+06     81.6180E+06     16.0989E+06    -5.31602E+06    -25.8221E-03     50.9985E-03    -25.1764E-03     64.5585E-03    -26.1845E-03     51.5726E-03    -25.2014E-03     64.3726E-03
             917     15.7953E-03     91.0253E-03    -6.41811E+06     109.325E+06     34.8076E+06    -1.67819E+06    -25.3263E-03     50.5406E-03    -25.2143E-03     57.3171E-03    -25.7432E-03     51.2219E-03    -25.1895E-03     57.2052E-03
             918     16.6755E-03     91.0797E-03    -3.55460E+06     113.912E+06     56.4864E+06     44.8523E+03    -24.8561E-03     50.1490E-03    -25.2929E-03     37.5907E-03    -25.2311E-03     50.7520E-03    -25.1705E-03     37.5332E-03
             919     877.365E-06     91.3578E-03    -46.5895E+06    -98.4794E+06    -45.8699E+06    -2.07839E+06    -25.4112E-03     50.8249E-03    -25.4136E-03     5.39024E-03    -25.4350E-03     50.4667E-03    -25.4326E-03     5.36041E-03
             920     1.75481E-03     91.3647E-03    -45.1241E+06    -95.5372E+06    -42.1218E+06    -4.02946E+06    -25.3990E-03     50.8156E-03    -25.4165E-03     9.96922E-03    -25.4255E-03     50.4649E-03    -25.4232E-03     9.91147E-03
             921     2.63225E-03     91.3764E-03    -42.9261E+06    -91.5348E+06    -36.7351E+06    -5.81913E+06    -25.3850E-03     50.8046E-03    -25.4196E-03     14.7890E-03    -25.4147E-03     50.4635E-03    -25.4083E-03     14.7050E-03
             922     3.50973E-03     91.3923E-03    -40.3063E+06    -86.2958E+06    -30.9106E+06    -7.59620E+06    -25.3739E-03     50.7922E-03    -25.4182E-03     19.6019E-03    -25.4075E-03     50.4659E-03    -25.3892E-03     19.4914E-03
             923     4.38727E-03     91.4130E-03    -37.4330E+06    -81.5888E+06    -25.1320E+06    -9.11201E+06    -25.3647E-03     50.7782E-03    -25.4135E-03     24.3956E-03    -25.4005E-03     50.4643E-03    -25.3666E-03     24.2613E-03
             924     5.26484E-03     91.4379E-03    -34.3200E+06    -76.8526E+06    -19.8186E+06    -10.4944E+06    -25.3671E-03     50.7702E-03    -25.4032E-03     29.1222E-03    -25.4038E-03     50.4697E-03    -25.3410E-03     28.9651E-03
             925     6.14249E-03     91.4673E-03    -31.1324E+06    -71.4352E+06    -15.2546E+06    -11.7076E+06    -25.3839E-03     50.7705E-03    -25.3866E-03     33.7337E-03    -25.4218E-03     50.4886E-03    -25.3142E-03     33.5552E-03
             926     7.02020E-03     91.5008E-03    -28.1625E+06    -66.0709E+06    -11.2693E+06    -12.9151E+06    -25.4182E-03     50.7859E-03    -25.3677E-03     38.2449E-03    -25.4584E-03     50.5243E-03    -25.2874E-03     38.0439E-03
             927     7.89789E-03     91.5387E-03    -25.2313E+06    -61.3702E+06    -7.99928E+06    -13.8222E+06    -25.4707E-03     50.8182E-03    -25.3474E-03     42.6219E-03    -25.5128E-03     50.5760E-03    -25.2619E-03     42.4011E-03
             928     8.77569E-03     91.5803E-03    -22.4168E+06    -59.0380E+06    -5.83999E+06    -14.0641E+06    -25.5529E-03     50.8805E-03    -25.3276E-03     46.7689E-03    -25.5941E-03     50.6495E-03    -25.2387E-03     46.5354E-03
             929     9.65338E-03     91.6259E-03    -19.9197E+06     -54.391E+06    -5.07342E+06    -14.4337E+06    -25.6479E-03     50.9493E-03    -25.3014E-03     50.6841E-03    -25.6935E-03     50.7458E-03    -25.2190E-03     50.4348E-03
             930     10.5312E-03     91.6748E-03    -17.9406E+06    -52.0180E+06    -5.14952E+06    -14.9619E+06    -25.7592E-03     51.0384E-03    -25.2792E-03     54.1663E-03    -25.8102E-03     50.8560E-03    -25.2036E-03     53.8974E-03
             931     11.4088E-03     91.7269E-03    -16.3055E+06    -50.2641E+06    -8.31242E+06    -15.1900E+06    -25.8922E-03     51.1404E-03    -25.2482E-03     57.1930E-03    -25.9490E-03     50.9850E-03    -25.1932E-03     56.9070E-03
             932     12.2866E-03     91.7815E-03    -14.6752E+06    -38.8569E+06    -7.82950E+06    -14.4288E+06    -25.9750E-03     51.2001E-03    -25.2251E-03     60.6258E-03    -26.0635E-03     51.1212E-03    -25.1866E-03     60.3349E-03
             933     13.1643E-03     91.8398E-03    -12.7746E+06    -28.4260E+06    -10.4574E+06    -12.6812E+06    -26.0656E-03     51.2540E-03    -25.1884E-03     64.6693E-03    -26.1919E-03     51.2643E-03    -25.1810E-03     64.3843E-03
             934     14.0421E-03     91.9020E-03    -10.4849E+06     15.2999E+06    -3.44941E+06    -10.0378E+06    -26.0683E-03     51.2192E-03    -25.1510E-03     68.3606E-03    -26.2987E-03     51.4768E-03    -25.1752E-03     68.1017E-03
             935     14.9195E-03     91.9675E-03    -8.77218E+06     77.5628E+06     15.4989E+06    -5.61943E+06    -25.7155E-03     50.8591E-03    -25.1437E-03     65.1096E-03    -26.0712E-03     51.4141E-03    -25.1659E-03     64.9208E-03
             936     15.7982E-03     92.0253E-03    -6.66864E+06     106.587E+06     33.2778E+06    -2.04240E+06    -25.4655E-03     50.6426E-03    -25.1771E-03     57.5701E-03    -25.8772E-03     51.3125E-03    -25.1556E-03     57.4526E-03
             937     16.6755E-03     92.0726E-03    -3.46065E+06     113.213E+06     54.6925E+06    -786.795E+03    -25.2039E-03     50.4690E-03    -25.2650E-03     37.9944E-03    -25.5765E-03     51.0726E-03    -25.1507E-03     37.9226E-03
             938     877.471E-06     92.3550E-03    -45.2261E+06    -93.8864E+06    -44.3711E+06    -2.29529E+06    -25.3699E-03     50.7260E-03    -25.3560E-03     5.39131E-03    -25.3957E-03     50.3866E-03    -25.3762E-03     5.35873E-03
             939     1.75487E-03     92.3621E-03    -43.9670E+06    -90.9580E+06    -40.9212E+06    -4.26408E+06    -25.3439E-03     50.7092E-03    -25.3654E-03     9.97426E-03    -25.3729E-03     50.3780E-03    -25.3743E-03     9.91354E-03
             940     2.63237E-03     92.3735E-03    -41.8668E+06    -87.0417E+06    -35.8565E+06    -6.34913E+06    -25.3230E-03     50.6877E-03    -25.3647E-03     14.8110E-03    -25.3552E-03     50.3662E-03    -25.3571E-03     14.7202E-03
             941     3.50991E-03     92.3897E-03    -39.1349E+06    -82.1653E+06    -29.8839E+06    -8.14789E+06    -25.3035E-03     50.6648E-03    -25.3613E-03     19.6294E-03    -25.3387E-03     50.3560E-03    -25.3348E-03     19.5119E-03
             942     4.38750E-03     92.4100E-03    -36.2025E+06    -77.8814E+06    -23.9758E+06    -9.68712E+06    -25.2963E-03     50.6512E-03    -25.3548E-03     24.4287E-03    -25.3330E-03     50.3523E-03    -25.3093E-03     24.2872E-03
             943     5.26516E-03     92.4351E-03    -33.2356E+06    -73.1142E+06    -18.7744E+06    -11.2217E+06    -25.2981E-03     50.6404E-03    -25.3423E-03     29.1664E-03    -25.3362E-03     50.3554E-03    -25.2820E-03     29.0002E-03
             944     6.14287E-03     92.4642E-03    -30.2660E+06    -68.2363E+06    -14.4713E+06    -12.6055E+06    -25.3193E-03     50.6439E-03    -25.3245E-03     33.8041E-03    -25.3586E-03     50.3754E-03    -25.2541E-03     33.6143E-03
             945     7.02057E-03     92.4979E-03    -27.4049E+06    -62.9338E+06    -10.6946E+06    -13.6234E+06    -25.3542E-03     50.6586E-03    -25.3043E-03     38.3520E-03    -25.3960E-03     50.4106E-03    -25.2268E-03     38.1423E-03
             946     7.89839E-03     92.5355E-03    -25.0258E+06    -58.7963E+06    -7.69586E+06    -14.5454E+06    -25.3999E-03     50.6835E-03    -25.2835E-03     42.7705E-03    -25.4451E-03     50.4533E-03    -25.2005E-03     42.5408E-03
             947     8.77617E-03     92.5774E-03    -22.4521E+06    -57.0516E+06    -5.91921E+06    -15.3527E+06    -25.4774E-03     50.7391E-03    -25.2617E-03     46.9825E-03    -25.5214E-03     50.5181E-03    -25.1760E-03     46.7329E-03
             948     9.65405E-03     92.6227E-03    -19.5881E+06    -52.3926E+06    -4.92267E+06    -15.7815E+06    -25.5820E-03     50.8170E-03    -25.2351E-03     50.9560E-03    -25.6289E-03     50.6227E-03    -25.1553E-03     50.6898E-03
             949     10.5318E-03     92.6719E-03    -17.0008E+06    -50.2947E+06    -4.51326E+06    -16.0113E+06    -25.7086E-03     50.9233E-03    -25.2146E-03     54.4964E-03    -25.7583E-03     50.7471E-03    -25.1396E-03     54.2145E-03
             950     11.4096E-03     92.7239E-03    -15.2413E+06    -49.1420E+06    -7.23969E+06    -15.9621E+06    -25.8246E-03     51.0106E-03    -25.1860E-03     57.5269E-03    -25.8792E-03     50.8576E-03    -25.1289E-03     57.2316E-03
             951     12.2874E-03     92.7786E-03    -14.0592E+06    -39.0068E+06    -7.28802E+06    -15.4680E+06    -25.9313E-03     51.0939E-03    -25.1625E-03     60.8865E-03    -26.0172E-03     51.0124E-03    -25.1220E-03     60.5827E-03
             952     13.1651E-03     92.8369E-03    -12.5604E+06    -29.1195E+06    -10.1045E+06    -14.6945E+06    -26.1446E-03     51.2756E-03    -25.1310E-03     64.8957E-03    -26.2694E-03     51.2818E-03    -25.1211E-03     64.5846E-03
             953     14.0425E-03     92.8992E-03    -10.8051E+06     11.4300E+06    -3.79145E+06    -11.9738E+06    -26.2198E-03     51.3253E-03    -25.1055E-03     68.8729E-03    -26.4470E-03     51.5657E-03    -25.1254E-03     68.5881E-03
             954     14.9199E-03     92.9655E-03    -7.88431E+06     71.3967E+06     14.2458E+06    -6.82540E+06    -25.8093E-03     50.9138E-03    -25.1044E-03     64.9933E-03    -26.1496E-03     51.4382E-03    -25.1253E-03     64.7888E-03
             955     15.7989E-03     93.0196E-03    -5.25064E+06     104.057E+06     32.8139E+06    -2.44620E+06    -25.5477E-03     50.6901E-03    -25.1424E-03     57.3995E-03    -25.9477E-03     51.3457E-03    -25.1216E-03     57.2764E-03
             956     16.6746E-03     93.0757E-03    -3.34430E+06     112.775E+06     53.9434E+06    -652.545E+03    -25.3112E-03     50.5452E-03    -25.2341E-03     38.2556E-03    -25.6819E-03     51.1480E-03    -25.1230E-03     38.1845E-03
             957     877.439E-06     93.3523E-03    -43.6796E+06    -88.9802E+06    -42.8850E+06    -2.50337E+06    -25.2828E-03     50.5795E-03    -25.2967E-03     5.38865E-03    -25.3101E-03     50.2604E-03    -25.3188E-03     5.35343E-03
             958     1.75503E-03     93.3592E-03    -41.9621E+06    -85.9013E+06    -39.1873E+06    -4.69717E+06    -25.2678E-03     50.5591E-03    -25.2914E-03     10.0032E-03    -25.2967E-03     50.2477E-03    -25.3019E-03     9.93696E-03
             959     2.63256E-03     93.3708E-03    -39.7146E+06    -82.1666E+06    -34.0513E+06    -6.93445E+06    -25.2445E-03     50.5338E-03    -25.2892E-03     14.8388E-03    -25.2757E-03     50.2310E-03    -25.2828E-03     14.7406E-03
             960     3.51018E-03     93.3867E-03    -37.1360E+06    -78.0334E+06    -28.2490E+06    -8.72423E+06    -25.2219E-03     50.5063E-03    -25.2844E-03     19.6745E-03    -25.2554E-03     50.2129E-03    -25.2586E-03     19.5497E-03
             961     4.38785E-03     93.4072E-03    -34.2905E+06    -73.8569E+06    -22.4157E+06    -10.2760E+06    -25.2135E-03     50.4897E-03    -25.2762E-03     24.4859E-03    -25.2487E-03     50.2060E-03    -25.2315E-03     24.3370E-03
             962     5.26556E-03     93.4319E-03    -31.4180E+06    -69.3407E+06    -17.3656E+06    -11.7236E+06    -25.2124E-03     50.4744E-03    -25.2620E-03     29.2469E-03    -25.2489E-03     50.2036E-03    -25.2027E-03     29.0745E-03
             963     6.14332E-03     93.4613E-03    -28.7580E+06    -64.5972E+06    -13.2432E+06    -13.1446E+06    -25.2228E-03     50.4647E-03    -25.2419E-03     33.9385E-03    -25.2615E-03     50.2104E-03    -25.1728E-03     33.7422E-03
             964     7.02118E-03     93.4947E-03    -26.1603E+06    -60.0917E+06    -9.79449E+06    -14.2699E+06    -25.2529E-03     50.4719E-03    -25.2190E-03     38.5320E-03    -25.2937E-03     50.2349E-03    -25.1429E-03     38.3145E-03
             965     7.89903E-03     93.5325E-03    -23.5169E+06    -55.9894E+06    -6.69013E+06    -14.9636E+06    -25.3027E-03     50.4987E-03    -25.1960E-03     42.9919E-03    -25.3457E-03     50.2789E-03    -25.1142E-03     42.7574E-03
             966     8.77696E-03     93.5740E-03    -21.4481E+06    -54.1348E+06    -4.93907E+06    -16.0504E+06    -25.3792E-03     50.5521E-03    -25.1729E-03     47.2654E-03    -25.4237E-03     50.3426E-03    -25.0880E-03     47.0075E-03
             967     9.65483E-03     93.6197E-03    -19.6525E+06    -50.4725E+06    -4.68943E+06    -16.9140E+06    -25.4807E-03     50.6246E-03    -25.1439E-03     51.3220E-03    -25.5309E-03     50.4394E-03    -25.0657E-03     51.0420E-03
             968     10.5328E-03     93.6687E-03    -17.8448E+06    -48.5960E+06    -4.48925E+06    -17.1349E+06    -25.6223E-03     50.7454E-03    -25.1231E-03     54.9075E-03    -25.6785E-03     50.5787E-03    -25.0492E-03     54.6120E-03
             969     11.4106E-03     93.7208E-03    -16.0003E+06    -48.0993E+06    -6.93136E+06    -17.0549E+06    -25.7958E-03     50.8945E-03    -25.0988E-03     57.9238E-03    -25.8560E-03     50.7473E-03    -25.0405E-03     57.6150E-03
             970     12.2883E-03     93.7755E-03    -13.7235E+06    -37.9727E+06    -6.73719E+06    -17.0988E+06    -25.9758E-03     51.0569E-03    -25.0811E-03     61.3179E-03    -26.0622E-03     50.9793E-03    -25.0398E-03     60.9935E-03
             971     13.1660E-03     93.8340E-03    -11.8424E+06    -30.0283E+06    -9.74148E+06    -16.1665E+06    -26.1948E-03     51.2533E-03    -25.0585E-03     65.4080E-03    -26.3155E-03     51.2536E-03    -25.0465E-03     65.0782E-03
             972     14.0435E-03     93.8967E-03    -10.4962E+06     8.03869E+06    -3.74722E+06    -13.1168E+06    -26.2841E-03     51.3266E-03    -25.0425E-03     69.2240E-03    -26.5047E-03     51.5494E-03    -25.0577E-03     68.9248E-03
             973     14.9220E-03     93.9622E-03    -9.33067E+06     65.7887E+06     12.7232E+06    -8.56872E+06    -26.2083E-03     51.2639E-03    -25.0557E-03     65.5277E-03    -26.5468E-03     51.7659E-03    -25.0739E-03     65.2981E-03
             974     15.7967E-03     94.0193E-03    -6.55256E+06     99.6800E+06     29.0712E+06    -3.61815E+06    -25.7818E-03     50.8820E-03    -25.1001E-03     57.8563E-03    -26.1782E-03     51.5246E-03    -25.0898E-03     57.7164E-03
             975     16.6782E-03     94.0689E-03    -2.98455E+06     111.742E+06     51.1927E+06    -560.162E+03    -25.2469E-03     50.4422E-03    -25.1953E-03     38.0739E-03    -25.6099E-03     51.0429E-03    -25.0970E-03     38.0052E-03
             976     877.642E-06     94.3493E-03    -39.3532E+06    -83.5723E+06    -38.9755E+06    -2.78003E+06    -25.1893E-03     50.3868E-03    -25.1975E-03     5.42388E-03    -25.2084E-03     50.0827E-03    -25.2142E-03     5.38509E-03
             977     1.75516E-03     94.3563E-03    -38.5197E+06    -80.3976E+06    -36.4315E+06    -5.15741E+06    -25.1710E-03     50.3602E-03    -25.1892E-03     10.0269E-03    -25.1947E-03     50.0674E-03    -25.1989E-03     9.95489E-03
             978     2.63285E-03     94.3677E-03    -36.9554E+06    -77.1338E+06    -31.9025E+06    -7.33567E+06    -25.1411E-03     50.3264E-03    -25.1853E-03     14.8759E-03    -25.1688E-03     50.0416E-03    -25.1794E-03     14.7728E-03
             979     3.51052E-03     94.3837E-03    -34.7622E+06    -73.6826E+06    -26.4865E+06     -9.1728E+06    -25.1176E-03     50.2966E-03    -25.1790E-03     19.7382E-03    -25.1481E-03     50.0189E-03    -25.1542E-03     19.6079E-03
             980     4.38829E-03     94.4040E-03    -32.2156E+06    -69.7036E+06    -21.0533E+06    -10.7732E+06    -25.0957E-03     50.2633E-03    -25.1676E-03     24.5888E-03    -25.1284E-03     49.9953E-03    -25.1251E-03     24.4339E-03
             981     5.26611E-03     94.4288E-03    -29.4903E+06    -65.5513E+06    -15.9914E+06    -12.2369E+06    -25.0840E-03     50.2348E-03    -25.1508E-03     29.3944E-03    -25.1183E-03     49.9780E-03    -25.0929E-03     29.2159E-03
             982     6.14403E-03     94.4579E-03    -26.8206E+06    -60.9808E+06    -11.7534E+06    -13.4615E+06    -25.0869E-03     50.2146E-03    -25.1277E-03     34.1348E-03    -25.1232E-03     49.9733E-03    -25.0591E-03     33.9349E-03
             983     7.02196E-03     94.4915E-03    -24.5009E+06    -56.9196E+06    -8.42525E+06    -14.6204E+06    -25.1123E-03     50.2136E-03    -25.1013E-03     38.7845E-03    -25.1513E-03     49.9879E-03    -25.0254E-03     38.5631E-03
             984     7.89998E-03     94.5290E-03    -22.2722E+06    -53.3621E+06    -5.70995E+06    -15.5798E+06    -25.1629E-03     50.2373E-03    -25.0745E-03     43.3128E-03    -25.2046E-03     50.0271E-03    -24.9933E-03     43.0713E-03
             985     8.77798E-03     94.5707E-03    -19.9638E+06    -51.0161E+06    -3.53409E+06    -16.3096E+06    -25.2512E-03     50.3014E-03    -25.0501E-03     47.6545E-03    -25.2946E-03     50.1030E-03    -24.9649E-03     47.3942E-03
             986     9.65606E-03     94.6161E-03    -18.2244E+06    -48.1301E+06    -3.21346E+06    -17.1017E+06    -25.3703E-03     50.3923E-03    -25.0220E-03     51.7614E-03    -25.4186E-03     50.2144E-03    -24.9418E-03     51.4800E-03
             987     10.5340E-03     94.6654E-03    -16.7960E+06    -46.7068E+06    -3.41671E+06    -17.6183E+06    -25.5447E-03     50.5463E-03    -25.0016E-03     55.4323E-03    -25.5996E-03     50.3857E-03    -24.9266E-03     55.1316E-03
             988     11.4119E-03     94.7175E-03    -15.1814E+06    -46.1085E+06    -5.84436E+06    -18.3635E+06    -25.7688E-03     50.7504E-03    -24.9817E-03     58.5071E-03    -25.8292E-03     50.6103E-03    -24.9220E-03     58.1823E-03
             989     12.2897E-03     94.7725E-03    -13.7553E+06    -36.7122E+06    -6.24526E+06    -18.6463E+06    -25.9942E-03     50.9643E-03    -24.9701E-03     62.0370E-03    -26.0833E-03     50.8924E-03    -24.9282E-03     61.6933E-03
             990     13.1672E-03     94.8312E-03    -12.6110E+06    -31.4991E+06    -9.87525E+06    -17.3887E+06    -26.3150E-03     51.2751E-03    -24.9601E-03     66.0546E-03    -26.4373E-03     51.2695E-03    -24.9455E-03     65.7092E-03
             991     14.0450E-03     94.8936E-03    -11.3142E+06     4.79235E+06    -4.73100E+06    -14.3873E+06    -26.4869E-03     51.4445E-03    -24.9576E-03     69.8143E-03    -26.7060E-03     51.6542E-03    -24.9718E-03     69.4981E-03
             992     14.9210E-03     94.9605E-03    -9.23550E+06     60.7702E+06     11.5425E+06    -9.71551E+06    -26.1903E-03     51.1704E-03    -24.9801E-03     66.2638E-03    -26.5199E-03     51.6494E-03    -24.9971E-03     66.0205E-03
             993     15.8015E-03     95.0158E-03    -6.78396E+06     94.3086E+06     26.1677E+06    -4.64709E+06    -26.0548E-03     51.0810E-03    -25.0262E-03     58.6554E-03    -26.4418E-03     51.7028E-03    -25.0223E-03     58.5011E-03
             994     16.6740E-03     95.0688E-03    -3.39584E+06     109.730E+06     47.5057E+06    -1.21377E+06    -25.5341E-03     50.6639E-03    -25.1297E-03     39.0719E-03    -25.8932E-03     51.2627E-03    -25.0464E-03     38.9922E-03
             995     877.647E-06     95.3462E-03    -35.8978E+06     -77.834E+06    -35.6286E+06    -2.83026E+06    -25.0643E-03     50.1168E-03    -25.0525E-03     5.43120E-03    -25.0794E-03     49.8316E-03    -25.0657E-03     5.39185E-03
             996     1.75545E-03     95.3531E-03    -35.4296E+06    -74.7644E+06    -33.5114E+06    -5.10814E+06    -25.0282E-03     50.0791E-03    -25.0509E-03     10.0597E-03    -25.0488E-03     49.8057E-03    -25.0587E-03     9.98846E-03
             997     2.63318E-03     95.3645E-03    -34.3036E+06    -71.9545E+06    -29.6780E+06    -7.40102E+06    -24.9972E-03     50.0399E-03    -25.0427E-03     14.9487E-03    -25.0224E-03     49.7739E-03    -25.0370E-03     14.8449E-03
             998     3.51103E-03     95.3803E-03    -32.5317E+06    -69.0647E+06    -24.6933E+06    -9.38398E+06    -24.9621E-03     49.9953E-03    -25.0332E-03     19.8528E-03    -24.9907E-03     49.7348E-03    -25.0094E-03     19.7201E-03
             999     4.38891E-03     95.4006E-03    -30.2385E+06    -65.3716E+06    -19.4554E+06    -11.1641E+06    -24.9293E-03     49.9471E-03    -25.0178E-03     24.7498E-03    -24.9606E-03     49.6954E-03    -24.9765E-03     24.5903E-03
            1000     5.26692E-03     95.4253E-03    -27.6161E+06    -61.5278E+06    -14.5145E+06    -12.7934E+06    -24.9102E-03     49.9070E-03    -24.9968E-03     29.6036E-03    -24.9430E-03     49.6654E-03    -24.9401E-03     29.4186E-03
            1001     6.14494E-03     95.4544E-03    -24.7788E+06    -57.5688E+06    -10.2146E+06    -14.0869E+06    -24.9067E-03     49.8770E-03    -24.9703E-03     34.3937E-03    -24.9398E-03     49.6474E-03    -24.9020E-03     34.1866E-03
            1002     7.02311E-03     95.4877E-03    -22.1406E+06    -53.8596E+06    -6.59920E+06    -14.8409E+06    -24.9229E-03     49.8637E-03    -24.9408E-03     39.1125E-03    -24.9569E-03     49.6471E-03    -24.8636E-03     38.8892E-03
            1003     7.90126E-03     95.5254E-03    -20.1047E+06    -50.3108E+06    -3.82964E+06    -15.7155E+06    -24.9741E-03     49.8843E-03    -24.9102E-03     43.7266E-03    -25.0119E-03     49.6833E-03    -24.8272E-03     43.4844E-03
            1004     8.77949E-03     95.5669E-03    -18.2729E+06    -48.2641E+06    -2.03438E+06    -16.7429E+06    -25.0808E-03     49.9631E-03    -24.8823E-03     48.1804E-03    -25.1216E-03     49.7736E-03    -24.7960E-03     47.9158E-03
            1005     9.65761E-03     95.6126E-03    -16.1297E+06    -45.5341E+06    -1.43191E+06    -17.4641E+06    -25.2394E-03     50.0946E-03    -24.8552E-03     52.3788E-03    -25.2832E-03     49.9237E-03    -24.7729E-03     52.0940E-03
            1006     10.5357E-03     95.6617E-03    -13.9446E+06    -44.3412E+06    -1.34168E+06    -18.2947E+06    -25.4416E-03     50.2794E-03    -24.8378E-03     56.1946E-03    -25.4884E-03     50.1231E-03    -24.7600E-03     55.8866E-03
            1007     11.4137E-03     95.7143E-03    -12.4795E+06    -43.7555E+06    -3.59538E+06    -18.8390E+06    -25.7291E-03     50.5529E-03    -24.8238E-03     59.3974E-03    -25.7825E-03     50.4171E-03    -24.7603E-03     59.0677E-03
            1008     12.2915E-03     95.7691E-03    -11.8897E+06    -35.7284E+06    -4.15705E+06    -18.7335E+06    -26.0012E-03     50.8239E-03    -24.8228E-03     62.8614E-03    -26.0855E-03     50.7512E-03    -24.7745E-03     62.5174E-03
            1009     13.1694E-03     95.8284E-03    -11.5482E+06    -31.9234E+06    -8.10532E+06    -17.9899E+06    -26.4126E-03     51.2381E-03    -24.8256E-03     67.2395E-03    -26.5318E-03     51.2266E-03    -24.8031E-03     66.8871E-03
            1010     14.0458E-03     95.8914E-03    -10.2361E+06     2.16631E+06    -3.87998E+06    -16.0348E+06    -26.6336E-03     51.4690E-03    -24.8354E-03     70.9449E-03    -26.8459E-03     51.6639E-03    -24.8431E-03     70.6077E-03
            1011     14.9250E-03     95.9574E-03    -8.16004E+06     54.1211E+06     12.2492E+06    -10.8276E+06    -26.4365E-03     51.3160E-03    -24.8795E-03     67.0798E-03    -26.7535E-03     51.7606E-03    -24.8849E-03     66.8215E-03
            1012     15.7993E-03     96.0141E-03    -6.47693E+06     88.9816E+06     23.8014E+06    -4.82799E+06    -26.2273E-03     51.1527E-03    -24.9255E-03     59.2923E-03    -26.6023E-03     51.7515E-03    -24.9261E-03     59.1357E-03
            1013     16.6813E-03     96.0664E-03    -3.13452E+06     107.803E+06     43.6901E+06    -2.12283E+06    -25.9144E-03     50.9496E-03    -25.0353E-03     38.6113E-03    -26.2632E-03     51.5433E-03    -24.9686E-03     38.5188E-03
            1014     877.899E-06     96.3427E-03    -34.0607E+06    -71.9440E+06    -33.5099E+06    -3.03867E+06    -24.8518E-03     49.7254E-03    -24.8736E-03     5.46725E-03    -24.8693E-03     49.4638E-03    -24.8874E-03     5.42535E-03
            1015     1.75574E-03     96.3497E-03    -32.6996E+06    -69.1734E+06    -30.3604E+06    -5.29703E+06    -24.8338E-03     49.6938E-03    -24.8601E-03     10.1384E-03    -24.8534E-03     49.4398E-03    -24.8642E-03     10.0650E-03
            1016     2.63372E-03     96.3610E-03    -30.9494E+06    -66.7534E+06    -26.0419E+06    -7.39187E+06    -24.7968E-03     49.6489E-03    -24.8521E-03     15.0468E-03    -24.8180E-03     49.3987E-03    -24.8406E-03     14.9436E-03
            1017     3.51170E-03     96.3767E-03    -29.0382E+06    -64.2523E+06    -21.3395E+06    -9.41795E+06    -24.7504E-03     49.5882E-03    -24.8378E-03     19.9956E-03    -24.7733E-03     49.3418E-03    -24.8093E-03     19.8630E-03
            1018     4.38983E-03     96.3969E-03    -26.9930E+06    -60.8264E+06    -16.7517E+06    -11.3007E+06    -24.7087E-03     49.5240E-03    -24.8152E-03     24.9526E-03    -24.7343E-03     49.2863E-03    -24.7717E-03     24.7920E-03
            1019     5.26797E-03     96.4216E-03    -24.9521E+06    -57.3102E+06    -12.4855E+06    -13.0017E+06    -24.6781E-03     49.4653E-03    -24.7872E-03     29.8855E-03    -24.7065E-03     49.2378E-03    -24.7303E-03     29.6986E-03
            1020     6.14626E-03     96.4505E-03    -23.0146E+06    -53.9984E+06    -8.71180E+06    -14.3790E+06    -24.6628E-03     49.4180E-03    -24.7552E-03     34.7587E-03    -24.6942E-03     49.2013E-03    -24.6871E-03     34.5489E-03
            1021     7.02457E-03     96.4838E-03    -20.9737E+06    -51.2276E+06    -5.45399E+06    -15.1808E+06    -24.6730E-03     49.3941E-03    -24.7211E-03     39.5619E-03    -24.7063E-03     49.1870E-03    -24.6437E-03     39.3356E-03
            1022     7.90302E-03     96.5213E-03    -18.6569E+06    -46.9564E+06    -2.35612E+06    -15.9669E+06    -24.7265E-03     49.4128E-03    -24.6863E-03     44.2890E-03    -24.7637E-03     49.2238E-03    -24.6029E-03     44.0451E-03
            1023     8.78141E-03     96.5630E-03    -16.3503E+06    -45.2626E+06    -225.628E+03    -17.1248E+06    -24.8482E-03     49.5049E-03    -24.6567E-03     48.8661E-03    -24.8859E-03     49.3245E-03    -24.5685E-03     48.5983E-03
            1024     9.65984E-03     96.6085E-03    -14.4293E+06    -42.8855E+06     167.517E+03    -18.1243E+06    -25.0372E-03     49.6654E-03    -24.6283E-03     53.2304E-03    -25.0781E-03     49.5024E-03    -24.5443E-03     52.9390E-03
            1025     10.5381E-03     96.6580E-03    -12.9041E+06    -41.6417E+06     404.613E+03    -18.9532E+06    -25.2999E-03     49.9150E-03    -24.6150E-03     57.1534E-03    -25.3475E-03     49.7678E-03    -24.5339E-03     56.8386E-03
            1026     11.4163E-03     96.7105E-03    -11.6353E+06    -42.2325E+06     -1.8357E+06    -19.1672E+06    -25.6614E-03     50.2715E-03    -24.6102E-03     60.5272E-03    -25.7150E-03     50.1393E-03    -24.5412E-03     60.1950E-03
            1027     12.2941E-03     96.7662E-03    -10.4524E+06    -34.6032E+06    -1.74955E+06    -18.7480E+06    -26.0542E-03     50.6788E-03    -24.6246E-03     63.9497E-03    -26.1367E-03     50.6065E-03    -24.5680E-03     63.6063E-03
            1028     13.1716E-03     96.8248E-03    -9.36361E+06    -31.3735E+06    -5.00814E+06    -18.2578E+06    -26.4473E-03     51.0921E-03    -24.6448E-03     68.3145E-03    -26.5613E-03     51.0760E-03    -24.6108E-03     67.9596E-03
            1029     14.0498E-03     96.8893E-03    -8.83283E+06      531.43E+03    -1.26643E+06    -16.9054E+06    -26.8910E-03     51.5659E-03    -24.6750E-03     71.8717E-03    -27.0987E-03     51.7479E-03    -24.6692E-03     71.5225E-03
            1030     14.9250E-03     96.9547E-03    -7.09997E+06     46.1188E+06     13.2004E+06    -12.0373E+06    -26.9140E-03     51.6641E-03    -24.7501E-03     67.6223E-03    -27.2178E-03     52.0682E-03    -24.7407E-03     67.3454E-03
            1031     15.8047E-03     97.0126E-03    -3.96560E+06     83.8499E+06     23.6468E+06    -5.84716E+06    -26.7993E-03     51.6188E-03    -24.8195E-03     59.8478E-03    -27.1563E-03     52.1908E-03    -24.8171E-03     59.6741E-03
            1032     16.6768E-03     97.0636E-03    -2.91745E+06     106.679E+06     41.7392E+06    -2.38161E+06    -26.6307E-03     51.5869E-03    -24.9562E-03     38.7727E-03    -26.9756E-03     52.1791E-03    -24.8979E-03     38.6725E-03
            1033     878.073E-06     97.3389E-03    -30.3888E+06    -65.5918E+06    -29.8357E+06    -3.23650E+06    -24.5769E-03     49.2048E-03    -24.6278E-03     5.51741E-03    -24.5906E-03     48.9643E-03    -24.6379E-03     5.47312E-03
            1034     1.75624E-03     97.3458E-03    -29.5793E+06    -63.6716E+06    -27.1005E+06    -5.45615E+06    -24.5702E-03     49.1693E-03    -24.5991E-03     10.2322E-03    -24.5869E-03     48.9336E-03    -24.5994E-03     10.1570E-03
            1035     2.63437E-03     97.3570E-03    -28.1419E+06    -61.6495E+06    -23.1020E+06    -7.50294E+06    -24.5220E-03     49.1102E-03    -24.5882E-03     15.1908E-03    -24.5408E-03     48.8772E-03    -24.5735E-03     15.0865E-03
            1036     3.51266E-03     97.3726E-03    -26.2731E+06    -59.3603E+06    -18.7900E+06    -9.45536E+06    -24.4655E-03     49.0337E-03    -24.5682E-03     20.1962E-03    -24.4853E-03     48.8040E-03    -24.5380E-03     20.0638E-03
            1037     4.39097E-03     97.3927E-03    -24.3094E+06    -56.2677E+06    -14.5995E+06    -11.2899E+06    -24.4071E-03     48.9458E-03    -24.5387E-03     25.2319E-03    -24.4288E-03     48.7238E-03    -24.4949E-03     25.0723E-03
            1038     5.26947E-03     97.4172E-03    -22.3753E+06    -53.2078E+06    -10.4733E+06    -12.8124E+06    -24.3610E-03     48.8651E-03    -24.5040E-03     30.2490E-03    -24.3851E-03     48.6512E-03    -24.4468E-03     30.0657E-03
            1039     6.14799E-03     97.4461E-03    -20.7449E+06    -50.5388E+06    -6.79082E+06    -13.8848E+06    -24.3406E-03     48.8070E-03    -24.4663E-03     35.2220E-03    -24.3682E-03     48.6012E-03    -24.3969E-03     35.0199E-03
            1040     7.02667E-03     97.4793E-03    -19.2763E+06    -48.0672E+06    -3.75463E+06    -14.9871E+06    -24.3569E-03     48.7842E-03    -24.4273E-03     40.1400E-03    -24.3884E-03     48.5875E-03    -24.3484E-03     39.9177E-03
            1041     7.90532E-03     97.5167E-03    -17.5909E+06    -43.5982E+06    -1.00725E+06    -16.2768E+06    -24.4133E-03     48.8010E-03    -24.3877E-03     45.0126E-03    -24.4515E-03     48.6248E-03    -24.3040E-03     44.7666E-03
            1042     8.78407E-03     97.5584E-03    -15.6591E+06    -41.8807E+06     1.33508E+06    -17.5959E+06    -24.5491E-03     48.9065E-03    -24.3574E-03     49.7269E-03    -24.5899E-03     48.7392E-03    -24.2673E-03     49.4551E-03
            1043     9.66270E-03     97.6041E-03    -13.9820E+06    -40.6500E+06     1.71699E+06    -18.2286E+06    -24.7878E-03     49.1193E-03    -24.3315E-03     54.2227E-03    -24.8314E-03     48.9640E-03    -24.2437E-03     53.9322E-03
            1044     10.5413E-03     97.6537E-03    -12.9588E+06    -38.6497E+06     1.99054E+06    -18.8233E+06    -25.1376E-03     49.4615E-03    -24.3239E-03     58.2837E-03    -25.1916E-03     49.3265E-03    -24.2391E-03     57.9727E-03
            1045     11.4194E-03     97.7066E-03    -12.0720E+06    -40.7790E+06    -513.766E+03    -19.5150E+06    -25.5946E-03     49.9268E-03    -24.3321E-03     61.7691E-03    -25.6542E-03     49.8002E-03    -24.2580E-03     61.4341E-03
            1046     12.2975E-03     97.7625E-03    -10.7431E+06    -33.1984E+06    -530.866E+03    -19.5606E+06    -26.1234E-03     50.4871E-03    -24.3637E-03     65.2709E-03    -26.2112E-03     50.4204E-03    -24.3026E-03     64.9183E-03
            1047     13.1749E-03     97.8222E-03    -9.44466E+06    -30.6302E+06    -3.23013E+06    -19.0561E+06    -26.7063E-03     51.1198E-03    -24.4135E-03     69.3884E-03    -26.8253E-03     51.1060E-03    -24.3716E-03     69.0227E-03
            1048     14.0514E-03     97.8859E-03    -8.27805E+06    -1.41404E+06    -7.86475E+03    -17.0147E+06    -27.1557E-03     51.6284E-03    -24.4728E-03     73.2957E-03    -27.3612E-03     51.7996E-03    -24.4587E-03     72.9446E-03
            1049     14.9294E-03     97.9544E-03    -6.71936E+06     40.0956E+06     13.4665E+06    -13.3376E+06    -27.5371E-03     52.1213E-03    -24.5842E-03     68.8280E-03    -27.8331E-03     52.4967E-03    -24.5652E-03     68.5311E-03
            1050     15.8033E-03     98.0089E-03    -4.59845E+06     77.0787E+06     22.4631E+06    -7.01707E+06    -27.4976E-03     52.1906E-03    -24.6930E-03     60.6910E-03    -27.8491E-03     52.7342E-03    -24.6857E-03     60.4977E-03
            1051     16.6831E-03     98.0658E-03    -2.41681E+06     104.257E+06     38.9575E+06    -2.06181E+06    -27.1651E-03     52.0165E-03    -24.8514E-03     40.0306E-03    -27.5018E-03     52.6018E-03    -24.8043E-03     39.9317E-03
            1052     878.408E-06     98.3345E-03    -26.4283E+06    -59.3544E+06    -25.8272E+06    -2.98369E+06    -24.2467E-03     48.5214E-03    -24.2746E-03     5.58493E-03    -24.2554E-03     48.3005E-03    -24.2794E-03     5.54411E-03
            1053     1.75680E-03     98.3413E-03    -26.0187E+06    -58.2267E+06    -23.9238E+06    -5.10407E+06    -24.2121E-03     48.4637E-03    -24.2516E-03     10.3428E-03    -24.2234E-03     48.2454E-03    -24.2491E-03     10.2726E-03
            1054     2.63534E-03     98.3524E-03    -25.1386E+06    -56.5179E+06    -20.8902E+06    -7.27799E+06    -24.1516E-03     48.3822E-03    -24.2306E-03     15.3686E-03    -24.1660E-03     48.1672E-03    -24.2166E-03     15.2679E-03
            1055     3.51388E-03     98.3680E-03    -23.9676E+06    -54.5858E+06    -16.9951E+06    -9.24409E+06    -24.0819E-03     48.2856E-03    -24.2037E-03     20.4660E-03    -24.0995E-03     48.0736E-03    -24.1748E-03     20.3372E-03
            1056     4.39262E-03     98.3879E-03    -22.5713E+06      -51.81E+06    -12.8831E+06    -10.9852E+06    -24.0092E-03     48.1780E-03    -24.1688E-03     25.5873E-03    -24.0310E-03     47.9731E-03    -24.1254E-03     25.4328E-03
            1057     5.27138E-03     98.4123E-03    -21.2268E+06    -49.5349E+06    -9.03715E+06    -12.2758E+06    -23.9512E-03     48.0795E-03    -24.1283E-03     30.7057E-03    -23.9768E-03     47.8800E-03    -24.0709E-03     30.5306E-03
            1058     6.15035E-03     98.4410E-03    -19.7982E+06    -47.2484E+06    -5.47971E+06    -13.2752E+06    -23.9274E-03     48.0123E-03    -24.0848E-03     35.7906E-03    -23.9566E-03     47.8193E-03    -24.0150E-03     35.5980E-03
            1059     7.02932E-03     98.4741E-03    -18.0359E+06    -44.2518E+06    -2.11174E+06    -14.6533E+06    -23.9511E-03     47.9927E-03    -24.0416E-03     40.8483E-03    -23.9838E-03     47.8104E-03    -23.9618E-03     40.6324E-03
            1060     7.90840E-03     98.5115E-03    -16.2862E+06    -40.2244E+06     733.662E+03    -16.0361E+06    -24.0320E-03     48.0326E-03    -24.0006E-03     45.8601E-03    -24.0705E-03     47.8683E-03    -23.9150E-03     45.6194E-03
            1061     8.78744E-03     98.5532E-03    -15.1951E+06    -38.5174E+06     2.93089E+06    -17.0902E+06    -24.2124E-03     48.1844E-03    -23.9719E-03     50.7346E-03    -24.2574E-03     48.0302E-03    -23.8794E-03     50.4717E-03
            1062     9.66642E-03     98.5991E-03    -14.2310E+06    -38.2923E+06     3.17904E+06    -18.0469E+06    -24.5208E-03     48.4745E-03    -23.9537E-03     55.3971E-03    -24.5705E-03     48.3285E-03    -23.8616E-03     55.1113E-03
            1063     10.5451E-03     98.6490E-03    -12.9050E+06    -36.1238E+06     3.33888E+06    -18.5189E+06    -24.9624E-03     48.9181E-03    -23.9557E-03     59.6612E-03    -25.0211E-03     48.7930E-03    -23.8679E-03     59.3565E-03
            1064     11.4236E-03     98.7024E-03    -11.8558E+06    -37.9709E+06     1.57273E+06    -19.4577E+06    -25.5516E-03     49.5358E-03    -23.9842E-03     63.2642E-03    -25.6169E-03     49.4196E-03    -23.9041E-03     62.9319E-03
            1065     12.3013E-03     98.7589E-03    -11.2824E+06    -32.2413E+06     578.234E+03    -19.8587E+06    -26.1846E-03     50.2220E-03    -24.0374E-03     66.9349E-03    -26.2780E-03     50.1592E-03    -23.9714E-03     66.5802E-03
            1066     13.1787E-03     98.8192E-03    -10.7641E+06    -29.4343E+06    -1.61406E+06    -19.5693E+06    -26.9855E-03     51.1059E-03    -24.1205E-03     71.2376E-03    -27.1163E-03     51.0987E-03    -24.0702E-03     70.8656E-03
            1067     14.0559E-03     98.8839E-03    -9.22585E+06    -3.71503E+06     1.07431E+06    -18.3251E+06    -27.6532E-03     51.8744E-03    -24.2212E-03     74.8249E-03    -27.8639E-03     52.0361E-03    -24.1971E-03     74.4551E-03
            1068     14.9318E-03     98.9515E-03    -7.38387E+06     35.2782E+06     14.2839E+06    -13.6903E+06    -28.0516E-03     52.4280E-03    -24.3764E-03     70.6907E-03    -28.3472E-03     52.7812E-03    -24.3454E-03     70.3875E-03
            1069     15.8083E-03     99.0112E-03    -6.56963E+06     71.5043E+06     21.4128E+06    -7.69574E+06    -28.2046E-03     52.7266E-03    -24.5220E-03     61.8013E-03    -28.5581E-03     53.2486E-03    -24.5091E-03     61.5954E-03
            1070     16.6816E-03     99.0601E-03    -3.33388E+06     99.2165E+06     33.9708E+06     -3.2513E+06    -28.1169E-03     52.8268E-03    -24.7099E-03     40.9403E-03    -28.4460E-03     53.3978E-03    -24.6791E-03     40.8199E-03
            1071     878.761E-06     99.3293E-03    -22.6249E+06    -53.6778E+06    -22.1808E+06    -2.67731E+06    -23.7983E-03     47.6044E-03    -23.8062E-03     5.65447E-03    -23.8015E-03     47.4012E-03    -23.8064E-03     5.61786E-03
            1072     1.75763E-03     99.3361E-03    -22.0755E+06    -52.8930E+06    -20.5330E+06    -4.83702E+06    -23.7453E-03     47.5347E-03    -23.7894E-03     10.5069E-03    -23.7496E-03     47.3323E-03    -23.7833E-03     10.4405E-03
            1073     2.63650E-03     99.3471E-03    -21.2364E+06    -51.5884E+06    -17.7343E+06    -6.88952E+06    -23.6755E-03     47.4386E-03    -23.7631E-03     15.6100E-03    -23.6820E-03     47.2380E-03    -23.7462E-03     15.5150E-03
            1074     3.51558E-03     99.3625E-03    -20.2189E+06    -50.0259E+06    -13.9514E+06    -8.65310E+06    -23.5948E-03     47.3260E-03    -23.7312E-03     20.7867E-03    -23.6046E-03     47.1269E-03    -23.6991E-03     20.6665E-03
            1075     4.39466E-03     99.3822E-03    -19.2973E+06    -47.8651E+06    -9.99829E+06    -10.0202E+06    -23.5158E-03     47.2078E-03    -23.6920E-03     26.0007E-03    -23.5309E-03     47.0135E-03    -23.6446E-03     25.8599E-03
            1076     5.27398E-03     99.4064E-03    -18.6116E+06    -46.3060E+06    -6.43227E+06    -10.9448E+06    -23.4531E-03     47.1008E-03    -23.6477E-03     31.2243E-03    -23.4737E-03     46.9096E-03    -23.5857E-03     31.0680E-03
            1077     6.15330E-03     99.4351E-03    -18.0437E+06    -43.7484E+06    -3.64865E+06    -12.1088E+06    -23.4210E-03     47.0181E-03    -23.5971E-03     36.4576E-03    -23.4487E-03     46.8369E-03    -23.5257E-03     36.2821E-03
            1078     7.03280E-03     99.4680E-03    -17.6384E+06    -40.4043E+06    -1.08785E+06    -13.6028E+06    -23.4509E-03     46.9989E-03    -23.5481E-03     41.6843E-03    -23.4881E-03     46.8333E-03    -23.4694E-03     41.4842E-03
            1079     7.91227E-03     99.5055E-03    -17.3942E+06    -37.0194E+06     1.34416E+06    -14.8595E+06    -23.5748E-03     47.0832E-03    -23.5084E-03     46.8668E-03    -23.6236E-03     46.9349E-03    -23.4228E-03     46.6439E-03
            1080     8.79171E-03     99.5472E-03    -16.7922E+06    -35.3717E+06     3.46195E+06    -15.9215E+06    -23.8214E-03     47.3070E-03    -23.4856E-03     51.9472E-03    -23.8789E-03     47.1692E-03    -23.3926E-03     51.7022E-03
            1081     9.67095E-03     99.5934E-03    -15.8681E+06    -34.8376E+06     4.28269E+06    -17.4399E+06    -24.2156E-03     47.6961E-03    -23.4805E-03     56.8299E-03    -24.2793E-03     47.5673E-03    -23.3856E-03     56.5548E-03
            1082     10.5500E-03     99.6436E-03    -14.5729E+06    -34.0016E+06     4.15444E+06    -18.6934E+06    -24.7736E-03     48.2732E-03    -23.4996E-03     61.3386E-03    -24.8442E-03     48.1593E-03    -23.4084E-03     61.0344E-03
            1083     11.4284E-03     99.6978E-03    -13.4380E+06    -35.2992E+06     3.02959E+06    -18.9886E+06    -25.4792E-03     49.0318E-03    -23.5526E-03     65.1262E-03    -25.5579E-03     48.9286E-03    -23.4668E-03     64.8026E-03
            1084     12.3065E-03     99.7548E-03    -12.7011E+06    -30.3973E+06     2.35903E+06    -19.6188E+06    -26.2802E-03     49.9172E-03    -23.6370E-03     68.8553E-03    -26.3862E-03     49.8633E-03    -23.5627E-03     68.5053E-03
            1085     13.1840E-03     99.8160E-03    -11.4964E+06    -28.4285E+06     346.383E+03    -20.0119E+06    -27.3096E-03     51.0680E-03    -23.7584E-03     73.2676E-03    -27.4495E-03     51.0652E-03    -23.6988E-03     72.8900E-03
            1086     14.0600E-03     99.8820E-03    -10.7408E+06    -4.43057E+06     3.71145E+06    -19.0448E+06    -28.3421E-03     52.2590E-03    -23.9169E-03     76.7186E-03    -28.5667E-03     52.4190E-03    -23.8763E-03     76.3362E-03
            1087     14.9357E-03     99.9508E-03    -9.07408E+06     28.6589E+06     15.4578E+06    -14.6497E+06    -28.6894E-03     52.8176E-03    -24.1282E-03     72.1509E-03    -28.9883E-03     53.1413E-03    -24.0793E-03     71.8324E-03
            1088     15.8113E-03     100.009E-03    -5.03296E+06     65.8484E+06     21.8060E+06    -9.06829E+06    -29.0922E-03     53.4102E-03    -24.3180E-03     63.0520E-03    -29.4339E-03     53.9046E-03    -24.2971E-03     62.8224E-03
            1089     16.6867E-03     100.064E-03    -2.19525E+06     95.7368E+06     33.1547E+06    -4.48116E+06    -29.7053E-03     54.2759E-03    -24.5706E-03     42.0469E-03    -30.0271E-03     54.8337E-03    -24.5405E-03     41.9003E-03
            1090     879.344E-06     100.323E-03    -19.4411E+06    -48.3935E+06    -19.1297E+06    -2.55740E+06    -23.2089E-03     46.4133E-03    -23.2044E-03     5.72837E-03    -23.2083E-03     46.2274E-03    -23.2017E-03     5.69361E-03
            1091     1.75866E-03     100.330E-03    -19.1750E+06    -47.8125E+06    -17.8357E+06    -4.57887E+06    -23.1404E-03     46.3307E-03    -23.1903E-03     10.6709E-03    -23.1414E-03     46.1456E-03    -23.1824E-03     10.6085E-03
            1092     2.63817E-03     100.341E-03    -18.9004E+06    -47.1538E+06    -15.6383E+06    -6.33044E+06    -23.0727E-03     46.2330E-03    -23.1603E-03     15.8758E-03    -23.0769E-03     46.0480E-03    -23.1427E-03     15.7889E-03
            1093     3.51763E-03     100.356E-03    -18.5638E+06    -46.0415E+06    -12.7345E+06    -7.71936E+06    -22.9851E-03     46.1092E-03    -23.1241E-03     21.1472E-03    -22.9940E-03     45.9257E-03    -23.0941E-03     21.0401E-03
            1094     4.39738E-03     100.376E-03    -18.2721E+06    -44.8499E+06    -9.33272E+06    -8.52855E+06    -22.8986E-03     45.9805E-03    -23.0819E-03     26.4820E-03    -22.9137E-03     45.7985E-03    -23.0371E-03     26.3619E-03
            1095     5.27710E-03     100.400E-03    -17.9292E+06    -43.3777E+06    -5.90058E+06    -9.23386E+06    -22.8344E-03     45.8692E-03    -23.0349E-03     31.8395E-03    -22.8562E-03     45.6905E-03    -22.9755E-03     31.7072E-03
            1096     6.15709E-03     100.428E-03    -17.5205E+06    -40.4132E+06    -2.91555E+06    -10.2587E+06    -22.8111E-03     45.7943E-03    -22.9832E-03     37.2313E-03    -22.8415E-03     45.6275E-03    -22.9138E-03     37.0818E-03
            1097     7.03705E-03     100.461E-03    -17.5269E+06    -37.2662E+06    -172.163E+03    -11.1829E+06    -22.8727E-03     45.8095E-03    -22.9368E-03     42.6283E-03    -22.9146E-03     45.6574E-03    -22.8582E-03     42.4620E-03
            1098     7.91709E-03     100.498E-03    -18.0621E+06    -33.9394E+06     2.39897E+06    -12.1675E+06    -23.0471E-03     45.9510E-03    -22.9039E-03     48.0093E-03    -23.1044E-03     45.8167E-03    -22.8165E-03     47.8239E-03
            1099     8.79695E-03     100.540E-03    -18.8229E+06    -31.9429E+06     4.41757E+06    -13.6775E+06    -23.3635E-03     46.2551E-03    -22.8917E-03     53.3231E-03    -23.4365E-03     46.1351E-03    -22.7960E-03     53.1102E-03
            1100     9.67666E-03     100.587E-03    -19.2581E+06    -30.6159E+06     5.30209E+06    -15.7900E+06    -23.8673E-03     46.7709E-03    -22.9036E-03     58.4815E-03    -23.9546E-03     46.6657E-03    -22.8047E-03     58.2309E-03
            1101     10.5558E-03     100.638E-03    -19.3393E+06    -30.8918E+06     4.87434E+06    -17.8660E+06    -24.5557E-03     47.5033E-03    -22.9476E-03     63.2252E-03    -24.6548E-03     47.4100E-03    -22.8504E-03     62.9348E-03
            1102     11.4347E-03     100.692E-03    -18.3408E+06    -33.2932E+06     3.30429E+06    -19.0884E+06    -25.4321E-03     48.4624E-03    -23.0303E-03     67.1961E-03    -25.5381E-03     48.3755E-03    -22.9389E-03     66.8737E-03
            1103     12.3125E-03     100.751E-03    -16.0809E+06    -27.1467E+06     3.91583E+06    -20.1833E+06    -26.5175E-03     49.6758E-03    -23.1582E-03     71.0107E-03    -26.6479E-03     49.6413E-03    -23.0760E-03     70.6544E-03
            1104     13.1894E-03     100.813E-03    -14.5087E+06    -27.8361E+06     1.32654E+06    -20.6216E+06    -27.8172E-03     51.1506E-03    -23.3334E-03     75.5025E-03    -27.9767E-03     51.1559E-03    -23.2653E-03     75.1158E-03
            1105     14.0657E-03     100.880E-03    -13.1136E+06    -4.63075E+06     5.61992E+06    -19.1129E+06    -28.9086E-03     52.4619E-03    -23.5533E-03     78.7909E-03    -29.1506E-03     52.6247E-03    -23.4995E-03     78.4054E-03
            1106     14.9408E-03     100.950E-03    -10.3263E+06     23.7210E+06     16.2518E+06    -16.7221E+06    -29.8013E-03     53.6329E-03    -23.8317E-03     73.8982E-03    -30.1058E-03     53.9379E-03    -23.7698E-03     73.5455E-03
            1107     15.8146E-03     101.010E-03    -5.94295E+06     58.5359E+06     22.7437E+06    -12.0316E+06    -30.6984E-03     54.8124E-03    -24.1140E-03     64.6368E-03    -31.0428E-03     55.2777E-03    -24.0766E-03     64.3564E-03
            1108     16.6875E-03     101.065E-03    -3.14711E+06     91.7994E+06     33.1876E+06    -5.56141E+06    -31.3115E-03     55.7626E-03    -24.4512E-03     42.6677E-03    -31.6365E-03     56.3062E-03    -24.4138E-03     42.4967E-03
            1109     879.907E-06     101.316E-03    -17.0015E+06    -43.4974E+06    -16.5688E+06    -2.23965E+06    -22.4674E-03     44.9312E-03    -22.4638E-03     5.78556E-03    -22.4654E-03     44.7625E-03    -22.4589E-03     5.75525E-03
            1110     1.76000E-03     101.322E-03    -17.1783E+06    -43.4920E+06    -15.9796E+06    -3.83770E+06    -22.3972E-03     44.8444E-03    -22.4472E-03     10.8416E-03    -22.3972E-03     44.6753E-03    -22.4391E-03     10.7894E-03
            1111     2.64003E-03     101.333E-03    -17.5919E+06    -43.4594E+06    -14.6813E+06    -5.06812E+06    -22.3182E-03     44.7306E-03    -22.4124E-03     16.1527E-03    -22.3224E-03     44.5606E-03    -22.3973E-03     16.0830E-03
            1112     3.52033E-03     101.348E-03    -18.2535E+06    -43.0788E+06    -12.8034E+06    -5.90377E+06    -22.2339E-03     44.6052E-03    -22.3713E-03     21.5472E-03    -22.2453E-03     44.4359E-03    -22.3464E-03     21.4649E-03
            1113     4.40058E-03     101.367E-03    -18.9323E+06    -42.6490E+06    -10.3285E+06    -6.36829E+06    -22.1489E-03     44.4753E-03    -22.3264E-03     27.0111E-03    -22.1687E-03     44.3064E-03    -22.2887E-03     26.9206E-03
            1114     5.28115E-03     101.391E-03    -19.4594E+06    -40.7739E+06    -7.19401E+06    -6.99495E+06    -22.0931E-03     44.3720E-03    -22.2789E-03     32.5227E-03    -22.1241E-03     44.2100E-03    -22.2276E-03     32.4213E-03
            1115     6.16164E-03     101.420E-03    -20.0903E+06    -37.9644E+06    -3.69482E+06    -7.64459E+06    -22.1070E-03     44.3423E-03    -22.2353E-03     38.0676E-03    -22.1521E-03     44.1919E-03    -22.1696E-03     37.9543E-03
            1116     7.04230E-03     101.453E-03    -20.4196E+06    -34.6588E+06    -305.225E+03    -8.50027E+06    -22.2139E-03     44.4141E-03    -22.2002E-03     43.6545E-03    -22.2730E-03     44.2785E-03    -22.1218E-03     43.5256E-03
            1117     7.92281E-03     101.490E-03    -20.3193E+06    -31.5986E+06     3.00287E+06    -9.23113E+06    -22.4546E-03     44.6366E-03    -22.1819E-03     49.2428E-03    -22.5265E-03     44.5154E-03    -22.0917E-03     49.0984E-03
            1118     8.80326E-03     101.532E-03    -20.2262E+06    -28.1397E+06     6.27076E+06    -10.5154E+06    -22.8748E-03     45.0641E-03    -22.1893E-03     54.7856E-03    -22.9620E-03     44.9614E-03    -22.0878E-03     54.6167E-03
            1119     9.68328E-03     101.579E-03    -20.3892E+06    -26.1493E+06     7.75275E+06    -12.9524E+06    -23.5064E-03     45.7324E-03    -22.2261E-03     60.1939E-03    -23.6083E-03     45.6466E-03    -22.1198E-03     59.9832E-03
            1120     10.5629E-03     101.631E-03    -20.7330E+06    -27.0636E+06     7.18550E+06    -15.2667E+06    -24.3768E-03     46.6788E-03    -22.3019E-03     65.1646E-03    -24.4910E-03     46.6025E-03    -22.1967E-03     64.9106E-03
            1121     11.4416E-03     101.687E-03    -20.7281E+06    -28.7033E+06     5.19295E+06    -18.5429E+06    -25.4943E-03     47.9191E-03    -22.4248E-03     69.3790E-03    -25.6214E-03     47.8557E-03    -22.3272E-03     69.0658E-03
            1122     12.3195E-03     101.746E-03    -19.5911E+06    -24.2599E+06     4.96728E+06    -21.1218E+06    -26.8462E-03     49.4522E-03    -22.6060E-03     73.4907E-03    -27.0008E-03     49.4368E-03    -22.5176E-03     73.1229E-03
            1123     13.1962E-03     101.810E-03    -17.4104E+06    -26.6000E+06     2.54192E+06    -21.3019E+06    -28.4184E-03     51.2651E-03    -22.8467E-03     78.0539E-03    -28.5985E-03     51.2816E-03    -22.7702E-03     77.6570E-03
            1124     14.0713E-03     101.879E-03    -14.6383E+06    -5.16060E+06     6.77761E+06    -20.6805E+06    -29.8557E-03     52.9969E-03    -23.1411E-03     80.8851E-03    -30.1107E-03     53.1620E-03    -23.0786E-03     80.4740E-03
            1125     14.9461E-03     101.950E-03    -11.5249E+06     21.7707E+06     17.7218E+06    -18.9008E+06    -31.1615E-03     54.6720E-03    -23.5105E-03     75.8439E-03    -31.4783E-03     54.9740E-03    -23.4368E-03     75.4533E-03
            1126     15.8187E-03     102.012E-03    -9.18018E+06     53.2924E+06     23.0938E+06    -14.3858E+06    -32.4570E-03     56.3530E-03    -23.8960E-03     66.8001E-03    -32.8188E-03     56.8045E-03    -23.8445E-03     66.4750E-03
            1127     16.6893E-03     102.069E-03    -4.12380E+06     83.4251E+06     30.1316E+06    -7.79291E+06    -33.0255E-03     57.3431E-03    -24.3176E-03     44.6696E-03    -33.3449E-03     57.8567E-03    -24.2820E-03     44.4567E-03
            1128     880.826E-06     102.307E-03    -15.8193E+06    -39.6988E+06    -15.7852E+06    -1.56193E+06    -21.5355E-03     43.1178E-03    -21.5823E-03     5.90126E-03    -21.5342E-03     42.9652E-03    -21.5807E-03     5.88004E-03
            1129     1.76151E-03     102.313E-03    -16.7861E+06    -40.3601E+06    -15.7396E+06    -2.51245E+06    -21.5056E-03     43.0472E-03    -21.5415E-03     11.0389E-03    -21.5085E-03     42.8927E-03    -21.5374E-03     11.0043E-03
            1130     2.64250E-03     102.324E-03    -17.8126E+06    -41.0393E+06    -15.1531E+06    -3.12470E+06    -21.4240E-03     42.9332E-03    -21.5092E-03     16.4498E-03    -21.4321E-03     42.7762E-03    -21.4996E-03     16.4062E-03
            1131     3.52342E-03     102.339E-03    -19.0574E+06    -41.4849E+06    -13.7886E+06    -3.23354E+06    -21.3462E-03     42.8160E-03    -21.4698E-03     21.9460E-03    -21.3623E-03     42.6571E-03    -21.4509E-03     21.8995E-03
            1132     4.40463E-03     102.358E-03    -20.3362E+06    -40.9832E+06    -11.4123E+06    -3.43207E+06    -21.2841E-03     42.7133E-03    -21.4292E-03     27.5163E-03    -21.3114E-03     42.5560E-03    -21.3974E-03     27.4654E-03
            1133     5.28575E-03     102.382E-03    -21.6393E+06    -39.2644E+06    -8.05921E+06    -3.61916E+06    -21.2620E-03     42.6538E-03    -21.3919E-03     33.1727E-03    -21.3043E-03     42.5032E-03    -21.3438E-03     33.1170E-03
            1134     6.16712E-03     102.410E-03    -22.6497E+06    -36.0040E+06    -3.89273E+06    -4.11921E+06    -21.3212E-03     42.6836E-03    -21.3625E-03     38.8978E-03    -21.3809E-03     42.5464E-03    -21.2969E-03     38.8324E-03
            1135     7.04831E-03     102.443E-03    -23.3409E+06    -32.2236E+06     105.710E+03    -5.21519E+06    -21.4963E-03     42.8416E-03    -21.3454E-03     44.6818E-03    -21.5733E-03     42.7210E-03    -21.2643E-03     44.5980E-03
            1136     7.92956E-03     102.481E-03    -23.6264E+06    -29.6626E+06     3.62937E+06    -6.36040E+06    -21.8332E-03     43.1830E-03    -21.3498E-03     50.4988E-03    -21.9244E-03     43.0745E-03    -21.2544E-03     50.3945E-03
            1137     8.81041E-03     102.523E-03    -23.1295E+06    -24.5660E+06     7.23325E+06    -7.98882E+06    -22.3707E-03     43.7527E-03    -21.3820E-03     56.3113E-03    -22.4779E-03     43.6696E-03    -21.2766E-03     56.1782E-03
            1138     9.69094E-03     102.571E-03    -22.2088E+06    -21.8509E+06     9.46380E+06    -10.3540E+06    -23.1711E-03     44.6240E-03    -21.4529E-03     61.9807E-03    -23.2898E-03     44.5589E-03    -21.3417E-03     61.8066E-03
            1139     10.5707E-03     102.623E-03    -21.1322E+06    -22.9414E+06      9.3959E+06    -13.0527E+06    -24.2556E-03     45.8271E-03    -21.5714E-03     67.2259E-03    -24.3803E-03     45.7680E-03    -21.4605E-03     67.0032E-03
            1140     11.4496E-03     102.680E-03    -20.2457E+06    -21.8849E+06     8.54039E+06    -16.7087E+06    -25.6397E-03     47.3869E-03    -21.7472E-03     71.7714E-03    -25.7791E-03     47.3520E-03    -21.6434E-03     71.4836E-03
            1141     12.3272E-03     102.741E-03    -19.6489E+06    -19.9655E+06     7.71633E+06    -20.6408E+06    -27.2673E-03     49.2604E-03    -21.9931E-03     76.0562E-03    -27.4337E-03     49.2638E-03    -21.8971E-03     75.6947E-03
            1142     13.2035E-03     102.807E-03    -17.8233E+06    -24.9471E+06     4.51897E+06    -22.7078E+06    -29.1411E-03     51.4484E-03    -22.3073E-03     80.7162E-03    -29.3313E-03     51.4738E-03    -22.2227E-03     80.2988E-03
            1143     14.0784E-03     102.878E-03    -14.9495E+06    -4.51803E+06     9.05900E+06    -22.4882E+06    -31.1434E-03     53.8379E-03    -22.6945E-03     83.6621E-03    -31.4114E-03     54.0107E-03    -22.6210E-03     83.2191E-03
            1144     14.9506E-03     102.951E-03    -12.6188E+06     19.4534E+06     19.3468E+06    -20.0221E+06    -32.7735E-03     55.9451E-03    -23.1716E-03     78.5255E-03    -33.1042E-03     56.2441E-03    -23.0848E-03     78.1077E-03
            1145     15.8221E-03     103.015E-03    -8.28292E+06     49.0414E+06     24.1562E+06    -16.7078E+06    -34.0090E-03     57.6650E-03    -23.6560E-03     69.1700E-03    -34.3709E-03     58.1017E-03    -23.5943E-03     68.8014E-03
            1146     16.6932E-03     103.074E-03    -3.05901E+06     74.1194E+06     29.4215E+06    -11.1204E+06    -35.0582E-03     59.2368E-03    -24.1785E-03     45.9694E-03    -35.3639E-03     59.7095E-03    -24.1345E-03     45.6990E-03
            1147     881.642E-06     103.295E-03    -17.7829E+06    -37.8096E+06    -17.3246E+06    -479.942E+03    -20.4761E-03     40.9809E-03    -20.5048E-03     6.05196E-03    -20.4851E-03     40.8428E-03    -20.5108E-03     6.04502E-03
            1148     1.76350E-03     103.302E-03    -19.0141E+06    -39.0132E+06    -17.8568E+06    -456.475E+03    -20.4646E-03     40.9429E-03    -20.4782E-03     11.1865E-03    -20.4774E-03     40.8013E-03    -20.4834E-03     11.1791E-03
            1149     2.64518E-03     103.312E-03    -21.0016E+06    -40.3186E+06    -17.7480E+06    -284.562E+03    -20.4046E-03     40.8619E-03    -20.4573E-03     16.6788E-03    -20.4258E-03     40.7168E-03    -20.4571E-03     16.6728E-03
            1150     3.52717E-03     103.327E-03    -22.8850E+06    -41.1941E+06    -16.4650E+06     28.6068E+03    -20.3470E-03     40.7775E-03    -20.4305E-03     22.2827E-03    -20.3786E-03     40.6292E-03    -20.4199E-03     22.2796E-03
            1151     4.40905E-03     103.346E-03    -24.5398E+06    -40.3749E+06    -13.5745E+06     248.141E+03    -20.3214E-03     40.7266E-03    -20.4052E-03     27.9669E-03    -20.3672E-03     40.5812E-03    -20.3790E-03     27.9651E-03
            1152     5.29120E-03     103.370E-03    -25.6061E+06    -38.6329E+06    -9.42782E+06     130.734E+03    -20.3525E-03     40.7397E-03    -20.3871E-03     33.7645E-03    -20.4131E-03     40.5995E-03    -20.3411E-03     33.7592E-03
            1153     6.17316E-03     103.398E-03    -25.9061E+06    -34.3231E+06    -4.39667E+06    -607.318E+03    -20.4708E-03     40.8489E-03    -20.3781E-03     39.6730E-03    -20.5479E-03     40.7249E-03    -20.3128E-03     39.6553E-03
            1154     7.05526E-03     103.431E-03    -25.7091E+06    -30.3157E+06     662.866E+03    -1.67511E+06    -20.7441E-03     41.1316E-03    -20.3875E-03     45.6609E-03    -20.8358E-03     41.0224E-03    -20.3029E-03     45.6253E-03
            1155     7.93695E-03     103.469E-03    -25.1038E+06    -27.0279E+06     4.95138E+06    -3.35591E+06    -21.2054E-03     41.6277E-03    -20.4223E-03     51.7215E-03    -21.3087E-03     41.5316E-03    -20.3220E-03     51.6588E-03
            1156     8.81845E-03     103.513E-03    -23.8029E+06    -20.7887E+06     8.78813E+06    -6.00100E+06    -21.8825E-03     42.3704E-03    -20.4879E-03     57.8288E-03    -21.9997E-03     42.3038E-03    -20.3793E-03     57.7243E-03
            1157     9.69929E-03     103.561E-03    -22.1701E+06    -18.2895E+06     11.2672E+06    -8.40706E+06    -22.8720E-03     43.4734E-03    -20.6014E-03     63.8412E-03    -22.9972E-03     43.4223E-03    -20.4864E-03     63.6952E-03
            1158     10.5793E-03     103.615E-03    -20.5529E+06    -17.5294E+06     12.3041E+06    -11.6964E+06    -24.1972E-03     44.9706E-03    -20.7734E-03     69.4264E-03    -24.3304E-03     44.9329E-03    -20.6566E-03     69.2237E-03
            1159     11.4582E-03     103.673E-03    -18.5952E+06    -15.9216E+06     12.1441E+06    -15.6781E+06    -25.8429E-03     46.8545E-03    -21.0116E-03     74.3434E-03    -25.9880E-03     46.8419E-03    -20.9008E-03     74.0704E-03
            1160     12.3356E-03     103.737E-03    -16.8355E+06    -13.7985E+06     12.0459E+06    -19.3667E+06    -27.8057E-03     49.1369E-03    -21.3311E-03     78.8790E-03    -27.9747E-03     49.1622E-03    -21.2265E-03     78.5336E-03
            1161     13.2113E-03     103.804E-03    -15.5993E+06    -21.0860E+06     8.04943E+06    -23.0397E+06    -30.1246E-03     51.8572E-03    -21.7326E-03     83.6883E-03    -30.3189E-03     51.8981E-03    -21.6392E-03     83.2621E-03
            1162     14.0849E-03     103.878E-03    -13.8298E+06    -4.63384E+06     11.1257E+06    -23.7236E+06    -32.4039E-03     54.6216E-03    -22.2177E-03     86.7205E-03    -32.6767E-03     54.7968E-03    -22.1353E-03     86.2527E-03
            1163     14.9571E-03     103.954E-03    -10.3120E+06     17.7557E+06     21.1941E+06    -21.7347E+06    -34.3541E-03     57.1520E-03    -22.7979E-03     81.4471E-03    -34.6838E-03     57.4468E-03    -22.7027E-03     80.9935E-03
            1164     15.8269E-03     104.020E-03    -6.01272E+06     45.7764E+06     25.2993E+06    -20.1174E+06    -36.2146E-03     59.6144E-03    -23.3998E-03     71.8543E-03    -36.5745E-03     60.0423E-03    -23.3309E-03     71.4208E-03
            1165     16.6943E-03     104.081E-03    -2.35079E+06     64.3616E+06     28.5258E+06    -13.4228E+06    -37.4697E-03     61.5230E-03    -24.0533E-03     47.7572E-03    -37.7651E-03     61.9559E-03    -24.0006E-03     47.4371E-03
            1166     882.849E-06     104.282E-03    -24.0752E+06    -38.7856E+06    -23.2614E+06     1.45684E+06    -19.3263E-03     38.6010E-03    -19.2746E-03     6.11617E-03    -19.3568E-03     38.4757E-03    -19.2998E-03     6.13452E-03
            1167     1.76546E-03     104.288E-03    -25.9201E+06    -40.1934E+06    -23.4966E+06     2.41187E+06    -19.2974E-03     38.5947E-03    -19.2974E-03     11.2771E-03    -19.3348E-03     38.4654E-03    -19.3190E-03     11.3073E-03
            1168     2.64839E-03     104.299E-03    -27.7055E+06    -41.4101E+06    -22.5252E+06     3.34917E+06    -19.2763E-03     38.5698E-03    -19.2935E-03     16.8221E-03    -19.3224E-03     38.4358E-03    -19.3059E-03     16.8638E-03
            1169     3.53113E-03     104.314E-03    -29.2813E+06    -41.9592E+06    -20.0088E+06     3.79321E+06    -19.2654E-03     38.5547E-03    -19.2893E-03     22.5154E-03    -19.3225E-03     38.4169E-03    -19.2860E-03     22.5619E-03
            1170     4.41414E-03     104.333E-03    -29.9686E+06    -40.7564E+06    -16.0528E+06     3.83114E+06    -19.2954E-03     38.5830E-03    -19.2876E-03     28.3140E-03    -19.3639E-03     38.4469E-03    -19.2653E-03     28.3598E-03
            1171     5.29694E-03     104.356E-03    -29.6036E+06    -37.9924E+06    -10.8838E+06     3.15298E+06    -19.3941E-03     38.6879E-03    -19.2938E-03     34.2376E-03    -19.4730E-03     38.5583E-03    -19.2502E-03     34.2729E-03
            1172     6.17992E-03     104.385E-03    -28.5233E+06    -33.2494E+06    -4.90043E+06     2.16663E+06    -19.6004E-03     38.9135E-03    -19.3131E-03     40.3186E-03    -19.6908E-03     38.7987E-03    -19.2480E-03     40.3386E-03
            1173     7.06255E-03     104.418E-03    -27.0066E+06    -28.6319E+06     851.075E+03     885.347E+03    -19.9765E-03     39.3298E-03    -19.3533E-03     46.5337E-03    -20.0766E-03     39.2298E-03    -19.2683E-03     46.5335E-03
            1174     7.94508E-03     104.457E-03    -24.7211E+06    -23.5411E+06     6.21988E+06    -1.59467E+06    -20.5711E-03     39.9947E-03    -19.4235E-03     52.8648E-03    -20.6785E-03     39.9126E-03    -19.3225E-03     52.8274E-03
            1175     8.82695E-03     104.501E-03    -21.9004E+06    -16.5794E+06     11.2754E+06    -4.80341E+06    -21.4249E-03     40.9587E-03    -19.5339E-03     59.2935E-03    -21.5413E-03     40.9058E-03    -19.4217E-03     59.2072E-03
            1176     9.70823E-03     104.550E-03    -19.0071E+06    -15.3465E+06     14.1041E+06    -7.35724E+06    -22.6066E-03     42.3049E-03    -19.6982E-03     65.6635E-03    -22.7234E-03     42.2588E-03    -19.5779E-03     65.5339E-03
            1177     10.5884E-03     104.605E-03    -16.3769E+06    -11.0572E+06     16.5415E+06    -10.6991E+06    -24.1667E-03     44.0940E-03    -19.9273E-03     71.7287E-03    -24.2938E-03     44.0758E-03    -19.8048E-03     71.5413E-03
            1178     11.4672E-03     104.666E-03    -14.5477E+06    -10.9235E+06     16.2639E+06    -14.7858E+06    -26.1067E-03     46.3404E-03    -20.2337E-03     77.0305E-03    -26.2449E-03     46.3411E-03    -20.1155E-03     76.7704E-03
            1179     12.3445E-03     104.731E-03    -13.0378E+06    -7.64598E+06     16.5596E+06    -18.4462E+06    -28.3999E-03     49.0314E-03    -20.6315E-03     81.9940E-03    -28.5669E-03     49.0771E-03    -20.5187E-03     81.6599E-03
            1180     13.2195E-03     104.802E-03    -11.6489E+06    -15.3544E+06     12.6409E+06    -22.3449E+06    -31.1381E-03     52.2621E-03    -21.1240E-03     87.3065E-03    -31.3324E-03     52.3241E-03    -21.0216E-03     86.8847E-03
            1181     14.0922E-03     104.879E-03    -9.74859E+06    -2.97048E+06     14.5972E+06    -24.5577E+06    -33.7323E-03     55.4420E-03    -21.7097E-03     90.3663E-03    -34.0008E-03     55.6232E-03    -21.6183E-03     89.8781E-03
            1182     14.9628E-03     104.957E-03    -6.37855E+06     16.7545E+06     23.8833E+06    -24.3259E+06    -36.1135E-03     58.5136E-03    -22.4001E-03     85.0916E-03    -36.4391E-03     58.8070E-03    -22.2957E-03     84.5880E-03
            1183     15.8311E-03     105.027E-03    -4.04128E+06     42.8507E+06     27.3867E+06    -21.0074E+06    -38.4780E-03     61.6066E-03    -23.1287E-03     75.5318E-03    -38.8410E-03     62.0284E-03    -23.0480E-03     75.0642E-03
            1184     16.6968E-03     105.092E-03    -4.42965E+06     54.4703E+06     27.1762E+06    -13.8423E+06    -39.9415E-03     63.8544E-03    -23.9129E-03     50.6723E-03    -40.2404E-03     64.2523E-03    -23.8496E-03     50.3252E-03
            1185     883.766E-06     105.266E-03    -37.5233E+06    -43.9281E+06    -35.7682E+06     3.89399E+06    -18.0564E-03     36.0908E-03    -18.0344E-03     6.08771E-03    -18.1284E-03     35.9775E-03    -18.0952E-03     6.13773E-03
            1186     1.76779E-03     105.273E-03    -38.2154E+06    -43.7851E+06    -33.5879E+06     5.72772E+06    -18.0562E-03     36.1130E-03    -18.0568E-03     11.2759E-03    -18.1351E-03     35.9981E-03    -18.1058E-03     11.3494E-03
            1187     2.65151E-03     105.283E-03    -38.4619E+06    -43.9841E+06    -30.0016E+06     6.54955E+06    -18.0870E-03     36.1612E-03    -18.0742E-03     16.8468E-03    -18.1722E-03     36.0406E-03    -18.1046E-03     16.9304E-03
            1188     3.53549E-03     105.298E-03    -37.5409E+06    -43.2814E+06    -25.1789E+06     6.63003E+06    -18.1424E-03     36.2381E-03    -18.0957E-03     22.5960E-03    -18.2312E-03     36.1129E-03    -18.1044E-03     22.6800E-03
            1189     4.41922E-03     105.317E-03    -35.6146E+06    -40.9959E+06    -19.4300E+06     5.75789E+06    -18.2430E-03     36.3644E-03    -18.1214E-03     28.4875E-03    -18.3342E-03     36.2399E-03    -18.1074E-03     28.5593E-03
            1190     5.30314E-03     105.341E-03    -32.8106E+06    -37.2404E+06    -12.8916E+06     4.43903E+06    -18.4244E-03     36.5807E-03    -18.1563E-03     34.5342E-03    -18.5172E-03     36.4621E-03    -18.1192E-03     34.5876E-03
            1191     6.18673E-03     105.369E-03    -29.3403E+06    -32.3415E+06    -5.82604E+06     3.03954E+06    -18.7334E-03     36.9411E-03    -18.2078E-03     40.7897E-03    -18.8273E-03     36.8329E-03    -18.1474E-03     40.8227E-03
            1192     7.07029E-03     105.403E-03    -25.2718E+06    -26.7510E+06     1.22281E+06     1.38355E+06    -19.2212E-03     37.5048E-03    -18.2836E-03     47.2319E-03    -19.3151E-03     37.4104E-03    -18.2021E-03     47.2403E-03
            1193     7.95328E-03     105.442E-03    -21.2700E+06    -19.5380E+06     8.06554E+06    -1.37120E+06    -19.9476E-03     38.3419E-03    -18.3942E-03     53.8613E-03    -20.0453E-03     38.2712E-03    -18.2947E-03     53.8292E-03
            1194     8.83582E-03     105.488E-03    -18.0586E+06    -13.1064E+06     13.7682E+06    -4.08030E+06    -20.9708E-03     39.5230E-03    -18.5522E-03     60.6359E-03    -21.0755E-03     39.4772E-03    -18.4382E-03     60.5616E-03
            1195     9.71736E-03     105.538E-03    -15.3362E+06    -11.3175E+06     17.1271E+06    -7.03435E+06    -22.3531E-03     41.1232E-03    -18.7701E-03     67.4399E-03    -22.4606E-03     41.0865E-03    -18.6458E-03     67.3171E-03
            1196     10.5978E-03     105.595E-03    -12.1789E+06    -5.24303E+06     20.1483E+06    -10.8251E+06    -24.1041E-03     43.1602E-03    -19.0562E-03     74.0481E-03    -24.2229E-03     43.1588E-03    -18.9302E-03     73.8617E-03
            1197     11.4768E-03     105.658E-03    -9.21163E+06    -6.34282E+06     20.7568E+06    -13.8621E+06    -26.3200E-03     45.7511E-03    -19.4311E-03     79.9100E-03    -26.4443E-03     45.7601E-03    -19.3048E-03     79.6638E-03
            1198     12.3534E-03     105.726E-03     -7.9181E+06    -1.87126E+06     21.7182E+06    -16.7595E+06    -28.9260E-03     48.8301E-03    -19.9041E-03     85.5446E-03    -29.0846E-03     48.8911E-03    -19.7813E-03     85.2323E-03
            1199     13.2283E-03     105.800E-03    -7.29263E+06    -8.19930E+06     18.2605E+06    -21.4170E+06    -31.9188E-03     52.3970E-03    -20.4782E-03     91.4560E-03    -32.1133E-03     52.4838E-03    -20.3644E-03     91.0438E-03
            1200     14.1004E-03     105.880E-03    -5.52830E+06     879.573E+03     19.2007E+06    -25.2663E+06    -35.1303E-03     56.2893E-03    -21.1590E-03     94.7601E-03    -35.3989E-03     56.4861E-03    -21.0563E-03     94.2523E-03
            1201     14.9698E-03     105.962E-03    -3.95849E+06     15.2721E+06     26.6750E+06    -24.3973E+06    -38.0841E-03     60.0530E-03    -21.9689E-03     89.6650E-03    -38.4145E-03     60.3465E-03    -21.8519E-03     89.1412E-03
            1202     15.8360E-03     106.036E-03    -3.31146E+06     40.2023E+06     30.9234E+06    -20.7667E+06    -40.6290E-03     63.4615E-03    -22.8325E-03     79.8061E-03    -41.0054E-03     63.8796E-03    -22.7314E-03     79.3184E-03
            1203     16.7008E-03     106.103E-03    -220.212E+03     43.3995E+06     29.3546E+06    -14.0794E+06    -42.6381E-03     66.3897E-03    -23.7515E-03     53.6236E-03    -42.9133E-03     66.7333E-03    -23.6674E-03     53.2496E-03
            1204     885.014E-06     106.248E-03    -61.3425E+06    -51.4053E+06    -60.1020E+06     3.85915E+06    -16.7908E-03     33.6114E-03    -16.8207E-03     6.00169E-03    -16.9358E-03     33.5305E-03    -16.9577E-03     6.05135E-03
            1205     1.76977E-03     106.254E-03    -56.9834E+06    -48.5659E+06    -51.8234E+06     5.75978E+06    -16.8261E-03     33.6600E-03    -16.8340E-03     11.1388E-03    -16.9655E-03     33.5749E-03    -16.9400E-03     11.2128E-03
            1206     2.65482E-03     106.265E-03    -51.3678E+06    -46.6194E+06    -42.2769E+06     6.29433E+06    -16.9069E-03     33.7798E-03    -16.8729E-03     16.7092E-03    -17.0349E-03     33.6825E-03    -16.9422E-03     16.7899E-03
            1207     3.53954E-03     106.280E-03    -45.6363E+06    -44.5790E+06    -33.2833E+06     5.91053E+06    -17.0307E-03     33.9496E-03    -16.9189E-03     22.4721E-03    -17.1463E-03     33.8413E-03    -16.9545E-03     22.5474E-03
            1208     4.42446E-03     106.299E-03    -39.8460E+06    -40.3564E+06    -24.5246E+06     4.62743E+06    -17.2017E-03     34.1715E-03    -16.9698E-03     28.4304E-03    -17.3074E-03     34.0635E-03    -16.9761E-03     28.4884E-03
            1209     5.30902E-03     106.323E-03    -33.7741E+06    -36.1113E+06    -15.7968E+06     2.63576E+06    -17.4763E-03     34.5102E-03    -17.0339E-03     34.5980E-03    -17.5710E-03     34.4025E-03    -17.0115E-03     34.6292E-03
            1210     6.19363E-03     106.352E-03    -27.4827E+06    -31.1756E+06    -7.13360E+06     1.02716E+06    -17.8883E-03     35.0063E-03    -17.1180E-03     41.0114E-03    -17.9723E-03     34.9027E-03    -17.0686E-03     41.0198E-03
            1211     7.07772E-03     106.386E-03    -21.3562E+06    -24.5083E+06     1.43059E+06    -827.564E+03    -18.4873E-03     35.7174E-03    -17.2301E-03     47.6897E-03    -18.5645E-03     35.6276E-03    -17.1565E-03     47.6713E-03
            1212     7.96151E-03     106.427E-03    -15.8990E+06    -16.6300E+06     9.57917E+06    -2.54176E+06    -19.3374E-03     36.7188E-03    -17.3814E-03     54.6220E-03    -19.4137E-03     36.6518E-03    -17.2863E-03     54.5770E-03
            1213     8.84444E-03     106.473E-03    -11.6233E+06    -10.5387E+06     16.4046E+06    -4.03306E+06    -20.5055E-03     38.0909E-03    -17.5854E-03     61.7657E-03    -20.5846E-03     38.0437E-03    -17.4712E-03     61.6945E-03
            1214     9.72649E-03     106.525E-03    -8.05970E+06    -6.20242E+06     21.4932E+06    -6.90519E+06    -22.0530E-03     39.9062E-03    -17.8532E-03     69.0761E-03    -22.1367E-03     39.8769E-03    -17.7250E-03     68.9577E-03
            1215     10.6071E-03     106.584E-03    -5.18699E+06     165.894E+03     25.0976E+06    -10.8183E+06    -23.9823E-03     42.1752E-03    -18.1929E-03     76.2633E-03    -24.0798E-03     42.1822E-03    -18.0601E-03     76.0799E-03
            1216     11.4861E-03     106.649E-03    -3.26332E+06    -3.33489E+06     25.5869E+06    -13.0676E+06    -26.3642E-03     44.9903E-03    -18.6261E-03     82.8476E-03    -26.4690E-03     44.9976E-03    -18.4886E-03     82.6147E-03
            1217     12.3632E-03     106.721E-03    -2.19444E+06     2.80896E+06     27.2831E+06    -14.5179E+06    -29.2009E-03     48.3591E-03    -19.1581E-03     89.2395E-03    -29.3453E-03     48.4267E-03    -19.0226E-03     88.9583E-03
            1218     13.2375E-03     106.798E-03    -1.73896E+06     1.11024E+06     26.0537E+06    -19.4671E+06    -32.6342E-03     52.4404E-03    -19.8062E-03     95.8222E-03    -32.8278E-03     52.5565E-03    -19.6751E-03     95.4339E-03
            1219     14.1091E-03     106.882E-03    -2.65653E+06     4.00227E+06     22.9307E+06    -23.4838E+06    -36.5083E-03     57.0803E-03    -20.5720E-03     99.7176E-03    -36.7804E-03     57.2911E-03    -20.4593E-03     99.2232E-03
            1220     14.9768E-03     106.969E-03    -3.50419E+06     14.1819E+06     26.8742E+06    -22.6940E+06    -39.9803E-03     61.4698E-03    -21.4894E-03     94.2896E-03    -40.3216E-03     61.7715E-03    -21.3705E-03     93.7679E-03
            1221     15.8421E-03     107.046E-03    -1.98931E+06     39.1438E+06     32.5084E+06    -20.6108E+06    -43.1380E-03     65.6319E-03    -22.4939E-03     84.4271E-03    -43.5282E-03     66.0601E-03    -22.3852E-03     83.9110E-03
            1222     16.7031E-03     107.119E-03    -532.880E+03     30.3543E+06     27.6158E+06    -14.1746E+06    -45.7923E-03     69.3639E-03    -23.5715E-03     57.1566E-03    -46.0626E-03     69.6603E-03    -23.4767E-03     56.7483E-03
            1223     885.709E-06     107.228E-03    -85.4952E+06    -55.4824E+06    -85.3490E+06     157.886E+03    -15.7228E-03     31.4434E-03    -15.7206E-03     5.85460E-03    -15.9460E-03     31.4137E-03    -15.9429E-03     5.85651E-03
            1224     1.77173E-03     107.234E-03    -78.7788E+06    -50.9367E+06    -76.1800E+06     215.966E+03    -15.7318E-03     31.4729E-03    -15.7410E-03     10.8693E-03    -15.9415E-03     31.4429E-03    -15.9338E-03     10.8718E-03
            1225     2.65746E-03     107.245E-03    -69.2781E+06    -47.4002E+06    -63.4845E+06    -311.162E+03    -15.8122E-03     31.5924E-03    -15.7801E-03     16.3756E-03    -15.9979E-03     31.5479E-03    -15.9284E-03     16.3712E-03
            1226     3.54338E-03     107.260E-03    -57.9571E+06    -44.5504E+06    -49.2382E+06    -1.12063E+06    -15.9700E-03     31.8094E-03    -15.8394E-03     22.0816E-03    -16.1240E-03     31.7422E-03    -15.9369E-03     22.0664E-03
            1227     4.42896E-03     107.279E-03    -46.2357E+06    -38.9644E+06    -35.4201E+06    -2.29921E+06    -16.2000E-03     32.1083E-03    -15.9082E-03     28.0598E-03    -16.3238E-03     32.0322E-03    -15.9618E-03     28.0289E-03
            1228     5.31462E-03     107.304E-03    -35.5297E+06    -34.4751E+06    -22.4908E+06    -3.50342E+06    -16.5563E-03     32.5531E-03    -15.9969E-03     34.3237E-03    -16.6522E-03     32.4657E-03    -16.0078E-03     34.2763E-03
            1229     6.19978E-03     107.333E-03    -26.1967E+06    -29.9153E+06    -10.7247E+06    -4.48509E+06    -17.0686E-03     33.1795E-03    -16.1109E-03     40.8800E-03    -17.1424E-03     33.0852E-03    -16.0832E-03     40.8184E-03
            1230     7.08477E-03     107.368E-03    -18.3080E+06    -22.6696E+06    -92.2538E+03    -5.08752E+06    -17.7721E-03     34.0271E-03    -16.2550E-03     47.7756E-03    -17.8340E-03     33.9437E-03    -16.1960E-03     47.7036E-03
            1231     7.96901E-03     107.409E-03    -11.8565E+06    -15.3553E+06     9.59893E+06    -5.52357E+06    -18.7328E-03     35.1762E-03    -16.4434E-03     54.9872E-03    -18.7899E-03     35.1089E-03    -16.3559E-03     54.9055E-03
            1232     8.85261E-03     107.456E-03    -5.84646E+06    -8.49992E+06     18.2683E+06    -6.22647E+06    -20.0071E-03     36.6934E-03    -16.6863E-03     62.5177E-03    -20.0616E-03     36.6440E-03    -16.5741E-03     62.4207E-03
            1233     9.73500E-03     107.510E-03    -779.061E+03    -1.97614E+06     25.4705E+06    -7.90239E+06    -21.6447E-03     38.6382E-03    -16.9935E-03     70.3386E-03    -21.7021E-03     38.6120E-03    -16.8621E-03     70.2104E-03
            1234     10.6161E-03     107.572E-03     1.64230E+06     3.78662E+06     30.1464E+06    -9.27651E+06    -23.6977E-03     41.0730E-03    -17.3753E-03     78.1394E-03    -23.7715E-03     41.0787E-03    -17.2324E-03     77.9796E-03
            1235     11.4954E-03     107.640E-03     1.83250E+06    -362.592E+03     30.6188E+06      -10.92E+06    -26.2279E-03     44.0777E-03    -17.8497E-03     85.4422E-03    -26.3163E-03     44.0826E-03    -17.6988E-03     85.2410E-03
            1236     12.3724E-03     107.714E-03     3.11162E+06     6.97634E+06     32.4945E+06    -13.5874E+06    -29.2800E-03     47.7030E-03    -18.4231E-03     92.6833E-03    -29.4088E-03     47.7737E-03    -18.2752E-03     92.4181E-03
            1237     13.2472E-03     107.796E-03     4.29028E+06     8.33497E+06     33.1958E+06    -16.6339E+06    -33.2263E-03     52.3585E-03    -19.1321E-03     100.333E-03    -33.4102E-03     52.4912E-03    -18.9844E-03     99.9821E-03
            1238     14.1176E-03     107.885E-03     3.05007E+06     7.28316E+06     28.9100E+06    -18.8123E+06    -37.6590E-03     57.6361E-03    -19.9772E-03     105.025E-03    -37.9200E-03     57.8505E-03    -19.8476E-03     104.585E-03
            1239     14.9849E-03     107.977E-03     1.73981E+06     14.9615E+06     30.7288E+06    -19.8156E+06    -42.0095E-03     63.0073E-03    -20.9978E-03     99.7957E-03    -42.3462E-03     63.3149E-03    -20.8684E-03     99.2890E-03
            1240     15.8476E-03     108.059E-03     961.389E+03     39.5217E+06     35.4034E+06    -19.0314E+06    -46.0448E-03     68.1933E-03    -22.1485E-03     89.4156E-03    -46.4470E-03     68.6372E-03    -22.0302E-03     88.8826E-03
            1241     16.7075E-03     108.137E-03     450.009E+03     18.3916E+06     26.6363E+06    -12.6140E+06    -49.0317E-03     72.4263E-03    -23.3945E-03     61.0554E-03    -49.2935E-03     72.6782E-03    -23.2887E-03     60.6319E-03
            1242     886.600E-06     108.205E-03    -84.8631E+06    -52.2897E+06    -84.5627E+06    -3.38143E+06    -14.9472E-03     29.8937E-03    -14.9465E-03     5.63784E-03    -15.1730E-03     29.8779E-03    -15.1704E-03     5.59402E-03
            1243     1.77295E-03     108.211E-03    -80.9280E+06    -48.0661E+06    -79.2901E+06    -5.95405E+06    -14.9573E-03     29.9113E-03    -14.9541E-03     10.4831E-03    -15.1773E-03     29.9034E-03    -15.1635E-03     10.4059E-03
            1244     2.65965E-03     108.222E-03    -74.8000E+06    -44.1755E+06    -70.5104E+06    -8.31291E+06    -14.9950E-03     29.9718E-03    -14.9768E-03     15.7931E-03    -15.2028E-03     29.9617E-03    -15.1568E-03     15.6853E-03
            1245     3.54610E-03     108.237E-03    -66.7097E+06    -41.3610E+06    -60.3156E+06    -10.7474E+06    -15.1067E-03     30.1185E-03    -15.0117E-03     21.3280E-03    -15.2931E-03     30.0960E-03    -15.1566E-03     21.1885E-03
            1246     4.43271E-03     108.257E-03    -57.1753E+06    -36.1693E+06    -49.2361E+06    -12.3969E+06    -15.3224E-03     30.3836E-03    -15.0612E-03     27.2030E-03    -15.4848E-03     30.3574E-03    -15.1720E-03     27.0419E-03
            1247     5.31893E-03     108.282E-03    -46.3895E+06    -31.9651E+06    -36.0642E+06    -13.5524E+06    -15.6911E-03     30.8368E-03    -15.1457E-03     33.4769E-03    -15.8252E-03     30.7972E-03    -15.2124E-03     33.3002E-03
            1248     6.20506E-03     108.312E-03    -34.3131E+06    -27.9854E+06    -21.3683E+06    -14.3377E+06    -16.2705E-03     31.5425E-03    -15.2720E-03     40.1466E-03    -16.3720E-03     31.4847E-03    -15.2885E-03     39.9584E-03
            1249     7.09050E-03     108.348E-03    -21.7739E+06    -22.4063E+06    -6.44014E+06    -13.7432E+06    -17.0760E-03     32.5182E-03    -15.4421E-03     47.2098E-03    -17.1459E-03     32.4498E-03    -15.4103E-03     47.0272E-03
            1250     7.97548E-03     108.390E-03    -10.6555E+06    -15.6447E+06     6.99523E+06    -11.7157E+06    -18.1225E-03     33.7807E-03    -15.6582E-03     54.6695E-03    -18.1686E-03     33.7131E-03    -15.5851E-03     54.5095E-03
            1251     8.85944E-03     108.438E-03    -3.18028E+06    -7.90359E+06     17.8070E+06    -9.95829E+06    -19.4472E-03     35.3723E-03    -15.9251E-03     62.5547E-03    -19.4872E-03     35.3213E-03    -15.8200E-03     62.4119E-03
            1252     9.74246E-03     108.495E-03     1.32153E+06     366.311E+03     26.8631E+06    -9.51018E+06    -21.1110E-03     37.3669E-03    -16.2558E-03     70.8485E-03    -21.1611E-03     37.3451E-03    -16.1240E-03     70.7029E-03
            1253     10.6240E-03     108.558E-03     4.86393E+06     3.87536E+06     32.8431E+06    -8.71671E+06    -23.2241E-03     39.8848E-03    -16.6607E-03     79.2575E-03    -23.2825E-03     39.8790E-03    -16.5091E-03     79.1095E-03
            1254     11.5038E-03     108.629E-03     7.95281E+06     3.63378E+06     36.0287E+06    -9.26765E+06    -25.8848E-03     43.0403E-03    -17.1554E-03     87.3462E-03    -25.9518E-03     43.0440E-03    -16.9921E-03     87.1719E-03
            1255     12.3813E-03     108.706E-03     9.05065E+06     11.1773E+06     38.6072E+06    -11.9806E+06    -29.2344E-03     46.9922E-03    -17.7578E-03     95.6224E-03    -29.3434E-03     47.0613E-03    -17.5941E-03     95.3835E-03
            1256     13.2557E-03     108.793E-03     7.17105E+06     10.3910E+06     37.8933E+06    -12.2171E+06    -33.4156E-03     51.9182E-03    -18.5027E-03     104.586E-03    -33.5889E-03     52.0444E-03    -18.3387E-03     104.297E-03
            1257     14.1266E-03     108.888E-03     5.65684E+06     14.5875E+06     35.8715E+06    -15.2365E+06    -38.3421E-03     57.7427E-03    -19.4006E-03     110.497E-03    -38.6075E-03     57.9764E-03    -19.2506E-03     110.104E-03
            1258     14.9929E-03     108.985E-03     5.42881E+06     14.3264E+06     34.5754E+06    -16.9875E+06    -43.8369E-03     64.3384E-03    -20.5015E-03     106.662E-03    -44.1728E-03     64.6450E-03    -20.3573E-03     106.172E-03
            1259     15.8533E-03     109.075E-03     2.27446E+06     39.0925E+06     39.0842E+06    -12.9229E+06    -48.7679E-03     70.5542E-03    -21.7863E-03     96.0795E-03    -49.1934E-03     71.0140E-03    -21.6509E-03     95.5877E-03
            1260     16.7092E-03     109.156E-03    -940.531E+03     11.3017E+06     29.0831E+06    -10.0058E+06    -52.4838E-03     75.6883E-03    -23.2045E-03     66.9696E-03    -52.7653E-03     75.9231E-03    -23.0741E-03     66.5404E-03
            1261     886.888E-06     109.182E-03    -63.7898E+06    -44.1299E+06    -62.9312E+06    -4.76782E+06    -14.5353E-03     29.0833E-03    -14.5479E-03     5.29500E-03    -14.6990E-03     29.0464E-03    -14.7061E-03     5.23318E-03
            1262     1.77400E-03     109.188E-03    -62.0562E+06    -40.8771E+06    -58.7295E+06    -8.39561E+06    -14.5694E-03     29.1257E-03    -14.5563E-03     9.87416E-03    -14.7354E-03     29.0966E-03    -14.7007E-03     9.76525E-03
            1263     2.66080E-03     109.199E-03    -59.4640E+06    -37.3890E+06    -53.8604E+06    -11.8105E+06    -14.6074E-03     29.1833E-03    -14.5759E-03     14.8546E-03    -14.7726E-03     29.1608E-03    -14.7047E-03     14.7013E-03
            1264     3.54787E-03     109.214E-03    -56.6595E+06    -34.8098E+06    -48.6958E+06    -15.0612E+06    -14.6802E-03     29.2796E-03    -14.5994E-03     20.0656E-03    -14.8427E-03     29.2586E-03    -14.7103E-03     19.8700E-03
            1265     4.43471E-03     109.234E-03    -53.2631E+06    -30.8987E+06    -43.1122E+06    -18.0430E+06    -14.8393E-03     29.4705E-03    -14.6311E-03     25.6262E-03    -14.9988E-03     29.4562E-03    -14.7247E-03     25.3918E-03
            1266     5.32165E-03     109.259E-03    -48.2848E+06    -26.5246E+06    -35.5860E+06    -21.0651E+06    -15.1375E-03     29.8264E-03    -14.6889E-03     31.6780E-03    -15.2897E-03     29.8162E-03    -14.7584E-03     31.4040E-03
            1267     6.20814E-03     109.289E-03    -41.6285E+06    -24.3269E+06    -26.2677E+06    -23.4054E+06    -15.6461E-03     30.4337E-03    -14.7876E-03     38.2895E-03    -15.7823E-03     30.4119E-03    -14.8233E-03     37.9844E-03
            1268     7.09431E-03     109.326E-03    -33.1118E+06    -20.9985E+06    -15.7530E+06    -24.1269E+06    -16.4121E-03     31.3437E-03    -14.9316E-03     45.4712E-03    -16.5268E-03     31.3120E-03    -14.9319E-03     45.1552E-03
            1269     7.97965E-03     109.369E-03    -22.0007E+06    -17.2613E+06    -3.15840E+06    -22.4832E+06    -17.4631E-03     32.5990E-03    -15.1359E-03     53.1788E-03    -17.5480E-03     32.5537E-03    -15.0948E-03     52.8812E-03
            1270     8.86432E-03     109.420E-03    -9.19393E+06    -10.3740E+06     11.7549E+06    -18.0789E+06    -18.8079E-03     34.2147E-03    -15.4068E-03     61.3603E-03    -18.8640E-03     34.1673E-03    -15.3196E-03     61.1150E-03
            1271     9.74778E-03     109.477E-03     1.12621E+06    -876.251E+03     25.6747E+06    -13.4140E+06    -20.4894E-03     36.2317E-03    -15.7424E-03     70.0394E-03    -20.5342E-03     36.2031E-03    -15.6144E-03     69.8471E-03
            1272     10.6299E-03     109.543E-03     6.73544E+06     1.90204E+06     33.9930E+06    -9.81488E+06    -22.5981E-03     38.7453E-03    -16.1472E-03     78.9959E-03    -22.6416E-03     38.7209E-03    -15.9898E-03     78.8389E-03
            1273     11.5103E-03     109.616E-03     9.38204E+06      7.0048E+06     39.4049E+06    -9.27982E+06    -25.3005E-03     41.9372E-03    -16.6367E-03     87.9776E-03    -25.3635E-03     41.9443E-03    -16.4635E-03     87.8103E-03
            1274     12.3883E-03     109.698E-03     11.3149E+06     13.5804E+06     43.3629E+06    -10.1596E+06    -28.8383E-03     46.0809E-03    -17.2426E-03     97.4731E-03    -28.9374E-03     46.1429E-03    -17.0619E-03     97.2664E-03
            1275     13.2631E-03     109.789E-03     11.9485E+06     7.45711E+06     42.0815E+06    -7.09800E+06    -33.1639E-03     51.1551E-03    -17.9912E-03     107.551E-03    -33.3022E-03     51.2405E-03    -17.8089E-03     107.339E-03
            1276     14.1346E-03     109.889E-03     9.26395E+06     27.9430E+06     44.4238E+06    -10.1524E+06    -38.3420E-03     57.2390E-03    -18.8970E-03     115.581E-03    -38.6080E-03     57.5088E-03    -18.7288E-03     115.263E-03
            1277     15.0005E-03     109.995E-03     7.85283E+06     12.3050E+06     35.2990E+06    -15.7046E+06    -44.6834E-03     64.6975E-03    -20.0141E-03     114.177E-03    -45.0076E-03     64.9918E-03    -19.8668E-03     113.697E-03
            1278     15.8609E-03     110.092E-03     10.8067E+06     29.6426E+06     40.8627E+06    -8.12677E+06    -50.9993E-03     72.3901E-03    -21.3909E-03     103.465E-03    -51.3961E-03     72.8131E-03    -21.2452E-03     103.000E-03
            1279     16.7166E-03     110.180E-03     9.20718E+06     11.5243E+06     36.5144E+06    -2.21196E+06    -56.3633E-03     79.3424E-03    -22.9790E-03     73.3688E-03    -56.6299E-03     79.5778E-03    -22.8265E-03     72.9933E-03
            1280     887.097E-06     110.158E-03    -42.8255E+06    -34.8793E+06    -41.6359E+06    -4.78096E+06    -14.5658E-03     29.1274E-03    -14.5617E-03     4.75285E-03    -14.6689E-03     29.0756E-03    -14.6572E-03     4.69068E-03
            1281     1.77399E-03     110.164E-03    -41.6484E+06    -32.0450E+06    -38.4197E+06    -8.47040E+06    -14.6159E-03     29.1986E-03    -14.5827E-03     8.98321E-03    -14.7221E-03     29.1545E-03    -14.6679E-03     8.87297E-03
            1282     2.66110E-03     110.175E-03    -39.8761E+06    -29.3685E+06    -33.3198E+06    -12.0680E+06    -14.7162E-03     29.3408E-03    -14.6246E-03     13.4439E-03    -14.8249E-03     29.3003E-03    -14.6908E-03     13.2868E-03
            1283     3.54793E-03     110.190E-03    -37.4434E+06    -27.1541E+06    -27.3759E+06    -15.2383E+06    -14.8338E-03     29.5131E-03    -14.6793E-03     18.1245E-03    -14.9424E-03     29.4718E-03    -14.7225E-03     17.9259E-03
            1284     4.43486E-03     110.210E-03    -34.7323E+06    -23.2696E+06    -21.7145E+06    -18.7615E+06    -14.9854E-03     29.7206E-03    -14.7351E-03     23.1369E-03    -15.0946E-03     29.6868E-03    -14.7596E-03     22.8922E-03
            1285     5.32153E-03     110.235E-03    -32.7962E+06    -19.4970E+06    -16.9397E+06    -21.8906E+06    -15.2035E-03     29.9996E-03    -14.7961E-03     28.6499E-03    -15.3158E-03     29.9753E-03    -14.8050E-03     28.3642E-03
            1286     6.20821E-03     110.267E-03    -31.9966E+06    -18.1264E+06    -13.3271E+06    -24.6686E+06    -15.5368E-03     30.4077E-03    -14.8709E-03     34.7997E-03    -15.6529E-03     30.3844E-03    -14.8648E-03     34.4774E-03
            1287     7.09454E-03     110.303E-03    -31.0846E+06    -16.2606E+06    -10.0053E+06    -27.3935E+06    -16.0743E-03     31.0425E-03    -14.9682E-03     41.7333E-03    -16.1941E-03     31.0233E-03    -14.9496E-03     41.3748E-03
            1288     7.98048E-03     110.348E-03    -28.4193E+06    -15.4136E+06    -4.71349E+06    -29.2639E+06    -16.9128E-03     32.0268E-03    -15.1140E-03     49.4450E-03    -17.0297E-03     32.0018E-03    -15.0740E-03     49.0604E-03
            1289     8.86546E-03     110.399E-03    -21.9027E+06    -13.1142E+06     4.00617E+06    -28.4130E+06    -18.1042E-03     33.4279E-03    -15.3237E-03     57.9217E-03    -18.2072E-03     33.3950E-03    -15.2529E-03     57.5448E-03
            1290     9.74953E-03     110.459E-03    -11.1469E+06    -6.30202E+06     16.9076E+06    -22.8255E+06    -19.7127E-03     35.3227E-03    -15.6100E-03     67.0543E-03    -19.7953E-03     35.2943E-03    -15.5001E-03     66.7441E-03
            1291     10.6322E-03     110.526E-03     706.412E+03    -2.52976E+06     30.3270E+06    -15.9634E+06    -21.8056E-03     37.7903E-03    -15.9847E-03     76.5126E-03    -21.8622E-03     37.7525E-03    -15.8304E-03     76.2820E-03
            1292     11.5132E-03     110.603E-03     8.86841E+06     6.09954E+06     40.7266E+06    -10.5450E+06    -24.4993E-03     40.9430E-03    -16.4437E-03     86.3586E-03    -24.5569E-03     40.9358E-03    -16.2617E-03     86.1832E-03
            1293     12.3920E-03     110.688E-03     9.92288E+06     13.3333E+06     45.7826E+06    -7.11195E+06    -27.9794E-03     44.9927E-03    -17.0133E-03     96.9305E-03    -28.0751E-03     45.0384E-03    -16.8181E-03     96.7751E-03
            1294     13.2678E-03     110.784E-03     10.8722E+06     5.74120E+06     44.5024E+06    -6.93113E+06    -32.3207E-03     50.0422E-03    -17.7216E-03     108.239E-03    -32.4448E-03     50.0966E-03    -17.5231E-03     108.046E-03
            1295     14.1394E-03     110.889E-03     12.3969E+06     32.4472E+06     49.6543E+06    -4.45255E+06    -37.3862E-03     55.9657E-03    -18.5795E-03     118.503E-03    -37.6234E-03     56.2186E-03    -18.3963E-03     118.280E-03
            1296     15.0076E-03     111.004E-03     4.45602E+06     19.4727E+06     38.5365E+06    -6.51298E+06    -44.2917E-03     63.9456E-03    -19.6538E-03     120.466E-03    -44.6282E-03     64.2563E-03    -19.4959E-03     120.120E-03
            1297     15.8672E-03     111.111E-03    -2.88340E+06     19.6116E+06     32.6496E+06    -9.55394E+06    -52.9308E-03     73.9818E-03    -21.0510E-03     111.165E-03    -53.3885E-03     74.4058E-03    -20.9120E-03     110.645E-03
            1298     16.7181E-03     111.208E-03    -975.848E+03     2.78848E+06     30.2893E+06    -645.311E+03    -59.9206E-03     82.7027E-03    -22.7821E-03     79.0507E-03    -60.2481E-03     82.9501E-03    -22.6333E-03     78.6340E-03
            1299     886.533E-06     111.134E-03    -24.0809E+06    -25.9263E+06    -23.5272E+06    -4.36958E+06    -15.1765E-03     30.3660E-03    -15.1895E-03     4.05372E-03    -15.2252E-03     30.3055E-03    -15.2346E-03     3.99660E-03
            1300     1.77323E-03     111.141E-03    -23.4044E+06    -23.1012E+06    -20.6948E+06    -8.18778E+06    -15.3183E-03     30.5361E-03    -15.2179E-03     7.68734E-03    -15.3720E-03     30.4847E-03    -15.2539E-03     7.58023E-03
            1301     2.65955E-03     111.151E-03    -21.9854E+06    -21.6021E+06    -15.4099E+06    -11.5211E+06    -15.4856E-03     30.7851E-03    -15.2995E-03     11.4263E-03    -15.5422E-03     30.7316E-03    -15.3134E-03     11.2754E-03
            1302     3.54587E-03     111.167E-03    -20.0992E+06    -19.3478E+06    -9.81763E+06    -14.7794E+06    -15.6777E-03     31.0700E-03    -15.3924E-03     15.3633E-03    -15.7365E-03     31.0172E-03    -15.3843E-03     15.1695E-03
            1303     4.43192E-03     111.187E-03    -18.3434E+06    -15.7940E+06    -4.74582E+06    -17.7221E+06    -15.8658E-03     31.3520E-03    -15.4861E-03     19.6024E-03    -15.9288E-03     31.3074E-03    -15.4604E-03     19.3698E-03
            1304     5.31797E-03     111.213E-03    -16.8698E+06    -13.1399E+06     32.6986E+03    -19.9341E+06    -16.0569E-03     31.6376E-03    -15.5808E-03     24.2881E-03    -16.1237E-03     31.5977E-03    -15.5371E-03     24.0259E-03
            1305     6.20382E-03     111.244E-03    -15.6547E+06    -11.8239E+06     4.39431E+06    -21.7775E+06    -16.2693E-03     31.9446E-03    -15.6753E-03     29.5539E-03    -16.3389E-03     31.9038E-03    -15.6135E-03     29.2670E-03
            1306     7.08963E-03     111.282E-03    -15.7414E+06    -9.97043E+06     7.65480E+06    -23.8265E+06    -16.5266E-03     32.2932E-03    -15.7666E-03     35.6321E-03    -16.6048E-03     32.2579E-03    -15.6911E-03     35.3179E-03
            1307     7.97522E-03     111.326E-03    -17.6720E+06    -9.87352E+06     8.73130E+06    -26.1771E+06    -16.9452E-03     32.8062E-03    -15.8610E-03     42.6828E-03    -17.0359E-03     32.7736E-03    -15.7774E-03     42.3371E-03
            1308     8.86061E-03     111.379E-03    -20.7518E+06    -10.3995E+06     9.11591E+06    -28.3706E+06    -17.7029E-03     33.6836E-03    -15.9807E-03     50.8472E-03    -17.8105E-03     33.6541E-03    -15.8899E-03     50.4713E-03
            1309     9.74515E-03     111.439E-03    -21.2362E+06    -9.67231E+06     12.3278E+06    -28.4763E+06    -18.9088E-03     35.0665E-03    -16.1576E-03     60.1060E-03    -19.0275E-03     35.0397E-03    -16.0512E-03     59.7254E-03
            1310     10.6285E-03     111.509E-03    -15.9738E+06    -7.23882E+06     21.6635E+06    -25.0616E+06    -20.7308E-03     37.1585E-03    -16.4277E-03     70.2153E-03    -20.8457E-03     37.1282E-03    -16.2857E-03     69.8727E-03
            1311     11.5101E-03     111.588E-03    -6.04485E+06    -1.13636E+06     34.2250E+06    -18.2833E+06    -23.3284E-03     40.1321E-03    -16.8037E-03     81.0180E-03    -23.4308E-03     40.1099E-03    -16.6222E-03     80.7520E-03
            1312     12.3896E-03     111.677E-03     4.65312E+06     6.82846E+06     44.5971E+06    -8.57193E+06    -26.6836E-03     43.9761E-03    -17.2925E-03     92.5168E-03    -26.7778E-03     43.9820E-03    -17.0862E-03     92.3571E-03
            1313     13.2663E-03     111.776E-03     7.43761E+06     8.93403E+06     46.6009E+06    -4.93095E+06    -30.6970E-03     48.5990E-03    -17.9020E-03     104.908E-03    -30.8185E-03     48.6438E-03    -17.6928E-03     104.763E-03
            1314     14.1401E-03     111.888E-03     4.96697E+06     23.3499E+06     47.4477E+06    -1.00318E+06    -35.5774E-03     54.2326E-03    -18.6552E-03     116.986E-03    -35.7940E-03     54.4125E-03    -18.4590E-03     116.839E-03
            1315     15.0092E-03     112.008E-03    -341.499E+03     22.9352E+06     43.9610E+06     8.69534E+06    -42.2293E-03     61.8566E-03    -19.6273E-03     123.323E-03    -42.5541E-03     62.1350E-03    -19.4402E-03     123.215E-03
            1316     15.8708E-03     112.130E-03    -13.5148E+06     30.2498E+06     31.5710E+06     3.31943E+06    -52.3444E-03     73.2430E-03    -20.8987E-03     121.159E-03    -52.8603E-03     73.7288E-03    -20.7651E-03     120.813E-03
            1317     16.7207E-03     112.240E-03    -17.8864E+06    -4.51019E+06     26.2297E+06    -7.64899E+06    -61.5736E-03     84.2306E-03    -22.6570E-03     88.8434E-03    -61.9967E-03     84.4996E-03    -22.4934E-03     88.2924E-03
            1318     885.548E-06     112.113E-03    -8.03221E+06    -17.1769E+06    -7.28211E+06     -4.2537E+06    -16.6863E-03     33.3386E-03    -16.6523E-03     3.17857E-03    -16.6911E-03     33.2749E-03    -16.6522E-03     3.12259E-03
            1319     1.77062E-03     112.119E-03    -7.61929E+06    -15.0517E+06    -4.53489E+06    -7.37810E+06    -16.8916E-03     33.6191E-03    -16.7275E-03     5.92896E-03    -16.9017E-03     33.5615E-03    -16.7173E-03     5.83164E-03
            1320     2.65578E-03     112.131E-03    -6.86303E+06    -14.0278E+06    -514.560E+03    -10.5489E+06    -17.1273E-03     33.9718E-03    -16.8445E-03     8.76888E-03    -17.1411E-03     33.9126E-03    -16.8168E-03     8.62952E-03
            1321     3.54058E-03     112.146E-03    -5.71539E+06    -12.1085E+06     4.21824E+06    -13.4918E+06    -17.3742E-03     34.3493E-03    -16.9751E-03     11.7393E-03    -17.3922E-03     34.2914E-03    -16.9282E-03     11.5607E-03
            1322     4.42522E-03     112.167E-03    -4.72504E+06    -9.64052E+06     9.00997E+06    -15.6770E+06    -17.6215E-03     34.7327E-03    -17.1112E-03     14.9854E-03    -17.6455E-03     34.6791E-03    -17.0453E-03     14.7774E-03
            1323     5.30959E-03     112.192E-03    -4.27894E+06    -7.86649E+06     13.3788E+06    -17.2247E+06    -17.8485E-03     35.0965E-03    -17.2480E-03     18.6027E-03    -17.8797E-03     35.0453E-03    -17.1635E-03     18.3733E-03
            1324     6.19382E-03     112.224E-03    -4.54710E+06    -7.06767E+06     16.9772E+06    -18.3258E+06    -18.0176E-03     35.3956E-03    -17.3780E-03     22.7137E-03    -18.0571E-03     35.3442E-03    -17.2763E-03     22.4689E-03
            1325     7.07793E-03     112.261E-03    -5.28968E+06    -5.39219E+06     19.8552E+06    -18.9775E+06    -18.1169E-03     35.6085E-03    -17.4916E-03     27.4967E-03    -18.1675E-03     35.5631E-03    -17.3768E-03     27.2424E-03
            1326     7.96219E-03     112.306E-03    -6.80245E+06    -4.92799E+06     21.6619E+06    -19.6078E+06    -18.2290E-03     35.8184E-03    -17.5895E-03     33.1168E-03    -18.2914E-03     35.7759E-03    -17.4641E-03     32.8532E-03
            1327     8.84638E-03     112.358E-03    -9.42831E+06    -5.57137E+06     22.2619E+06    -20.6183E+06    -18.4523E-03     36.1309E-03    -17.6786E-03     39.8071E-03    -18.5290E-03     36.0894E-03    -17.5456E-03     39.5292E-03
            1328     9.73045E-03     112.420E-03    -13.8990E+06    -6.16971E+06     21.6565E+06    -22.5034E+06    -18.9189E-03     36.6911E-03    -17.7722E-03     47.8209E-03    -19.0180E-03     36.6558E-03    -17.6348E-03     47.5169E-03
            1329     10.6143E-03     112.490E-03    -18.9169E+06    -7.73917E+06     21.3737E+06    -23.7114E+06    -19.9266E-03     37.8283E-03    -17.9017E-03     57.4136E-03    -20.0509E-03     37.7959E-03    -17.7562E-03     57.0911E-03
            1330     11.4969E-03     112.572E-03    -20.7379E+06    -5.52804E+06     25.5057E+06    -22.7413E+06    -21.7680E-03     39.8799E-03    -18.1119E-03     68.6083E-03    -21.9160E-03     39.8608E-03    -17.9463E-03     68.2924E-03
            1331     12.3772E-03     112.664E-03    -15.9541E+06    -3.66286E+06     32.6310E+06    -17.8327E+06    -24.4737E-03     42.9051E-03    -18.4314E-03     81.2084E-03    -24.6214E-03     42.8889E-03    -18.2398E-03     80.9445E-03
            1332     13.2553E-03     112.768E-03    -4.32344E+06     5.30622E+06     43.3260E+06    -8.96042E+06    -28.2102E-03     47.0925E-03    -18.8822E-03     94.9638E-03    -28.3503E-03     47.1108E-03    -18.6670E-03     94.7920E-03
            1333     14.1304E-03     112.882E-03     5.93375E+06     13.0655E+06     50.8253E+06    -725.728E+03    -32.9444E-03     52.4290E-03    -19.4846E-03     108.522E-03    -33.0965E-03     52.5017E-03    -19.2580E-03     108.416E-03
            1334     15.0016E-03     113.011E-03     15.1668E+06     7.41177E+06     50.2968E+06     11.7505E+06    -38.1637E-03     58.4112E-03    -20.2474E-03     117.917E-03    -38.3241E-03     58.5066E-03    -20.0287E-03     117.912E-03
            1335     15.8693E-03     113.140E-03     26.1001E+06     49.4494E+06     51.4244E+06     15.3394E+06    -46.1257E-03     67.3152E-03    -21.1896E-03     125.547E-03    -46.4215E-03     67.7319E-03    -21.0420E-03     125.457E-03
            1336     16.7246E-03     113.276E-03     23.6062E+06     6.98494E+06     44.9828E+06     3.83535E+06    -58.2693E-03     80.9301E-03    -22.6608E-03     99.6010E-03    -58.5088E-03     81.1507E-03    -22.4803E-03     99.2365E-03
            1337     883.056E-06     113.094E-03     5.41300E+06    -9.38351E+06     6.45780E+06    -3.50606E+06    -19.3345E-03     38.5653E-03    -19.2309E-03     2.22303E-03    -19.3036E-03     38.5009E-03    -19.1928E-03     2.17636E-03
            1338     1.76629E-03     113.102E-03     5.30837E+06    -8.21612E+06     8.62230E+06    -6.06707E+06    -19.5998E-03     38.9662E-03    -19.3665E-03     3.74309E-03    -19.5744E-03     38.9046E-03    -19.3192E-03     3.66208E-03
            1339     2.64892E-03     113.113E-03     5.45845E+06    -7.26533E+06     11.8272E+06    -8.60841E+06    -19.8374E-03     39.3536E-03    -19.5162E-03     5.38650E-03    -19.8175E-03     39.2921E-03    -19.4545E-03     5.27131E-03
            1340     3.53139E-03     113.130E-03     5.09237E+06    -6.08932E+06     15.4324E+06    -10.8327E+06    -20.1090E-03     39.7808E-03    -19.6718E-03     7.22287E-03    -20.0981E-03     39.7206E-03    -19.5932E-03     7.07751E-03
            1341     4.41354E-03     113.150E-03     4.39097E+06    -4.88113E+06     19.3167E+06    -12.2905E+06    -20.4169E-03     40.2571E-03    -19.8402E-03     9.30317E-03    -20.4172E-03     40.1987E-03    -19.7429E-03     9.13742E-03
            1342     5.29538E-03     113.176E-03     3.34122E+06    -4.04605E+06     22.8079E+06    -12.9216E+06    -20.7116E-03     40.7289E-03    -20.0173E-03     11.6482E-03    -20.7238E-03     40.6714E-03    -19.9022E-03     11.4727E-03
            1343     6.17694E-03     113.207E-03     2.03278E+06    -3.49143E+06     25.7226E+06    -13.4269E+06    -20.9492E-03     41.1434E-03    -20.1943E-03     14.3390E-03    -20.9735E-03     41.0868E-03    -20.0635E-03     14.1553E-03
            1344     7.05836E-03     113.245E-03     687.523E+03    -2.58555E+06     28.5705E+06    -13.8446E+06    -21.1303E-03     41.4962E-03    -20.3659E-03     17.4755E-03    -21.1675E-03     41.4426E-03    -20.2203E-03     17.2848E-03
            1345     7.93953E-03     113.289E-03    -947.961E+03    -2.69264E+06     30.6558E+06    -13.4113E+06    -21.2215E-03     41.7473E-03    -20.5258E-03     21.1770E-03    -21.2705E-03     41.6932E-03    -20.3673E-03     20.9903E-03
            1346     8.82064E-03     113.342E-03    -3.27086E+06    -2.21207E+06     32.0138E+06    -13.3848E+06    -21.1813E-03     41.8467E-03    -20.6655E-03     25.6077E-03    -21.2456E-03     41.7973E-03    -20.4974E-03     25.4197E-03
            1347     9.70209E-03     113.402E-03    -5.96991E+06    -2.54158E+06     32.2118E+06    -13.5876E+06    -21.1055E-03     41.8869E-03    -20.7814E-03     30.9656E-03    -21.1845E-03     41.8407E-03    -20.6080E-03     30.7735E-03
            1348     10.5835E-03     113.474E-03    -9.27637E+06    -3.85676E+06     30.3411E+06    -14.6818E+06    -21.1159E-03     41.9910E-03    -20.8751E-03     37.7381E-03    -21.2084E-03     41.9474E-03    -20.7044E-03     37.5303E-03
            1349     11.4652E-03     113.555E-03    -14.0452E+06    -4.95256E+06     27.9363E+06    -15.3558E+06    -21.3612E-03     42.3260E-03    -20.9648E-03     46.4785E-03    -21.4747E-03     42.2899E-03    -20.7976E-03     46.2597E-03
            1350     12.3469E-03     113.649E-03    -19.7529E+06    -5.11014E+06     27.1764E+06    -16.0332E+06    -22.4099E-03     43.4985E-03    -21.0886E-03     57.4779E-03    -22.5550E-03     43.4759E-03    -20.9166E-03     57.2456E-03
            1351     13.2272E-03     113.754E-03    -19.4090E+06    -104.987E+03     31.8992E+06    -18.2681E+06    -24.7632E-03     46.0638E-03    -21.3006E-03     71.2577E-03    -24.9303E-03     46.0693E-03    -21.1128E-03     70.9857E-03
            1352     14.1037E-03     113.876E-03    -12.5136E+06    -2.52165E+06     36.1884E+06    -8.74280E+06    -27.8532E-03     49.4736E-03    -21.6203E-03     86.1690E-03    -28.0066E-03     49.4698E-03    -21.4176E-03     86.0010E-03
            1353     14.9776E-03     114.006E-03    -1.57342E+06    -581.513E+03     40.7886E+06    -3.33744E+06    -31.4097E-03     53.4516E-03    -22.0420E-03     98.7758E-03    -31.5497E-03     53.4673E-03    -21.8349E-03     98.6456E-03
            1354     15.8490E-03     114.143E-03     9.69250E+06     40.7844E+06     47.1824E+06     1.69491E+06    -34.9530E-03     57.4700E-03    -22.5170E-03     111.110E-03    -35.1761E-03     57.7370E-03    -22.3543E-03     110.987E-03
            1355     16.7222E-03     114.288E-03     10.3286E+06     9.78697E+06     28.6777E+06     18.1014E+06    -45.6430E-03     68.9165E-03    -23.2735E-03     102.222E-03    -45.8435E-03     69.1097E-03    -23.1593E-03     102.184E-03
            1356     880.087E-06     114.084E-03     14.9651E+06    -3.59674E+06     15.8605E+06    -2.23378E+06    -23.3405E-03     46.7248E-03    -23.3842E-03     598.041E-06    -23.2845E-03     46.6612E-03    -23.3214E-03     567.858E-06
            1357     1.75915E-03     114.091E-03     14.0631E+06    -3.11710E+06     17.3605E+06    -3.86211E+06    -23.5439E-03     46.9720E-03    -23.4281E-03     891.214E-06    -23.4952E-03     46.9099E-03    -23.3572E-03     838.919E-06
            1358     2.63844E-03     114.103E-03     12.6773E+06    -2.57096E+06     19.7457E+06    -5.18938E+06    -23.7763E-03     47.3254E-03    -23.5491E-03     1.32682E-03    -23.7389E-03     47.2647E-03    -23.4650E-03     1.25624E-03
            1359     3.51744E-03     114.119E-03     10.8938E+06    -2.03155E+06     22.7694E+06    -6.16267E+06    -24.1001E-03     47.8076E-03    -23.7075E-03     1.87999E-03    -24.0768E-03     47.7478E-03    -23.6065E-03     1.79561E-03
            1360     4.39602E-03     114.140E-03     8.66971E+06    -1.67693E+06     25.7862E+06    -6.84727E+06    -24.4955E-03     48.3975E-03    -23.9020E-03     2.52765E-03    -24.4884E-03     48.3384E-03    -23.7832E-03     2.43310E-03
            1361     5.27419E-03     114.166E-03     6.48964E+06    -1.80385E+06     28.7528E+06    -7.13685E+06    -24.9238E-03     49.0514E-03    -24.1276E-03     3.27741E-03    -24.9320E-03     48.9907E-03    -23.9907E-03     3.17771E-03
            1362     6.15188E-03     114.199E-03     4.50858E+06    -993.535E+03     32.0945E+06    -7.38561E+06    -25.3874E-03     49.7678E-03    -24.3804E-03     4.17164E-03    -25.4118E-03     49.7092E-03    -24.2250E-03     4.06717E-03
            1363     7.02898E-03     114.236E-03     2.23096E+06    -1.00548E+06     34.7157E+06    -7.31396E+06    -25.8213E-03     50.4746E-03    -24.6533E-03     5.24740E-03    -25.8613E-03     50.4156E-03    -24.4815E-03     5.14219E-03
            1364     7.90556E-03     114.281E-03     94.8033E+03    -1.38993E+06     36.7126E+06    -7.19190E+06    -26.1349E-03     51.0702E-03    -24.9353E-03     6.56770E-03    -26.1884E-03     51.0096E-03    -24.7498E-03     6.46231E-03
            1365     8.78191E-03     114.332E-03    -1.37377E+06    -795.999E+03     38.4040E+06    -6.89385E+06    -26.2959E-03     51.5095E-03    -25.2135E-03     8.18137E-03    -26.3607E-03     51.4518E-03    -25.0184E-03     8.07798E-03
            1366     9.65766E-03     114.393E-03    -2.97898E+06    -962.156E+03     38.3990E+06    -6.81280E+06    -26.2297E-03     51.7036E-03    -25.4739E-03     10.1971E-03    -26.3030E-03     51.6477E-03    -25.2762E-03     10.0929E-03
            1367     10.5336E-03     114.462E-03    -5.39424E+06    -1.30364E+06     37.0343E+06    -6.83388E+06    -25.7638E-03     51.4651E-03    -25.7013E-03     12.8529E-03    -25.8477E-03     51.4135E-03    -25.5064E-03     12.7467E-03
            1368     11.4097E-03     114.543E-03    -7.78718E+06    -3.04532E+06     34.6925E+06    -7.19392E+06    -24.9696E-03     50.8523E-03    -25.8827E-03     16.5021E-03    -25.0608E-03     50.7996E-03    -25.6935E-03     16.3896E-03
            1369     12.2870E-03     114.634E-03    -8.84533E+06    -2.54682E+06     32.6118E+06    -7.63498E+06    -24.2021E-03     50.2217E-03    -26.0195E-03     21.9003E-03    -24.2980E-03     50.1777E-03    -25.8400E-03     21.7799E-03
            1370     13.1641E-03     114.742E-03    -15.4953E+06     4.18600E+06     29.6764E+06    -9.93397E+06    -23.2710E-03     49.3841E-03    -26.1131E-03     29.9725E-03    -23.4080E-03     49.3909E-03    -25.9483E-03     29.8201E-03
            1371     14.0434E-03     114.861E-03    -23.8052E+06    -12.7324E+06     19.0357E+06    -9.25360E+06    -22.0842E-03     48.2323E-03    -26.1480E-03     40.1709E-03    -22.2258E-03     48.1866E-03    -25.9999E-03     40.0252E-03
            1372     14.9238E-03     114.995E-03    -23.6978E+06     5.87677E+06     23.0758E+06    -11.9021E+06    -22.0290E-03     48.1792E-03    -26.1502E-03     51.8789E-03    -22.2103E-03     48.2303E-03    -26.0090E-03     51.6916E-03
            1373     15.8016E-03     115.136E-03    -26.2313E+06     14.5436E+06     25.2217E+06    -3.13944E+06    -23.7035E-03     49.8989E-03    -26.1954E-03     59.2320E-03    -23.9302E-03     50.0099E-03    -26.0523E-03     59.1458E-03
            1374     16.6809E-03     115.276E-03    -20.1612E+06    -7.53721E+06     11.7764E+06     11.4245E+06    -20.8022E-03     46.9320E-03    -26.1298E-03     57.3107E-03    -20.9760E-03     46.9820E-03    -26.0307E-03     57.3663E-03
            1375     16.6728E-03     57.1707E-03    -3.46458E+06     111.028E+06     62.6245E+06     85.2070E+03    -24.8548E-03     50.2552E-03    -25.4004E-03     38.4997E-03    -25.2372E-03     50.8379E-03    -25.2433E-03     38.4411E-03
            1376     15.7963E-03     57.1179E-03    -7.43816E+06     107.733E+06     47.5244E+06     656.056E+03    -25.2729E-03     50.6323E-03    -25.3594E-03     57.1124E-03    -25.7108E-03     51.2884E-03    -25.2672E-03     57.0311E-03
            1377     14.9178E-03     57.0622E-03    -10.1724E+06     96.2383E+06     30.6770E+06     193.592E+03    -25.5001E-03     50.8211E-03    -25.3211E-03     64.1812E-03    -25.9107E-03     51.4483E-03    -25.2925E-03     64.0686E-03
            1378     14.0397E-03     56.9969E-03    -10.2898E+06     47.7156E+06     10.9286E+06    -357.380E+03    -26.0351E-03     51.3475E-03    -25.3124E-03     67.7159E-03    -26.3331E-03     51.7467E-03    -25.3120E-03     67.5809E-03
            1379     13.1626E-03     56.9342E-03    -11.3247E+06    -4.38764E+06     1.88507E+06     385.898E+03    -26.0935E-03     51.4474E-03    -25.3539E-03     63.5846E-03    -26.2653E-03     51.5579E-03    -25.3217E-03     63.4669E-03
            1380     12.2849E-03     56.8763E-03    -13.1189E+06    -24.5806E+06     3.51876E+06     278.232E+03    -25.9771E-03     51.3810E-03    -25.4038E-03     59.5449E-03    -26.0951E-03     51.3549E-03    -25.3316E-03     59.4425E-03
            1381     11.4072E-03     56.8215E-03    -14.5304E+06    -44.2446E+06     1.92394E+06    -58.2997E+03    -25.9801E-03     51.4173E-03    -25.4372E-03     56.3535E-03    -26.0522E-03     51.2751E-03    -25.3423E-03     56.2612E-03
            1382     10.5296E-03     56.7696E-03    -16.1515E+06    -54.7655E+06     3.61157E+06     354.519E+03    -25.9635E-03     51.4350E-03    -25.4716E-03     53.4316E-03    -26.0149E-03     51.2242E-03    -25.3507E-03     53.3585E-03
            1383     9.65209E-03     56.7203E-03    -18.0446E+06    -62.4493E+06     3.01277E+06     667.987E+03    -25.9018E-03     51.3914E-03    -25.4896E-03     50.0267E-03    -25.9386E-03     51.1336E-03    -25.3578E-03     49.9705E-03
            1384     8.77459E-03     56.6747E-03    -19.7013E+06    -69.8420E+06     2.19495E+06     624.396E+03    -25.8267E-03     51.3327E-03    -25.5060E-03     46.2692E-03    -25.8508E-03     51.0325E-03    -25.3652E-03     46.2237E-03
            1385     7.89707E-03     56.6326E-03    -21.7958E+06    -76.3184E+06    -109.831E+03     225.168E+03    -25.7492E-03     51.2645E-03    -25.5152E-03     42.2698E-03    -25.7643E-03     50.9315E-03    -25.3735E-03     42.2291E-03
            1386     7.01954E-03     56.5946E-03    -24.4970E+06    -85.0143E+06    -3.90012E+06     115.623E+03    -25.6822E-03     51.2042E-03    -25.5220E-03     38.0061E-03    -25.6876E-03     50.8321E-03    -25.3827E-03     37.9724E-03
            1387     6.14205E-03     56.5606E-03    -27.1908E+06    -93.7101E+06    -7.97420E+06     227.880E+03    -25.6292E-03     51.1566E-03    -25.5274E-03     33.5674E-03    -25.6258E-03     50.7471E-03    -25.3920E-03     33.5423E-03
            1388     5.26456E-03     56.5310E-03    -30.0488E+06    -101.434E+06    -12.8054E+06     85.7022E+03    -25.5818E-03     51.1092E-03    -25.5274E-03     28.9944E-03    -25.5718E-03     50.6696E-03    -25.4008E-03     28.9734E-03
            1389     4.38711E-03     56.5056E-03    -32.9649E+06    -107.437E+06    -18.8081E+06     80.6709E+03    -25.5376E-03     51.0566E-03    -25.5190E-03     24.3173E-03    -25.5228E-03     50.5979E-03    -25.4094E-03     24.3014E-03
            1390     3.50962E-03     56.4849E-03    -35.7767E+06    -115.488E+06    -25.1788E+06     56.6833E+03    -25.5122E-03     51.0232E-03    -25.5110E-03     19.5568E-03    -25.4892E-03     50.5362E-03    -25.4176E-03     19.5449E-03
            1391     2.63224E-03     56.4686E-03    -38.3341E+06    -122.588E+06    -31.0640E+06     55.5843E+03    -25.4985E-03     51.0002E-03    -25.5017E-03     14.7606E-03    -25.4685E-03     50.4890E-03    -25.4237E-03     14.7523E-03
            1392     1.75481E-03     56.4569E-03    -40.5334E+06    -126.012E+06    -36.4113E+06     124.902E+03    -25.4819E-03     50.9687E-03    -25.4868E-03     9.95479E-03    -25.4495E-03     50.4507E-03    -25.4274E-03     9.95062E-03
            1393     877.400E-06     56.4497E-03    -41.9709E+06    -125.207E+06    -40.4934E+06     93.5375E+03    -25.4833E-03     50.9367E-03    -25.4533E-03     5.37538E-03    -25.4530E-03     50.4304E-03    -25.4134E-03     5.37354E-03
            1394     16.6729E-03     56.1705E-03    -3.72229E+06     110.303E+06     62.5621E+06     719.568E+03    -24.6813E-03     50.0886E-03    -25.4073E-03     37.8345E-03    -25.0612E-03     50.6655E-03    -25.2490E-03     37.7853E-03
            1395     15.7956E-03     56.1210E-03    -7.23100E+06     108.181E+06     48.4960E+06     162.897E+03    -25.3297E-03     50.7012E-03    -25.3715E-03     56.4650E-03    -25.7674E-03     51.3567E-03    -25.2754E-03     56.3767E-03
            1396     14.9176E-03     56.0653E-03    -9.10509E+06     97.2677E+06     31.2623E+06    -700.815E+03    -25.6975E-03     51.0190E-03    -25.3214E-03     64.0362E-03    -26.1063E-03     51.6500E-03    -25.2929E-03     63.9102E-03
            1397     14.0403E-03     55.9988E-03    -12.0330E+06     46.3344E+06     9.27029E+06    -148.123E+03    -26.0069E-03     51.3104E-03    -25.3035E-03     67.4615E-03    -26.3090E-03     51.7074E-03    -25.3069E-03     67.3291E-03
            1398     13.1625E-03     55.9372E-03    -13.6526E+06    -4.36796E+06     1.04630E+06     381.256E+03    -26.0449E-03     51.3941E-03    -25.3492E-03     63.4323E-03    -26.2268E-03     51.5090E-03    -25.3179E-03     63.3148E-03
            1399     12.2847E-03     55.8788E-03    -13.8043E+06    -24.0575E+06     3.40672E+06     80.8727E+03    -25.9600E-03     51.3611E-03    -25.4011E-03     59.6050E-03    -26.0820E-03     51.3389E-03    -25.3292E-03     59.5002E-03
            1400     11.4073E-03     55.8244E-03    -15.0673E+06    -44.5146E+06     1.67975E+06     257.456E+03    -26.0057E-03     51.4397E-03    -25.4340E-03     56.3328E-03    -26.0799E-03     51.2975E-03    -25.3392E-03     56.2443E-03
            1401     10.5297E-03     55.7720E-03    -16.8573E+06    -54.9718E+06     3.43050E+06     407.157E+03    -25.9593E-03     51.4268E-03    -25.4675E-03     53.3974E-03    -26.0137E-03     51.2162E-03    -25.3462E-03     53.3250E-03
            1402     9.65220E-03     55.7231E-03    -18.2842E+06    -62.2310E+06     2.94085E+06     187.787E+03    -25.8799E-03     51.3652E-03    -25.4853E-03     50.0344E-03    -25.9181E-03     51.1090E-03    -25.3538E-03     49.9720E-03
            1403     8.77460E-03     55.6772E-03    -19.7783E+06    -69.7292E+06     2.02152E+06    -32.8987E+03    -25.8135E-03     51.3159E-03    -25.5025E-03     46.3084E-03    -25.8378E-03     51.0167E-03    -25.3626E-03     46.2545E-03
            1404     7.89708E-03     55.6353E-03    -21.8174E+06    -76.3513E+06     -16.615E+03     353.523E+03    -25.7483E-03     51.2619E-03    -25.5136E-03     42.2694E-03    -25.7635E-03     50.9287E-03    -25.3714E-03     42.2304E-03
            1405     7.01956E-03     55.5972E-03    -24.4898E+06    -84.8082E+06    -3.81574E+06     413.885E+03    -25.6859E-03     51.2054E-03    -25.5194E-03     38.0078E-03    -25.6917E-03     50.8342E-03    -25.3800E-03     37.9779E-03
            1406     6.14206E-03     55.5633E-03    -27.3302E+06    -93.6364E+06    -8.16480E+06     163.090E+03    -25.6289E-03     51.1521E-03    -25.5232E-03     33.5666E-03    -25.6260E-03     50.7435E-03    -25.3887E-03     33.5406E-03
            1407     5.26458E-03     55.5336E-03    -30.0922E+06    -101.254E+06    -13.0510E+06     158.300E+03    -25.5789E-03     51.1013E-03    -25.5223E-03     28.9892E-03    -25.5690E-03     50.6629E-03    -25.3971E-03     28.9692E-03
            1408     4.38711E-03     55.5084E-03    -32.9504E+06    -107.510E+06    -18.8854E+06     127.488E+03    -25.5380E-03     51.0525E-03    -25.5145E-03     24.3074E-03    -25.5229E-03     50.5935E-03    -25.4052E-03     24.2921E-03
            1409     3.50969E-03     55.4875E-03    -35.7145E+06    -115.349E+06    -25.1702E+06     168.850E+03    -25.5082E-03     51.0143E-03    -25.5061E-03     19.5480E-03    -25.4850E-03     50.5278E-03    -25.4129E-03     19.5375E-03
            1410     2.63221E-03     55.4713E-03    -38.3591E+06    -122.541E+06    -31.0512E+06     89.9413E+03    -25.4877E-03     50.9859E-03    -25.4982E-03     14.7524E-03    -25.4579E-03     50.4749E-03    -25.4201E-03     14.7446E-03
            1411     1.75480E-03     55.4595E-03    -40.5870E+06    -125.872E+06    -36.2717E+06    -106.285E+03    -25.4772E-03     50.9627E-03    -25.4855E-03     9.94514E-03    -25.4455E-03     50.4453E-03    -25.4254E-03     9.93797E-03
            1412     877.396E-06     55.4525E-03    -42.2200E+06    -125.267E+06    -40.7231E+06    -280.765E+03    -25.4808E-03     50.9322E-03    -25.4513E-03     5.36734E-03    -25.4513E-03     50.4263E-03    -25.4121E-03     5.36066E-03
            1413     16.6758E-03     55.1778E-03    -3.01674E+06     111.614E+06     64.4025E+06     827.371E+03    -25.1115E-03     50.5047E-03    -25.3932E-03     37.5833E-03    -25.4921E-03     51.0841E-03    -25.2286E-03     37.5353E-03
            1414     15.7948E-03     55.1218E-03    -5.21788E+06     108.439E+06     48.7592E+06    -210.250E+03    -25.0279E-03     50.3729E-03    -25.3450E-03     56.2286E-03    -25.4558E-03     51.0258E-03    -25.2509E-03     56.1379E-03
            1415     14.9187E-03     55.0681E-03    -9.47249E+06     95.6969E+06     30.0441E+06     76.8782E+03    -25.6095E-03     50.9128E-03    -25.3034E-03     63.7626E-03    -26.0162E-03     51.5385E-03    -25.2782E-03     63.6463E-03
            1416     14.0401E-03     55.0016E-03    -11.9013E+06     46.7488E+06     10.4547E+06     560.719E+03    -25.9390E-03     51.2366E-03    -25.2977E-03     67.4935E-03    -26.2427E-03     51.6338E-03    -25.2959E-03     67.3706E-03
            1417     13.1626E-03     54.9398E-03    -12.2410E+06    -4.23785E+06     1.98488E+06    -426.075E+03    -25.9479E-03     51.2935E-03    -25.3455E-03     63.3224E-03    -26.1241E-03     51.4054E-03    -25.3117E-03     63.1948E-03
            1418     12.2849E-03     54.8816E-03    -13.3659E+06    -24.3626E+06     3.85642E+06     42.6307E+03    -25.9795E-03     51.3789E-03    -25.3994E-03     59.6339E-03    -26.0998E-03     51.3541E-03    -25.3254E-03     59.5283E-03
            1419     11.4073E-03     54.8268E-03    -14.8098E+06    -44.6349E+06     1.89156E+06     394.427E+03    -25.9969E-03     51.4275E-03    -25.4306E-03     56.3651E-03    -26.0699E-03     51.2839E-03    -25.3349E-03     56.2784E-03
            1420     10.5298E-03     54.7748E-03    -16.0397E+06    -54.8517E+06     3.77291E+06     295.024E+03    -25.9280E-03     51.3932E-03    -25.4652E-03     53.4479E-03    -25.9789E-03     51.1814E-03    -25.3435E-03     53.3742E-03
            1421     9.65212E-03     54.7256E-03    -17.7915E+06    -61.6323E+06     3.14251E+06    -100.879E+03    -25.8693E-03     51.3534E-03    -25.4841E-03     50.1155E-03    -25.9062E-03     51.0992E-03    -25.3532E-03     50.0495E-03
            1422     8.77463E-03     54.6800E-03    -19.9909E+06    -70.0302E+06     1.73038E+06    -170.297E+03    -25.8235E-03     51.3247E-03    -25.5012E-03     46.3340E-03    -25.8481E-03     51.0247E-03    -25.3620E-03     46.2784E-03
            1423     7.89707E-03     54.6379E-03    -22.3579E+06    -76.8743E+06    -497.179E+03     221.876E+03    -25.7526E-03     51.2639E-03    -25.5113E-03     42.2717E-03    -25.7690E-03     50.9295E-03    -25.3699E-03     42.2310E-03
            1424     7.01958E-03     54.5999E-03    -24.6023E+06    -84.4199E+06    -3.84206E+06     402.219E+03    -25.6911E-03     51.2077E-03    -25.5165E-03     37.9960E-03    -25.6980E-03     50.8386E-03    -25.3777E-03     37.9660E-03
            1425     6.14208E-03     54.5659E-03    -27.1297E+06    -93.4524E+06    -8.03964E+06     232.563E+03    -25.6336E-03     51.1534E-03    -25.5198E-03     33.5484E-03    -25.6301E-03     50.7452E-03    -25.3852E-03     33.5232E-03
            1426     5.26461E-03     54.5363E-03    -29.9897E+06    -101.285E+06    -13.1443E+06     177.385E+03    -25.5786E-03     51.0960E-03    -25.5174E-03     28.9761E-03    -25.5680E-03     50.6575E-03    -25.3928E-03     28.9563E-03
            1427     4.38714E-03     54.5110E-03    -32.8669E+06    -107.444E+06    -19.1378E+06     270.520E+03    -25.5333E-03     51.0417E-03    -25.5084E-03     24.2970E-03    -25.5175E-03     50.5833E-03    -25.4007E-03     24.2835E-03
            1428     3.50965E-03     54.4902E-03    -35.6797E+06    -115.263E+06    -25.0617E+06     215.333E+03    -25.5076E-03     51.0089E-03    -25.5014E-03     19.5304E-03    -25.4845E-03     50.5227E-03    -25.4078E-03     19.5205E-03
            1429     2.63227E-03     54.4739E-03    -38.1338E+06    -122.230E+06    -30.8015E+06     50.2116E+03    -25.4858E-03     50.9780E-03    -25.4922E-03     14.7336E-03    -25.4556E-03     50.4679E-03    -25.4137E-03     14.7252E-03
            1430     1.75481E-03     54.4623E-03    -40.3828E+06    -125.809E+06    -36.3595E+06    -124.117E+03    -25.4667E-03     50.9457E-03    -25.4790E-03     9.94501E-03    -25.4339E-03     50.4284E-03    -25.4199E-03     9.93760E-03
            1431     877.427E-06     54.4550E-03    -42.3905E+06    -125.533E+06    -41.1295E+06    -2.41593E+03    -25.4595E-03     50.9228E-03    -25.4633E-03     5.38562E-03    -25.4298E-03     50.4164E-03    -25.4255E-03     5.38257E-03
            1432     16.6726E-03     54.1763E-03    -3.61573E+06     110.933E+06     63.1315E+06    -899.087E+03    -25.1623E-03     50.5582E-03    -25.3959E-03     37.6517E-03    -25.5450E-03     51.1388E-03    -25.2358E-03     37.5800E-03
            1433     15.7986E-03     54.1277E-03    -5.62674E+06     107.944E+06     48.7831E+06     1.12718E+06    -25.2940E-03     50.6401E-03    -25.3461E-03     57.5703E-03    -25.7253E-03     51.2931E-03    -25.2505E-03     57.4953E-03
            1434     14.9172E-03     54.0697E-03    -8.39890E+06     96.6829E+06     31.6598E+06     1.44762E+06    -25.5562E-03     50.8603E-03    -25.3041E-03     64.6602E-03    -25.9614E-03     51.4871E-03    -25.2738E-03     64.5627E-03
            1435     14.0408E-03     54.0046E-03    -9.96230E+06     47.7409E+06     11.1851E+06    -466.065E+03    -25.9195E-03     51.2151E-03    -25.2956E-03     67.3869E-03    -26.2154E-03     51.6126E-03    -25.2944E-03     67.2512E-03
            1436     13.1626E-03     53.9426E-03    -11.3118E+06    -4.79362E+06     1.82960E+06     136.538E+03    -25.9327E-03     51.2772E-03    -25.3445E-03     63.6777E-03    -26.1032E-03     51.3852E-03    -25.3120E-03     63.5579E-03
            1437     12.2849E-03     53.8843E-03    -13.0213E+06    -24.4036E+06     3.66364E+06     343.769E+03    -25.9886E-03     51.3881E-03    -25.3995E-03     59.8972E-03    -26.1069E-03     51.3629E-03    -25.3269E-03     59.7956E-03
            1438     11.4073E-03     53.8295E-03    -13.9036E+06    -44.7652E+06     1.85621E+06     87.6621E+03    -25.9931E-03     51.4245E-03    -25.4314E-03     56.4804E-03    -26.0611E-03     51.2789E-03    -25.3371E-03     56.3901E-03
            1439     10.5297E-03     53.7775E-03    -15.0865E+06    -54.6773E+06     3.85855E+06     236.823E+03    -25.9385E-03     51.4051E-03    -25.4666E-03     53.5021E-03    -25.9850E-03     51.1927E-03    -25.3462E-03     53.4277E-03
            1440     9.65214E-03     53.7283E-03    -16.9963E+06    -61.3446E+06     3.37066E+06     266.290E+03    -25.8990E-03     51.3840E-03    -25.4851E-03     50.1293E-03    -25.9326E-03     51.1298E-03    -25.3546E-03     50.0680E-03
            1441     8.77459E-03     53.6825E-03    -19.5497E+06    -70.3371E+06     1.68692E+06     414.270E+03    -25.8416E-03     51.3419E-03    -25.5003E-03     46.3008E-03    -25.8635E-03     51.0398E-03    -25.3615E-03     46.2527E-03
            1442     7.89711E-03     53.6406E-03    -22.3026E+06    -76.7628E+06    -700.358E+03     284.700E+03    -25.7643E-03     51.2723E-03    -25.5080E-03     42.2550E-03    -25.7804E-03     50.9387E-03    -25.3678E-03     42.2150E-03
            1443     7.01959E-03     53.6025E-03    -24.8846E+06    -84.4742E+06    -4.23191E+06     129.992E+03    -25.6943E-03     51.2061E-03    -25.5117E-03     37.9804E-03    -25.7020E-03     50.8377E-03    -25.3743E-03     37.9468E-03
            1444     6.14211E-03     53.5686E-03    -27.4909E+06    -93.2878E+06    -8.28053E+06     284.233E+03    -25.6335E-03     51.1482E-03    -25.5146E-03     33.5281E-03    -25.6318E-03     50.7417E-03    -25.3809E-03     33.5037E-03
            1445     5.26463E-03     53.5389E-03    -30.3202E+06    -101.248E+06    -13.2749E+06     248.571E+03    -25.5766E-03     51.0886E-03    -25.5120E-03     28.9571E-03    -25.5675E-03     50.6510E-03    -25.3877E-03     28.9382E-03
            1446     4.38715E-03     53.5137E-03    -32.9923E+06    -107.358E+06    -19.2241E+06     143.699E+03    -25.5282E-03     51.0306E-03    -25.5024E-03     24.2846E-03    -25.5130E-03     50.5729E-03    -25.3950E-03     24.2694E-03
            1447     3.50972E-03     53.4929E-03    -35.3499E+06    -115.170E+06    -25.2918E+06     160.649E+03    -25.5012E-03     50.9953E-03    -25.4941E-03     19.5243E-03    -25.4763E-03     50.5094E-03    -25.4023E-03     19.5137E-03
            1448     2.63225E-03     53.4767E-03    -37.8738E+06    -122.092E+06    -31.3085E+06     251.138E+03    -25.4825E-03     50.9664E-03    -25.4839E-03     14.7324E-03    -25.4505E-03     50.4574E-03    -25.4085E-03     14.7266E-03
            1449     1.75485E-03     53.4650E-03    -40.2968E+06    -125.703E+06    -36.9147E+06     319.897E+03    -25.4613E-03     50.9325E-03    -25.4712E-03     9.94463E-03    -25.4274E-03     50.4164E-03    -25.4151E-03     9.94297E-03
            1450     877.363E-06     53.4579E-03    -42.0010E+06    -125.394E+06    -40.8671E+06     199.575E+03    -25.4341E-03     50.9160E-03    -25.4819E-03     5.39764E-03    -25.4031E-03     50.4094E-03    -25.4435E-03     5.39719E-03
            1451     16.6746E-03     53.1805E-03    -3.53898E+06     109.840E+06     61.8649E+06    -21.7738E+03    -24.5631E-03     49.9696E-03    -25.4065E-03     37.5029E-03    -24.9396E-03     50.5441E-03    -25.2513E-03     37.4451E-03
            1452     15.7925E-03     53.1287E-03    -7.96096E+06     107.098E+06     48.1120E+06    -242.911E+03    -25.5466E-03     50.9186E-03    -25.3720E-03     57.0697E-03    -25.9874E-03     51.5718E-03    -25.2752E-03     56.9749E-03
            1453     14.9192E-03     53.0727E-03    -8.64383E+06     97.8273E+06     32.6091E+06    -312.120E+03    -25.7520E-03     51.0713E-03    -25.3193E-03     64.3315E-03    -26.1611E-03     51.7024E-03    -25.2856E-03     64.2106E-03
            1454     14.0397E-03     53.0071E-03    -10.3347E+06     47.4788E+06     10.5247E+06     899.003E+03    -25.7656E-03     51.0701E-03    -25.3045E-03     67.5298E-03    -26.0610E-03     51.4668E-03    -25.3057E-03     67.4132E-03
            1455     13.1624E-03     52.9456E-03    -12.8695E+06    -4.39097E+06     1.08472E+06     355.034E+03    -26.0313E-03     51.3876E-03    -25.3563E-03     63.9291E-03    -26.2099E-03     51.5018E-03    -25.3258E-03     63.8113E-03
            1456     12.2847E-03     52.8867E-03    -13.1775E+06    -24.3468E+06     3.16521E+06    -162.277E+03    -26.0537E-03     51.4599E-03    -25.4062E-03     59.9385E-03    -26.1722E-03     51.4360E-03    -25.3360E-03     59.8301E-03
            1457     11.4072E-03     52.8322E-03    -14.1462E+06    -44.9071E+06     1.44994E+06     163.978E+03    -26.0257E-03     51.4616E-03    -25.4359E-03     56.4129E-03    -26.0942E-03     51.3163E-03    -25.3431E-03     56.3233E-03
            1458     10.5296E-03     52.7801E-03    -15.7195E+06    -54.6370E+06     3.29472E+06     107.879E+03    -25.9936E-03     51.4608E-03    -25.4672E-03     53.4921E-03    -26.0425E-03     51.2504E-03    -25.3487E-03     53.4158E-03
            1459     9.65215E-03     52.7309E-03    -17.3610E+06    -61.7420E+06     3.05490E+06     494.516E+03    -25.9315E-03     51.4147E-03    -25.4832E-03     50.0655E-03    -25.9659E-03     51.1595E-03    -25.3532E-03     50.0071E-03
            1460     8.77464E-03     52.6852E-03    -19.2960E+06    -70.2388E+06     1.69179E+06     760.143E+03    -25.8471E-03     51.3434E-03    -25.4963E-03     46.2540E-03    -25.8678E-03     51.0413E-03    -25.3580E-03     46.2103E-03
            1461     7.89712E-03     52.6432E-03    -21.5040E+06    -76.3435E+06    -398.680E+03     564.222E+03    -25.7687E-03     51.2721E-03    -25.5034E-03     42.2129E-03    -25.7817E-03     50.9390E-03    -25.3635E-03     42.1765E-03
            1462     7.01964E-03     52.6052E-03    -24.2290E+06     -84.385E+06    -4.05255E+06     366.299E+03    -25.6950E-03     51.2017E-03    -25.5067E-03     37.9475E-03    -25.6997E-03     50.8326E-03    -25.3695E-03     37.9170E-03
            1463     6.14214E-03     52.5712E-03    -27.2070E+06    -93.4750E+06    -8.29063E+06     431.872E+03    -25.6319E-03     51.1411E-03    -25.5092E-03     33.5061E-03    -25.6285E-03     50.7333E-03    -25.3757E-03     33.4835E-03
            1464     5.26466E-03     52.5417E-03    -30.1194E+06    -100.694E+06    -12.9442E+06     305.937E+03    -25.5742E-03     51.0811E-03    -25.5069E-03     28.9362E-03    -25.5654E-03     50.6455E-03    -25.3819E-03     28.9180E-03
            1465     4.38720E-03     52.5164E-03    -32.9689E+06    -107.416E+06    -19.4131E+06     28.2619E+03    -25.5186E-03     51.0144E-03    -25.4959E-03     24.2733E-03    -25.5029E-03     50.5567E-03    -25.3894E-03     24.2567E-03
            1466     3.50970E-03     52.4956E-03    -35.8006E+06    -115.342E+06    -26.5803E+06     320.961E+03    -25.4865E-03     50.9712E-03    -25.4847E-03     19.5304E-03    -25.4617E-03     50.4870E-03    -25.3985E-03     19.5219E-03
            1467     2.63227E-03     52.4794E-03    -38.1801E+06    -121.934E+06    -32.0393E+06     499.969E+03    -25.4760E-03     50.9547E-03    -25.4787E-03     14.7318E-03    -25.4447E-03     50.4480E-03    -25.4068E-03     14.7293E-03
            1468     1.75481E-03     52.4677E-03    -39.8977E+06    -125.371E+06    -36.1256E+06     334.677E+03    -25.4737E-03     50.9423E-03    -25.4686E-03     9.93974E-03    -25.4395E-03     50.4262E-03    -25.4096E-03     9.93825E-03
            1469     877.466E-06     52.4605E-03    -41.1539E+06    -124.998E+06    -39.9560E+06     188.899E+03    -25.4331E-03     50.9013E-03    -25.4682E-03     5.37672E-03    -25.3997E-03     50.3941E-03    -25.4271E-03     5.37611E-03
            1470     16.6722E-03     52.1847E-03    -3.67776E+06     110.625E+06      63.928E+06     94.9586E+03    -25.0307E-03     50.4391E-03    -25.4084E-03     37.6728E-03    -25.4137E-03     51.0163E-03    -25.2438E-03     37.6140E-03
            1471     15.7984E-03     52.1300E-03    -6.26290E+06     108.283E+06     48.4592E+06    -927.571E+03    -25.2970E-03     50.6526E-03    -25.3556E-03     56.3635E-03    -25.7305E-03     51.3077E-03    -25.2612E-03     56.2615E-03
            1472     14.9171E-03     52.0757E-03    -10.7210E+06     95.7150E+06     30.0047E+06    -19.2710E+03    -25.3272E-03     50.6438E-03    -25.3166E-03     63.7747E-03    -25.7380E-03     51.2693E-03    -25.2898E-03     63.6601E-03
            1473     14.0401E-03     52.0103E-03    -12.9297E+06     47.5315E+06     10.9810E+06     398.861E+03    -25.8489E-03     51.1732E-03    -25.3243E-03     67.6470E-03    -26.1588E-03     51.5741E-03    -25.3195E-03     67.5228E-03
            1474     13.1620E-03     51.9478E-03    -12.0575E+06    -3.34823E+06     1.85383E+06    -366.598E+03    -26.1498E-03     51.5146E-03    -25.3648E-03     63.7265E-03    -26.3276E-03     51.6324E-03    -25.3332E-03     63.5981E-03
            1475     12.2848E-03     51.8894E-03    -13.2425E+06    -25.0432E+06     3.11229E+06    -84.2627E+03    -26.0894E-03     51.4984E-03    -25.4090E-03     59.6515E-03    -26.2071E-03     51.4711E-03    -25.3380E-03     59.5438E-03
            1476     11.4072E-03     51.8348E-03    -14.7395E+06    -44.6945E+06     1.38046E+06     80.0117E+03    -26.0486E-03     51.4841E-03    -25.4355E-03     56.3274E-03    -26.1203E-03     51.3408E-03    -25.3424E-03     56.2366E-03
            1477     10.5297E-03     51.7826E-03    -15.9804E+06    -54.7962E+06     3.13961E+06     129.173E+03    -26.0240E-03     51.4878E-03    -25.4637E-03     53.4017E-03    -26.0739E-03     51.2772E-03    -25.3454E-03     53.3255E-03
            1478     9.65221E-03     51.7335E-03    -17.7403E+06    -62.2093E+06     2.68694E+06     381.625E+03    -25.9351E-03     51.4124E-03    -25.4772E-03     49.9993E-03    -25.9703E-03     51.1559E-03    -25.3479E-03     49.9393E-03
            1479     8.77471E-03     51.6878E-03    -19.4594E+06    -70.0580E+06     1.67507E+06     475.012E+03    -25.8479E-03     51.3378E-03    -25.4898E-03     46.2224E-03    -25.8697E-03     51.0369E-03    -25.3517E-03     46.1750E-03
            1480     7.89720E-03     51.6459E-03    -21.2176E+06    -76.0168E+06    -363.041E+03     347.065E+03    -25.7607E-03     51.2567E-03    -25.4960E-03     42.1908E-03    -25.7729E-03     50.9247E-03    -25.3568E-03     42.1517E-03
            1481     7.01967E-03     51.6078E-03    -23.3194E+06    -84.6868E+06    -3.48981E+06     652.467E+03    -25.6911E-03     51.1931E-03    -25.5020E-03     37.9085E-03    -25.6916E-03     50.8204E-03    -25.3629E-03     37.8816E-03
            1482     6.14218E-03     51.5740E-03    -26.0613E+06    -93.2201E+06    -7.69343E+06     853.515E+03    -25.6257E-03     51.1297E-03    -25.5039E-03     33.4833E-03    -25.6178E-03     50.7206E-03    -25.3694E-03     33.4662E-03
            1483     5.26470E-03     51.5443E-03    -28.9220E+06    -99.9395E+06    -12.5623E+06     305.795E+03    -25.5644E-03     51.0652E-03    -25.5008E-03     28.9267E-03    -25.5512E-03     50.6310E-03    -25.3767E-03     28.9086E-03
            1484     4.38719E-03     51.5191E-03    -31.7836E+06    -107.866E+06    -18.4763E+06     366.975E+03    -25.5189E-03     51.0139E-03    -25.4950E-03     24.2503E-03    -25.4980E-03     50.5509E-03    -25.3849E-03     24.2380E-03
            1485     3.50974E-03     51.4983E-03    -34.7344E+06    -115.489E+06    -24.9852E+06     875.366E+03    -25.4876E-03     50.9741E-03    -25.4866E-03     19.5029E-03    -25.4596E-03     50.4853E-03    -25.3937E-03     19.5015E-03
            1486     2.63225E-03     51.4821E-03    -37.3556E+06    -121.087E+06    -30.6728E+06     489.542E+03    -25.4716E-03     50.9496E-03    -25.4780E-03     14.7206E-03    -25.4394E-03     50.4439E-03    -25.4016E-03     14.7179E-03
            1487     1.75486E-03     51.4704E-03    -39.3971E+06    -125.247E+06    -35.6205E+06     23.3848E+03    -25.4691E-03     50.9345E-03    -25.4655E-03     9.94982E-03    -25.4333E-03     50.4175E-03    -25.4048E-03     9.94431E-03
            1488     877.416E-06     51.4633E-03    -40.8274E+06    -124.709E+06    -39.6326E+06     147.952E+03    -25.4453E-03     50.8940E-03    -25.4486E-03     5.35588E-03    -25.4113E-03     50.3873E-03    -25.4068E-03     5.35474E-03
            1489     16.6756E-03     51.1839E-03    -3.53802E+06     110.495E+06     62.9315E+06    -184.788E+03    -24.9432E-03     50.3481E-03    -25.4049E-03     38.4693E-03    -25.3251E-03     50.9272E-03    -25.2453E-03     38.4075E-03
            1490     15.7948E-03     51.1348E-03    -7.10976E+06     107.474E+06     47.6146E+06     973.877E+03    -25.1712E-03     50.5340E-03    -25.3628E-03     57.4977E-03    -25.6070E-03     51.1880E-03    -25.2703E-03     57.4212E-03
            1491     14.9183E-03     51.0784E-03    -9.65861E+06     96.8876E+06     31.2240E+06     279.661E+03    -25.4806E-03     50.8100E-03    -25.3294E-03     64.2807E-03    -25.8901E-03     51.4386E-03    -25.2998E-03     64.1692E-03
            1492     14.0395E-03     51.0129E-03    -10.2009E+06     48.0410E+06     10.9029E+06    -1.32636E+06    -26.0373E-03     51.3573E-03    -25.3200E-03     67.6549E-03    -26.3349E-03     51.7576E-03    -25.3203E-03     67.5073E-03
            1493     13.1626E-03     50.9501E-03    -11.8303E+06    -4.47454E+06     1.11444E+06    -102.909E+03    -26.1781E-03     51.5347E-03    -25.3566E-03     63.6115E-03    -26.3517E-03     51.6472E-03    -25.3274E-03     63.4866E-03
            1494     12.2848E-03     50.8922E-03    -13.4153E+06    -24.6539E+06     2.82744E+06     422.782E+03    -26.0803E-03     51.4806E-03    -25.4003E-03     59.5521E-03    -26.1990E-03     51.4559E-03    -25.3310E-03     59.4510E-03
            1495     11.4073E-03     50.8373E-03    -14.7488E+06    -44.7293E+06     1.00786E+06    -26.9796E+03    -26.0708E-03     51.4963E-03    -25.4254E-03     56.2832E-03    -26.1420E-03     51.3534E-03    -25.3341E-03     56.1910E-03
            1496     10.5298E-03     50.7853E-03    -16.2699E+06    -54.9170E+06     2.79693E+06     172.096E+03    -25.9939E-03     51.4478E-03    -25.4539E-03     53.3329E-03    -26.0445E-03     51.2376E-03    -25.3367E-03     53.2574E-03
            1497     9.65228E-03     50.7361E-03    -17.8201E+06    -62.3635E+06     2.34792E+06     172.519E+03    -25.9158E-03     51.3843E-03    -25.4685E-03     49.9819E-03    -25.9506E-03     51.1277E-03    -25.3405E-03     49.9192E-03
            1498     8.77477E-03     50.6905E-03    -19.6254E+06    -69.9636E+06     1.39820E+06     209.971E+03    -25.8387E-03     51.3205E-03    -25.4818E-03     46.2162E-03    -25.8611E-03     51.0208E-03    -25.3449E-03     46.1654E-03
            1499     7.89725E-03     50.6485E-03    -21.9900E+06    -75.8627E+06    -766.210E+03     198.391E+03    -25.7499E-03     51.2381E-03    -25.4882E-03     42.1910E-03    -25.7655E-03     50.9086E-03    -25.3502E-03     42.1500E-03
            1500     7.01974E-03     50.6105E-03    -24.3834E+06    -85.2214E+06    -4.25528E+06     319.112E+03    -25.6781E-03     51.1722E-03    -25.4941E-03     37.9147E-03    -25.6821E-03     50.7995E-03    -25.3565E-03     37.8836E-03
            1501     6.14223E-03     50.5766E-03    -26.2047E+06    -92.9044E+06    -8.00011E+06     511.263E+03    -25.6126E-03     51.1090E-03    -25.4964E-03     33.4842E-03    -25.6054E-03     50.7022E-03    -25.3637E-03     33.4627E-03
            1502     5.26470E-03     50.5470E-03    -28.4282E+06    -99.3189E+06    -12.3293E+06     404.534E+03    -25.5544E-03     51.0500E-03    -25.4956E-03     28.9165E-03    -25.5400E-03     50.6178E-03    -25.3720E-03     28.8997E-03
            1503     4.38722E-03     50.5218E-03    -31.3775E+06    -108.780E+06    -17.2451E+06     727.859E+03    -25.5242E-03     51.0210E-03    -25.4968E-03     24.2271E-03    -25.5017E-03     50.5510E-03    -25.3798E-03     24.2195E-03
            1504     3.50976E-03     50.5011E-03    -34.3484E+06    -115.151E+06    -23.6549E+06     1.24672E+06    -25.4927E-03     50.9771E-03    -25.4844E-03     19.4817E-03    -25.4652E-03     50.4875E-03    -25.3859E-03     19.4851E-03
            1505     2.63232E-03     50.4848E-03    -37.0351E+06    -119.796E+06    -30.3885E+06     733.773E+03    -25.4631E-03     50.9304E-03    -25.4673E-03     14.7130E-03    -25.4315E-03     50.4302E-03    -25.3918E-03     14.7135E-03
            1506     1.75484E-03     50.4731E-03    -39.4118E+06    -125.172E+06    -35.9153E+06     168.832E+03    -25.4454E-03     50.9037E-03    -25.4584E-03     9.93018E-03    -25.4093E-03     50.3876E-03    -25.3993E-03     9.92660E-03
            1507     877.419E-06     50.4660E-03    -40.9509E+06    -124.533E+06    -39.8679E+06    -48.8722E+03    -25.4409E-03     50.8903E-03    -25.4494E-03     5.38095E-03    -25.4074E-03     50.3850E-03    -25.4088E-03     5.37727E-03
            1508     16.6715E-03     50.1901E-03    -3.56194E+06     109.805E+06     63.0235E+06     910.762E+03    -24.6046E-03     50.0154E-03    -25.4108E-03     37.8109E-03    -24.9826E-03     50.5877E-03    -25.2497E-03     37.7651E-03
            1509     15.7952E-03     50.1352E-03    -7.19804E+06     107.399E+06     47.9279E+06     44.4562E+03    -25.2302E-03     50.6057E-03    -25.3755E-03     56.3340E-03    -25.6649E-03     51.2571E-03    -25.2811E-03     56.2450E-03
            1510     14.9173E-03     50.0818E-03    -8.46529E+06     98.0716E+06     31.3093E+06    -1.38391E+06    -25.8100E-03     51.1346E-03    -25.3246E-03     63.5152E-03    -26.2165E-03     51.7684E-03    -25.2979E-03     63.3793E-03
            1511     14.0403E-03     50.0148E-03    -11.5830E+06     47.1925E+06     9.92523E+06    -94.3005E+03    -26.0321E-03     51.3378E-03    -25.3056E-03     67.5229E-03    -26.3342E-03     51.7375E-03    -25.3076E-03     67.3910E-03
            1512     13.1623E-03     49.9532E-03    -13.5605E+06    -5.09566E+06     508.844E+03     120.610E+03    -26.1015E-03     51.4472E-03    -25.3456E-03     63.4771E-03    -26.2818E-03     51.5598E-03    -25.3160E-03     63.3555E-03
            1513     12.2849E-03     49.8945E-03    -13.9459E+06    -24.5376E+06     2.67948E+06    -101.149E+03    -26.0888E-03     51.4785E-03    -25.3898E-03     59.5206E-03    -26.2102E-03     51.4556E-03    -25.3206E-03     59.4126E-03
            1514     11.4075E-03     49.8400E-03    -14.7950E+06    -44.5725E+06     1.11672E+06     177.830E+03    -26.0393E-03     51.4546E-03    -25.4153E-03     56.2338E-03    -26.1110E-03     51.3124E-03    -25.3237E-03     56.1443E-03
            1515     10.5299E-03     49.7879E-03    -16.0562E+06    -55.0262E+06     2.81170E+06    -54.8881E+03    -25.9589E-03     51.4042E-03    -25.4453E-03     53.3698E-03    -26.0082E-03     51.1930E-03    -25.3282E-03     53.2916E-03
            1516     9.65236E-03     49.7388E-03    -17.5553E+06    -62.3431E+06     2.43277E+06     37.6212E+03    -25.8968E-03     51.3586E-03    -25.4618E-03     49.9961E-03    -25.9305E-03     51.1015E-03    -25.3338E-03     49.9318E-03
            1517     8.77481E-03     49.6931E-03    -19.5179E+06    -70.1172E+06     1.25033E+06     180.326E+03    -25.8244E-03     51.2999E-03    -25.4755E-03     46.2197E-03    -25.8457E-03     50.9994E-03    -25.3393E-03     46.1686E-03
            1518     7.89729E-03     49.6512E-03    -21.7018E+06    -75.7941E+06    -633.151E+03     366.137E+03    -25.7425E-03     51.2260E-03    -25.4834E-03     42.1833E-03    -25.7570E-03     50.8962E-03    -25.3452E-03     42.1445E-03
            1519     7.01975E-03     49.6132E-03    -24.1362E+06    -85.0484E+06    -4.16920E+06     115.468E+03    -25.6749E-03     51.1640E-03    -25.4891E-03     37.9101E-03    -25.6780E-03     50.7916E-03    -25.3517E-03     37.8764E-03
            1520     6.14224E-03     49.5794E-03    -26.8343E+06    -93.1094E+06    -8.45712E+06     13.7397E+03    -25.6088E-03     51.0990E-03    -25.4902E-03     33.4735E-03    -25.6038E-03     50.6927E-03    -25.3586E-03     33.4456E-03
            1521     5.26475E-03     49.5497E-03    -29.5422E+06    -99.3264E+06    -12.8284E+06     414.215E+03    -25.5522E-03     51.0408E-03    -25.4886E-03     28.9020E-03    -25.5426E-03     50.6109E-03    -25.3659E-03     28.8853E-03
            1522     4.38725E-03     49.5245E-03    -32.3827E+06    -109.439E+06    -17.9141E+06     893.376E+03    -25.5199E-03     51.0082E-03    -25.4883E-03     24.2041E-03    -25.5005E-03     50.5373E-03    -25.3723E-03     24.1986E-03
            1523     3.50979E-03     49.5038E-03    -35.0229E+06    -114.718E+06    -24.7580E+06     1.15824E+06    -25.4841E-03     50.9549E-03    -25.4708E-03     19.4649E-03    -25.4590E-03     50.4700E-03    -25.3775E-03     19.4672E-03
            1524     2.63232E-03     49.4876E-03    -37.1835E+06    -118.641E+06    -30.9528E+06     906.381E+03    -25.4557E-03     50.9093E-03    -25.4536E-03     14.7063E-03    -25.4258E-03     50.4160E-03    -25.3824E-03     14.7091E-03
            1525     1.75490E-03     49.4759E-03    -39.1501E+06    -124.712E+06    -35.2917E+06     422.757E+03    -25.4404E-03     50.8890E-03    -25.4486E-03     9.90932E-03    -25.4046E-03     50.3739E-03    -25.3875E-03     9.90901E-03
            1526     877.407E-06     49.4688E-03    -41.0049E+06    -124.294E+06    -39.8065E+06      196.99E+03    -25.4305E-03     50.8623E-03    -25.4319E-03     5.39608E-03    -25.3976E-03     50.3583E-03    -25.3912E-03     5.39559E-03
            1527     16.6760E-03     49.1917E-03    -3.16900E+06     111.264E+06     64.3894E+06     168.610E+03    -25.3169E-03     50.7118E-03    -25.3949E-03     36.8667E-03    -25.6979E-03     51.2898E-03    -25.2297E-03     36.8087E-03
            1528     15.7965E-03     49.1394E-03    -5.58766E+06     108.827E+06     48.3084E+06    -486.531E+03    -25.0835E-03     50.4199E-03    -25.3365E-03     56.4582E-03    -25.5133E-03     51.0762E-03    -25.2446E-03     56.3639E-03
            1529     14.9185E-03     49.0832E-03    -10.0715E+06     96.1118E+06     28.8966E+06     186.878E+03    -25.4826E-03     50.7760E-03    -25.2935E-03     63.6830E-03    -25.8906E-03     51.4057E-03    -25.2737E-03     63.5692E-03
            1530     14.0403E-03     49.0182E-03    -12.1591E+06     47.1972E+06     10.1430E+06     300.993E+03    -25.9786E-03     51.2720E-03    -25.2934E-03     67.4755E-03    -26.2840E-03     51.6723E-03    -25.2935E-03     67.3489E-03
            1531     13.1628E-03     48.9554E-03    -12.4523E+06    -4.52912E+06     1.27874E+06    -328.326E+03    -26.0672E-03     51.4023E-03    -25.3350E-03     63.6572E-03    -26.2439E-03     51.5149E-03    -25.3040E-03     63.5301E-03
            1532     12.2852E-03     48.8973E-03    -13.5339E+06    -25.0628E+06     2.89229E+06    -274.473E+03    -26.0304E-03     51.4123E-03    -25.3819E-03     59.5461E-03    -26.1491E-03     51.3856E-03    -25.3115E-03     59.4362E-03
            1533     11.4075E-03     48.8426E-03    -14.5955E+06    -44.4763E+06     1.35865E+06    -170.021E+03    -25.9926E-03     51.4032E-03    -25.4107E-03     56.3492E-03    -26.0637E-03     51.2607E-03    -25.3182E-03     56.2555E-03
            1534     10.5300E-03     48.7906E-03    -15.7263E+06    -54.9430E+06     3.00292E+06    -120.467E+03    -25.9670E-03     51.4086E-03    -25.4415E-03     53.4225E-03    -26.0151E-03     51.1970E-03    -25.3241E-03     53.3435E-03
            1535     9.65238E-03     48.7414E-03    -17.4871E+06    -62.5642E+06     2.41512E+06    -54.0187E+03    -25.8961E-03     51.3534E-03    -25.4573E-03     50.0221E-03    -25.9290E-03     51.0951E-03    -25.3291E-03     49.9567E-03
            1536     8.77486E-03     48.6959E-03    -19.2815E+06    -70.2351E+06     1.35134E+06     137.586E+03    -25.8204E-03     51.2915E-03    -25.4711E-03     46.2103E-03    -25.8405E-03     50.9899E-03    -25.3346E-03     46.1588E-03
            1537     7.89731E-03     48.6538E-03    -21.1517E+06    -75.7646E+06    -598.681E+03     75.1115E+03    -25.7410E-03     51.2190E-03    -25.4780E-03     42.1750E-03    -25.7528E-03     50.8885E-03    -25.3405E-03     42.1325E-03
            1538     7.01980E-03     48.6159E-03    -23.3447E+06    -84.9867E+06    -3.60210E+06     292.545E+03    -25.6820E-03     51.1673E-03    -25.4853E-03     37.8713E-03    -25.6821E-03     50.7932E-03    -25.3462E-03     37.8399E-03
            1539     6.14230E-03     48.5820E-03    -26.2804E+06    -93.1950E+06    -8.04645E+06     514.968E+03    -25.6161E-03     51.1007E-03    -25.4846E-03     33.4284E-03    -25.6088E-03     50.6926E-03    -25.3516E-03     33.4069E-03
            1540     5.26478E-03     48.5525E-03    -29.5416E+06    -99.5937E+06    -13.1764E+06     602.316E+03    -25.5540E-03     51.0325E-03    -25.4785E-03     28.8751E-03    -25.5435E-03     50.6018E-03    -25.3571E-03     28.8609E-03
            1541     4.38731E-03     48.5272E-03    -32.3703E+06    -109.564E+06    -18.2773E+06     750.080E+03    -25.5176E-03     50.9939E-03    -25.4764E-03     24.1776E-03    -25.4974E-03     50.5229E-03    -25.3619E-03     24.1703E-03
            1542     3.50982E-03     48.5066E-03    -34.7486E+06    -114.529E+06    -24.7055E+06     887.673E+03    -25.4757E-03     50.9347E-03    -25.4590E-03     19.4329E-03    -25.4496E-03     50.4503E-03    -25.3661E-03     19.4317E-03
            1543     2.63235E-03     48.4903E-03    -36.9082E+06    -117.820E+06    -30.8241E+06     882.454E+03    -25.4418E-03     50.8832E-03    -25.4414E-03     14.6790E-03    -25.4119E-03     50.3934E-03    -25.3711E-03     14.6814E-03
            1544     1.75487E-03     48.4787E-03    -38.9517E+06    -124.056E+06    -35.3919E+06     618.758E+03    -25.4401E-03     50.8726E-03    -25.4325E-03     9.90124E-03    -25.4041E-03     50.3606E-03    -25.3731E-03     9.90345E-03
            1545     877.492E-06     48.4715E-03    -40.6529E+06    -123.746E+06    -39.3530E+06     509.011E+03    -25.4212E-03     50.8280E-03    -25.4068E-03     5.39746E-03    -25.3881E-03     50.3254E-03    -25.3651E-03     5.40101E-03
            1546     16.6731E-03     48.1933E-03    -3.29198E+06     110.459E+06     62.4968E+06    -868.824E+03    -25.0557E-03     50.4475E-03    -25.3918E-03     37.6235E-03    -25.4356E-03     51.0266E-03    -25.2347E-03     37.5523E-03
            1547     15.7967E-03     48.1432E-03    -6.56243E+06     108.190E+06     48.4950E+06     974.249E+03    -25.3419E-03     50.6880E-03    -25.3461E-03     57.7386E-03    -25.7786E-03     51.3449E-03    -25.2510E-03     57.6618E-03
            1548     14.9180E-03     48.0859E-03    -9.24429E+06     97.1173E+06     30.5391E+06     1.10464E+06    -25.5302E-03     50.8292E-03    -25.2989E-03     64.7324E-03    -25.9383E-03     51.4606E-03    -25.2736E-03     64.6313E-03
            1549     14.0404E-03     48.0209E-03    -10.5235E+06     47.9673E+06     9.61022E+06    -304.898E+03    -25.9831E-03     51.2703E-03    -25.2872E-03     67.7776E-03    -26.2804E-03     51.6726E-03    -25.2934E-03     67.6438E-03
            1550     13.1627E-03     47.9579E-03    -12.0044E+06    -4.61548E+06     770.933E+03    -68.4036E+03    -26.0898E-03     51.4217E-03    -25.3320E-03     63.9116E-03    -26.2631E-03     51.5338E-03    -25.3040E-03     63.7883E-03
            1551     12.2850E-03     47.9001E-03    -13.3459E+06    -24.9393E+06     2.57301E+06    -139.069E+03    -26.0115E-03     51.3920E-03    -25.3805E-03     59.7031E-03    -26.1288E-03     51.3659E-03    -25.3121E-03     59.5953E-03
            1552     11.4075E-03     47.8452E-03    -14.5748E+06    -44.5725E+06     1.08235E+06    -338.943E+03    -26.0289E-03     51.4385E-03    -25.4096E-03     56.4020E-03    -26.0993E-03     51.2958E-03    -25.3184E-03     56.3062E-03
            1553     10.5299E-03     47.7933E-03    -15.9924E+06    -55.1487E+06     2.63748E+06    -140.335E+03    -25.9807E-03     51.4194E-03    -25.4386E-03     53.4072E-03    -26.0292E-03     51.2077E-03    -25.3223E-03     53.3279E-03
            1554     9.65242E-03     47.7441E-03    -17.6579E+06    -62.5601E+06     2.12967E+06     3.08283E+03    -25.9094E-03     51.3623E-03    -25.4529E-03     50.0077E-03    -25.9427E-03     51.1047E-03    -25.3259E-03     49.9431E-03
            1555     8.77489E-03     47.6985E-03    -19.5770E+06    -70.3329E+06     866.625E+03    -80.5888E+03    -25.8299E-03     51.2944E-03    -25.4645E-03     46.1982E-03    -25.8507E-03     50.9934E-03    -25.3298E-03     46.1438E-03
            1556     7.89737E-03     47.6566E-03    -21.8484E+06    -75.7170E+06    -1.22005E+06     39.4659E+03    -25.7484E-03     51.2177E-03    -25.4693E-03     42.1460E-03    -25.7628E-03     50.8893E-03    -25.3340E-03     42.1030E-03
            1557     7.01984E-03     47.6185E-03    -24.4036E+06    -85.4581E+06    -4.49779E+06     242.504E+03    -25.6826E-03     51.1574E-03    -25.4748E-03     37.8364E-03    -25.6860E-03     50.7837E-03    -25.3379E-03     37.8043E-03
            1558     6.14234E-03     47.5848E-03    -26.7543E+06    -93.3436E+06    -8.24157E+06     721.446E+03    -25.6183E-03     51.0927E-03    -25.4743E-03     33.3820E-03    -25.6129E-03     50.6848E-03    -25.3414E-03     33.3632E-03
            1559     5.26486E-03     47.5552E-03    -29.2099E+06    -99.3427E+06    -12.9950E+06     800.744E+03    -25.5500E-03     51.0167E-03    -25.4667E-03     28.8365E-03    -25.5385E-03     50.5865E-03    -25.3453E-03     28.8248E-03
            1560     4.38734E-03     47.5300E-03    -31.9943E+06    -109.500E+06    -18.0988E+06     673.283E+03    -25.5106E-03     50.9743E-03    -25.4637E-03     24.1529E-03    -25.4889E-03     50.5028E-03    -25.3490E-03     24.1446E-03
            1561     3.50990E-03     47.5093E-03    -34.7504E+06    -114.399E+06    -24.5501E+06     740.139E+03    -25.4679E-03     50.9132E-03    -25.4453E-03     19.4082E-03    -25.4422E-03     50.4292E-03    -25.3518E-03     19.4050E-03
            1562     2.63240E-03     47.4931E-03    -36.9274E+06    -117.380E+06    -30.7503E+06     773.139E+03    -25.4263E-03     50.8521E-03    -25.4258E-03     14.6646E-03    -25.3973E-03     50.3644E-03    -25.3558E-03     14.6656E-03
            1563     1.75493E-03     47.4814E-03    -38.6168E+06    -123.290E+06    -34.9163E+06     598.132E+03    -25.4201E-03     50.8394E-03    -25.4193E-03     9.90723E-03    -25.3843E-03     50.3301E-03    -25.3591E-03     9.90918E-03
            1564     877.449E-06     47.4743E-03    -39.8751E+06    -123.114E+06    -38.3186E+06     85.8173E+03    -25.4059E-03     50.8074E-03    -25.4015E-03     5.35502E-03    -25.3713E-03     50.3055E-03    -25.3568E-03     5.35308E-03
            1565     16.6732E-03     47.1964E-03    -3.67690E+06     109.519E+06     62.1477E+06    -55.3221E+03    -24.5248E-03     49.9365E-03    -25.4117E-03     37.5969E-03    -24.9030E-03     50.5102E-03    -25.2544E-03     37.5384E-03
            1566     15.7947E-03     47.1443E-03    -8.08515E+06     107.168E+06     48.3627E+06    -500.450E+03    -25.5252E-03     50.9032E-03    -25.3780E-03     56.8354E-03    -25.9673E-03     51.5568E-03    -25.2799E-03     56.7375E-03
            1567     14.9181E-03     47.0894E-03    -8.71966E+06     98.2842E+06     32.2181E+06    -38.7214E+03    -25.8273E-03     51.1472E-03    -25.3198E-03     64.3321E-03    -26.2373E-03     51.7817E-03    -25.2886E-03     64.2140E-03
            1568     14.0400E-03     47.0228E-03    -11.0084E+06     48.1133E+06     10.3216E+06     662.231E+03    -26.0031E-03     51.2999E-03    -25.2968E-03     67.6346E-03    -26.3038E-03     51.7024E-03    -25.2990E-03     67.5130E-03
            1569     13.1626E-03     46.9611E-03    -13.0255E+06    -4.28715E+06     645.981E+03     117.804E+03    -26.0799E-03     51.4173E-03    -25.3373E-03     63.7170E-03    -26.2587E-03     51.5327E-03    -25.3090E-03     63.5959E-03
            1570     12.2849E-03     46.9024E-03    -13.6883E+06    -24.9485E+06     2.31321E+06    -370.191E+03    -26.0771E-03     51.4595E-03    -25.3824E-03     59.6488E-03    -26.1958E-03     51.4343E-03    -25.3148E-03     59.5377E-03
            1571     11.4075E-03     46.8480E-03    -14.7978E+06    -44.7108E+06     961.846E+03    -92.9139E+03    -26.0637E-03     51.4720E-03    -25.4083E-03     56.2909E-03    -26.1350E-03     51.3292E-03    -25.3172E-03     56.1980E-03
            1572     10.5300E-03     46.7958E-03    -16.3633E+06    -55.2272E+06     2.18629E+06    -157.328E+03    -25.9946E-03     51.4281E-03    -25.4335E-03     53.3819E-03    -26.0441E-03     51.2171E-03    -25.3187E-03     53.3023E-03
            1573     9.65247E-03     46.7468E-03    -17.8994E+06    -62.6868E+06     1.77535E+06    -115.195E+03    -25.9267E-03     51.3729E-03    -25.4461E-03     49.9291E-03    -25.9605E-03     51.1155E-03    -25.3204E-03     49.8629E-03
            1574     8.77492E-03     46.7012E-03    -19.8052E+06    -70.2684E+06     580.024E+03     14.8769E+03    -25.8437E-03     51.2991E-03    -25.4554E-03     46.1357E-03    -25.8652E-03     50.9992E-03    -25.3219E-03     46.0825E-03
            1575     7.89745E-03     46.6592E-03    -22.0008E+06    -75.9130E+06    -1.32872E+06     68.9316E+03    -25.7585E-03     51.2175E-03    -25.4590E-03     42.0810E-03    -25.7733E-03     50.8886E-03    -25.3237E-03     42.0383E-03
            1576     7.01993E-03     46.6213E-03    -24.2672E+06    -85.6209E+06    -4.39530E+06     264.799E+03    -25.6836E-03     51.1466E-03    -25.4630E-03     37.7757E-03    -25.6862E-03     50.7718E-03    -25.3256E-03     37.7439E-03
            1577     6.14244E-03     46.5875E-03    -26.7925E+06    -93.7231E+06    -8.24699E+06     402.067E+03    -25.6087E-03     51.0701E-03    -25.4614E-03     33.3393E-03    -25.6029E-03     50.6604E-03    -25.3279E-03     33.3164E-03
            1578     5.26492E-03     46.5580E-03    -29.2969E+06    -99.0812E+06    -12.7916E+06     649.131E+03    -25.5401E-03     50.9932E-03    -25.4531E-03     28.8032E-03    -25.5297E-03     50.5642E-03    -25.3309E-03     28.7896E-03
            1579     4.38744E-03     46.5328E-03    -31.8716E+06    -109.347E+06    -18.0966E+06     675.761E+03    -25.4962E-03     50.9446E-03    -25.4484E-03     24.1262E-03    -25.4741E-03     50.4737E-03    -25.3341E-03     24.1179E-03
            1580     3.50992E-03     46.5121E-03    -34.3368E+06    -114.190E+06    -24.3058E+06     641.161E+03    -25.4546E-03     50.8852E-03    -25.4306E-03     19.3873E-03    -25.4275E-03     50.4013E-03    -25.3368E-03     19.3829E-03
            1581     2.63244E-03     46.4959E-03    -36.5963E+06    -117.031E+06    -29.6502E+06     549.365E+03    -25.4211E-03     50.8342E-03    -25.4132E-03     14.6461E-03    -25.3924E-03     50.3462E-03    -25.3386E-03     14.6443E-03
            1582     1.75494E-03     46.4843E-03    -38.6175E+06    -122.459E+06    -34.0490E+06     194.921E+03    -25.4010E-03     50.8033E-03    -25.4023E-03     9.89041E-03    -25.3676E-03     50.2968E-03    -25.3390E-03     9.88716E-03
            1583     877.484E-06     46.4771E-03    -40.1643E+06    -123.024E+06    -38.7935E+06    -286.932E+03    -25.3899E-03     50.7623E-03    -25.3724E-03     5.30438E-03    -25.3562E-03     50.2619E-03    -25.3297E-03     5.29764E-03
            1584     16.6739E-03     46.1995E-03    -2.97546E+06     110.875E+06     63.8539E+06     382.579E+03    -24.9217E-03     50.3300E-03    -25.4083E-03     37.7293E-03    -25.3013E-03     50.9074E-03    -25.2455E-03     37.6756E-03
            1585     15.7962E-03     46.1470E-03    -6.81018E+06     108.037E+06     48.2716E+06    -867.927E+03    -25.3102E-03     50.6705E-03    -25.3603E-03     56.4470E-03    -25.7460E-03     51.3257E-03    -25.2657E-03     56.3456E-03
            1586     14.9177E-03     46.0911E-03    -10.8736E+06     96.1617E+06     29.9019E+06    -505.646E+03    -25.6457E-03     50.9561E-03    -25.3104E-03     63.8012E-03    -26.0588E-03     51.5852E-03    -25.2845E-03     63.6779E-03
            1587     14.0405E-03     46.0260E-03    -11.8116E+06     47.7852E+06     10.1436E+06     392.691E+03    -26.0114E-03     51.3091E-03    -25.2977E-03     67.6333E-03    -26.3156E-03     51.7116E-03    -25.2992E-03     67.5079E-03
            1588     13.1625E-03     45.9634E-03    -11.7279E+06    -3.20249E+06     1.47894E+06     89.0985E+03    -26.1496E-03     51.4851E-03    -25.3355E-03     63.6078E-03    -26.3249E-03     51.6030E-03    -25.3064E-03     63.4857E-03
            1589     12.2852E-03     45.9052E-03    -13.0212E+06    -24.9092E+06     2.66126E+06     3.28715E+03    -26.0866E-03     51.4642E-03    -25.3776E-03     59.5558E-03    -26.2023E-03     51.4375E-03    -25.3093E-03     59.4496E-03
            1590     11.4075E-03     45.8505E-03    -14.5745E+06    -44.9285E+06     968.708E+03     20.0731E+03    -26.0765E-03     51.4780E-03    -25.4015E-03     56.1919E-03    -26.1463E-03     51.3337E-03    -25.3104E-03     56.1003E-03
            1591     10.5301E-03     45.7986E-03    -15.9925E+06    -54.8528E+06     2.54368E+06    -23.6869E+03    -26.0198E-03     51.4447E-03    -25.4250E-03     53.2556E-03    -26.0685E-03     51.2346E-03    -25.3095E-03     53.1777E-03
            1592     9.65255E-03     45.7494E-03    -17.8857E+06    -63.0006E+06     1.79520E+06    -135.969E+03    -25.9316E-03     51.3667E-03    -25.4351E-03     49.8323E-03    -25.9649E-03     51.1076E-03    -25.3088E-03     49.7657E-03
            1593     8.77511E-03     45.7039E-03    -19.7625E+06    -70.2134E+06     786.509E+03    -15.8414E+03    -25.8466E-03     51.2895E-03    -25.4430E-03     46.0562E-03    -25.8683E-03     50.9895E-03    -25.3086E-03     46.0025E-03
            1594     7.89754E-03     45.6619E-03    -21.8421E+06    -76.0430E+06    -1.33793E+06     23.1071E+03    -25.7513E-03     51.1955E-03    -25.4442E-03     42.0271E-03    -25.7651E-03     50.8657E-03    -25.3090E-03     41.9839E-03
            1595     7.02008E-03     45.6240E-03    -24.2639E+06    -85.8812E+06    -4.37666E+06     228.218E+03    -25.6723E-03     51.1202E-03    -25.4480E-03     37.7291E-03    -25.6745E-03     50.7441E-03    -25.3102E-03     37.6969E-03
            1596     6.14253E-03     45.5903E-03    -26.8366E+06    -93.6908E+06    -8.42468E+06     401.823E+03    -25.5937E-03     51.0384E-03    -25.4447E-03     33.3104E-03    -25.5878E-03     50.6291E-03    -25.3121E-03     33.2875E-03
            1597     5.26502E-03     45.5607E-03    -29.5451E+06    -99.2237E+06    -13.0328E+06     432.928E+03    -25.5231E-03     50.9596E-03    -25.4366E-03     28.7760E-03    -25.5133E-03     50.5306E-03    -25.3150E-03     28.7596E-03
            1598     4.38749E-03     45.5356E-03    -32.1696E+06    -109.006E+06    -18.0539E+06     477.187E+03    -25.4809E-03     50.9132E-03    -25.4323E-03     24.1000E-03    -25.4609E-03     50.4444E-03    -25.3178E-03     24.0892E-03
            1599     3.51000E-03     45.5149E-03    -34.7177E+06    -114.212E+06    -24.2984E+06     465.856E+03    -25.4427E-03     50.8563E-03    -25.4136E-03     19.3647E-03    -25.4174E-03     50.3728E-03    -25.3192E-03     19.3580E-03
            1600     2.63248E-03     45.4988E-03    -37.0881E+06    -116.470E+06    -30.4264E+06     484.046E+03    -25.4076E-03     50.7967E-03    -25.3891E-03     14.6143E-03    -25.3811E-03     50.3133E-03    -25.3186E-03     14.6116E-03
            1601     1.75504E-03     45.4871E-03    -39.2633E+06    -121.878E+06    -35.7231E+06     127.778E+03    -25.3791E-03     50.7511E-03    -25.3720E-03     9.86798E-03    -25.3473E-03     50.2509E-03    -25.3170E-03     9.86388E-03
            1602     877.512E-06     45.4800E-03    -41.0561E+06    -123.185E+06    -40.2655E+06     199.646E+03    -25.3550E-03     50.7095E-03    -25.3545E-03     5.33478E-03    -25.3234E-03     50.2117E-03    -25.3177E-03     5.33435E-03
            1603     16.6740E-03     45.2023E-03    -3.26362E+06     110.492E+06     63.0287E+06    -30.9978E+03    -25.0508E-03     50.4496E-03    -25.3988E-03     38.1270E-03    -25.4309E-03     51.0276E-03    -25.2392E-03     38.0671E-03
            1604     15.7962E-03     45.1492E-03    -6.28969E+06     108.223E+06     48.1594E+06     1.07629E+06    -25.2879E-03     50.6382E-03    -25.3503E-03     57.1679E-03    -25.7214E-03     51.2939E-03    -25.2573E-03     57.0919E-03
            1605     14.9184E-03     45.0947E-03    -9.83904E+06     96.8363E+06     29.8550E+06     86.1585E+03    -25.5517E-03     50.8551E-03    -25.3034E-03     64.2107E-03    -25.9605E-03     51.4861E-03    -25.2803E-03     64.0959E-03
            1606     14.0397E-03     45.0280E-03    -11.7278E+06     47.0946E+06     8.72883E+06    -1.15619E+06    -26.0792E-03     51.3676E-03    -25.2884E-03     67.6875E-03    -26.3801E-03     51.7687E-03    -25.2960E-03     67.5418E-03
            1607     13.1630E-03     44.9661E-03    -12.2715E+06    -3.67619E+06     948.985E+03    -14.5889E+03    -26.1966E-03     51.5237E-03    -25.3271E-03     63.4783E-03    -26.3728E-03     51.6406E-03    -25.2992E-03     63.3547E-03
            1608     12.2851E-03     44.9078E-03    -13.4944E+06    -24.3117E+06     2.58016E+06     467.181E+03    -26.1183E-03     51.4844E-03    -25.3661E-03     59.4989E-03    -26.2372E-03     51.4616E-03    -25.2984E-03     59.3985E-03
            1609     11.4078E-03     44.8531E-03    -14.6533E+06    -44.8754E+06     793.927E+03    -26.8600E+03    -26.0958E-03     51.4825E-03    -25.3867E-03     56.0840E-03    -26.1658E-03     51.3388E-03    -25.2964E-03     55.9919E-03
            1610     10.5303E-03     44.8011E-03    -16.0089E+06    -54.8456E+06     2.58956E+06     48.6250E+03    -26.0065E-03     51.4161E-03    -25.4096E-03     53.1488E-03    -26.0553E-03     51.2059E-03    -25.2939E-03     53.0719E-03
            1611     9.65277E-03     44.7521E-03    -17.6418E+06    -62.8024E+06     1.87075E+06    -12.5763E+03    -25.9181E-03     51.3370E-03    -25.4189E-03     49.8040E-03    -25.9506E-03     51.0785E-03    -25.2929E-03     49.7392E-03
            1612     8.77519E-03     44.7065E-03    -19.6536E+06    -70.4582E+06     646.607E+03    -46.4978E+03    -25.8341E-03     51.2604E-03    -25.4263E-03     46.0248E-03    -25.8546E-03     50.9591E-03    -25.2924E-03     45.9709E-03
            1613     7.89774E-03     44.6647E-03    -21.9463E+06    -75.9891E+06    -1.57834E+06     128.511E+03    -25.7333E-03     51.1601E-03    -25.4268E-03     41.9977E-03    -25.7473E-03     50.8310E-03    -25.2927E-03     41.9559E-03
            1614     7.02013E-03     44.6268E-03    -24.3560E+06    -86.1992E+06    -4.71394E+06     205.765E+03    -25.6590E-03     51.0894E-03    -25.4304E-03     37.6992E-03    -25.6606E-03     50.7123E-03    -25.2937E-03     37.6667E-03
            1615     6.14265E-03     44.5930E-03    -26.8469E+06    -93.6560E+06    -8.43427E+06     391.558E+03    -25.5840E-03     51.0114E-03    -25.4274E-03     33.2631E-03    -25.5782E-03     50.6023E-03    -25.2948E-03     33.2402E-03
            1616     5.26510E-03     44.5635E-03    -29.5257E+06    -99.1816E+06    -13.1644E+06     448.618E+03    -25.5067E-03     50.9244E-03    -25.4178E-03     28.7372E-03    -25.4967E-03     50.4957E-03    -25.2970E-03     28.7211E-03
            1617     4.38757E-03     44.5384E-03    -32.4740E+06    -108.882E+06    -18.3188E+06     474.058E+03    -25.4654E-03     50.8779E-03    -25.4125E-03     24.0640E-03    -25.4467E-03     50.4105E-03    -25.2992E-03     24.0532E-03
            1618     3.51006E-03     44.5178E-03    -35.3983E+06    -114.058E+06    -24.8633E+06     469.452E+03    -25.4257E-03     50.8173E-03    -25.3916E-03     19.3414E-03    -25.4032E-03     50.3364E-03    -25.2993E-03     19.3348E-03
            1619     2.63257E-03     44.5016E-03    -37.6050E+06    -116.144E+06    -32.0638E+06     355.650E+03    -25.3802E-03     50.7419E-03    -25.3617E-03     14.5992E-03    -25.3544E-03     50.2633E-03    -25.2991E-03     14.5949E-03
            1620     1.75500E-03     44.4900E-03    -39.0625E+06    -121.634E+06    -36.6786E+06     468.831E+03    -25.3550E-03     50.7058E-03    -25.3508E-03     9.84519E-03    -25.3212E-03     50.2080E-03    -25.3012E-03     9.84551E-03
            1621     877.492E-06     44.4829E-03    -40.2838E+06    -122.717E+06    -39.2094E+06     501.757E+03    -25.3349E-03     50.6882E-03    -25.3533E-03     5.33526E-03    -25.3016E-03     50.1901E-03    -25.3130E-03     5.33875E-03
            1622     16.6734E-03     44.2042E-03    -3.57354E+06     110.109E+06     63.0937E+06     297.252E+03    -24.8027E-03     50.2049E-03    -25.4022E-03     37.8396E-03    -25.1824E-03     50.7798E-03    -25.2413E-03     37.7856E-03
            1623     15.7956E-03     44.1525E-03    -7.12242E+06     107.635E+06     48.2163E+06     332.441E+03    -25.2824E-03     50.6437E-03    -25.3614E-03     57.1053E-03    -25.7193E-03     51.2977E-03    -25.2660E-03     57.0196E-03
            1624     14.9174E-03     44.0968E-03    -8.39617E+06     98.4246E+06     31.8040E+06    -92.7276E+03    -25.8848E-03     51.1926E-03    -25.3078E-03     64.0630E-03    -26.2928E-03     51.8280E-03    -25.2793E-03     63.9431E-03
            1625     14.0410E-03     44.0307E-03    -11.1473E+06     47.2887E+06     9.68658E+06     4.27175E+03    -26.1400E-03     51.4185E-03    -25.2785E-03     67.3672E-03    -26.4393E-03     51.8180E-03    -25.2825E-03     67.2360E-03
            1626     13.1626E-03     43.9686E-03    -13.6954E+06    -4.82606E+06      33.903E+03    -235.178E+03    -26.1682E-03     51.4783E-03    -25.3101E-03     63.2708E-03    -26.3482E-03     51.5925E-03    -25.2831E-03     63.1446E-03
            1627     12.2855E-03     43.9103E-03    -13.9200E+06    -24.1487E+06     2.30865E+06    -257.856E+03    -26.1304E-03     51.4781E-03    -25.3477E-03     59.3135E-03    -26.2512E-03     51.4571E-03    -25.2810E-03     59.2036E-03
            1628     11.4080E-03     43.8557E-03    -14.5976E+06    -44.8995E+06     476.682E+03     46.3095E+03    -26.0480E-03     51.4154E-03    -25.3675E-03     56.0403E-03    -26.1170E-03     51.2718E-03    -25.2788E-03     55.9495E-03
            1629     10.5304E-03     43.8038E-03    -15.9813E+06    -54.8843E+06     2.41280E+06     42.6720E+03    -25.9783E-03     51.3712E-03    -25.3928E-03     53.1667E-03    -26.0266E-03     51.1609E-03    -25.2780E-03     53.0898E-03
            1630     9.65286E-03     43.7548E-03    -17.7221E+06    -62.6838E+06     1.69573E+06     64.7654E+03    -25.9129E-03     51.3150E-03    -25.4021E-03     49.7939E-03    -25.9456E-03     51.0573E-03    -25.2770E-03     49.7302E-03
            1631     8.77541E-03     43.7093E-03    -19.7252E+06    -70.5256E+06     460.295E+03     99.2602E+03    -25.8208E-03     51.2298E-03    -25.4090E-03     45.9825E-03    -25.8413E-03     50.9285E-03    -25.2758E-03     45.9306E-03
            1632     7.89778E-03     43.6675E-03    -21.8565E+06    -76.1182E+06    -1.57130E+06     147.586E+03    -25.7266E-03     51.1360E-03    -25.4095E-03     41.9435E-03    -25.7399E-03     50.8061E-03    -25.2753E-03     41.9021E-03
            1633     7.02032E-03     43.6295E-03    -24.1986E+06    -86.2006E+06    -4.77118E+06     266.430E+03    -25.6530E-03     51.0641E-03    -25.4111E-03     37.6396E-03    -25.6538E-03     50.6868E-03    -25.2748E-03     37.6080E-03
            1634     6.14275E-03     43.5959E-03    -26.7728E+06    -93.8059E+06    -8.55183E+06     332.607E+03    -25.5731E-03     50.9796E-03    -25.4065E-03     33.2018E-03    -25.5665E-03     50.5698E-03    -25.2744E-03     33.1781E-03
            1635     5.26522E-03     43.5664E-03    -29.3852E+06    -99.0772E+06    -13.1770E+06     473.989E+03    -25.4971E-03     50.8923E-03    -25.3952E-03     28.6756E-03    -25.4866E-03     50.4640E-03    -25.2748E-03     28.6598E-03
            1636     4.38767E-03     43.5413E-03    -31.9592E+06    -108.850E+06    -18.6543E+06     538.345E+03    -25.4458E-03     50.8325E-03    -25.3866E-03     24.0135E-03    -25.4241E-03     50.3650E-03    -25.2757E-03     24.0035E-03
            1637     3.51015E-03     43.5207E-03    -34.2880E+06    -113.610E+06    -24.8537E+06     420.239E+03    -25.3978E-03     50.7650E-03    -25.3671E-03     19.3027E-03    -25.3705E-03     50.2847E-03    -25.2769E-03     19.2955E-03
            1638     2.63258E-03     43.5046E-03    -36.3650E+06    -116.125E+06    -30.4588E+06     312.453E+03    -25.3608E-03     50.7080E-03    -25.3472E-03     14.5566E-03    -25.3311E-03     50.2254E-03    -25.2784E-03     14.5518E-03
            1639     1.75507E-03     43.4930E-03    -38.2099E+06    -121.474E+06    -34.6220E+06     435.251E+03    -25.3481E-03     50.6833E-03    -25.3352E-03     9.79811E-03    -25.3133E-03     50.1820E-03    -25.2767E-03     9.79801E-03
            1640     877.544E-06     43.4859E-03    -39.3330E+06    -121.922E+06    -38.0562E+06     137.176E+03    -25.3247E-03     50.6359E-03    -25.3112E-03     5.28505E-03    -25.2895E-03     50.1387E-03    -25.2676E-03     5.28383E-03
            1641     16.6746E-03     43.2085E-03    -3.73100E+06     110.562E+06     63.9371E+06    -72.5128E+03    -25.2025E-03     50.6045E-03    -25.4020E-03     37.5846E-03    -25.5860E-03     51.1819E-03    -25.2372E-03     37.5229E-03
            1642     15.7954E-03     43.1548E-03    -6.23887E+06     108.592E+06     48.9696E+06    -903.106E+03    -25.4784E-03     50.8194E-03    -25.3410E-03     56.5012E-03    -25.9132E-03     51.4755E-03    -25.2446E-03     56.3981E-03
            1643     14.9189E-03     43.0986E-03    -9.68591E+06     97.0302E+06     30.1845E+06     380.220E+03    -25.7362E-03     51.0150E-03    -25.2788E-03     63.5705E-03    -26.1445E-03     51.6458E-03    -25.2545E-03     63.4580E-03
            1644     14.0403E-03     43.0336E-03    -11.7170E+06     48.0435E+06     9.81279E+06     778.229E+03    -26.0975E-03     51.3550E-03    -25.2575E-03     67.1684E-03    -26.4005E-03     51.7585E-03    -25.2611E-03     67.0476E-03
            1645     13.1636E-03     42.9710E-03    -12.0699E+06    -4.06167E+06     618.959E+03    -298.469E+03    -26.1464E-03     51.4353E-03    -25.2889E-03     63.3734E-03    -26.3202E-03     51.5500E-03    -25.2624E-03     63.2467E-03
            1646     12.2857E-03     42.9130E-03    -13.1791E+06    -24.8817E+06     2.21336E+06    -352.618E+03    -26.0456E-03     51.3751E-03    -25.3295E-03     59.3493E-03    -26.1612E-03     51.3492E-03    -25.2633E-03     59.2388E-03
            1647     11.4081E-03     42.8585E-03    -14.6304E+06    -44.8563E+06     297.057E+03     3.60812E+03    -26.0118E-03     51.3642E-03    -25.3524E-03     56.1087E-03    -26.0806E-03     51.2209E-03    -25.2646E-03     56.0176E-03
            1648     10.5305E-03     42.8066E-03    -15.9943E+06    -55.1346E+06     2.28191E+06     160.967E+03    -25.9898E-03     51.3681E-03    -25.3783E-03     53.1717E-03    -26.0376E-03     51.1568E-03    -25.2637E-03     53.0964E-03
            1649     9.65308E-03     42.7575E-03    -17.8142E+06    -62.4992E+06     1.83996E+06     260.769E+03    -25.9186E-03     51.3048E-03    -25.3862E-03     49.7260E-03    -25.9521E-03     51.0479E-03    -25.2606E-03     49.6648E-03
            1650     8.77548E-03     42.7121E-03    -19.7754E+06    -70.4766E+06     438.598E+03     76.6734E+03    -25.8237E-03     51.2138E-03    -25.3901E-03     45.9149E-03    -25.8445E-03     50.9129E-03    -25.2570E-03     45.8628E-03
            1651     7.89804E-03     42.6702E-03    -21.9448E+06    -76.3086E+06    -1.78727E+06     182.106E+03    -25.7269E-03     51.1145E-03    -25.3876E-03     41.8712E-03    -25.7400E-03     50.7840E-03    -25.2540E-03     41.8302E-03
            1652     7.02044E-03     42.6324E-03    -24.3370E+06    -86.1602E+06    -5.03801E+06     290.941E+03    -25.6444E-03     51.0307E-03    -25.3863E-03     37.5614E-03    -25.6455E-03     50.6542E-03    -25.2513E-03     37.5301E-03
            1653     6.14292E-03     42.5987E-03    -26.7669E+06    -93.8031E+06    -8.73810E+06     288.908E+03    -25.5632E-03     50.9429E-03    -25.3797E-03     33.1251E-03    -25.5563E-03     50.5333E-03    -25.2486E-03     33.1009E-03
            1654     5.26537E-03     42.5693E-03    -29.2157E+06    -99.0867E+06    -13.3340E+06     298.538E+03    -25.4805E-03     50.8467E-03    -25.3662E-03     28.6022E-03    -25.4688E-03     50.4182E-03    -25.2468E-03     28.5842E-03
            1655     4.38781E-03     42.5442E-03    -31.5460E+06    -108.656E+06    -18.4625E+06     235.891E+03    -25.4231E-03     50.7803E-03    -25.3572E-03     23.9515E-03    -25.3999E-03     50.3129E-03    -25.2462E-03     23.9377E-03
            1656     3.51023E-03     42.5236E-03    -33.6599E+06    -113.361E+06    -24.3436E+06     144.277E+03    -25.3724E-03     50.7102E-03    -25.3378E-03     19.2424E-03    -25.3430E-03     50.2295E-03    -25.2463E-03     19.2317E-03
            1657     2.63268E-03     42.5075E-03    -35.5471E+06    -116.119E+06    -29.1017E+06     150.434E+03    -25.3383E-03     50.6586E-03    -25.3204E-03     14.5011E-03    -25.3065E-03     50.1728E-03    -25.2460E-03     14.4941E-03
            1658     1.75512E-03     42.4959E-03    -37.3203E+06    -121.186E+06    -32.9257E+06     75.2553E+03    -25.3237E-03     50.6291E-03    -25.3054E-03     9.76903E-03    -25.2874E-03     50.1255E-03    -25.2402E-03     9.76429E-03
            1659     877.605E-06     42.4889E-03    -39.0549E+06    -121.675E+06    -37.5423E+06    -20.0812E+03    -25.2683E-03     50.5593E-03    -25.2910E-03     5.25384E-03    -25.2328E-03     50.0622E-03    -25.2456E-03     5.25060E-03
            1660     16.6727E-03     42.2082E-03    -3.80048E+06     110.344E+06     62.5788E+06    -707.092E+03    -25.4235E-03     50.8066E-03    -25.3831E-03     37.4847E-03    -25.8054E-03     51.3852E-03    -25.2247E-03     37.4126E-03
            1661     15.7983E-03     42.1581E-03    -6.72595E+06     108.073E+06     48.7273E+06     323.958E+03    -25.6201E-03     50.9381E-03    -25.3180E-03     56.7107E-03    -26.0558E-03     51.5922E-03    -25.2213E-03     56.6224E-03
            1662     14.9184E-03     42.1017E-03    -9.46439E+06     97.1615E+06     30.7821E+06     796.993E+03    -25.5775E-03     50.8357E-03    -25.2583E-03     64.2446E-03    -25.9848E-03     51.4651E-03    -25.2315E-03     64.1396E-03
            1663     14.0414E-03     42.0358E-03    -10.2562E+06     48.2895E+06     9.73561E+06    -250.991E+03    -25.9885E-03     51.2283E-03    -25.2398E-03     67.4167E-03    -26.2839E-03     51.6305E-03    -25.2462E-03     67.2837E-03
            1664     13.1632E-03     41.9739E-03    -11.2306E+06    -3.69114E+06     996.354E+03     220.361E+03    -26.1038E-03     51.3827E-03    -25.2789E-03     63.4972E-03    -26.2744E-03     51.4974E-03    -25.2523E-03     63.3777E-03
            1665     12.2858E-03     41.9156E-03    -13.1993E+06    -24.7782E+06     2.23909E+06     422.697E+03    -26.0366E-03     51.3575E-03    -25.3209E-03     59.4483E-03    -26.1523E-03     51.3319E-03    -25.2546E-03     59.3482E-03
            1666     11.4082E-03     41.8613E-03    -14.8457E+06    -44.8832E+06     322.527E+03     125.195E+03    -26.0723E-03     51.4139E-03    -25.3415E-03     56.1202E-03    -26.1423E-03     51.2708E-03    -25.2533E-03     56.0304E-03
            1667     10.5308E-03     41.8091E-03    -16.3976E+06    -55.2764E+06     1.96606E+06     206.584E+03    -26.0223E-03     51.3835E-03    -25.3613E-03     53.1116E-03    -26.0714E-03     51.1725E-03    -25.2475E-03     53.0369E-03
            1668     9.65320E-03     41.7603E-03    -17.9125E+06    -62.3669E+06     1.79615E+06     227.106E+03    -25.9284E-03     51.2945E-03    -25.3661E-03     49.6388E-03    -25.9625E-03     51.0384E-03    -25.2407E-03     49.5772E-03
            1669     8.77576E-03     41.7147E-03    -19.8646E+06    -70.3557E+06     360.618E+03     213.085E+03    -25.8375E-03     51.2038E-03    -25.3663E-03     45.8216E-03    -25.8587E-03     50.9036E-03    -25.2337E-03     45.7712E-03
            1670     7.89817E-03     41.6730E-03    -22.1067E+06    -76.4283E+06    -1.84053E+06     164.287E+03    -25.7274E-03     51.0881E-03    -25.3607E-03     41.7610E-03    -25.7410E-03     50.7573E-03    -25.2270E-03     41.7199E-03
            1671     7.02067E-03     41.6352E-03    -24.2419E+06    -86.0453E+06    -4.95688E+06     133.487E+03    -25.6344E-03     50.9907E-03    -25.3564E-03     37.4633E-03    -25.6352E-03     50.6144E-03    -25.2212E-03     37.4301E-03
            1672     6.14312E-03     41.6016E-03    -26.4715E+06    -93.8212E+06    -8.70269E+06     114.134E+03    -25.5470E-03     50.8939E-03    -25.3469E-03     33.0353E-03    -25.5386E-03     50.4837E-03    -25.2160E-03     33.0089E-03
            1673     5.26555E-03     41.5722E-03    -28.9146E+06    -99.0373E+06    -13.0861E+06     152.482E+03    -25.4578E-03     50.7899E-03    -25.3321E-03     28.5168E-03    -25.4451E-03     50.3609E-03    -25.2120E-03     28.4970E-03
            1674     4.38796E-03     41.5472E-03    -31.6689E+06    -108.473E+06    -17.8718E+06     117.061E+03    -25.3986E-03     50.7212E-03    -25.3226E-03     23.8728E-03    -25.3770E-03     50.2540E-03    -25.2088E-03     23.8575E-03
            1675     3.51041E-03     41.5266E-03    -34.5337E+06    -113.281E+06    -24.0737E+06     37.7504E+03    -25.3416E-03     50.6410E-03    -25.2993E-03     19.1809E-03    -25.3171E-03     50.1615E-03    -25.2054E-03     19.1688E-03
            1676     2.63280E-03     41.5105E-03    -37.0592E+06    -116.048E+06    -30.7524E+06    -7.27925E+03    -25.2886E-03     50.5601E-03    -25.2715E-03     14.4674E-03    -25.2621E-03     50.0793E-03    -25.2033E-03     14.4585E-03
            1677     1.75521E-03     41.4990E-03    -39.0223E+06    -121.003E+06    -35.8139E+06    -134.920E+03    -25.2557E-03     50.5134E-03    -25.2577E-03     9.75146E-03    -25.2239E-03     50.0173E-03    -25.2047E-03     9.74405E-03
            1678     877.584E-06     41.4919E-03    -40.1161E+06    -121.880E+06    -39.1129E+06    -211.791E+03    -25.2201E-03     50.4936E-03    -25.2734E-03     5.22787E-03    -25.1874E-03     49.9993E-03    -25.2341E-03     5.22218E-03
            1679     16.6759E-03     41.2116E-03    -3.85753E+06     109.920E+06     62.0727E+06     98.2171E+03    -25.0096E-03     50.3952E-03    -25.3856E-03     38.8066E-03    -25.3907E-03     50.9728E-03    -25.2290E-03     38.7465E-03
            1680     15.7947E-03     41.1598E-03    -7.79620E+06     107.040E+06     47.9905E+06     30.9413E+03    -25.6960E-03     51.0277E-03    -25.3317E-03     56.9224E-03    -26.1348E-03     51.6797E-03    -25.2357E-03     56.8297E-03
            1681     14.9195E-03     41.1046E-03    -9.17901E+06     97.8672E+06     31.8429E+06    -518.872E+03    -25.8351E-03     51.1025E-03    -25.2674E-03     64.2868E-03    -26.2452E-03     51.7351E-03    -25.2368E-03     64.1629E-03
            1682     14.0405E-03     41.0386E-03    -11.2034E+06     48.0639E+06     9.69708E+06     72.1710E+03    -25.9950E-03     51.2340E-03    -25.2391E-03     67.7005E-03    -26.2952E-03     51.6370E-03    -25.2440E-03     67.5717E-03
            1683     13.1636E-03     40.9765E-03    -13.0211E+06    -4.09689E+06     206.021E+03     558.709E+03    -26.1392E-03     51.4134E-03    -25.2742E-03     63.3859E-03    -26.3169E-03     51.5297E-03    -25.2483E-03     63.2705E-03
            1684     12.2858E-03     40.9185E-03    -13.8492E+06    -24.4339E+06     1.90530E+06     507.663E+03    -26.1206E-03     51.4310E-03    -25.3104E-03     59.3412E-03    -26.2397E-03     51.4087E-03    -25.2454E-03     59.2417E-03
            1685     11.4084E-03     40.8637E-03    -15.0785E+06    -44.8101E+06     151.900E+03     527.026E+03    -26.1182E-03     51.4438E-03    -25.3257E-03     56.0203E-03    -26.1891E-03     51.3017E-03    -25.2381E-03     55.9355E-03
            1686     10.5309E-03     40.8120E-03    -16.6618E+06    -54.9132E+06     1.76083E+06     223.293E+03    -26.0541E-03     51.3941E-03    -25.3400E-03     53.0139E-03    -26.1047E-03     51.1854E-03    -25.2274E-03     52.9394E-03
            1687     9.65349E-03     40.7629E-03    -18.3427E+06    -62.4632E+06     1.52892E+06     15.5605E+03    -25.9605E-03     51.3007E-03    -25.3403E-03     49.5307E-03    -25.9961E-03     51.0451E-03    -25.2154E-03     49.4664E-03
            1688     8.77596E-03     40.7176E-03    -19.9894E+06    -70.3674E+06     558.172E+03     135.896E+03    -25.8442E-03     51.1816E-03    -25.3374E-03     45.6795E-03    -25.8662E-03     50.8812E-03    -25.2036E-03     45.6281E-03
            1689     7.89851E-03     40.6758E-03    -21.9333E+06    -76.2915E+06    -1.73307E+06     139.614E+03    -25.7201E-03     51.0472E-03    -25.3271E-03     41.6442E-03    -25.7331E-03     50.7165E-03    -25.1933E-03     41.6029E-03
            1690     7.02093E-03     40.6381E-03    -24.4515E+06    -86.0644E+06    -5.15034E+06     135.034E+03    -25.6205E-03     50.9393E-03    -25.3188E-03     37.3608E-03    -25.6221E-03     50.5635E-03    -25.1843E-03     37.3278E-03
            1691     6.14336E-03     40.6045E-03    -27.1667E+06    -93.6028E+06    -9.07912E+06     42.0102E+03    -25.5207E-03     50.8266E-03    -25.3058E-03     32.9346E-03    -25.5156E-03     50.4190E-03    -25.1761E-03     32.9075E-03
            1692     5.26577E-03     40.5752E-03    -29.8631E+06    -99.2680E+06    -13.3956E+06     43.9057E+03    -25.4294E-03     50.7189E-03    -25.2894E-03     28.4180E-03    -25.4206E-03     50.2905E-03    -25.1692E-03     28.3969E-03
            1693     4.38818E-03     40.5502E-03    -32.5941E+06    -108.300E+06    -19.0326E+06     238.576E+03    -25.3609E-03     50.6331E-03    -25.2722E-03     23.7876E-03    -25.3426E-03     50.1698E-03    -25.1630E-03     23.7739E-03
            1694     3.51055E-03     40.5297E-03    -35.3136E+06    -113.274E+06    -25.4988E+06     231.730E+03    -25.2925E-03     50.5388E-03    -25.2463E-03     19.1170E-03    -25.2698E-03     50.0626E-03    -25.1583E-03     19.1075E-03
            1695     2.63293E-03     40.5137E-03    -37.7923E+06    -115.882E+06    -31.8459E+06     261.568E+03    -25.2326E-03     50.4536E-03    -25.2210E-03     14.4186E-03    -25.2084E-03     49.9762E-03    -25.1574E-03     14.4132E-03
            1696     1.75526E-03     40.5022E-03    -39.6716E+06    -120.589E+06    -36.9314E+06    -125.337E+03    -25.2063E-03     50.4149E-03    -25.2086E-03     9.70926E-03    -25.1767E-03     49.9235E-03    -25.1609E-03     9.70200E-03
            1697     877.593E-06     40.4951E-03    -40.8236E+06    -122.458E+06    -40.0282E+06    -403.708E+03    -25.2104E-03     50.4033E-03    -25.1929E-03     5.19773E-03    -25.1790E-03     49.9084E-03    -25.1563E-03     5.18958E-03
            1698     16.6710E-03     40.2140E-03    -3.36763E+06     110.615E+06     63.6705E+06     492.304E+03    -25.2047E-03     50.5926E-03    -25.3879E-03     37.7289E-03    -25.5845E-03     51.1685E-03    -25.2251E-03     37.6742E-03
            1699     15.7974E-03     40.1614E-03    -6.70244E+06     107.767E+06     47.6441E+06    -973.416E+03    -25.3978E-03     50.7229E-03    -25.3251E-03     55.9367E-03    -25.8298E-03     51.3755E-03    -25.2335E-03     55.8332E-03
            1700     14.9179E-03     40.1072E-03    -10.2047E+06     96.8055E+06     29.6723E+06    -539.978E+03    -25.8334E-03     51.0980E-03    -25.2646E-03     63.7746E-03    -26.2447E-03     51.7307E-03    -25.2418E-03     63.6492E-03
            1701     14.0414E-03     40.0411E-03    -12.3744E+06     47.5948E+06     9.72098E+06     407.416E+03    -26.1747E-03     51.4149E-03    -25.2402E-03     67.4494E-03    -26.4808E-03     51.8178E-03    -25.2426E-03     67.3231E-03
            1702     13.1633E-03     39.9791E-03    -13.2572E+06    -4.14416E+06     244.928E+03     485.204E+03    -26.2163E-03     51.4805E-03    -25.2642E-03     63.2650E-03    -26.3951E-03     51.5968E-03    -25.2377E-03     63.1482E-03
            1703     12.2862E-03     39.9210E-03    -14.4172E+06    -24.4831E+06     1.74542E+06     552.573E+03    -26.1827E-03     51.4766E-03    -25.2938E-03     59.2303E-03    -26.3044E-03     51.4551E-03    -25.2287E-03     59.1309E-03
            1704     11.4086E-03     39.8665E-03    -15.4724E+06    -44.4640E+06     118.724E+03     399.540E+03    -26.1410E-03     51.4449E-03    -25.3039E-03     55.9301E-03    -26.2143E-03     51.3051E-03    -25.2164E-03     55.8437E-03
            1705     10.5312E-03     39.8145E-03    -16.5738E+06    -54.6961E+06     1.92324E+06     251.562E+03    -26.0873E-03     51.4014E-03    -25.3142E-03     52.8880E-03    -26.1378E-03     51.1934E-03    -25.2012E-03     52.8139E-03
            1706     9.65378E-03     39.7657E-03    -18.2899E+06    -62.2980E+06     1.49985E+06     109.340E+03    -25.9833E-03     51.2917E-03    -25.3084E-03     49.3827E-03    -26.0188E-03     51.0367E-03    -25.1840E-03     49.3197E-03
            1707     8.77637E-03     39.7203E-03    -20.3914E+06    -70.4134E+06     318.337E+03    -117.602E+03    -25.8414E-03     51.1424E-03    -25.3009E-03     45.5575E-03    -25.8649E-03     50.8426E-03    -25.1677E-03     45.5031E-03
            1708     7.89876E-03     39.6788E-03    -22.5221E+06    -76.4472E+06    -2.20410E+06     83.3389E+03    -25.7119E-03     50.9979E-03    -25.2859E-03     41.5313E-03    -25.7269E-03     50.6679E-03    -25.1535E-03     41.4894E-03
            1709     7.02122E-03     39.6410E-03    -24.7439E+06    -85.9967E+06    -5.22196E+06     246.448E+03    -25.6056E-03     50.8805E-03    -25.2749E-03     37.2276E-03    -25.6086E-03     50.5054E-03    -25.1404E-03     37.1961E-03
            1710     6.14367E-03     39.6076E-03    -27.2582E+06    -93.3544E+06    -9.03719E+06     146.143E+03    -25.4966E-03     50.7545E-03    -25.2579E-03     32.8102E-03    -25.4922E-03     50.3482E-03    -25.1282E-03     32.7845E-03
            1711     5.26604E-03     39.5783E-03    -30.0307E+06    -99.3845E+06    -13.7989E+06     76.9042E+03    -25.3943E-03     50.6308E-03    -25.2365E-03     28.3097E-03    -25.3855E-03     50.2026E-03    -25.1179E-03     28.2891E-03
            1712     4.38841E-03     39.5534E-03    -32.6611E+06    -108.397E+06    -19.4094E+06     143.236E+03    -25.3165E-03     50.5332E-03    -25.2167E-03     23.6854E-03    -25.2978E-03     50.0700E-03    -25.1093E-03     23.6706E-03
            1713     3.51075E-03     39.5329E-03    -35.0676E+06    -113.322E+06    -25.7910E+06     425.638E+03    -25.2433E-03     50.4323E-03    -25.1891E-03     19.0174E-03    -25.2188E-03     49.9559E-03    -25.1028E-03     19.0105E-03
            1714     2.63305E-03     39.5169E-03    -37.1130E+06    -115.391E+06    -31.3118E+06     259.438E+03    -25.1852E-03     50.3495E-03    -25.1643E-03     14.3266E-03    -25.1590E-03     49.8728E-03    -25.0998E-03     14.3212E-03
            1715     1.75537E-03     39.5054E-03    -38.7492E+06    -120.320E+06    -35.5304E+06    -5.63488E+03    -25.1591E-03     50.3104E-03    -25.1513E-03     9.65850E-03    -25.1273E-03     49.8170E-03    -25.0983E-03     9.65281E-03
            1716     877.759E-06     39.4983E-03    -40.4572E+06    -122.779E+06    -39.3978E+06     46.9083E+03    -25.1466E-03     50.2760E-03    -25.1294E-03     5.21807E-03    -25.1138E-03     49.7781E-03    -25.0897E-03     5.21572E-03
            1717     16.6786E-03     39.2163E-03    -2.96024E+06     110.967E+06     63.5618E+06     202.517E+03    -25.3179E-03     50.6932E-03    -25.3753E-03     37.6538E-03    -25.6962E-03     51.2706E-03    -25.2141E-03     37.5962E-03
            1718     15.7957E-03     39.1657E-03    -5.68722E+06     108.557E+06     48.1469E+06     1.03588E+06    -25.2246E-03     50.5413E-03    -25.3167E-03     57.1064E-03    -25.6544E-03     51.1965E-03    -25.2251E-03     57.0301E-03
            1719     14.9191E-03     39.1088E-03    -9.99837E+06     96.6772E+06     29.2543E+06     138.646E+03    -25.8666E-03     51.1254E-03    -25.2588E-03     64.0069E-03    -26.2754E-03     51.7571E-03    -25.2382E-03     63.8900E-03
            1720     14.0409E-03     39.0439E-03    -11.8892E+06     46.9952E+06     8.54221E+06     238.364E+03    -26.2803E-03     51.5066E-03    -25.2263E-03     67.2000E-03    -26.5804E-03     51.9066E-03    -25.2345E-03     67.0713E-03
            1721     13.1640E-03     38.9815E-03    -13.3194E+06    -4.22323E+06    -26.1985E+03     883.083E+03    -26.2875E-03     51.5360E-03    -25.2485E-03     63.2635E-03    -26.4657E-03     51.6520E-03    -25.2232E-03     63.1518E-03
            1722     12.2863E-03     38.9236E-03    -14.3997E+06    -24.0469E+06     1.85724E+06     426.836E+03    -26.2373E-03     51.5109E-03    -25.2736E-03     59.1829E-03    -26.3595E-03     51.4913E-03    -25.2086E-03     59.0818E-03
            1723     11.4089E-03     38.8691E-03    -15.2113E+06    -44.3153E+06     179.775E+03     33.2596E+03    -26.2273E-03     51.5036E-03    -25.2763E-03     55.8007E-03    -26.2995E-03     51.3639E-03    -25.1891E-03     55.7094E-03
            1724     10.5316E-03     38.8172E-03    -16.1655E+06    -54.6427E+06     2.14621E+06    -23.7556E+03    -26.1116E-03     51.3918E-03    -25.2802E-03     52.7252E-03    -26.1603E-03     51.1830E-03    -25.1668E-03     52.6476E-03
            1725     9.65416E-03     38.7684E-03    -17.2683E+06    -62.1156E+06     1.84226E+06    -106.177E+03    -25.9767E-03     51.2467E-03    -25.2699E-03     49.2060E-03    -26.0077E-03     50.9905E-03    -25.1456E-03     49.1404E-03
            1726     8.77661E-03     38.7233E-03    -18.9490E+06    -70.7037E+06     1.25284E+06     213.575E+03    -25.8532E-03     51.1146E-03    -25.2614E-03     45.3743E-03    -25.8703E-03     50.8098E-03    -25.1252E-03     45.3242E-03
            1727     7.89919E-03     38.6816E-03    -21.6351E+06    -76.5714E+06    -1.43464E+06     466.932E+03    -25.7127E-03     50.9536E-03    -25.2409E-03     41.3455E-03    -25.7241E-03     50.6205E-03    -25.1057E-03     41.3087E-03
            1728     7.02162E-03     38.6441E-03    -24.3108E+06    -85.6031E+06    -5.09462E+06     185.595E+03    -25.5861E-03     50.8077E-03    -25.2216E-03     37.0754E-03    -25.5875E-03     50.4337E-03    -25.0877E-03     37.0433E-03
            1729     6.14399E-03     38.6106E-03    -26.7027E+06    -93.5402E+06    -8.87946E+06     156.758E+03    -25.4713E-03     50.6724E-03    -25.2011E-03     32.6616E-03    -25.4641E-03     50.2641E-03    -25.0711E-03     32.6362E-03
            1730     5.26637E-03     38.5815E-03    -29.1659E+06    -98.9925E+06    -13.5388E+06     125.530E+03    -25.3571E-03     50.5318E-03    -25.1747E-03     28.1659E-03    -25.3449E-03     50.1039E-03    -25.0566E-03     28.1460E-03
            1731     4.38868E-03     38.5566E-03    -31.7638E+06    -108.720E+06    -18.2097E+06     17.7983E+03    -25.2725E-03     50.4293E-03    -25.1568E-03     23.5500E-03    -25.2505E-03     49.9614E-03    -25.0441E-03     23.5337E-03
            1732     3.51099E-03     38.5362E-03    -34.2222E+06    -113.481E+06    -24.1691E+06     321.677E+03    -25.1943E-03     50.3209E-03    -25.1266E-03     18.9018E-03    -25.1678E-03     49.8401E-03    -25.0333E-03     18.8936E-03
            1733     2.63328E-03     38.5203E-03    -36.4720E+06    -114.800E+06    -30.8786E+06     379.568E+03    -25.1246E-03     50.2152E-03    -25.0906E-03     14.2494E-03    -25.0967E-03     49.7399E-03    -25.0257E-03     14.2456E-03
            1734     1.75554E-03     38.5088E-03    -38.6022E+06    -120.381E+06    -35.7524E+06     308.101E+03    -25.0765E-03     50.1529E-03    -25.0764E-03     9.60517E-03    -25.0435E-03     49.6592E-03    -25.0246E-03     9.60357E-03
            1735     877.672E-06     38.5018E-03    -39.9983E+06    -122.384E+06    -39.0114E+06     370.151E+03    -25.0527E-03     50.1353E-03    -25.0826E-03     5.22210E-03    -25.0187E-03     49.6381E-03    -25.0422E-03     5.22395E-03
            1736     16.6699E-03     38.2202E-03    -3.39239E+06     109.940E+06     62.9098E+06     118.935E+03    -25.1409E-03     50.5376E-03    -25.3968E-03     37.7508E-03    -25.5195E-03     51.1120E-03    -25.2367E-03     37.6906E-03
            1737     15.7966E-03     38.1670E-03    -6.80500E+06     107.817E+06     47.3739E+06     1.10644E+06    -25.9118E-03     51.2361E-03    -25.3243E-03     56.8862E-03    -26.3456E-03     51.8910E-03    -25.2339E-03     56.8052E-03
            1738     14.9184E-03     38.1118E-03    -9.52498E+06     97.1806E+06     29.4799E+06     1.09171E+06    -25.9870E-03     51.2308E-03    -25.2439E-03     63.5142E-03    -26.3930E-03     51.8626E-03    -25.2236E-03     63.4092E-03
            1739     14.0414E-03     38.0458E-03    -13.1021E+06     46.9502E+06     8.21122E+06     1.08824E+06    -26.1997E-03     51.4087E-03    -25.2090E-03     66.9005E-03    -26.5042E-03     51.8096E-03    -25.2170E-03     66.7836E-03
            1740     13.1638E-03     37.9844E-03    -14.2543E+06    -3.74804E+06    -336.403E+03     261.568E+03    -26.3517E-03     51.5801E-03    -25.2284E-03     63.0602E-03    -26.5348E-03     51.7002E-03    -25.2040E-03     62.9400E-03
            1741     12.2866E-03     37.9260E-03    -14.2307E+06    -23.6253E+06     1.95914E+06    -267.420E+03    -26.3288E-03     51.5753E-03    -25.2465E-03     59.0296E-03    -26.4508E-03     51.5573E-03    -25.1818E-03     58.9193E-03
            1742     11.4094E-03     37.8717E-03    -14.8336E+06    -44.1848E+06     243.579E+03    -230.671E+03    -26.2696E-03     51.5113E-03    -25.2416E-03     55.5895E-03    -26.3400E-03     51.3714E-03    -25.1548E-03     55.4947E-03
            1743     10.5320E-03     37.8199E-03    -15.9749E+06    -54.6935E+06     2.09050E+06    -307.052E+03    -26.1220E-03     51.3622E-03    -25.2402E-03     52.5827E-03    -26.1694E-03     51.1527E-03    -25.1273E-03     52.5017E-03
            1744     9.65457E-03     37.7713E-03    -17.8018E+06    -62.1246E+06     1.52891E+06    -196.332E+03    -25.9880E-03     51.2126E-03    -25.2246E-03     49.0828E-03    -26.0210E-03     50.9574E-03    -25.1011E-03     49.0163E-03
            1745     8.77719E-03     37.7260E-03    -19.9000E+06    -71.4892E+06     566.697E+03     252.474E+03    -25.8650E-03     51.0748E-03    -25.2098E-03     45.2028E-03    -25.8846E-03     50.7683E-03    -25.0744E-03     45.1534E-03
            1746     7.89962E-03     37.6847E-03    -21.6561E+06    -76.3031E+06    -1.34058E+06     586.567E+03    -25.7056E-03     50.8893E-03    -25.1837E-03     41.1520E-03    -25.7175E-03     50.5574E-03    -25.0484E-03     41.1169E-03
            1747     7.02202E-03     37.6471E-03    -23.7989E+06    -85.1040E+06    -4.94043E+06     312.806E+03    -25.5664E-03     50.7242E-03    -25.1578E-03     36.8892E-03    -25.5662E-03     50.3517E-03    -25.0246E-03     36.8589E-03
            1748     6.14444E-03     37.6139E-03    -26.3788E+06    -93.7515E+06    -8.93924E+06     158.838E+03    -25.4390E-03     50.5710E-03    -25.1320E-03     32.4762E-03    -25.4298E-03     50.1612E-03    -25.0025E-03     32.4510E-03
            1749     5.26675E-03     37.5847E-03    -29.0994E+06    -98.6945E+06    -13.4206E+06     214.809E+03    -25.3120E-03     50.4128E-03    -25.1008E-03     27.9952E-03    -25.3000E-03     49.9861E-03    -24.9826E-03     27.9767E-03
            1750     4.38905E-03     37.5600E-03    -31.9449E+06    -108.639E+06    -18.2363E+06     42.2807E+03    -25.2141E-03     50.2919E-03    -25.0778E-03     23.4017E-03    -25.1931E-03     49.8247E-03    -24.9652E-03     23.3858E-03
            1751     3.51129E-03     37.5397E-03    -34.5131E+06    -113.813E+06    -24.5524E+06     10.4182E+03    -25.1208E-03     50.1638E-03    -25.0430E-03     18.7897E-03    -25.0947E-03     49.6823E-03    -24.9506E-03     18.7776E-03
            1752     2.63349E-03     37.5238E-03    -36.3766E+06    -114.812E+06    -31.0675E+06     490.877E+03    -25.0395E-03     50.0453E-03    -25.0058E-03     14.1704E-03    -25.0109E-03     49.5701E-03    -24.9419E-03     14.1681E-03
            1753     1.75564E-03     37.5124E-03    -37.8275E+06    -119.883E+06    -34.9497E+06     596.000E+03    -25.0047E-03     49.9964E-03    -24.9917E-03     9.54079E-03    -24.9698E-03     49.5030E-03    -24.9378E-03     9.54295E-03
            1754     877.884E-06     37.5054E-03    -39.2217E+06    -121.856E+06     -37.823E+06     143.022E+03    -24.9731E-03     49.9603E-03    -24.9872E-03     5.20092E-03    -24.9377E-03     49.4629E-03    -24.9427E-03     5.19985E-03
            1755     16.6762E-03     37.2207E-03    -3.25189E+06     110.102E+06     63.2515E+06    -2.87983E+03    -25.6081E-03     50.9843E-03    -25.3761E-03     36.2319E-03    -25.9844E-03     51.5564E-03    -25.2148E-03     36.1678E-03
            1756     15.7964E-03     37.1691E-03    -7.36082E+06     107.443E+06      47.285E+06     81.7728E+03    -25.7025E-03     50.9958E-03    -25.2933E-03     55.4470E-03    -26.1354E-03     51.6469E-03    -25.2020E-03     55.3546E-03
            1757     14.9199E-03     37.1140E-03    -10.5283E+06     96.3413E+06     29.4089E+06     2.00199E+06    -25.8307E-03     51.0526E-03    -25.2219E-03     63.4568E-03    -26.2396E-03     51.6808E-03    -25.1993E-03     63.3649E-03
            1758     14.0417E-03     37.0488E-03    -11.3655E+06     48.5023E+06     9.88126E+06     1.41813E+06    -26.2650E-03     51.4545E-03    -25.1895E-03     67.0042E-03    -26.5659E-03     51.8586E-03    -25.1940E-03     66.8909E-03
            1759     13.1644E-03     36.9865E-03    -12.0530E+06    -2.62150E+06     683.205E+03    -220.977E+03    -26.4308E-03     51.6304E-03    -25.1996E-03     62.9583E-03    -26.6058E-03     51.7514E-03    -25.1749E-03     62.8315E-03
            1760     12.2872E-03     36.9286E-03    -13.2552E+06    -23.7084E+06     2.33405E+06    -533.794E+03    -26.3571E-03     51.5694E-03    -25.2123E-03     58.8601E-03    -26.4744E-03     51.5487E-03    -25.1470E-03     58.7464E-03
            1761     11.4098E-03     36.8742E-03    -14.4233E+06    -44.2750E+06     280.336E+03    -420.161E+03    -26.2583E-03     51.4615E-03    -25.2032E-03     55.4876E-03    -26.3262E-03     51.3203E-03    -25.1167E-03     55.3907E-03
            1762     10.5324E-03     36.8227E-03    -15.8512E+06    -54.8612E+06     2.03456E+06    -130.021E+03    -26.1647E-03     51.3618E-03    -25.1971E-03     52.4103E-03    -26.2110E-03     51.1512E-03    -25.0844E-03     52.3317E-03
            1763     9.65505E-03     36.7740E-03    -17.6923E+06    -62.3034E+06     1.46749E+06     134.781E+03    -26.0369E-03     51.2100E-03    -25.1731E-03     48.8806E-03    -26.0689E-03     50.9537E-03    -25.0498E-03     48.8184E-03
            1764     8.77758E-03     36.7290E-03    -19.5988E+06    -71.7817E+06     475.780E+03     173.435E+03    -25.8839E-03     51.0330E-03    -25.1491E-03     44.9582E-03    -25.9012E-03     50.7245E-03    -25.0142E-03     44.9080E-03
            1765     7.90014E-03     36.6877E-03    -21.7401E+06    -76.4146E+06    -1.49720E+06     281.711E+03    -25.7028E-03     50.8177E-03    -25.1150E-03     40.9038E-03    -25.7146E-03     50.4855E-03    -24.9801E-03     40.8649E-03
            1766     7.02260E-03     36.6503E-03    -24.0463E+06    -84.6963E+06    -4.93897E+06     413.624E+03    -25.5412E-03     50.6229E-03    -25.0818E-03     36.6526E-03    -25.5427E-03     50.2527E-03    -24.9488E-03     36.6238E-03
            1767     6.14492E-03     36.6171E-03    -26.5902E+06    -93.7369E+06    -9.15356E+06     304.531E+03    -25.3921E-03     50.4411E-03    -25.0490E-03     32.2614E-03    -25.3835E-03     50.0319E-03    -24.9203E-03     32.2383E-03
            1768     5.26723E-03     36.5881E-03    -29.1935E+06    -98.6853E+06    -13.8135E+06     355.972E+03    -25.2465E-03     50.2585E-03    -25.0120E-03     27.8126E-03    -25.2344E-03     49.8325E-03    -24.8956E-03     27.7960E-03
            1769     4.38944E-03     36.5635E-03    -32.0237E+06    -108.260E+06    -18.7417E+06     342.320E+03    -25.1374E-03     50.1216E-03    -24.9842E-03     23.2493E-03    -25.1165E-03     49.6571E-03    -24.8745E-03     23.2374E-03
            1770     3.51162E-03     36.5433E-03    -35.0396E+06    -113.819E+06    -24.9442E+06     103.297E+03    -25.0357E-03     49.9837E-03    -24.9480E-03     18.6568E-03    -25.0116E-03     49.5035E-03    -24.8569E-03     18.6460E-03
            1771     2.63373E-03     36.5275E-03     -37.413E+06    -115.257E+06    -31.1091E+06     109.727E+03    -24.9491E-03     49.8596E-03    -24.9105E-03     14.0653E-03    -24.9250E-03     49.3837E-03    -24.8447E-03     14.0581E-03
            1772     1.75585E-03     36.5161E-03    -38.8743E+06    -119.270E+06    -35.7400E+06     413.367E+03    -24.9128E-03     49.7977E-03    -24.8849E-03     9.48918E-03    -24.8828E-03     49.3099E-03    -24.8343E-03     9.48902E-03
            1773     877.923E-06     36.5091E-03    -40.0029E+06    -121.356E+06    -39.1797E+06     164.150E+03    -24.8753E-03     49.7356E-03    -24.8603E-03     5.13249E-03    -24.8426E-03     49.2438E-03    -24.8223E-03     5.13172E-03
            1774     16.6745E-03     36.2229E-03    -4.00334E+06     109.325E+06     61.4099E+06    -413.764E+03    -25.5894E-03     50.9513E-03    -25.3620E-03     38.6179E-03    -25.9695E-03     51.5273E-03    -25.2076E-03     38.5476E-03
            1775     15.7982E-03     36.1727E-03    -6.26201E+06     106.381E+06     50.4331E+06     1.23421E+06    -25.7283E-03     51.0317E-03    -25.3035E-03     56.9193E-03    -26.1606E-03     51.6732E-03    -25.1965E-03     56.8420E-03
            1776     14.9186E-03     36.1164E-03    -8.17821E+06     96.5639E+06     33.9978E+06     1.84579E+06    -25.9706E-03     51.2029E-03    -25.2322E-03     64.0943E-03    -26.3752E-03     51.8226E-03    -25.1904E-03     64.0000E-03
            1777     14.0419E-03     36.0510E-03    -9.80464E+06     50.4222E+06     10.8742E+06     825.278E+03    -26.4609E-03     51.6313E-03    -25.1703E-03     67.0063E-03    -26.7582E-03     52.0411E-03    -25.1748E-03     66.8845E-03
            1778     13.1648E-03     35.9889E-03    -10.9784E+06    -1.64411E+06     944.171E+03     422.182E+03    -26.4998E-03     51.6690E-03    -25.1692E-03     63.0177E-03    -26.6709E-03     51.7926E-03    -25.1462E-03     62.8993E-03
            1779     12.2875E-03     35.9311E-03    -12.3572E+06    -23.7756E+06     2.29140E+06    -122.127E+03    -26.4008E-03     51.5772E-03    -25.1764E-03     58.7972E-03    -26.5132E-03     51.5546E-03    -25.1125E-03     58.6889E-03
            1780     11.4102E-03     35.8769E-03    -13.9382E+06    -44.5235E+06     206.844E+03    -131.167E+03    -26.3481E-03     51.5083E-03    -25.1602E-03     55.2840E-03    -26.4129E-03     51.3650E-03    -25.0744E-03     55.1908E-03
            1781     10.5330E-03     35.8253E-03    -15.6374E+06    -55.1515E+06     1.81419E+06     195.821E+03    -26.2415E-03     51.3844E-03    -25.1429E-03     52.1193E-03    -26.2858E-03     51.1722E-03    -25.0312E-03     52.0448E-03
            1782     9.65569E-03     35.7769E-03    -17.4398E+06    -62.3138E+06     1.45797E+06     294.061E+03    -26.0766E-03     51.1854E-03    -25.1088E-03     48.5514E-03    -26.1071E-03     50.9286E-03    -24.9859E-03     48.4913E-03
            1783     8.77834E-03     35.7319E-03    -19.5378E+06    -71.7018E+06     367.845E+03     318.014E+03    -25.8864E-03     50.9618E-03    -25.0754E-03     44.6647E-03    -25.9033E-03     50.6537E-03    -24.9412E-03     44.6164E-03
            1784     7.90083E-03     35.6909E-03    -21.8737E+06    -76.5598E+06    -1.72120E+06     368.794E+03    -25.6886E-03     50.7217E-03    -25.0331E-03     40.6303E-03    -25.7004E-03     50.3890E-03    -24.8990E-03     40.5927E-03
            1785     7.02318E-03     35.6536E-03    -24.3538E+06    -84.6400E+06    -5.17725E+06     461.582E+03    -25.5028E-03     50.4950E-03    -24.9922E-03     36.4037E-03    -25.5054E-03     50.1257E-03    -24.8601E-03     36.3757E-03
            1786     6.14555E-03     35.6206E-03    -26.8412E+06    -93.4556E+06    -9.28434E+06     413.452E+03    -25.3316E-03     50.2849E-03    -24.9532E-03     32.0301E-03    -25.3244E-03     49.8775E-03    -24.8252E-03     32.0085E-03
            1787     5.26774E-03     35.5917E-03    -29.3478E+06    -98.7842E+06    -14.4207E+06     320.064E+03    -25.1678E-03     50.0772E-03    -24.9094E-03     27.6074E-03    -25.1554E-03     49.6517E-03    -24.7957E-03     27.5906E-03
            1788     4.38988E-03     35.5672E-03    -31.8334E+06    -108.205E+06    -18.8693E+06     582.120E+03    -25.0498E-03     49.9294E-03    -24.8796E-03     23.0673E-03    -25.0278E-03     49.4650E-03    -24.7709E-03     23.0588E-03
            1789     3.51198E-03     35.5471E-03    -34.3598E+06    -112.963E+06    -23.7204E+06     255.770E+03    -24.9495E-03     49.7931E-03    -24.8437E-03     18.4921E-03    -24.9249E-03     49.3144E-03    -24.7486E-03     18.4834E-03
            1790     2.63405E-03     35.5313E-03    -36.6645E+06    -115.752E+06    -29.7505E+06    -176.172E+03    -24.8563E-03     49.6587E-03    -24.8024E-03     13.9432E-03    -24.8296E-03     49.1772E-03    -24.7301E-03     13.9325E-03
            1791     1.75605E-03     35.5200E-03    -38.6933E+06    -119.419E+06    -35.7026E+06     456.477E+03    -24.7878E-03     49.5576E-03    -24.7697E-03     9.42750E-03    -24.7568E-03     49.0688E-03    -24.7190E-03     9.42797E-03
            1792     878.042E-06     35.5130E-03    -40.1173E+06    -120.326E+06    -39.6987E+06     651.931E+03    -24.7620E-03     49.5048E-03    -24.7429E-03     5.07226E-03    -24.7306E-03     49.0191E-03    -24.7087E-03     5.07784E-03
            1793     16.6720E-03     35.2231E-03    -3.67219E+06     108.597E+06     60.9428E+06     280.547E+03    -25.2095E-03     50.5929E-03    -25.3834E-03     37.5677E-03    -25.5829E-03     51.1620E-03    -25.2308E-03     37.5083E-03
            1794     15.7951E-03     35.1745E-03    -7.58342E+06     104.488E+06     48.4884E+06    -320.322E+03    -26.1596E-03     51.4791E-03    -25.3195E-03     55.8630E-03    -26.5923E-03     52.1152E-03    -25.2176E-03     55.7612E-03
            1795     14.9200E-03     35.1186E-03    -8.09005E+06     96.9515E+06     35.3172E+06     181.082E+03    -26.4752E-03     51.7065E-03    -25.2313E-03     63.5100E-03    -26.8828E-03     52.3272E-03    -25.1835E-03     63.3899E-03
            1796     14.0423E-03     35.0531E-03    -9.73020E+06     50.9087E+06     12.6964E+06     1.18002E+06    -26.5034E-03     51.6570E-03    -25.1536E-03     66.7050E-03    -26.8031E-03     52.0661E-03    -25.1498E-03     66.5873E-03
            1797     13.1650E-03     34.9915E-03    -11.3640E+06    -903.472E+03     1.25352E+06     611.454E+03    -26.5850E-03     51.7233E-03    -25.1383E-03     62.6488E-03    -26.7596E-03     51.8507E-03    -25.1142E-03     62.5320E-03
            1798     12.2879E-03     34.9334E-03    -12.3591E+06    -23.6455E+06     2.16432E+06     304.656E+03    -26.5239E-03     51.6568E-03    -25.1329E-03     58.4438E-03    -26.6360E-03     51.6348E-03    -25.0699E-03     58.3405E-03
            1799     11.4109E-03     34.8795E-03    -13.9234E+06    -44.7539E+06    -14.8347E+03     566.057E+03    -26.4605E-03     51.5640E-03    -25.1035E-03     54.8849E-03    -26.5244E-03     51.4197E-03    -25.0185E-03     54.8002E-03
            1800     10.5337E-03     34.8279E-03    -15.6553E+06    -55.0059E+06     1.70299E+06     457.784E+03    -26.2808E-03     51.3555E-03    -25.0747E-03     51.8120E-03    -26.3250E-03     51.1439E-03    -24.9637E-03     51.7410E-03
            1801     9.65645E-03     34.7797E-03    -17.4415E+06    -62.4410E+06     1.33361E+06     493.690E+03    -26.0829E-03     51.1149E-03    -25.0320E-03     48.2523E-03    -26.1128E-03     50.8573E-03    -24.9095E-03     48.1950E-03
            1802     8.77900E-03     34.7350E-03    -19.4589E+06    -71.5624E+06     489.953E+03     612.782E+03    -25.8787E-03     50.8698E-03    -24.9911E-03     44.3825E-03    -25.8953E-03     50.5618E-03    -24.8566E-03     44.3384E-03
            1803     7.90151E-03     34.6941E-03    -21.7585E+06    -76.4548E+06    -1.46867E+06     499.018E+03    -25.6604E-03     50.6017E-03    -24.9414E-03     40.3449E-03    -25.6720E-03     50.2689E-03    -24.8063E-03     40.3093E-03
            1804     7.02395E-03     34.6570E-03    -24.0044E+06    -84.6229E+06    -4.88399E+06     437.028E+03    -25.4575E-03     50.3504E-03    -24.8929E-03     36.1262E-03    -25.4587E-03     49.9801E-03    -24.7598E-03     36.0982E-03
            1805     6.14616E-03     34.6242E-03    -26.3465E+06    -93.2033E+06    -9.04816E+06     410.533E+03    -25.2698E-03     50.1157E-03    -24.8459E-03     31.7764E-03    -25.2607E-03     49.7085E-03    -24.7178E-03     31.7551E-03
            1806     5.26836E-03     34.5955E-03    -29.1422E+06    -99.1029E+06    -13.9218E+06     694.919E+03    -25.0957E-03     49.8931E-03    -24.7974E-03     27.3534E-03    -25.0824E-03     49.4650E-03    -24.6811E-03     27.3417E-03
            1807     4.39042E-03     34.5711E-03    -32.1180E+06    -107.732E+06    -19.1567E+06     612.037E+03    -24.9520E-03     49.7088E-03    -24.7568E-03     22.8569E-03    -24.9317E-03     49.2475E-03    -24.6498E-03     22.8489E-03
            1808     3.51244E-03     34.5510E-03    -34.2774E+06    -111.850E+06    -24.6206E+06    -309.443E+03    -24.8311E-03     49.5436E-03    -24.7125E-03     18.3363E-03    -24.8065E-03     49.0716E-03    -24.6237E-03     18.3205E-03
            1809     2.63439E-03     34.5355E-03    -36.2093E+06    -116.723E+06    -29.5556E+06    -221.698E+03    -24.7385E-03     49.4155E-03    -24.6770E-03     13.8162E-03    -24.7084E-03     48.9282E-03    -24.6031E-03     13.8050E-03
            1810     1.75628E-03     34.5242E-03    -38.2677E+06    -119.633E+06    -34.1468E+06     558.836E+03    -24.6638E-03     49.3113E-03    -24.6475E-03     9.33486E-03    -24.6325E-03     48.8186E-03    -24.5893E-03     9.33672E-03
            1811     878.104E-06     34.5173E-03    -39.3953E+06    -119.111E+06    -38.0970E+06     431.181E+03    -24.6160E-03     49.2471E-03    -24.6311E-03     5.05112E-03    -24.5851E-03     48.7641E-03    -24.5918E-03     5.05385E-03
            1812     16.6767E-03     34.2302E-03    -3.02670E+06     109.900E+06     63.1516E+06     1.02839E+06    -25.8442E-03     51.2075E-03    -25.3633E-03     36.7393E-03    -26.2182E-03     51.7777E-03    -25.2025E-03     36.6879E-03
            1813     15.7972E-03     34.1740E-03    -6.06521E+06     105.558E+06     47.9600E+06    -373.444E+03    -25.8621E-03     51.1363E-03    -25.2743E-03     55.4204E-03    -26.2863E-03     51.7748E-03    -25.1788E-03     55.3203E-03
            1814     14.9198E-03     34.1211E-03    -10.1770E+06     94.7469E+06     31.3062E+06    -1.35412E+06    -26.3388E-03     51.5270E-03    -25.1881E-03     62.7438E-03    -26.7468E-03     52.1443E-03    -25.1542E-03     62.6043E-03
            1815     14.0426E-03     34.0552E-03    -10.5662E+06     50.0846E+06     12.0478E+06    -49.1144E+03    -26.6826E-03     51.8017E-03    -25.1191E-03     66.6362E-03    -26.9846E-03     52.2090E-03    -25.1161E-03     66.5011E-03
            1816     13.1659E-03     33.9937E-03    -10.4713E+06    -597.312E+03     1.91828E+06     863.669E+03    -26.7383E-03     51.8307E-03    -25.0924E-03     62.2613E-03    -26.9095E-03     51.9570E-03    -25.0667E-03     62.1468E-03
            1817     12.2888E-03     33.9358E-03    -12.5475E+06    -23.4268E+06     2.22949E+06     1.21962E+06    -26.5968E-03     51.6704E-03    -25.0736E-03     58.1411E-03    -26.7098E-03     51.6493E-03    -25.0103E-03     58.0496E-03
            1818     11.4117E-03     33.8818E-03    -14.1816E+06    -44.6109E+06    -152.037E+03     898.641E+03    -26.4756E-03     51.5105E-03    -25.0349E-03     54.6283E-03    -26.5404E-03     51.3670E-03    -24.9504E-03     54.5482E-03
            1819     10.5346E-03     33.8308E-03    -15.6455E+06    -54.7768E+06     1.79239E+06     847.781E+03    -26.2964E-03     51.2954E-03    -24.9990E-03     51.5409E-03    -26.3406E-03     51.0844E-03    -24.8879E-03     51.4753E-03
            1820     9.65722E-03     33.7826E-03    -17.5273E+06    -62.3160E+06     1.39395E+06     668.560E+03    -26.0879E-03     51.0359E-03    -24.9480E-03     47.9919E-03    -26.1181E-03     50.7786E-03    -24.8253E-03     47.9373E-03
            1821     8.77992E-03     33.7382E-03    -19.3033E+06     -71.539E+06     798.763E+03     550.385E+03    -25.8782E-03     50.7770E-03    -24.8987E-03     44.0678E-03    -25.8943E-03     50.4682E-03    -24.7630E-03     44.0232E-03
            1822     7.90238E-03     33.6974E-03    -21.2751E+06    -76.2790E+06    -1.28740E+06     639.984E+03    -25.6321E-03     50.4704E-03    -24.8383E-03     40.0423E-03    -25.6416E-03     50.1373E-03    -24.7033E-03     40.0089E-03
            1823     7.02467E-03     33.6607E-03    -23.9959E+06    -84.5967E+06    -4.79125E+06     708.479E+03    -25.4137E-03     50.1950E-03    -24.7813E-03     35.8131E-03    -25.4149E-03     49.8246E-03    -24.6478E-03     35.7890E-03
            1824     6.14695E-03     33.6279E-03    -27.1705E+06    -93.0418E+06    -9.21984E+06     784.926E+03    -25.2039E-03     49.9287E-03    -24.7248E-03     31.4720E-03    -25.1988E-03     49.5236E-03    -24.5966E-03     31.4558E-03
            1825     5.26903E-03     33.5995E-03    -30.0893E+06    -99.4673E+06    -14.2319E+06     943.312E+03    -25.0087E-03     49.6764E-03    -24.6677E-03     27.0845E-03    -24.9991E-03     49.2481E-03    -24.5510E-03     27.0762E-03
            1826     4.39106E-03     33.5752E-03    -32.2124E+06    -106.068E+06    -19.7219E+06     235.418E+03    -24.8395E-03     49.4539E-03    -24.6144E-03     22.6369E-03    -24.8212E-03     49.0019E-03    -24.5125E-03     22.6243E-03
            1827     3.51292E-03     33.5553E-03    -34.1199E+06    -111.489E+06    -25.3722E+06    -797.447E+03    -24.6959E-03     49.2630E-03    -24.5670E-03     18.1635E-03    -24.6699E-03     48.7936E-03    -24.4828E-03     18.1416E-03
            1828     2.63473E-03     33.5398E-03    -36.1849E+06    -118.022E+06    -29.2204E+06    -334.677E+03    -24.6068E-03     49.1437E-03    -24.5369E-03     13.6660E-03    -24.5752E-03     48.6494E-03    -24.4594E-03     13.6534E-03
            1829     1.75654E-03     33.5287E-03    -38.0315E+06    -119.304E+06    -33.3395E+06    -35.2284E+03    -24.5315E-03     49.0318E-03    -24.5003E-03     9.21922E-03    -24.5007E-03     48.5392E-03    -24.4389E-03     9.21345E-03
            1830     878.325E-06     33.5218E-03    -39.2342E+06    -118.853E+06    -37.9939E+06    -207.188E+03    -24.4607E-03     48.9367E-03    -24.4759E-03     5.01008E-03    -24.4295E-03     48.4546E-03    -24.4367E-03     5.00460E-03
            1831     16.6731E-03     33.2283E-03    -3.54366E+06     110.145E+06     62.6504E+06    -364.202E+03    -26.1230E-03     51.4765E-03    -25.3534E-03     37.3651E-03    -26.5027E-03     52.0528E-03    -25.1947E-03     37.2926E-03
            1832     15.7989E-03     33.1788E-03    -5.31423E+06     106.729E+06     48.9325E+06     727.531E+03    -26.1279E-03     51.3823E-03    -25.2544E-03     56.6836E-03    -26.5535E-03     52.0260E-03    -25.1568E-03     56.5961E-03
            1833     14.9200E-03     33.1224E-03    -8.55903E+06     95.4787E+06     30.4662E+06    -132.208E+03    -26.3220E-03     51.4741E-03    -25.1521E-03     63.4025E-03    -26.7212E-03     52.0935E-03    -25.1258E-03     63.2790E-03
            1834     14.0435E-03     33.0575E-03    -11.3814E+06     48.5589E+06     8.86069E+06    -1.08672E+06    -26.9061E-03     51.9765E-03    -25.0704E-03     66.4618E-03    -27.2048E-03     52.3815E-03    -25.0800E-03     66.3122E-03
            1835     13.1664E-03     32.9957E-03    -12.9405E+06    -2.45092E+06    -73.4188E+03     997.190E+03    -26.8675E-03     51.9056E-03    -25.0381E-03     62.1624E-03    -27.0444E-03     52.0280E-03    -25.0161E-03     62.0498E-03
            1836     12.2896E-03     32.9384E-03    -13.6290E+06    -22.5604E+06     1.91393E+06     1.67147E+06    -26.6476E-03     51.6587E-03    -25.0112E-03     58.0167E-03    -26.7663E-03     51.6434E-03    -24.9491E-03     57.9313E-03
            1837     11.4125E-03     32.8844E-03    -14.7756E+06    -44.1226E+06    -478.300E+03     1.00027E+06    -26.5151E-03     51.4785E-03    -24.9634E-03     54.5007E-03    -26.5825E-03     51.3382E-03    -24.8804E-03     54.4225E-03
            1838     10.5354E-03     32.8335E-03    -16.0063E+06    -54.9158E+06     1.35171E+06     907.220E+03    -26.3496E-03     51.2668E-03    -24.9172E-03     51.2308E-03    -26.3943E-03     51.0558E-03    -24.8076E-03     51.1662E-03
            1839     9.65814E-03     32.7857E-03    -17.5144E+06    -61.7057E+06     1.13371E+06     875.620E+03    -26.1176E-03     50.9712E-03    -24.8536E-03     47.6602E-03    -26.1479E-03     50.7170E-03    -24.7331E-03     47.6087E-03
            1840     8.78073E-03     32.7413E-03    -19.7506E+06    -71.5239E+06     189.022E+03     635.431E+03    -25.8739E-03     50.6666E-03    -24.7927E-03     43.6980E-03    -25.8910E-03     50.3592E-03    -24.6594E-03     43.6548E-03
            1841     7.90323E-03     32.7010E-03    -22.3798E+06    -76.4510E+06    -2.02970E+06     880.915E+03    -25.6107E-03     50.3323E-03    -24.7216E-03     39.6610E-03    -25.6241E-03     50.0008E-03    -24.5884E-03     39.6311E-03
            1842     7.02560E-03     32.6643E-03    -25.0202E+06    -84.4659E+06    -5.24166E+06     1.14789E+06    -25.3653E-03     50.0193E-03    -24.6540E-03     35.4433E-03    -25.3709E-03     49.6515E-03    -24.5215E-03     35.4251E-03
            1843     6.14776E-03     32.6320E-03    -27.6375E+06    -92.8762E+06    -9.01086E+06     1.13276E+06    -25.1327E-03     49.7218E-03    -24.5890E-03     31.1105E-03    -25.1304E-03     49.3178E-03    -24.4593E-03     31.0991E-03
            1844     5.26981E-03     32.6036E-03    -29.9095E+06    -98.6906E+06    -14.0763E+06     457.124E+03    -24.9064E-03     49.4268E-03    -24.5204E-03     26.7745E-03    -24.8972E-03     49.0019E-03    -24.4043E-03     26.7602E-03
            1845     4.39169E-03     32.5796E-03    -31.8389E+06    -104.775E+06    -19.1378E+06    -537.622E+03    -24.7152E-03     49.1759E-03    -24.4607E-03     22.3613E-03    -24.6977E-03     48.7289E-03    -24.3583E-03     22.3389E-03
            1846     3.51349E-03     32.5599E-03    -34.1547E+06    -111.831E+06    -24.2020E+06    -654.721E+03    -24.5667E-03     48.9779E-03    -24.4112E-03     17.9209E-03    -24.5420E-03     48.5051E-03    -24.3205E-03     17.9010E-03
            1847     2.63521E-03     32.5445E-03    -36.7328E+06    -118.676E+06    -30.0043E+06    -501.840E+03    -24.4523E-03     48.8173E-03    -24.3650E-03     13.4811E-03    -24.4213E-03     48.3216E-03    -24.2897E-03     13.4665E-03
            1848     1.75685E-03     32.5334E-03    -38.5929E+06    -119.294E+06    -35.6054E+06    -491.410E+03    -24.3553E-03     48.6736E-03    -24.3183E-03     9.09502E-03    -24.3241E-03     48.1851E-03    -24.2674E-03     9.08344E-03
            1849     878.399E-06     32.5267E-03    -39.7971E+06    -119.336E+06    -39.0482E+06    -205.535E+03    -24.3053E-03     48.5914E-03    -24.2861E-03     4.96900E-03    -24.2747E-03     48.1093E-03    -24.2506E-03     4.96360E-03
            1850     16.6753E-03     32.2303E-03    -3.59003E+06     109.018E+06     61.4279E+06     34.1628E+03    -25.6166E-03     50.9763E-03    -25.3598E-03     37.0044E-03    -25.9901E-03     51.5460E-03    -25.2055E-03     36.9393E-03
            1851     15.7958E-03     32.1797E-03    -7.86797E+06     106.498E+06     45.3183E+06    -94.8321E+03    -26.4864E-03     51.7408E-03    -25.2544E-03     56.1679E-03    -26.9182E-03     52.3913E-03    -25.1708E-03     56.0661E-03
            1852     14.9210E-03     32.1247E-03    -9.87037E+06     96.7369E+06     28.8620E+06    -40.8573E+03    -26.9459E-03     52.0750E-03    -25.1290E-03     63.4324E-03    -27.3518E-03     52.7055E-03    -25.1107E-03     63.3055E-03
            1853     14.0435E-03     32.0590E-03    -12.7555E+06     47.5367E+06     7.92216E+06     1.05276E+06    -27.0051E-03     52.0355E-03    -25.0304E-03     66.1293E-03    -27.3062E-03     52.4371E-03    -25.0412E-03     66.0073E-03
            1854     13.1672E-03     31.9979E-03    -14.9200E+06    -3.15050E+06    -1.31937E+06     631.203E+03    -26.9211E-03     51.9095E-03    -24.9884E-03     61.8919E-03    -27.1042E-03     52.0322E-03    -24.9688E-03     61.7748E-03
            1855     12.2901E-03     31.9407E-03    -15.0338E+06    -22.8755E+06     903.031E+03     610.104E+03    -26.8027E-03     51.7520E-03    -24.9493E-03     57.7492E-03    -26.9261E-03     51.7382E-03    -24.8898E-03     57.6497E-03
            1856     11.4133E-03     31.8870E-03    -15.2633E+06    -43.2469E+06    -542.221E+03     946.057E+03    -26.6495E-03     51.5359E-03    -24.8864E-03     54.0660E-03    -26.7200E-03     51.4003E-03    -24.8043E-03     53.9869E-03
            1857     10.5363E-03     31.8363E-03    -16.2586E+06    -54.9579E+06     1.07383E+06     542.138E+03    -26.4137E-03     51.2382E-03    -24.8244E-03     50.7858E-03    -26.4588E-03     51.0273E-03    -24.7158E-03     50.7167E-03
            1858     9.65915E-03     31.7887E-03    -17.5117E+06    -61.6855E+06     961.875E+03     759.690E+03    -26.1514E-03     50.8984E-03    -24.7470E-03     47.1718E-03    -26.1811E-03     50.6442E-03    -24.6274E-03     47.1190E-03
            1859     8.78182E-03     31.7447E-03    -19.4108E+06    -71.6363E+06     447.981E+03     1.30067E+06    -25.8747E-03     50.5495E-03    -24.6747E-03     43.2251E-03    -25.8901E-03     50.2403E-03    -24.5405E-03     43.1909E-03
            1860     7.90432E-03     31.7046E-03    -22.1903E+06    -76.5270E+06    -1.40212E+06     1.54968E+06    -25.5901E-03     50.1825E-03    -24.5924E-03     39.1721E-03    -25.6032E-03     49.8492E-03    -24.4563E-03     39.1511E-03
            1861     7.02658E-03     31.6683E-03    -24.8474E+06    -83.7127E+06    -4.79403E+06     1.05142E+06    -25.3079E-03     49.8178E-03    -24.5100E-03     35.0026E-03    -25.3142E-03     49.4527E-03    -24.3765E-03     34.9836E-03
            1862     6.14874E-03     31.6361E-03    -26.7728E+06    -92.7565E+06    -8.42559E+06     575.272E+03    -25.0493E-03     49.4834E-03    -24.4341E-03     30.6987E-03    -25.0435E-03     49.0777E-03    -24.3029E-03     30.6804E-03
            1863     5.27069E-03     31.6081E-03    -29.0298E+06    -97.3608E+06    -13.0809E+06     210.759E+03    -24.7952E-03     49.1504E-03    -24.3553E-03     26.3953E-03    -24.7848E-03     48.7293E-03    -24.2374E-03     26.3781E-03
            1864     4.39249E-03     31.5843E-03    -32.3567E+06    -104.523E+06    -18.8446E+06    -246.016E+03    -24.5785E-03     48.8644E-03    -24.2859E-03     22.0337E-03    -24.5643E-03     48.4189E-03    -24.1816E-03     22.0153E-03
            1865     3.51416E-03     31.5647E-03    -35.7686E+06    -112.069E+06    -25.6932E+06    -314.010E+03    -24.4052E-03     48.6262E-03    -24.2211E-03     17.6582E-03    -24.3860E-03     48.1567E-03    -24.1352E-03     17.6429E-03
            1866     2.63573E-03     31.5495E-03    -38.1734E+06    -118.665E+06    -32.4121E+06    -503.921E+03    -24.2669E-03     48.4308E-03    -24.1639E-03     13.2962E-03    -24.2396E-03     47.9407E-03    -24.0985E-03     13.2817E-03
            1867     1.75718E-03     31.5386E-03    -39.7544E+06    -119.853E+06    -37.4531E+06    -433.812E+03    -24.1650E-03     48.2818E-03    -24.1168E-03     8.97131E-03    -24.1361E-03     47.7949E-03    -24.0726E-03     8.96060E-03
            1868     878.618E-06     31.5318E-03    -40.6233E+06    -119.805E+06    -40.0741E+06    -238.291E+03    -24.1020E-03     48.1927E-03    -24.0907E-03     4.87877E-03    -24.0734E-03     47.7109E-03    -24.0584E-03     4.87300E-03
            1869     16.6735E-03     31.2337E-03    -3.18929E+06     109.467E+06     63.3572E+06     506.621E+03    -26.0412E-03     51.3966E-03    -25.3554E-03     36.9952E-03    -26.4160E-03     51.9649E-03    -25.1928E-03     36.9333E-03
            1870     15.7981E-03     31.1807E-03    -7.82205E+06     106.411E+06     45.4246E+06     148.269E+03    -26.6278E-03     51.8530E-03    -25.2252E-03     55.3532E-03    -27.0577E-03     52.5012E-03    -25.1411E-03     55.2528E-03
            1871     14.9205E-03     31.1257E-03    -11.8511E+06     95.1589E+06     26.6537E+06     874.038E+03    -26.9803E-03     52.0650E-03    -25.0848E-03     62.2912E-03    -27.3881E-03     52.6913E-03    -25.0723E-03     62.1755E-03
            1872     14.0450E-03     31.0610E-03    -13.8397E+06     48.0173E+06     8.29293E+06     1.03111E+06    -27.0884E-03     52.0750E-03    -24.9866E-03     65.5371E-03    -27.3950E-03     52.4789E-03    -24.9947E-03     65.4141E-03
            1873     13.1675E-03     31.0003E-03    -13.7462E+06    -2.20149E+06    -379.131E+03     310.042E+03    -27.0784E-03     52.0095E-03    -24.9311E-03     61.4849E-03    -27.2579E-03     52.1335E-03    -24.9099E-03     61.3627E-03
            1874     12.2911E-03     30.9426E-03    -14.7892E+06    -23.3318E+06     965.252E+03     78.4575E+03    -26.9737E-03     51.8478E-03    -24.8740E-03     57.1282E-03    -27.0946E-03     51.8305E-03    -24.8139E-03     57.0213E-03
            1875     11.4145E-03     30.8897E-03    -15.7678E+06    -43.1486E+06    -525.837E+03     253.353E+03    -26.7476E-03     51.5413E-03    -24.7937E-03     53.4848E-03    -26.8202E-03     51.4063E-03    -24.7109E-03     53.3969E-03
            1876     10.5375E-03     30.8390E-03    -16.8049E+06    -54.7156E+06     1.14628E+06     472.262E+03    -26.4670E-03     51.1833E-03    -24.7163E-03     50.2755E-03    -26.5147E-03     50.9738E-03    -24.6069E-03     50.2059E-03
            1877     9.66035E-03     30.7919E-03    -18.6144E+06    -62.1943E+06     659.026E+03     600.371E+03    -26.1670E-03     50.7914E-03    -24.6245E-03     46.6462E-03    -26.2005E-03     50.5362E-03    -24.5040E-03     46.5918E-03
            1878     8.78300E-03     30.7482E-03    -20.3510E+06    -72.2307E+06     142.224E+03     1.25657E+06    -25.8727E-03     50.4101E-03    -24.5374E-03     42.7163E-03    -25.8911E-03     50.0995E-03    -24.4024E-03     42.6820E-03
            1879     7.90549E-03     30.7084E-03    -21.7416E+06    -75.9491E+06    -894.942E+03     1.39056E+06    -25.5485E-03     49.9897E-03    -24.4412E-03     38.6702E-03    -25.5606E-03     49.6576E-03    -24.3040E-03     38.6477E-03
            1880     7.02779E-03     30.6724E-03    -23.5315E+06    -82.8637E+06    -3.89773E+06     911.797E+03    -25.2375E-03     49.5837E-03    -24.3462E-03     34.5120E-03    -25.2396E-03     49.2194E-03    -24.2114E-03     34.4916E-03
            1881     6.14984E-03     30.6406E-03    -26.4357E+06    -92.3711E+06    -8.57752E+06     519.326E+03    -24.9408E-03     49.1964E-03    -24.2556E-03     30.2592E-03    -24.9335E-03     48.7923E-03    -24.1262E-03     30.2406E-03
            1882     5.27168E-03     30.6128E-03    -29.5606E+06    -97.0089E+06    -13.4062E+06     416.392E+03    -24.6612E-03     48.8280E-03    -24.1668E-03     26.0001E-03    -24.6534E-03     48.4098E-03    -24.0503E-03     25.9859E-03
            1883     4.39337E-03     30.5893E-03    -32.3549E+06    -104.224E+06    -18.9549E+06     416.788E+03    -24.4227E-03     48.5109E-03    -24.0882E-03     21.6960E-03    -24.4087E-03     48.0670E-03    -23.9850E-03     21.6865E-03
            1884     3.51488E-03     30.5700E-03    -34.8754E+06    -111.695E+06    -25.7086E+06    -68.1917E+03    -24.2244E-03     48.2397E-03    -24.0153E-03     17.3799E-03    -24.2013E-03     47.7708E-03    -23.9313E-03     17.3680E-03
            1885     2.63624E-03     30.5550E-03    -37.1879E+06    -118.829E+06    -31.1828E+06    -278.168E+03    -24.0774E-03     48.0366E-03    -23.9592E-03     13.0723E-03    -24.0467E-03     47.5425E-03    -23.8889E-03     13.0609E-03
            1886     1.75757E-03     30.5441E-03    -39.4363E+06    -120.223E+06    -36.0817E+06    -87.0128E+03    -23.9673E-03     47.8731E-03    -23.9058E-03     8.83007E-03    -23.9382E-03     47.3819E-03    -23.8547E-03     8.82395E-03
            1887     878.820E-06     30.5374E-03      -41.02E+06    -120.016E+06    -40.4615E+06    -55.0288E+03    -23.8730E-03     47.7441E-03    -23.8711E-03     4.76535E-03    -23.8454E-03     47.2623E-03    -23.8399E-03     4.76202E-03
            1888     16.6758E-03     30.2330E-03    -3.42580E+06     109.229E+06     62.1774E+06    -144.713E+03    -26.6652E-03     51.9899E-03    -25.3247E-03     36.9457E-03    -27.0403E-03     52.5603E-03    -25.1673E-03     36.8707E-03
            1889     15.7987E-03     30.1832E-03    -6.30135E+06     105.850E+06     49.1031E+06     1.36519E+06    -26.8821E-03     52.0735E-03    -25.1914E-03     55.4684E-03    -27.3077E-03     52.7101E-03    -25.0902E-03     55.3823E-03
            1890     14.9227E-03     30.1268E-03    -8.84810E+06     95.5486E+06     31.0022E+06     2.49683E+06    -26.7982E-03     51.8448E-03    -25.0466E-03     62.3012E-03    -27.1947E-03     52.4592E-03    -25.0173E-03     62.2092E-03
            1891     14.0447E-03     30.0634E-03    -10.7442E+06     49.1447E+06     8.54857E+06     736.486E+03    -27.2318E-03     52.1566E-03    -24.9248E-03     65.3291E-03    -27.5238E-03     52.5602E-03    -24.9377E-03     65.2019E-03
            1892     13.1690E-03     30.0016E-03    -12.8462E+06    -2.00679E+06    -284.558E+03     505.700E+03    -27.3639E-03     52.2186E-03    -24.8547E-03     61.0696E-03    -27.5385E-03     52.3413E-03    -24.8346E-03     60.9489E-03
            1893     12.2925E-03     29.9453E-03    -14.2684E+06    -22.5280E+06     1.13472E+06     433.356E+03    -27.0611E-03     51.8396E-03    -24.7785E-03     56.6396E-03    -27.1797E-03     51.8243E-03    -24.7195E-03     56.5377E-03
            1894     11.4156E-03     29.8919E-03    -15.8064E+06    -43.7443E+06    -873.380E+03     187.324E+03    -26.8156E-03     51.4999E-03    -24.6843E-03     53.0094E-03    -26.8863E-03     51.3617E-03    -24.6023E-03     52.9211E-03
            1895     10.5388E-03     29.8422E-03    -17.4428E+06    -54.6712E+06     823.698E+03     530.222E+03    -26.5244E-03     51.1159E-03    -24.5915E-03     49.7234E-03    -26.5743E-03     50.9075E-03    -24.4828E-03     49.6549E-03
            1896     9.66168E-03     29.7950E-03    -19.0800E+06    -62.4744E+06     335.804E+03     722.284E+03    -26.1925E-03     50.6758E-03    -24.4834E-03     46.1051E-03    -26.2270E-03     50.4199E-03    -24.3634E-03     46.0528E-03
            1897     8.78444E-03     29.7519E-03    -20.6572E+06    -72.2419E+06    -310.349E+03     542.923E+03    -25.8545E-03     50.2338E-03    -24.3793E-03     42.1598E-03    -25.8733E-03     49.9237E-03    -24.2461E-03     42.1169E-03
            1898     7.90688E-03     29.7123E-03    -22.0171E+06    -75.6082E+06    -1.75232E+06     267.652E+03    -25.4875E-03     49.7538E-03    -24.2663E-03     38.1540E-03    -25.5000E-03     49.4247E-03    -24.1335E-03     38.1175E-03
            1899     7.02906E-03     29.6768E-03    -23.8982E+06    -83.1361E+06    -4.67373E+06     866.094E+03    -25.1420E-03     49.3018E-03    -24.1598E-03     33.9974E-03    -25.1442E-03     48.9376E-03    -24.0280E-03     33.9769E-03
            1900     6.15102E-03     29.6453E-03    -26.4159E+06    -91.5485E+06    -8.53008E+06     1.07931E+06    -24.8166E-03     48.8761E-03    -24.0595E-03     29.7738E-03    -24.8103E-03     48.4758E-03    -23.9311E-03     29.7629E-03
            1901     5.27278E-03     29.6179E-03    -29.1691E+06    -96.9704E+06    -13.5637E+06     639.907E+03    -24.5089E-03     48.4688E-03    -23.9598E-03     25.5668E-03    -24.4989E-03     48.0503E-03    -23.8448E-03     25.5559E-03
            1902     4.39429E-03     29.5947E-03    -31.7547E+06    -103.624E+06    -19.1087E+06     332.839E+03    -24.2463E-03     48.1177E-03    -23.8714E-03     21.3206E-03    -24.2299E-03     47.6761E-03    -23.7706E-03     21.3103E-03
            1903     3.51565E-03     29.5756E-03    -34.1584E+06    -111.311E+06    -24.5932E+06     30.2658E+03    -24.0343E-03     47.8310E-03    -23.7967E-03     17.0652E-03    -24.0097E-03     47.3613E-03    -23.7087E-03     17.0548E-03
            1904     2.63690E-03     29.5608E-03     -36.787E+06    -119.179E+06    -29.8964E+06     201.994E+03    -23.8710E-03     47.6055E-03    -23.7344E-03     12.8336E-03    -23.8397E-03     47.1072E-03    -23.6578E-03     12.8286E-03
            1905     1.75799E-03     29.5501E-03    -39.2874E+06    -120.130E+06    -35.5660E+06     337.532E+03    -23.7315E-03     47.4040E-03    -23.6724E-03     8.66061E-03    -23.7026E-03     46.9122E-03    -23.6191E-03     8.66010E-03
            1906     879.011E-06     29.5435E-03    -40.8532E+06    -119.774E+06    -39.9086E+06     263.869E+03    -23.6305E-03     47.2740E-03    -23.6435E-03     4.67877E-03    -23.6033E-03     46.7925E-03    -23.6101E-03     4.67962E-03
            1907     16.6745E-03     29.2351E-03    -3.49766E+06     107.812E+06     61.1089E+06     749.371E+03    -26.6860E-03     51.9856E-03    -25.2996E-03     37.2309E-03    -27.0563E-03     52.5490E-03    -25.1453E-03     37.1673E-03
            1908     15.7992E-03     29.1828E-03    -6.88807E+06     104.846E+06     47.9543E+06     1.18559E+06    -26.9863E-03     52.1480E-03    -25.1617E-03     55.4723E-03    -27.4109E-03     52.7813E-03    -25.0640E-03     55.3827E-03
            1909     14.9221E-03     29.1301E-03    -8.80336E+06     96.0152E+06     32.1750E+06     1.05329E+06    -27.2493E-03     52.2564E-03    -25.0071E-03     62.1222E-03    -27.6482E-03     52.8716E-03    -24.9727E-03     62.0081E-03
            1910     14.0464E-03     29.0639E-03    -10.7223E+06     50.0853E+06     10.4585E+06     2.13768E+06    -27.5044E-03     52.3668E-03    -24.8625E-03     65.0418E-03    -27.7993E-03     52.7712E-03    -24.8673E-03     64.9314E-03
            1911     13.1699E-03     29.0039E-03    -12.7631E+06    -819.204E+03     254.794E+03     1.39083E+06    -27.4662E-03     52.2332E-03    -24.7670E-03     60.4289E-03    -27.6414E-03     52.3594E-03    -24.7460E-03     60.3198E-03
            1912     12.2934E-03     28.9471E-03    -14.2547E+06    -22.5017E+06     1.03499E+06     518.569E+03    -27.1880E-03     51.8616E-03    -24.6735E-03     56.1044E-03    -27.3056E-03     51.8457E-03    -24.6151E-03     56.0037E-03
            1913     11.4171E-03     28.8948E-03    -15.3856E+06    -43.5471E+06    -636.170E+03     651.644E+03    -26.9138E-03     51.4762E-03    -24.5624E-03     52.3879E-03    -26.9823E-03     51.3373E-03    -24.4801E-03     52.3058E-03
            1914     10.5402E-03     28.8449E-03    -16.7584E+06    -54.9266E+06     811.266E+03     501.961E+03    -26.5781E-03     51.0291E-03    -24.4510E-03     49.0971E-03    -26.6236E-03     50.8177E-03    -24.3430E-03     49.0287E-03
            1915     9.66328E-03     28.7986E-03    -18.3229E+06    -62.6164E+06     241.179E+03     816.011E+03    -26.2119E-03     50.5371E-03    -24.3252E-03     45.4804E-03    -26.2418E-03     50.2790E-03    -24.2066E-03     45.4299E-03
            1916     8.78590E-03     28.7556E-03    -20.3737E+06    -71.1497E+06    -751.288E+03     357.561E+03    -25.8190E-03     50.0212E-03    -24.2023E-03     41.5718E-03    -25.8369E-03     49.7165E-03    -24.0733E-03     41.5272E-03
            1917     7.90835E-03     28.7166E-03    -22.9809E+06    -76.0541E+06    -2.82769E+06     92.5177E+03    -25.4130E-03     49.4885E-03    -24.0756E-03     37.5623E-03    -25.4277E-03     49.1599E-03    -23.9461E-03     37.5242E-03
            1918     7.03047E-03     28.6814E-03    -25.2855E+06    -83.5765E+06    -5.86774E+06     400.505E+03    -25.0290E-03     48.9847E-03    -23.9557E-03     33.4435E-03    -25.0355E-03     48.6218E-03    -23.8272E-03     33.4176E-03
            1919     6.15237E-03     28.6504E-03    -26.9099E+06    -91.2526E+06    -9.07254E+06     546.673E+03    -24.6770E-03     48.5209E-03    -23.8439E-03     29.2596E-03    -24.6726E-03     48.1234E-03    -23.7179E-03     29.2423E-03
            1920     5.27395E-03     28.6234E-03    -28.8985E+06    -96.7036E+06    -13.6222E+06     748.809E+03    -24.3446E-03     48.0788E-03    -23.7342E-03     25.0893E-03    -24.3334E-03     47.6612E-03    -23.6202E-03     25.0802E-03
            1921     4.39534E-03     28.6005E-03    -31.5830E+06    -102.927E+06    -19.1837E+06     450.574E+03    -24.0516E-03     47.6869E-03    -23.6352E-03     20.9049E-03    -24.0352E-03     47.2485E-03    -23.5361E-03     20.8965E-03
            1922     3.51651E-03     28.5817E-03    -34.4287E+06    -111.380E+06    -24.8867E+06     315.721E+03    -23.8176E-03     47.3706E-03    -23.5530E-03     16.7252E-03    -23.7938E-03     46.9013E-03    -23.4660E-03     16.7187E-03
            1923     2.63753E-03     28.5671E-03    -37.0089E+06    -119.249E+06    -30.1680E+06     496.702E+03    -23.6346E-03     47.1192E-03    -23.4846E-03     12.5766E-03    -23.6038E-03     46.6212E-03    -23.4088E-03     12.5756E-03
            1924     1.75844E-03     28.5565E-03    -39.0275E+06    -119.740E+06    -35.4891E+06     476.991E+03    -23.4806E-03     46.9008E-03    -23.4202E-03     8.47798E-03    -23.4511E-03     46.4105E-03    -23.3674E-03     8.47940E-03
            1925     879.228E-06     28.5501E-03    -40.3343E+06    -119.240E+06    -39.5176E+06     255.462E+03    -23.4037E-03     46.7715E-03    -23.3678E-03     4.58059E-03    -23.3753E-03     46.2913E-03    -23.3340E-03     4.58139E-03
            1926     16.6768E-03     28.2364E-03    -3.20512E+06     108.037E+06     62.8705E+06     1.17508E+06    -27.1543E-03     52.4562E-03    -25.3020E-03     36.9933E-03    -27.5254E-03     53.0172E-03    -25.1396E-03     36.9327E-03
            1927     15.7987E-03     28.1845E-03    -6.85231E+06     104.814E+06     47.5730E+06     1.01235E+06    -27.3373E-03     52.4680E-03    -25.1307E-03     55.0162E-03    -27.7607E-03     53.1012E-03    -25.0349E-03     54.9208E-03
            1928     14.9238E-03     28.1301E-03    -10.4802E+06     94.5712E+06     29.7032E+06     725.654E+03    -27.7004E-03     52.6440E-03    -24.9436E-03     61.3716E-03    -28.1019E-03     53.2579E-03    -24.9170E-03     61.2488E-03
            1929     14.0475E-03     28.0660E-03    -11.9989E+06     49.9488E+06     10.1653E+06     1.72652E+06    -27.7983E-03     52.5777E-03    -24.7793E-03     64.5423E-03    -28.0978E-03     52.9824E-03    -24.7835E-03     64.4248E-03
            1930     13.1713E-03     28.0054E-03    -12.1558E+06     654.602E+03     961.001E+03     1.69163E+06    -27.5755E-03     52.2391E-03    -24.6636E-03     59.8143E-03    -27.7494E-03     52.3694E-03    -24.6421E-03     59.7090E-03
            1931     12.2952E-03     27.9494E-03    -13.1752E+06    -22.2111E+06     1.70310E+06     948.270E+03    -27.3024E-03     51.8568E-03    -24.5544E-03     55.3792E-03    -27.4150E-03     51.8388E-03    -24.4945E-03     55.2841E-03
            1932     11.4185E-03     27.8972E-03    -14.6195E+06    -43.4831E+06    -419.304E+03     689.285E+03    -26.9963E-03     51.4200E-03    -24.4237E-03     51.7172E-03    -27.0604E-03     51.2791E-03    -24.3416E-03     51.6360E-03
            1933     10.5420E-03     27.8481E-03    -15.9328E+06    -54.7398E+06     1.31184E+06     726.199E+03    -26.6199E-03     50.9156E-03    -24.2957E-03     48.4305E-03    -26.6615E-03     50.7025E-03    -24.1866E-03     48.3657E-03
            1934     9.66486E-03     27.8020E-03    -17.2455E+06    -62.5159E+06     621.331E+03     350.421E+03    -26.2078E-03     50.3598E-03    -24.1520E-03     44.8107E-03    -26.2324E-03     50.0994E-03    -24.0332E-03     44.7549E-03
            1935     8.78763E-03     27.7597E-03    -18.5140E+06    -71.0032E+06     330.620E+03     706.250E+03    -25.7830E-03     49.7982E-03    -24.0152E-03     40.8804E-03    -25.7929E-03     49.4894E-03    -23.8837E-03     40.8409E-03
            1936     7.90997E-03     27.7211E-03    -20.9206E+06    -75.9639E+06    -1.54146E+06     959.456E+03    -25.3351E-03     49.2091E-03    -23.8740E-03     36.8834E-03    -25.3411E-03     48.8756E-03    -23.7412E-03     36.8571E-03
            1937     7.03204E-03     27.6865E-03    -23.7879E+06    -83.0758E+06    -5.26420E+06     322.932E+03    -24.9119E-03     48.6489E-03    -23.7370E-03     32.8274E-03    -24.9122E-03     48.2851E-03    -23.6083E-03     32.8012E-03
            1938     6.15375E-03     27.6558E-03    -26.6088E+06    -91.6585E+06    -9.59881E+06     197.504E+03    -24.5236E-03     48.1334E-03    -23.6099E-03     28.7018E-03    -24.5161E-03     47.7340E-03    -23.4864E-03     28.6806E-03
            1939     5.27526E-03     27.6292E-03    -29.1594E+06    -96.7019E+06    -14.1218E+06     565.188E+03    -24.1626E-03     47.6514E-03    -23.4888E-03     24.5809E-03    -24.1518E-03     47.2348E-03    -23.3769E-03     24.5699E-03
            1940     4.39645E-03     27.6067E-03    -31.5517E+06    -102.533E+06    -19.4968E+06     789.883E+03    -23.8427E-03     47.2218E-03    -23.3791E-03     20.4611E-03    -23.8261E-03     46.7858E-03    -23.2822E-03     20.4575E-03
            1941     3.51744E-03     27.5882E-03    -34.1719E+06    -111.269E+06    -25.0687E+06     787.006E+03    -23.5827E-03     46.8716E-03    -23.2889E-03     16.3516E-03    -23.5574E-03     46.4027E-03    -23.2034E-03     16.3516E-03
            1942     2.63826E-03     27.5738E-03    -36.7367E+06    -118.963E+06    -30.1293E+06     634.886E+03    -23.3771E-03     46.5928E-03    -23.2156E-03     12.2797E-03    -23.3454E-03     46.0957E-03    -23.1405E-03     12.2807E-03
            1943     1.75890E-03     27.5635E-03    -38.8006E+06    -119.272E+06    -35.4165E+06     451.399E+03    -23.2195E-03     46.3655E-03    -23.1459E-03     8.27462E-03    -23.1896E-03     45.8771E-03    -23.0938E-03     8.27584E-03
            1944     879.482E-06     27.5572E-03    -40.1685E+06    -118.671E+06    -39.2889E+06     295.720E+03    -23.1420E-03     46.2172E-03    -23.0752E-03     4.50203E-03    -23.1138E-03     45.7393E-03    -23.0414E-03     4.50343E-03
            1945     16.6742E-03     27.2363E-03    -4.10344E+06     107.560E+06     62.1242E+06     169.319E+03    -27.7261E-03     53.0231E-03    -25.2970E-03     36.6715E-03    -28.0999E-03     53.5840E-03    -25.1364E-03     36.5925E-03
            1946     15.8010E-03     27.1851E-03    -5.65026E+06     103.881E+06     50.1230E+06     1.19304E+06    -28.0519E-03     53.1552E-03    -25.1033E-03     54.6865E-03    -28.4699E-03     53.7766E-03    -24.9951E-03     54.5876E-03
            1947     14.9242E-03     27.1310E-03    -7.83596E+06     94.4487E+06     32.6398E+06     2.17327E+06    -27.9635E-03     52.8476E-03    -24.8842E-03     61.0603E-03    -28.3534E-03     53.4504E-03    -24.8466E-03     60.9549E-03
            1948     14.0486E-03     27.0670E-03    -10.8708E+06     50.2664E+06     9.61061E+06     1.44271E+06    -28.0259E-03     52.7097E-03    -24.6838E-03     63.8079E-03    -28.3171E-03     53.1129E-03    -24.6928E-03     63.6860E-03
            1949     13.1731E-03     27.0072E-03    -12.1239E+06     592.665E+03     329.233E+03     1.21485E+06    -27.7601E-03     52.3093E-03    -24.5492E-03     59.3975E-03    -27.9314E-03     52.4387E-03    -24.5308E-03     59.2860E-03
            1950     12.2966E-03     26.9516E-03    -12.8403E+06    -21.1539E+06     1.95043E+06     1.35820E+06    -27.4263E-03     51.8488E-03    -24.4225E-03     54.8956E-03    -27.5379E-03     51.8340E-03    -24.3635E-03     54.8062E-03
            1951     11.4205E-03     26.8999E-03    -13.9891E+06    -43.4174E+06    -372.758E+03     950.534E+03    -27.0817E-03     51.3545E-03    -24.2728E-03     51.0932E-03    -27.1418E-03     51.2119E-03    -24.1914E-03     51.0160E-03
            1952     10.5437E-03     26.8512E-03    -15.5475E+06    -54.5256E+06     1.38768E+06     923.516E+03    -26.6582E-03     50.7845E-03    -24.1263E-03     47.7631E-03    -26.6974E-03     50.5709E-03    -24.0177E-03     47.7016E-03
            1953     9.66680E-03     26.8057E-03    -17.6761E+06    -61.7509E+06     649.812E+03     596.347E+03    -26.1987E-03     50.1633E-03    -23.9646E-03     44.1243E-03    -26.2259E-03     49.9067E-03    -23.8462E-03     44.0725E-03
            1954     8.78940E-03     26.7639E-03    -19.9531E+06    -71.7747E+06    -837.749E+03     365.879E+03    -25.7243E-03     49.5327E-03    -23.8084E-03     40.2091E-03    -25.7381E-03     49.2232E-03    -23.6796E-03     40.1661E-03
            1955     7.91176E-03     26.7260E-03    -21.0139E+06    -75.5787E+06    -2.17726E+06     617.220E+03    -25.2446E-03     48.8947E-03    -23.6501E-03     36.2295E-03    -25.2503E-03     48.5638E-03    -23.5209E-03     36.1996E-03
            1956     7.03367E-03     26.6918E-03    -22.7387E+06    -82.9019E+06    -5.14624E+06     987.831E+03    -24.7905E-03     48.2905E-03    -23.5001E-03     32.1652E-03    -24.7856E-03     47.9256E-03    -23.3726E-03     32.1482E-03
            1957     6.15536E-03     26.6617E-03    -25.8665E+06    -91.4913E+06    -9.56647E+06     1.09187E+06    -24.3594E-03     47.7184E-03    -23.3590E-03     28.0758E-03    -24.3483E-03     47.3184E-03    -23.2366E-03     28.0667E-03
            1958     5.27661E-03     26.6355E-03    -29.1519E+06    -96.6438E+06    -14.8084E+06     791.895E+03    -23.9599E-03     47.1834E-03    -23.2236E-03     24.0282E-03    -23.9480E-03     46.7679E-03    -23.1152E-03     24.0206E-03
            1959     4.39766E-03     26.6134E-03    -31.9319E+06    -102.617E+06    -20.0090E+06     918.295E+03    -23.6174E-03     46.7221E-03    -23.1048E-03     19.9757E-03    -23.6017E-03     46.2869E-03    -23.0097E-03     19.9741E-03
            1960     3.51844E-03     26.5953E-03     -34.239E+06    -110.743E+06    -25.2691E+06     981.351E+03    -23.3332E-03     46.3380E-03    -23.0048E-03     15.9469E-03    -23.3086E-03     45.8720E-03    -22.9210E-03     15.9497E-03
            1961     2.63901E-03     26.5812E-03    -36.3995E+06    -118.523E+06    -30.0567E+06     781.701E+03    -23.1093E-03     46.0330E-03    -22.9237E-03     11.9613E-03    -23.0766E-03     45.5375E-03    -22.8494E-03     11.9644E-03
            1962     1.75944E-03     26.5711E-03    -38.4560E+06    -118.763E+06    -35.1803E+06     639.680E+03    -22.9333E-03     45.7809E-03    -22.8476E-03     8.06286E-03    -22.9027E-03     45.2942E-03    -22.7955E-03     8.06667E-03
            1963     879.768E-06     26.5648E-03    -39.8802E+06    -117.941E+06    -39.1160E+06     387.155E+03    -22.8031E-03     45.6136E-03    -22.8105E-03     4.36997E-03    -22.7748E-03     45.1386E-03    -22.7773E-03     4.37264E-03
            1964     16.6763E-03     26.2343E-03    -3.05926E+06     107.357E+06     61.8516E+06     17.8681E+03    -27.9367E-03     53.1983E-03    -25.2616E-03     35.9041E-03    -28.3021E-03     53.7546E-03    -25.1036E-03     35.8212E-03
            1965     15.8001E-03     26.1856E-03    -6.62920E+06     102.547E+06     49.2198E+06     13.4707E+03    -28.3013E-03     53.3551E-03    -25.0538E-03     53.7664E-03    -28.7180E-03     53.9696E-03    -24.9468E-03     53.6499E-03
            1966     14.9259E-03     26.1313E-03    -8.63647E+06     93.8688E+06     33.8508E+06     1.64896E+06    -28.3137E-03     53.1357E-03    -24.8220E-03     60.5064E-03    -28.7061E-03     53.7325E-03    -24.7763E-03     60.3925E-03
            1967     14.0503E-03     26.0683E-03    -9.81578E+06     51.5609E+06     11.7818E+06     2.45503E+06    -28.2023E-03     52.8016E-03    -24.5993E-03     63.3058E-03    -28.4914E-03     53.2047E-03    -24.6009E-03     63.1965E-03
            1968     13.1741E-03     26.0090E-03    -11.8454E+06     1.05583E+06     296.288E+03     1.44802E+06    -27.9927E-03     52.4278E-03    -24.4351E-03     58.7854E-03    -28.1617E-03     52.5577E-03    -24.4180E-03     58.6765E-03
            1969     12.2985E-03     25.9535E-03    -12.8507E+06    -21.1060E+06     1.69855E+06     1.10920E+06    -27.5702E-03     51.8560E-03    -24.2858E-03     54.2124E-03    -27.6801E-03     51.8404E-03    -24.2281E-03     54.1203E-03
            1970     11.4221E-03     25.9027E-03    -13.9235E+06    -43.0088E+06    -465.912E+03     1.40285E+06    -27.1736E-03     51.2891E-03    -24.1155E-03     50.4288E-03    -27.2328E-03     51.1475E-03    -24.0353E-03     50.3582E-03
            1971     10.5457E-03     25.8544E-03    -15.4022E+06    -54.3916E+06     784.658E+03     1.17873E+06    -26.7184E-03     50.6644E-03    -23.9461E-03     47.0755E-03    -26.7553E-03     50.4513E-03    -23.8409E-03     47.0181E-03
            1972     9.66861E-03     25.8096E-03    -17.1299E+06     -61.438E+06     456.551E+03     1.41623E+06    -26.2005E-03     49.9660E-03    -23.7655E-03     43.3673E-03    -26.2244E-03     49.7097E-03    -23.6493E-03     43.3270E-03
            1973     8.79132E-03     25.7684E-03    -19.4733E+06    -70.8317E+06    -1.17889E+06     823.940E+03    -25.6776E-03     49.2665E-03    -23.5889E-03     39.4529E-03    -25.6892E-03     48.9610E-03    -23.4639E-03     39.4167E-03
            1974     7.91355E-03     25.7310E-03    -22.6020E+06    -76.1591E+06    -3.91617E+06     372.297E+03    -25.1522E-03     48.5631E-03    -23.4109E-03     35.4918E-03    -25.1621E-03     48.2337E-03    -23.2873E-03     35.4596E-03
            1975     7.03549E-03     25.6975E-03    -25.1496E+06    -83.2612E+06    -7.09681E+06     1.05208E+06    -24.6526E-03     47.8961E-03    -23.2435E-03     31.4566E-03    -24.6562E-03     47.5354E-03    -23.1218E-03     31.4411E-03
            1976     6.15695E-03     25.6679E-03    -26.8747E+06    -91.0238E+06    -10.2883E+06     1.23164E+06    -24.1839E-03     47.2733E-03    -23.0894E-03     27.4127E-03    -24.1773E-03     46.8780E-03    -22.9699E-03     27.4061E-03
            1977     5.27813E-03     25.6423E-03    -28.8692E+06    -96.3914E+06    -14.5815E+06     1.26663E+06    -23.7500E-03     46.6932E-03    -22.9432E-03     23.4186E-03    -23.7373E-03     46.2781E-03    -22.8345E-03     23.4177E-03
            1978     4.39894E-03     25.6206E-03    -31.4653E+06    -102.396E+06    -19.8366E+06     1.16120E+06    -23.3722E-03     46.1845E-03    -22.8123E-03     19.4472E-03    -23.3546E-03     45.7493E-03    -22.7174E-03     19.4492E-03
            1979     3.51950E-03     25.6029E-03    -34.0283E+06    -110.319E+06    -25.3297E+06     1.06249E+06    -23.0653E-03     45.7668E-03    -22.7016E-03     15.5088E-03    -23.0401E-03     45.3027E-03    -22.6189E-03     15.5129E-03
            1980     2.63985E-03     25.5891E-03    -36.3585E+06    -117.976E+06    -30.4147E+06     980.210E+03    -22.8199E-03     45.4304E-03    -22.6105E-03     11.6285E-03    -22.7873E-03     44.9381E-03    -22.5387E-03     11.6344E-03
            1981     1.76001E-03     25.5792E-03    -38.2847E+06    -118.194E+06    -35.2218E+06     856.031E+03    -22.6197E-03     45.1508E-03    -22.5312E-03     7.84284E-03    -22.5890E-03     44.6668E-03    -22.4804E-03     7.84960E-03
            1982     880.011E-06     25.5731E-03    -39.4867E+06    -116.873E+06    -38.9577E+06     670.449E+03    -22.4980E-03     44.9807E-03    -22.4828E-03     4.23123E-03    -22.4695E-03     44.5103E-03    -22.4508E-03     4.23764E-03
            1983     16.6773E-03     25.2370E-03    -3.28770E+06     107.150E+06     62.1649E+06     173.859E+03    -28.6248E-03     53.8456E-03    -25.2208E-03     35.9668E-03    -28.9909E-03     54.4001E-03    -25.0606E-03     35.8809E-03
            1984     15.8020E-03     25.1840E-03    -6.37305E+06     103.020E+06     49.4861E+06     70.6839E+03    -28.3806E-03     53.3678E-03    -24.9872E-03     53.0086E-03    -28.7937E-03     53.9805E-03    -24.8799E-03     52.8921E-03
            1985     14.9267E-03     25.1322E-03    -10.5189E+06     92.1686E+06     32.1734E+06     987.533E+03    -28.3151E-03     53.0596E-03    -24.7445E-03     59.8288E-03    -28.7089E-03     53.6500E-03    -24.7021E-03     59.7065E-03
            1986     14.0508E-03     25.0691E-03    -11.9495E+06     51.4411E+06     11.0341E+06     1.40613E+06    -28.5162E-03     53.0245E-03    -24.5083E-03     62.7964E-03    -28.8134E-03     53.4299E-03    -24.5104E-03     62.6717E-03
            1987     13.1762E-03     25.0102E-03    -11.2427E+06     2.53543E+06     856.681E+03     1.45365E+06    -28.2371E-03     52.5555E-03    -24.3184E-03     58.0386E-03    -28.4044E-03     52.6893E-03    -24.3015E-03     57.9292E-03
            1988     12.3001E-03     24.9560E-03    -12.1857E+06    -21.4853E+06     1.56658E+06     1.44738E+06    -27.7391E-03     51.8830E-03    -24.1439E-03     53.5150E-03    -27.8435E-03     51.8634E-03    -24.0873E-03     53.4275E-03
            1989     11.4240E-03     24.9052E-03    -13.6190E+06    -42.5563E+06    -346.995E+03     1.49655E+06    -27.2886E-03     51.2398E-03    -23.9512E-03     49.6583E-03    -27.3459E-03     51.0987E-03    -23.8715E-03     49.5895E-03
            1990     10.5475E-03     24.8579E-03    -14.7600E+06    -54.2856E+06     806.108E+03     1.52600E+06    -26.7829E-03     50.5417E-03    -23.7588E-03     46.2106E-03    -26.8159E-03     50.3272E-03    -23.6547E-03     46.1585E-03
            1991     9.67068E-03     24.8137E-03    -16.2782E+06    -61.4905E+06     415.768E+03     1.54521E+06    -26.2183E-03     49.7740E-03    -23.5557E-03     42.5014E-03    -26.2370E-03     49.5155E-03    -23.4409E-03     42.4636E-03
            1992     8.79333E-03     24.7732E-03    -18.2254E+06    -70.0566E+06    -402.528E+03     1.87882E+06    -25.6463E-03     49.0063E-03    -23.3600E-03     38.5690E-03    -25.6534E-03     48.7012E-03    -23.2340E-03     38.5472E-03
            1993     7.91559E-03     24.7365E-03    -21.0953E+06    -75.9785E+06    -3.03284E+06     1.85400E+06    -25.0637E-03     48.2266E-03    -23.1629E-03     34.6263E-03    -25.0671E-03     47.8942E-03    -23.0373E-03     34.6140E-03
            1994     7.03732E-03     24.7036E-03    -24.1486E+06    -82.9454E+06    -6.49597E+06     1.12096E+06    -24.5091E-03     47.4859E-03    -22.9768E-03     30.6557E-03    -24.5086E-03     47.1241E-03    -22.8540E-03     30.6419E-03
            1995     6.15874E-03     24.6746E-03    -26.7577E+06    -90.9410E+06    -10.2502E+06     900.297E+03    -23.9972E-03     46.8028E-03    -22.8056E-03     26.6875E-03    -23.9899E-03     46.4074E-03    -22.6862E-03     26.6772E-03
            1996     5.27970E-03     24.6495E-03    -29.1153E+06    -96.3918E+06    -14.8379E+06     1.17253E+06    -23.5232E-03     46.1674E-03    -22.6442E-03     22.7812E-03    -23.5111E-03     45.7529E-03    -22.5364E-03     22.7796E-03
            1997     4.40033E-03     24.6284E-03    -31.3282E+06    -101.997E+06    -20.1988E+06     1.43299E+06    -23.1095E-03     45.6093E-03    -22.4999E-03     18.9008E-03    -23.0912E-03     45.1763E-03    -22.4075E-03     18.9068E-03
            1998     3.52064E-03     24.6110E-03    -33.7162E+06    -109.884E+06    -25.5212E+06     1.44157E+06    -22.7731E-03     45.1539E-03    -22.3808E-03     15.0600E-03    -22.7466E-03     44.6917E-03    -22.3002E-03     15.0694E-03
            1999     2.64071E-03     24.5976E-03    -36.0859E+06    -117.270E+06    -30.0254E+06     1.26761E+06    -22.5090E-03     44.7949E-03    -22.2859E-03     11.2796E-03    -22.4765E-03     44.3051E-03    -22.2137E-03     11.2895E-03
            2000     1.76057E-03     24.5880E-03    -38.0787E+06    -117.353E+06    -34.8148E+06     924.177E+03    -22.3015E-03     44.5015E-03    -22.2000E-03     7.59545E-03    -22.2716E-03     44.0208E-03    -22.1487E-03     7.60325E-03
            2001     880.330E-06     24.5821E-03    -39.1198E+06    -115.789E+06    -38.1422E+06     469.172E+03    -22.1803E-03     44.3105E-03    -22.1302E-03     4.12676E-03    -22.1528E-03     43.8437E-03    -22.0963E-03     4.13065E-03
            2002     16.6763E-03     24.2314E-03    -3.37531E+06     106.574E+06     61.6714E+06     266.136E+03    -28.9428E-03     54.1436E-03    -25.2009E-03     35.4696E-03    -29.3060E-03     54.6945E-03    -25.0421E-03     35.3828E-03
            2003     15.8040E-03     24.1864E-03    -6.97535E+06     102.578E+06     49.0934E+06     1.34593E+06    -28.7660E-03     53.7140E-03    -24.9480E-03     53.3863E-03    -29.1803E-03     54.3254E-03    -24.8412E-03     53.2827E-03
            2004     14.9272E-03     24.1322E-03    -9.40186E+06     92.7966E+06     32.2501E+06     855.996E+03    -28.7928E-03     53.4693E-03    -24.6765E-03     59.9263E-03    -29.1813E-03     54.0603E-03    -24.6361E-03     59.7987E-03
            2005     14.0532E-03     24.0696E-03    -10.5994E+06     51.3253E+06     10.2391E+06     312.960E+03    -28.7952E-03     53.2041E-03    -24.4089E-03     62.1380E-03    -29.0817E-03     53.6056E-03    -24.4168E-03     61.9982E-03
            2006     13.1772E-03     24.0118E-03    -11.8951E+06     2.04800E+06     -84.433E+03     1.19312E+06    -28.4892E-03     52.6859E-03    -24.1967E-03     57.3041E-03    -28.6557E-03     52.8177E-03    -24.1829E-03     57.1911E-03
            2007     12.3019E-03     23.9578E-03    -12.8123E+06    -21.1073E+06     1.26583E+06     1.64263E+06    -27.9929E-03     51.9888E-03    -23.9959E-03     52.6075E-03    -28.0992E-03     51.9711E-03    -23.9404E-03     52.5224E-03
            2008     11.4261E-03     23.9082E-03    -13.7309E+06    -42.4555E+06    -455.522E+03     1.55145E+06    -27.4393E-03     51.2145E-03    -23.7752E-03     48.7188E-03    -27.4960E-03     51.0731E-03    -23.6960E-03     48.6511E-03
            2009     10.5497E-03     23.8613E-03    -15.0983E+06    -54.0276E+06     834.215E+03     1.58274E+06    -26.8335E-03     50.3922E-03    -23.5587E-03     45.2505E-03    -26.8675E-03     50.1784E-03    -23.4543E-03     45.1999E-03
            2010     9.67282E-03     23.8180E-03    -16.5419E+06    -61.4535E+06     450.613E+03     1.59253E+06    -26.2203E-03     49.5536E-03    -23.3332E-03     41.5504E-03    -26.2397E-03     49.2948E-03    -23.2179E-03     41.5140E-03
            2011     8.79550E-03     23.7781E-03    -18.2046E+06    -70.6576E+06    -167.309E+03     2.12814E+06    -25.5951E-03     48.7123E-03    -23.1173E-03     37.6426E-03    -25.6009E-03     48.4032E-03    -22.9893E-03     37.6249E-03
            2012     7.91768E-03     23.7423E-03    -19.7459E+06    -74.9786E+06    -1.88687E+06     2.36251E+06    -24.9559E-03     47.8565E-03    -22.9006E-03     33.7429E-03    -24.9552E-03     47.5250E-03    -22.7727E-03     33.7379E-03
            2013     7.03939E-03     23.7100E-03    -21.9150E+06    -82.1217E+06    -5.29984E+06     1.98789E+06    -24.3527E-03     47.0489E-03    -22.6962E-03     29.8441E-03    -24.3436E-03     46.6859E-03    -22.5719E-03     29.8423E-03
            2014     6.16058E-03     23.6818E-03    -25.2402E+06    -90.7938E+06    -9.75351E+06     1.85504E+06    -23.7968E-03     46.3051E-03    -22.5082E-03     25.9396E-03    -23.7827E-03     45.9073E-03    -22.3887E-03     25.9423E-03
            2015     5.28135E-03     23.6573E-03    -28.6932E+06    -95.9630E+06    -14.7756E+06     1.56927E+06    -23.2831E-03     45.6153E-03    -22.3323E-03     22.1120E-03    -23.2695E-03     45.2021E-03    -22.2254E-03     22.1161E-03
            2016     4.40175E-03     23.6367E-03    -31.3985E+06    -101.911E+06    -20.1442E+06     1.39655E+06    -22.8349E-03     45.0121E-03    -22.1772E-03     18.3225E-03    -22.8171E-03     44.5794E-03    -22.0846E-03     18.3285E-03
            2017     3.52180E-03     23.6198E-03    -33.3218E+06    -109.369E+06    -25.3078E+06     1.55539E+06    -22.4685E-03     44.5168E-03    -22.0483E-03     14.5844E-03    -22.4411E-03     44.0563E-03    -21.9679E-03     14.5956E-03
            2018     2.64160E-03     23.6068E-03    -35.2629E+06    -116.426E+06    -29.0774E+06     1.45816E+06    -22.1901E-03     44.1387E-03    -21.9486E-03     10.9091E-03    -22.1561E-03     43.6505E-03    -21.8740E-03     10.9217E-03
            2019     1.76121E-03     23.5974E-03    -37.2139E+06    -115.993E+06    -33.2582E+06     792.162E+03    -21.9733E-03     43.8293E-03    -21.8560E-03     7.33811E-03    -21.9433E-03     43.3519E-03    -21.8002E-03     7.34437E-03
            2020     880.664E-06     23.5916E-03    -38.6188E+06    -115.212E+06    -37.4897E+06     58.2483E+03    -21.8319E-03     43.6047E-03    -21.7728E-03     3.96115E-03    -21.8036E-03     43.1392E-03    -21.7372E-03     3.95982E-03
            2021     16.6789E-03     23.2350E-03    -3.48514E+06     106.090E+06     61.5202E+06     872.722E+03    -29.0755E-03     54.2827E-03    -25.2071E-03     35.4243E-03    -29.4367E-03     54.8297E-03    -25.0483E-03     35.3430E-03
            2022     15.8001E-03     23.1831E-03    -7.04203E+06     102.432E+06     48.2105E+06     842.669E+03    -29.4845E-03     54.4102E-03    -24.9257E-03     52.5175E-03    -29.8956E-03     55.0202E-03    -24.8230E-03     52.4010E-03
            2023     14.9295E-03     23.1323E-03    -9.12208E+06     92.9880E+06     32.0006E+06     151.510E+03    -29.4744E-03     54.0872E-03    -24.6128E-03     58.8118E-03    -29.8595E-03     54.6772E-03    -24.5744E-03     58.6699E-03
            2024     14.0533E-03     23.0704E-03    -11.6477E+06     51.2045E+06     9.59079E+06     941.289E+03    -29.1957E-03     53.5021E-03    -24.3064E-03     61.2259E-03    -29.4835E-03     53.9025E-03    -24.3158E-03     61.0925E-03
            2025     13.1793E-03     23.0126E-03    -13.2766E+06     1.53541E+06    -1.31863E+06     1.11375E+06    -28.7659E-03     52.8268E-03    -24.0609E-03     56.1251E-03    -28.9345E-03     52.9575E-03    -24.0505E-03     56.0104E-03
            2026     12.3040E-03     22.9599E-03    -13.8532E+06    -21.2506E+06     366.084E+03     1.09619E+06    -28.1768E-03     52.0093E-03    -23.8325E-03     51.5192E-03    -28.2851E-03     51.9920E-03    -23.7798E-03     51.4273E-03
            2027     11.4282E-03     22.9108E-03    -14.4857E+06    -42.5359E+06    -1.15480E+06     1.56068E+06    -27.5588E-03     51.1449E-03    -23.5861E-03     47.6888E-03    -27.6168E-03     51.0039E-03    -23.5092E-03     47.6219E-03
            2028     10.5519E-03     22.8651E-03    -15.7445E+06    -53.7868E+06     400.864E+03     1.75283E+06    -26.8811E-03     50.2268E-03    -23.3457E-03     44.2867E-03    -26.9170E-03     50.0148E-03    -23.2429E-03     44.2393E-03
            2029     9.67513E-03     22.8224E-03    -17.6985E+06    -61.4010E+06    -181.543E+03     1.87065E+06    -26.1919E-03     49.2899E-03    -23.0980E-03     40.6071E-03    -26.2154E-03     49.0332E-03    -22.9843E-03     40.5754E-03
            2030     8.79779E-03     22.7836E-03    -19.4029E+06    -70.7034E+06    -1.20840E+06     1.73252E+06    -25.5068E-03     48.3673E-03    -22.8605E-03     36.7376E-03    -25.5165E-03     48.0606E-03    -22.7359E-03     36.7159E-03
            2031     7.91987E-03     22.7484E-03    -20.8374E+06    -74.7216E+06    -3.24315E+06     1.74557E+06    -24.8232E-03     47.4468E-03    -22.6236E-03     32.8953E-03    -24.8258E-03     47.1196E-03    -22.5013E-03     32.8834E-03
            2032     7.04139E-03     22.7171E-03    -22.7021E+06    -82.2827E+06    -6.32019E+06     2.57532E+06    -24.1849E-03     46.5888E-03    -22.4039E-03     29.0194E-03    -24.1777E-03     46.2273E-03    -22.2833E-03     29.0259E-03
            2033     6.16246E-03     22.6894E-03    -25.0826E+06    -89.9793E+06    -9.57325E+06     2.88340E+06    -23.5919E-03     45.7947E-03    -22.2028E-03     25.1677E-03    -23.5781E-03     45.4002E-03    -22.0838E-03     25.1844E-03
            2034     5.28307E-03     22.6657E-03    -27.6974E+06    -94.9274E+06    -13.6020E+06     2.28355E+06    -23.0437E-03     45.0588E-03    -22.0152E-03     21.4014E-03    -23.0281E-03     44.6474E-03    -21.9054E-03     21.4152E-03
            2035     4.40323E-03     22.6456E-03    -30.5081E+06    -101.384E+06    -19.0369E+06     1.73969E+06    -22.5585E-03     44.4058E-03    -21.8473E-03     17.7002E-03    -22.5384E-03     43.9727E-03    -21.7512E-03     17.7110E-03
            2036     3.52304E-03     22.6293E-03    -33.3820E+06    -109.206E+06    -24.8411E+06     1.72722E+06    -22.1611E-03     43.8669E-03    -21.7058E-03     14.0754E-03    -22.1349E-03     43.4065E-03    -21.6233E-03     14.0892E-03
            2037     2.64254E-03     22.6166E-03    -35.7598E+06    -115.062E+06    -29.9682E+06     1.53974E+06    -21.8520E-03     43.4415E-03    -21.5894E-03     10.5291E-03    -21.8212E-03     42.9621E-03    -21.5206E-03     10.5430E-03
            2038     1.76184E-03     22.6075E-03    -37.4535E+06    -114.617E+06    -34.4411E+06     563.404E+03    -21.6115E-03     43.1039E-03    -21.4924E-03     7.07878E-03    -21.5829E-03     42.6353E-03    -21.4441E-03     7.08227E-03
            2039     880.956E-06     22.6020E-03    -38.4964E+06    -114.988E+06    -37.7745E+06     137.595E+03    -21.4770E-03     42.8926E-03    -21.4155E-03     3.82438E-03    -21.4481E-03     42.4284E-03    -21.3819E-03     3.82417E-03
            2040     16.6737E-03     22.2295E-03    -3.11148E+06     105.957E+06     62.2791E+06     543.569E+03    -29.8472E-03     55.0447E-03    -25.1974E-03     34.1900E-03    -30.2054E-03     55.5875E-03    -25.0352E-03     34.0988E-03
            2041     15.8067E-03     22.1832E-03    -6.21876E+06     102.612E+06     48.1427E+06     112.240E+03    -30.0780E-03     54.9489E-03    -24.8709E-03     51.1661E-03    -30.4814E-03     55.5548E-03    -24.7699E-03     51.0348E-03
            2042     14.9285E-03     22.1311E-03    -9.69209E+06     92.3687E+06     31.4305E+06     1.15370E+06    -29.8602E-03     54.3851E-03    -24.5248E-03     57.4323E-03    -30.2426E-03     54.9698E-03    -24.4876E-03     57.3005E-03
            2043     14.0565E-03     22.0703E-03    -12.2241E+06     51.3873E+06     10.5251E+06     1.05616E+06    -29.5834E-03     53.7759E-03    -24.1925E-03     59.7871E-03    -29.8724E-03     54.1735E-03    -24.1967E-03     59.6534E-03
            2044     13.1811E-03     22.0140E-03    -12.5378E+06     1.91780E+06    -894.897E+03     639.870E+03    -28.9629E-03     52.8757E-03    -23.9128E-03     55.1271E-03    -29.1262E-03     53.0039E-03    -23.9019E-03     55.0068E-03
            2045     12.3060E-03     21.9617E-03    -13.1898E+06    -21.7290E+06     276.795E+03     1.00991E+06    -28.2941E-03     51.9540E-03    -23.6599E-03     50.5016E-03    -28.3964E-03     51.9315E-03    -23.6078E-03     50.4094E-03
            2046     11.4305E-03     21.9138E-03    -14.2780E+06    -42.7714E+06    -1.35384E+06     1.44352E+06    -27.6286E-03     51.0197E-03    -23.3912E-03     46.6470E-03    -27.6834E-03     50.8759E-03    -23.3152E-03     46.5797E-03
            2047     10.5542E-03     21.8688E-03    -15.4050E+06    -54.0311E+06     32.6541E+03     1.99261E+06    -26.9073E-03     50.0352E-03    -23.1279E-03     43.2850E-03    -26.9396E-03     49.8209E-03    -23.0270E-03     43.2418E-03
            2048     9.67744E-03     21.8272E-03    -16.7923E+06    -61.0962E+06    -266.694E+03     2.25589E+06    -26.1613E-03     49.0205E-03    -22.8591E-03     39.6348E-03    -26.1797E-03     48.7632E-03    -22.7475E-03     39.6092E-03
            2049     8.79999E-03     21.7892E-03    -18.8749E+06    -69.9540E+06    -1.37187E+06     1.94112E+06    -25.4253E-03     48.0269E-03    -22.6015E-03     35.7701E-03    -25.4325E-03     47.7227E-03    -22.4796E-03     35.7521E-03
            2050     7.92201E-03     21.7550E-03    -21.5580E+06    -75.1025E+06    -3.94332E+06     1.99108E+06    -24.6976E-03     47.0442E-03    -22.3466E-03     31.9383E-03    -24.7018E-03     46.7167E-03    -22.2262E-03     31.9305E-03
            2051     7.04347E-03     21.7244E-03    -24.0727E+06    -82.8989E+06    -7.07613E+06     2.64062E+06    -24.0138E-03     46.1237E-03    -22.1099E-03     28.1173E-03    -24.0111E-03     45.7618E-03    -21.9902E-03     28.1255E-03
            2052     6.16440E-03     21.6977E-03    -26.0941E+06    -88.9895E+06    -10.3230E+06     2.84139E+06    -23.3752E-03     45.2646E-03    -21.8895E-03     24.3593E-03    -23.3665E-03     44.8774E-03    -21.7742E-03     24.3762E-03
            2053     5.28477E-03     21.6745E-03    -28.1615E+06    -93.8200E+06    -14.0731E+06     2.41263E+06    -22.7912E-03     44.4788E-03    -21.6876E-03     20.6804E-03    -22.7786E-03     44.0740E-03    -21.5811E-03     20.6966E-03
            2054     4.40475E-03     21.6552E-03    -30.6558E+06    -100.877E+06    -18.7398E+06     2.34096E+06    -22.2803E-03     43.7907E-03    -21.5104E-03     17.0672E-03    -22.2620E-03     43.3598E-03    -21.4134E-03     17.0862E-03
            2055     3.52426E-03     21.6394E-03    -33.4095E+06    -108.629E+06    -24.5287E+06     2.37767E+06    -21.8517E-03     43.2079E-03    -21.3562E-03     13.5580E-03    -21.8268E-03     42.7499E-03    -21.2729E-03     13.5806E-03
            2056     2.64353E-03     21.6271E-03    -35.8115E+06    -113.319E+06    -30.5979E+06     1.72022E+06    -21.5064E-03     42.7312E-03    -21.2249E-03     10.1354E-03    -21.4773E-03     42.2615E-03    -21.1616E-03     10.1519E-03
            2057     1.76247E-03     21.6184E-03    -37.4670E+06    -113.313E+06    -35.8020E+06     761.487E+03    -21.2447E-03     42.3678E-03    -21.1231E-03     6.80012E-03    -21.2161E-03     41.9078E-03    -21.0835E-03     6.80636E-03
            2058     881.272E-06     21.6130E-03    -38.4130E+06    -114.707E+06    -38.0633E+06     212.785E+03    -21.0943E-03     42.1721E-03    -21.0778E-03     3.68916E-03    -21.0649E-03     41.7097E-03    -21.0461E-03     3.69001E-03
            2059     16.6820E-03     21.2290E-03    -2.84747E+06     105.524E+06     62.0301E+06     330.034E+03    -30.3877E-03     55.5362E-03    -25.1486E-03     33.6785E-03    -30.7407E-03     56.0739E-03    -24.9873E-03     33.5816E-03
            2060     15.8014E-03     21.1805E-03    -6.41978E+06     101.925E+06     49.0657E+06     1.38905E+06    -30.3620E-03     55.1652E-03    -24.8032E-03     50.5315E-03    -30.7623E-03     55.7622E-03    -24.6964E-03     50.4150E-03
            2061     14.9331E-03     21.1300E-03    -8.88578E+06     92.7320E+06     32.1103E+06     1.04544E+06    -30.2421E-03     54.6703E-03    -24.4282E-03     56.5758E-03    -30.6172E-03     55.2498E-03    -24.3892E-03     56.4418E-03
            2062     14.0569E-03     21.0704E-03    -9.40054E+06     52.1139E+06     10.4618E+06     751.587E+03    -29.8283E-03     53.8906E-03    -24.0624E-03     58.9352E-03    -30.1004E-03     54.2840E-03    -24.0720E-03     58.7978E-03
            2063     13.1833E-03     21.0148E-03    -10.7241E+06     1.89304E+06    -756.423E+03     939.798E+03    -29.2149E-03     52.9753E-03    -23.7604E-03     54.0373E-03    -29.3666E-03     53.0978E-03    -23.7514E-03     53.9211E-03
            2064     12.3083E-03     20.9638E-03    -12.1782E+06    -22.2386E+06     90.3432E+03     1.37126E+06    -28.4158E-03     51.8982E-03    -23.4824E-03     49.4202E-03    -28.5098E-03     51.8699E-03    -23.4321E-03     49.3338E-03
            2065     11.4327E-03     20.9167E-03    -13.5876E+06    -42.8921E+06    -1.37966E+06     1.82339E+06    -27.6803E-03     50.8731E-03    -23.1928E-03     45.5716E-03    -27.7299E-03     50.7262E-03    -23.1178E-03     45.5105E-03
            2066     10.5566E-03     20.8728E-03    -14.9014E+06    -54.3388E+06    -159.423E+03     1.97160E+06    -26.9187E-03     49.8272E-03    -22.9085E-03     42.2052E-03    -26.9465E-03     49.6097E-03    -22.8089E-03     42.1629E-03
            2067     9.67970E-03     20.8321E-03    -16.1505E+06    -60.9079E+06    -368.965E+03     2.23791E+06    -26.1376E-03     48.7560E-03    -22.6184E-03     38.5547E-03    -26.1520E-03     48.4979E-03    -22.5085E-03     38.5301E-03
            2068     8.80234E-03     20.7952E-03    -17.8747E+06    -69.7505E+06    -641.463E+03     2.74936E+06    -25.3582E-03     47.7016E-03    -22.3434E-03     34.6879E-03    -25.3610E-03     47.3952E-03    -22.2196E-03     34.6814E-03
            2069     7.92429E-03     20.7619E-03    -20.5341E+06    -75.1340E+06    -3.09028E+06     3.17658E+06    -24.5751E-03     46.6447E-03    -22.0696E-03     30.8987E-03    -24.5749E-03     46.3139E-03    -21.9463E-03     30.9072E-03
            2070     7.04559E-03     20.7323E-03    -23.4245E+06    -82.5876E+06    -6.86814E+06     3.02793E+06    -23.8374E-03     45.6495E-03    -21.8120E-03     27.1693E-03    -23.8319E-03     45.2875E-03    -21.6927E-03     27.1834E-03
            2071     6.16630E-03     20.7063E-03    -25.9294E+06    -88.2171E+06    -10.8573E+06     2.70807E+06    -23.1510E-03     44.7236E-03    -21.5726E-03     23.4983E-03    -23.1416E-03     44.3405E-03    -21.4614E-03     23.5142E-03
            2072     5.28652E-03     20.6840E-03    -28.2915E+06    -92.9276E+06    -14.7666E+06     2.48279E+06    -22.5294E-03     43.8865E-03    -21.3571E-03     19.9098E-03    -22.5176E-03     43.4872E-03    -21.2551E-03     19.9275E-03
            2073     4.40619E-03     20.6653E-03    -30.7173E+06    -100.741E+06    -18.9244E+06     2.55795E+06    -21.9947E-03     43.1662E-03    -21.1715E-03     16.3967E-03    -21.9766E-03     42.7363E-03    -21.0755E-03     16.4190E-03
            2074     3.52554E-03     20.6501E-03    -32.8857E+06    -107.452E+06    -24.1853E+06     2.54972E+06    -21.5394E-03     42.5462E-03    -21.0068E-03     13.0102E-03    -21.5140E-03     42.0927E-03    -20.9242E-03     13.0353E-03
            2075     2.64444E-03     20.6384E-03    -34.8209E+06     -111.72E+06    -29.5689E+06     2.04324E+06    -21.1692E-03     42.0383E-03    -20.8691E-03     9.71495E-03    -21.1390E-03     41.5736E-03    -20.8045E-03     9.73596E-03
            2076     1.76313E-03     20.6299E-03    -36.6497E+06    -111.766E+06    -34.3853E+06     1.35186E+06    -20.8965E-03     41.6581E-03    -20.7616E-03     6.51082E-03    -20.8681E-03     41.2025E-03    -20.7184E-03     6.52487E-03
            2077     881.594E-06     20.6248E-03     -37.984E+06    -113.828E+06    -37.6213E+06     581.700E+03    -20.7428E-03     41.4329E-03    -20.6901E-03     3.51506E-03    -20.7132E-03     40.9736E-03    -20.6581E-03     3.52078E-03
            2078     16.6747E-03     20.2264E-03    -4.12669E+06     104.442E+06     61.4132E+06     212.473E+03    -31.2324E-03     56.3467E-03    -25.1143E-03     33.4849E-03    -31.5877E-03     56.8801E-03    -24.9527E-03     33.3793E-03
            2079     15.8094E-03     20.1781E-03    -6.36346E+06     102.043E+06     49.6444E+06     386.039E+03    -30.9414E-03     55.6706E-03    -24.7291E-03     49.4126E-03    -31.3381E-03     56.2629E-03    -24.6196E-03     49.2783E-03
            2080     14.9312E-03     20.1291E-03    -8.09532E+06     93.3295E+06     32.5378E+06     386.647E+03    -30.4124E-03     54.7361E-03    -24.3237E-03     55.2727E-03    -30.7801E-03     55.3120E-03    -24.2846E-03     55.1297E-03
            2081     14.0597E-03     20.0697E-03    -10.5192E+06     51.7897E+06     9.80583E+06     559.773E+03    -30.1009E-03     54.0346E-03    -23.9338E-03     57.4682E-03    -30.3730E-03     54.4249E-03    -23.9446E-03     57.3277E-03
            2082     13.1852E-03     20.0158E-03    -11.4604E+06     1.38094E+06    -1.52504E+06     1.49137E+06    -29.3687E-03     52.9745E-03    -23.6058E-03     52.7243E-03    -29.5194E-03     53.0938E-03    -23.5988E-03     52.6157E-03
            2083     12.3104E-03     19.9657E-03    -12.6988E+06    -22.5480E+06    -544.678E+03     2.07045E+06    -28.5392E-03     51.8440E-03    -23.3049E-03     48.2817E-03    -28.6324E-03     51.8138E-03    -23.2565E-03     48.2053E-03
            2084     11.4350E-03     19.9199E-03    -13.9665E+06    -42.6621E+06    -1.69044E+06     2.10776E+06    -27.7409E-03     50.7342E-03    -22.9933E-03     44.4584E-03    -27.7907E-03     50.5879E-03    -22.9197E-03     44.4021E-03
            2085     10.5588E-03     19.8769E-03    -15.2701E+06    -54.2958E+06    -426.618E+03     2.14724E+06    -26.9396E-03     49.6272E-03    -22.6876E-03     41.0744E-03    -26.9677E-03     49.4096E-03    -22.5888E-03     41.0355E-03
            2086     9.68214E-03     19.8374E-03    -17.0397E+06    -61.0161E+06    -1.23312E+06     2.39858E+06    -26.1078E-03     48.4815E-03    -22.3736E-03     37.4297E-03    -26.1243E-03     48.2245E-03    -22.2666E-03     37.4083E-03
            2087     8.80463E-03     19.8014E-03    -18.9575E+06    -70.3172E+06    -1.81590E+06     3.07141E+06    -25.2778E-03     47.3550E-03    -22.0772E-03     33.5891E-03    -25.2828E-03     47.0484E-03    -21.9568E-03     33.5879E-03
            2088     7.92650E-03     19.7692E-03    -20.6216E+06    -74.7043E+06    -3.28574E+06     3.53357E+06    -24.4512E-03     46.2366E-03    -21.7854E-03     29.8182E-03    -24.4512E-03     45.9078E-03    -21.6636E-03     29.8322E-03
            2089     7.04769E-03     19.7406E-03    -22.3082E+06    -81.7426E+06    -6.20855E+06     3.39549E+06    -23.6673E-03     45.1785E-03    -21.5112E-03     26.1306E-03    -23.6580E-03     44.8178E-03    -21.3913E-03     26.1503E-03
            2090     6.16829E-03     19.7156E-03    -24.5730E+06    -87.4050E+06    -10.1477E+06     3.12564E+06    -22.9319E-03     44.1872E-03    -21.2553E-03     22.5298E-03    -22.9177E-03     43.8049E-03    -21.1437E-03     22.5518E-03
            2091     5.28823E-03     19.6941E-03    -27.1857E+06    -92.2266E+06    -14.6332E+06     2.92375E+06    -22.2679E-03     43.2916E-03    -21.0237E-03     19.0431E-03    -22.2517E-03     42.8939E-03    -20.9237E-03     19.0672E-03
            2092     4.40775E-03     19.6761E-03    -29.7867E+06    -100.230E+06    -19.0526E+06     2.81244E+06    -21.6982E-03     42.5245E-03    -20.8263E-03     15.6434E-03    -21.6759E-03     42.0959E-03    -20.7330E-03     15.6696E-03
            2093     3.52670E-03     19.6615E-03    -32.3325E+06    -106.302E+06    -23.7425E+06     2.62412E+06    -21.2170E-03     41.8722E-03    -20.6552E-03     12.3884E-03    -21.1911E-03     41.4229E-03    -20.5729E-03     12.4149E-03
            2094     2.64542E-03     19.6502E-03    -34.6645E+06    -110.310E+06    -28.6726E+06     2.23938E+06    -20.8309E-03     41.3423E-03    -20.5114E-03     9.22987E-03    -20.8032E-03     40.8831E-03    -20.4446E-03     9.25371E-03
            2095     1.76374E-03     19.6422E-03    -36.3717E+06    -110.100E+06    -33.6856E+06     1.69866E+06    -20.5419E-03     40.9356E-03    -20.3937E-03     6.19385E-03    -20.5155E-03     40.4869E-03    -20.3497E-03     6.21258E-03
            2096     881.977E-06     19.6372E-03    -37.4363E+06    -112.138E+06    -36.8774E+06     1.06738E+06    -20.3791E-03     40.6865E-03    -20.3074E-03     3.34834E-03    -20.3502E-03     40.2337E-03    -20.2749E-03     3.36044E-03
            2097     16.6826E-03     19.2195E-03    -3.22696E+06     104.430E+06     61.4585E+06     556.566E+03    -31.9211E-03     57.0074E-03    -25.0863E-03     32.4224E-03    -32.2691E-03     57.5365E-03    -24.9258E-03     32.3173E-03
            2098     15.8046E-03     19.1771E-03    -7.30222E+06     103.192E+06     47.8035E+06     30.9839E+03    -31.5541E-03     56.2085E-03    -24.6545E-03     48.5913E-03    -31.9512E-03     56.8075E-03    -24.5545E-03     48.4473E-03
            2099     14.9362E-03     19.1268E-03    -10.2553E+06     93.1976E+06     30.0244E+06    -173.427E+03    -30.9056E-03     55.1174E-03    -24.2118E-03     54.3910E-03    -31.2763E-03     55.6956E-03    -24.1820E-03     54.2381E-03
            2100     14.0611E-03     19.0699E-03    -11.4133E+06     50.6695E+06     8.38865E+06     1.02608E+06    -30.2286E-03     54.0285E-03    -23.7999E-03     56.5173E-03    -30.4975E-03     54.4125E-03    -23.8149E-03     56.3835E-03
            2101     13.1872E-03     19.0165E-03    -13.1090E+06     791.337E+03    -2.80042E+06     1.75903E+06    -29.5603E-03     53.0120E-03    -23.4517E-03     51.5797E-03    -29.7136E-03     53.1298E-03    -23.4479E-03     51.4752E-03
            2102     12.3127E-03     18.9678E-03    -13.6553E+06    -22.3419E+06    -1.04224E+06     2.01302E+06    -28.6478E-03     51.7766E-03    -23.1288E-03     47.0006E-03    -28.7431E-03     51.7472E-03    -23.0819E-03     46.9246E-03
            2103     11.4372E-03     18.9231E-03    -14.3275E+06    -42.5880E+06    -2.00851E+06     2.24737E+06    -27.8088E-03     50.6039E-03    -22.7951E-03     43.3055E-03    -27.8585E-03     50.4574E-03    -22.7226E-03     43.2522E-03
            2104     10.5612E-03     18.8813E-03    -15.5562E+06    -54.0014E+06    -417.674E+03     2.33925E+06    -26.9710E-03     49.4389E-03    -22.4679E-03     39.9032E-03    -26.9998E-03     49.2220E-03    -22.3691E-03     39.8680E-03
            2105     9.68441E-03     18.8429E-03    -16.8191E+06    -61.3505E+06    -1.33654E+06     2.60091E+06    -26.0961E-03     48.2268E-03    -22.1307E-03     36.2363E-03    -26.1099E-03     47.9670E-03    -22.0240E-03     36.2187E-03
            2106     8.80697E-03     18.8080E-03    -18.1860E+06    -70.6302E+06    -1.94325E+06     3.10748E+06    -25.2244E-03     47.0350E-03    -21.8106E-03     32.3752E-03    -25.2241E-03     46.7251E-03    -21.6915E-03     32.3755E-03
            2107     7.92879E-03     18.7769E-03    -19.8319E+06    -74.2766E+06    -3.00174E+06     3.26676E+06    -24.3455E-03     45.8430E-03    -21.4975E-03     28.6190E-03    -24.3420E-03     45.5141E-03    -21.3760E-03     28.6307E-03
            2108     7.04990E-03     18.7493E-03    -21.7567E+06    -81.2052E+06    -5.79471E+06     3.38052E+06    -23.5064E-03     44.7095E-03    -21.2031E-03     24.9779E-03    -23.4952E-03     44.3496E-03    -21.0828E-03     24.9984E-03
            2109     6.17028E-03     18.7253E-03    -23.8853E+06    -86.8192E+06    -9.90643E+06     3.60508E+06    -22.7160E-03     43.6434E-03    -20.9274E-03     21.4606E-03    -22.6991E-03     43.2623E-03    -20.8164E-03     21.4898E-03
            2110     5.29009E-03     18.7047E-03    -26.3297E+06    -91.3836E+06    -14.5554E+06     3.62051E+06    -22.0063E-03     42.6847E-03    -20.6784E-03     18.0806E-03    -21.9868E-03     42.2896E-03    -20.5805E-03     18.1143E-03
            2111     4.40926E-03     18.6875E-03    -28.9107E+06    -99.2421E+06    -18.7119E+06     3.33878E+06    -21.4019E-03     41.8702E-03    -20.4683E-03     14.7921E-03    -21.3770E-03     41.4446E-03    -20.3760E-03     14.8256E-03
            2112     3.52806E-03     18.6735E-03    -31.3316E+06    -105.133E+06    -23.0185E+06     2.97993E+06    -20.8895E-03     41.1761E-03    -20.2866E-03     11.6615E-03    -20.8612E-03     40.7301E-03    -20.2039E-03     11.6931E-03
            2113     2.64636E-03     18.6628E-03    -33.5979E+06    -108.718E+06    -27.8128E+06     2.47246E+06    -20.4783E-03     40.6111E-03    -20.1328E-03     8.66126E-03    -20.4488E-03     40.1571E-03    -20.0655E-03     8.68843E-03
            2114     1.76447E-03     18.6551E-03    -35.4649E+06    -108.414E+06    -32.8273E+06     1.77681E+06    -20.1680E-03     40.1752E-03    -20.0071E-03     5.79709E-03    -20.1408E-03     39.7323E-03    -19.9626E-03     5.81704E-03
            2115     882.225E-06     18.6505E-03    -36.3606E+06    -110.042E+06    -35.8850E+06     1.11693E+06    -19.9718E-03     39.9062E-03    -19.9344E-03     3.10032E-03    -19.9420E-03     39.4609E-03    -19.9016E-03     3.11318E-03
            2116     16.6767E-03     18.2199E-03    -3.98960E+06     104.007E+06     61.0671E+06     383.791E+03    -32.6328E-03     57.6969E-03    -25.0641E-03     31.9730E-03    -32.9808E-03     58.2230E-03    -24.9038E-03     31.8596E-03
            2117     15.8096E-03     18.1705E-03    -6.45692E+06     103.878E+06     48.4364E+06     566.425E+03    -32.0515E-03     56.6490E-03    -24.5976E-03     46.7280E-03    -32.4401E-03     57.2431E-03    -24.4966E-03     46.5875E-03
            2118     14.9350E-03     18.1264E-03    -9.95054E+06     92.6216E+06     28.8494E+06     965.462E+03    -31.2025E-03     55.3227E-03    -24.1202E-03     53.0480E-03    -31.5645E-03     55.8946E-03    -24.0958E-03     52.9084E-03
            2119     14.0626E-03     18.0690E-03    -13.7297E+06     49.5935E+06     6.20952E+06     1.32611E+06    -30.6715E-03     54.3489E-03    -23.6774E-03     55.3589E-03    -30.9438E-03     54.7305E-03    -23.6983E-03     55.2273E-03
            2120     13.1893E-03     18.0172E-03    -14.2724E+06     960.641E+03    -3.45020E+06     1.53884E+06    -29.7351E-03     53.0379E-03    -23.3028E-03     50.1304E-03    -29.8901E-03     53.1557E-03    -23.3008E-03     50.0239E-03
            2121     12.3147E-03     17.9701E-03    -14.5528E+06    -22.2287E+06    -1.72380E+06     1.34143E+06    -28.7625E-03     51.7188E-03    -22.9562E-03     45.7989E-03    -28.8593E-03     51.6900E-03    -22.9115E-03     45.7154E-03
            2122     11.4395E-03     17.9263E-03    -14.8269E+06    -42.9919E+06    -2.69989E+06     1.73161E+06    -27.9045E-03     50.5039E-03    -22.5993E-03     42.1452E-03    -27.9534E-03     50.3554E-03    -22.5290E-03     42.0865E-03
            2123     10.5635E-03     17.8858E-03    -15.4680E+06    -54.0848E+06    -666.264E+03     2.49600E+06    -27.0307E-03     49.2792E-03    -22.2485E-03     38.6594E-03    -27.0571E-03     49.0607E-03    -22.1510E-03     38.6275E-03
            2124     9.68683E-03     17.8485E-03    -17.2140E+06    -61.3365E+06    -1.43166E+06     2.78718E+06    -26.1176E-03     48.0046E-03    -21.8870E-03     34.9391E-03    -26.1322E-03     47.7445E-03    -21.7803E-03     34.9251E-03
            2125     8.80937E-03     17.8149E-03    -18.7315E+06     -70.461E+06    -2.84441E+06     2.70496E+06    -25.1909E-03     46.7277E-03    -21.5368E-03     31.0904E-03    -25.1914E-03     46.4199E-03    -21.4217E-03     31.0868E-03
            2126     7.93114E-03     17.7849E-03    -19.7847E+06    -74.0619E+06    -3.74622E+06     2.83533E+06    -24.2582E-03     45.4565E-03    -21.1982E-03     27.3475E-03    -24.2531E-03     45.1291E-03    -21.0809E-03     27.3547E-03
            2127     7.05212E-03     17.7585E-03    -21.3255E+06    -81.4008E+06    -5.87787E+06     3.49983E+06    -23.3675E-03     44.2501E-03    -20.8826E-03     23.7151E-03    -23.3533E-03     43.8883E-03    -20.7630E-03     23.7381E-03
            2128     6.17243E-03     17.7356E-03    -23.5493E+06    -86.2421E+06    -9.48520E+06     3.96457E+06    -22.5243E-03     43.1089E-03    -20.5846E-03     20.2524E-03    -22.5069E-03     42.7292E-03    -20.4728E-03     20.2870E-03
            2129     5.29194E-03     17.7159E-03    -25.6384E+06    -90.5562E+06    -13.9208E+06     3.93091E+06    -21.7606E-03     42.0739E-03    -20.3132E-03     16.9564E-03    -21.7396E-03     41.6807E-03    -20.2143E-03     16.9949E-03
            2130     4.41100E-03     17.6995E-03    -27.5942E+06    -97.9719E+06    -18.1326E+06     3.75828E+06    -21.1064E-03     41.1874E-03    -20.0810E-03     13.7962E-03    -21.0774E-03     40.7653E-03    -19.9896E-03     13.8357E-03
            2131     3.52942E-03     17.6863E-03    -29.7980E+06    -103.832E+06    -22.3586E+06     3.36720E+06    -20.5540E-03     40.4353E-03    -19.8814E-03     10.8127E-03    -20.5207E-03     39.9926E-03    -19.7994E-03     10.8497E-03
            2132     2.64752E-03     17.6761E-03    -31.8149E+06    -106.713E+06    -26.6633E+06     2.66721E+06    -20.0980E-03     39.8116E-03    -19.7136E-03     7.98662E-03    -20.0641E-03     39.3633E-03    -19.6461E-03     8.01661E-03
            2133     1.76515E-03     17.6689E-03    -33.2718E+06    -106.603E+06    -30.2433E+06     1.65558E+06    -19.7547E-03     39.3401E-03    -19.5854E-03     5.33107E-03    -19.7228E-03     38.8993E-03    -19.5338E-03     5.34965E-03
            2134     882.728E-06     17.6644E-03    -34.1989E+06    -108.066E+06    -33.1729E+06     945.802E+03    -19.5508E-03     39.0533E-03    -19.5025E-03     2.85008E-03    -19.5170E-03     38.6108E-03    -19.4621E-03     2.86082E-03
            2135     16.6814E-03     17.2071E-03    -3.00854E+06     103.707E+06     60.4673E+06     353.074E+03    -33.1187E-03     58.1560E-03    -25.0373E-03     30.2953E-03    -33.4558E-03     58.6753E-03    -24.8810E-03     30.1798E-03
            2136     15.8090E-03     17.1714E-03    -6.70043E+06     102.637E+06     47.0273E+06     998.543E+03    -32.3483E-03     56.8943E-03    -24.5461E-03     45.6565E-03    -32.7290E-03     57.4793E-03    -24.4500E-03     45.5195E-03
            2137     14.9369E-03     17.1226E-03    -9.74664E+06     92.5604E+06     30.3028E+06     2.18687E+06    -31.8057E-03     55.8557E-03    -24.0499E-03     51.9399E-03    -32.1648E-03     56.4209E-03    -24.0185E-03     51.8127E-03
            2138     14.0651E-03     17.0684E-03    -11.2039E+06     50.4966E+06     8.88566E+06     1.98955E+06    -31.0110E-03     54.5834E-03    -23.5725E-03     53.5599E-03    -31.2710E-03     54.9573E-03    -23.5850E-03     53.4365E-03
            2139     13.1910E-03     17.0181E-03    -12.5985E+06     1.48992E+06    -2.61788E+06     1.28868E+06    -29.9029E-03     53.0672E-03    -23.1642E-03     48.8249E-03    -30.0481E-03     53.1805E-03    -23.1612E-03     48.7163E-03
            2140     12.3167E-03     16.9720E-03    -13.3231E+06    -22.0489E+06    -1.20350E+06     1.06910E+06    -28.9351E-03     51.7286E-03    -22.7935E-03     44.5395E-03    -29.0244E-03     51.6959E-03    -22.7482E-03     44.4534E-03
            2141     11.4416E-03     16.9298E-03    -14.4127E+06    -43.9600E+06    -2.89133E+06     1.54629E+06    -28.0817E-03     50.4899E-03    -22.4082E-03     40.8107E-03    -28.1251E-03     50.3345E-03    -22.3380E-03     40.7505E-03
            2142     10.5658E-03     16.8903E-03    -15.7356E+06    -54.5663E+06    -1.33650E+06     2.46789E+06    -27.1457E-03     49.1709E-03    -22.0252E-03     37.2567E-03    -27.1703E-03     48.9499E-03    -21.9300E-03     37.2257E-03
            2143     9.68919E-03     16.8544E-03    -16.7819E+06    -61.2025E+06    -1.31462E+06     3.00454E+06    -26.1853E-03     47.8206E-03    -21.6352E-03     33.4401E-03    -26.1969E-03     47.5591E-03    -21.5287E-03     33.4302E-03
            2144     8.81177E-03     16.8220E-03    -18.1381E+06    -69.1607E+06    -2.39777E+06     2.39450E+06    -25.2050E-03     46.4582E-03    -21.2532E-03     29.5322E-03    -25.2041E-03     46.1544E-03    -21.1386E-03     29.5259E-03
            2145     7.93354E-03     16.7934E-03    -19.5026E+06    -74.7015E+06    -3.87692E+06     2.16010E+06    -24.2179E-03     45.1005E-03    -20.8827E-03     25.7589E-03    -24.2094E-03     44.7689E-03    -20.7654E-03     25.7586E-03
            2146     7.05451E-03     16.7681E-03    -20.9487E+06    -82.1083E+06    -5.61043E+06     3.44561E+06    -23.2718E-03     43.8077E-03    -20.5359E-03     22.1276E-03    -23.2545E-03     43.4408E-03    -20.4145E-03     22.1510E-03
            2147     6.17466E-03     16.7464E-03    -22.5607E+06    -85.4018E+06    -8.15242E+06     3.93604E+06    -22.3631E-03     42.5696E-03    -20.2064E-03     18.7205E-03    -22.3435E-03     42.1904E-03    -20.0907E-03     18.7556E-03
            2148     5.29416E-03     16.7277E-03    -24.3728E+06    -89.9844E+06    -12.9129E+06     3.94919E+06    -21.5232E-03     41.4244E-03    -19.9012E-03     15.5315E-03    -21.4978E-03     41.0306E-03    -19.8000E-03     15.5710E-03
            2149     4.41285E-03     16.7123E-03    -26.4664E+06    -96.8850E+06    -18.0789E+06     4.17011E+06    -20.7879E-03     40.4233E-03    -19.6353E-03     12.5460E-03    -20.7548E-03     40.0047E-03    -19.5469E-03     12.5915E-03
            2150     3.53107E-03     16.6998E-03    -28.5649E+06    -102.072E+06    -21.7283E+06     3.81364E+06    -20.1697E-03     39.5835E-03    -19.4138E-03     9.75965E-03    -20.1337E-03     39.1467E-03    -19.3330E-03     9.80292E-03
            2151     2.64874E-03     16.6903E-03    -30.4724E+06    -104.357E+06    -25.4400E+06     2.69837E+06    -19.6627E-03     38.8913E-03    -19.2285E-03     7.16342E-03    -19.6273E-03     38.4509E-03    -19.1602E-03     7.19417E-03
            2152     1.76609E-03     16.6834E-03    -32.0152E+06    -104.743E+06    -29.5496E+06     1.56340E+06    -19.2758E-03     38.3606E-03    -19.0847E-03     4.75556E-03    -19.2413E-03     37.9263E-03    -19.0342E-03     4.77317E-03
            2153     883.013E-06     16.6794E-03    -33.2682E+06    -106.347E+06    -32.3458E+06     719.829E+03    -19.0384E-03     38.0450E-03    -19.0065E-03     2.55676E-03    -19.0037E-03     37.6085E-03    -18.9658E-03     2.56470E-03
            2154     16.6804E-03     16.2096E-03    -2.46706E+06     102.956E+06     60.2860E+06     1.00422E+06    -33.4724E-03     58.4964E-03    -25.0239E-03     29.4902E-03    -33.8013E-03     59.0073E-03    -24.8682E-03     29.3815E-03
            2155     15.8075E-03     16.1632E-03    -6.45410E+06     101.827E+06     48.1244E+06     1.91473E+06    -33.0004E-03     57.5103E-03    -24.5099E-03     43.9586E-03    -33.3749E-03     58.0839E-03    -24.4075E-03     43.8295E-03
            2156     14.9390E-03     16.1210E-03    -10.1347E+06     91.5907E+06     31.1852E+06     1.71479E+06    -32.2556E-03     56.2326E-03    -23.9769E-03     49.9455E-03    -32.6107E-03     56.7865E-03    -23.9391E-03     49.8106E-03
            2157     14.0652E-03     16.0670E-03    -11.5837E+06     51.9221E+06     9.65404E+06     1.76067E+06    -31.2121E-03     54.6799E-03    -23.4678E-03     52.0517E-03    -31.4719E-03     55.0550E-03    -23.4780E-03     51.9263E-03
            2158     13.1929E-03     16.0188E-03    -11.5629E+06     2.66083E+06    -1.85736E+06     690.553E+03    -30.2136E-03     53.2447E-03    -23.0310E-03     47.1256E-03    -30.3527E-03     53.3576E-03    -23.0274E-03     47.0095E-03
            2159     12.3186E-03     15.9741E-03    -11.8861E+06    -23.4159E+06    -474.382E+03     1.22661E+06    -29.2370E-03     51.8668E-03    -22.6298E-03     43.0133E-03    -29.3156E-03     51.8215E-03    -22.5810E-03     42.9298E-03
            2160     11.4439E-03     15.9329E-03    -13.1979E+06    -44.0070E+06    -1.77025E+06     2.37160E+06    -28.3465E-03     50.5547E-03    -22.2082E-03     39.0652E-03    -28.3831E-03     50.3935E-03    -22.1341E-03     39.0166E-03
            2161     10.5682E-03     15.8951E-03    -14.5324E+06    -55.1562E+06    -767.745E+03     2.40433E+06    -27.3733E-03     49.1568E-03    -21.7835E-03     35.3872E-03    -27.3900E-03     48.9284E-03    -21.6863E-03     35.3567E-03
            2162     9.69182E-03     15.8603E-03    -15.3941E+06    -60.7127E+06    -463.869E+03     2.47289E+06    -26.3559E-03     47.7062E-03    -21.3503E-03     31.4234E-03    -26.3609E-03     47.4425E-03    -21.2423E-03     31.4082E-03
            2163     8.81459E-03     15.8295E-03    -16.0935E+06    -68.0340E+06    -830.476E+03     2.13721E+06    -25.3106E-03     46.2355E-03    -20.9249E-03     27.3559E-03    -25.3022E-03     45.9309E-03    -20.8071E-03     27.3478E-03
            2164     7.93642E-03     15.8021E-03    -18.1123E+06    -75.6893E+06    -2.96812E+06     2.73380E+06    -24.2397E-03     44.7482E-03    -20.5086E-03     23.5269E-03    -24.2232E-03     44.4074E-03    -20.3874E-03     23.5355E-03
            2165     7.05737E-03     15.7783E-03    -20.4339E+06    -82.0859E+06    -5.54003E+06     3.09751E+06    -23.1869E-03     43.2982E-03    -20.1114E-03     19.9460E-03    -23.1664E-03     42.9299E-03    -19.9904E-03     19.9663E-03
            2166     6.17752E-03     15.7576E-03    -21.8715E+06    -85.2470E+06    -8.26767E+06     3.38778E+06    -22.1629E-03     41.9006E-03    -19.7377E-03     16.6707E-03    -22.1394E-03     41.5209E-03    -19.6237E-03     16.7000E-03
            2167     5.29670E-03     15.7403E-03    -23.8973E+06    -89.9992E+06    -12.9399E+06     4.54644E+06    -21.2237E-03     40.6187E-03    -19.3950E-03     13.6778E-03    -21.1956E-03     40.2238E-03    -19.2945E-03     13.7260E-03
            2168     4.41526E-03     15.7258E-03    -26.5948E+06    -95.6304E+06    -17.8597E+06     4.96956E+06    -20.3890E-03     39.4847E-03    -19.0958E-03     10.9503E-03    -20.3584E-03     39.0720E-03    -19.0078E-03     11.0069E-03
            2169     3.53302E-03     15.7143E-03    -28.8260E+06    -99.6354E+06    -22.3574E+06     4.04881E+06    -19.6759E-03     38.5187E-03    -18.8429E-03     8.47579E-03    -19.6437E-03     38.0953E-03    -18.7684E-03     8.52268E-03
            2170     2.65030E-03     15.7053E-03    -30.3783E+06    -102.063E+06    -26.6038E+06     2.79542E+06    -19.1205E-03     37.7573E-03    -18.6369E-03     6.19261E-03    -19.0861E-03     37.3299E-03    -18.5778E-03     6.22501E-03
            2171     1.76710E-03     15.6992E-03    -31.8166E+06    -102.846E+06    -30.3125E+06     2.05253E+06    -18.7149E-03     37.1924E-03    -18.4775E-03     4.07776E-03    -18.6810E-03     36.7683E-03    -18.4338E-03     4.10194E-03
            2172     883.721E-06     15.6953E-03    -32.8306E+06    -104.295E+06    -32.9053E+06     1.11989E+06    -18.4446E-03     36.8160E-03    -18.3715E-03     2.14089E-03    -18.4098E-03     36.3900E-03    -18.3371E-03     2.15417E-03
            2173     16.6782E-03     15.1979E-03    -3.42852E+06     102.665E+06     60.3887E+06     246.378E+03    -34.5058E-03     59.5197E-03    -25.0139E-03     27.5177E-03    -34.8354E-03     60.0266E-03    -24.8558E-03     27.3925E-03
            2174     15.8135E-03     15.1610E-03    -4.97313E+06     100.385E+06     51.3149E+06     1.01238E+06    -33.5675E-03     58.0344E-03    -24.4669E-03     41.9758E-03    -33.9307E-03     58.5876E-03    -24.3486E-03     41.8317E-03
            2175     14.9382E-03     15.1173E-03    -6.66528E+06     91.5914E+06     35.5720E+06     2.39467E+06    -32.3690E-03     56.2792E-03    -23.9102E-03     48.3327E-03    -32.7071E-03     56.8157E-03    -23.8555E-03     48.2071E-03
            2176     14.0682E-03     15.0659E-03    -8.92275E+06     53.4139E+06     12.0876E+06     1.17748E+06    -31.5992E-03     54.9663E-03    -23.3670E-03     49.9751E-03    -31.8458E-03     55.3358E-03    -23.3711E-03     49.8417E-03
            2177     13.1944E-03     15.0193E-03    -10.5410E+06     2.63778E+06    -1.49182E+06     1.08856E+06    -30.6417E-03     53.5295E-03    -22.8878E-03     45.3788E-03    -30.7722E-03     53.6363E-03    -22.8838E-03     45.2677E-03
            2178     12.3211E-03     14.9758E-03    -12.4606E+06    -24.3228E+06    -1.11466E+06     1.76063E+06    -29.7585E-03     52.1969E-03    -22.4384E-03     41.0637E-03    -29.8346E-03     52.1457E-03    -22.3906E-03     40.9873E-03
            2179     11.4465E-03     14.9362E-03    -13.2440E+06    -44.4656E+06    -2.17283E+06     2.25004E+06    -28.8001E-03     50.7617E-03    -21.9615E-03     36.8581E-03    -28.8329E-03     50.5959E-03    -21.8887E-03     36.8092E-03
            2180     10.5714E-03     14.8995E-03    -13.7245E+06    -54.4326E+06    -494.993E+03     2.45419E+06    -27.7930E-03     49.2701E-03    -21.4771E-03     32.8620E-03    -27.8047E-03     49.0414E-03    -21.3807E-03     32.8336E-03
            2181     9.69531E-03     14.8665E-03    -14.1480E+06    -59.6998E+06    -606.527E+03     1.23521E+06    -26.6819E-03     47.6575E-03    -20.9756E-03     28.6593E-03    -26.6800E-03     47.3953E-03    -20.8715E-03     28.6298E-03
            2182     8.81827E-03     14.8369E-03    -15.1043E+06    -69.4543E+06    -1.09896E+06     2.28512E+06    -25.4993E-03     45.9864E-03    -20.4871E-03     24.4009E-03    -25.4819E-03     45.6721E-03    -20.3700E-03     24.3966E-03
            2183     7.94030E-03     14.8113E-03    -17.0708E+06    -75.6903E+06    -2.32853E+06     3.66512E+06    -24.2693E-03     44.2782E-03    -20.0090E-03     20.5503E-03    -24.2474E-03     43.9338E-03    -19.8861E-03     20.5729E-03
            2184     7.06130E-03     14.7887E-03    -18.8983E+06    -80.8843E+06    -5.46565E+06     3.06085E+06    -23.0339E-03     42.5821E-03    -19.5482E-03     17.1030E-03    -23.0068E-03     42.2167E-03    -19.4309E-03     17.1245E-03
            2185     6.18117E-03     14.7698E-03    -21.1448E+06    -86.3776E+06    -9.08663E+06     3.58706E+06    -21.8513E-03     40.9765E-03    -19.1252E-03     14.0499E-03    -21.8208E-03     40.5907E-03    -19.0147E-03     14.0832E-03
            2186     5.30015E-03     14.7536E-03    -23.4034E+06    -90.2267E+06    -12.2055E+06     5.06550E+06    -20.7745E-03     39.5232E-03    -18.7487E-03     11.3733E-03    -20.7443E-03     39.1251E-03    -18.6450E-03     11.4294E-03
            2187     4.41818E-03     14.7405E-03    -25.1587E+06    -93.9816E+06    -16.1095E+06     5.39393E+06    -19.8323E-03     38.2513E-03    -18.4190E-03     9.00028E-03    -19.7992E-03     37.8420E-03    -18.3268E-03     9.06321E-03
            2188     3.53550E-03     14.7298E-03    -27.0133E+06    -96.8647E+06    -21.4348E+06     4.56114E+06    -19.0408E-03     37.1780E-03    -18.1372E-03     6.92262E-03    -19.0048E-03     36.7643E-03    -18.0648E-03     6.97680E-03
            2189     2.65214E-03     14.7218E-03    -29.1636E+06    -99.9530E+06     -26.401E+06     3.56001E+06    -18.4290E-03     36.3448E-03    -17.9158E-03     5.03248E-03    -18.3919E-03     35.9258E-03    -17.8606E-03     5.07524E-03
            2190     1.76839E-03     14.7160E-03    -30.7877E+06    -100.607E+06    -29.8537E+06     2.72868E+06    -17.9910E-03     35.7446E-03    -17.7536E-03     3.31715E-03    -17.9559E-03     35.3296E-03    -17.7124E-03     3.35036E-03
            2191     884.257E-06     14.7127E-03    -31.5669E+06    -101.390E+06    -31.5554E+06     1.93539E+06    -17.7636E-03     35.3745E-03    -17.6109E-03     1.75020E-03    -17.7287E-03     34.9591E-03    -17.5759E-03     1.77414E-03
            2192     16.6837E-03     14.1916E-03    -3.31494E+06     102.020E+06     60.1554E+06     366.066E+03    -34.6095E-03     59.6037E-03    -24.9942E-03     26.4550E-03    -34.9324E-03     60.1026E-03    -24.8365E-03     26.3338E-03
            2193     15.8081E-03     14.1560E-03    -6.66983E+06     100.198E+06     49.3184E+06     595.838E+03    -33.8511E-03     58.2791E-03    -24.4279E-03     41.2271E-03    -34.2144E-03     58.8313E-03    -24.3170E-03     41.0769E-03
            2194     14.9420E-03     14.1136E-03    -8.16575E+06     91.4703E+06     33.9075E+06     146.927E+03    -33.1443E-03     56.9823E-03    -23.8380E-03     46.9436E-03    -33.4815E-03     57.5169E-03    -23.7892E-03     46.7862E-03
            2195     14.0683E-03     14.0648E-03    -8.30088E+06     53.2261E+06     11.0040E+06     2.18329E+06    -32.1889E-03     55.4353E-03    -23.2464E-03     48.3326E-03    -32.4247E-03     55.7988E-03    -23.2565E-03     48.2112E-03
            2196     13.1968E-03     14.0189E-03    -10.9220E+06     2.75902E+06    -2.77925E+06     2.98911E+06    -31.5039E-03     54.2126E-03    -22.7086E-03     43.1816E-03    -31.6301E-03     54.3179E-03    -22.7107E-03     43.0933E-03
            2197     12.3237E-03     13.9772E-03    -12.7593E+06    -23.8878E+06    -1.80975E+06     2.39763E+06    -30.5430E-03     52.7301E-03    -22.1872E-03     38.3357E-03    -30.6161E-03     52.6785E-03    -22.1431E-03     38.2674E-03
            2198     11.4502E-03     13.9389E-03    -13.8264E+06    -44.5373E+06    -3.34037E+06     1.94365E+06    -29.5549E-03     51.1817E-03    -21.6269E-03     33.8507E-03    -29.5854E-03     51.0148E-03    -21.5589E-03     33.7986E-03
            2199     10.5756E-03     13.9040E-03    -13.5772E+06    -53.0154E+06    -1.29864E+06     899.868E+03    -28.4363E-03     49.4872E-03    -21.0509E-03     29.5033E-03    -28.4454E-03     49.2637E-03    -20.9608E-03     29.4564E-03
            2200     9.70015E-03     13.8724E-03    -13.9613E+06    -59.9404E+06    -1.11529E+06     1.27303E+06    -27.1233E-03     47.5843E-03    -20.4611E-03     24.9646E-03    -27.1170E-03     47.3191E-03    -20.3595E-03     24.9377E-03
            2201     8.82355E-03     13.8449E-03    -15.7676E+06    -71.2036E+06    -2.13202E+06     2.45618E+06    -25.6826E-03     45.5689E-03    -19.8863E-03     20.6734E-03    -25.6628E-03     45.2466E-03    -19.7708E-03     20.6736E-03
            2202     7.94569E-03     13.8208E-03    -16.2661E+06    -75.1896E+06    -2.28432E+06     2.91193E+06    -24.1922E-03     43.5235E-03    -19.3313E-03     16.9642E-03    -24.1659E-03     43.1792E-03    -19.2101E-03     16.9792E-03
            2203     7.06650E-03     13.8004E-03    -17.6246E+06    -80.8197E+06    -4.64828E+06     3.87295E+06    -22.7416E-03     41.5508E-03    -18.8092E-03     13.7298E-03    -22.7086E-03     41.1818E-03    -18.6897E-03     13.7638E-03
            2204     6.18615E-03     13.7828E-03    -20.5833E+06    -86.8407E+06    -7.94616E+06     4.84259E+06    -21.3788E-03     39.7138E-03    -18.3350E-03     10.9876E-03    -21.3460E-03     39.3227E-03    -18.2190E-03     11.0387E-03
            2205     5.30456E-03     13.7684E-03    -22.7103E+06    -89.4430E+06    -11.4457E+06     4.60373E+06    -20.1401E-03     38.0513E-03    -17.9113E-03     8.70029E-03    -20.1083E-03     37.6546E-03    -17.8059E-03     8.75170E-03
            2206     4.42202E-03     13.7563E-03    -23.2205E+06    -92.8105E+06    -15.0434E+06     4.36871E+06    -19.0817E-03     36.6312E-03    -17.5495E-03     6.73368E-03    -19.0420E-03     36.2232E-03    -17.4565E-03     6.78440E-03
            2207     3.53859E-03     13.7470E-03    -23.7749E+06    -95.2461E+06    -18.1094E+06     4.93542E+06    -18.2169E-03     35.4724E-03    -17.2555E-03     5.08257E-03    -18.1717E-03     35.0572E-03    -17.1735E-03     5.14234E-03
            2208     2.65455E-03     13.7396E-03    -25.2977E+06    -97.1731E+06    -21.8408E+06     4.67706E+06    -17.5495E-03     34.5756E-03    -17.0261E-03     3.65187E-03    -17.5036E-03     34.1582E-03    -16.9577E-03     3.70961E-03
            2209     1.76992E-03     13.7346E-03    -26.9753E+06    -97.7946E+06    -25.5006E+06     3.43135E+06    -17.0791E-03     33.9428E-03    -16.8637E-03     2.37886E-03    -17.0353E-03     33.5299E-03    -16.8103E-03     2.42151E-03
            2210     885.003E-06     13.7314E-03    -28.1531E+06    -97.5827E+06    -27.5989E+06     2.13675E+06    -16.8462E-03     33.5928E-03    -16.7466E-03     1.27218E-03    -16.8055E-03     33.1858E-03    -16.7023E-03     1.29890E-03
            2211     16.6777E-03     13.1891E-03    -3.76167E+06     101.113E+06     61.2357E+06     328.221E+03    -35.4710E-03     60.4751E-03    -25.0041E-03     25.2784E-03    -35.7931E-03     60.9653E-03    -24.8391E-03     25.1501E-03
            2212     15.8130E-03     13.1473E-03    -6.98586E+06     101.549E+06     47.8389E+06    -217.592E+03    -34.6749E-03     59.0479E-03    -24.3730E-03     37.9337E-03    -35.0318E-03     59.6020E-03    -24.2710E-03     37.7677E-03
            2213     14.9401E-03     13.1112E-03    -10.8272E+06     90.0979E+06     28.2874E+06     609.152E+03    -33.6779E-03     57.4017E-03    -23.7238E-03     43.8889E-03    -34.0111E-03     57.9343E-03    -23.6973E-03     43.7342E-03
            2214     14.0710E-03     13.0616E-03    -14.9082E+06     51.1217E+06     6.70369E+06     1.88188E+06    -33.3957E-03     56.4761E-03    -23.0804E-03     45.5553E-03    -33.6498E-03     56.8394E-03    -23.0994E-03     45.4237E-03
            2215     13.1997E-03     13.0181E-03    -14.1645E+06     3.59162E+06    -4.12841E+06     2.49349E+06    -32.6344E-03     55.0892E-03    -22.4548E-03     39.8850E-03    -32.7705E-03     55.1998E-03    -22.4601E-03     39.7872E-03
            2216     12.3281E-03     12.9777E-03    -13.5848E+06    -23.7217E+06    -2.28474E+06     2.64881E+06    -31.6625E-03     53.4944E-03    -21.8318E-03     34.7916E-03    -31.7347E-03     53.4409E-03    -21.7892E-03     34.7256E-03
            2217     11.4553E-03     12.9414E-03    -13.7220E+06    -41.9509E+06    -3.14284E+06     1.25435E+06    -30.5584E-03     51.7146E-03    -21.1562E-03     29.9400E-03    -30.5885E-03     51.5563E-03    -21.0912E-03     29.8797E-03
            2218     10.5818E-03     12.9079E-03    -14.3340E+06    -52.8546E+06    -1.97997E+06    -11.8381E+03    -29.1585E-03     49.6230E-03    -20.4645E-03     25.2573E-03    -29.1675E-03     49.3994E-03    -20.3770E-03     25.2005E-03
            2219     9.70698E-03     12.8787E-03    -15.5018E+06    -61.8993E+06    -2.00795E+06     1.42061E+06    -27.4855E-03     47.2556E-03    -19.7702E-03     20.6630E-03    -27.4805E-03     46.9819E-03    -19.6680E-03     20.6406E-03
            2220     8.83063E-03     12.8532E-03    -15.9698E+06    -70.4952E+06    -2.45928E+06     1.92032E+06    -25.7123E-03     44.8110E-03    -19.0987E-03     16.5791E-03    -25.6924E-03     44.4914E-03    -18.9856E-03     16.5751E-03
            2221     7.95268E-03     12.8315E-03    -17.2069E+06    -75.9860E+06    -3.04337E+06     2.07116E+06    -23.9336E-03     42.3995E-03    -18.4658E-03     13.1601E-03    -23.9086E-03     42.0525E-03    -18.3459E-03     13.1668E-03
            2222     7.07323E-03     12.8129E-03    -18.6753E+06    -82.4657E+06    -4.01438E+06     4.15557E+06    -22.2641E-03     40.1501E-03    -17.8859E-03     10.2523E-03    -22.2341E-03     39.7727E-03    -17.7594E-03     10.2919E-03
            2223     6.19234E-03     12.7976E-03    -19.7038E+06    -85.5537E+06    -5.38479E+06     4.90544E+06    -20.7218E-03     38.0807E-03    -17.3589E-03     7.88581E-03    -20.6896E-03     37.6905E-03    -17.2332E-03     7.93930E-03
            2224     5.31020E-03     12.7846E-03    -20.6468E+06    -87.5609E+06    -9.77551E+06     3.74981E+06    -19.3359E-03     36.2191E-03    -16.8833E-03     6.01845E-03    -19.2986E-03     35.8261E-03    -16.7753E-03     6.06001E-03
            2225     4.42687E-03     12.7742E-03    -21.9893E+06    -92.5475E+06    -14.2267E+06     3.50506E+06    -18.1565E-03     34.6430E-03    -16.4865E-03     4.50482E-03    -18.1121E-03     34.2332E-03    -16.3916E-03     4.54528E-03
            2226     3.54259E-03     12.7658E-03    -22.9506E+06    -94.5066E+06    -16.3889E+06     4.03229E+06    -17.1945E-03     33.3679E-03    -16.1733E-03     3.30895E-03    -17.1487E-03     32.9525E-03    -16.0849E-03     3.35769E-03
            2227     2.65752E-03     12.7596E-03    -22.8096E+06    -94.5150E+06    -18.1353E+06     3.92939E+06    -16.4743E-03     32.4093E-03    -15.9350E-03     2.33791E-03    -16.4251E-03     31.9961E-03    -15.8555E-03     2.38643E-03
            2228     1.77197E-03     12.7550E-03    -22.4729E+06    -94.5946E+06    -19.6538E+06     3.02572E+06    -15.9970E-03     31.7663E-03    -15.7693E-03     1.51752E-03    -15.9438E-03     31.3544E-03    -15.6979E-03     1.55522E-03
            2229     886.101E-06     12.7523E-03    -22.3938E+06    -93.7914E+06    -21.4028E+06     1.67128E+06    -15.7433E-03     31.3874E-03    -15.6442E-03     812.145E-06    -15.6882E-03     30.9820E-03    -15.5827E-03     833.033E-06
            2230     16.6822E-03     12.1713E-03    -3.57303E+06     101.344E+06     60.8645E+06      3.3635E+03    -36.5208E-03     61.4938E-03    -24.9730E-03     22.6503E-03    -36.8358E-03     61.9796E-03    -24.8105E-03     22.5136E-03
            2231     15.8134E-03     12.1465E-03    -6.94654E+06     100.288E+06     47.1357E+06     1.14297E+06    -35.4189E-03     59.7088E-03    -24.2900E-03     35.6242E-03    -35.7653E-03     60.2501E-03    -24.1896E-03     35.4716E-03
            2232     14.9442E-03     12.1045E-03    -10.3036E+06     89.7717E+06     29.8944E+06     2.56918E+06    -35.0002E-03     58.5832E-03    -23.5830E-03     42.4928E-03    -35.3275E-03     59.1060E-03    -23.5487E-03     42.3561E-03
            2233     14.0744E-03     12.0588E-03    -11.2848E+06     51.4467E+06     8.71057E+06     1.70884E+06    -34.8748E-03     57.7122E-03    -22.8374E-03     42.4540E-03    -35.1072E-03     58.0621E-03    -22.8521E-03     42.3140E-03
            2234     13.2046E-03     12.0157E-03    -12.9081E+06     2.85000E+06    -4.19528E+06     2.03856E+06    -34.1346E-03     56.2222E-03    -22.0876E-03     36.3300E-03    -34.2568E-03     56.3210E-03    -22.0940E-03     36.2232E-03
            2235     12.3340E-03     11.9778E-03    -13.6186E+06    -22.0896E+06    -2.22078E+06     1.72344E+06    -33.0572E-03     54.3873E-03    -21.3301E-03     30.6167E-03    -33.1267E-03     54.3368E-03    -21.2895E-03     30.5381E-03
            2236     11.4629E-03     11.9427E-03    -13.7005E+06    -40.2001E+06    -2.98843E+06     611.575E+03    -31.5692E-03     52.0883E-03    -20.5191E-03     25.4277E-03    -31.5978E-03     51.9345E-03    -20.4559E-03     25.3608E-03
            2237     10.5901E-03     11.9122E-03    -15.1289E+06    -53.0868E+06    -2.00601E+06     880.232E+03    -29.6588E-03     49.3689E-03    -19.7100E-03     20.7076E-03    -29.6683E-03     49.1422E-03    -19.6211E-03     20.6653E-03
            2238     9.71554E-03     11.8852E-03    -16.4820E+06    -62.6570E+06    -2.60398E+06     646.731E+03    -27.5626E-03     46.4772E-03    -18.9146E-03     16.4247E-03    -27.5584E-03     46.1998E-03    -18.8129E-03     16.3956E-03
            2239     8.83915E-03     11.8626E-03    -17.3262E+06    -70.3663E+06    -2.69869E+06     1.12266E+06    -25.4575E-03     43.6210E-03    -18.1636E-03     12.7530E-03    -25.4428E-03     43.3030E-03    -18.0499E-03     12.7416E-03
            2240     7.96095E-03     11.8433E-03    -18.8712E+06    -77.2448E+06    -2.48071E+06     2.45882E+06    -23.4405E-03     40.9117E-03    -17.4712E-03     9.76290E-03    -23.4220E-03     40.5592E-03    -17.3442E-03     9.77673E-03
            2241     7.08100E-03     11.8273E-03    -20.4475E+06    -83.1239E+06    -3.48917E+06     2.92330E+06    -21.5630E-03     38.3997E-03    -16.8367E-03     7.37326E-03    -21.5412E-03     38.0204E-03    -16.7040E-03     7.39859E-03
            2242     6.19950E-03     11.8138E-03    -20.4098E+06    -84.1281E+06    -4.72749E+06     2.53961E+06    -19.8698E-03     36.1331E-03    -16.2634E-03     5.48581E-03    -19.8439E-03     35.7499E-03    -16.1354E-03     5.50993E-03
            2243     5.31649E-03     11.8030E-03    -20.6717E+06    -86.9445E+06    -7.93104E+06     2.92503E+06    -18.3866E-03     34.1456E-03    -15.7591E-03     4.00794E-03    -18.3529E-03     33.7529E-03    -15.6427E-03     4.03959E-03
            2244     4.43225E-03     11.7940E-03    -22.1621E+06    -91.8660E+06    -12.0424E+06     3.31538E+06    -17.1276E-03     32.4613E-03    -15.3337E-03     2.88200E-03    -17.0880E-03     32.0519E-03    -15.2286E-03     2.92048E-03
            2245     3.54698E-03     11.7871E-03    -23.2459E+06    -93.0182E+06    -15.1753E+06     2.38840E+06    -16.1000E-03     31.0875E-03    -14.9876E-03     2.04867E-03    -16.0595E-03     30.6783E-03    -14.8949E-03     2.07648E-03
            2246     2.66089E-03     11.7816E-03    -23.2972E+06    -92.9328E+06    -17.5262E+06     1.43906E+06    -15.3229E-03     30.0446E-03    -14.7218E-03     1.41103E-03    -15.2793E-03     29.6392E-03    -14.6409E-03     1.42756E-03
            2247     1.77421E-03     11.7778E-03    -22.5576E+06    -92.4561E+06    -19.7488E+06     887.424E+03    -14.7970E-03     29.3264E-03    -14.5293E-03     898.323E-06    -14.7472E-03     28.9254E-03    -14.4613E-03     908.508E-06
            2248     887.171E-06     11.7754E-03    -21.6124E+06    -91.6887E+06    -20.7554E+06     355.413E+03    -14.5239E-03     28.8928E-03    -14.3689E-03     490.959E-06    -14.4690E-03     28.4958E-03    -14.3084E-03     494.891E-06
            2249     16.6823E-03     11.1698E-03    -3.06598E+06     100.205E+06     60.5611E+06     1.03527E+06    -36.9688E-03     61.8990E-03    -24.9301E-03     21.3881E-03    -37.2738E-03     62.3734E-03    -24.7682E-03     21.2650E-03
            2250     15.8122E-03     11.1355E-03    -7.30635E+06     98.7776E+06     48.4661E+06     2.04498E+06    -36.7675E-03     60.9713E-03    -24.2037E-03     33.8194E-03    -37.1102E-03     61.4981E-03    -24.0940E-03     33.6703E-03
            2251     14.9464E-03     11.0999E-03    -9.70158E+06     89.5454E+06     31.3869E+06     1.45305E+06    -37.1149E-03     60.4997E-03    -23.3849E-03     39.9498E-03    -37.4358E-03     61.0132E-03    -23.3437E-03     39.7856E-03
            2252     14.0787E-03     11.0527E-03    -11.7644E+06     51.5983E+06     8.37081E+06     2.66121E+06    -36.8462E-03     59.3348E-03    -22.4886E-03     39.2368E-03    -37.0735E-03     59.6794E-03    -22.5045E-03     39.1012E-03
            2253     13.2111E-03     11.0130E-03    -12.8734E+06     3.84147E+06    -3.98764E+06     2.11592E+06    -36.0040E-03     57.5888E-03    -21.5848E-03     31.8529E-03    -36.1210E-03     57.6856E-03    -21.5917E-03     31.7429E-03
            2254     12.3425E-03     10.9759E-03    -12.8615E+06    -20.7524E+06    -1.18479E+06     851.151E+03    -34.2865E-03     54.9663E-03    -20.6798E-03     25.9972E-03    -34.3502E-03     54.9145E-03    -20.6370E-03     25.9085E-03
            2255     11.4721E-03     10.9445E-03    -13.8722E+06    -39.8724E+06    -2.32973E+06     1.00167E+06    -32.1476E-03     51.8941E-03    -19.7465E-03     20.9389E-03    -32.1746E-03     51.7374E-03    -19.6802E-03     20.8803E-03
            2256     10.5997E-03     10.9164E-03    -14.9540E+06    -53.2788E+06    -1.35433E+06     1.06071E+06    -29.7262E-03     48.5693E-03    -18.8431E-03     16.6405E-03    -29.7329E-03     48.3379E-03    -18.7509E-03     16.6044E-03
            2257     9.72509E-03     10.8931E-03    -16.6992E+06    -61.9386E+06    -1.31663E+06     1.27017E+06    -27.2235E-03     45.2045E-03    -17.9810E-03     12.8516E-03    -27.2218E-03     44.9276E-03    -17.8736E-03     12.8338E-03
            2258     8.84827E-03     10.8732E-03    -19.4552E+06    -71.1451E+06    -2.66022E+06     1.20414E+06    -24.8338E-03     42.0147E-03    -17.1809E-03     9.83682E-03    -24.8279E-03     41.6949E-03    -17.0628E-03     9.82906E-03
            2259     7.96945E-03     10.8569E-03    -21.0044E+06    -78.0279E+06    -2.22863E+06     1.76240E+06    -22.6318E-03     39.0895E-03    -16.4577E-03     7.45175E-03    -22.6227E-03     38.7354E-03    -16.3252E-03     7.45841E-03
            2260     7.08874E-03     10.8433E-03    -21.4806E+06    -81.4087E+06    -2.68883E+06     1.10684E+06    -20.6318E-03     36.4328E-03    -15.8010E-03     5.63680E-03    -20.6186E-03     36.0622E-03    -15.6653E-03     5.63987E-03
            2261     6.20627E-03     10.8323E-03    -22.5958E+06    -84.1036E+06    -4.62092E+06     310.312E+03    -18.8719E-03     34.0886E-03    -15.2167E-03     4.23121E-03    -18.8571E-03     33.7084E-03    -15.0851E-03     4.22725E-03
            2262     5.32239E-03     10.8232E-03    -23.9040E+06    -88.0739E+06    -7.31322E+06     1.47401E+06    -17.3771E-03     32.0858E-03    -14.7086E-03     3.09381E-03    -17.3589E-03     31.6912E-03    -14.5828E-03     3.10706E-03
            2263     4.43728E-03     10.8162E-03    -24.6530E+06    -90.2965E+06    -10.1407E+06     1.71030E+06    -16.1228E-03     30.3942E-03    -14.2714E-03     2.25437E-03    -16.1007E-03     29.9935E-03    -14.1554E-03     2.27225E-03
            2264     3.55110E-03     10.8104E-03    -25.2438E+06    -91.2188E+06    -14.3936E+06     441.088E+03    -15.1008E-03     28.9979E-03    -13.8971E-03     1.61571E-03    -15.0741E-03     28.5994E-03    -13.8002E-03     1.61840E-03
            2265     2.66412E-03     10.8062E-03    -25.8978E+06    -92.1068E+06    -19.8359E+06    -609.322E+03    -14.2944E-03     27.8815E-03    -13.5871E-03     1.10966E-03    -14.2617E-03     27.4873E-03    -13.5151E-03     1.09972E-03
            2266     1.77648E-03     10.8030E-03    -26.3796E+06    -92.2330E+06    -23.8197E+06    -963.751E+03    -13.6923E-03     27.0459E-03    -13.3536E-03     690.370E-06    -13.6560E-03     26.6576E-03    -13.3007E-03     676.606E-06
            2267     888.400E-06     10.8011E-03    -26.5170E+06    -91.9287E+06    -25.9352E+06    -722.834E+03    -13.3150E-03     26.5025E-03    -13.1875E-03     349.405E-06    -13.2767E-03     26.1190E-03    -13.1454E-03     339.370E-06
            2268     16.6806E-03     10.1579E-03    -3.27735E+06     99.9392E+06     61.7548E+06     890.623E+03    -39.0479E-03     63.9324E-03    -24.8845E-03     18.6085E-03    -39.3518E-03     64.4005E-03    -24.7159E-03     18.4716E-03
            2269     15.8183E-03     10.1278E-03    -5.87434E+06     98.3462E+06     50.4205E+06     772.460E+03    -38.8814E-03     62.9212E-03    -24.0398E-03     31.0094E-03    -39.2135E-03     63.4355E-03    -23.9218E-03     30.8299E-03
            2270     14.9506E-03     10.0909E-03    -8.85056E+06     88.2069E+06     32.0288E+06     2.63258E+06    -39.2587E-03     62.3388E-03    -23.0801E-03     37.0621E-03    -39.5686E-03     62.8376E-03    -23.0350E-03     36.8996E-03
            2271     14.0859E-03     10.0460E-03    -11.7542E+06     52.2333E+06     9.83210E+06     2.65213E+06    -39.2244E-03     61.2473E-03    -22.0229E-03     34.8139E-03    -39.4473E-03     61.5857E-03    -22.0324E-03     34.6680E-03
            2272     13.2201E-03     10.0075E-03    -11.9729E+06     5.72771E+06    -2.20017E+06     1.50666E+06    -37.3703E-03     58.3291E-03    -20.9588E-03     27.1898E-03    -37.4810E-03     58.4244E-03    -20.9608E-03     27.0720E-03
            2273     12.3524E-03     9.97488E-03    -13.0963E+06    -20.4233E+06    -143.957E+03     1.48843E+06    -34.8605E-03     54.7977E-03    -19.9372E-03     21.8359E-03    -34.9226E-03     54.7416E-03    -19.8893E-03     21.7594E-03
            2274     11.4820E-03     9.94616E-03    -14.6461E+06    -39.2336E+06    -1.09856E+06     1.13467E+06    -32.0957E-03     51.0214E-03    -18.9257E-03     17.3107E-03    -32.1262E-03     50.8640E-03    -18.8530E-03     17.2588E-03
            2275     10.6095E-03     9.92229E-03    -15.7534E+06    -53.2912E+06    -339.912E+03     954.733E+03    -29.2276E-03     47.2023E-03    -17.9748E-03     13.5486E-03    -29.2379E-03     46.9688E-03    -17.8764E-03     13.5153E-03
            2276     9.73420E-03     9.90213E-03    -16.8352E+06    -62.2363E+06     276.469E+03     1.47804E+06    -26.4046E-03     43.4996E-03    -17.0949E-03     10.5220E-03    -26.4045E-03     43.2181E-03    -16.9789E-03     10.5102E-03
            2277     8.85660E-03     9.88584E-03    -18.0609E+06    -70.6136E+06    -104.024E+03     1.86680E+06    -23.8252E-03     40.1239E-03    -16.2987E-03     8.24044E-03    -23.8163E-03     39.8007E-03    -16.1707E-03     8.24341E-03
            2278     7.97676E-03     9.87224E-03    -19.9810E+06    -77.2968E+06    -346.765E+03     618.420E+03    -21.5269E-03     37.1190E-03    -15.5921E-03     6.55546E-03    -21.5163E-03     36.7642E-03    -15.4528E-03     6.54873E-03
            2279     7.09501E-03     9.86144E-03    -21.7538E+06    -79.9936E+06    -1.15181E+06    -417.230E+03    -19.5290E-03     34.4937E-03    -14.9647E-03     5.27994E-03    -19.5214E-03     34.1284E-03    -14.8229E-03     5.26406E-03
            2280     6.21164E-03     9.85256E-03    -23.7551E+06    -84.5871E+06    -3.54145E+06    -474.219E+03    -17.8265E-03     32.2425E-03    -14.4160E-03     4.29761E-03    -17.8184E-03     31.8600E-03    -14.2766E-03     4.28385E-03
            2281     5.32683E-03     9.84559E-03    -25.6967E+06    -88.6419E+06    -6.25220E+06    -582.930E+03    -16.4152E-03     30.3568E-03    -13.9416E-03     3.50888E-03    -16.4067E-03     29.9605E-03    -13.8070E-03     3.49571E-03
            2282     4.44086E-03     9.84000E-03    -26.7344E+06    -89.1786E+06    -9.62387E+06    -1.12431E+06    -15.2612E-03     28.7870E-03    -13.5257E-03     2.86622E-03    -15.2520E-03     28.3942E-03    -13.4058E-03     2.84753E-03
            2283     3.55398E-03     9.83572E-03    -27.6751E+06    -90.6073E+06    -16.0816E+06    -1.59089E+06    -14.3188E-03     27.4764E-03    -13.1577E-03     2.29261E-03    -14.3027E-03     27.0871E-03    -13.0666E-03     2.26903E-03
            2284     2.66631E-03     9.83246E-03    -29.0179E+06    -92.2232E+06    -23.0012E+06    -1.59524E+06    -13.5527E-03     26.4017E-03    -12.8490E-03     1.75577E-03    -13.5308E-03     26.0161E-03    -12.7882E-03     1.73305E-03
            2285     1.77798E-03     9.83024E-03    -30.4739E+06    -93.0643E+06    -27.6781E+06    -1.48342E+06    -12.9545E-03     25.5705E-03    -12.6160E-03     1.22789E-03    -12.9319E-03     25.1895E-03    -12.5752E-03     1.20740E-03
            2286     889.132E-06     9.82883E-03    -31.4409E+06    -93.6108E+06    -30.5823E+06    -1.04433E+06    -12.5728E-03     25.0233E-03    -12.4505E-03     662.305E-06    -12.5499E-03     24.6452E-03    -12.4221E-03     648.119E-06
            2287     16.6858E-03     9.14190E-03    -2.66901E+06     99.2338E+06     61.5579E+06     87.2269E+03    -40.8328E-03     65.6156E-03    -24.7828E-03     17.2079E-03    -41.1296E-03     66.0767E-03    -24.6150E-03     17.0506E-03
            2288     15.8195E-03     9.12004E-03    -5.61423E+06     96.6385E+06     50.8722E+06     2.01694E+06    -41.5081E-03     65.3239E-03    -23.8158E-03     29.9111E-03    -41.8337E-03     65.8252E-03    -23.6935E-03     29.7300E-03
            2289     14.9569E-03     9.07889E-03    -8.45643E+06     88.0021E+06     35.3718E+06     2.46535E+06    -42.0599E-03     64.7562E-03    -22.6963E-03     35.2934E-03    -42.3669E-03     65.2433E-03    -22.6348E-03     35.1149E-03
            2290     14.0947E-03     9.03688E-03    -8.50860E+06     53.8372E+06     13.3883E+06     2.12856E+06    -40.8131E-03     62.2851E-03    -21.4720E-03     30.7931E-03    -41.0187E-03     62.6133E-03    -21.4708E-03     30.6389E-03
            2291     13.2296E-03     9.00282E-03    -10.5062E+06     6.02453E+06    -742.239E+03     2.94337E+06    -37.9617E-03     58.2532E-03    -20.2916E-03     23.3339E-03    -38.0610E-03     58.3393E-03    -20.2888E-03     23.2398E-03
            2292     12.3616E-03     8.97368E-03    -13.2008E+06    -19.1818E+06     1.53474E+06     2.76149E+06    -34.6700E-03     53.8792E-03    -19.2092E-03     18.5027E-03    -34.7328E-03     53.8230E-03    -19.1546E-03     18.4494E-03
            2293     11.4913E-03     8.94944E-03    -15.2690E+06    -37.8395E+06     504.079E+03     1.50291E+06    -31.3514E-03     49.5282E-03    -18.1768E-03     14.7035E-03    -31.3871E-03     49.3742E-03    -18.0973E-03     14.6622E-03
            2294     10.6177E-03     8.92939E-03    -16.8455E+06    -52.9307E+06     950.950E+03       663.4E+03    -28.0790E-03     45.3215E-03    -17.2425E-03     11.8322E-03    -28.0960E-03     45.0883E-03    -17.1366E-03     11.7998E-03
            2295     9.74146E-03     8.91331E-03    -17.8060E+06    -62.6467E+06     1.63254E+06     501.345E+03    -25.0861E-03     41.4955E-03    -16.4094E-03     9.75651E-03    -25.0918E-03     41.2110E-03    -16.2846E-03     9.73522E-03
            2296     8.86256E-03     8.90014E-03    -18.0932E+06    -70.1540E+06     2.35504E+06     443.140E+03    -22.4559E-03     38.1381E-03    -15.6821E-03     8.30293E-03    -22.4514E-03     37.8136E-03    -15.5424E-03     8.28943E-03
            2297     7.98152E-03     8.88973E-03    -18.5451E+06      -75.61E+06     2.98959E+06     26.9912E+03    -20.2140E-03     35.2708E-03    -15.0568E-03     7.28512E-03    -20.2036E-03     34.9176E-03    -14.9053E-03     7.27184E-03
            2298     7.09860E-03     8.88121E-03    -20.9224E+06    -79.7442E+06     1.58848E+06    -717.721E+03    -18.3460E-03     32.8647E-03    -14.5187E-03     6.51508E-03    -18.3388E-03     32.4956E-03    -14.3648E-03     6.49591E-03
            2299     6.21417E-03     8.87462E-03    -23.7190E+06    -84.4130E+06    -1.80630E+06    -1.22063E+06    -16.8244E-03     30.8825E-03    -14.0582E-03     5.88411E-03    -16.8190E-03     30.4986E-03    -13.9104E-03     5.86102E-03
            2300     5.32851E-03     8.86928E-03    -25.7407E+06    -87.6782E+06    -5.64114E+06    -2.49885E+06    -15.6009E-03     29.2693E-03    -13.6685E-03     5.35021E-03    -15.5950E-03     28.8772E-03    -13.5322E-03     5.31251E-03
            2301     4.44191E-03     8.86515E-03    -27.4737E+06    -89.3579E+06    -11.1136E+06    -3.48617E+06    -14.6395E-03     27.9737E-03    -13.3342E-03     4.77074E-03    -14.6316E-03     27.5833E-03    -13.2204E-03     4.72174E-03
            2302     3.55448E-03     8.86202E-03    -29.1690E+06    -91.6819E+06    -18.7256E+06    -2.99884E+06    -13.8858E-03     26.9345E-03    -13.0487E-03     4.07901E-03    -13.8719E-03     26.5458E-03    -12.9671E-03     4.03741E-03
            2303     2.66643E-03     8.85978E-03    -30.6318E+06    -93.3518E+06    -24.8498E+06    -2.25417E+06    -13.2984E-03     26.1234E-03    -12.8251E-03     3.28305E-03    -13.2803E-03     25.7373E-03    -12.7695E-03     3.25199E-03
            2304     1.77787E-03     8.85826E-03    -31.6723E+06    -94.4766E+06    -29.2970E+06    -1.51777E+06    -12.8782E-03     25.5421E-03    -12.6638E-03     2.33819E-03    -12.8572E-03     25.1582E-03    -12.6274E-03     2.31737E-03
            2305     889.006E-06     8.85742E-03    -32.8727E+06    -95.4640E+06    -32.1246E+06    -835.161E+03    -12.6361E-03     25.1866E-03    -12.5506E-03     1.31107E-03    -12.6154E-03     24.8036E-03    -12.5251E-03     1.29966E-03
            2306     16.6839E-03     8.13299E-03    -3.63929E+06     97.0096E+06     60.9475E+06     525.240E+03    -42.9522E-03     67.6108E-03    -24.6586E-03     17.0011E-03    -43.2487E-03     68.0620E-03    -24.4893E-03     16.8352E-03
            2307     15.8237E-03     8.10274E-03    -7.48417E+06     95.6133E+06     51.1754E+06     1.28382E+06    -44.6497E-03     68.1928E-03    -23.5431E-03     27.8389E-03    -44.9808E-03     68.6885E-03    -23.4150E-03     27.6258E-03
            2308     14.9651E-03     8.06665E-03    -9.46549E+06     88.8295E+06     35.1268E+06     1.34675E+06    -44.1310E-03     66.3791E-03    -22.2480E-03     31.9075E-03    -44.4373E-03     66.8656E-03    -22.1875E-03     31.7051E-03
            2309     14.1022E-03     8.02689E-03    -12.5109E+06     52.6943E+06     11.7067E+06     2.63832E+06    -41.4007E-03     62.3131E-03    -20.9124E-03     26.9545E-03    -41.6141E-03     62.6357E-03    -20.9122E-03     26.8121E-03
            2310     13.2380E-03     7.99836E-03    -14.1568E+06     6.59339E+06     293.293E+03     3.76097E+06    -37.6618E-03     57.3560E-03    -19.6941E-03     19.6617E-03    -37.7763E-03     57.4433E-03    -19.6817E-03     19.5861E-03
            2311     12.3700E-03     7.97384E-03    -14.6841E+06    -17.4888E+06     3.83950E+06     2.98256E+06    -33.5738E-03     52.1926E-03    -18.6189E-03     16.1990E-03    -33.6469E-03     52.1408E-03    -18.5530E-03     16.1571E-03
            2312     11.4981E-03     7.95435E-03    -15.7130E+06    -35.9456E+06     3.46394E+06     1.89075E+06    -29.7452E-03     47.3906E-03    -17.6454E-03     13.5762E-03    -29.7888E-03     47.2411E-03    -17.5532E-03     13.5467E-03
            2313     10.6230E-03     7.93876E-03    -17.3941E+06    -51.7792E+06     3.73978E+06     477.571E+03    -26.2984E-03     43.1060E-03    -16.8075E-03     11.8999E-03    -26.3235E-03     42.8748E-03    -16.6885E-03     11.8699E-03
            2314     9.74504E-03     7.92634E-03    -18.6184E+06    -61.8215E+06     4.47409E+06    -982.983E+03    -23.3172E-03     39.4137E-03    -16.0965E-03     10.8689E-03    -23.3322E-03     39.1303E-03    -15.9575E-03     10.8314E-03
            2315     8.86462E-03     7.91658E-03    -19.2268E+06    -70.0854E+06     5.19454E+06    -1.84838E+06    -20.8459E-03     36.3530E-03    -15.5072E-03     10.2368E-03    -20.8513E-03     36.0265E-03    -15.3517E-03     10.1956E-03
            2316     7.98215E-03     7.90869E-03    -19.9834E+06    -75.5138E+06     4.91600E+06    -1.74735E+06    -18.8348E-03     33.8572E-03    -15.0224E-03     9.78373E-03    -18.8348E-03     33.5039E-03    -14.8593E-03     9.74871E-03
            2317     7.09808E-03     7.90252E-03    -20.6826E+06    -79.4265E+06     3.41010E+06    -1.62711E+06    -17.2582E-03     31.8874E-03    -14.6292E-03     9.35945E-03    -17.2530E-03     31.5171E-03    -14.4670E-03     9.32933E-03
            2318     6.21274E-03     7.89753E-03    -21.9397E+06    -83.5856E+06     406.185E+03    -2.57403E+06    -16.0568E-03     30.3721E-03    -14.3152E-03     8.84202E-03    -16.0470E-03     29.9865E-03    -14.1602E-03     8.80205E-03
            2319     5.32648E-03     7.89369E-03    -23.8552E+06    -86.6156E+06    -5.16056E+06    -3.88526E+06    -15.1438E-03     29.2047E-03    -14.0609E-03     8.24141E-03    -15.1308E-03     28.8145E-03    -13.9265E-03     8.18632E-03
            2320     4.43941E-03     7.89057E-03    -26.3114E+06    -90.4575E+06    -12.4004E+06    -4.36183E+06    -14.4898E-03     28.3526E-03    -13.8628E-03     7.42350E-03    -14.4727E-03     27.9569E-03    -13.7554E-03     7.36365E-03
            2321     3.55193E-03     7.88829E-03    -28.3672E+06    -93.4923E+06    -19.3958E+06    -3.94354E+06    -14.0541E-03     27.7684E-03    -13.7143E-03     6.30568E-03    -14.0326E-03     27.3705E-03    -13.6346E-03     6.25226E-03
            2322     2.66410E-03     7.88662E-03    -29.4108E+06    -95.3288E+06    -24.5340E+06    -3.08456E+06    -13.7692E-03     27.3810E-03    -13.6118E-03     4.98297E-03    -13.7426E-03     26.9827E-03    -13.5536E-03     4.94146E-03
            2323     1.77613E-03     7.88549E-03    -29.9420E+06    -96.6720E+06    -28.1350E+06    -1.83496E+06    -13.6062E-03     27.1538E-03    -13.5475E-03     3.47966E-03    -13.5751E-03     26.7546E-03    -13.5046E-03     3.45492E-03
            2324     888.095E-06     7.88482E-03    -30.0038E+06    -97.0094E+06    -29.7287E+06    -598.637E+03    -13.5274E-03     27.0433E-03    -13.5159E-03     1.92461E-03    -13.4937E-03     26.6449E-03    -13.4804E-03     1.91632E-03
            2325     16.6889E-03     7.11329E-03    -3.14908E+06     97.1930E+06     62.4084E+06     508.240E+03    -46.3520E-03     70.8428E-03    -24.4907E-03     16.2148E-03    -46.6483E-03     71.2920E-03    -24.3150E-03     16.0285E-03
            2326     15.8315E-03     7.08663E-03    -5.68246E+06     94.9658E+06     51.3285E+06     648.205E+03    -46.6704E-03     69.8817E-03    -23.2113E-03     26.1564E-03    -46.9881E-03     70.3678E-03    -23.0841E-03     25.9228E-03
            2327     14.9707E-03     7.05188E-03    -10.2111E+06     87.3083E+06     33.3139E+06     2.86216E+06    -44.8170E-03     66.6312E-03    -21.8142E-03     28.9546E-03    -45.1150E-03     67.1067E-03    -21.7594E-03     28.7739E-03
            2328     14.1106E-03     7.01805E-03    -13.9497E+06     52.1748E+06     12.8350E+06     4.08544E+06    -40.9016E-03     61.3617E-03    -20.4601E-03     23.4672E-03    -41.1153E-03     61.6745E-03    -20.4514E-03     23.3553E-03
            2329     13.2445E-03     6.99479E-03    -16.2967E+06     7.59338E+06     3.25805E+06     3.69066E+06    -35.9830E-03     55.2738E-03    -19.2908E-03     17.5848E-03    -36.1092E-03     55.3601E-03    -19.2619E-03     17.5226E-03
            2330     12.3745E-03     6.97640E-03    -17.6884E+06    -14.9791E+06     7.23831E+06     2.10399E+06    -31.3701E-03     49.6941E-03    -18.3239E-03     15.9132E-03    -31.4648E-03     49.6522E-03    -18.2404E-03     15.8708E-03
            2331     11.5006E-03     6.96164E-03    -17.9645E+06    -34.7723E+06     6.84506E+06     390.448E+03    -27.3804E-03     44.8819E-03    -17.5015E-03     14.8069E-03    -27.4411E-03     44.7358E-03    -17.3908E-03     14.7657E-03
            2332     10.6234E-03     6.95034E-03    -17.5593E+06    -49.8823E+06     7.96401E+06    -747.218E+03    -24.0520E-03     40.8931E-03    -16.8410E-03     14.2072E-03    -24.0866E-03     40.6654E-03    -16.7034E-03     14.1663E-03
            2333     9.74338E-03     6.94150E-03    -18.1733E+06    -60.3323E+06     9.14792E+06    -2.51986E+06    -21.3595E-03     37.6827E-03    -16.3232E-03     14.0677E-03    -21.3813E-03     37.3995E-03    -16.1636E-03     14.0136E-03
            2334     8.86124E-03     6.93440E-03    -19.4952E+06    -69.8517E+06     8.89257E+06    -3.74498E+06    -19.2986E-03     35.2246E-03    -15.9260E-03     13.9316E-03    -19.3112E-03     34.8944E-03    -15.7520E-03     13.8680E-03
            2335     7.97749E-03     6.92886E-03    -20.2951E+06    -75.9083E+06     7.45931E+06    -4.42541E+06    -17.7478E-03     33.3730E-03    -15.6252E-03     13.6559E-03    -17.7525E-03     33.0146E-03    -15.4484E-03     13.5877E-03
            2336     7.09249E-03     6.92421E-03    -20.3776E+06    -79.7257E+06     4.57511E+06    -4.75124E+06    -16.6334E-03     32.0361E-03    -15.4027E-03     13.1506E-03    -16.6280E-03     31.6621E-03    -15.2347E-03     13.0813E-03
            2337     6.20670E-03     6.92049E-03    -20.4343E+06    -83.3992E+06     150.324E+03    -4.70771E+06    -15.8843E-03     31.1286E-03    -15.2443E-03     12.2928E-03    -15.8669E-03     30.7421E-03    -15.0930E-03     12.2262E-03
            2338     5.32032E-03     6.91746E-03    -21.8717E+06    -87.0429E+06    -5.64861E+06    -4.53465E+06    -15.3985E-03     30.5354E-03    -15.1369E-03     11.1427E-03    -15.3742E-03     30.1408E-03    -15.0072E-03     11.0799E-03
            2339     4.43370E-03     6.91498E-03    -24.0197E+06    -91.4189E+06    -12.5074E+06    -4.54348E+06    -15.1136E-03     30.1830E-03    -15.0694E-03     9.73353E-03    -15.0835E-03     29.7792E-03    -14.9645E-03     9.67184E-03
            2340     3.54688E-03     6.91292E-03    -25.7020E+06    -95.4124E+06    -19.2702E+06    -4.44483E+06    -14.9960E-03     30.0266E-03    -15.0306E-03     8.03501E-03    -14.9585E-03     29.6149E-03    -14.9514E-03     7.97546E-03
            2341     2.66012E-03     6.91146E-03    -26.9154E+06    -97.8573E+06    -23.6152E+06    -3.54374E+06    -14.9732E-03     29.9897E-03    -15.0165E-03     6.16735E-03    -14.9319E-03     29.5737E-03    -14.9536E-03     6.12010E-03
            2342     1.77336E-03     6.91035E-03    -27.6935E+06    -99.4358E+06    -26.2202E+06    -2.18288E+06    -14.9838E-03     29.9994E-03    -15.0156E-03     4.21531E-03    -14.9402E-03     29.5804E-03    -14.9624E-03     4.18617E-03
            2343     886.638E-06     6.90970E-03    -27.9781E+06    -98.6794E+06    -27.6771E+06    -821.639E+03    -15.0036E-03     30.0238E-03    -15.0202E-03     2.30490E-03    -14.9604E-03     29.6111E-03    -14.9749E-03     2.29377E-03
            2344     16.6929E-03     6.09350E-03    -3.70143E+06     95.9492E+06     62.1821E+06     127.690E+03    -48.5100E-03     72.8410E-03    -24.3310E-03     17.4159E-03    -48.8073E-03     73.2856E-03    -24.1538E-03     17.2133E-03
            2345     15.8342E-03     6.06920E-03    -7.28406E+06     92.5025E+06     50.5962E+06     2.37732E+06    -47.6837E-03     70.6426E-03    -22.9589E-03     25.9132E-03    -48.0009E-03     71.1160E-03    -22.8295E-03     25.7021E-03
            2346     14.9774E-03     6.03695E-03    -11.0614E+06     85.3530E+06     35.4655E+06     4.71880E+06    -44.2087E-03     65.7581E-03    -21.5494E-03     26.8191E-03    -44.5029E-03     66.2139E-03    -21.4798E-03     26.6779E-03
            2347     14.1138E-03     6.01073E-03    -14.8264E+06     52.4897E+06     16.5813E+06     6.09968E+06    -38.5606E-03     58.8348E-03    -20.2742E-03     21.7475E-03    -38.7769E-03     59.1375E-03    -20.2460E-03     21.6851E-03
            2348     13.2460E-03     5.99436E-03    -17.8986E+06     10.8501E+06     7.53177E+06     4.35955E+06    -32.9511E-03     52.2185E-03    -19.2673E-03     18.2666E-03    -33.0925E-03     52.3136E-03    -19.2195E-03     18.2321E-03
            2349     12.3730E-03     5.98158E-03    -19.3983E+06    -11.6164E+06     11.7550E+06     650.165E+03    -28.3184E-03     46.8310E-03    -18.5127E-03     18.3873E-03    -28.4317E-03     46.8006E-03    -18.4089E-03     18.3382E-03
            2350     11.4964E-03     5.97151E-03    -19.7098E+06    -32.9457E+06     10.6128E+06    -2.37116E+06    -24.6555E-03     42.5755E-03    -17.9200E-03     18.5587E-03    -24.7325E-03     42.4352E-03    -17.7906E-03     18.4898E-03
            2351     10.6168E-03     5.96400E-03    -19.2031E+06    -48.9042E+06     11.5423E+06    -4.17599E+06    -21.8473E-03     39.3414E-03    -17.4941E-03     18.7295E-03    -21.8964E-03     39.1155E-03    -17.3376E-03     18.6495E-03
            2352     9.73493E-03     5.95794E-03    -18.4300E+06    -59.3501E+06     13.2372E+06    -4.93836E+06    -19.8167E-03     37.0169E-03    -17.2001E-03     18.7810E-03    -19.8470E-03     36.7327E-03    -17.0212E-03     18.6990E-03
            2353     8.85152E-03     5.95295E-03    -18.3365E+06    -69.1089E+06     12.5799E+06    -6.31650E+06    -18.4249E-03     35.4265E-03    -17.0017E-03     18.4432E-03    -18.4380E-03     35.0927E-03    -16.8120E-03     18.3487E-03
            2354     7.96714E-03     5.94873E-03    -18.4421E+06    -75.9628E+06     10.2526E+06    -7.66723E+06    -17.5265E-03     34.3981E-03    -16.8716E-03     17.6321E-03    -17.5258E-03     34.0324E-03    -16.6834E-03     17.5237E-03
            2355     7.08217E-03     5.94512E-03    -18.6907E+06    -80.9464E+06     4.74609E+06    -7.89680E+06    -16.9650E-03     33.7478E-03    -16.7828E-03     16.4236E-03    -16.9495E-03     33.3647E-03    -16.6146E-03     16.3149E-03
            2356     6.19680E-03     5.94189E-03    -19.4038E+06    -85.3574E+06    -1.88461E+06    -6.87430E+06    -16.6693E-03     33.4004E-03    -16.7311E-03     14.8163E-03    -16.6409E-03     33.0054E-03    -16.5887E-03     14.7226E-03
            2357     5.31143E-03     5.93916E-03    -20.1013E+06    -88.8245E+06    -7.10625E+06    -5.45495E+06    -16.5533E-03     33.2655E-03    -16.7122E-03     12.9360E-03    -16.5154E-03     32.8613E-03    -16.5898E-03     12.8618E-03
            2358     4.42600E-03     5.93677E-03    -21.3988E+06    -92.7407E+06    -13.0504E+06    -4.47943E+06    -16.5282E-03     33.2357E-03    -16.7075E-03     10.9351E-03    -16.4823E-03     32.8222E-03    -16.6073E-03     10.8745E-03
            2359     3.54067E-03     5.93476E-03    -23.4881E+06    -97.2744E+06    -19.6590E+06    -3.77953E+06    -16.5641E-03     33.2749E-03    -16.7108E-03     8.81810E-03    -16.5124E-03     32.8512E-03    -16.6340E-03     8.76729E-03
            2360     2.65537E-03     5.93314E-03    -25.3884E+06    -100.321E+06    -23.7256E+06    -2.97851E+06    -16.6349E-03     33.3602E-03    -16.7254E-03     6.64732E-03    -16.5822E-03     32.9298E-03    -16.6617E-03     6.60743E-03
            2361     1.77022E-03     5.93201E-03    -26.8665E+06    -102.096E+06    -25.5629E+06    -1.87409E+06    -16.7030E-03     33.4439E-03    -16.7410E-03     4.48507E-03    -16.6524E-03     33.0094E-03    -16.6818E-03     4.45994E-03
            2362     885.117E-06     5.93126E-03    -28.0568E+06    -100.454E+06    -27.4281E+06    -758.298E+03    -16.7244E-03     33.4718E-03    -16.7474E-03     2.43129E-03    -16.6793E-03     33.0499E-03    -16.6982E-03     2.42099E-03
            2363     16.6918E-03     5.07317E-03    -4.67528E+06     94.4833E+06     62.1568E+06     924.015E+03    -49.5053E-03     73.7991E-03    -24.2938E-03     18.2907E-03    -49.8049E-03     74.2375E-03    -24.1133E-03     18.0954E-03
            2364     15.8378E-03     5.04855E-03    -9.50063E+06     89.8146E+06     50.5766E+06     2.25196E+06    -47.1534E-03     70.0650E-03    -22.9116E-03     25.2743E-03    -47.4721E-03     70.5228E-03    -22.7752E-03     25.0756E-03
            2365     14.9772E-03     5.02511E-03    -13.0341E+06     80.7547E+06     36.4300E+06     6.67139E+06    -41.2929E-03     62.8997E-03    -21.6068E-03     25.8063E-03    -41.5828E-03     63.3253E-03    -21.5228E-03     25.7205E-03
            2366     14.1116E-03     5.00664E-03    -17.8047E+06     54.1595E+06     19.9086E+06     8.76129E+06    -34.4080E-03     54.9629E-03    -20.5549E-03     22.8601E-03    -34.6398E-03     55.2668E-03    -20.5080E-03     22.8621E-03
            2367     13.2393E-03     4.99751E-03    -20.5526E+06     17.7704E+06     12.1268E+06     3.68228E+06    -29.0334E-03     48.8588E-03    -19.8253E-03     22.1832E-03    -29.2020E-03     48.9828E-03    -19.7606E-03     22.1598E-03
            2368     12.3631E-03     4.98935E-03    -20.6345E+06    -7.99623E+06     15.5254E+06    -2.10380E+06    -25.2000E-03     44.5513E-03    -19.3513E-03     23.6173E-03    -25.3289E-03     44.5339E-03    -19.2321E-03     23.5443E-03
            2369     11.4838E-03     4.98354E-03    -20.1439E+06    -30.3178E+06     13.6411E+06    -5.49318E+06    -22.4526E-03     41.4683E-03    -19.0156E-03     24.1381E-03    -22.5390E-03     41.3362E-03    -18.8743E-03     24.0362E-03
            2370     10.6023E-03     4.97845E-03    -19.7532E+06    -48.3434E+06     13.0390E+06    -7.93445E+06    -20.6607E-03     39.4704E-03    -18.8097E-03     24.0215E-03    -20.7149E-03     39.2450E-03    -18.6457E-03     23.8977E-03
            2371     9.71972E-03     4.97427E-03    -18.7079E+06    -59.0964E+06     13.7640E+06    -9.45879E+06    -19.5475E-03     38.2373E-03    -18.6898E-03     23.2461E-03    -19.5797E-03     37.9533E-03    -18.5082E-03     23.1089E-03
            2372     8.83638E-03     4.97031E-03    -16.7532E+06    -68.7601E+06     11.8206E+06    -10.5538E+06    -18.9123E-03     37.5275E-03    -18.6152E-03     21.8959E-03    -18.9164E-03     37.1936E-03    -18.4321E-03     21.7487E-03
            2373     7.95274E-03     4.96668E-03    -15.8399E+06    -77.1851E+06     8.06398E+06    -10.6789E+06    -18.5885E-03     37.1588E-03    -18.5703E-03     20.0445E-03    -18.5695E-03     36.7859E-03    -18.3951E-03     19.8986E-03
            2374     7.06898E-03     4.96339E-03    -16.7027E+06    -83.3690E+06     2.29728E+06    -9.60019E+06    -18.4367E-03     36.9744E-03    -18.5378E-03     17.9074E-03    -18.4040E-03     36.5795E-03    -18.3812E-03     17.7774E-03
            2375     6.18528E-03     4.96031E-03    -17.8439E+06    -88.2082E+06    -4.53707E+06    -8.26654E+06    -18.3711E-03     36.8835E-03    -18.5124E-03     15.6565E-03    -18.3268E-03     36.4755E-03    -18.3813E-03     15.5452E-03
            2376     5.30151E-03     4.95752E-03    -18.8395E+06    -92.0405E+06    -9.95187E+06    -6.42568E+06    -18.3746E-03     36.8745E-03    -18.5000E-03     13.3253E-03    -18.3216E-03     36.4564E-03    -18.3889E-03     13.2389E-03
            2377     4.41788E-03     4.95512E-03    -20.1972E+06    -95.4944E+06    -14.5189E+06    -3.92150E+06    -18.4030E-03     36.8967E-03    -18.4937E-03     11.0082E-03    -18.3450E-03     36.4698E-03    -18.3985E-03     10.9549E-03
            2378     3.53423E-03     4.95304E-03    -22.1399E+06    -98.9870E+06    -19.3152E+06    -2.18117E+06    -18.4263E-03     36.9136E-03    -18.4873E-03     8.73892E-03    -18.3658E-03     36.4788E-03    -18.4082E-03     8.70880E-03
            2379     2.65065E-03     4.95137E-03    -24.2845E+06    -101.989E+06     -23.226E+06    -1.45167E+06    -18.4482E-03     36.9330E-03    -18.4848E-03     6.51984E-03    -18.3883E-03     36.4919E-03    -18.4178E-03     6.49969E-03
            2380     1.76705E-03     4.95011E-03    -26.1227E+06    -103.892E+06    -25.3467E+06    -874.268E+03    -18.4702E-03     36.9572E-03    -18.4871E-03     4.37504E-03    -18.4135E-03     36.5123E-03    -18.4253E-03     4.36284E-03
            2381     883.538E-06     4.94938E-03    -27.3663E+06    -101.656E+06    -26.9171E+06    -354.215E+03    -18.4725E-03     36.9579E-03    -18.4854E-03     2.36299E-03    -18.4230E-03     36.5283E-03    -18.4329E-03     2.35792E-03
            2382     16.6931E-03     4.04885E-03    -3.66712E+06     93.4324E+06     62.4300E+06     2.17186E+06    -48.2964E-03     72.7579E-03    -24.4615E-03     19.7347E-03    -48.5875E-03     73.1872E-03    -24.2795E-03     19.5726E-03
            2383     15.8336E-03     4.03248E-03    -9.10207E+06     86.3635E+06     50.7176E+06     4.97992E+06    -43.1738E-03     66.4084E-03    -23.2346E-03     26.8273E-03    -43.4781E-03     66.8409E-03    -23.0930E-03     26.7044E-03
            2384     14.9703E-03     4.01590E-03    -15.7569E+06     74.4618E+06     36.0550E+06     9.09230E+06    -35.9671E-03     58.1881E-03    -22.2210E-03     28.0639E-03    -36.2516E-03     58.5776E-03    -22.1259E-03     28.0517E-03
            2385     14.0985E-03     4.00842E-03    -18.7549E+06     58.8916E+06     22.0692E+06     9.06359E+06    -29.5533E-03     51.0612E-03    -21.5079E-03     28.1301E-03    -29.7938E-03     51.3809E-03    -21.4557E-03     28.1658E-03
            2386     13.2221E-03     4.00296E-03    -19.5005E+06     27.3537E+06     13.7054E+06     1.64257E+06    -25.7212E-03     46.8101E-03    -21.0889E-03     29.0326E-03    -25.8975E-03     46.9749E-03    -21.0318E-03     29.0002E-03
            2387     12.3433E-03     3.99927E-03    -19.7534E+06    -4.72681E+06     14.3128E+06    -5.26229E+06    -23.4883E-03     44.3583E-03    -20.8700E-03     29.6987E-03    -23.6134E-03     44.3551E-03    -20.7630E-03     29.5948E-03
            2388     11.4627E-03     3.99519E-03    -19.5486E+06    -27.8653E+06     10.2364E+06    -8.83097E+06    -22.1402E-03     42.8525E-03    -20.7123E-03     29.0127E-03    -22.2205E-03     42.7346E-03    -20.5923E-03     28.8739E-03
            2389     10.5817E-03     3.99176E-03    -18.2521E+06    -47.2464E+06     7.13544E+06    -11.9075E+06    -21.4304E-03     42.0432E-03    -20.6128E-03     27.3937E-03    -21.4688E-03     41.8280E-03    -20.4821E-03     27.2223E-03
            2390     9.70013E-03     3.98799E-03    -16.5565E+06    -59.0668E+06     6.38746E+06    -13.9254E+06    -21.0558E-03     41.6024E-03    -20.5467E-03     25.2166E-03    -21.0657E-03     41.3250E-03    -20.4051E-03     25.0240E-03
            2391     8.81865E-03     3.98454E-03    -15.7720E+06    -70.3346E+06     2.88944E+06    -14.3275E+06    -20.8629E-03     41.3472E-03    -20.4843E-03     22.7118E-03    -20.8463E-03     41.0161E-03    -20.3450E-03     22.5174E-03
            2392     7.93702E-03     3.98101E-03    -15.4670E+06    -80.3680E+06    -1.49532E+06    -12.9698E+06    -20.7482E-03     41.1726E-03    -20.4244E-03     20.0659E-03    -20.7084E-03     40.7965E-03    -20.2929E-03     19.8913E-03
            2393     7.05544E-03     3.97780E-03    -15.1842E+06    -86.9342E+06    -4.13005E+06    -10.8431E+06    -20.6548E-03     41.0268E-03    -20.3720E-03     17.4077E-03    -20.5998E-03     40.6209E-03    -20.2446E-03     17.2622E-03
            2394     6.17372E-03     3.97485E-03    -16.0768E+06    -91.8614E+06    -7.99464E+06    -8.34929E+06    -20.5554E-03     40.8712E-03    -20.3158E-03     14.8920E-03    -20.4918E-03     40.4473E-03    -20.1992E-03     14.7801E-03
            2395     5.29197E-03     3.97211E-03    -18.2575E+06    -96.0431E+06    -13.0174E+06    -5.63713E+06    -20.4549E-03     40.7131E-03    -20.2582E-03     12.4687E-03    -20.3886E-03     40.2784E-03    -20.1575E-03     12.3927E-03
            2396     4.41010E-03     3.96972E-03    -20.3562E+06    -98.9877E+06    -16.4334E+06    -3.14526E+06    -20.3658E-03     40.5758E-03    -20.2100E-03     10.1635E-03    -20.3006E-03     40.1343E-03    -20.1191E-03     10.1204E-03
            2397     3.52823E-03     3.96772E-03    -21.7112E+06    -100.912E+06    -18.9132E+06    -1.05841E+06    -20.2787E-03     40.4460E-03    -20.1673E-03     7.98617E-03    -20.2138E-03     40.0004E-03    -20.0841E-03     7.97069E-03
            2398     2.64624E-03     3.96609E-03    -23.0464E+06    -102.817E+06    -21.7486E+06     147.373E+03    -20.1955E-03     40.3242E-03    -20.1286E-03     5.91916E-03    -20.1303E-03     39.8750E-03    -20.0549E-03     5.91977E-03
            2399     1.76421E-03     3.96491E-03    -24.5693E+06    -104.288E+06    -23.9964E+06     400.006E+03    -20.1278E-03     40.2291E-03    -20.1014E-03     3.94355E-03    -20.0647E-03     39.7781E-03    -20.0345E-03     3.94788E-03
            2400     882.073E-06     3.96414E-03    -25.8928E+06    -101.742E+06    -25.7630E+06     305.505E+03    -20.0797E-03     40.1654E-03    -20.0857E-03     2.12498E-03    -20.0243E-03     39.7316E-03    -20.0294E-03     2.12848E-03
            2401     16.6835E-03     3.03196E-03    -4.33331E+06     89.5024E+06     59.8874E+06     3.62254E+06    -42.8569E-03     67.9182E-03    -25.0613E-03     24.4022E-03    -43.1386E-03     68.3297E-03    -24.8853E-03     24.2993E-03
            2402     15.8203E-03     3.01884E-03    -9.10023E+06     81.8864E+06     51.2650E+06     8.09924E+06    -36.3900E-03     60.6021E-03    -24.2121E-03     32.4495E-03    -36.6797E-03     61.0029E-03    -24.0613E-03     32.4205E-03
            2403     14.9490E-03     3.01523E-03    -12.0586E+06     73.3791E+06     39.8992E+06     9.34800E+06    -30.3967E-03     54.0066E-03    -23.6099E-03     34.1918E-03    -30.6568E-03     54.3696E-03    -23.4993E-03     34.2231E-03
            2404     14.0726E-03     3.01176E-03    -12.6105E+06     64.4846E+06     23.2942E+06     6.16277E+06    -26.7441E-03     49.9473E-03    -23.2032E-03     34.9433E-03    -26.9572E-03     50.2771E-03    -23.1620E-03     34.9640E-03
            2405     13.1948E-03     3.00992E-03    -12.5961E+06     35.8603E+06     9.87316E+06     137.670E+03    -25.2764E-03     48.2418E-03    -22.9655E-03     34.1001E-03    -25.4201E-03     48.4393E-03    -22.9498E-03     34.0609E-03
            2406     12.3160E-03     3.00696E-03    -13.9926E+06    -928.281E+03     5.78060E+06    -6.22773E+06    -24.6328E-03     47.4708E-03    -22.8380E-03     32.2714E-03    -24.7189E-03     47.4867E-03    -22.7874E-03     32.1624E-03
            2407     11.4377E-03     3.00413E-03    -14.7786E+06    -25.0974E+06    -1.22755E+06    -11.0553E+06    -24.2909E-03     46.9865E-03    -22.6956E-03     29.6151E-03    -24.3325E-03     46.8895E-03    -22.6439E-03     29.4520E-03
            2408     10.5589E-03     3.00076E-03    -14.2140E+06    -45.5446E+06    -8.68372E+06    -14.9353E+06    -24.0903E-03     46.6389E-03    -22.5486E-03     26.6344E-03    -24.0865E-03     46.4476E-03    -22.5054E-03     26.4268E-03
            2409     9.68039E-03     2.99749E-03    -13.5288E+06    -60.8398E+06    -10.0836E+06    -16.1193E+06    -23.8836E-03     46.3072E-03    -22.4236E-03     23.5388E-03    -23.8509E-03     46.0392E-03    -22.3662E-03     23.3198E-03
            2410     8.80143E-03     2.99416E-03    -13.9113E+06    -73.3082E+06    -11.3726E+06    -14.8400E+06    -23.6316E-03     45.9278E-03    -22.2963E-03     20.5341E-03    -23.5800E-03     45.5992E-03    -22.2267E-03     20.3343E-03
            2411     7.92244E-03     2.99101E-03    -14.9957E+06    -84.1431E+06    -14.2394E+06    -13.5023E+06    -23.3487E-03     45.5109E-03    -22.1622E-03     17.7351E-03    -23.2822E-03     45.1333E-03    -22.0896E-03     17.5546E-03
            2412     7.04302E-03     2.98808E-03    -16.1584E+06    -91.8214E+06    -14.7762E+06    -10.9768E+06    -23.0422E-03     45.0829E-03    -22.0407E-03     15.1178E-03    -22.9692E-03     44.6691E-03    -21.9580E-03     14.9714E-03
            2413     6.16344E-03     2.98537E-03    -17.4140E+06    -96.6899E+06    -14.6128E+06    -7.39770E+06    -22.7417E-03     44.6679E-03    -21.9261E-03     12.7248E-03    -22.6680E-03     44.2311E-03    -21.8337E-03     12.6257E-03
            2414     5.28356E-03     2.98299E-03    -18.7276E+06    -99.9765E+06    -15.6626E+06    -4.25743E+06    -22.4453E-03     44.2578E-03    -21.8126E-03     10.5245E-03    -22.3716E-03     43.8080E-03    -21.7188E-03     10.4668E-03
            2415     4.40344E-03     2.98085E-03    -20.0756E+06    -101.760E+06    -17.9468E+06    -2.06653E+06    -22.1622E-03     43.8656E-03    -21.7035E-03     8.50137E-03    -22.0892E-03     43.4120E-03    -21.6165E-03     8.47261E-03
            2416     3.52305E-03     2.97907E-03    -21.3666E+06    -102.948E+06    -19.5704E+06    -518.733E+03    -21.9167E-03     43.5285E-03    -21.6117E-03     6.63312E-03    -21.8461E-03     43.0731E-03    -21.5293E-03     6.62489E-03
            2417     2.64249E-03     2.97767E-03    -22.1306E+06    -103.480E+06    -20.7531E+06     792.580E+03    -21.7161E-03     43.2526E-03    -21.5365E-03     4.88728E-03    -21.6468E-03     42.7974E-03    -21.4581E-03     4.89643E-03
            2418     1.76174E-03     2.97662E-03    -22.8025E+06    -103.573E+06    -21.7128E+06     1.26338E+06    -21.5649E-03     43.0426E-03    -21.4777E-03     3.24727E-03    -21.4973E-03     42.5892E-03    -21.4030E-03     3.26289E-03
            2419     880.955E-06     2.97600E-03    -23.6544E+06    -100.604E+06    -22.9771E+06     726.068E+03    -21.4474E-03     42.8850E-03    -21.4376E-03     1.75160E-03    -21.3865E-03     42.4497E-03    -21.3723E-03     1.76060E-03
            2420     16.6633E-03     2.01804E-03    -3.73574E+06     85.7737E+06     58.6282E+06     4.91803E+06    -34.6859E-03     61.0431E-03    -26.3572E-03     32.2347E-03    -34.9516E-03     61.4314E-03    -26.1831E-03     32.1954E-03
            2421     15.7903E-03     2.01578E-03    -6.59185E+06     79.5238E+06     53.4843E+06     6.85987E+06    -31.0082E-03     56.9599E-03    -25.9516E-03     39.0945E-03    -31.2726E-03     57.3286E-03    -25.7899E-03     39.0927E-03
            2422     14.9145E-03     2.01529E-03    -6.12546E+06     76.0409E+06     42.9300E+06     5.59778E+06    -29.0067E-03     54.6340E-03    -25.6273E-03     37.6647E-03    -29.2332E-03     54.9838E-03    -25.5140E-03     37.6748E-03
            2423     14.0393E-03     2.01433E-03    -5.15693E+06     67.9300E+06     20.3084E+06     3.49714E+06    -28.4093E-03     53.7067E-03    -25.2973E-03     35.1228E-03    -28.5771E-03     54.0377E-03    -25.2868E-03     35.1246E-03
            2424     13.1639E-03     2.01219E-03    -5.47671E+06     41.0813E+06    -2.69011E+06     335.480E+03    -28.2861E-03     53.2820E-03    -24.9958E-03     31.3829E-03    -28.3776E-03     53.5070E-03    -25.0609E-03     31.3565E-03
            2425     12.2895E-03     2.01005E-03    -5.96279E+06     4.89294E+06    -13.7397E+06    -5.51372E+06    -28.1468E-03     52.9008E-03    -24.7540E-03     27.8024E-03    -28.1690E-03     52.9585E-03    -24.8212E-03     27.7093E-03
            2426     11.4143E-03     2.00734E-03    -6.29579E+06    -22.3365E+06    -20.3135E+06    -10.8623E+06    -27.8666E-03     52.3754E-03    -24.5088E-03     24.3816E-03    -27.8395E-03     52.3051E-03    -24.5688E-03     24.2257E-03
            2427     10.5392E-03     2.00467E-03    -7.62616E+06    -44.3793E+06    -27.0328E+06    -13.4280E+06    -27.4625E-03     51.7121E-03    -24.2497E-03     21.1925E-03    -27.3992E-03     51.5422E-03    -24.3094E-03     21.0077E-03
            2428     9.66336E-03     2.00185E-03    -10.0678E+06    -63.5662E+06    -28.2195E+06    -14.0847E+06    -26.9412E-03     50.9565E-03    -24.0153E-03     18.2679E-03    -26.8598E-03     50.6952E-03    -24.0496E-03     18.0776E-03
            2429     8.78730E-03     1.99928E-03    -11.6752E+06    -76.7522E+06    -26.4707E+06    -13.0652E+06    -26.3476E-03     50.1400E-03    -23.7924E-03     15.6373E-03    -26.2572E-03     49.8122E-03    -23.7965E-03     15.4624E-03
            2430     7.91043E-03     1.99678E-03    -13.1149E+06    -87.9939E+06    -24.7067E+06    -10.9638E+06    -25.7399E-03     49.3190E-03    -23.5791E-03     13.2870E-03    -25.6427E-03     48.9343E-03    -23.5561E-03     13.1408E-03
            2431     7.03320E-03     1.99454E-03    -15.5582E+06    -96.8310E+06    -21.2538E+06    -8.39629E+06    -25.1478E-03     48.5360E-03    -23.3881E-03     11.1805E-03    -25.0548E-03     48.1054E-03    -23.3314E-03     11.0686E-03
            2432     6.15531E-03     1.99247E-03    -17.8635E+06    -101.173E+06    -19.5779E+06    -5.74026E+06    -24.5854E-03     47.7850E-03    -23.1996E-03     9.31182E-03    -24.4999E-03     47.3336E-03    -23.1249E-03     9.23504E-03
            2433     5.27702E-03     1.99060E-03    -19.3244E+06    -103.562E+06    -18.8113E+06    -3.24688E+06    -24.0674E-03     47.0905E-03    -23.0232E-03     7.63422E-03    -23.9867E-03     46.6281E-03    -22.9390E-03     7.59027E-03
            2434     4.39825E-03     1.98904E-03    -20.3219E+06    -103.955E+06    -19.2024E+06    -1.16458E+06    -23.6013E-03     46.4622E-03    -22.8609E-03     6.12737E-03    -23.5244E-03     45.9998E-03    -22.7768E-03     6.11082E-03
            2435     3.51909E-03     1.98771E-03    -21.0623E+06    -104.182E+06    -20.0483E+06     34.6229E+03    -23.2039E-03     45.9261E-03    -22.7222E-03     4.75632E-03    -23.1291E-03     45.4648E-03    -22.6409E-03     4.75567E-03
            2436     2.63961E-03     1.98664E-03    -21.6653E+06    -104.236E+06    -20.4121E+06     758.514E+03    -22.8903E-03     45.5029E-03    -22.6127E-03     3.49045E-03    -22.8179E-03     45.0427E-03    -22.5322E-03     3.49947E-03
            2437     1.75990E-03     1.98589E-03    -21.9601E+06    -102.453E+06    -20.8115E+06     1.15887E+06    -22.6578E-03     45.1839E-03    -22.5261E-03     2.31467E-03    -22.5889E-03     44.7336E-03    -22.4498E-03     2.32914E-03
            2438     879.970E-06     1.98538E-03    -22.0256E+06    -99.1335E+06    -21.5563E+06     473.599E+03    -22.4890E-03     44.9628E-03    -22.4738E-03     1.24575E-03    -22.4240E-03     44.5304E-03    -22.4059E-03     1.25159E-03
            2439     16.6256E-03     1.01447E-03    -1.50388E+06     83.9637E+06     60.0163E+06     3.83674E+06    -32.7727E-03     60.9685E-03    -28.1958E-03     35.0516E-03    -33.0139E-03     61.3276E-03    -28.0153E-03     35.0327E-03
            2440     15.7515E-03     1.01126E-03    -1.41542E+06     81.6447E+06     56.5276E+06     3.58794E+06    -32.6819E-03     60.5741E-03    -27.8922E-03     31.8020E-03    -32.9073E-03     60.9197E-03    -27.7259E-03     31.7958E-03
            2441     14.8810E-03     1.01130E-03    -1.66197E+06     78.1517E+06     40.8261E+06     1.76405E+06    -32.6267E-03     60.1327E-03    -27.5059E-03     26.0335E-03    -32.8165E-03     60.4749E-03    -27.4127E-03     26.0219E-03
            2442     14.0108E-03     1.00953E-03    -1.27928E+06     67.9383E+06     12.1098E+06     1.69660E+06    -32.6003E-03     59.6336E-03    -27.0333E-03     22.2739E-03    -32.7279E-03     59.9621E-03    -27.0694E-03     22.2710E-03
            2443     13.1410E-03     1.00852E-03    -182.772E+03     44.9807E+06    -17.3849E+06     495.748E+03    -32.2873E-03     58.8354E-03    -26.5480E-03     18.8931E-03    -32.3312E-03     59.0883E-03    -26.6999E-03     18.8819E-03
            2444     12.2695E-03     1.00693E-03     559.651E+03     10.7383E+06    -34.9868E+06    -3.84090E+06    -31.7538E-03     57.8786E-03    -26.1249E-03     16.2077E-03    -31.7176E-03     57.9838E-03    -26.3162E-03     16.1458E-03
            2445     11.3981E-03     1.00535E-03    -423.431E+03    -20.8475E+06    -41.3381E+06    -6.93737E+06    -31.0228E-03     56.7758E-03    -25.7530E-03     13.8338E-03    -30.9358E-03     56.7331E-03    -25.9289E-03     13.7355E-03
            2446     10.5254E-03     1.00368E-03    -3.13825E+06    -44.7587E+06    -44.1502E+06    -7.49652E+06    -30.1508E-03     55.5477E-03    -25.3969E-03     11.7774E-03    -30.0383E-03     55.3931E-03    -25.5482E-03     11.6742E-03
            2447     9.65218E-03     1.00214E-03    -6.25764E+06    -64.3961E+06    -42.9325E+06    -8.04754E+06    -29.2267E-03     54.2969E-03    -25.0702E-03     10.0056E-03    -29.1028E-03     54.0466E-03    -25.1824E-03     9.89708E-03
            2448     8.77775E-03     1.00065E-03    -9.73499E+06    -79.6192E+06    -37.3470E+06    -8.14266E+06    -28.2996E-03     53.0793E-03    -24.7797E-03     8.46937E-03    -28.1790E-03     52.7497E-03    -24.8369E-03     8.36083E-03
            2449     7.90274E-03     999.314E-06    -12.9308E+06    -92.0390E+06    -30.9387E+06    -6.37730E+06    -27.4128E-03     51.9253E-03    -24.5125E-03     7.12742E-03    -27.2993E-03     51.5288E-03    -24.5150E-03     7.04256E-03
            2450     7.02675E-03     998.038E-06    -15.4892E+06    -100.038E+06    -25.5836E+06    -4.36258E+06    -26.5796E-03     50.8385E-03    -24.2589E-03     5.95227E-03    -26.4750E-03     50.3979E-03    -24.2193E-03     5.89405E-03
            2451     6.15017E-03     996.911E-06    -17.8147E+06    -104.174E+06    -22.8239E+06    -2.95981E+06    -25.8131E-03     49.8281E-03    -24.0150E-03     4.92689E-03    -25.7181E-03     49.3662E-03    -23.9522E-03     4.88725E-03
            2452     5.27285E-03     995.936E-06    -19.7557E+06    -106.037E+06    -21.5163E+06    -1.61265E+06    -25.1243E-03     48.9151E-03    -23.7908E-03     4.02061E-03    -25.0382E-03     48.4448E-03    -23.7160E-03     3.99873E-03
            2453     4.39496E-03     995.068E-06    -20.8245E+06    -105.543E+06    -20.6014E+06    -605.660E+03    -24.5290E-03     48.1212E-03    -23.5922E-03     3.21190E-03    -24.4502E-03     47.6536E-03    -23.5120E-03     3.20328E-03
            2454     3.51661E-03     994.373E-06    -21.1570E+06    -104.885E+06    -20.1067E+06     149.374E+03    -24.0304E-03     47.4542E-03    -23.4238E-03     2.48553E-03    -23.9550E-03     46.9896E-03    -23.3416E-03     2.48688E-03
            2455     2.63781E-03     993.811E-06    -21.3688E+06    -104.551E+06    -19.9374E+06     648.291E+03    -23.6340E-03     46.9227E-03    -23.2887E-03     1.82177E-03    -23.5604E-03     46.4599E-03    -23.2058E-03     1.82974E-03
            2456     1.75872E-03     993.374E-06    -21.5083E+06    -101.474E+06    -20.6929E+06     554.331E+03    -23.3387E-03     46.5195E-03    -23.1808E-03     1.20245E-03    -23.2691E-03     46.0733E-03    -23.1060E-03     1.20936E-03
            2457     879.446E-06     993.157E-06    -21.2667E+06    -98.2910E+06    -21.3954E+06     100.565E+03    -23.1466E-03     46.2641E-03    -23.1175E-03     632.987E-06    -23.0792E-03     45.8346E-03    -23.0512E-03     634.181E-06


