********************************************************************************
Field Output Report, written Tue May 28 18:17:54 2024

Source 1
---------

   ODB: G:/Abaqus_calc_2019/1740/Vel_20/odb/zeides_2a_16_red_1000_cal_50_vel_20_fric_025.odb
   Step: Step-1
   Frame: Increment   4606759: Step Time =   0.5549

Loc 1 : Nodal values from source 1

Output sorted by column "Nodal Label".

Field Output reported at nodes for region: DIE_2A_16_D0_36-1.Region_1
   Computation algorithm: EXTRAPOLATE_COMPUTE_AVERAGE
   Averaged at nodes
   Averaging regions: ODB_REGIONS

      Node Label     COORD.COOR1     COORD.COOR2
                          @Loc 1          @Loc 1
-------------------------------------------------
               1     18.4546E-03     136.184E-03


Field Output reported at nodes for region: DIE_2A_16_D0_36-1.Region_2
   Computation algorithm: EXTRAPOLATE_COMPUTE_AVERAGE
   Averaged at nodes
   Averaging regions: ODB_REGIONS

      Node Label     COORD.COOR1     COORD.COOR2
                          @Loc 1          @Loc 1
-------------------------------------------------
               1     18.4546E-03     136.184E-03


Field Output reported at nodes for part: WIRE-1
   Computation algorithm: EXTRAPOLATE_COMPUTE_AVERAGE
   Averaged at nodes
   Averaging regions: ODB_REGIONS

      Node Label     COORD.COOR1     COORD.COOR2           S.S11           S.S22           S.S33           S.S12         PE.PE11         PE.PE22         PE.PE33         PE.PE12         LE.LE11         LE.LE22         LE.LE33         LE.LE12
                          @Loc 1          @Loc 1          @Loc 1          @Loc 1          @Loc 1          @Loc 1          @Loc 1          @Loc 1          @Loc 1          @Loc 1          @Loc 1          @Loc 1          @Loc 1          @Loc 1
-------------------------------------------------------------------------------------------------------------------------------------------------------------------------------------------------------------------------------------------------
               1     631.592E-09     67.0801E-03    -121.346E+06    -260.399E+06    -121.722E+06     343.166E+03    -106.847E-03     213.020E-03    -106.172E-03     9.14857E-03    -106.903E-03     212.074E-03    -106.227E-03     8.97933E-03
               2     16.1897E-03     68.4853E-03    -4.10745E+06     119.422E+06     95.0825E+06     415.547E+03    -105.669E-03     212.004E-03    -106.336E-03     1.81517E-03    -106.149E-03     212.618E-03    -106.027E-03    -161.611E-06
               3     16.2046E-03     137.083E-03    -18.5283E+06     9.38068E+06     26.9676E+06    -9.54158E+06    -94.0767E-03     199.276E-03    -105.199E-03     1.78675E-03    -94.2123E-03     199.325E-03    -105.051E-03     1.46145E-03
               4    -3.19214E-06     134.347E-03     60.9016E+06    -5.06785E+06     57.1068E+06    -2.32408E+06    -104.098E-03     210.141E-03    -106.043E-03    -8.82604E-03    -103.901E-03     209.911E-03    -105.838E-03    -8.90801E-03
               5     521.693E-09     541.234E-18    -76.2579E+06    -215.397E+06    -75.5467E+06     1.90089E+06    -113.250E-03     226.268E-03    -113.017E-03     1.26044E-03    -113.209E-03     225.411E-03    -112.972E-03     1.27347E-03
               6     16.0089E-03     541.234E-18     1.56841E+06     112.290E+06     97.7051E+06     2.68186E+06    -137.237E-03     251.005E-03    -113.768E-03     105.065E-03    -138.057E-03     251.928E-03    -113.444E-03     102.607E-03
               7     809.057E-06     67.0898E-03    -119.165E+06    -262.898E+06    -115.566E+06     629.093E+03    -106.658E-03     213.000E-03    -106.342E-03     14.6377E-03    -106.716E-03     212.037E-03    -106.366E-03     14.3565E-03
               8     1.61818E-03     67.1123E-03    -114.030E+06    -260.416E+06    -102.197E+06     554.755E+03    -106.523E-03     213.035E-03    -106.512E-03     26.1742E-03    -106.601E-03     212.080E-03    -106.480E-03     25.6414E-03
               9     2.42744E-03     67.1479E-03    -107.657E+06    -243.278E+06    -88.0343E+06    -79.0752E+03    -106.642E-03     213.148E-03    -106.506E-03     38.2306E-03    -106.773E-03     212.288E-03    -106.437E-03     37.4102E-03
              10     3.23661E-03     67.1971E-03    -100.727E+06    -223.764E+06    -71.1375E+06     93.4777E+03    -106.800E-03     213.316E-03    -106.515E-03     49.7225E-03    -107.006E-03     212.576E-03    -106.401E-03     48.6058E-03
              11     4.04587E-03     67.2581E-03    -93.0592E+06    -209.466E+06    -52.5013E+06     80.5260E+03    -107.014E-03     213.557E-03    -106.543E-03     60.3500E-03    -107.306E-03     212.928E-03    -106.367E-03     58.9131E-03
              12     4.85534E-03     67.3305E-03    -84.8160E+06    -192.673E+06    -36.7289E+06    -135.375E+03    -107.268E-03     213.826E-03    -106.558E-03     70.1061E-03    -107.662E-03     213.342E-03    -106.340E-03     68.3278E-03
              13     5.66452E-03     67.4129E-03    -77.0568E+06    -171.647E+06    -24.0111E+06     184.713E+03    -107.493E-03     214.051E-03    -106.558E-03     78.7838E-03    -108.015E-03     213.759E-03    -106.317E-03     76.6564E-03
              14     6.47392E-03     67.5043E-03    -69.7371E+06    -149.019E+06    -12.9819E+06     379.776E+03    -107.646E-03     214.193E-03    -106.548E-03     86.2567E-03    -108.314E-03     214.122E-03    -106.295E-03     83.7748E-03
              15     7.28325E-03     67.6029E-03    -62.8896E+06    -124.424E+06    -2.58926E+06     284.520E+03    -107.750E-03     214.281E-03    -106.531E-03     92.3889E-03    -108.582E-03     214.456E-03    -106.272E-03     89.5546E-03
              16     8.09279E-03     67.7074E-03    -56.3276E+06    -100.210E+06     7.53015E+06     56.8167E+03    -107.780E-03     214.295E-03    -106.514E-03     96.9857E-03    -108.782E-03     214.718E-03    -106.250E-03     93.8197E-03
              17     8.90231E-03     67.8155E-03    -49.9977E+06    -71.3826E+06     17.6968E+06     133.546E+03    -107.683E-03     214.174E-03    -106.490E-03     99.6613E-03    -108.850E-03     214.858E-03    -106.226E-03     96.2186E-03
              18     9.71198E-03     67.9254E-03    -44.0176E+06    -44.2391E+06     27.8997E+06     242.985E+03    -107.504E-03     213.972E-03    -106.468E-03     99.9187E-03    -108.805E-03     214.879E-03    -106.201E-03     96.2681E-03
              19     10.5213E-03     68.0340E-03    -38.3784E+06    -12.5979E+06     37.2886E+06     178.477E+03    -107.235E-03     213.673E-03    -106.437E-03     97.4157E-03    -108.626E-03     214.774E-03    -106.177E-03     93.6437E-03
              20     11.3310E-03     68.1377E-03    -32.5184E+06     16.6601E+06     46.8308E+06     41.1024E+03    -106.947E-03     213.362E-03    -106.414E-03     91.8441E-03    -108.362E-03     214.584E-03    -106.157E-03     88.0318E-03
              21     12.1406E-03     68.2342E-03    -27.1179E+06     58.6563E+06     53.4691E+06     140.971E+03    -106.457E-03     212.818E-03    -106.361E-03     83.5128E-03    -107.851E-03     214.169E-03    -106.140E-03     79.7451E-03
              22     12.9494E-03     68.3186E-03    -21.9569E+06     102.699E+06     65.5177E+06     227.398E+03    -105.645E-03     211.966E-03    -106.321E-03     72.8398E-03    -106.982E-03     213.400E-03    -106.110E-03     69.1805E-03
              23     13.7611E-03     68.3896E-03    -15.8779E+06     114.328E+06     75.8154E+06     369.262E+03    -105.126E-03     211.431E-03    -106.305E-03     58.3703E-03    -106.296E-03     212.731E-03    -106.069E-03     54.8882E-03
              24     14.5709E-03     68.4425E-03    -10.1949E+06     120.041E+06     87.4996E+06    -22.6438E+03    -105.184E-03     211.499E-03    -106.315E-03     44.7997E-03    -106.218E-03     212.669E-03    -106.037E-03     41.4120E-03
              25     15.3786E-03     68.4843E-03    -5.85285E+06     121.299E+06     97.3449E+06    -104.383E+03    -105.496E-03     211.843E-03    -106.346E-03     20.7784E-03    -106.243E-03     212.717E-03    -106.027E-03     18.0842E-03
              26     16.1884E-03     69.6573E-03    -2.75211E+06     119.480E+06     95.5504E+06     236.406E+03    -105.063E-03     211.412E-03    -106.349E-03     1.56022E-03    -105.536E-03     212.022E-03    -106.041E-03    -409.131E-06
              27     16.1902E-03     70.8281E-03    -1.35373E+06     120.704E+06     96.9846E+06    -74.1672E+03    -104.690E-03     211.034E-03    -106.345E-03     1.08636E-03    -105.159E-03     211.646E-03    -106.033E-03    -885.633E-06
              28     16.1890E-03     72.0007E-03    -3.09665E+06     120.664E+06     96.1995E+06    -472.984E+03    -105.369E-03     211.701E-03    -106.332E-03     1.90277E-03    -105.848E-03     212.318E-03    -106.021E-03    -85.3213E-06
              29     16.1893E-03     73.1756E-03    -2.17087E+06     120.401E+06     96.1021E+06     106.571E+03    -105.419E-03     211.748E-03    -106.329E-03     2.23448E-03    -105.894E-03     212.364E-03    -106.020E-03     252.972E-06
              30     16.1900E-03     74.3448E-03    -2.54959E+06     120.041E+06     95.7468E+06    -641.961E+03    -105.414E-03     211.745E-03    -106.332E-03     1.34353E-03    -105.887E-03     212.359E-03    -106.023E-03    -651.015E-06
              31     16.1881E-03     75.5202E-03    -3.09823E+06     119.622E+06     95.3572E+06     656.335E+03    -105.393E-03     211.735E-03    -106.342E-03     1.71048E-03    -105.869E-03     212.348E-03    -106.034E-03    -260.141E-06
              32     16.1906E-03     76.6920E-03    -2.06576E+06     120.506E+06     96.5528E+06     316.977E+03    -104.951E-03     211.301E-03    -106.350E-03     2.65147E-03    -105.428E-03     211.918E-03    -106.039E-03     682.314E-06
              33     16.1878E-03     77.8636E-03    -2.23491E+06     120.252E+06     96.3318E+06     75.0654E+03    -104.923E-03     211.268E-03    -106.345E-03     2.05214E-03    -105.397E-03     211.882E-03    -106.035E-03     81.6441E-06
              34     16.1911E-03     79.0358E-03    -2.31962E+06     120.430E+06     96.2979E+06     32.7833E+03    -105.148E-03     211.485E-03    -106.337E-03     2.02294E-03    -105.623E-03     212.099E-03    -106.027E-03     49.9851E-06
              35     16.1875E-03     80.2081E-03    -2.96518E+06     120.861E+06     96.3792E+06     93.8981E+03    -105.504E-03     211.842E-03    -106.338E-03     1.22316E-03    -105.981E-03     212.458E-03    -106.027E-03    -759.876E-06
              36     16.1909E-03     81.3807E-03    -2.61993E+06     121.330E+06     96.5858E+06     153.026E+03    -105.203E-03     211.546E-03    -106.343E-03     1.50862E-03    -105.680E-03     212.164E-03    -106.032E-03    -466.772E-06
              37     16.1878E-03     82.5535E-03    -2.41049E+06     121.909E+06     96.8847E+06     224.805E+03    -105.157E-03     211.502E-03    -106.346E-03     2.07614E-03    -105.635E-03     212.124E-03    -106.035E-03     106.459E-06
              38     16.1905E-03     83.7265E-03    -1.36622E+06     122.630E+06     97.7400E+06     375.092E+03    -104.570E-03     210.916E-03    -106.346E-03     2.39788E-03    -105.047E-03     211.540E-03    -106.033E-03     433.279E-06
              39     16.1892E-03     84.8958E-03    -2.65428E+06     122.570E+06     97.2686E+06    -842.577E+03    -105.200E-03     211.537E-03    -106.337E-03     1.70751E-03    -105.681E-03     212.162E-03    -106.025E-03    -284.710E-06
              40     16.1885E-03     86.0709E-03    -3.20849E+06     122.201E+06     96.6021E+06     885.503E+03    -105.538E-03     211.875E-03    -106.338E-03     1.47269E-03    -106.018E-03     212.497E-03    -106.027E-03    -492.347E-06
              41     16.1905E-03     87.2420E-03    -2.60835E+06     122.831E+06     96.9309E+06     -4.3685E+03    -105.143E-03     211.484E-03    -106.341E-03     1.65586E-03    -105.623E-03     212.109E-03    -106.031E-03    -317.633E-06
              42     16.1877E-03     88.4148E-03    -2.69461E+06     123.126E+06     97.0204E+06     111.683E+03    -104.984E-03     211.332E-03    -106.348E-03     1.11942E-03    -105.463E-03     211.957E-03    -106.037E-03    -851.629E-06
              43     16.1912E-03     89.5868E-03    -2.14617E+06     123.448E+06     97.3888E+06    -189.929E+03    -104.775E-03     211.122E-03    -106.347E-03     2.28415E-03    -105.256E-03     211.751E-03    -106.036E-03     313.269E-06
              44     16.1875E-03     90.7591E-03    -2.52269E+06     123.724E+06     97.4031E+06     180.982E+03    -105.395E-03     211.738E-03    -106.344E-03     1.58188E-03    -105.876E-03     212.368E-03    -106.032E-03    -396.738E-06
              45     16.1906E-03     91.9315E-03    -1.70686E+06     124.392E+06     98.2928E+06     393.951E+03    -104.787E-03     211.130E-03    -106.342E-03     1.78164E-03    -105.267E-03     211.760E-03    -106.029E-03    -182.745E-06
              46     16.1893E-03     93.1025E-03    -2.77999E+06     123.889E+06     97.4035E+06    -835.495E+03    -105.253E-03     211.585E-03    -106.333E-03     1.56176E-03    -105.735E-03     212.216E-03    -106.021E-03    -426.008E-06
              47     16.1885E-03     94.2777E-03    -2.90020E+06     124.153E+06     97.1744E+06     1.07525E+06    -105.144E-03     211.492E-03    -106.349E-03     1.70210E-03    -105.628E-03     212.125E-03    -106.038E-03    -258.428E-06
              48     16.1905E-03     95.4470E-03    -2.80736E+06     124.879E+06     97.6922E+06      68.333E+03    -104.743E-03     211.097E-03    -106.354E-03     1.99019E-03    -105.229E-03     211.733E-03    -106.043E-03     24.9071E-06
              49     16.1876E-03     96.6206E-03    -2.82227E+06     125.238E+06     97.8327E+06     132.764E+03    -105.013E-03     211.367E-03    -106.353E-03     1.19011E-03    -105.497E-03     212.001E-03    -106.041E-03    -778.545E-06
              50     16.1910E-03     97.7917E-03    -2.18396E+06     125.885E+06     98.4194E+06    -143.133E+03    -104.765E-03     211.117E-03    -106.352E-03     1.75357E-03    -105.249E-03     211.755E-03    -106.039E-03    -215.613E-06
              51     16.1877E-03     98.9642E-03    -2.86953E+06     125.921E+06     98.2109E+06     31.3571E+03    -105.159E-03     211.509E-03    -106.350E-03     1.29888E-03    -105.646E-03     212.148E-03    -106.037E-03    -677.794E-06
              52     16.1905E-03     100.137E-03    -1.76666E+06     126.722E+06     98.7670E+06     397.894E+03    -104.500E-03     210.856E-03    -106.356E-03     1.92344E-03    -104.984E-03     211.497E-03    -106.043E-03    -34.4448E-06
              53     16.1889E-03     101.308E-03    -2.38072E+06     126.534E+06     98.2897E+06    -243.894E+03    -104.538E-03     210.902E-03    -106.363E-03     1.69340E-03    -105.024E-03     211.543E-03    -106.052E-03    -267.893E-06
              54     16.1886E-03     102.481E-03    -3.02657E+06     126.732E+06     98.3798E+06     703.249E+03    -104.350E-03     210.723E-03    -106.373E-03     1.42908E-03    -104.839E-03     211.367E-03    -106.061E-03    -525.860E-06
              55     16.1905E-03     103.649E-03    -2.65541E+06     126.892E+06     98.7236E+06    -909.436E+03    -104.406E-03     210.768E-03    -106.362E-03     968.123E-06    -104.893E-03     211.410E-03    -106.048E-03    -1.00793E-03
              56     16.1877E-03     104.824E-03    -2.73606E+06     126.998E+06     98.8369E+06     309.336E+03    -104.360E-03     210.733E-03    -106.373E-03     473.372E-06    -104.846E-03     211.373E-03    -106.059E-03    -1.47810E-03
              57     16.1908E-03     105.993E-03    -2.35062E+06     127.748E+06     99.3758E+06     318.112E+03    -103.314E-03     209.704E-03    -106.390E-03     1.69998E-03    -103.804E-03     210.351E-03    -106.075E-03    -239.245E-06
              58     16.1881E-03     107.163E-03    -2.58399E+06     128.346E+06     99.9773E+06     65.3034E+03    -103.448E-03     209.830E-03    -106.382E-03     1.25615E-03    -103.939E-03     210.478E-03    -106.064E-03    -686.111E-06
              59     16.1909E-03     108.334E-03    -1.48607E+06     129.336E+06     101.433E+06     426.609E+03    -102.831E-03     209.205E-03    -106.374E-03     1.40214E-03    -103.319E-03     209.853E-03    -106.053E-03    -519.524E-06
              60     16.1897E-03     109.502E-03    -3.11719E+06     128.873E+06     100.872E+06    -564.728E+03    -102.799E-03     209.167E-03    -106.368E-03     813.997E-06    -103.293E-03     209.815E-03    -106.046E-03    -1.12195E-03
              61     16.1897E-03     110.673E-03    -3.49116E+06     128.226E+06     101.117E+06     619.799E+03    -102.408E-03     208.766E-03    -106.357E-03     987.363E-06    -102.903E-03     209.410E-03    -106.033E-03    -923.187E-06
              62     16.1924E-03     111.840E-03    -2.53052E+06     127.681E+06     102.789E+06    -697.927E+03    -101.884E-03     208.202E-03    -106.318E-03     1.76184E-03    -102.377E-03     208.840E-03    -105.985E-03    -151.404E-06
              63     16.1909E-03     113.011E-03    -2.40400E+06     125.886E+06     104.013E+06    -220.737E+03    -101.917E-03     208.179E-03    -106.262E-03     1.90596E-03    -102.408E-03     208.807E-03    -105.921E-03     89.7562E-09
              64     16.1952E-03     114.178E-03    -2.43796E+06     124.531E+06     105.389E+06    -620.861E+03    -102.132E-03     208.297E-03    -106.165E-03     3.32233E-03    -102.627E-03     208.920E-03    -105.815E-03     1.40756E-03
              65     16.1944E-03     115.347E-03    -3.28205E+06     122.643E+06     105.399E+06    -891.777E+03    -103.893E-03     209.920E-03    -106.027E-03     3.44028E-03    -104.389E-03     210.534E-03    -105.673E-03     1.49569E-03
              66     16.1978E-03     116.520E-03    -2.58944E+06     120.203E+06     104.828E+06    -2.83781E+03    -105.122E-03     210.995E-03    -105.873E-03     5.06139E-03    -105.615E-03     211.602E-03    -105.520E-03     3.10654E-03
              67     16.1994E-03     117.691E-03    -1.93006E+06     118.360E+06     105.889E+06    -1.12552E+06    -107.682E-03     213.372E-03    -105.690E-03     6.45267E-03    -108.176E-03     213.972E-03    -105.329E-03     4.43265E-03
              68     16.2007E-03     118.871E-03    -4.85268E+06     114.076E+06     102.425E+06    -1.24118E+06    -111.550E-03     217.048E-03    -105.498E-03     7.27791E-03    -112.052E-03     217.640E-03    -105.144E-03     5.17159E-03
              69     16.2020E-03     120.051E-03    -1.41909E+06     108.154E+06     96.6108E+06    -2.69924E+06    -115.869E-03     221.169E-03    -105.300E-03     10.1374E-03    -116.345E-03     221.744E-03    -104.972E-03     7.93788E-03
              70     16.2022E-03     121.240E-03    -2.01424E+06     102.498E+06     92.9939E+06    -940.518E+03    -120.912E-03     226.041E-03    -105.130E-03     11.8755E-03    -121.382E-03     226.600E-03    -104.811E-03     9.61515E-03
              71     16.2026E-03     122.434E-03    -2.91069E+06     98.2319E+06     93.1674E+06    -1.51342E+06    -125.653E-03     230.653E-03    -105.000E-03     14.3101E-03    -126.132E-03     231.201E-03    -104.672E-03     11.9404E-03
              72     16.2028E-03     123.632E-03    -2.87357E+06     93.0023E+06     93.3501E+06    -3.28015E+06    -130.783E-03     235.649E-03    -104.866E-03     16.6631E-03    -131.263E-03     236.179E-03    -104.530E-03     14.1632E-03
              73     16.2030E-03     124.839E-03     -796.96E+03     85.8635E+06     93.0232E+06    -1.29446E+06    -135.732E-03     240.466E-03    -104.733E-03     18.9155E-03    -136.203E-03     240.969E-03    -104.392E-03     16.3163E-03
              74     16.2034E-03     126.048E-03    -4.03531E+06     76.7197E+06     91.3725E+06    -3.26243E+06    -140.854E-03     245.448E-03    -104.594E-03     21.6728E-03    -141.337E-03     245.924E-03    -104.243E-03     18.9245E-03
              75     16.2038E-03     127.266E-03    -986.912E+03     65.8069E+06     91.0890E+06    -2.82930E+06    -145.877E-03     250.321E-03    -104.445E-03     23.8029E-03    -146.336E-03     250.747E-03    -104.083E-03     20.9509E-03
              76     16.2049E-03     128.488E-03    -2.12055E+06     57.5093E+06     91.6451E+06    -2.81007E+06    -150.836E-03     255.130E-03    -104.294E-03     26.2023E-03    -151.300E-03     255.526E-03    -103.917E-03     23.2364E-03
              77     16.2052E-03     129.716E-03    -2.13622E+06     48.2815E+06     93.1477E+06    -2.74717E+06    -156.047E-03     260.177E-03    -104.130E-03     27.7406E-03    -156.502E-03     260.527E-03    -103.731E-03     24.6943E-03
              78     16.2073E-03     130.951E-03    -2.22535E+06     37.9499E+06     96.9769E+06    -3.48122E+06    -160.764E-03     264.740E-03    -103.976E-03     31.4215E-03    -161.212E-03     265.035E-03    -103.543E-03     28.3633E-03
              79     16.2076E-03     132.194E-03     752.914E+03     30.2613E+06     100.099E+06    -376.038E+03    -163.837E-03     267.669E-03    -103.832E-03     33.7828E-03    -164.253E-03     267.906E-03    -103.377E-03     30.8725E-03
              80     16.2108E-03     133.431E-03    -2.08663E+06     30.0756E+06     99.5961E+06      81.812E+03    -164.505E-03     268.224E-03    -103.719E-03     34.8084E-03    -164.893E-03     268.424E-03    -103.262E-03     32.2842E-03
              81     16.2104E-03     134.679E-03    -328.598E+03     27.7670E+06     91.7713E+06    -970.575E+03    -160.432E-03     264.135E-03    -103.703E-03     33.9497E-03    -160.734E-03     264.270E-03    -103.284E-03     32.0798E-03
              82     16.2129E-03     135.903E-03      2.6522E+06     15.9085E+06     57.6785E+06    -2.71368E+06    -125.289E-03     229.750E-03    -104.461E-03     16.5025E-03    -125.424E-03     229.795E-03    -104.200E-03     15.6271E-03
              83     15.3467E-03     136.996E-03    -13.8266E+06    -7.15725E+06     41.1323E+06    -4.45813E+06    -84.9739E-03     190.638E-03    -105.665E-03    -5.94369E-03    -85.0739E-03     190.591E-03    -105.428E-03    -6.34934E-03
              84     14.4814E-03     136.850E-03    -1.82593E+06     1.95474E+06     77.7227E+06     18.3619E+03    -72.1793E-03     178.886E-03    -106.706E-03    -24.1885E-03    -72.2779E-03     178.810E-03    -106.318E-03    -24.6924E-03
              85     13.6464E-03     136.659E-03     5.90509E+06     5.80611E+06     94.9001E+06    -3.85120E+06    -64.4737E-03     172.333E-03    -107.859E-03    -37.5906E-03    -64.5626E-03     172.223E-03    -107.401E-03    -38.1375E-03
              86     12.8094E-03     136.457E-03     11.4639E+06    -5.59389E+06     99.3304E+06    -5.76140E+06    -59.4883E-03     168.600E-03    -109.111E-03    -44.9717E-03    -59.5381E-03     168.408E-03    -108.623E-03    -45.5207E-03
              87     11.9821E-03     136.246E-03     17.5366E+06    -1.21589E+06     109.319E+06    -2.56181E+06    -60.8140E-03     171.178E-03    -110.363E-03    -53.3097E-03    -60.8492E-03     170.971E-03    -109.841E-03    -53.8342E-03
              88     11.1589E-03     136.035E-03     19.8682E+06    -1.34820E+06     111.759E+06    -777.751E+03    -66.0755E-03     177.373E-03    -111.298E-03    -62.2344E-03    -66.0949E-03     177.143E-03    -110.766E-03    -62.7767E-03
              89     10.3485E-03     135.821E-03     22.8044E+06     985.354E+03     112.412E+06    -918.796E+03    -71.8943E-03     183.698E-03    -111.803E-03    -70.7024E-03    -71.8997E-03     183.453E-03    -111.276E-03    -71.2870E-03
              90     9.54406E-03     135.618E-03     25.8477E+06    -1.23739E+06     110.757E+06    -975.172E+03    -78.1813E-03     190.081E-03    -111.899E-03    -76.7164E-03    -78.1613E-03     189.807E-03    -111.381E-03    -77.3398E-03
              91     8.74604E-03     135.422E-03     28.7221E+06    -1.83989E+06     109.118E+06    -1.12249E+06    -83.9122E-03     195.542E-03    -111.630E-03    -80.2334E-03    -83.8753E-03     195.253E-03    -111.123E-03    -80.8672E-03
              92     7.95159E-03     135.239E-03     31.0501E+06    -575.087E+03     106.621E+06    -718.414E+03    -88.5452E-03     199.634E-03    -111.089E-03    -80.6887E-03    -88.5013E-03     199.347E-03    -110.600E-03    -81.2983E-03
              93     7.15920E-03     135.073E-03     33.3855E+06    -140.356E+03     102.180E+06    -1.18466E+06    -92.9178E-03     203.276E-03    -110.358E-03    -78.4707E-03    -92.8649E-03     202.994E-03    -109.895E-03    -79.0574E-03
              94     6.36794E-03     134.922E-03     36.4680E+06    -553.863E+03     98.4818E+06    -1.72373E+06    -96.3124E-03     205.822E-03    -109.510E-03    -73.9963E-03    -96.2477E-03     205.545E-03    -109.070E-03    -74.5420E-03
              95     5.57538E-03     134.789E-03     39.4199E+06    -32.2261E+03     93.7580E+06    -2.03692E+06    -98.8578E-03     207.468E-03    -108.610E-03    -67.9592E-03    -98.7832E-03     207.203E-03    -108.199E-03    -68.4508E-03
              96     4.78250E-03     134.673E-03     42.7058E+06    -961.875E+03     87.1435E+06    -2.98351E+06    -100.858E-03     208.564E-03    -107.707E-03    -60.5349E-03    -100.767E-03     208.307E-03    -107.332E-03    -60.9797E-03
              97     3.98840E-03     134.575E-03     46.2517E+06    -518.101E+03     80.7346E+06    -3.11419E+06    -102.201E-03     209.059E-03    -106.858E-03    -51.8134E-03    -102.094E-03     208.816E-03    -106.521E-03    -52.1976E-03
              98     3.19274E-03     134.495E-03     49.5834E+06    -460.873E+03     74.1486E+06    -3.29049E+06    -103.077E-03     209.201E-03    -106.124E-03    -42.3133E-03    -102.952E-03     208.970E-03    -105.825E-03    -42.6320E-03
              99     2.39565E-03     134.432E-03     53.3375E+06    -1.07961E+06     68.2497E+06    -3.38403E+06    -103.491E-03     209.078E-03    -105.587E-03    -32.3293E-03    -103.346E-03     208.854E-03    -105.322E-03    -32.5832E-03
             100     1.59710E-03     134.387E-03     57.0930E+06    -1.20036E+06     63.3908E+06    -3.27229E+06    -104.009E-03     209.313E-03    -105.304E-03    -22.4185E-03    -103.843E-03     209.093E-03    -105.068E-03    -22.6087E-03
             101     798.582E-06     134.361E-03     59.9047E+06    -2.62853E+06     59.5890E+06    -2.78501E+06    -104.276E-03     209.913E-03    -105.636E-03    -13.2299E-03    -104.092E-03     209.691E-03    -105.422E-03    -13.3493E-03
             102     1.76881E-06     133.179E-03     42.4850E+06    -8.81230E+06     43.1944E+06    -2.61577E+06    -92.6862E-03     185.663E-03    -92.9763E-03    -4.54336E-03    -92.5479E-03     185.469E-03    -92.8092E-03    -4.63147E-03
             103    -536.758E-09     132.064E-03     5.89220E+06    -22.1324E+06     6.72085E+06    -3.94566E+06    -72.8704E-03     145.376E-03    -72.5056E-03     2.31605E-03    -72.8298E-03     145.237E-03    -72.4484E-03     2.21192E-03
             104     5.16088E-09     130.985E-03    -35.9516E+06    -41.0493E+06    -35.6897E+06    -5.58683E+06    -60.8204E-03     121.637E-03    -60.8167E-03     6.63566E-03    -60.8925E-03     121.534E-03    -60.8835E-03     6.52447E-03
             105     551.327E-09     129.925E-03    -83.2177E+06    -64.9195E+06    -82.4847E+06    -6.75352E+06    -56.2823E-03     111.700E-03    -55.4178E-03     9.22611E-03    -56.4854E-03     111.617E-03    -55.6154E-03     9.11561E-03
             106     336.739E-09     128.867E-03    -133.414E+06    -89.8392E+06    -133.155E+06    -6.18382E+06    -56.6939E-03     112.497E-03    -55.8032E-03     11.2055E-03    -57.0385E-03     112.435E-03    -56.1453E-03     11.1116E-03
             107     240.635E-09     127.803E-03    -185.066E+06    -113.090E+06    -181.377E+06    -6.78470E+06    -61.1476E-03     121.747E-03    -60.5991E-03     12.7207E-03    -61.6479E-03     121.711E-03    -61.0737E-03     12.6246E-03
             108     93.7815E-09     126.726E-03    -204.152E+06    -136.599E+06    -205.104E+06    -5.63966E+06    -68.7620E-03     136.998E-03    -68.2358E-03     13.0881E-03    -69.2906E-03     136.906E-03    -68.7672E-03     13.0057E-03
             109     394.332E-09     125.630E-03    -181.103E+06    -153.254E+06    -181.865E+06    -2.57499E+06    -77.8646E-03     155.259E-03    -77.3942E-03     12.7114E-03    -78.2882E-03     155.016E-03    -77.8187E-03     12.6565E-03
             110    -148.746E-09     124.511E-03    -143.198E+06    -160.106E+06    -144.043E+06    -738.741E+03    -86.6500E-03     172.912E-03    -86.2617E-03     11.7790E-03    -86.9287E-03     172.526E-03    -86.5422E-03     11.7248E-03
             111     494.321E-09     123.376E-03    -118.612E+06    -164.651E+06    -120.869E+06    -1.46140E+06    -94.0819E-03     188.036E-03    -93.9543E-03     11.3529E-03    -94.2645E-03     187.560E-03    -94.1479E-03     11.2580E-03
             112    -694.037E-09     122.223E-03    -110.704E+06    -172.314E+06    -109.044E+06    -2.10966E+06    -99.9339E-03     199.865E-03    -99.9308E-03     10.2945E-03    -100.082E-03     199.323E-03    -100.066E-03     10.1667E-03
             113     876.606E-09     121.060E-03    -104.032E+06    -182.926E+06    -105.856E+06    -2.77309E+06    -104.372E-03     208.083E-03    -103.711E-03     9.57573E-03    -104.475E-03     207.474E-03    -103.824E-03     9.42396E-03
             114    -45.9841E-09     119.889E-03    -102.898E+06    -193.650E+06    -104.252E+06    -2.28663E+06    -107.224E-03     213.849E-03    -106.625E-03     9.29911E-03    -107.309E-03     213.183E-03    -106.716E-03     9.12581E-03
             115     136.252E-09     118.713E-03    -105.934E+06    -204.019E+06    -104.977E+06    -2.36243E+06    -108.671E-03     217.302E-03    -108.631E-03     8.56972E-03    -108.755E-03     216.591E-03    -108.706E-03     8.36748E-03
             116    -182.189E-09     117.533E-03    -108.666E+06    -214.665E+06    -109.511E+06    -2.71498E+06    -109.374E-03     218.913E-03    -109.539E-03     8.75142E-03    -109.450E-03     218.159E-03    -109.618E-03     8.53659E-03
             117    -78.6117E-09     116.353E-03    -112.020E+06    -222.965E+06    -111.620E+06    -1.32558E+06    -109.772E-03     219.597E-03    -109.825E-03     8.52314E-03    -109.850E-03     218.810E-03    -109.897E-03     8.32467E-03
             118     227.428E-09     115.172E-03    -116.095E+06    -231.329E+06    -116.124E+06    -2.02045E+06    -109.687E-03     219.140E-03    -109.453E-03     8.41413E-03    -109.767E-03     218.323E-03    -109.530E-03     8.20342E-03
             119    -28.1234E-09     113.994E-03    -120.037E+06    -237.917E+06    -120.241E+06    -926.257E+03    -109.252E-03     218.204E-03    -108.952E-03     8.43607E-03    -109.336E-03     217.366E-03    -109.034E-03     8.24077E-03
             120     281.387E-09     112.816E-03    -121.991E+06    -241.815E+06    -121.530E+06    -987.708E+03    -108.928E-03     217.400E-03    -108.472E-03     8.26363E-03    -109.014E-03     216.548E-03    -108.552E-03     8.06687E-03
             121     178.894E-09     111.639E-03    -124.505E+06    -247.044E+06    -124.649E+06    -1.32580E+06    -108.430E-03     216.745E-03    -108.315E-03     8.69200E-03    -108.517E-03     215.875E-03    -108.399E-03     8.49335E-03
             122    -485.176E-09     110.462E-03    -126.913E+06    -251.285E+06    -126.771E+06    -481.670E+03    -108.069E-03     216.207E-03    -108.138E-03     8.70995E-03    -108.158E-03     215.322E-03    -108.224E-03     8.52422E-03
             123     649.344E-09     109.286E-03    -128.074E+06    -254.506E+06    -128.102E+06    -979.546E+03    -107.887E-03     215.410E-03    -107.523E-03     8.53230E-03    -107.976E-03     214.513E-03    -107.608E-03     8.34138E-03
             124    -254.134E-09     108.112E-03    -129.605E+06    -258.559E+06    -129.811E+06    -1.06336E+06    -107.554E-03     214.713E-03    -107.159E-03     8.53056E-03    -107.642E-03     213.800E-03    -107.245E-03     8.33948E-03
             125     465.657E-09     106.938E-03    -131.550E+06    -262.183E+06    -131.332E+06    -687.230E+03    -107.400E-03     214.417E-03    -107.017E-03     8.52406E-03    -107.490E-03     213.491E-03    -107.103E-03     8.33122E-03
             126    -86.5296E-09     105.764E-03    -131.604E+06    -263.499E+06    -131.945E+06     136.774E+03    -107.147E-03     214.038E-03    -106.892E-03     8.48297E-03    -107.235E-03     213.107E-03    -106.978E-03     8.30327E-03
             127     86.7842E-09     104.591E-03    -128.645E+06    -261.426E+06    -128.140E+06     380.181E+03    -106.933E-03     213.801E-03    -106.868E-03     8.53114E-03    -107.014E-03     212.870E-03    -106.943E-03     8.35741E-03
             128    -7.05658E-09     103.418E-03    -129.159E+06    -263.396E+06    -128.864E+06    -1.00148E+06    -106.920E-03     213.743E-03    -106.823E-03     8.81711E-03    -107.000E-03     212.804E-03    -106.898E-03     8.63050E-03
             129     54.1391E-09     102.244E-03    -127.992E+06    -268.901E+06    -128.459E+06    -704.747E+03    -106.830E-03     213.466E-03    -106.635E-03     8.90519E-03    -106.897E-03     212.497E-03    -106.702E-03     8.72452E-03
             130     175.970E-09     101.072E-03    -125.013E+06    -272.847E+06    -124.312E+06    -1.00464E+06    -106.790E-03     213.252E-03    -106.463E-03     9.01462E-03    -106.842E-03     212.253E-03    -106.507E-03     8.82307E-03
             131     96.7201E-09     99.8996E-03    -124.244E+06    -275.038E+06    -124.912E+06    -454.744E+03    -106.723E-03     213.212E-03    -106.488E-03     8.94776E-03    -106.768E-03     212.201E-03    -106.534E-03     8.76962E-03
             132    -30.4269E-09     98.7275E-03    -123.490E+06    -274.846E+06    -123.792E+06     745.004E+03    -106.752E-03     213.207E-03    -106.454E-03     8.50559E-03    -106.795E-03     212.195E-03    -106.496E-03     8.34395E-03
             133     412.851E-09     97.5556E-03    -123.518E+06    -274.834E+06    -123.041E+06    -186.069E+03    -106.841E-03     213.157E-03    -106.316E-03     8.22758E-03    -106.884E-03     212.144E-03    -106.354E-03     8.05045E-03
             134     30.4863E-09     96.3828E-03    -122.902E+06    -274.947E+06    -123.138E+06    -353.689E+03    -106.723E-03     213.117E-03    -106.394E-03     8.58763E-03    -106.763E-03     212.102E-03    -106.433E-03     8.40843E-03
             135     24.5330E-09     95.2103E-03    -122.567E+06    -274.874E+06    -122.640E+06     174.531E+03    -106.694E-03     213.236E-03    -106.543E-03     9.05119E-03    -106.733E-03     212.221E-03    -106.579E-03     8.87660E-03
             136     129.423E-09     94.0371E-03    -122.254E+06    -274.629E+06    -122.174E+06    -52.4714E+03    -106.564E-03     212.959E-03    -106.394E-03     9.10799E-03    -106.604E-03     211.944E-03    -106.430E-03     8.93320E-03
             137    -41.9222E-09     92.8660E-03    -121.795E+06    -274.207E+06    -121.682E+06    -81.4928E+03    -106.220E-03     212.618E-03    -106.397E-03     8.94466E-03    -106.259E-03     211.603E-03    -106.432E-03     8.76483E-03
             138    -364.344E-09     91.6953E-03    -121.793E+06    -273.796E+06    -120.839E+06     41.9216E+03    -106.370E-03     212.892E-03    -106.522E-03     8.30287E-03    -106.410E-03     211.878E-03    -106.552E-03     8.12167E-03
             139     506.981E-09     90.5219E-03    -120.385E+06    -273.389E+06    -121.356E+06     188.481E+03    -106.798E-03     213.100E-03    -106.302E-03     8.32956E-03    -106.831E-03     212.087E-03    -106.338E-03     8.15438E-03
             140     114.424E-09     89.3501E-03    -120.028E+06    -272.789E+06    -120.297E+06    -146.897E+03    -106.802E-03     213.119E-03    -106.316E-03     8.75146E-03    -106.836E-03     212.107E-03    -106.348E-03     8.57785E-03
             141     15.3121E-09     88.1774E-03    -120.125E+06    -272.518E+06    -120.021E+06     85.4177E+03    -106.649E-03     213.063E-03    -106.414E-03     8.38726E-03    -106.684E-03     212.052E-03    -106.445E-03     8.21588E-03
             142     207.312E-09     87.0060E-03    -120.625E+06    -273.030E+06    -120.522E+06     35.0151E+03    -106.531E-03     212.935E-03    -106.404E-03     8.42517E-03    -106.567E-03     211.923E-03    -106.436E-03     8.25118E-03
             143    -252.162E-09     85.8331E-03    -119.951E+06    -272.912E+06    -120.394E+06    -18.0275E+03    -106.592E-03     212.999E-03    -106.407E-03     8.75197E-03    -106.625E-03     211.987E-03    -106.440E-03     8.58034E-03
             144     559.004E-09     84.6606E-03    -120.023E+06    -272.367E+06    -120.171E+06     632.601E+03    -106.707E-03     213.014E-03    -106.307E-03     9.12386E-03    -106.741E-03     212.004E-03    -106.339E-03     8.95893E-03
             145    -255.426E-09     83.4885E-03    -119.309E+06    -271.196E+06    -119.063E+06     759.564E+03    -106.582E-03     212.891E-03    -106.309E-03     9.22182E-03    -106.616E-03     211.884E-03    -106.338E-03     9.06235E-03
             146     359.379E-09     82.3165E-03    -123.218E+06    -268.858E+06    -123.261E+06     564.472E+03    -106.532E-03     212.886E-03    -106.353E-03     9.10739E-03    -106.583E-03     211.902E-03    -106.401E-03     8.94208E-03
             147    -209.223E-09     81.1449E-03    -120.819E+06    -266.779E+06    -120.877E+06     142.466E+03    -106.500E-03     212.926E-03    -106.427E-03     8.79224E-03    -106.545E-03     211.946E-03    -106.469E-03     8.61514E-03
             148     144.560E-09     79.9727E-03    -119.477E+06    -265.369E+06    -119.498E+06     10.1766E+03    -106.488E-03     212.850E-03    -106.362E-03     8.44478E-03    -106.531E-03     211.873E-03    -106.401E-03     8.26440E-03
             149     94.8228E-09     78.8013E-03    -120.153E+06    -265.587E+06    -119.924E+06    -344.961E+03    -106.608E-03     212.842E-03    -106.234E-03     8.42115E-03    -106.653E-03     211.866E-03    -106.275E-03     8.24045E-03
             150     243.441E-09     77.6284E-03    -119.480E+06    -265.361E+06    -120.247E+06     365.236E+03    -106.654E-03     212.945E-03    -106.291E-03     8.89355E-03    -106.695E-03     211.969E-03    -106.334E-03     8.72464E-03
             151    -35.2930E-09     76.4560E-03    -120.284E+06    -265.832E+06    -119.557E+06    -128.237E+03    -106.526E-03     212.923E-03    -106.398E-03     9.13695E-03    -106.572E-03     211.945E-03    -106.435E-03     8.96418E-03
             152     6.78572E-09     75.2842E-03    -122.336E+06    -268.470E+06    -122.836E+06    -982.611E+03    -106.440E-03     212.592E-03    -106.152E-03     8.58255E-03    -106.487E-03     211.609E-03    -106.200E-03     8.39789E-03
             153     450.850E-09     74.1136E-03    -122.712E+06    -268.863E+06    -123.291E+06     610.376E+03    -106.572E-03     212.670E-03    -106.098E-03     8.49076E-03    -106.620E-03     211.686E-03    -106.147E-03     8.32084E-03
             154    -178.029E-09     72.9411E-03    -118.233E+06    -264.134E+06    -117.934E+06     1.60062E+06    -106.505E-03     212.985E-03    -106.480E-03     8.32984E-03    -106.545E-03     212.010E-03    -106.515E-03     8.17902E-03
             155    -80.4110E-09     71.7688E-03    -122.260E+06    -261.020E+06    -121.778E+06     75.1029E+03    -106.353E-03     212.854E-03    -106.500E-03     8.39372E-03    -106.413E-03     211.906E-03    -106.554E-03     8.22316E-03
             156     76.6477E-09     70.5966E-03    -122.428E+06    -261.224E+06    -122.062E+06    -2.83744E+03    -106.573E-03     212.852E-03    -106.279E-03     8.62014E-03    -106.633E-03     211.904E-03    -106.333E-03     8.44271E-03
             157     376.253E-09     69.4245E-03    -121.296E+06    -260.643E+06    -121.892E+06     37.7144E+03    -106.689E-03     212.920E-03    -106.231E-03     8.79543E-03    -106.744E-03     211.972E-03    -106.286E-03     8.62267E-03
             158    -126.471E-09     68.2520E-03    -121.532E+06    -260.644E+06    -121.689E+06    -51.7771E+03    -106.709E-03     212.930E-03    -106.221E-03     8.88878E-03    -106.766E-03     211.983E-03    -106.275E-03     8.71975E-03
             159    -83.9318E-09     65.9069E-03    -119.576E+06    -258.472E+06    -119.844E+06     295.432E+03    -106.585E-03     212.818E-03    -106.233E-03     9.20788E-03    -106.638E-03     211.877E-03    -106.284E-03     9.03359E-03
             160     68.1326E-09     64.7362E-03    -122.075E+06    -260.342E+06    -121.177E+06    -1.57861E+06    -106.371E-03     212.507E-03    -106.136E-03     8.55310E-03    -106.431E-03     211.561E-03    -106.187E-03     8.35581E-03
             161     306.975E-09     63.5653E-03    -120.325E+06    -266.634E+06    -121.992E+06    -1.10679E+06    -106.515E-03     212.643E-03    -106.129E-03     8.32906E-03    -106.556E-03     211.665E-03    -106.178E-03     8.14088E-03
             162    -103.180E-09     62.3922E-03    -120.915E+06    -266.210E+06    -120.554E+06     1.84043E+06    -106.323E-03     212.661E-03    -106.339E-03     8.74659E-03    -106.370E-03     211.684E-03    -106.380E-03     8.60176E-03
             163    -155.400E-09     61.2203E-03    -122.167E+06    -260.588E+06    -121.815E+06     951.928E+03    -106.317E-03     212.558E-03    -106.241E-03     8.94174E-03    -106.376E-03     211.612E-03    -106.295E-03     8.78967E-03
             164     506.332E-09     60.0494E-03    -119.491E+06    -258.240E+06    -119.789E+06     176.532E+03    -106.518E-03     212.797E-03    -106.279E-03     8.78027E-03    -106.570E-03     211.856E-03    -106.330E-03     8.60570E-03
             165    -506.552E-09     58.8770E-03    -121.118E+06    -259.320E+06    -120.248E+06    -749.066E+03    -106.399E-03     212.847E-03    -106.448E-03     8.47069E-03    -106.457E-03     211.904E-03    -106.498E-03     8.27956E-03
             166     406.529E-09     57.7049E-03    -122.302E+06    -261.451E+06    -123.303E+06    -588.245E+03    -106.360E-03     212.552E-03    -106.192E-03     8.43506E-03    -106.417E-03     211.605E-03    -106.252E-03     8.25488E-03
             167    -75.4235E-09     56.5335E-03    -121.642E+06    -260.280E+06    -121.642E+06     1.01347E+06    -106.362E-03     212.439E-03    -106.077E-03     8.63403E-03    -106.420E-03     211.494E-03    -106.132E-03     8.47390E-03
             168     174.356E-09     55.3619E-03    -120.700E+06    -258.742E+06    -119.844E+06     -13.466E+03    -106.351E-03     212.503E-03    -106.152E-03     8.62626E-03    -106.408E-03     211.561E-03    -106.201E-03     8.45191E-03
             169     26.3237E-09     54.1898E-03    -120.671E+06    -259.357E+06    -121.284E+06    -343.852E+03    -106.304E-03     212.420E-03    -106.116E-03     8.76610E-03    -106.359E-03     211.478E-03    -106.171E-03     8.58723E-03
             170     39.2073E-09     53.0187E-03    -120.869E+06    -259.404E+06    -120.534E+06     48.6361E+03    -106.269E-03     212.300E-03    -106.031E-03     8.55105E-03    -106.325E-03     211.357E-03    -106.083E-03     8.37897E-03
             171     252.624E-09     51.8474E-03    -122.849E+06    -261.468E+06    -122.134E+06    -495.425E+03    -106.225E-03     212.115E-03    -105.891E-03     8.42653E-03    -106.286E-03     211.167E-03    -105.944E-03     8.25302E-03
             172    -25.8550E-09     50.6762E-03    -121.146E+06    -260.701E+06    -122.397E+06     684.329E+03    -106.234E-03     212.161E-03    -105.927E-03     8.51364E-03    -106.288E-03     211.214E-03    -105.985E-03     8.35017E-03
             173     253.358E-09     49.5052E-03    -120.124E+06    -258.380E+06    -119.184E+06     161.796E+03    -106.364E-03     212.326E-03    -105.962E-03     8.47953E-03    -106.420E-03     211.385E-03    -106.009E-03     8.30755E-03
             174     150.232E-09     48.3326E-03    -119.645E+06    -258.724E+06    -120.471E+06    -581.658E+03    -106.213E-03     212.126E-03    -105.913E-03     8.91161E-03    -106.265E-03     211.185E-03    -105.967E-03     8.73508E-03
             175    -109.632E-09     47.1622E-03    -121.342E+06    -260.295E+06    -121.926E+06     346.174E+03    -105.998E-03     211.844E-03    -105.846E-03     8.79583E-03    -106.053E-03     210.898E-03    -105.902E-03     8.63060E-03
             176     276.752E-09     45.9916E-03    -121.031E+06    -259.454E+06    -120.669E+06     466.396E+03    -106.059E-03     211.693E-03    -105.634E-03     8.33381E-03    -106.116E-03     210.750E-03    -105.685E-03     8.16752E-03
             177     219.986E-09     44.8214E-03    -119.865E+06    -258.592E+06    -119.880E+06    -289.267E+03    -105.967E-03     211.741E-03    -105.775E-03     8.78174E-03    -106.020E-03     210.800E-03    -105.825E-03     8.60714E-03
             178    -438.383E-09     43.6490E-03    -119.966E+06    -258.721E+06    -119.964E+06     123.486E+03    -105.837E-03     211.422E-03    -105.585E-03     8.52900E-03    -105.891E-03     210.480E-03    -105.635E-03     8.36660E-03
             179     1.03513E-06     42.4805E-03    -120.493E+06    -259.050E+06    -120.323E+06    -362.108E+03    -105.789E-03     210.999E-03    -105.210E-03     8.48711E-03    -105.844E-03     210.057E-03    -105.262E-03     8.31095E-03
             180    -722.899E-09     41.3108E-03    -121.604E+06    -260.608E+06    -122.125E+06    -723.338E+03    -105.510E-03     211.221E-03    -105.711E-03     8.50179E-03    -105.566E-03     210.275E-03    -105.767E-03     8.31652E-03
             181     50.3554E-09     40.1393E-03    -121.865E+06    -260.601E+06    -121.350E+06     740.544E+03    -105.508E-03     211.191E-03    -105.683E-03     8.33551E-03    -105.566E-03     210.244E-03    -105.735E-03     8.18366E-03
             182     315.242E-09     38.9698E-03    -121.416E+06    -260.460E+06    -121.459E+06    -337.319E+03    -105.688E-03     210.753E-03    -105.065E-03     8.73084E-03    -105.744E-03     209.806E-03    -105.119E-03     8.56506E-03
             183     294.246E-09     37.8004E-03    -122.689E+06    -262.273E+06    -123.861E+06     319.839E+03    -105.499E-03     210.369E-03    -104.871E-03     8.54093E-03    -105.555E-03     209.419E-03    -104.932E-03     8.37725E-03
             184     70.9041E-09     36.6319E-03    -121.079E+06    -259.463E+06    -120.036E+06     887.736E+03    -105.123E-03     210.053E-03    -104.929E-03     8.53862E-03    -105.182E-03     209.109E-03    -104.978E-03     8.37998E-03
             185    -141.288E-09     35.4625E-03    -120.220E+06    -258.398E+06    -119.594E+06    -357.151E+03    -104.810E-03     209.628E-03    -104.819E-03     8.42552E-03    -104.865E-03     208.688E-03    -104.868E-03     8.25294E-03
             186     173.527E-09     34.2954E-03    -121.024E+06    -259.713E+06    -121.590E+06     296.805E+03    -104.595E-03     209.010E-03    -104.415E-03     8.07421E-03    -104.650E-03     208.067E-03    -104.471E-03     7.91699E-03
             187     52.1839E-09     33.1283E-03    -120.059E+06    -258.956E+06    -120.491E+06    -281.134E+03    -104.406E-03     208.532E-03    -104.125E-03     8.11969E-03    -104.459E-03     207.589E-03    -104.178E-03     7.95036E-03
             188     146.073E-09     31.9607E-03    -121.862E+06    -260.303E+06    -121.330E+06    -345.799E+03    -104.135E-03     207.950E-03    -103.814E-03     8.16226E-03    -104.194E-03     207.004E-03    -103.867E-03     7.99708E-03
             189     154.637E-09     30.7955E-03    -121.202E+06    -260.010E+06    -121.701E+06     67.0258E+03    -103.767E-03     207.267E-03    -103.500E-03     8.12758E-03    -103.822E-03     206.322E-03    -103.556E-03     7.96868E-03
             190    -56.2379E-09     29.6302E-03    -121.611E+06    -259.844E+06    -121.174E+06    -26.8517E+03    -103.464E-03     206.629E-03    -103.164E-03     7.84901E-03    -103.523E-03     205.685E-03    -103.217E-03     7.68786E-03
             191     424.436E-09     28.4657E-03    -121.393E+06    -260.033E+06    -122.022E+06    -295.803E+03    -103.026E-03     205.744E-03    -102.718E-03     7.78091E-03    -103.081E-03     204.800E-03    -102.775E-03     7.61994E-03
             192    -323.984E-09     27.3031E-03    -121.598E+06    -259.454E+06    -121.153E+06     139.503E+03    -102.502E-03     205.034E-03    -102.532E-03     7.64593E-03    -102.561E-03     204.092E-03    -102.585E-03     7.49195E-03
             193     155.851E-09     26.1404E-03    -123.164E+06    -260.617E+06    -122.506E+06    -444.054E+03    -102.395E-03     204.520E-03    -102.125E-03     7.15538E-03    -102.458E-03     203.576E-03    -102.181E-03     6.99620E-03
             194     438.394E-09     24.9785E-03    -120.190E+06    -265.003E+06    -120.757E+06    -1.16321E+06    -102.141E-03     203.772E-03    -101.630E-03     7.46488E-03    -102.185E-03     202.799E-03    -101.676E-03     7.29790E-03
             195    -231.391E-09     23.8169E-03    -116.525E+06    -266.781E+06    -116.733E+06     278.974E+03    -101.668E-03     202.975E-03    -101.307E-03     7.44110E-03    -101.696E-03     201.982E-03    -101.335E-03     7.29541E-03
             196     585.731E-09     22.6579E-03    -116.649E+06    -266.340E+06    -116.876E+06    -456.554E+03    -101.324E-03     202.123E-03    -100.798E-03     6.76092E-03    -101.354E-03     201.132E-03    -100.827E-03     6.60588E-03
             197    -105.154E-09     21.4993E-03    -116.079E+06    -266.696E+06    -116.833E+06    -730.966E+03    -100.704E-03     201.073E-03    -100.368E-03     6.74252E-03    -100.731E-03     200.080E-03    -100.397E-03     6.58902E-03
             198     145.670E-09     20.3402E-03    -117.879E+06    -267.171E+06    -118.047E+06     494.181E+03    -99.8565E-03     199.508E-03    -99.6517E-03     6.91598E-03    -99.8893E-03     198.517E-03    -99.6836E-03     6.79087E-03
             199     126.253E-09     19.1858E-03    -118.498E+06    -266.223E+06    -118.431E+06     883.093E+03    -98.4850E-03     197.021E-03    -98.5363E-03     6.41524E-03    -98.5216E-03     196.036E-03    -98.5706E-03     6.30118E-03
             200    -498.009E-09     18.0345E-03    -116.262E+06    -263.124E+06    -116.530E+06     1.15146E+06    -96.6985E-03     193.645E-03    -96.9461E-03     5.31696E-03    -96.7308E-03     192.668E-03    -96.9786E-03     5.21424E-03
             201     452.939E-09     16.8867E-03    -113.257E+06    -258.481E+06    -113.470E+06     1.14308E+06    -94.6181E-03     189.200E-03    -94.5822E-03     4.54618E-03    -94.6464E-03     188.238E-03    -94.6105E-03     4.45619E-03
             202    -356.658E-09     15.7459E-03    -110.923E+06    -253.905E+06    -110.890E+06     869.140E+03    -91.5102E-03     183.075E-03    -91.5651E-03     3.43116E-03    -91.5371E-03     182.128E-03    -91.5905E-03     3.35064E-03
             203     170.424E-09     14.6123E-03    -109.477E+06    -250.502E+06    -109.343E+06     648.849E+03    -87.5614E-03     175.224E-03    -87.6626E-03     2.33537E-03    -87.5881E-03     174.289E-03    -87.6874E-03     2.26751E-03
             204    -143.718E-09     13.4889E-03    -106.354E+06    -245.440E+06    -106.835E+06     1.50346E+06    -83.1544E-03     166.274E-03    -83.1200E-03     1.79147E-03    -83.1765E-03     165.356E-03    -83.1441E-03     1.74462E-03
             205     176.333E-09     12.3751E-03    -102.162E+06    -237.764E+06    -101.733E+06     1.89791E+06    -78.3177E-03     156.471E-03    -78.1531E-03     961.163E-06    -78.3375E-03     155.577E-03    -78.1689E-03     929.483E-06
             206     80.7379E-09     11.2742E-03    -98.0784E+06    -231.212E+06    -98.2059E+06     1.06256E+06    -73.4461E-03     146.664E-03    -73.2178E-03     603.896E-06    -73.4599E-03     145.792E-03    -73.2314E-03     566.047E-06
             207     51.3417E-09     10.1820E-03    -96.7364E+06    -227.521E+06    -95.8062E+06     928.326E+03    -69.6508E-03     139.043E-03    -69.3919E-03     942.543E-06    -69.6662E-03     138.185E-03    -69.4007E-03     904.376E-06
             208     265.466E-09     9.09744E-03    -95.4501E+06    -225.722E+06    -94.5681E+06     279.566E+03    -68.2053E-03     136.145E-03    -67.9394E-03     1.96305E-03    -68.2185E-03     135.292E-03    -67.9465E-03     1.91803E-03
             209    -125.244E-09     8.01248E-03    -94.2011E+06    -226.228E+06    -94.1190E+06    -370.004E+03    -70.1206E-03     140.169E-03    -70.0487E-03     3.49384E-03    -70.1283E-03     139.311E-03    -70.0547E-03     3.44014E-03
             210     109.030E-09     6.91813E-03    -93.1304E+06    -228.266E+06    -93.0018E+06    -407.720E+03    -75.1035E-03     150.637E-03    -75.5330E-03     4.90393E-03    -75.1055E-03     149.764E-03    -75.5320E-03     4.85012E-03
             211    -798.994E-09     5.80942E-03    -89.5134E+06    -229.391E+06    -90.1443E+06    -66.6735E+03    -82.4405E-03     165.469E-03    -83.0286E-03     5.53239E-03    -82.4280E-03     164.581E-03    -83.0169E-03     5.47971E-03
             212     518.947E-09     4.68308E-03    -85.6534E+06    -229.925E+06    -85.5653E+06    -84.4876E+03    -91.3187E-03     182.761E-03    -91.4426E-03     5.31570E-03    -91.2932E-03     181.858E-03    -91.4128E-03     5.25640E-03
             213    -425.150E-09     3.53540E-03    -81.4363E+06    -230.063E+06    -81.3704E+06     105.252E+03    -99.9801E-03     199.883E-03    -99.9031E-03     4.80077E-03    -99.9386E-03     198.967E-03    -99.8583E-03     4.74582E-03
             214     473.020E-09     2.36826E-03    -74.5227E+06    -226.549E+06    -74.9570E+06     1.42200E+06    -107.050E-03     213.983E-03    -106.933E-03     3.75173E-03    -106.986E-03     213.066E-03    -106.872E-03     3.72787E-03
             215    -330.827E-09     1.18790E-03    -73.4213E+06    -219.541E+06    -73.2231E+06     1.91032E+06    -111.650E-03     223.094E-03    -111.444E-03     2.14569E-03    -111.592E-03     222.209E-03    -111.386E-03     2.14817E-03
             216     802.784E-06     541.234E-18    -75.6374E+06    -221.195E+06    -73.1252E+06     1.09688E+06    -113.254E-03     226.368E-03    -113.115E-03     1.95332E-03    -113.205E-03     225.478E-03    -113.050E-03     1.94610E-03
             217     1.60624E-03     541.234E-18    -74.3063E+06    -226.374E+06    -70.3096E+06     467.178E+03    -113.161E-03     226.369E-03    -113.208E-03     3.17791E-03    -113.103E-03     225.447E-03    -113.123E-03     3.14111E-03
             218     2.40914E-03     541.234E-18    -73.2145E+06    -225.731E+06    -70.2612E+06     123.786E+03    -112.900E-03     226.062E-03    -113.162E-03     4.66406E-03    -112.838E-03     225.142E-03    -113.079E-03     4.60079E-03
             219     3.21257E-03     541.234E-18    -72.3215E+06    -225.570E+06    -70.6195E+06    -446.094E+03    -112.532E-03     225.588E-03    -113.056E-03     6.11614E-03    -112.465E-03     224.668E-03    -112.977E-03     6.02274E-03
             220     4.01665E-03     541.234E-18    -71.2679E+06    -218.525E+06    -71.3419E+06    -894.013E+03    -112.080E-03     224.978E-03    -112.898E-03     7.50335E-03    -112.018E-03     224.094E-03    -112.834E-03     7.38058E-03
             221     4.82038E-03     541.234E-18    -69.8812E+06    -209.515E+06    -68.9516E+06    -1.09046E+06    -111.583E-03     224.304E-03    -112.721E-03     8.93323E-03    -111.531E-03     223.460E-03    -112.661E-03     8.78537E-03
             222     5.62560E-03     541.234E-18    -67.0156E+06    -197.709E+06    -64.0790E+06    -2.70852E+06    -111.005E-03     223.532E-03    -112.526E-03     9.91231E-03    -110.964E-03     222.736E-03    -112.463E-03     9.71784E-03
             223     6.43058E-03     541.234E-18    -62.2142E+06    -175.490E+06    -61.4686E+06    -3.90875E+06    -110.373E-03     222.651E-03    -112.278E-03     11.5097E-03    -110.345E-03     221.957E-03    -112.241E-03     11.2759E-03
             224     7.23557E-03     541.234E-18    -56.6433E+06    -147.087E+06    -59.7568E+06    -4.59300E+06    -109.829E-03     221.830E-03    -112.001E-03     13.2147E-03    -109.817E-03     221.268E-03    -112.005E-03     12.9464E-03
             225     8.04245E-03     541.234E-18    -50.3244E+06    -115.027E+06    -57.4036E+06    -5.43441E+06    -109.418E-03     221.140E-03    -111.723E-03     14.3065E-03    -109.426E-03     220.728E-03    -111.770E-03     13.9996E-03
             226     8.84809E-03     541.234E-18    -42.6805E+06    -78.6040E+06    -53.3188E+06    -6.86738E+06    -109.127E-03     220.585E-03    -111.458E-03     16.0026E-03    -109.158E-03     220.340E-03    -111.548E-03     15.6487E-03
             227     9.65436E-03     541.234E-18    -33.3996E+06    -36.6828E+06    -47.2716E+06    -8.31149E+06    -109.039E-03     220.255E-03    -111.216E-03     17.8081E-03    -109.096E-03     220.199E-03    -111.350E-03     17.3949E-03
             228     10.4611E-03     541.234E-18    -23.9719E+06     16.1892E+06     -40.174E+06    -7.38442E+06    -109.342E-03     220.347E-03    -111.004E-03     19.2830E-03    -109.441E-03     220.535E-03    -111.194E-03     18.8357E-03
             229     11.2666E-03     541.234E-18    -17.0744E+06     61.3228E+06    -17.6089E+06    -3.98541E+06    -109.926E-03     220.870E-03    -110.944E-03     21.7255E-03    -110.093E-03     221.245E-03    -111.096E-03     21.2658E-03
             230     12.0703E-03     541.234E-18    -12.7074E+06      83.761E+06     13.8346E+06    -1.01798E+06    -110.947E-03     221.984E-03    -111.037E-03     26.2982E-03    -111.180E-03     222.428E-03    -111.071E-03     25.7868E-03
             231     12.8729E-03     541.234E-18    -8.73109E+06     98.8588E+06     45.9251E+06    -1.02771E+06    -113.583E-03     224.849E-03    -111.266E-03     32.2172E-03    -113.882E-03     225.334E-03    -111.167E-03     31.5406E-03
             232     13.6730E-03     541.234E-18    -4.80246E+06     105.106E+06     79.8958E+06     456.132E+03    -117.326E-03     229.024E-03    -111.698E-03     37.6271E-03    -117.682E-03     229.503E-03    -111.444E-03     36.8144E-03
             233     14.4672E-03     541.234E-18    -4.44618E+06     105.441E+06     94.9756E+06     3.24127E+06    -123.660E-03     235.965E-03    -112.305E-03     56.7124E-03    -124.138E-03     236.520E-03    -111.976E-03     55.4387E-03
             234     15.2421E-03     541.234E-18    -2.10264E+06     109.205E+06     96.6730E+06     3.58401E+06    -132.707E-03     245.918E-03    -113.210E-03     89.2108E-03    -133.408E-03     246.705E-03    -112.882E-03     87.1272E-03
             235     16.1093E-03     1.22540E-03    -2.57336E+06     111.698E+06     94.0389E+06     3.23458E+06    -130.149E-03     241.781E-03    -111.632E-03     84.8911E-03    -130.931E-03     242.670E-03    -111.320E-03     82.4890E-03
             236     16.1547E-03     2.42429E-03    -4.85258E+06     112.187E+06     91.2074E+06     3.90989E+06    -127.061E-03     235.353E-03    -108.292E-03     50.7402E-03    -127.758E-03     236.167E-03    -107.991E-03     48.1978E-03
             237     16.1791E-03     3.62461E-03    -2.57993E+06     115.719E+06     93.8160E+06     1.14984E+06    -136.203E-03     242.733E-03    -106.530E-03     27.1701E-03    -136.827E-03     243.488E-03    -106.225E-03     24.1807E-03
             238     16.1823E-03     4.84681E-03    -2.40925E+06     117.939E+06     95.5542E+06     89.6582E+03    -142.291E-03     248.115E-03    -105.823E-03     16.3271E-03    -142.885E-03     248.843E-03    -105.513E-03     13.0830E-03
             239     16.1871E-03     6.06404E-03    -1.13293E+06     117.569E+06     96.8596E+06    -165.795E+03    -141.397E-03     247.049E-03    -105.652E-03     14.2699E-03    -141.969E-03     247.754E-03    -105.337E-03     11.0608E-03
             240     16.1868E-03     7.27547E-03    -2.44225E+06     114.780E+06     95.4657E+06    -1.63329E+06    -139.359E-03     245.004E-03    -105.645E-03     11.6658E-03    -139.912E-03     245.678E-03    -105.330E-03     8.53441E-03
             241     16.1861E-03     8.48787E-03    -2.96927E+06     113.060E+06     93.7592E+06     167.769E+03    -136.661E-03     242.367E-03    -105.706E-03     9.63183E-03    -137.192E-03     243.017E-03    -105.397E-03     6.66214E-03
             242     16.1879E-03     9.69229E-03    -459.774E+03     113.533E+06     94.6087E+06    -82.3851E+03    -131.691E-03     237.486E-03    -105.795E-03     7.40077E-03    -132.189E-03     238.111E-03    -105.486E-03     4.62120E-03
             243     16.1873E-03     10.8905E-03    -2.36914E+06     111.672E+06     92.5308E+06    -871.339E+03    -127.912E-03     233.801E-03    -105.889E-03     4.91210E-03    -128.397E-03     234.406E-03    -105.585E-03     2.27486E-03
             244     16.1864E-03     12.0892E-03    -2.75313E+06     110.767E+06     91.3399E+06     275.799E+03    -123.555E-03     229.558E-03    -106.003E-03     3.50456E-03    -124.024E-03     230.146E-03    -105.703E-03     1.04982E-03
             245     16.1883E-03     13.2760E-03    -2.00683E+06     110.045E+06     91.2070E+06    -760.846E+03    -118.634E-03     224.762E-03    -106.128E-03     914.067E-06    -119.083E-03     225.330E-03    -105.829E-03    -1.39198E-03
             246     16.1854E-03     14.4615E-03    -2.59025E+06     108.779E+06     90.5800E+06    -382.062E+03    -114.685E-03     220.928E-03    -106.242E-03    -800.818E-06    -115.123E-03     221.480E-03    -105.943E-03    -2.96901E-03
             247     16.1884E-03     15.6417E-03    -1.36186E+06     108.882E+06     91.1482E+06     12.5968E+03    -110.946E-03     217.252E-03    -106.305E-03    -571.183E-06    -111.374E-03     217.797E-03    -106.005E-03    -2.62389E-03
             248     16.1873E-03     16.8181E-03    -3.17646E+06     108.109E+06     89.8518E+06    -769.243E+03    -110.120E-03     216.441E-03    -106.321E-03    -1.11806E-03    -110.552E-03     216.985E-03    -106.024E-03    -3.14500E-03
             249     16.1866E-03     17.9979E-03    -2.71473E+06     108.505E+06     90.0733E+06     884.428E+03    -110.192E-03     216.515E-03    -106.323E-03    -1.10617E-03    -110.621E-03     217.059E-03    -106.026E-03    -3.10717E-03
             250     16.1890E-03     19.1732E-03    -2.15854E+06     108.382E+06     90.3329E+06    -91.3147E+03    -109.872E-03     216.178E-03    -106.306E-03    -1.38148E-03    -110.300E-03     216.721E-03    -106.009E-03    -3.40793E-03
             251     16.1866E-03     20.3535E-03    -3.12159E+06     107.938E+06     89.8323E+06     160.833E+03    -110.087E-03     216.375E-03    -106.287E-03    -999.583E-06    -110.522E-03     216.921E-03    -105.990E-03    -3.03896E-03
             252     16.1898E-03     21.5304E-03    -1.93167E+06     109.398E+06     91.4235E+06     205.585E+03    -110.104E-03     216.373E-03    -106.269E-03    -174.046E-06    -110.540E-03     216.925E-03    -105.968E-03    -2.21287E-03
             253     16.1872E-03     22.7094E-03    -2.16702E+06     109.788E+06     91.8003E+06     163.983E+03    -110.131E-03     216.388E-03    -106.257E-03    -245.303E-06    -110.570E-03     216.943E-03    -105.955E-03    -2.29387E-03
             254     16.1900E-03     23.8877E-03    -1.58816E+06     110.779E+06     92.5717E+06     603.302E+03    -109.707E-03     215.954E-03    -106.246E-03     838.247E-06    -110.151E-03     216.517E-03    -105.942E-03    -1.20674E-03
             255     16.1884E-03     25.0642E-03    -2.25966E+06     111.533E+06     92.4591E+06    -62.6681E+03    -109.751E-03     215.989E-03    -106.238E-03     150.444E-06    -110.198E-03     216.555E-03    -105.934E-03    -1.90411E-03
             256     16.1891E-03     26.2434E-03    -2.43896E+06     112.444E+06     92.2679E+06     555.299E+03    -109.208E-03     215.460E-03    -106.253E-03     387.470E-06    -109.657E-03     216.033E-03    -105.951E-03    -1.65029E-03
             257     16.1891E-03     27.4183E-03    -2.94248E+06     112.638E+06     92.0420E+06    -100.974E+03    -108.840E-03     215.108E-03    -106.268E-03     693.831E-06    -109.294E-03     215.685E-03    -105.967E-03    -1.34720E-03
             258     16.1880E-03     28.5967E-03    -2.60395E+06     112.723E+06     92.3552E+06     611.499E+03    -108.191E-03     214.469E-03    -106.278E-03     694.164E-06    -108.644E-03     215.046E-03    -105.976E-03    -1.33469E-03
             259     16.1906E-03     29.7694E-03    -2.30934E+06     114.530E+06     93.7709E+06    -29.3706E+03    -108.046E-03     214.324E-03    -106.278E-03     912.035E-06    -108.504E-03     214.908E-03    -105.972E-03    -1.12454E-03
             260     16.1870E-03     30.9479E-03    -2.83103E+06     115.898E+06     94.2853E+06     110.468E+03    -108.268E-03     214.553E-03    -106.285E-03     715.882E-06    -108.730E-03     215.144E-03    -105.978E-03    -1.31576E-03
             261     16.1909E-03     32.1226E-03    -2.14785E+06     116.225E+06      94.706E+06     201.174E+03    -107.169E-03     213.464E-03    -106.295E-03     1.95300E-03    -107.631E-03     214.056E-03    -105.987E-03    -49.2099E-06
             262     16.1880E-03     33.2970E-03    -2.35015E+06     116.950E+06     95.0326E+06     593.288E+03    -106.816E-03     213.116E-03    -106.300E-03     1.48637E-03    -107.280E-03     213.711E-03    -105.991E-03    -498.274E-06
             263     16.1902E-03     34.4715E-03    -1.70985E+06     118.533E+06     95.8255E+06     546.728E+03    -106.347E-03     212.652E-03    -106.305E-03     1.88695E-03    -106.814E-03     213.256E-03    -105.996E-03    -105.324E-06
             264     16.1891E-03     35.6435E-03    -2.94950E+06     117.712E+06     94.8159E+06    -708.813E+03    -106.883E-03     213.178E-03    -106.295E-03     1.55271E-03    -107.353E-03     213.781E-03    -105.988E-03    -468.848E-06
             265     16.1887E-03     36.8203E-03    -2.94159E+06     117.775E+06     95.0379E+06     846.621E+03    -106.857E-03     213.162E-03    -106.305E-03     1.09638E-03    -107.325E-03     213.762E-03    -105.996E-03    -894.645E-06
             266     16.1901E-03     37.9922E-03    -1.44734E+06     119.109E+06     96.4911E+06     22.2211E+03    -105.946E-03     212.260E-03    -106.314E-03     1.47251E-03    -106.413E-03     212.864E-03    -106.002E-03    -521.991E-06
             267     16.1889E-03     39.1660E-03    -3.46710E+06     117.719E+06     94.5675E+06    -836.879E+03    -106.260E-03     212.574E-03    -106.314E-03     999.901E-06    -106.731E-03     213.176E-03    -106.007E-03    -1.00887E-03
             268     16.1891E-03     40.3405E-03    -2.36043E+06     117.067E+06     94.6488E+06     449.657E+03    -106.104E-03     212.424E-03    -106.320E-03     1.94820E-03    -106.570E-03     213.022E-03    -106.013E-03    -29.6885E-06
             269     16.1897E-03     41.5124E-03    -973.808E+03     117.934E+06     96.1057E+06     122.999E+03    -105.687E-03     212.001E-03    -106.315E-03     1.15535E-03    -106.148E-03     212.599E-03    -106.004E-03    -832.580E-06
             270     16.1895E-03     42.6851E-03    -3.51184E+06     117.338E+06     94.6934E+06    -645.245E+03    -105.956E-03     212.272E-03    -106.316E-03     840.895E-06    -106.427E-03     212.873E-03    -106.008E-03    -1.16606E-03
             271     16.1886E-03     43.8603E-03    -2.36495E+06     118.318E+06     95.6518E+06     483.685E+03    -106.025E-03     212.346E-03    -106.321E-03     1.82920E-03    -106.494E-03     212.950E-03    -106.011E-03    -151.073E-06
             272     16.1903E-03     45.0316E-03    -2.55931E+06     118.411E+06     95.3942E+06    -51.4376E+03    -106.101E-03     212.420E-03    -106.319E-03     1.28104E-03    -106.570E-03     213.023E-03    -106.010E-03    -712.090E-06
             273     16.1878E-03     46.2065E-03    -3.22951E+06     118.132E+06     94.7926E+06     307.862E+03    -105.907E-03     212.234E-03    -106.327E-03     1.47359E-03    -106.379E-03     212.839E-03    -106.019E-03    -513.296E-06
             274     16.1908E-03     47.3792E-03    -1.69995E+06     119.178E+06     96.3313E+06    -74.6689E+03    -105.344E-03     211.678E-03    -106.334E-03     2.18231E-03    -105.814E-03     212.285E-03    -106.022E-03     201.312E-06
             275     16.1880E-03     48.5512E-03    -2.75881E+06     118.187E+06     95.1971E+06    -9.42838E+03    -105.559E-03     211.891E-03    -106.332E-03     1.61325E-03    -106.031E-03     212.497E-03    -106.024E-03    -372.935E-06
             276     16.1902E-03     49.7246E-03    -1.72139E+06     119.409E+06     96.2899E+06     516.909E+03    -105.407E-03     211.737E-03    -106.331E-03     1.88555E-03    -105.877E-03     212.346E-03    -106.020E-03    -89.1461E-06
             277     16.1891E-03     50.8961E-03    -2.86396E+06     119.493E+06     95.7375E+06    -463.151E+03    -105.750E-03     212.076E-03    -106.326E-03     1.58212E-03    -106.224E-03     212.687E-03    -106.016E-03    -410.108E-06
             278     16.1887E-03     52.0714E-03    -3.47599E+06     118.792E+06     94.9464E+06     215.213E+03    -105.590E-03     211.928E-03    -106.338E-03     1.32308E-03    -106.065E-03     212.537E-03    -106.031E-03    -660.742E-06
             279     16.1900E-03     53.2408E-03    -1.33294E+06     119.685E+06     96.5862E+06    -344.378E+03    -105.067E-03     211.404E-03    -106.336E-03     1.46612E-03    -105.535E-03     212.012E-03    -106.025E-03    -520.411E-06
             280     16.1891E-03     54.4152E-03    -3.16949E+06     119.061E+06     95.3822E+06    -190.239E+03    -105.626E-03     211.956E-03    -106.331E-03     1.56166E-03    -106.100E-03     212.566E-03    -106.022E-03    -424.845E-06
             281     16.1889E-03     55.5896E-03    -2.21809E+06     119.929E+06     96.1264E+06     742.760E+03    -105.225E-03     211.565E-03    -106.341E-03     2.56697E-03    -105.699E-03     212.179E-03    -106.031E-03     600.316E-06
             282     16.1903E-03     56.7582E-03    -2.13995E+06     120.028E+06     96.2904E+06    -484.368E+03    -105.277E-03     211.611E-03    -106.334E-03     1.58755E-03    -105.750E-03     212.223E-03    -106.023E-03    -404.807E-06
             283     16.1881E-03     57.9339E-03    -3.25186E+06     119.134E+06     95.3781E+06     4.47513E+03    -105.515E-03     211.850E-03    -106.335E-03     1.65949E-03    -105.991E-03     212.461E-03    -106.026E-03    -324.156E-06
             284     16.1905E-03     59.1055E-03    -1.35916E+06     119.801E+06     96.6400E+06     305.749E+03    -104.952E-03     211.288E-03    -106.336E-03     2.50822E-03    -105.422E-03     211.898E-03    -106.024E-03     544.013E-06
             285     16.1889E-03     60.2768E-03    -2.30238E+06     119.886E+06     96.4619E+06    -486.819E+03    -105.175E-03     211.502E-03    -106.327E-03     1.43045E-03    -105.648E-03     212.113E-03    -106.015E-03    -557.269E-06
             286     16.1899E-03     61.4498E-03    -3.03748E+06     119.222E+06     95.5312E+06    -196.941E+03    -105.561E-03     211.896E-03    -106.335E-03     1.23576E-03    -106.035E-03     212.505E-03    -106.026E-03    -747.715E-06
             287     16.1882E-03     62.6231E-03    -2.32891E+06     118.895E+06     95.3628E+06     629.174E+03    -105.100E-03     211.445E-03    -106.345E-03     1.79458E-03    -105.569E-03     212.052E-03    -106.038E-03    -163.675E-06
             288     16.1906E-03     63.7943E-03    -2.83979E+06     118.977E+06     95.4022E+06     66.4021E+03    -105.047E-03     211.391E-03    -106.344E-03     1.82362E-03    -105.520E-03     212.000E-03    -106.035E-03    -148.714E-06
             289     16.1877E-03     64.9673E-03    -2.83330E+06     119.066E+06     95.5424E+06    -12.8823E+03    -105.349E-03     211.691E-03    -106.342E-03     1.47588E-03    -105.822E-03     212.300E-03    -106.033E-03    -505.402E-06
             290     16.1908E-03     66.1392E-03    -1.22464E+06     119.907E+06     96.6480E+06    -99.3039E+03    -104.952E-03     211.286E-03    -106.334E-03     1.85241E-03    -105.421E-03     211.896E-03    -106.023E-03    -125.174E-06
             291     16.1888E-03     67.3115E-03    -1.87199E+06     120.133E+06     96.5782E+06    -394.956E+03    -105.321E-03     211.644E-03    -106.324E-03     1.83560E-03    -105.793E-03     212.257E-03    -106.012E-03    -149.837E-06
             292     809.051E-06     68.2622E-03    -119.598E+06    -263.555E+06    -115.930E+06    -93.5695E+03    -106.613E-03     212.972E-03    -106.359E-03     14.4987E-03    -106.671E-03     212.006E-03    -106.383E-03     14.2093E-03
             293     1.61816E-03     68.2842E-03    -114.352E+06    -260.640E+06    -102.137E+06     116.072E+03    -106.563E-03     213.073E-03    -106.511E-03     26.2026E-03    -106.642E-03     212.118E-03    -106.478E-03     25.6619E-03
             294     2.42727E-03     68.3201E-03    -108.022E+06    -242.834E+06    -87.0508E+06     312.321E+03    -106.648E-03     213.168E-03    -106.519E-03     38.2371E-03    -106.783E-03     212.309E-03    -106.446E-03     37.4216E-03
             295     3.23660E-03     68.3689E-03    -100.802E+06    -223.680E+06    -70.7804E+06    -69.1450E+03    -106.782E-03     213.305E-03    -106.523E-03     49.7362E-03    -106.989E-03     212.566E-03    -106.407E-03     48.6177E-03
             296     4.04599E-03     68.4302E-03    -92.7130E+06    -209.406E+06    -52.5702E+06    -130.698E+03    -107.027E-03     213.573E-03    -106.546E-03     60.4025E-03    -107.318E-03     212.944E-03    -106.371E-03     58.9635E-03
             297     4.85512E-03     68.5025E-03    -84.9881E+06    -192.955E+06    -36.6438E+06     135.566E+03    -107.291E-03     213.856E-03    -106.565E-03     70.1550E-03    -107.686E-03     213.371E-03    -106.345E-03     68.3795E-03
             298     5.66455E-03     68.5852E-03    -77.2312E+06    -171.897E+06    -23.8117E+06     204.950E+03    -107.484E-03     214.049E-03    -106.565E-03     78.8359E-03    -108.006E-03     213.756E-03    -106.323E-03     76.7086E-03
             299     6.47392E-03     68.6763E-03    -69.7953E+06    -149.185E+06    -12.8030E+06     296.931E+03    -107.634E-03     214.187E-03    -106.552E-03     86.2960E-03    -108.303E-03     214.115E-03    -106.299E-03     83.8134E-03
             300     7.28344E-03     68.7751E-03    -62.8111E+06    -124.355E+06    -2.38290E+06     344.672E+03    -107.735E-03     214.269E-03    -106.533E-03     92.4205E-03    -108.568E-03     214.444E-03    -106.274E-03     89.5861E-03
             301     8.09282E-03     68.8794E-03    -56.4227E+06    -99.7874E+06     7.82639E+06     219.318E+03    -107.770E-03     214.286E-03    -106.516E-03     96.9346E-03    -108.773E-03     214.711E-03    -106.250E-03     93.7709E-03
             302     8.90231E-03     68.9878E-03    -50.2763E+06    -71.5369E+06     17.6380E+06     77.7835E+03    -107.707E-03     214.198E-03    -106.492E-03     99.6148E-03    -108.875E-03     214.883E-03    -106.227E-03     96.1696E-03
             303     9.71160E-03     69.0976E-03    -44.1411E+06    -44.4911E+06     27.7676E+06     283.551E+03    -107.537E-03     214.009E-03    -106.472E-03     99.9391E-03    -108.838E-03     214.915E-03    -106.204E-03     96.2875E-03
             304     10.5215E-03     69.2061E-03    -38.1825E+06    -12.6868E+06     37.3611E+06     408.054E+03    -107.286E-03     213.729E-03    -106.444E-03     97.5162E-03    -108.677E-03     214.832E-03    -106.183E-03     93.7430E-03
             305     11.3309E-03     69.3105E-03    -32.9387E+06     16.9959E+06     46.8451E+06     314.370E+03    -106.867E-03     213.286E-03    -106.419E-03     92.0383E-03    -108.286E-03     214.512E-03    -106.162E-03     88.2314E-03
             306     12.1403E-03     69.4061E-03    -27.6106E+06     58.8489E+06     53.4871E+06     236.044E+03    -106.152E-03     212.505E-03    -106.353E-03     83.4726E-03    -107.546E-03     213.855E-03    -106.131E-03     79.7193E-03
             307     12.9515E-03     69.4906E-03    -21.4754E+06     102.914E+06     65.9799E+06    -32.6222E+03    -105.740E-03     212.047E-03    -106.307E-03     72.7169E-03    -107.076E-03     213.481E-03    -106.095E-03     69.0498E-03
             308     13.7596E-03     69.5617E-03    -15.8488E+06     114.546E+06     76.2038E+06    -456.980E+03    -105.673E-03     211.984E-03    -106.312E-03     58.1332E-03    -106.846E-03     213.287E-03    -106.074E-03     54.6133E-03
             309     14.5692E-03     69.6150E-03    -10.4753E+06     119.799E+06     87.3848E+06    -61.7985E+03    -105.420E-03     211.762E-03    -106.342E-03     44.8970E-03    -106.456E-03     212.933E-03    -106.064E-03     41.5005E-03
             310     15.3803E-03     69.6575E-03    -5.23819E+06     121.266E+06     97.4259E+06     391.980E+03    -105.165E-03     211.534E-03    -106.369E-03     21.0087E-03    -105.908E-03     212.407E-03    -106.050E-03     18.3338E-03
             311     809.123E-06     69.4341E-03    -119.589E+06    -263.435E+06    -115.804E+06     35.6166E+03    -106.587E-03     212.946E-03    -106.359E-03     14.4137E-03    -106.646E-03     211.981E-03    -106.382E-03     14.1237E-03
             312     1.61824E-03     69.4565E-03    -114.941E+06    -260.989E+06    -102.341E+06    -7.80662E+03    -106.541E-03     213.038E-03    -106.497E-03     26.1998E-03    -106.623E-03     212.082E-03    -106.464E-03     25.6585E-03
             313     2.42741E-03     69.4921E-03    -108.112E+06    -243.003E+06    -87.2106E+06     73.4774E+03    -106.661E-03     213.168E-03    -106.507E-03     38.2649E-03    -106.795E-03     212.309E-03    -106.434E-03     37.4468E-03
             314     3.23661E-03     69.5410E-03    -100.668E+06    -223.365E+06    -70.3681E+06     161.421E+03    -106.823E-03     213.345E-03    -106.522E-03     49.7355E-03    -107.030E-03     212.607E-03    -106.404E-03     48.6192E-03
             315     4.04585E-03     69.6021E-03    -93.1119E+06    -209.433E+06    -52.4063E+06     145.848E+03    -107.045E-03     213.597E-03    -106.552E-03     60.4462E-03    -107.338E-03     212.968E-03    -106.376E-03     59.0100E-03
             316     4.85526E-03     69.6747E-03    -84.9984E+06    -193.045E+06    -36.3815E+06     108.829E+03    -107.281E-03     213.852E-03    -106.571E-03     70.1837E-03    -107.677E-03     213.367E-03    -106.350E-03     68.4075E-03
             317     5.66452E-03     69.7571E-03    -77.1307E+06    -172.095E+06    -23.5944E+06     151.193E+03    -107.483E-03     214.052E-03    -106.569E-03     78.8259E-03    -108.005E-03     213.758E-03    -106.326E-03     76.6971E-03
             318     6.47391E-03     69.8486E-03    -69.7385E+06    -149.292E+06    -12.6853E+06     216.567E+03    -107.642E-03     214.199E-03    -106.556E-03     86.2806E-03    -108.311E-03     214.127E-03    -106.302E-03     83.7945E-03
             319     7.28322E-03     69.9471E-03    -62.8751E+06    -124.706E+06    -2.44930E+06     378.384E+03    -107.738E-03     214.275E-03    -106.537E-03     92.4005E-03    -108.570E-03     214.448E-03    -106.278E-03     89.5668E-03
             320     8.09276E-03     70.0517E-03    -56.3973E+06    -99.5153E+06     7.88855E+06     557.090E+03    -107.760E-03     214.278E-03    -106.518E-03     96.9787E-03    -108.763E-03     214.705E-03    -106.253E-03     93.8204E-03
             321     8.90217E-03     70.1599E-03    -50.2390E+06    -71.0954E+06     17.9577E+06     267.584E+03    -107.700E-03     214.195E-03    -106.494E-03     99.6985E-03    -108.870E-03     214.881E-03    -106.229E-03     96.2557E-03
             322     9.71202E-03     70.2699E-03    -44.1577E+06    -44.9798E+06     27.6718E+06     184.105E+03    -107.557E-03     214.030E-03    -106.474E-03     100.030E-03    -108.859E-03     214.935E-03    -106.206E-03     96.3743E-03
             323     10.5211E-03     70.3785E-03    -38.3073E+06    -12.9472E+06     37.1156E+06     386.206E+03    -107.235E-03     213.678E-03    -106.443E-03     97.6883E-03    -108.628E-03     214.781E-03    -106.183E-03     93.9156E-03
             324     11.3309E-03     70.4827E-03    -32.3326E+06     17.3176E+06     47.2283E+06     744.077E+03    -106.741E-03     213.153E-03    -106.413E-03     92.0845E-03    -108.156E-03     214.379E-03    -106.155E-03     88.2912E-03
             325     12.1410E-03     70.5781E-03    -26.5409E+06     59.6655E+06     54.1407E+06     182.635E+03    -106.281E-03     212.629E-03    -106.347E-03     83.1864E-03    -107.673E-03     213.980E-03    -106.124E-03     79.4264E-03
             326     12.9499E-03     70.6622E-03    -21.3913E+06     103.289E+06     66.0402E+06    -569.401E+03    -105.915E-03     212.226E-03    -106.311E-03     72.6515E-03    -107.251E-03     213.661E-03    -106.099E-03     68.9716E-03
             327     13.7606E-03     70.7359E-03    -16.1869E+06     114.264E+06     76.0843E+06    -118.728E+03    -105.685E-03     212.006E-03    -106.321E-03     58.6055E-03    -106.860E-03     213.308E-03    -106.083E-03     55.0995E-03
             328     14.5697E-03     70.7869E-03    -11.0619E+06     118.935E+06     86.6233E+06     242.089E+03    -105.382E-03     211.730E-03    -106.348E-03     45.5740E-03    -106.420E-03     212.900E-03    -106.071E-03     42.1904E-03
             329     15.3781E-03     70.8304E-03    -4.91927E+06     121.172E+06     97.3893E+06     116.528E+03    -104.917E-03     211.284E-03    -106.367E-03     21.1287E-03    -105.659E-03     212.157E-03    -106.049E-03     18.4546E-03
             330     809.002E-06     70.6063E-03    -120.207E+06    -263.755E+06    -116.023E+06     144.796E+03    -106.531E-03     212.902E-03    -106.372E-03     14.3380E-03    -106.592E-03     211.937E-03    -106.395E-03     14.0485E-03
             331     1.61820E-03     70.6283E-03    -114.776E+06    -260.704E+06    -102.254E+06     229.371E+03    -106.541E-03     213.021E-03    -106.480E-03     26.1843E-03    -106.622E-03     212.066E-03    -106.447E-03     25.6473E-03
             332     2.42744E-03     70.6642E-03    -108.175E+06    -243.010E+06    -87.3646E+06    -20.5495E+03    -106.680E-03     213.179E-03    -106.499E-03     38.2107E-03    -106.814E-03     212.320E-03    -106.427E-03     37.3907E-03
             333     3.23663E-03     70.7130E-03    -101.068E+06    -223.688E+06    -70.6848E+06     83.6923E+03    -106.863E-03     213.387E-03    -106.524E-03     49.6834E-03    -107.072E-03     212.648E-03    -106.406E-03     48.5655E-03
             334     4.04588E-03     70.7743E-03    -93.0586E+06    -209.377E+06    -52.2821E+06     174.607E+03    -107.059E-03     213.619E-03    -106.560E-03     60.4263E-03    -107.352E-03     212.990E-03    -106.383E-03     58.9892E-03
             335     4.85511E-03     70.8467E-03    -84.8116E+06    -192.980E+06    -36.2401E+06     138.893E+03    -107.262E-03     213.840E-03    -106.578E-03     70.1786E-03    -107.657E-03     213.354E-03    -106.356E-03     68.4033E-03
             336     5.66450E-03     70.9294E-03    -77.0882E+06    -172.289E+06    -23.5437E+06     285.617E+03    -107.463E-03     214.036E-03    -106.572E-03     78.8627E-03    -107.985E-03     213.741E-03    -106.329E-03     76.7362E-03
             337     6.47385E-03     71.0205E-03    -69.8712E+06    -149.442E+06    -12.7529E+06     391.434E+03    -107.638E-03     214.194E-03    -106.556E-03     86.3825E-03    -108.308E-03     214.122E-03    -106.302E-03     83.8982E-03
             338     7.28336E-03     71.1194E-03    -63.0383E+06    -124.810E+06    -2.48400E+06     409.664E+03    -107.737E-03     214.274E-03    -106.537E-03     92.5028E-03    -108.571E-03     214.448E-03    -106.277E-03     89.6689E-03
             339     8.09274E-03     71.2236E-03    -56.3496E+06    -99.8825E+06     7.80687E+06     474.548E+03    -107.746E-03     214.263E-03    -106.517E-03     97.0639E-03    -108.749E-03     214.688E-03    -106.251E-03     93.9042E-03
             340     8.90242E-03     71.3322E-03    -49.9059E+06    -70.7491E+06     18.2439E+06     530.106E+03    -107.694E-03     214.186E-03    -106.492E-03     99.8006E-03    -108.864E-03     214.874E-03    -106.226E-03     96.3611E-03
             341     9.71153E-03     71.4421E-03    -43.9344E+06    -44.9141E+06     27.7710E+06     199.277E+03    -107.528E-03     213.997E-03    -106.469E-03     100.142E-03    -108.830E-03     214.903E-03    -106.201E-03     96.4864E-03
             342     10.5216E-03     71.5507E-03    -37.9312E+06    -13.0709E+06     37.2503E+06     421.028E+03    -107.169E-03     213.604E-03    -106.435E-03     97.6900E-03    -108.559E-03     214.705E-03    -106.175E-03     93.9235E-03
             343     11.3313E-03     71.6547E-03    -31.9939E+06     17.2788E+06     47.4080E+06     249.883E+03    -106.820E-03     213.226E-03    -106.406E-03     91.9839E-03    -108.234E-03     214.450E-03    -106.147E-03     88.1826E-03
             344     12.1406E-03     71.7504E-03    -26.2274E+06     60.0749E+06     54.3119E+06     172.317E+03    -106.503E-03     212.853E-03    -106.350E-03     83.3509E-03    -107.896E-03     214.208E-03    -106.127E-03     79.5810E-03
             345     12.9505E-03     71.8357E-03    -21.3938E+06     103.681E+06     66.1342E+06     454.022E+03    -105.935E-03     212.256E-03    -106.321E-03     72.7551E-03    -107.273E-03     213.694E-03    -106.109E-03     69.0873E-03
             346     13.7597E-03     71.9065E-03    -16.7091E+06     113.744E+06     75.2638E+06     86.4419E+03    -105.430E-03     211.751E-03    -106.321E-03     58.7070E-03    -106.606E-03     213.053E-03    -106.085E-03     55.2130E-03
             347     14.5699E-03     71.9613E-03    -10.8746E+06     119.123E+06     86.4492E+06     42.6900E+03    -105.053E-03     211.386E-03    -106.333E-03     45.2441E-03    -106.089E-03     212.555E-03    -106.057E-03     41.8662E-03
             348     15.3808E-03     72.0013E-03    -5.49505E+06     121.434E+06     97.3338E+06    -178.129E+03    -105.090E-03     211.441E-03    -106.351E-03     20.9900E-03    -105.835E-03     212.315E-03    -106.032E-03     18.3077E-03
             349     809.275E-06     71.7782E-03    -120.018E+06    -263.769E+06    -116.213E+06     -28.503E+03    -106.426E-03     212.909E-03    -106.483E-03     14.1819E-03    -106.485E-03     211.943E-03    -106.507E-03     13.8930E-03
             350     1.61830E-03     71.8005E-03    -114.418E+06    -260.645E+06    -102.489E+06    -85.6624E+03    -106.560E-03     213.045E-03    -106.485E-03     26.1236E-03    -106.639E-03     212.090E-03    -106.454E-03     25.5807E-03
             351     2.42735E-03     71.8362E-03    -107.923E+06    -242.943E+06    -87.4228E+06     34.2493E+03    -106.682E-03     213.188E-03    -106.506E-03     38.2236E-03    -106.816E-03     212.330E-03    -106.435E-03     37.4036E-03
             352     3.23655E-03     71.8852E-03    -100.781E+06    -223.848E+06    -70.9740E+06    -55.4713E+03    -106.851E-03     213.378E-03    -106.527E-03     49.7483E-03    -107.058E-03     212.638E-03    -106.411E-03     48.6285E-03
             353     4.04578E-03     71.9462E-03    -93.0629E+06    -209.666E+06    -52.6082E+06     83.6201E+03    -107.056E-03     213.617E-03    -106.560E-03     60.4878E-03    -107.349E-03     212.987E-03    -106.385E-03     59.0497E-03
             354     4.85514E-03     72.0189E-03    -85.2619E+06    -193.241E+06    -36.4685E+06     417.774E+03    -107.246E-03     213.823E-03    -106.577E-03     70.2648E-03    -107.643E-03     213.337E-03    -106.355E-03     68.4928E-03
             355     5.66453E-03     72.1012E-03    -77.3774E+06    -172.408E+06    -23.5318E+06     515.962E+03    -107.442E-03     214.011E-03    -106.569E-03     78.9424E-03    -107.965E-03     213.716E-03    -106.325E-03     76.8189E-03
             356     6.47399E-03     72.1928E-03    -69.9656E+06    -149.305E+06    -12.6595E+06     444.752E+03    -107.623E-03     214.174E-03    -106.551E-03     86.4260E-03    -108.294E-03     214.103E-03    -106.296E-03     83.9437E-03
             357     7.28332E-03     72.2913E-03    -62.8846E+06    -124.745E+06    -2.28118E+06     328.997E+03    -107.740E-03     214.272E-03    -106.532E-03     92.5061E-03    -108.573E-03     214.445E-03    -106.271E-03     89.6708E-03
             358     8.09288E-03     72.3960E-03    -56.1998E+06    -100.211E+06     7.88561E+06     322.283E+03    -107.772E-03     214.286E-03    -106.513E-03     97.0389E-03    -108.774E-03     214.710E-03    -106.247E-03     93.8757E-03
             359     8.90220E-03     72.5041E-03    -49.8725E+06    -70.8973E+06     18.1172E+06     406.591E+03    -107.680E-03     214.168E-03    -106.488E-03     99.7940E-03    -108.849E-03     214.856E-03    -106.223E-03     96.3533E-03
             360     9.71221E-03     72.6145E-03    -43.8387E+06    -44.2729E+06     28.1716E+06     452.925E+03    -107.489E-03     213.954E-03    -106.465E-03     100.038E-03    -108.791E-03     214.862E-03    -106.197E-03     96.3884E-03
             361     10.5214E-03     72.7226E-03    -37.9074E+06    -13.0940E+06     37.5786E+06     26.8654E+03    -107.224E-03     213.657E-03    -106.433E-03     97.5094E-03    -108.614E-03     214.757E-03    -106.171E-03     93.7339E-03
             362     11.3310E-03     72.8270E-03    -31.9276E+06     17.2029E+06     47.5119E+06     102.927E+03    -106.901E-03     213.310E-03    -106.409E-03     92.0128E-03    -108.316E-03     214.535E-03    -106.150E-03     88.2040E-03
             363     12.1406E-03     72.9231E-03    -27.0485E+06     59.6248E+06     54.0055E+06     429.111E+03    -106.451E-03     212.804E-03    -106.353E-03     83.5310E-03    -107.847E-03     214.160E-03    -106.130E-03     79.7660E-03
             364     12.9501E-03     73.0076E-03    -21.5649E+06     103.512E+06     66.1171E+06     541.126E+03    -105.975E-03     212.299E-03    -106.323E-03     72.6980E-03    -107.315E-03     213.737E-03    -106.112E-03     69.0262E-03
             365     13.7602E-03     73.0796E-03    -15.3668E+06     114.600E+06     76.3749E+06     444.360E+03    -105.364E-03     211.689E-03    -106.325E-03     58.5468E-03    -106.537E-03     212.993E-03    -106.087E-03     55.0514E-03
             366     14.5697E-03     73.1325E-03    -10.1748E+06     119.281E+06     87.0176E+06    -254.083E+03    -104.935E-03     211.266E-03    -106.331E-03     45.0503E-03    -105.968E-03     212.434E-03    -106.054E-03     41.6695E-03
             367     15.3794E-03     73.1732E-03    -4.88629E+06     121.462E+06     97.2557E+06    -263.846E+03    -105.175E-03     211.520E-03    -106.345E-03     20.9917E-03    -105.916E-03     212.393E-03    -106.028E-03     18.3070E-03
             368     808.847E-06     72.9503E-03    -117.031E+06    -264.307E+06    -113.128E+06     972.356E+03    -106.482E-03     212.966E-03    -106.484E-03     14.1921E-03    -106.530E-03     211.989E-03    -106.497E-03     13.9148E-03
             369     1.61811E-03     72.9725E-03    -113.328E+06    -259.989E+06    -101.749E+06     51.1390E+03    -106.533E-03     213.027E-03    -106.493E-03     26.2380E-03    -106.609E-03     212.072E-03    -106.461E-03     25.6966E-03
             370     2.42738E-03     73.0084E-03    -107.600E+06    -243.321E+06    -87.9348E+06     11.7765E+03    -106.678E-03     213.179E-03    -106.500E-03     38.2991E-03    -106.809E-03     212.319E-03    -106.431E-03     37.4791E-03
             371     3.23666E-03     73.0571E-03    -101.041E+06    -224.106E+06    -71.1720E+06     476.650E+03    -106.830E-03     213.350E-03    -106.520E-03     49.7734E-03    -107.038E-03     212.610E-03    -106.405E-03     48.6603E-03
             372     4.04593E-03     73.1185E-03    -93.6873E+06    -209.965E+06    -52.7236E+06     565.877E+03    -107.025E-03     213.576E-03    -106.551E-03     60.4974E-03    -107.319E-03     212.945E-03    -106.375E-03     59.0662E-03
             373     4.85524E-03     73.1907E-03    -85.6097E+06    -193.460E+06    -36.5823E+06     500.932E+03    -107.252E-03     213.818E-03    -106.567E-03     70.2663E-03    -107.650E-03     213.332E-03    -106.345E-03     68.4950E-03
             374     5.66459E-03     73.2735E-03    -77.5606E+06    -172.248E+06    -23.5207E+06     358.123E+03    -107.465E-03     214.028E-03    -106.563E-03     78.9501E-03    -107.990E-03     213.734E-03    -106.318E-03     76.8241E-03
             375     6.47393E-03     73.3647E-03    -69.9056E+06    -149.320E+06    -12.5487E+06     254.125E+03    -107.639E-03     214.187E-03    -106.548E-03     86.4053E-03    -108.309E-03     214.115E-03    -106.293E-03     83.9201E-03
             376     7.28346E-03     73.4637E-03    -62.9138E+06    -124.694E+06    -2.22433E+06     267.946E+03    -107.757E-03     214.288E-03    -106.531E-03     92.4749E-03    -108.590E-03     214.462E-03    -106.270E-03     89.6381E-03
             377     8.09277E-03     73.5679E-03    -56.3165E+06    -100.107E+06     7.90866E+06     160.708E+03    -107.790E-03     214.305E-03    -106.515E-03     96.9854E-03    -108.793E-03     214.730E-03    -106.248E-03     93.8187E-03
             378     8.90242E-03     73.6765E-03    -49.9237E+06    -71.0712E+06     18.0611E+06     254.413E+03    -107.683E-03     214.173E-03    -106.491E-03     99.7010E-03    -108.851E-03     214.860E-03    -106.225E-03     96.2580E-03
             379     9.71156E-03     73.7863E-03    -43.6236E+06    -44.2170E+06     28.3049E+06     352.575E+03    -107.502E-03     213.971E-03    -106.469E-03     100.001E-03    -108.803E-03     214.878E-03    -106.200E-03     96.3505E-03
             380     10.5215E-03     73.8952E-03    -37.8296E+06    -12.6824E+06     37.6446E+06     207.214E+03    -107.256E-03     213.693E-03    -106.437E-03     97.5946E-03    -108.648E-03     214.797E-03    -106.176E-03     93.8171E-03
             381     11.3309E-03     73.9992E-03    -32.5306E+06     16.5056E+06     46.8786E+06     253.836E+03    -106.883E-03     213.295E-03    -106.412E-03     92.1198E-03    -108.300E-03     214.519E-03    -106.154E-03     88.3124E-03
             382     12.1407E-03     74.0953E-03    -26.5880E+06     59.4152E+06     53.8630E+06     558.187E+03    -106.380E-03     212.733E-03    -106.353E-03     83.5897E-03    -107.772E-03     214.086E-03    -106.131E-03     79.8323E-03
             383     12.9504E-03     74.1804E-03    -21.0186E+06     104.094E+06     66.2291E+06     277.453E+03    -105.811E-03     212.126E-03    -106.315E-03     72.9889E-03    -107.149E-03     213.567E-03    -106.105E-03     69.3242E-03
             384     13.7595E-03     74.2520E-03    -15.6005E+06     114.375E+06     76.2513E+06     194.315E+03    -105.306E-03     211.618E-03    -106.311E-03     58.6216E-03    -106.479E-03     212.920E-03    -106.073E-03     55.1309E-03
             385     14.5704E-03     74.3035E-03    -10.2052E+06     119.843E+06     87.4576E+06     537.869E+03    -105.156E-03     211.480E-03    -106.323E-03     45.7561E-03    -106.192E-03     212.651E-03    -106.045E-03     42.3876E-03
             386     15.3796E-03     74.3478E-03    -5.23625E+06     121.698E+06     97.3452E+06     -45.592E+03    -105.325E-03     211.671E-03    -106.346E-03     21.4503E-03    -106.071E-03     212.548E-03    -106.028E-03     18.7690E-03
             387     809.277E-06     74.1223E-03    -120.705E+06    -265.383E+06    -118.356E+06     404.677E+03    -106.554E-03     212.800E-03    -106.246E-03     14.3536E-03    -106.612E-03     211.831E-03    -106.278E-03     14.0677E-03
             388     1.61837E-03     74.1445E-03    -115.682E+06    -259.254E+06    -104.560E+06     209.366E+03    -106.584E-03     213.022E-03    -106.438E-03     26.3040E-03    -106.669E-03     212.079E-03    -106.417E-03     25.7667E-03
             389     2.42746E-03     74.1804E-03    -109.081E+06    -244.074E+06    -88.1500E+06     437.978E+03    -106.683E-03     213.172E-03    -106.489E-03     38.2772E-03    -106.820E-03     212.311E-03    -106.417E-03     37.4625E-03
             390     3.23657E-03     74.2293E-03    -101.879E+06    -224.472E+06    -71.2317E+06     674.574E+03    -106.824E-03     213.337E-03    -106.513E-03     49.7311E-03    -107.035E-03     212.597E-03    -106.396E-03     48.6203E-03
             391     4.04592E-03     74.2903E-03    -94.0365E+06    -209.946E+06    -52.5437E+06     701.383E+03    -107.028E-03     213.574E-03    -106.546E-03     60.4431E-03    -107.325E-03     212.944E-03    -106.368E-03     59.0133E-03
             392     4.85525E-03     74.3630E-03    -85.5056E+06    -193.234E+06    -36.2160E+06     405.966E+03    -107.265E-03     213.829E-03    -106.565E-03     70.2102E-03    -107.663E-03     213.343E-03    -106.342E-03     68.4379E-03
             393     5.66459E-03     74.4454E-03    -77.3935E+06    -172.176E+06    -23.5676E+06     179.357E+03    -107.482E-03     214.043E-03    -106.561E-03     78.9121E-03    -108.006E-03     213.750E-03    -106.317E-03     76.7838E-03
             394     6.47399E-03     74.5370E-03    -69.9962E+06    -149.365E+06    -12.6397E+06     126.685E+03    -107.657E-03     214.207E-03    -106.550E-03     86.4074E-03    -108.328E-03     214.135E-03    -106.295E-03     83.9198E-03
             395     7.28326E-03     74.6356E-03    -62.8844E+06    -124.712E+06    -2.30472E+06     97.9918E+03    -107.758E-03     214.292E-03    -106.533E-03     92.5149E-03    -108.592E-03     214.466E-03    -106.273E-03     89.6752E-03
             396     8.09281E-03     74.7404E-03    -56.1722E+06    -99.9259E+06     7.97514E+06     158.105E+03    -107.772E-03     214.287E-03    -106.516E-03     97.0624E-03    -108.774E-03     214.713E-03    -106.250E-03     93.8965E-03
             397     8.90210E-03     74.8484E-03    -49.8805E+06    -71.2517E+06     18.0222E+06     153.438E+03    -107.699E-03     214.190E-03    -106.491E-03     99.8027E-03    -108.867E-03     214.876E-03    -106.225E-03     96.3581E-03
             398     9.71208E-03     74.9587E-03    -43.8853E+06    -44.5609E+06     27.9508E+06     295.367E+03    -107.552E-03     214.022E-03    -106.470E-03     100.148E-03    -108.854E-03     214.930E-03    -106.202E-03     96.4935E-03
             399     10.5212E-03     75.0672E-03    -38.1439E+06    -12.7920E+06     37.4321E+06     489.027E+03    -107.296E-03     213.738E-03    -106.443E-03     97.6338E-03    -108.689E-03     214.842E-03    -106.182E-03     93.8582E-03
             400     11.3311E-03     75.1717E-03    -32.3271E+06     16.7262E+06     47.1460E+06     396.845E+03    -106.878E-03     213.297E-03    -106.419E-03     91.9660E-03    -108.295E-03     214.522E-03    -106.161E-03     88.1571E-03
             401     12.1405E-03     75.2676E-03    -26.8093E+06     59.3793E+06     53.8539E+06     14.6438E+03    -106.216E-03     212.570E-03    -106.355E-03     83.4859E-03    -107.609E-03     213.923E-03    -106.133E-03     79.7257E-03
             402     12.9504E-03     75.3525E-03    -21.0479E+06     104.199E+06     66.4530E+06     189.015E+03    -105.594E-03     211.900E-03    -106.306E-03     72.8331E-03    -106.930E-03     213.339E-03    -106.094E-03     69.1774E-03
             403     13.7614E-03     75.4238E-03    -16.0286E+06     114.574E+06     75.8609E+06      356.56E+03    -105.545E-03     211.846E-03    -106.301E-03     58.3048E-03    -106.719E-03     213.150E-03    -106.064E-03     54.8039E-03
             404     14.5699E-03     75.4767E-03    -10.6645E+06     120.045E+06     87.0334E+06    -97.3229E+03    -105.411E-03     211.738E-03    -106.328E-03     44.8888E-03    -106.449E-03     212.912E-03    -106.051E-03     41.4860E-03
             405     15.3804E-03     75.5192E-03    -5.10201E+06     121.920E+06     97.6968E+06     156.899E+03    -105.258E-03     211.618E-03    -106.360E-03     20.9234E-03    -106.003E-03     212.494E-03    -106.041E-03     18.2372E-03
             406     809.322E-06     75.2942E-03    -120.913E+06    -265.282E+06    -118.104E+06    -631.057E+03    -106.503E-03     212.770E-03    -106.266E-03     14.3263E-03    -106.563E-03     211.801E-03    -106.297E-03     14.0295E-03
             407     1.61823E-03     75.3167E-03    -116.530E+06    -259.523E+06    -104.596E+06    -107.409E+03    -106.593E-03     213.024E-03    -106.431E-03     26.1573E-03    -106.682E-03     212.081E-03    -106.408E-03     25.6149E-03
             408     2.42736E-03     75.3524E-03    -110.038E+06    -244.729E+06    -88.6492E+06     94.3584E+03    -106.662E-03     213.145E-03    -106.484E-03     38.2245E-03    -106.802E-03     212.283E-03    -106.413E-03     37.4054E-03
             409     3.23676E-03     75.4013E-03    -102.200E+06    -224.792E+06    -71.4795E+06     338.693E+03    -106.827E-03     213.334E-03    -106.507E-03     49.7554E-03    -107.039E-03     212.592E-03    -106.390E-03     48.6406E-03
             410     4.04590E-03     75.4624E-03    -93.4830E+06    -209.756E+06    -52.4170E+06     234.182E+03    -107.062E-03     213.607E-03    -106.544E-03     60.4692E-03    -107.357E-03     212.977E-03    -106.367E-03     59.0330E-03
             411     4.85520E-03     75.5349E-03    -85.1825E+06    -193.079E+06    -36.3048E+06     157.123E+03    -107.281E-03     213.847E-03    -106.566E-03     70.2512E-03    -107.678E-03     213.362E-03    -106.344E-03     68.4756E-03
             412     5.66453E-03     75.6176E-03    -77.3089E+06    -172.114E+06    -23.6249E+06     176.777E+03    -107.492E-03     214.057E-03    -106.565E-03     78.9457E-03    -108.016E-03     213.763E-03    -106.321E-03     76.8166E-03
             413     6.47389E-03     75.7089E-03    -69.6188E+06    -149.152E+06    -12.6028E+06    -16.6296E+03    -107.650E-03     214.203E-03    -106.552E-03     86.4265E-03    -108.320E-03     214.132E-03    -106.298E-03     83.9363E-03
             414     7.28340E-03     75.8080E-03    -62.6258E+06    -124.836E+06    -2.35279E+06     13.2565E+03    -107.723E-03     214.256E-03    -106.533E-03     92.5429E-03    -108.555E-03     214.429E-03    -106.273E-03     89.7035E-03
             415     8.09280E-03     75.9122E-03    -56.1192E+06    -100.151E+06     7.75565E+06     176.338E+03    -107.761E-03     214.274E-03    -106.513E-03     97.1022E-03    -108.763E-03     214.698E-03    -106.247E-03     93.9371E-03
             416     8.90255E-03     76.0209E-03    -50.0132E+06    -71.1804E+06     17.8771E+06     256.298E+03    -107.738E-03     214.228E-03    -106.490E-03     99.7698E-03    -108.908E-03     214.916E-03    -106.225E-03     96.3236E-03
             417     9.71160E-03     76.1307E-03    -44.0149E+06    -44.9762E+06     27.7049E+06     268.027E+03    -107.599E-03     214.072E-03    -106.473E-03     100.087E-03    -108.902E-03     214.979E-03    -106.205E-03     96.4278E-03
             418     10.5214E-03     76.2398E-03    -37.7932E+06    -12.7453E+06     37.5711E+06     357.600E+03    -107.305E-03     213.752E-03    -106.448E-03     97.7264E-03    -108.698E-03     214.857E-03    -106.187E-03     93.9483E-03
             419     11.3305E-03     76.3439E-03    -31.8663E+06     17.0654E+06     47.3239E+06     145.544E+03    -106.842E-03     213.264E-03    -106.422E-03     92.0898E-03    -108.258E-03     214.491E-03    -106.164E-03     88.2777E-03
             420     12.1406E-03     76.4396E-03    -26.3538E+06     59.5429E+06     53.9622E+06     280.576E+03    -106.288E-03     212.647E-03    -106.359E-03     83.3007E-03    -107.680E-03     214.000E-03    -106.137E-03     79.5379E-03
             421     12.9508E-03     76.5240E-03    -21.4053E+06     103.772E+06     66.0593E+06     279.090E+03    -105.869E-03     212.190E-03    -106.321E-03     72.3145E-03    -107.206E-03     213.628E-03    -106.110E-03     68.6426E-03
             422     13.7594E-03     76.5965E-03    -15.8538E+06     114.756E+06      76.087E+06     69.9917E+03    -105.579E-03     211.905E-03    -106.326E-03     58.1640E-03    -106.753E-03     213.210E-03    -106.089E-03     54.6536E-03
             423     14.5693E-03     76.6501E-03    -10.4502E+06     120.190E+06     87.0856E+06     352.215E+03    -105.285E-03     211.633E-03    -106.348E-03     45.1773E-03    -106.321E-03     212.806E-03    -106.072E-03     41.7958E-03
             424     15.3780E-03     76.6909E-03    -5.20512E+06     121.717E+06     97.4556E+06     408.192E+03    -105.050E-03     211.420E-03    -106.370E-03     21.5088E-03    -105.795E-03     212.296E-03    -106.051E-03     18.8369E-03
             425     808.932E-06     76.4663E-03    -118.225E+06     -265.09E+06    -113.872E+06     181.994E+03    -106.486E-03     212.918E-03    -106.432E-03     14.6176E-03    -106.538E-03     211.940E-03    -106.445E-03     14.3305E-03
             426     1.61827E-03     76.4887E-03    -113.557E+06    -259.539E+06    -101.223E+06     131.384E+03    -106.503E-03     212.975E-03    -106.472E-03     26.2081E-03    -106.582E-03     212.023E-03    -106.437E-03     25.6688E-03
             427     2.42751E-03     76.5244E-03    -107.221E+06    -244.714E+06    -85.5472E+06    -17.0720E+03    -106.659E-03     213.150E-03    -106.490E-03     38.2616E-03    -106.790E-03     212.279E-03    -106.408E-03     37.4424E-03
             428     3.23659E-03     76.5733E-03    -99.8228E+06    -225.469E+06    -68.9077E+06     265.030E+03    -106.858E-03     213.372E-03    -106.514E-03     49.7738E-03    -107.061E-03     212.620E-03    -106.387E-03     48.6579E-03
             429     4.04597E-03     76.6345E-03    -92.4397E+06    -209.478E+06    -52.3938E+06     407.111E+03    -107.073E-03     213.616E-03    -106.543E-03     60.4559E-03    -107.363E-03     212.986E-03    -106.367E-03     59.0219E-03
             430     4.85521E-03     76.7070E-03    -84.6606E+06    -193.129E+06    -36.5372E+06     215.822E+03    -107.292E-03     213.858E-03    -106.566E-03     70.2468E-03    -107.686E-03     213.372E-03    -106.346E-03     68.4709E-03
             431     5.66458E-03     76.7896E-03    -76.7289E+06    -171.834E+06    -23.6263E+06     16.7014E+03    -107.488E-03     214.053E-03    -106.565E-03     79.0038E-03    -108.010E-03     213.761E-03    -106.323E-03     76.8723E-03
             432     6.47389E-03     76.8813E-03    -69.4565E+06    -149.119E+06    -12.8188E+06     74.0780E+03    -107.641E-03     214.193E-03    -106.551E-03     86.4609E-03    -108.310E-03     214.122E-03    -106.298E-03     83.9721E-03
             433     7.28330E-03     76.9798E-03    -62.7663E+06    -124.910E+06    -2.58284E+06     162.665E+03    -107.751E-03     214.284E-03    -106.533E-03     92.5179E-03    -108.583E-03     214.458E-03    -106.274E-03     89.6787E-03
             434     8.09289E-03     77.0846E-03    -56.4143E+06    -100.381E+06     7.45128E+06     184.968E+03    -107.815E-03     214.332E-03    -106.517E-03     97.0165E-03    -108.818E-03     214.757E-03    -106.253E-03     93.8477E-03
             435     8.90203E-03     77.1929E-03    -50.0190E+06    -71.1726E+06     17.7970E+06     204.587E+03    -107.759E-03     214.257E-03    -106.498E-03     99.7131E-03    -108.930E-03     214.946E-03    -106.233E-03     96.2633E-03
             436     9.71188E-03     77.3033E-03    -43.7377E+06    -44.8632E+06     27.8481E+06     86.4576E+03    -107.574E-03     214.055E-03    -106.481E-03     100.099E-03    -108.876E-03     214.962E-03    -106.214E-03     96.4374E-03
             437     10.5211E-03     77.4118E-03    -37.8167E+06    -13.2915E+06     37.1136E+06     94.1739E+03    -107.184E-03     213.633E-03    -106.448E-03     97.7285E-03    -108.575E-03     214.734E-03    -106.188E-03     93.9518E-03
             438     11.3313E-03     77.5164E-03    -32.3223E+06     17.4928E+06     47.2386E+06     512.016E+03    -106.827E-03     213.246E-03    -106.419E-03     92.1245E-03    -108.245E-03     214.474E-03    -106.161E-03     88.3241E-03
             439     12.1406E-03     77.6117E-03    -27.3582E+06     59.6107E+06     53.6321E+06     381.672E+03    -106.546E-03     212.909E-03    -106.363E-03     83.4581E-03    -107.945E-03     214.267E-03    -106.141E-03     79.6860E-03
             440     12.9493E-03     77.6972E-03    -21.5636E+06     103.536E+06     65.8646E+06     274.370E+03    -106.000E-03     212.336E-03    -106.336E-03     72.9220E-03    -107.342E-03     213.779E-03    -106.126E-03     69.2418E-03
             441     13.7597E-03     77.7688E-03    -15.9225E+06     114.640E+06     76.0345E+06     462.054E+03    -105.458E-03     211.799E-03    -106.340E-03     58.9802E-03    -106.636E-03     213.106E-03    -106.103E-03     55.4837E-03
             442     14.5700E-03     77.8217E-03    -10.7929E+06     120.344E+06     87.1833E+06     350.244E+03    -105.126E-03     211.480E-03    -106.354E-03     45.2788E-03    -106.164E-03     212.654E-03    -106.077E-03     41.9010E-03
             443     15.3810E-03     77.8642E-03    -5.09071E+06     122.323E+06     97.9308E+06     173.897E+03    -104.954E-03     211.323E-03    -106.369E-03     20.9886E-03    -105.699E-03     212.200E-03    -106.049E-03     18.3141E-03
             444     809.153E-06     77.6384E-03    -118.141E+06    -265.407E+06    -115.176E+06     223.150E+03    -106.535E-03     212.908E-03    -106.373E-03     14.5065E-03    -106.584E-03     211.930E-03    -106.393E-03     14.2205E-03
             445     1.61826E-03     77.6605E-03    -113.584E+06    -259.725E+06    -101.916E+06     222.134E+03    -106.500E-03     212.965E-03    -106.465E-03     26.2319E-03    -106.577E-03     212.012E-03    -106.434E-03     25.6946E-03
             446     2.42746E-03     77.6965E-03    -106.961E+06    -244.679E+06    -85.8043E+06     388.405E+03    -106.677E-03     213.164E-03    -106.487E-03     38.2628E-03    -106.806E-03     212.294E-03    -106.407E-03     37.4484E-03
             447     3.23674E-03     77.7454E-03    -99.7767E+06    -225.958E+06    -69.6793E+06     479.283E+03    -106.872E-03     213.385E-03    -106.514E-03     49.7702E-03    -107.072E-03     212.632E-03    -106.390E-03     48.6571E-03
             448     4.04585E-03     77.8066E-03    -92.1420E+06    -209.554E+06    -52.5941E+06     603.830E+03    -107.077E-03     213.622E-03    -106.546E-03     60.4626E-03    -107.365E-03     212.992E-03    -106.371E-03     59.0298E-03
             449     4.85520E-03     77.8791E-03    -84.2153E+06    -192.774E+06    -36.5821E+06     432.540E+03    -107.296E-03     213.865E-03    -106.568E-03     70.2458E-03    -107.689E-03     213.380E-03    -106.349E-03     68.4718E-03
             450     5.66448E-03     77.9618E-03    -76.6163E+06    -171.769E+06    -23.8798E+06     233.383E+03    -107.492E-03     214.059E-03    -106.567E-03     78.9497E-03    -108.013E-03     213.767E-03    -106.326E-03     76.8207E-03
             451     6.47399E-03     78.0532E-03    -69.6318E+06    -149.172E+06    -13.0179E+06     289.852E+03    -107.663E-03     214.219E-03    -106.556E-03     86.3612E-03    -108.332E-03     214.149E-03    -106.303E-03     83.8747E-03
             452     7.28338E-03     78.1521E-03    -62.8598E+06    -124.983E+06    -2.72700E+06     217.074E+03    -107.802E-03     214.343E-03    -106.542E-03     92.4684E-03    -108.635E-03     214.518E-03    -106.283E-03     89.6266E-03
             453     8.09254E-03     78.2567E-03    -56.1905E+06    -100.245E+06     7.47799E+06     154.131E+03    -107.824E-03     214.352E-03    -106.528E-03     97.0748E-03    -108.827E-03     214.778E-03    -106.264E-03     93.9043E-03
             454     8.90225E-03     78.3653E-03    -49.8762E+06    -71.1889E+06     17.6830E+06     122.548E+03    -107.719E-03     214.225E-03    -106.506E-03     99.8572E-03    -108.889E-03     214.914E-03    -106.242E-03     96.4080E-03
             455     9.71145E-03     78.4753E-03    -43.9455E+06    -45.0363E+06     27.5601E+06     123.744E+03    -107.519E-03     214.002E-03    -106.483E-03     100.205E-03    -108.822E-03     214.910E-03    -106.217E-03     96.5474E-03
             456     10.5214E-03     78.5842E-03    -38.2346E+06    -13.0453E+06     37.0984E+06     181.105E+03    -107.229E-03     213.680E-03    -106.451E-03     97.6269E-03    -108.622E-03     214.783E-03    -106.191E-03     93.8508E-03
             457     11.3307E-03     78.6879E-03    -32.1923E+06     16.7564E+06     46.9567E+06     318.338E+03    -106.858E-03     213.281E-03    -106.423E-03     92.0587E-03    -108.274E-03     214.506E-03    -106.166E-03     88.2529E-03
             458     12.1404E-03     78.7852E-03    -26.0572E+06     59.6713E+06     54.1882E+06     641.335E+03    -106.334E-03     212.697E-03    -106.362E-03     83.7225E-03    -107.727E-03     214.051E-03    -106.140E-03     79.9659E-03
             459     12.9507E-03     78.8691E-03    -21.3456E+06     103.756E+06     65.9951E+06     664.542E+03    -105.891E-03     212.215E-03    -106.324E-03     73.1495E-03    -107.232E-03     213.657E-03    -106.113E-03     69.4830E-03
             460     13.7603E-03     78.9411E-03    -16.1609E+06     114.506E+06     75.9684E+06     513.034E+03    -105.533E-03     211.861E-03    -106.328E-03     58.9022E-03    -106.712E-03     213.169E-03    -106.090E-03     55.4015E-03
             461     14.5689E-03     78.9949E-03    -10.3791E+06     120.865E+06     87.7879E+06     286.280E+03    -105.097E-03     211.442E-03    -106.345E-03     45.6496E-03    -106.138E-03     212.620E-03    -106.066E-03     42.2695E-03
             462     15.3776E-03     79.0355E-03    -5.11155E+06      122.45E+06     97.8508E+06     45.9903E+03    -105.023E-03     211.381E-03    -106.359E-03     21.4464E-03    -105.770E-03     212.261E-03    -106.039E-03     18.7705E-03
             463     809.063E-06     78.8101E-03    -118.388E+06    -265.411E+06    -114.917E+06    -140.592E+03    -106.543E-03     212.883E-03    -106.339E-03     14.2640E-03    -106.594E-03     211.905E-03    -106.357E-03     13.9720E-03
             464     1.61831E-03     78.8326E-03    -113.640E+06    -259.977E+06    -102.274E+06     41.7364E+03    -106.555E-03     213.021E-03    -106.465E-03     26.2368E-03    -106.632E-03     212.067E-03    -106.435E-03     25.6970E-03
             465     2.42741E-03     78.8684E-03    -107.226E+06    -245.415E+06    -86.6728E+06     284.096E+03    -106.705E-03     213.206E-03    -106.501E-03     38.2513E-03    -106.833E-03     212.334E-03    -106.423E-03     37.4338E-03
             466     3.23657E-03     78.9175E-03    -100.148E+06    -226.446E+06    -70.1485E+06     664.747E+03    -106.857E-03     213.385E-03    -106.528E-03     49.7080E-03    -107.058E-03     212.630E-03    -106.405E-03     48.5965E-03
             467     4.04593E-03     78.9787E-03    -92.2206E+06    -209.437E+06    -52.3840E+06     596.653E+03    -107.067E-03     213.623E-03    -106.556E-03     60.4302E-03    -107.356E-03     212.993E-03    -106.381E-03     58.9975E-03
             468     4.85517E-03     79.0512E-03    -84.1616E+06    -192.525E+06    -36.4081E+06     455.749E+03    -107.314E-03     213.891E-03    -106.577E-03     70.2224E-03    -107.707E-03     213.408E-03    -106.358E-03     68.4482E-03
             469     5.66452E-03     79.1339E-03    -76.6264E+06    -171.745E+06    -23.9248E+06     464.390E+03    -107.525E-03     214.104E-03    -106.578E-03     78.8972E-03    -108.046E-03     213.812E-03    -106.338E-03     76.7695E-03
             470     6.47371E-03     79.2254E-03    -69.3475E+06    -149.234E+06    -12.9802E+06     364.041E+03    -107.682E-03     214.251E-03    -106.569E-03     86.3864E-03    -108.350E-03     214.180E-03    -106.317E-03     83.8990E-03
             471     7.28304E-03     79.3243E-03    -62.4253E+06    -124.809E+06    -2.63491E+06     242.108E+03    -107.762E-03     214.313E-03    -106.552E-03     92.5738E-03    -108.593E-03     214.488E-03    -106.293E-03     89.7341E-03
             472     8.09272E-03     79.4289E-03    -56.0418E+06    -100.273E+06     7.42564E+06     220.827E+03    -107.776E-03     214.308E-03    -106.532E-03     97.1763E-03    -108.778E-03     214.734E-03    -106.268E-03     94.0091E-03
             473     8.90202E-03     79.5374E-03    -49.9945E+06    -71.2695E+06     17.5808E+06     321.159E+03    -107.689E-03     214.194E-03    -106.505E-03     99.9043E-03    -108.859E-03     214.883E-03    -106.241E-03     96.4595E-03
             474     9.71192E-03     79.6477E-03    -44.0705E+06    -44.7216E+06     27.7347E+06     302.941E+03    -107.535E-03     214.018E-03    -106.483E-03     100.202E-03    -108.839E-03     214.927E-03    -106.216E-03     96.5480E-03
             475     10.5212E-03     79.7562E-03    -38.2262E+06    -13.1196E+06     37.0822E+06     352.915E+03    -107.298E-03     213.750E-03    -106.453E-03     97.7666E-03    -108.692E-03     214.855E-03    -106.193E-03     93.9892E-03
             476     11.3307E-03     79.8611E-03    -32.7836E+06     16.6553E+06     46.6538E+06     139.647E+03    -106.844E-03     213.271E-03    -106.426E-03     92.2250E-03    -108.264E-03     214.498E-03    -106.170E-03     88.4147E-03
             477     12.1406E-03     79.9561E-03    -27.3768E+06     59.0156E+06     53.4355E+06     11.7229E+03    -106.237E-03     212.598E-03    -106.361E-03     83.5276E-03    -107.633E-03     213.951E-03    -106.140E-03     79.7653E-03
             478     12.9504E-03     80.0419E-03    -21.2565E+06     103.663E+06     66.1627E+06     619.308E+03    -105.760E-03     212.078E-03    -106.318E-03     72.9448E-03    -107.099E-03     213.518E-03    -106.107E-03     69.2829E-03
             479     13.7594E-03     80.1141E-03    -15.5937E+06     115.054E+06     76.2688E+06     652.615E+03    -105.353E-03     211.665E-03    -106.312E-03     58.8161E-03    -106.529E-03     212.974E-03    -106.075E-03     55.3244E-03
             480     14.5709E-03     80.1658E-03    -10.4467E+06     120.817E+06     87.5041E+06     351.498E+03    -105.134E-03     211.459E-03    -106.325E-03     45.5394E-03    -106.173E-03     212.637E-03    -106.048E-03     42.1607E-03
             481     15.3822E-03     80.2090E-03    -5.37843E+06     122.733E+06     98.0643E+06     249.895E+03    -105.335E-03     211.686E-03    -106.351E-03     21.0325E-03    -106.083E-03     212.566E-03    -106.031E-03     18.3510E-03
             482     809.183E-06     79.9824E-03    -117.992E+06    -265.410E+06    -114.660E+06     120.181E+03    -106.520E-03     212.936E-03    -106.416E-03     14.2497E-03    -106.569E-03     211.957E-03    -106.434E-03     13.9574E-03
             483     1.61817E-03     80.0045E-03    -113.665E+06    -259.980E+06    -102.095E+06     231.829E+03    -106.592E-03     213.086E-03    -106.494E-03     26.2168E-03    -106.669E-03     212.132E-03    -106.463E-03     25.6783E-03
             484     2.42736E-03     80.0407E-03    -107.288E+06    -246.327E+06    -84.7512E+06     383.176E+03    -106.699E-03     213.236E-03    -106.537E-03     38.2625E-03    -106.828E-03     212.356E-03    -106.448E-03     37.4463E-03
             485     3.23653E-03     80.0895E-03    -99.7130E+06    -226.985E+06    -67.8636E+06     659.382E+03    -106.858E-03     213.415E-03    -106.557E-03     49.7361E-03    -107.060E-03     212.654E-03    -106.423E-03     48.6239E-03
             486     4.04577E-03     80.1507E-03    -91.8295E+06    -209.062E+06    -51.9822E+06     606.505E+03    -107.080E-03     213.652E-03    -106.573E-03     60.4743E-03    -107.368E-03     213.023E-03    -106.396E-03     59.0412E-03
             487     4.85507E-03     80.2234E-03    -83.9620E+06    -192.703E+06    -36.4072E+06     501.128E+03    -107.320E-03     213.911E-03    -106.591E-03     70.2406E-03    -107.712E-03     213.426E-03    -106.372E-03     68.4670E-03
             488     5.66430E-03     80.3060E-03    -76.3105E+06    -171.741E+06    -23.8086E+06     527.336E+03    -107.510E-03     214.099E-03    -106.589E-03     78.9650E-03    -108.030E-03     213.807E-03    -106.349E-03     76.8390E-03
             489     6.47378E-03     80.3976E-03    -69.1128E+06    -149.192E+06    -12.9533E+06     493.498E+03    -107.650E-03     214.224E-03    -106.574E-03     86.4992E-03    -108.317E-03     214.154E-03    -106.323E-03     84.0144E-03
             490     7.28330E-03     80.4964E-03    -62.4850E+06    -124.782E+06    -2.64697E+06     579.815E+03    -107.731E-03     214.284E-03    -106.553E-03     92.6351E-03    -108.563E-03     214.459E-03    -106.295E-03     89.8017E-03
             491     8.09261E-03     80.6011E-03    -56.2793E+06    -100.191E+06     7.47322E+06     531.826E+03    -107.762E-03     214.292E-03    -106.531E-03     97.2072E-03    -108.765E-03     214.719E-03    -106.267E-03     94.0449E-03
             492     8.90227E-03     80.7096E-03    -50.1559E+06    -71.3825E+06     17.5625E+06     453.554E+03    -107.711E-03     214.215E-03    -106.505E-03     99.8801E-03    -108.882E-03     214.904E-03    -106.240E-03     96.4363E-03
             493     9.71154E-03     80.8197E-03    -44.1530E+06    -44.6937E+06     27.7014E+06     525.737E+03    -107.532E-03     214.015E-03    -106.483E-03     100.239E-03    -108.836E-03     214.923E-03    -106.215E-03     96.5883E-03
             494     10.5212E-03     80.9289E-03    -38.3726E+06    -12.9584E+06     37.1656E+06     324.400E+03    -107.234E-03     213.684E-03    -106.450E-03     97.9028E-03    -108.629E-03     214.790E-03    -106.190E-03     94.1276E-03
             495     11.3311E-03     81.0327E-03    -32.5250E+06     16.8452E+06     46.8829E+06     445.391E+03    -106.875E-03     213.297E-03    -106.423E-03     92.1331E-03    -108.294E-03     214.525E-03    -106.166E-03     88.3248E-03
             496     12.1404E-03     81.1292E-03    -27.0550E+06     59.2261E+06     53.7806E+06     293.795E+03    -106.342E-03     212.705E-03    -106.363E-03     83.5894E-03    -107.739E-03     214.060E-03    -106.141E-03     79.8237E-03
             497     12.9498E-03     81.2136E-03    -21.9411E+06     103.091E+06     65.8238E+06    -148.857E+03    -105.713E-03     212.034E-03    -106.321E-03     73.1161E-03    -107.055E-03     213.473E-03    -106.109E-03     69.4465E-03
             498     13.7614E-03     81.2858E-03    -16.2720E+06     114.933E+06     76.1158E+06     294.792E+03    -105.423E-03     211.739E-03    -106.316E-03     58.2741E-03    -106.600E-03     213.045E-03    -106.078E-03     54.7751E-03
             499     14.5694E-03     81.3387E-03    -10.6072E+06     121.165E+06     87.7883E+06     578.933E+03    -105.282E-03     211.618E-03    -106.336E-03     44.9300E-03    -106.321E-03     212.795E-03    -106.058E-03     41.5468E-03
             500     15.3769E-03     81.3816E-03    -5.24641E+06     122.840E+06     98.1188E+06     316.914E+03    -105.179E-03     211.540E-03    -106.361E-03     21.0615E-03    -105.926E-03     212.420E-03    -106.041E-03     18.3851E-03
             501     809.026E-06     81.1544E-03    -119.197E+06    -266.478E+06    -115.377E+06     493.501E+03    -106.536E-03     213.003E-03    -106.467E-03     14.4009E-03    -106.589E-03     212.021E-03    -106.485E-03     14.1142E-03
             502     1.61815E-03     81.1768E-03    -114.787E+06    -260.510E+06    -102.050E+06     862.619E+03    -106.590E-03     213.115E-03    -106.525E-03     26.2119E-03    -106.671E-03     212.160E-03    -106.491E-03     25.6810E-03
             503     2.42726E-03     81.2126E-03    -107.993E+06    -246.536E+06    -84.6945E+06     747.288E+03    -106.675E-03     213.230E-03    -106.555E-03     38.2931E-03    -106.808E-03     212.350E-03    -106.464E-03     37.4814E-03
             504     3.23657E-03     81.2616E-03    -100.054E+06    -227.108E+06    -67.8933E+06     559.687E+03    -106.857E-03     213.423E-03    -106.566E-03     49.7845E-03    -107.060E-03     212.662E-03    -106.431E-03     48.6712E-03
             505     4.04577E-03     81.3229E-03    -91.9799E+06    -209.127E+06    -51.9839E+06     517.413E+03    -107.087E-03     213.667E-03    -106.580E-03     60.5706E-03    -107.376E-03     213.038E-03    -106.403E-03     59.1369E-03
             506     4.85501E-03     81.3955E-03    -84.1091E+06    -193.035E+06    -36.5255E+06     627.156E+03    -107.306E-03     213.902E-03    -106.596E-03     70.3544E-03    -107.698E-03     213.416E-03    -106.377E-03     68.5835E-03
             507     5.66443E-03     81.4782E-03    -76.6002E+06    -171.799E+06    -23.9104E+06      752.16E+03    -107.487E-03     214.078E-03    -106.591E-03     79.0131E-03    -108.008E-03     213.786E-03    -106.350E-03     76.8910E-03
             508     6.47378E-03     81.5696E-03    -69.4657E+06    -149.177E+06    -12.9053E+06     769.489E+03    -107.640E-03     214.214E-03    -106.574E-03     86.4800E-03    -108.308E-03     214.144E-03    -106.322E-03     83.9998E-03
             509     7.28311E-03     81.6686E-03    -62.7251E+06    -124.974E+06    -2.64783E+06     746.429E+03    -107.752E-03     214.306E-03    -106.553E-03     92.5884E-03    -108.585E-03     214.480E-03    -106.294E-03     89.7560E-03
             510     8.09272E-03     81.7732E-03    -56.1782E+06    -100.017E+06     7.62460E+06     706.245E+03    -107.776E-03     214.309E-03    -106.533E-03     97.1468E-03    -108.779E-03     214.736E-03    -106.269E-03     93.9860E-03
             511     8.90208E-03     81.8818E-03    -49.9817E+06    -71.4146E+06     17.7618E+06     643.104E+03    -107.690E-03     214.197E-03    -106.507E-03     99.8977E-03    -108.860E-03     214.884E-03    -106.242E-03     96.4573E-03
             512     9.71174E-03     81.9921E-03    -43.9507E+06    -44.7822E+06     27.7776E+06     556.420E+03    -107.521E-03     214.005E-03    -106.483E-03     100.234E-03    -108.825E-03     214.913E-03    -106.216E-03     96.5816E-03
             513     10.5215E-03     82.1006E-03    -38.0730E+06    -12.7617E+06     37.3424E+06     645.330E+03    -107.212E-03     213.661E-03    -106.449E-03     97.8083E-03    -108.606E-03     214.766E-03    -106.189E-03     94.0383E-03
             514     11.3306E-03     82.2057E-03    -32.5617E+06     17.0272E+06     46.9898E+06     311.838E+03    -106.819E-03     213.239E-03    -106.419E-03     92.2498E-03    -108.239E-03     214.467E-03    -106.162E-03     88.4432E-03
             515     12.1406E-03     82.3008E-03    -26.9038E+06     59.3570E+06     53.7632E+06     214.549E+03    -106.426E-03     212.785E-03    -106.360E-03     83.5709E-03    -107.823E-03     214.142E-03    -106.138E-03     79.8004E-03
             516     12.9510E-03     82.3861E-03    -21.5253E+06     103.253E+06     65.9305E+06     431.234E+03    -106.008E-03     212.338E-03    -106.330E-03     72.7091E-03    -107.348E-03     213.777E-03    -106.119E-03     69.0322E-03
             517     13.7585E-03     82.4583E-03    -16.5649E+06     114.667E+06     75.9350E+06    -30.9835E+03    -105.577E-03     211.915E-03    -106.339E-03     58.4152E-03    -106.756E-03     213.223E-03    -106.101E-03     54.9045E-03
             518     14.5695E-03     82.5115E-03    -10.8350E+06     120.944E+06     87.4430E+06     199.620E+03    -105.071E-03     211.426E-03    -106.355E-03     45.2255E-03    -106.111E-03     212.604E-03    -106.078E-03     41.8459E-03
             519     15.3820E-03     82.5532E-03    -5.06305E+06     123.225E+06     98.2065E+06     479.153E+03    -104.974E-03     211.343E-03    -106.369E-03     21.2718E-03    -105.721E-03     212.224E-03    -106.049E-03     18.6054E-03
             520     809.090E-06     82.3268E-03    -120.957E+06    -267.845E+06    -117.014E+06     475.837E+03    -106.554E-03     212.980E-03    -106.426E-03     14.5968E-03    -106.612E-03     211.996E-03    -106.447E-03     14.3121E-03
             521     1.61812E-03     82.3488E-03    -115.361E+06    -261.436E+06    -103.218E+06     591.717E+03    -106.602E-03     213.120E-03    -106.518E-03     26.2234E-03    -106.684E-03     212.163E-03    -106.487E-03     25.6878E-03
             522     2.42737E-03     82.3848E-03    -108.530E+06    -246.538E+06    -87.5496E+06     660.144E+03    -106.694E-03     213.238E-03    -106.544E-03     38.2870E-03    -106.825E-03     212.363E-03    -106.467E-03     37.4747E-03
             523     3.23646E-03     82.4337E-03    -100.936E+06    -227.037E+06    -70.5849E+06     350.016E+03    -106.862E-03     213.421E-03    -106.559E-03     49.8158E-03    -107.066E-03     212.665E-03    -106.436E-03     48.7004E-03
             524     4.04579E-03     82.4950E-03    -92.8752E+06    -209.803E+06    -52.5862E+06     497.897E+03    -107.071E-03     213.654E-03    -106.583E-03     60.5407E-03    -107.362E-03     213.023E-03    -106.407E-03     59.1074E-03
             525     4.85512E-03     82.5677E-03    -84.8499E+06    -193.063E+06    -36.4219E+06     733.519E+03    -107.282E-03     213.880E-03    -106.598E-03     70.2979E-03    -107.678E-03     213.395E-03    -106.377E-03     68.5287E-03
             526     5.66438E-03     82.6503E-03    -76.9218E+06    -172.070E+06    -23.7528E+06     757.618E+03    -107.481E-03     214.072E-03    -106.591E-03     78.9847E-03    -108.003E-03     213.779E-03    -106.349E-03     76.8620E-03
             527     6.47376E-03     82.7418E-03    -69.5205E+06    -149.146E+06    -12.7485E+06     756.175E+03    -107.655E-03     214.230E-03    -106.574E-03     86.5061E-03    -108.325E-03     214.160E-03    -106.321E-03     84.0245E-03
             528     7.28327E-03     82.8407E-03    -62.5798E+06    -125.083E+06    -2.51727E+06     673.573E+03    -107.772E-03     214.327E-03    -106.555E-03     92.6505E-03    -108.605E-03     214.501E-03    -106.296E-03     89.8157E-03
             529     8.09250E-03     82.9454E-03    -56.0633E+06    -100.195E+06     7.65772E+06     827.157E+03    -107.790E-03     214.326E-03    -106.536E-03     97.1977E-03    -108.793E-03     214.752E-03    -106.271E-03     94.0376E-03
             530     8.90213E-03     83.0539E-03    -49.8420E+06    -71.1670E+06     18.0102E+06     783.787E+03    -107.700E-03     214.211E-03    -106.511E-03     99.8857E-03    -108.871E-03     214.900E-03    -106.245E-03     96.4449E-03
             531     9.71175E-03     83.1641E-03    -43.8992E+06    -44.5945E+06     27.9773E+06     734.615E+03    -107.534E-03     214.022E-03    -106.488E-03     100.182E-03    -108.838E-03     214.931E-03    -106.220E-03     96.5305E-03
             532     10.5209E-03     83.2733E-03    -38.0999E+06    -12.9043E+06     37.3072E+06     553.276E+03    -107.211E-03     213.665E-03    -106.454E-03     97.7415E-03    -108.605E-03     214.770E-03    -106.194E-03     93.9692E-03
             533     11.3313E-03     83.3770E-03    -32.1439E+06     17.2914E+06     47.2448E+06     560.676E+03    -106.828E-03     213.252E-03    -106.425E-03     92.0664E-03    -108.245E-03     214.480E-03    -106.167E-03     88.2628E-03
             534     12.1408E-03     83.4739E-03    -27.2526E+06     59.4331E+06     53.8290E+06     442.172E+03    -106.478E-03     212.845E-03    -106.367E-03     83.5527E-03    -107.877E-03     214.202E-03    -106.145E-03     79.7840E-03
             535     12.9488E-03     83.5587E-03    -21.8370E+06     103.051E+06     65.9010E+06     288.609E+03    -105.938E-03     212.275E-03    -106.336E-03     73.1245E-03    -107.282E-03     213.715E-03    -106.125E-03     69.4486E-03
             536     13.7607E-03     83.6308E-03    -15.8949E+06     115.313E+06     76.6167E+06     523.205E+03    -105.465E-03     211.804E-03    -106.339E-03     59.1442E-03    -106.646E-03     213.116E-03    -106.100E-03     55.6479E-03
             537     14.5694E-03     83.6835E-03    -11.2234E+06     120.695E+06     87.3391E+06     63.0732E+03    -105.238E-03     211.593E-03    -106.355E-03     45.3332E-03    -106.281E-03     212.772E-03    -106.077E-03     41.9463E-03
             538     15.3769E-03     83.7252E-03    -5.17319E+06     123.116E+06     98.0432E+06     7.83072E+03    -104.855E-03     211.224E-03    -106.369E-03     21.1160E-03    -105.602E-03     212.105E-03    -106.050E-03     18.4370E-03
             539     809.170E-06     83.4988E-03    -118.005E+06    -268.831E+06    -115.376E+06     529.213E+03    -106.569E-03     212.958E-03    -106.389E-03     14.6449E-03    -106.613E-03     211.963E-03    -106.405E-03     14.3626E-03
             540     1.61824E-03     83.5211E-03    -114.186E+06    -261.453E+06    -104.044E+06     116.702E+03    -106.606E-03     213.101E-03    -106.495E-03     26.2014E-03    -106.681E-03     212.144E-03    -106.471E-03     25.6599E-03
             541     2.42722E-03     83.5568E-03    -108.071E+06    -246.815E+06    -88.0137E+06     124.763E+03    -106.727E-03     213.262E-03    -106.534E-03     38.3148E-03    -106.855E-03     212.385E-03    -106.460E-03     37.4957E-03
             542     3.23656E-03     83.6058E-03    -100.923E+06    -227.270E+06    -70.7873E+06     460.425E+03    -106.893E-03     213.454E-03    -106.561E-03     49.8486E-03    -107.096E-03     212.697E-03    -106.439E-03     48.7342E-03
             543     4.04569E-03     83.6672E-03    -93.2514E+06    -210.211E+06    -52.9894E+06     399.411E+03    -107.083E-03     213.671E-03    -106.588E-03     60.5272E-03    -107.375E-03     213.039E-03    -106.413E-03     59.0914E-03
             544     4.85497E-03     83.7397E-03    -84.9715E+06    -193.306E+06    -36.6092E+06     437.014E+03    -107.273E-03     213.877E-03    -106.604E-03     70.2829E-03    -107.670E-03     213.392E-03    -106.383E-03     68.5087E-03
             545     5.66441E-03     83.8225E-03    -76.8934E+06    -172.134E+06    -23.5473E+06     546.821E+03    -107.471E-03     214.066E-03    -106.596E-03     78.9708E-03    -107.993E-03     213.773E-03    -106.352E-03     76.8449E-03
             546     6.47382E-03     83.9139E-03    -69.3886E+06    -149.379E+06    -12.7567E+06     563.521E+03    -107.650E-03     214.226E-03    -106.577E-03     86.4878E-03    -108.318E-03     214.155E-03    -106.324E-03     84.0033E-03
             547     7.28309E-03     84.0130E-03    -62.5401E+06    -125.176E+06    -2.45013E+06     756.317E+03    -107.756E-03     214.313E-03    -106.557E-03     92.6436E-03    -108.588E-03     214.486E-03    -106.297E-03     89.8106E-03
             548     8.09274E-03     84.1175E-03    -55.9874E+06    -100.522E+06     7.68253E+06     777.985E+03    -107.795E-03     214.332E-03    -106.537E-03     97.1990E-03    -108.798E-03     214.757E-03    -106.271E-03     94.0373E-03
             549     8.90210E-03     84.2262E-03    -49.6503E+06    -71.1222E+06     18.0528E+06     857.974E+03    -107.736E-03     214.248E-03    -106.513E-03     99.9523E-03    -108.906E-03     214.938E-03    -106.247E-03     96.5112E-03
             550     9.71137E-03     84.3365E-03    -43.5079E+06    -44.5482E+06     28.1459E+06     825.933E+03    -107.560E-03     214.052E-03    -106.492E-03     100.290E-03    -108.864E-03     214.962E-03    -106.224E-03     96.6393E-03
             551     10.5216E-03     84.4451E-03    -37.7242E+06    -12.5499E+06     37.5713E+06     803.635E+03    -107.295E-03     213.757E-03    -106.462E-03     97.7153E-03    -108.689E-03     214.863E-03    -106.201E-03     93.9426E-03
             552     11.3303E-03     84.5499E-03    -32.4493E+06     16.8967E+06     47.0348E+06     733.947E+03    -106.884E-03     213.320E-03    -106.436E-03     92.1496E-03    -108.303E-03     214.548E-03    -106.179E-03     88.3447E-03
             553     12.1398E-03     84.6457E-03    -26.6898E+06     59.6908E+06     54.0195E+06     940.899E+03    -106.213E-03     212.584E-03    -106.371E-03     83.8863E-03    -107.609E-03     213.940E-03    -106.149E-03     80.1386E-03
             554     12.9515E-03     84.7314E-03    -21.6865E+06     103.689E+06     65.9025E+06     610.499E+03    -105.712E-03     212.035E-03    -106.322E-03     73.2556E-03    -107.054E-03     213.476E-03    -106.112E-03     69.5994E-03
             555     13.7595E-03     84.8024E-03    -16.7226E+06     114.485E+06     75.4175E+06     259.418E+03    -105.482E-03     211.799E-03    -106.317E-03     59.0209E-03    -106.663E-03     213.109E-03    -106.082E-03     55.5204E-03
             556     14.5699E-03     84.8571E-03    -10.6258E+06     121.242E+06     87.5257E+06     647.864E+03    -105.160E-03     211.496E-03    -106.335E-03     45.7515E-03    -106.203E-03     212.677E-03    -106.058E-03     42.3764E-03
             557     15.3812E-03     84.8976E-03    -5.15984E+06       123.7E+06     98.5123E+06    -86.0676E+03    -105.093E-03     211.449E-03    -106.356E-03     21.2547E-03    -105.843E-03     212.334E-03    -106.035E-03     18.5740E-03
             558     808.996E-06     84.6709E-03    -118.416E+06    -269.360E+06    -115.518E+06     390.375E+03    -106.588E-03     212.985E-03    -106.397E-03     14.5719E-03    -106.632E-03     211.988E-03    -106.412E-03     14.2873E-03
             559     1.61818E-03     84.6932E-03    -113.902E+06    -260.773E+06    -102.922E+06    -20.3162E+03    -106.555E-03     213.055E-03    -106.500E-03     26.2035E-03    -106.631E-03     212.099E-03    -106.471E-03     25.6619E-03
             560     2.42747E-03     84.7290E-03    -107.391E+06    -247.366E+06    -85.4416E+06     49.9397E+03    -106.750E-03     213.290E-03    -106.540E-03     38.3323E-03    -106.878E-03     212.406E-03    -106.453E-03     37.5118E-03
             561     3.23642E-03     84.7781E-03    -99.7927E+06    -227.909E+06    -68.5059E+06     514.063E+03    -106.916E-03     213.488E-03    -106.572E-03     49.8272E-03    -107.116E-03     212.723E-03    -106.439E-03     48.7127E-03
             562     4.04575E-03     84.8393E-03    -92.2332E+06    -209.693E+06    -52.6556E+06     624.414E+03    -107.079E-03     213.668E-03    -106.589E-03     60.5453E-03    -107.367E-03     213.037E-03    -106.415E-03     59.1116E-03
             563     4.85503E-03     84.9119E-03    -84.5228E+06    -193.669E+06    -36.8622E+06     360.386E+03    -107.293E-03     213.898E-03    -106.604E-03     70.3325E-03    -107.687E-03     213.410E-03    -106.385E-03     68.5566E-03
             564     5.66432E-03     84.9945E-03    -76.6588E+06    -172.433E+06    -23.7776E+06     443.146E+03    -107.494E-03     214.093E-03    -106.599E-03     79.0173E-03    -108.015E-03     213.798E-03    -106.356E-03     76.8892E-03
             565     6.47365E-03     85.0862E-03    -69.5029E+06    -149.681E+06    -12.8145E+06     684.429E+03    -107.651E-03     214.233E-03    -106.582E-03     86.5085E-03    -108.320E-03     214.161E-03    -106.328E-03     84.0256E-03
             566     7.28324E-03     85.1850E-03    -62.5618E+06    -125.328E+06    -2.37348E+06     665.367E+03    -107.746E-03     214.308E-03    -106.561E-03     92.6311E-03    -108.579E-03     214.480E-03    -106.301E-03     89.7972E-03
             567     8.09252E-03     85.2898E-03    -55.9496E+06    -100.609E+06     7.76338E+06     659.647E+03    -107.783E-03     214.322E-03    -106.540E-03     97.2256E-03    -108.785E-03     214.746E-03    -106.274E-03     94.0636E-03
             568     8.90204E-03     85.3984E-03    -49.6687E+06    -71.5006E+06     17.9939E+06     773.081E+03    -107.728E-03     214.243E-03    -106.514E-03     99.9504E-03    -108.898E-03     214.930E-03    -106.248E-03     96.5092E-03
             569     9.71197E-03     85.5086E-03    -43.7137E+06    -44.6795E+06     28.1085E+06     899.992E+03    -107.582E-03     214.076E-03    -106.494E-03     100.274E-03    -108.887E-03     214.985E-03    -106.225E-03     96.6242E-03
             570     10.5205E-03     85.6178E-03    -38.0639E+06    -12.6882E+06     37.6157E+06     1.02577E+06    -107.277E-03     213.741E-03    -106.464E-03     97.9448E-03    -108.673E-03     214.848E-03    -106.202E-03     94.1762E-03
             571     11.3310E-03     85.7220E-03    -32.4030E+06     17.1326E+06     47.4214E+06     1.08697E+06    -106.836E-03     213.272E-03    -106.436E-03     92.3688E-03    -108.258E-03     214.503E-03    -106.177E-03     88.5684E-03
             572     12.1410E-03     85.8180E-03    -27.2206E+06     59.5736E+06     53.8117E+06     792.688E+03    -106.303E-03     212.673E-03    -106.371E-03     83.5187E-03    -107.701E-03     214.031E-03    -106.148E-03     79.7597E-03
             573     12.9495E-03     85.9026E-03    -21.5066E+06     104.065E+06     66.0902E+06     750.865E+03    -105.763E-03     212.092E-03    -106.328E-03     72.7670E-03    -107.104E-03     213.534E-03    -106.117E-03     69.1038E-03
             574     13.7607E-03     85.9763E-03    -15.9150E+06     115.269E+06     76.0390E+06     416.058E+03    -105.330E-03     211.651E-03    -106.321E-03     58.5224E-03    -106.508E-03     212.961E-03    -106.085E-03     55.0239E-03
             575     14.5701E-03     86.0276E-03    -10.4139E+06     121.448E+06     87.7996E+06    -446.786E+03    -105.037E-03     211.369E-03    -106.333E-03     44.8424E-03    -106.077E-03     212.549E-03    -106.055E-03     41.4439E-03
             576     15.3792E-03     86.0704E-03    -5.19381E+06     123.768E+06     98.6005E+06     67.4643E+03    -105.245E-03     211.599E-03    -106.355E-03     20.6139E-03    -105.993E-03     212.483E-03    -106.034E-03     17.9276E-03
             577     809.058E-06     85.8431E-03    -118.638E+06    -269.643E+06    -115.466E+06     27.1745E+03    -106.537E-03     212.986E-03    -106.449E-03     14.4295E-03    -106.583E-03     211.989E-03    -106.463E-03     14.1398E-03
             578     1.61825E-03     85.8651E-03    -114.513E+06    -260.705E+06    -102.431E+06     106.070E+03    -106.581E-03     213.092E-03    -106.510E-03     26.2670E-03    -106.661E-03     212.136E-03    -106.478E-03     25.7256E-03
             579     2.42724E-03     85.9013E-03    -107.984E+06    -247.726E+06    -85.5908E+06     208.482E+03    -106.736E-03     213.286E-03    -106.550E-03     38.3148E-03    -106.866E-03     212.401E-03    -106.462E-03     37.4963E-03
             580     3.23653E-03     85.9502E-03    -100.336E+06    -228.699E+06    -69.3400E+06     436.499E+03    -106.880E-03     213.450E-03    -106.571E-03     49.8029E-03    -107.080E-03     212.684E-03    -106.440E-03     48.6876E-03
             581     4.04572E-03     86.0114E-03    -92.2295E+06    -209.691E+06    -52.6514E+06     633.287E+03    -107.076E-03     213.662E-03    -106.586E-03     60.5377E-03    -107.364E-03     213.031E-03    -106.411E-03     59.1049E-03
             582     4.85504E-03     86.0840E-03    -84.2529E+06    -193.398E+06    -36.5016E+06     645.246E+03    -107.294E-03     213.896E-03    -106.602E-03     70.3372E-03    -107.686E-03     213.409E-03    -106.382E-03     68.5655E-03
             583     5.66435E-03     86.1667E-03    -76.8156E+06    -172.838E+06    -23.9293E+06     583.892E+03    -107.500E-03     214.097E-03    -106.596E-03     79.0833E-03    -108.021E-03     213.801E-03    -106.354E-03     76.9571E-03
             584     6.47378E-03     86.2582E-03    -69.4817E+06    -149.992E+06    -12.7583E+06     686.102E+03    -107.675E-03     214.257E-03    -106.582E-03     86.5917E-03    -108.343E-03     214.183E-03    -106.328E-03     84.1078E-03
             585     7.28300E-03     86.3573E-03    -62.6161E+06    -125.335E+06    -2.31380E+06     772.582E+03    -107.780E-03     214.344E-03    -106.564E-03     92.6912E-03    -108.613E-03     214.516E-03    -106.303E-03     89.8569E-03
             586     8.09265E-03     86.4619E-03    -56.2649E+06    -100.533E+06     7.73379E+06     638.189E+03    -107.809E-03     214.354E-03    -106.545E-03     97.2217E-03    -108.813E-03     214.779E-03    -106.278E-03     94.0577E-03
             587     8.90217E-03     86.5706E-03    -50.1007E+06    -71.8850E+06     17.7843E+06     670.253E+03    -107.744E-03     214.265E-03    -106.521E-03     99.9124E-03    -108.915E-03     214.952E-03    -106.255E-03     96.4677E-03
             588     9.71112E-03     86.6810E-03    -44.0354E+06    -45.1195E+06     27.8466E+06     1.01480E+06    -107.526E-03     214.025E-03    -106.498E-03     100.247E-03    -108.831E-03     214.932E-03    -106.230E-03     96.5985E-03
             589     10.5218E-03     86.7898E-03    -37.9775E+06    -12.6885E+06     37.6354E+06     1.00457E+06    -107.212E-03     213.676E-03    -106.464E-03     97.8258E-03    -108.607E-03     214.782E-03    -106.202E-03     94.0574E-03
             590     11.3308E-03     86.8943E-03    -32.2045E+06     16.5380E+06     47.0910E+06     856.558E+03    -106.897E-03     213.332E-03    -106.435E-03     92.0796E-03    -108.315E-03     214.559E-03    -106.177E-03     88.2725E-03
             591     12.1398E-03     86.9903E-03    -26.3333E+06     59.7340E+06     54.1322E+06     1.31858E+06    -106.464E-03     212.842E-03    -106.379E-03     83.5212E-03    -107.861E-03     214.201E-03    -106.157E-03     79.7598E-03
             592     12.9502E-03     87.0756E-03    -21.2577E+06     105.023E+06     66.4940E+06     865.499E+03    -105.833E-03     212.176E-03    -106.343E-03     73.0117E-03    -107.178E-03     213.625E-03    -106.132E-03     69.3439E-03
             593     13.7592E-03     87.1470E-03    -15.8743E+06     116.075E+06     77.0014E+06     19.6352E+03    -105.235E-03     211.573E-03    -106.338E-03     58.6156E-03    -106.414E-03     212.884E-03    -106.098E-03     55.1207E-03
             594     14.5696E-03     87.2011E-03    -10.4415E+06     121.420E+06     88.1338E+06     324.370E+03    -105.069E-03     211.413E-03    -106.344E-03     45.5698E-03    -106.109E-03     212.591E-03    -106.064E-03     42.2020E-03
             595     15.3793E-03     87.2426E-03    -5.49837E+06     123.493E+06     97.9349E+06     323.676E+03    -105.147E-03     211.506E-03    -106.359E-03     21.4006E-03    -105.896E-03     212.390E-03    -106.040E-03     18.7320E-03
             596     809.130E-06     87.0147E-03    -118.831E+06    -269.732E+06    -115.680E+06     77.1498E+03    -106.561E-03     213.015E-03    -106.454E-03     14.3263E-03    -106.607E-03     212.017E-03    -106.469E-03     14.0368E-03
             597     1.61814E-03     87.0375E-03    -114.159E+06    -260.975E+06    -103.094E+06     141.789E+03    -106.629E-03     213.156E-03    -106.527E-03     26.2808E-03    -106.705E-03     212.200E-03    -106.499E-03     25.7410E-03
             598     2.42728E-03     87.0733E-03    -107.794E+06    -248.069E+06    -86.0047E+06     350.134E+03    -106.695E-03     213.260E-03    -106.564E-03     38.2597E-03    -106.823E-03     212.374E-03    -106.479E-03     37.4427E-03
             599     3.23650E-03     87.1223E-03    -100.433E+06    -228.964E+06    -69.4542E+06     429.245E+03    -106.833E-03     213.404E-03    -106.572E-03     49.8160E-03    -107.033E-03     212.637E-03    -106.441E-03     48.7012E-03
             600     4.04578E-03     87.1836E-03    -92.6753E+06    -210.140E+06    -53.1227E+06     532.424E+03    -107.063E-03     213.642E-03    -106.579E-03     60.5763E-03    -107.352E-03     213.010E-03    -106.406E-03     59.1428E-03
             601     4.85502E-03     87.2561E-03    -84.7349E+06    -193.585E+06    -36.6267E+06     699.803E+03    -107.295E-03     213.891E-03    -106.597E-03     70.3727E-03    -107.689E-03     213.404E-03    -106.376E-03     68.6018E-03
             602     5.66444E-03     87.3388E-03    -76.8648E+06    -172.847E+06    -23.6810E+06     671.560E+03    -107.518E-03     214.111E-03    -106.594E-03     79.0789E-03    -108.039E-03     213.815E-03    -106.350E-03     76.9533E-03
             603     6.47372E-03     87.4304E-03    -69.4708E+06    -150.222E+06    -12.7722E+06     648.690E+03    -107.699E-03     214.281E-03    -106.582E-03     86.5318E-03    -108.368E-03     214.206E-03    -106.327E-03     84.0463E-03
             604     7.28327E-03     87.5294E-03    -62.6291E+06    -125.600E+06    -2.48806E+06     843.300E+03    -107.815E-03     214.381E-03    -106.566E-03     92.6445E-03    -108.648E-03     214.553E-03    -106.306E-03     89.8097E-03
             605     8.09245E-03     87.6342E-03    -56.2953E+06    -100.533E+06     7.72655E+06     1.03363E+06    -107.845E-03     214.396E-03    -106.551E-03     97.2230E-03    -108.850E-03     214.822E-03    -106.285E-03     94.0612E-03
             606     8.90174E-03     87.7429E-03    -50.2435E+06    -71.8344E+06     17.8766E+06     924.545E+03    -107.724E-03     214.252E-03    -106.528E-03     99.9756E-03    -108.897E-03     214.940E-03    -106.262E-03     96.5338E-03
             607     9.71192E-03     87.8531E-03    -44.2634E+06    -45.3349E+06     27.7122E+06     872.631E+03    -107.554E-03     214.058E-03    -106.505E-03     100.236E-03    -108.860E-03     214.967E-03    -106.236E-03     96.5826E-03
             608     10.5205E-03     87.9619E-03    -38.4330E+06    -13.4002E+06     37.0299E+06     970.109E+03    -107.268E-03     213.740E-03    -106.472E-03     97.7692E-03    -108.665E-03     214.845E-03    -106.212E-03     93.9965E-03
             609     11.3305E-03     88.0668E-03    -32.8118E+06     16.8610E+06     47.1503E+06     1.09238E+06    -106.837E-03     213.282E-03    -106.445E-03     92.2726E-03    -108.259E-03     214.510E-03    -106.186E-03     88.4747E-03
             610     12.1407E-03     88.1627E-03    -27.4986E+06     59.6198E+06     53.8010E+06     825.842E+03    -106.293E-03     212.671E-03    -106.379E-03     83.7864E-03    -107.695E-03     214.031E-03    -106.156E-03     80.0285E-03
             611     12.9498E-03     88.2478E-03    -21.3056E+06     105.612E+06     66.8957E+06     854.081E+03    -105.739E-03     212.074E-03    -106.335E-03     73.2485E-03    -107.086E-03     213.526E-03    -106.123E-03     69.5873E-03
             612     13.7602E-03     88.3198E-03    -15.9847E+06     116.872E+06     77.0831E+06     660.413E+03    -105.516E-03     211.849E-03    -106.333E-03     58.9816E-03    -106.699E-03     213.167E-03    -106.094E-03     55.4857E-03
             613     14.5701E-03     88.3720E-03    -11.1348E+06     120.894E+06     87.2913E+06     120.660E+03    -105.256E-03     211.608E-03    -106.351E-03     45.1509E-03    -106.299E-03     212.787E-03    -106.074E-03     41.7616E-03
             614     15.3804E-03     88.4159E-03    -5.31296E+06     123.932E+06     98.2641E+06     110.783E+03    -104.991E-03     211.361E-03    -106.370E-03     20.5060E-03    -105.739E-03     212.245E-03    -106.051E-03     17.8277E-03
             615     809.022E-06     88.1872E-03    -118.586E+06    -269.499E+06    -115.420E+06     55.6825E+03    -106.613E-03     213.090E-03    -106.477E-03     14.3349E-03    -106.658E-03     212.093E-03    -106.492E-03     14.0463E-03
             616     1.61804E-03     88.2096E-03    -114.357E+06    -261.338E+06    -103.449E+06     83.3794E+03    -106.586E-03     213.133E-03    -106.547E-03     26.2942E-03    -106.662E-03     212.176E-03    -106.520E-03     25.7536E-03
             617     2.42724E-03     88.2454E-03    -108.048E+06    -248.573E+06    -86.5905E+06     323.088E+03    -106.671E-03     213.234E-03    -106.563E-03     38.2673E-03    -106.798E-03     212.347E-03    -106.479E-03     37.4500E-03
             618     3.23649E-03     88.2943E-03    -100.613E+06    -229.107E+06    -69.5874E+06     477.807E+03    -106.837E-03     213.406E-03    -106.569E-03     49.8382E-03    -107.038E-03     212.638E-03    -106.438E-03     48.7244E-03
             619     4.04581E-03     88.3557E-03    -92.8470E+06    -210.276E+06    -53.2206E+06     521.496E+03    -107.058E-03     213.635E-03    -106.577E-03     60.5507E-03    -107.348E-03     213.003E-03    -106.404E-03     59.1168E-03
             620     4.85517E-03     88.4282E-03    -84.7915E+06    -193.878E+06    -36.8785E+06     584.407E+03    -107.326E-03     213.923E-03    -106.597E-03     70.3064E-03    -107.720E-03     213.434E-03    -106.377E-03     68.5328E-03
             621     5.66434E-03     88.5110E-03    -76.8128E+06    -173.128E+06    -23.7363E+06     585.876E+03    -107.557E-03     214.157E-03    -106.600E-03     79.0213E-03    -108.078E-03     213.859E-03    -106.356E-03     76.8935E-03
             622     6.47371E-03     88.6027E-03    -69.5934E+06    -150.431E+06    -12.9446E+06     823.038E+03    -107.718E-03     214.309E-03    -106.591E-03     86.4776E-03    -108.386E-03     214.233E-03    -106.336E-03     83.9936E-03
             623     7.28290E-03     88.7016E-03    -62.9529E+06    -126.011E+06    -2.67048E+06     961.439E+03    -107.796E-03     214.371E-03    -106.575E-03     92.6427E-03    -108.630E-03     214.542E-03    -106.314E-03     89.8092E-03
             624     8.09248E-03     88.8066E-03    -56.4146E+06    -100.963E+06     7.60173E+06     1.13203E+06    -107.800E-03     214.356E-03    -106.556E-03     97.2801E-03    -108.805E-03     214.780E-03    -106.289E-03     94.1219E-03
             625     8.90217E-03     88.9150E-03    -50.0840E+06    -71.5878E+06     17.9892E+06     1.28523E+06    -107.741E-03     214.271E-03    -106.530E-03     99.9770E-03    -108.914E-03     214.960E-03    -106.264E-03     96.5401E-03
             626     9.71107E-03     89.0254E-03    -44.1740E+06    -45.4126E+06     27.7161E+06     1.01985E+06    -107.569E-03     214.077E-03    -106.508E-03     100.359E-03    -108.876E-03     214.985E-03    -106.240E-03     96.7072E-03
             627     10.5213E-03     89.1346E-03    -38.3266E+06    -13.5213E+06     37.2049E+06     1.00557E+06    -107.223E-03     213.697E-03    -106.474E-03     98.0116E-03    -108.619E-03     214.802E-03    -106.213E-03     94.2439E-03
             628     11.3307E-03     89.2386E-03    -32.2488E+06     17.0197E+06     47.3911E+06     1.26341E+06    -106.747E-03     213.187E-03    -106.440E-03     92.4505E-03    -108.167E-03     214.416E-03    -106.181E-03     88.6589E-03
             629     12.1401E-03     89.3352E-03    -26.4861E+06     60.1072E+06     54.5387E+06     994.542E+03    -106.235E-03     212.605E-03    -106.370E-03     83.8332E-03    -107.633E-03     213.964E-03    -106.146E-03     80.0816E-03
             630     12.9506E-03     89.4197E-03    -21.7128E+06     105.259E+06     66.6027E+06     463.390E+03    -105.892E-03     212.221E-03    -106.328E-03     72.9899E-03    -107.239E-03     213.670E-03    -106.117E-03     69.3196E-03
             631     13.7603E-03     89.4920E-03    -16.0987E+06     116.933E+06     76.8891E+06     763.682E+03    -105.703E-03     212.040E-03    -106.337E-03     58.6388E-03    -106.887E-03     213.359E-03    -106.099E-03     55.1341E-03
             632     14.5685E-03     89.5466E-03    -10.3855E+06     121.745E+06     88.0433E+06     640.749E+03    -105.223E-03     211.584E-03    -106.362E-03     45.3097E-03    -106.265E-03     212.767E-03    -106.083E-03     41.9282E-03
             633     15.3774E-03     89.5864E-03    -5.18363E+06     123.916E+06     98.1954E+06    -60.7995E+03    -104.814E-03     211.187E-03    -106.373E-03     21.3636E-03    -105.563E-03     212.073E-03    -106.054E-03     18.6892E-03
             634     808.963E-06     89.3594E-03    -118.716E+06    -269.856E+06    -115.769E+06     83.4899E+03    -106.656E-03     213.082E-03    -106.426E-03     14.4299E-03    -106.701E-03     212.084E-03    -106.442E-03     14.1418E-03
             635     1.61819E-03     89.3818E-03    -114.706E+06    -261.478E+06    -103.367E+06     352.819E+03    -106.542E-03     213.079E-03    -106.537E-03     26.2330E-03    -106.620E-03     212.122E-03    -106.509E-03     25.6959E-03
             636     2.42736E-03     89.4175E-03    -108.182E+06    -248.983E+06    -86.0265E+06     351.539E+03    -106.690E-03     213.244E-03    -106.554E-03     38.2941E-03    -106.819E-03     212.354E-03    -106.466E-03     37.4770E-03
             637     3.23654E-03     89.4664E-03    -100.598E+06    -229.542E+06    -69.1912E+06     587.389E+03    -106.891E-03     213.462E-03    -106.570E-03     49.7898E-03    -107.092E-03     212.691E-03    -106.438E-03     48.6767E-03
             638     4.04573E-03     89.5277E-03    -92.6943E+06    -210.122E+06    -53.0178E+06     529.170E+03    -107.106E-03     213.694E-03    -106.588E-03     60.5248E-03    -107.396E-03     213.062E-03    -106.414E-03     59.0900E-03
             639     4.85492E-03     89.6004E-03    -84.6858E+06    -194.149E+06    -37.0151E+06     435.953E+03    -107.355E-03     213.966E-03    -106.611E-03     70.3076E-03    -107.748E-03     213.477E-03    -106.392E-03     68.5307E-03
             640     5.66428E-03     89.6832E-03     -77.284E+06    -173.493E+06    -24.1495E+06     816.356E+03    -107.545E-03     214.159E-03    -106.613E-03     78.9983E-03    -108.067E-03     213.860E-03    -106.371E-03     76.8737E-03
             641     6.47355E-03     89.7749E-03    -70.1161E+06    -150.816E+06    -13.1251E+06     912.889E+03    -107.680E-03     214.280E-03    -106.601E-03     86.5489E-03    -108.350E-03     214.204E-03    -106.346E-03     84.0669E-03
             642     7.28306E-03     89.8739E-03    -63.0639E+06    -126.230E+06    -2.70107E+06     983.999E+03    -107.769E-03     214.349E-03    -106.580E-03     92.7166E-03    -108.603E-03     214.519E-03    -106.319E-03     89.8840E-03
             643     8.09249E-03     89.9785E-03    -56.3542E+06    -101.190E+06     7.56139E+06     947.512E+03    -107.800E-03     214.358E-03    -106.558E-03     97.2923E-03    -108.804E-03     214.781E-03    -106.292E-03     94.1324E-03
             644     8.90173E-03     90.0875E-03    -49.8458E+06    -72.1521E+06     17.8875E+06     1.07411E+06    -107.722E-03     214.253E-03    -106.531E-03     100.034E-03    -108.892E-03     214.939E-03    -106.265E-03     96.5959E-03
             645     9.71174E-03     90.1977E-03    -43.5533E+06    -45.1887E+06     28.1026E+06     1.27818E+06    -107.494E-03     214.000E-03    -106.505E-03     100.377E-03    -108.798E-03     214.907E-03    -106.236E-03     96.7326E-03
             646     10.5209E-03     90.3064E-03    -37.7717E+06    -13.1904E+06     37.5530E+06     1.19214E+06    -107.153E-03     213.618E-03    -106.466E-03     97.9615E-03    -108.546E-03     214.722E-03    -106.204E-03     94.1999E-03
             647     11.3308E-03     90.4112E-03    -32.2267E+06     16.6964E+06     47.2872E+06     923.184E+03    -106.815E-03     213.247E-03    -106.432E-03     92.3379E-03    -108.234E-03     214.474E-03    -106.173E-03     88.5384E-03
             648     12.1410E-03     90.5068E-03    -26.5715E+06     60.0339E+06     54.4559E+06     917.447E+03    -106.511E-03     212.885E-03    -106.374E-03     83.5645E-03    -107.909E-03     214.245E-03    -106.151E-03     79.7987E-03
             649     12.9500E-03     90.5926E-03    -21.3150E+06     105.796E+06     67.0358E+06     1.09652E+06    -106.125E-03     212.475E-03    -106.350E-03     72.7614E-03    -107.471E-03     213.926E-03    -106.137E-03     69.0874E-03
             650     13.7587E-03     90.6653E-03    -16.2924E+06     116.738E+06     76.2334E+06     546.302E+03    -105.354E-03     211.706E-03    -106.351E-03     58.5488E-03    -106.538E-03     213.025E-03    -106.116E-03     55.0493E-03
             651     14.5704E-03     90.7175E-03    -10.2306E+06     121.864E+06     87.4424E+06     366.681E+03    -104.786E-03     211.139E-03    -106.353E-03     45.1655E-03    -105.824E-03     212.320E-03    -106.077E-03     41.7964E-03
             652     15.3819E-03     90.7592E-03    -4.64044E+06     124.713E+06     98.8178E+06     423.619E+03    -105.079E-03     211.443E-03    -106.364E-03     20.9072E-03    -105.825E-03     212.329E-03    -106.044E-03     18.2380E-03
             653     809.102E-06     90.5318E-03    -119.187E+06    -270.253E+06    -116.279E+06     154.268E+03    -106.638E-03     213.052E-03    -106.413E-03     14.1058E-03    -106.684E-03     212.052E-03    -106.430E-03     13.8152E-03
             654     1.61812E-03     90.5536E-03    -115.045E+06    -261.833E+06    -103.696E+06     294.398E+03    -106.545E-03     213.072E-03    -106.527E-03     26.1157E-03    -106.624E-03     212.114E-03    -106.499E-03     25.5774E-03
             655     2.42734E-03     90.5896E-03    -108.590E+06    -249.276E+06    -86.2758E+06     556.711E+03    -106.710E-03     213.262E-03    -106.552E-03     38.2935E-03    -106.840E-03     212.371E-03    -106.464E-03     37.4795E-03
             656     3.23643E-03     90.6386E-03    -100.770E+06    -229.724E+06    -69.3703E+06     491.672E+03    -106.923E-03     213.498E-03    -106.575E-03     49.8200E-03    -107.124E-03     212.727E-03    -106.443E-03     48.7050E-03
             657     4.04567E-03     90.6999E-03    -92.8234E+06    -210.525E+06    -53.5222E+06     544.961E+03    -107.159E-03     213.757E-03    -106.598E-03     60.5963E-03    -107.448E-03     213.125E-03    -106.426E-03     59.1601E-03
             658     4.85495E-03     90.7727E-03    -85.3580E+06    -194.372E+06    -37.2556E+06     785.609E+03    -107.359E-03     213.986E-03    -106.626E-03     70.3571E-03    -107.756E-03     213.497E-03    -106.407E-03     68.5842E-03
             659     5.66415E-03     90.8554E-03    -77.6128E+06    -173.858E+06    -24.1517E+06     833.784E+03    -107.507E-03     214.132E-03    -106.625E-03     79.0315E-03    -108.030E-03     213.833E-03    -106.381E-03     76.9075E-03
             660     6.47362E-03     90.9470E-03    -69.9870E+06    -150.908E+06    -13.0342E+06     820.135E+03    -107.649E-03     214.255E-03    -106.606E-03     86.5608E-03    -108.318E-03     214.178E-03    -106.351E-03     84.0786E-03
             661     7.28302E-03     91.0460E-03    -62.8426E+06    -126.388E+06    -2.68463E+06     722.172E+03    -107.772E-03     214.355E-03    -106.582E-03     92.6951E-03    -108.605E-03     214.523E-03    -106.321E-03     89.8600E-03
             662     8.09237E-03     91.1510E-03    -56.1843E+06    -101.313E+06     7.57469E+06     870.902E+03    -107.799E-03     214.359E-03    -106.560E-03     97.3069E-03    -108.802E-03     214.782E-03    -106.294E-03     94.1456E-03
             663     8.90209E-03     91.2595E-03    -50.0177E+06    -72.5583E+06     17.7513E+06     989.979E+03    -107.678E-03     214.210E-03    -106.532E-03     100.016E-03    -108.849E-03     214.894E-03    -106.265E-03     96.5775E-03
             664     9.71135E-03     91.3699E-03    -44.1477E+06    -45.5314E+06     27.6566E+06     1.09501E+06    -107.504E-03     214.007E-03    -106.504E-03     100.261E-03    -108.809E-03     214.914E-03    -106.235E-03     96.6142E-03
             665     10.5213E-03     91.4788E-03    -38.0889E+06    -12.8473E+06     37.6093E+06     1.05854E+06    -107.252E-03     213.722E-03    -106.470E-03     97.7050E-03    -108.649E-03     214.829E-03    -106.208E-03     93.9343E-03
             666     11.3310E-03     91.5831E-03    -32.3043E+06     16.4882E+06     47.2435E+06     1.02405E+06    -106.983E-03     213.430E-03    -106.447E-03     92.0368E-03    -108.403E-03     214.657E-03    -106.188E-03     88.2270E-03
             667     12.1397E-03     91.6800E-03    -27.2285E+06     59.5991E+06     53.8628E+06     1.04670E+06    -106.581E-03     212.976E-03    -106.395E-03     83.6676E-03    -107.982E-03     214.336E-03    -106.173E-03     79.8993E-03
             668     12.9490E-03     91.7654E-03    -21.6421E+06     105.637E+06     66.7530E+06     984.263E+03    -105.816E-03     212.178E-03    -106.362E-03     73.2227E-03    -107.164E-03     213.631E-03    -106.150E-03     69.5601E-03
             669     13.7602E-03     91.8370E-03    -15.6278E+06     117.963E+06     77.5865E+06     926.168E+03    -105.201E-03     211.555E-03    -106.353E-03     58.5675E-03    -106.384E-03     212.876E-03    -106.114E-03     55.0818E-03
             670     14.5690E-03     91.8889E-03    -11.0762E+06     122.366E+06     87.9958E+06     488.012E+03    -105.013E-03     211.369E-03    -106.356E-03     45.1375E-03    -106.058E-03     212.554E-03    -106.077E-03     41.7615E-03
             671     15.3771E-03     91.9323E-03    -5.54207E+06     124.456E+06     98.4399E+06     311.983E+03    -104.884E-03     211.249E-03    -106.365E-03     21.1953E-03    -105.636E-03     212.137E-03    -106.045E-03     18.5244E-03
             672     808.905E-06     91.7036E-03    -119.889E+06    -270.670E+06    -116.436E+06     163.989E+03    -106.461E-03     212.959E-03    -106.499E-03     14.1690E-03    -106.510E-03     211.960E-03    -106.515E-03     13.8761E-03
             673     1.61821E-03     91.7259E-03    -115.197E+06    -262.058E+06    -104.095E+06     155.016E+03    -106.614E-03     213.116E-03    -106.503E-03     26.2291E-03    -106.692E-03     212.158E-03    -106.476E-03     25.6883E-03
             674     2.42724E-03     91.7617E-03    -108.567E+06    -249.701E+06    -87.0202E+06     204.741E+03    -106.754E-03     213.308E-03    -106.554E-03     38.3424E-03    -106.882E-03     212.416E-03    -106.469E-03     37.5234E-03
             675     3.23657E-03     91.8108E-03    -101.235E+06    -230.362E+06    -70.1847E+06     616.919E+03    -106.945E-03     213.530E-03    -106.585E-03     49.8291E-03    -107.146E-03     212.758E-03    -106.455E-03     48.7153E-03
             676     4.04565E-03     91.8722E-03    -93.6449E+06    -210.853E+06    -53.6677E+06     786.436E+03    -107.149E-03     213.760E-03    -106.611E-03     60.5634E-03    -107.442E-03     213.128E-03    -106.438E-03     59.1309E-03
             677     4.85479E-03     91.9449E-03    -85.6116E+06    -194.580E+06    -37.3672E+06     831.230E+03    -107.315E-03     213.948E-03    -106.633E-03     70.3594E-03    -107.712E-03     213.459E-03    -106.413E-03     68.5884E-03
             678     5.66423E-03     92.0276E-03    -77.5764E+06    -173.653E+06    -24.0658E+06     657.563E+03    -107.501E-03     214.127E-03    -106.627E-03     79.0859E-03    -108.024E-03     213.829E-03    -106.383E-03     76.9594E-03
             679     6.47354E-03     92.1192E-03    -69.8788E+06    -151.199E+06    -13.2479E+06     506.341E+03    -107.694E-03     214.302E-03    -106.608E-03     86.6005E-03    -108.362E-03     214.224E-03    -106.354E-03     84.1133E-03
             680     7.28291E-03     92.2183E-03    -63.0340E+06    -126.482E+06    -2.94275E+06     769.635E+03    -107.795E-03     214.383E-03    -106.588E-03     92.7035E-03    -108.629E-03     214.552E-03    -106.328E-03     89.8675E-03
             681     8.09248E-03     92.3230E-03    -56.6452E+06    -101.693E+06     7.22517E+06     838.978E+03    -107.789E-03     214.356E-03    -106.567E-03     97.1887E-03    -108.793E-03     214.777E-03    -106.301E-03     94.0257E-03
             682     8.90179E-03     92.4318E-03    -50.3704E+06    -72.7744E+06     17.3601E+06     929.289E+03    -107.704E-03     214.242E-03    -106.538E-03     99.8548E-03    -108.875E-03     214.925E-03    -106.273E-03     96.4140E-03
             683     9.71162E-03     92.5420E-03     -44.165E+06    -45.6183E+06     27.5462E+06     965.144E+03    -107.598E-03     214.114E-03    -106.516E-03     100.164E-03    -108.904E-03     215.021E-03    -106.248E-03     96.5100E-03
             684     10.5208E-03     92.6510E-03    -38.2514E+06    -13.3339E+06     37.1902E+06     956.632E+03    -107.415E-03     213.905E-03    -106.491E-03     97.6500E-03    -108.812E-03     215.012E-03    -106.230E-03     93.8689E-03
             685     11.3298E-03     92.7558E-03    -32.6384E+06     16.3079E+06     46.8266E+06     999.388E+03    -106.964E-03     213.435E-03    -106.471E-03     92.2316E-03    -108.387E-03     214.664E-03    -106.213E-03     88.4212E-03
             686     12.1400E-03     92.8524E-03    -26.9715E+06     59.3896E+06     53.6059E+06     1.46711E+06    -106.172E-03     212.575E-03    -106.403E-03     83.9686E-03    -107.569E-03     213.932E-03    -106.182E-03     80.2278E-03
             687     12.9505E-03     92.9374E-03    -21.6816E+06     106.254E+06     66.7102E+06     1.29237E+06    -105.547E-03     211.895E-03    -106.348E-03     73.2739E-03    -106.894E-03     213.348E-03    -106.137E-03     69.6322E-03
             688     13.7595E-03     93.0089E-03    -16.8237E+06     117.541E+06     76.9186E+06     940.815E+03    -105.332E-03     211.666E-03    -106.335E-03     58.7547E-03    -106.519E-03     212.988E-03    -106.096E-03     55.2699E-03
             689     14.5698E-03     93.0623E-03    -10.8812E+06     123.092E+06     88.4921E+06     1.19754E+06    -105.005E-03     211.349E-03    -106.344E-03     45.7183E-03    -106.052E-03     212.538E-03    -106.064E-03     42.3592E-03
             690     15.3816E-03     93.1036E-03    -5.09228E+06     125.726E+06     99.2454E+06     129.925E+03    -105.001E-03     211.357E-03    -106.356E-03     21.4345E-03    -105.755E-03     212.251E-03    -106.035E-03     18.7634E-03
             691     809.493E-06     92.8760E-03    -120.011E+06    -271.033E+06    -117.041E+06    -116.500E+03    -106.445E-03     212.855E-03    -106.410E-03     14.4806E-03    -106.493E-03     211.854E-03    -106.428E-03     14.1858E-03
             692     1.61820E-03     92.8980E-03    -115.415E+06    -262.315E+06    -104.486E+06     207.359E+03    -106.703E-03     213.180E-03    -106.478E-03     26.1702E-03    -106.781E-03     212.221E-03    -106.452E-03     25.6309E-03
             693     2.42736E-03     92.9340E-03    -109.441E+06    -250.023E+06    -87.2136E+06     395.759E+03    -106.814E-03     213.381E-03    -106.568E-03     38.2914E-03    -106.945E-03     212.490E-03    -106.483E-03     37.4751E-03
             694     3.23625E-03     92.9830E-03    -101.970E+06    -230.918E+06    -70.7029E+06     357.709E+03    -106.950E-03     213.555E-03    -106.605E-03     49.8414E-03    -107.154E-03     212.782E-03    -106.475E-03     48.7237E-03
             695     4.04551E-03     93.0445E-03    -93.8472E+06    -211.166E+06    -54.1243E+06     784.604E+03    -107.079E-03     213.699E-03    -106.620E-03     60.5674E-03    -107.372E-03     213.066E-03    -106.448E-03     59.1360E-03
             696     4.85495E-03     93.1170E-03    -85.5935E+06    -194.562E+06    -37.2562E+06     675.258E+03    -107.280E-03     213.912E-03    -106.632E-03     70.3769E-03    -107.677E-03     213.423E-03    -106.413E-03     68.6049E-03
             697     5.66424E-03     93.1998E-03    -77.4776E+06    -173.579E+06    -24.3112E+06     503.981E+03    -107.539E-03     214.163E-03    -106.624E-03     79.1142E-03    -108.062E-03     213.866E-03    -106.382E-03     76.9852E-03
             698     6.47356E-03     93.2915E-03    -70.5258E+06    -151.292E+06    -13.6824E+06     561.365E+03    -107.751E-03     214.363E-03    -106.612E-03     86.5742E-03    -108.422E-03     214.287E-03    -106.359E-03     84.0854E-03
             699     7.28294E-03     93.3905E-03    -63.6376E+06    -127.036E+06    -3.49703E+06     587.615E+03    -107.833E-03     214.430E-03    -106.597E-03     92.6185E-03    -108.668E-03     214.599E-03    -106.339E-03     89.7772E-03
             700     8.09217E-03     93.4954E-03    -56.8510E+06    -101.675E+06     6.94237E+06     771.826E+03    -107.827E-03     214.407E-03    -106.580E-03     97.1336E-03    -108.832E-03     214.829E-03    -106.315E-03     93.9686E-03
             701     8.90181E-03     93.6038E-03    -50.5279E+06    -73.0060E+06     17.1363E+06     701.257E+03    -107.795E-03     214.351E-03    -106.557E-03     99.8431E-03    -108.967E-03     215.035E-03    -106.292E-03     96.3947E-03
             702     9.71102E-03     93.7144E-03    -44.3452E+06    -46.2029E+06     27.1573E+06     791.585E+03    -107.663E-03     214.201E-03    -106.539E-03     100.183E-03    -108.968E-03     215.107E-03    -106.272E-03     96.5230E-03
             703     10.5206E-03     93.8237E-03    -38.5188E+06    -13.6959E+06     36.8240E+06     1.09877E+06    -107.298E-03     213.808E-03    -106.509E-03     97.9030E-03    -108.696E-03     214.913E-03    -106.250E-03     94.1294E-03
             704     11.3304E-03     93.9284E-03    -33.0111E+06     16.4060E+06     46.8226E+06     1.46368E+06    -106.780E-03     213.258E-03    -106.478E-03     92.3893E-03    -108.203E-03     214.486E-03    -106.220E-03     88.5956E-03
             705     12.1400E-03     94.0239E-03    -27.6584E+06     59.4419E+06     53.5883E+06     1.13521E+06    -106.158E-03     212.562E-03    -106.404E-03     83.5266E-03    -107.558E-03     213.919E-03    -106.182E-03     79.7774E-03
             706     12.9498E-03     94.1091E-03    -21.7404E+06     106.090E+06     66.6349E+06     1.27712E+06    -105.526E-03     211.874E-03    -106.348E-03     72.7382E-03    -106.871E-03     213.325E-03    -106.137E-03     69.0923E-03
             707     13.7604E-03     94.1819E-03    -15.9903E+06     118.276E+06     76.9686E+06     1.16088E+06    -105.244E-03     211.574E-03    -106.331E-03     58.4490E-03    -106.426E-03     212.897E-03    -106.094E-03     54.9668E-03
             708     14.5700E-03     94.2334E-03    -10.4533E+06     123.609E+06     88.3423E+06    -142.849E+03    -105.208E-03     211.551E-03    -106.343E-03     44.5624E-03    -106.252E-03     212.740E-03    -106.066E-03     41.1605E-03
             709     15.3787E-03     94.2759E-03    -5.14339E+06     125.935E+06     99.1882E+06     208.358E+03    -105.164E-03     211.532E-03    -106.368E-03     20.4984E-03    -105.916E-03     212.425E-03    -106.047E-03     17.8105E-03
             710     808.959E-06     94.0479E-03    -120.588E+06    -271.308E+06    -117.212E+06     148.311E+03    -106.562E-03     213.010E-03    -106.449E-03     14.4995E-03    -106.612E-03     212.010E-03    -106.466E-03     14.2103E-03
             711     1.61819E-03     94.0704E-03    -116.363E+06    -262.947E+06    -104.956E+06     308.997E+03    -106.649E-03     213.180E-03    -106.531E-03     26.1196E-03    -106.731E-03     212.220E-03    -106.506E-03     25.5802E-03
             712     2.42709E-03     94.1061E-03    -109.662E+06    -250.238E+06    -87.5293E+06     391.881E+03    -106.793E-03     213.380E-03    -106.587E-03     38.3399E-03    -106.925E-03     212.488E-03    -106.503E-03     37.5224E-03
             713     3.23639E-03     94.1554E-03    -102.033E+06    -230.745E+06    -70.5763E+06     419.620E+03    -106.903E-03     213.515E-03    -106.612E-03     49.8911E-03    -107.108E-03     212.743E-03    -106.482E-03     48.7754E-03
             714     4.04563E-03     94.2164E-03    -94.0872E+06    -211.633E+06    -54.7030E+06     310.707E+03    -107.084E-03     213.703E-03    -106.618E-03     60.5726E-03    -107.376E-03     213.068E-03    -106.449E-03     59.1346E-03
             715     4.85488E-03     94.2892E-03    -85.7930E+06    -194.625E+06    -38.0257E+06     475.618E+03    -107.350E-03     213.985E-03    -106.635E-03     70.3219E-03    -107.746E-03     213.496E-03    -106.419E-03     68.5450E-03
             716     5.66419E-03     94.3720E-03    -78.2454E+06    -173.835E+06    -24.9291E+06     496.225E+03    -107.589E-03     214.226E-03    -106.637E-03     78.9900E-03    -108.114E-03     213.929E-03    -106.396E-03     76.8588E-03
             717     6.47346E-03     94.4638E-03    -70.7669E+06    -151.287E+06    -13.9420E+06     494.202E+03    -107.747E-03     214.376E-03    -106.628E-03     86.4810E-03    -108.419E-03     214.300E-03    -106.376E-03     83.9911E-03
             718     7.28264E-03     94.5629E-03    -63.7066E+06    -126.966E+06    -3.66952E+06     347.278E+03    -107.847E-03     214.460E-03    -106.613E-03     92.5899E-03    -108.682E-03     214.628E-03    -106.354E-03     89.7457E-03
             719     8.09226E-03     94.6674E-03    -56.9922E+06    -102.186E+06     6.44825E+06     345.882E+03    -107.896E-03     214.493E-03    -106.597E-03     97.1136E-03    -108.900E-03     214.913E-03    -106.334E-03     93.9399E-03
             720     8.90146E-03     94.7764E-03     -50.455E+06    -73.2359E+06     16.8359E+06     556.776E+03    -107.836E-03     214.413E-03    -106.577E-03     99.9135E-03    -109.007E-03     215.096E-03    -106.313E-03     96.4608E-03
             721     9.71092E-03     94.8869E-03    -44.3530E+06    -46.5906E+06     26.8299E+06     726.583E+03    -107.599E-03     214.156E-03    -106.556E-03     100.326E-03    -108.905E-03     215.061E-03    -106.290E-03     96.6660E-03
             722     10.5205E-03     94.9958E-03    -38.4495E+06    -14.2017E+06     36.4969E+06     1.20178E+06    -107.186E-03     213.705E-03    -106.519E-03     97.8205E-03    -108.582E-03     214.808E-03    -106.260E-03     94.0518E-03
             723     11.3303E-03     95.1002E-03    -32.4435E+06     15.9356E+06     46.5836E+06     1.44692E+06    -106.728E-03     213.209E-03    -106.481E-03     92.0904E-03    -108.146E-03     214.433E-03    -106.224E-03     88.2981E-03
             724     12.1400E-03     95.1967E-03    -26.7769E+06     59.6661E+06     53.7011E+06     1.59371E+06    -106.262E-03     212.670E-03    -106.408E-03     83.5388E-03    -107.659E-03     214.029E-03    -106.188E-03     79.7916E-03
             725     12.9495E-03     95.2811E-03    -21.5808E+06     106.313E+06     66.4133E+06     1.09964E+06    -105.712E-03     212.072E-03    -106.360E-03     72.7918E-03    -107.058E-03     213.527E-03    -106.151E-03     69.1332E-03
             726     13.7595E-03     95.3528E-03    -15.8361E+06     119.055E+06     77.6169E+06     516.739E+03    -105.315E-03     211.669E-03    -106.354E-03     58.5036E-03    -106.500E-03     212.995E-03    -106.115E-03     55.0086E-03
             727     14.5691E-03     95.4075E-03    -10.5985E+06     124.137E+06     88.7587E+06     690.832E+03    -105.164E-03     211.530E-03    -106.365E-03     45.3113E-03    -106.211E-03     212.722E-03    -106.086E-03     41.9373E-03
             728     15.3787E-03     95.4485E-03    -5.64704E+06     125.827E+06     98.6849E+06     452.812E+03    -104.930E-03     211.307E-03    -106.378E-03     21.2271E-03    -105.684E-03     212.202E-03    -106.059E-03     18.5605E-03
             729     808.885E-06     95.2201E-03    -120.998E+06    -271.717E+06    -117.920E+06     125.323E+03    -106.602E-03     213.161E-03    -106.559E-03     14.5948E-03    -106.653E-03     212.160E-03    -106.579E-03     14.3044E-03
             730     1.61801E-03     95.2424E-03    -116.417E+06    -263.022E+06    -105.395E+06     75.9216E+03    -106.592E-03     213.169E-03    -106.577E-03     26.3234E-03    -106.673E-03     212.209E-03    -106.554E-03     25.7819E-03
             731     2.42729E-03     95.2786E-03    -109.876E+06    -250.514E+06    -88.1621E+06     178.147E+03    -106.744E-03     213.340E-03    -106.596E-03     38.3457E-03    -106.876E-03     212.448E-03    -106.514E-03     37.5258E-03
             732     3.23635E-03     95.3273E-03    -102.118E+06    -230.884E+06    -70.9191E+06     367.371E+03    -106.910E-03     213.523E-03    -106.613E-03     49.7719E-03    -107.114E-03     212.750E-03    -106.484E-03     48.6551E-03
             733     4.04561E-03     95.3888E-03    -94.1651E+06    -211.499E+06    -54.5170E+06     292.598E+03    -107.162E-03     213.791E-03    -106.630E-03     60.4940E-03    -107.455E-03     213.157E-03    -106.459E-03     59.0539E-03
             734     4.85476E-03     95.4614E-03    -86.4037E+06    -195.113E+06    -38.7226E+06     206.377E+03    -107.425E-03     214.081E-03    -106.655E-03     70.2976E-03    -107.824E-03     213.592E-03    -106.441E-03     68.5153E-03
             735     5.66389E-03     95.5444E-03    -78.3294E+06    -173.734E+06    -25.4214E+06     284.256E+03    -107.607E-03     214.268E-03    -106.661E-03     79.0257E-03    -108.132E-03     213.972E-03    -106.423E-03     76.8914E-03
             736     6.47317E-03     95.6360E-03    -70.5989E+06    -151.173E+06    -14.2297E+06     84.1913E+03    -107.745E-03     214.395E-03    -106.650E-03     86.4950E-03    -108.415E-03     214.319E-03    -106.400E-03     83.9994E-03
             737     7.28281E-03     95.7351E-03    -63.5490E+06    -126.935E+06    -4.04146E+06     114.475E+03    -107.866E-03     214.498E-03    -106.632E-03     92.5744E-03    -108.699E-03     214.667E-03    -106.376E-03     89.7265E-03
             738     8.09181E-03     95.8401E-03    -57.0844E+06    -102.439E+06     5.97410E+06     121.481E+03    -107.919E-03     214.536E-03    -106.616E-03     97.1421E-03    -108.924E-03     214.957E-03    -106.355E-03     93.9627E-03
             739     8.90129E-03     95.9487E-03    -50.6747E+06    -73.6350E+06     16.2742E+06     224.090E+03    -107.782E-03     214.376E-03    -106.593E-03     99.9405E-03    -108.954E-03     215.059E-03    -106.332E-03     96.4833E-03
             740     9.71091E-03     96.0592E-03    -44.3566E+06    -46.8935E+06     26.5579E+06     636.950E+03    -107.546E-03     214.114E-03    -106.568E-03     100.251E-03    -108.850E-03     215.017E-03    -106.303E-03     96.5924E-03
             741     10.5205E-03     96.1680E-03    -38.1998E+06    -14.8520E+06     36.1607E+06     855.954E+03    -107.252E-03     213.781E-03    -106.530E-03     97.7277E-03    -108.645E-03     214.881E-03    -106.272E-03     93.9521E-03
             742     11.3299E-03     96.2727E-03    -32.4280E+06     15.2375E+06     46.0951E+06     1.15479E+06    -106.789E-03     213.284E-03    -106.495E-03     91.9536E-03    -108.205E-03     214.505E-03    -106.240E-03     88.1531E-03
             743     12.1399E-03     96.3683E-03    -26.9426E+06     59.2433E+06     53.3348E+06     1.37200E+06    -106.189E-03     212.612E-03    -106.423E-03     83.2740E-03    -107.584E-03     213.967E-03    -106.203E-03     79.5270E-03
             744     12.9501E-03     96.4539E-03    -21.3806E+06     107.323E+06     67.0687E+06     1.42457E+06    -105.756E-03     212.132E-03    -106.376E-03     72.7168E-03    -107.103E-03     213.589E-03    -106.165E-03     69.0621E-03
             745     13.7591E-03     96.5256E-03    -16.5241E+06     119.120E+06     76.9872E+06     1.04277E+06    -105.409E-03     211.778E-03    -106.368E-03     58.7634E-03    -106.599E-03     213.108E-03    -106.132E-03     55.2697E-03
             746     14.5695E-03     96.5788E-03    -11.0206E+06     124.095E+06     88.1464E+06     592.280E+03    -104.895E-03     211.269E-03    -106.374E-03     45.0203E-03    -105.942E-03     212.462E-03    -106.098E-03     41.6466E-03
             747     15.3806E-03     96.6206E-03    -5.24438E+06     126.837E+06     99.4778E+06     327.971E+03    -104.817E-03     211.198E-03    -106.381E-03     20.3524E-03    -105.570E-03     212.093E-03    -106.060E-03     17.6836E-03
             748     809.114E-06     96.3924E-03    -121.321E+06    -271.732E+06    -118.271E+06    -194.396E+03    -106.660E-03     213.140E-03    -106.480E-03     14.4008E-03    -106.712E-03     212.140E-03    -106.502E-03     14.1072E-03
             749     1.61810E-03     96.4147E-03    -116.951E+06    -263.137E+06    -105.734E+06     35.0175E+03    -106.645E-03     213.226E-03    -106.581E-03     26.3118E-03    -106.729E-03     212.267E-03    -106.558E-03     25.7700E-03
             750     2.42710E-03     96.4507E-03    -110.402E+06    -250.485E+06    -88.3218E+06     71.6579E+03    -106.762E-03     213.376E-03    -106.614E-03     38.2662E-03    -106.896E-03     212.485E-03    -106.532E-03     37.4450E-03
             751     3.23632E-03     96.4997E-03    -102.500E+06    -231.103E+06    -71.3107E+06    -61.7644E+03    -106.959E-03     213.593E-03    -106.634E-03     49.7550E-03    -107.164E-03     212.820E-03    -106.507E-03     48.6309E-03
             752     4.04541E-03     96.5610E-03    -94.4695E+06    -211.750E+06    -54.7801E+06     80.9881E+03    -107.201E-03     213.857E-03    -106.656E-03     60.5387E-03    -107.495E-03     213.223E-03    -106.486E-03     59.0953E-03
             753     4.85458E-03     96.6339E-03    -86.3716E+06    -194.726E+06    -38.6331E+06     19.4355E+03    -107.419E-03     214.100E-03    -106.681E-03     70.3465E-03    -107.818E-03     213.613E-03    -106.466E-03     68.5618E-03
             754     5.66390E-03     96.7166E-03    -78.2723E+06    -173.564E+06    -26.0575E+06    -332.361E+03    -107.617E-03     214.296E-03    -106.679E-03     79.0555E-03    -108.142E-03     214.002E-03    -106.444E-03     76.9123E-03
             755     6.47325E-03     96.8084E-03    -70.8154E+06    -151.239E+06    -15.0512E+06    -235.123E+03    -107.796E-03     214.465E-03    -106.669E-03     86.5065E-03    -108.467E-03     214.391E-03    -106.422E-03     84.0049E-03
             756     7.28217E-03     96.9075E-03    -63.8695E+06    -127.111E+06    -4.73290E+06    -255.754E+03    -107.886E-03     214.540E-03    -106.653E-03     92.6262E-03    -108.721E-03     214.710E-03    -106.400E-03     89.7707E-03
             757     8.09190E-03     97.0124E-03    -57.1053E+06    -102.393E+06     5.58620E+06    -134.108E+03    -107.881E-03     214.516E-03    -106.635E-03     97.1867E-03    -108.886E-03     214.938E-03    -106.376E-03     94.0041E-03
             758     8.90123E-03     97.1211E-03    -50.7894E+06    -73.7641E+06     15.8842E+06     103.543E+03    -107.812E-03     214.422E-03    -106.610E-03     99.8297E-03    -108.983E-03     215.105E-03    -106.350E-03     96.3692E-03
             759     9.71067E-03     97.2314E-03    -44.5804E+06    -47.4177E+06     25.9419E+06     82.8043E+03    -107.616E-03     214.203E-03    -106.587E-03     100.044E-03    -108.918E-03     215.104E-03    -106.324E-03     96.3749E-03
             760     10.5201E-03     97.3406E-03    -38.5209E+06    -15.4472E+06     35.5604E+06     472.419E+03    -107.231E-03     213.782E-03    -106.551E-03     97.4960E-03    -108.623E-03     214.879E-03    -106.295E-03     93.7148E-03
             761     11.3300E-03     97.4448E-03    -32.6851E+06     14.5084E+06     45.4200E+06     943.266E+03    -106.792E-03     213.307E-03    -106.515E-03     91.8298E-03    -108.207E-03     214.526E-03    -106.261E-03     88.0247E-03
             762     12.1392E-03     97.5408E-03    -27.1770E+06     58.9613E+06     52.9991E+06     1.19452E+06    -106.268E-03     212.712E-03    -106.444E-03     83.2896E-03    -107.664E-03     214.068E-03    -106.226E-03     79.5350E-03
             763     12.9488E-03     97.6255E-03    -22.1537E+06     106.775E+06     66.0043E+06     1.34209E+06    -105.686E-03     212.080E-03    -106.394E-03     72.7512E-03    -107.034E-03     213.537E-03    -106.187E-03     69.0977E-03
             764     13.7597E-03     97.6983E-03    -16.1939E+06     119.678E+06     77.0844E+06     1.42362E+06    -105.219E-03     211.599E-03    -106.381E-03     58.4661E-03    -106.405E-03     212.929E-03    -106.145E-03     54.9881E-03
             765     14.5686E-03     97.7511E-03    -10.8031E+06     125.122E+06     88.9130E+06     965.711E+03    -104.834E-03     211.216E-03    -106.382E-03     45.2723E-03    -105.883E-03     212.413E-03    -106.103E-03     41.9121E-03
             766     15.3774E-03     97.7926E-03    -5.49374E+06     127.073E+06     99.4123E+06     144.680E+03    -104.716E-03     211.097E-03    -106.381E-03     21.2063E-03    -105.472E-03     211.997E-03    -106.060E-03     18.5399E-03
             767     808.915E-06     97.5644E-03    -121.952E+06    -271.737E+06    -118.500E+06     35.3025E+03    -106.732E-03     213.184E-03    -106.452E-03     14.2201E-03    -106.786E-03     212.185E-03    -106.474E-03     13.9302E-03
             768     1.61801E-03     97.5872E-03    -117.524E+06    -263.068E+06    -105.953E+06     80.3752E+03    -106.664E-03     213.268E-03    -106.604E-03     26.2658E-03    -106.751E-03     212.311E-03    -106.582E-03     25.7246E-03
             769     2.42709E-03     97.6229E-03    -110.723E+06    -250.238E+06    -88.4671E+06    -263.762E+03    -106.800E-03     213.439E-03    -106.639E-03     38.2905E-03    -106.936E-03     212.550E-03    -106.558E-03     37.4639E-03
             770     3.23619E-03     97.6720E-03    -103.001E+06    -231.023E+06    -71.4414E+06    -311.376E+03    -106.998E-03     213.660E-03    -106.663E-03     49.8328E-03    -107.205E-03     212.889E-03    -106.536E-03     48.7050E-03
             771     4.04533E-03     97.7335E-03    -94.7196E+06    -211.741E+06    -54.8538E+06    -354.718E+03    -107.205E-03     213.888E-03    -106.684E-03     60.5601E-03    -107.500E-03     213.255E-03    -106.514E-03     59.1104E-03
             772     4.85457E-03     97.8061E-03    -86.2403E+06    -194.351E+06    -39.0788E+06    -486.626E+03    -107.437E-03     214.139E-03    -106.703E-03     70.3419E-03    -107.835E-03     213.655E-03    -106.491E-03     68.5500E-03
             773     5.66371E-03     97.8891E-03    -78.6033E+06    -173.121E+06    -26.8086E+06    -602.980E+03    -107.665E-03     214.366E-03    -106.701E-03     78.9917E-03    -108.191E-03     214.076E-03    -106.470E-03     76.8423E-03
             774     6.47282E-03     97.9808E-03    -71.2391E+06    -151.387E+06    -15.9087E+06    -805.985E+03    -107.806E-03     214.499E-03    -106.693E-03     86.4481E-03    -108.477E-03     214.426E-03    -106.449E-03     83.9373E-03
             775     7.28248E-03     98.0800E-03    -64.0159E+06    -127.081E+06    -5.41897E+06    -757.589E+03    -107.892E-03     214.568E-03    -106.676E-03     92.5840E-03    -108.727E-03     214.740E-03    -106.426E-03     89.7212E-03
             776     8.09150E-03     98.1847E-03    -57.3037E+06    -102.747E+06     4.88363E+06    -626.344E+03    -107.950E-03     214.609E-03    -106.659E-03     97.0638E-03    -108.954E-03     215.030E-03    -106.403E-03     93.8711E-03
             777     8.90099E-03     98.2936E-03    -50.7223E+06    -74.0188E+06     15.2897E+06    -404.954E+03    -107.858E-03     214.496E-03    -106.638E-03     99.6559E-03    -109.026E-03     215.177E-03    -106.381E-03     96.1865E-03
             778     9.71025E-03     98.4040E-03    -44.5608E+06    -47.6446E+06     25.4451E+06    -80.9848E+03    -107.599E-03     214.214E-03    -106.615E-03     99.9793E-03    -108.901E-03     215.115E-03    -106.354E-03     96.3075E-03
             779     10.5198E-03     98.5127E-03    -38.8762E+06    -16.4167E+06     34.6770E+06     327.593E+03    -107.200E-03     213.774E-03    -106.574E-03     97.5598E-03    -108.591E-03     214.868E-03    -106.320E-03     93.7781E-03
             780     11.3293E-03     98.6171E-03    -33.1909E+06     14.0075E+06     44.6824E+06     821.948E+03    -106.776E-03     213.311E-03    -106.534E-03     91.9427E-03    -108.192E-03     214.529E-03    -106.283E-03     88.1384E-03
             781     12.1395E-03     98.7130E-03    -27.8284E+06     58.2908E+06     51.8460E+06     1.30349E+06    -106.335E-03     212.797E-03    -106.462E-03     83.2646E-03    -107.732E-03     214.152E-03    -106.247E-03     79.5082E-03
             782     12.9494E-03     98.7982E-03    -22.3114E+06     106.745E+06     65.2542E+06     1.37013E+06    -105.646E-03     212.058E-03    -106.412E-03     72.6409E-03    -106.995E-03     213.517E-03    -106.208E-03     68.9851E-03
             783     13.7583E-03     98.8701E-03    -16.7313E+06     120.112E+06     76.4688E+06     956.090E+03    -104.915E-03     211.303E-03    -106.388E-03     58.5405E-03    -106.103E-03     212.637E-03    -106.156E-03     55.0657E-03
             784     14.5698E-03     98.9227E-03    -10.8267E+06     125.761E+06     88.6789E+06     615.905E+03    -104.608E-03     210.982E-03    -106.375E-03     45.2508E-03    -105.656E-03     212.181E-03    -106.098E-03     41.8952E-03
             785     15.3817E-03     98.9647E-03    -5.21871E+06     127.786E+06     99.9145E+06     261.219E+03    -104.882E-03     211.258E-03    -106.376E-03     20.8619E-03    -105.638E-03     212.159E-03    -106.054E-03     18.1940E-03
             786     809.013E-06     98.7371E-03    -122.154E+06    -271.755E+06    -119.093E+06     295.870E+03    -106.712E-03     213.249E-03    -106.538E-03     14.2941E-03    -106.766E-03     212.251E-03    -106.562E-03     14.0087E-03
             787     1.61795E-03     98.7593E-03    -117.778E+06    -262.837E+06    -106.348E+06    -127.730E+03    -106.698E-03     213.334E-03    -106.636E-03     26.2089E-03    -106.785E-03     212.379E-03    -106.616E-03     25.6643E-03
             788     2.42708E-03     98.7953E-03    -111.135E+06    -249.773E+06    -88.7105E+06    -286.685E+03    -106.831E-03     213.503E-03    -106.672E-03     38.2730E-03    -106.970E-03     212.618E-03    -106.592E-03     37.4459E-03
             789     3.23607E-03     98.8444E-03    -103.163E+06    -230.546E+06    -71.4509E+06    -620.168E+03    -107.022E-03     213.718E-03    -106.696E-03     49.8018E-03    -107.231E-03     212.950E-03    -106.569E-03     48.6696E-03
             790     4.04523E-03     98.9058E-03    -94.7724E+06    -211.532E+06    -54.9892E+06    -873.805E+03    -107.244E-03     213.960E-03    -106.717E-03     60.5186E-03    -107.539E-03     213.328E-03    -106.547E-03     59.0602E-03
             791     4.85433E-03     98.9786E-03    -86.7573E+06    -194.031E+06    -39.7987E+06    -1.00892E+06    -107.495E-03     214.231E-03    -106.736E-03     70.2825E-03    -107.895E-03     213.750E-03    -106.528E-03     68.4815E-03
             792     5.66350E-03     99.0616E-03    -78.7567E+06    -172.679E+06    -27.5312E+06    -1.09218E+06    -107.687E-03     214.422E-03    -106.735E-03     78.9371E-03    -108.213E-03     214.135E-03    -106.508E-03     76.7806E-03
             793     6.47282E-03     99.1533E-03    -71.2368E+06    -150.802E+06    -16.4309E+06    -1.31220E+06    -107.840E-03     214.566E-03    -106.726E-03     86.3467E-03    -108.511E-03     214.497E-03    -106.487E-03     83.8260E-03
             794     7.28182E-03     99.2523E-03    -64.2556E+06    -127.270E+06    -6.30004E+06    -1.48227E+06    -107.953E-03     214.664E-03    -106.711E-03     92.4367E-03    -108.786E-03     214.836E-03    -106.465E-03     89.5613E-03
             795     8.09138E-03     99.3575E-03    -57.4139E+06    -102.997E+06     4.04538E+06    -1.26968E+06    -107.972E-03     214.667E-03    -106.695E-03     96.9996E-03    -108.974E-03     215.088E-03    -106.442E-03     93.7979E-03
             796     8.90037E-03     99.4661E-03    -51.0247E+06    -74.6224E+06     14.3172E+06    -977.800E+03    -107.820E-03     214.490E-03    -106.670E-03     99.6618E-03    -108.988E-03     215.171E-03    -106.416E-03     96.1848E-03
             797     9.71013E-03     99.5762E-03    -44.8408E+06    -48.2589E+06     24.5985E+06    -401.417E+03    -107.532E-03     214.172E-03    -106.640E-03     99.9127E-03    -108.831E-03     215.070E-03    -106.382E-03     96.2404E-03
             798     10.5198E-03     99.6852E-03    -38.7348E+06    -16.7473E+06     34.1827E+06     46.5243E+03    -107.217E-03     213.813E-03    -106.596E-03     97.4226E-03    -108.605E-03     214.905E-03    -106.345E-03     93.6365E-03
             799     11.3296E-03     99.7893E-03    -32.9760E+06     12.4584E+06     43.8487E+06     772.387E+03    -106.858E-03     213.416E-03    -106.558E-03     91.7640E-03    -108.268E-03     214.627E-03    -106.309E-03     87.9540E-03
             800     12.1386E-03     99.8856E-03    -27.5095E+06     57.7633E+06     51.4578E+06     1.46180E+06    -106.174E-03     212.658E-03    -106.483E-03     83.1766E-03    -107.568E-03     214.009E-03    -106.270E-03     79.4275E-03
             801     12.9482E-03     99.9704E-03    -22.3358E+06     107.368E+06     65.5883E+06     1.32799E+06    -105.374E-03     211.794E-03    -106.421E-03     72.6916E-03    -106.722E-03     213.254E-03    -106.216E-03     69.0484E-03
             802     13.7598E-03     100.041E-03    -16.6639E+06     121.006E+06     76.7550E+06     681.255E+03    -105.066E-03     211.458E-03    -106.392E-03     58.4975E-03    -106.255E-03     212.795E-03    -106.159E-03     55.0145E-03
             803     14.5689E-03     100.095E-03    -10.9492E+06     125.862E+06     88.1016E+06     59.6286E+03    -104.870E-03     211.257E-03    -106.387E-03     44.7134E-03    -105.918E-03     212.457E-03    -106.113E-03     41.3344E-03
             804     15.3770E-03     100.137E-03    -5.07133E+06     127.764E+06     99.5534E+06     218.637E+03    -104.582E-03     210.970E-03    -106.388E-03     20.7178E-03    -105.336E-03     211.870E-03    -106.068E-03     18.0514E-03
             805     808.934E-06     99.9096E-03    -122.504E+06    -271.513E+06    -119.848E+06    -340.377E+03    -106.717E-03     213.278E-03    -106.562E-03     14.4496E-03    -106.772E-03     212.283E-03    -106.590E-03     14.1548E-03
             806     1.61791E-03     99.9317E-03    -118.107E+06    -262.615E+06    -106.994E+06    -312.569E+03    -106.773E-03     213.435E-03    -106.662E-03     26.2058E-03    -106.861E-03     212.482E-03    -106.645E-03     25.6574E-03
             807     2.42680E-03     99.9678E-03    -111.440E+06    -248.954E+06    -89.2917E+06    -595.255E+03    -106.897E-03     213.609E-03    -106.712E-03     38.3094E-03    -107.037E-03     212.729E-03    -106.636E-03     37.4768E-03
             808     3.23596E-03     100.017E-03    -103.564E+06    -229.854E+06    -72.0002E+06    -1.09075E+06    -107.065E-03     213.806E-03    -106.740E-03     49.7567E-03    -107.277E-03     213.042E-03    -106.617E-03     48.6171E-03
             809     4.04502E-03     100.078E-03    -95.5329E+06    -211.186E+06    -55.7954E+06    -1.24274E+06    -107.311E-03     214.073E-03    -106.763E-03     60.4931E-03    -107.609E-03     213.445E-03    -106.597E-03     59.0290E-03
             810     4.85408E-03     100.151E-03    -87.2944E+06    -193.176E+06    -40.5660E+06    -1.41561E+06    -107.537E-03     214.320E-03    -106.783E-03     70.2219E-03    -107.940E-03     213.845E-03    -106.579E-03     68.4133E-03
             811     5.66322E-03     100.234E-03    -79.3574E+06    -172.055E+06    -28.4682E+06    -1.97297E+06    -107.713E-03     214.494E-03    -106.781E-03     78.8359E-03    -108.242E-03     214.212E-03    -106.558E-03     76.6658E-03
             812     6.47236E-03     100.326E-03    -71.7288E+06    -150.567E+06    -17.6101E+06    -2.15101E+06    -107.891E-03     214.662E-03    -106.770E-03     86.2911E-03    -108.564E-03     214.596E-03    -106.536E-03     83.7577E-03
             813     7.28168E-03     100.425E-03    -64.5714E+06    -126.822E+06    -7.13048E+06    -2.07502E+06    -107.993E-03     214.749E-03    -106.756E-03     92.4386E-03    -108.828E-03     214.925E-03    -106.514E-03     89.5530E-03
             814     8.09068E-03     100.530E-03    -57.8806E+06    -103.342E+06     3.01848E+06    -2.03025E+06    -107.928E-03     214.664E-03    -106.736E-03     96.9439E-03    -108.931E-03     215.086E-03    -106.487E-03     93.7329E-03
             815     8.90054E-03     100.639E-03    -51.3003E+06    -75.0414E+06     13.3669E+06    -1.61478E+06    -107.773E-03     214.477E-03    -106.703E-03     99.5148E-03    -108.940E-03     215.156E-03    -106.453E-03     96.0323E-03
             816     9.70969E-03     100.749E-03    -44.8469E+06    -48.9485E+06     23.6492E+06    -1.27041E+06    -107.603E-03     214.275E-03    -106.672E-03     99.6895E-03    -108.900E-03     215.171E-03    -106.418E-03     96.0006E-03
             817     10.5192E-03     100.857E-03    -38.6167E+06    -18.2639E+06     33.0908E+06    -557.528E+03    -107.276E-03     213.908E-03    -106.631E-03     97.1945E-03    -108.659E-03     214.993E-03    -106.383E-03     93.3959E-03
             818     11.3285E-03     100.962E-03    -32.5552E+06     11.4234E+06     43.1529E+06     296.007E+03    -106.642E-03     213.229E-03    -106.587E-03     91.6985E-03    -108.047E-03     214.433E-03    -106.340E-03     87.8913E-03
             819     12.1387E-03     101.058E-03    -26.8508E+06     56.6652E+06     50.9946E+06     1.28880E+06    -105.873E-03     212.365E-03    -106.493E-03     83.2451E-03    -107.258E-03     213.708E-03    -106.281E-03     79.5107E-03
             820     12.9499E-03     101.142E-03    -21.2861E+06     107.931E+06     65.6235E+06     1.63115E+06    -105.496E-03     211.918E-03    -106.422E-03     72.5931E-03    -106.839E-03     213.379E-03    -106.220E-03     68.9520E-03
             821     13.7585E-03     101.214E-03    -16.3354E+06     121.359E+06     76.7637E+06     627.685E+03    -105.319E-03     211.725E-03    -106.406E-03     58.3022E-03    -106.507E-03     213.062E-03    -106.174E-03     54.8126E-03
             822     14.5684E-03     101.268E-03    -10.7773E+06     126.346E+06     88.7165E+06     426.821E+03    -104.773E-03     211.181E-03    -106.408E-03     44.8402E-03    -105.821E-03     212.382E-03    -106.132E-03     41.4751E-03
             823     15.3806E-03     101.308E-03    -4.84365E+06     128.758E+06     99.9975E+06     216.267E+03    -104.469E-03     210.869E-03    -106.400E-03     20.7780E-03    -105.225E-03     211.775E-03    -106.080E-03     18.1173E-03
             824     808.980E-06     101.082E-03    -123.392E+06    -270.360E+06    -120.248E+06    -958.003E+03    -106.788E-03     213.355E-03    -106.567E-03     14.5094E-03    -106.849E-03     212.367E-03    -106.597E-03     14.2036E-03
             825     1.61789E-03     101.104E-03    -118.939E+06    -262.592E+06    -108.178E+06    -610.972E+03    -106.842E-03     213.547E-03    -106.705E-03     26.1654E-03    -106.933E-03     212.597E-03    -106.693E-03     25.6141E-03
             826     2.42687E-03     101.140E-03    -112.638E+06    -247.674E+06    -91.3927E+06    -816.424E+03    -106.962E-03     213.720E-03    -106.758E-03     38.2251E-03    -107.106E-03     212.851E-03    -106.693E-03     37.3896E-03
             827     3.23572E-03     101.189E-03    -104.892E+06    -228.522E+06    -73.7160E+06    -1.67155E+06    -107.141E-03     213.934E-03    -106.793E-03     49.7483E-03    -107.358E-03     213.182E-03    -106.679E-03     48.5991E-03
             828     4.04473E-03     101.251E-03    -96.3917E+06    -210.742E+06    -56.4892E+06    -1.95353E+06    -107.358E-03     214.181E-03    -106.823E-03     60.4916E-03    -107.661E-03     213.557E-03    -106.660E-03     59.0160E-03
             829     4.85378E-03     101.324E-03    -87.9862E+06    -192.116E+06    -41.5785E+06    -2.11212E+06    -107.565E-03     214.402E-03    -106.837E-03     70.1948E-03    -107.972E-03     213.935E-03    -106.639E-03     68.3761E-03
             830     5.66288E-03     101.407E-03    -80.0587E+06    -171.030E+06    -29.5228E+06    -2.65231E+06    -107.772E-03     214.605E-03    -106.833E-03     78.8377E-03    -108.305E-03     214.332E-03    -106.616E-03     76.6557E-03
             831     6.47203E-03     101.499E-03    -72.6447E+06    -149.890E+06    -18.7147E+06    -3.17146E+06    -107.934E-03     214.757E-03    -106.823E-03     86.2884E-03    -108.611E-03     214.698E-03    -106.594E-03     83.7393E-03
             832     7.28115E-03     101.598E-03    -65.3662E+06    -126.885E+06    -8.37650E+06    -3.15118E+06    -107.995E-03     214.800E-03    -106.805E-03     92.3190E-03    -108.831E-03     214.979E-03    -106.569E-03     89.4181E-03
             833     8.09067E-03     101.703E-03    -58.3571E+06    -103.105E+06     2.08593E+06    -2.89095E+06    -107.956E-03     214.740E-03    -106.783E-03     96.7129E-03    -108.959E-03     215.163E-03    -106.539E-03     93.4884E-03
             834     8.89959E-03     101.811E-03    -51.6102E+06    -75.3718E+06     12.3402E+06    -2.80269E+06    -107.806E-03     214.556E-03    -106.750E-03     99.2851E-03    -108.970E-03     215.234E-03    -106.504E-03     95.7846E-03
             835     9.70942E-03     101.921E-03    -45.1829E+06    -49.9900E+06     22.4439E+06    -2.22736E+06    -107.574E-03     214.290E-03    -106.716E-03     99.6268E-03    -108.868E-03     215.181E-03    -106.466E-03     95.9259E-03
             836     10.5186E-03     102.030E-03    -39.0172E+06    -19.4056E+06     32.0157E+06    -1.53251E+06    -107.126E-03     213.791E-03    -106.665E-03     97.3116E-03    -108.506E-03     214.871E-03    -106.420E-03     93.5080E-03
             837     11.3287E-03     102.134E-03    -33.1442E+06     9.83575E+06     41.9538E+06    -305.981E+03    -106.512E-03     213.120E-03    -106.608E-03     91.5007E-03    -107.913E-03     214.317E-03    -106.364E-03     87.6925E-03
             838     12.1391E-03     102.229E-03    -27.5360E+06     55.3419E+06     49.9818E+06     687.553E+03    -106.107E-03     212.625E-03    -106.518E-03     82.5762E-03    -107.491E-03     213.962E-03    -106.308E-03     78.8181E-03
             839     12.9480E-03     102.314E-03    -21.7093E+06     107.645E+06     64.8139E+06     988.555E+03    -105.677E-03     212.137E-03    -106.460E-03     71.9150E-03    -107.021E-03     213.597E-03    -106.260E-03     68.2480E-03
             840     13.7584E-03     102.387E-03    -16.0658E+06     122.876E+06     76.7441E+06     1.11122E+06    -104.952E-03     211.389E-03    -106.437E-03     57.7720E-03    -106.138E-03     212.732E-03    -106.208E-03     54.2935E-03
             841     14.5690E-03     102.439E-03    -11.2971E+06     127.011E+06     88.7718E+06     175.892E+03    -104.540E-03     210.964E-03    -106.424E-03     44.3557E-03    -105.592E-03     212.169E-03    -106.148E-03     40.9829E-03
             842     15.3776E-03     102.480E-03    -6.09692E+06     128.470E+06     99.8630E+06     91.2258E+03    -104.447E-03     210.858E-03    -106.411E-03     20.4019E-03    -105.209E-03     211.765E-03    -106.089E-03     17.7278E-03
             843     808.890E-06     102.255E-03    -126.037E+06    -268.308E+06    -122.158E+06    -903.248E+03    -106.824E-03     213.528E-03    -106.705E-03     14.4717E-03    -106.898E-03     212.558E-03    -106.744E-03     14.1684E-03
             844     1.61764E-03     102.277E-03    -120.816E+06    -262.416E+06    -108.414E+06    -1.03935E+06    -106.868E-03     213.660E-03    -106.792E-03     26.1588E-03    -106.968E-03     212.714E-03    -106.778E-03     25.5999E-03
             845     2.42647E-03     102.313E-03    -113.657E+06    -245.682E+06    -93.1423E+06    -1.60390E+06    -107.013E-03     213.832E-03    -106.819E-03     38.2568E-03    -107.164E-03     212.977E-03    -106.764E-03     37.4101E-03
             846     3.23553E-03     102.362E-03    -105.780E+06    -226.650E+06    -75.4134E+06    -2.40886E+06    -107.217E-03     214.071E-03    -106.853E-03     49.7869E-03    -107.439E-03     213.331E-03    -106.748E-03     48.6265E-03
             847     4.04445E-03     102.424E-03    -97.5267E+06    -210.277E+06    -57.4633E+06    -2.78834E+06    -107.416E-03     214.306E-03    -106.890E-03     60.4378E-03    -107.724E-03     213.688E-03    -106.731E-03     58.9496E-03
             848     4.85350E-03     102.497E-03    -89.1703E+06    -191.056E+06    -43.0013E+06    -3.11447E+06    -107.609E-03     214.508E-03    -106.899E-03     70.1236E-03    -108.021E-03     214.050E-03    -106.708E-03     68.2895E-03
             849     5.66256E-03     102.580E-03    -81.0384E+06    -169.743E+06    -30.7008E+06    -3.62559E+06    -107.819E-03     214.712E-03    -106.893E-03     78.7620E-03    -108.357E-03     214.448E-03    -106.683E-03     76.5652E-03
             850     6.47161E-03     102.671E-03    -73.2880E+06    -148.632E+06    -19.4727E+06    -3.97479E+06    -107.991E-03     214.876E-03    -106.884E-03     86.1805E-03    -108.672E-03     214.825E-03    -106.660E-03     83.6174E-03
             851     7.28076E-03     102.771E-03    -66.1073E+06    -126.160E+06    -9.28785E+06    -4.41308E+06    -108.045E-03     214.912E-03    -106.867E-03     92.1526E-03    -108.885E-03     215.096E-03    -106.635E-03     89.2319E-03
             852     8.08978E-03     102.875E-03    -58.9129E+06    -103.213E+06     751.127E+03    -4.55156E+06    -107.988E-03     214.830E-03    -106.843E-03     96.5499E-03    -108.990E-03     215.255E-03    -106.604E-03     93.3013E-03
             853     8.89944E-03     102.984E-03    -51.9658E+06    -75.6121E+06     11.1706E+06    -4.06019E+06    -107.834E-03     214.642E-03    -106.808E-03     99.1705E-03    -108.999E-03     215.321E-03    -106.567E-03     95.6489E-03
             854     9.70850E-03     103.094E-03    -45.2605E+06    -50.7405E+06     21.3324E+06    -3.55054E+06    -107.513E-03     214.281E-03    -106.768E-03     99.3787E-03    -108.804E-03     215.170E-03    -106.523E-03     95.6600E-03
             855     10.5188E-03     103.202E-03    -38.8924E+06    -20.5280E+06     30.7553E+06    -2.56380E+06    -107.041E-03     213.750E-03    -106.709E-03     96.5606E-03    -108.413E-03     214.822E-03    -106.469E-03     92.7440E-03
             856     11.3285E-03     103.306E-03    -32.9485E+06     7.26500E+06     40.4259E+06    -1.25524E+06    -106.732E-03     213.388E-03    -106.656E-03     90.7155E-03    -108.124E-03     214.572E-03    -106.417E-03     86.8801E-03
             857     12.1373E-03     103.402E-03    -27.1093E+06     53.2489E+06     48.4217E+06     370.473E+03    -106.294E-03     212.870E-03    -106.576E-03     82.4039E-03    -107.672E-03     214.201E-03    -106.372E-03     78.6287E-03
             858     12.9474E-03     103.487E-03    -22.0001E+06     108.059E+06     64.1247E+06     1.12618E+06    -105.345E-03     211.857E-03    -106.512E-03     71.9618E-03    -106.688E-03     213.319E-03    -106.316E-03     68.3118E-03
             859     13.7576E-03     103.558E-03    -16.7970E+06     123.672E+06     75.9102E+06     1.06815E+06    -104.522E-03     210.985E-03    -106.463E-03     57.7894E-03    -105.709E-03     212.332E-03    -106.238E-03     54.3325E-03
             860     14.5680E-03     103.610E-03    -11.0816E+06     127.532E+06     87.9443E+06     996.071E+03    -104.215E-03     210.640E-03    -106.426E-03     45.2348E-03    -105.263E-03     211.847E-03    -106.155E-03     41.9027E-03
             861     15.3791E-03     103.653E-03    -5.45062E+06     128.531E+06     99.9036E+06    -60.1198E+03    -104.287E-03     210.690E-03    -106.403E-03     21.0221E-03    -105.045E-03     211.595E-03    -106.082E-03     18.3681E-03
             862     808.619E-06     103.428E-03    -127.055E+06    -265.725E+06    -122.692E+06    -1.03634E+06    -106.871E-03     213.720E-03    -106.849E-03     14.4564E-03    -106.954E-03     212.764E-03    -106.893E-03     14.1506E-03
             863     1.61762E-03     103.450E-03    -121.399E+06    -261.107E+06    -108.435E+06    -1.60398E+06    -106.909E-03     213.791E-03    -106.882E-03     26.2063E-03    -107.014E-03     212.852E-03    -106.869E-03     25.6388E-03
             864     2.42656E-03     103.486E-03    -114.107E+06    -243.173E+06    -92.9732E+06    -2.58181E+06    -107.094E-03     213.991E-03    -106.897E-03     38.2656E-03    -107.250E-03     213.149E-03    -106.844E-03     37.4045E-03
             865     3.23524E-03     103.535E-03    -106.354E+06    -225.284E+06    -75.8263E+06    -3.04761E+06    -107.286E-03     214.217E-03    -106.931E-03     49.7418E-03    -107.512E-03     213.486E-03    -106.829E-03     48.5721E-03
             866     4.04414E-03     103.597E-03    -98.4224E+06    -208.850E+06    -58.3023E+06    -3.26624E+06    -107.489E-03     214.454E-03    -106.965E-03     60.3710E-03    -107.802E-03     213.846E-03    -106.811E-03     58.8745E-03
             867     4.85302E-03     103.670E-03    -90.2204E+06    -189.266E+06    -44.0421E+06    -4.06423E+06    -107.707E-03     214.682E-03    -106.975E-03     70.0535E-03    -108.126E-03     214.236E-03    -106.790E-03     68.2029E-03
             868     5.66203E-03     103.752E-03    -81.9788E+06    -168.154E+06    -31.6613E+06    -4.79423E+06    -107.901E-03     214.873E-03    -106.972E-03     78.6427E-03    -108.444E-03     214.620E-03    -106.768E-03     76.4265E-03
             869     6.47107E-03     103.844E-03    -74.1201E+06    -147.371E+06    -20.6028E+06    -5.42437E+06    -108.032E-03     214.994E-03    -106.962E-03     86.0045E-03    -108.717E-03     214.952E-03    -106.744E-03     83.4193E-03
             870     7.28012E-03     103.943E-03    -66.4303E+06    -124.794E+06    -10.2233E+06    -5.79938E+06    -108.076E-03     215.017E-03    -106.941E-03     91.9605E-03    -108.917E-03     215.209E-03    -106.715E-03     89.0189E-03
             871     8.08946E-03     104.048E-03    -59.5277E+06    -102.683E+06    -404.421E+03    -6.04748E+06    -108.043E-03     214.957E-03    -106.915E-03     96.3521E-03    -109.048E-03     215.387E-03    -106.681E-03     93.0782E-03
             872     8.89848E-03     104.156E-03    -52.7254E+06    -76.2159E+06     9.54367E+06    -5.80142E+06    -107.900E-03     214.779E-03    -106.879E-03     98.8313E-03    -109.065E-03     215.458E-03    -106.644E-03     95.2802E-03
             873     9.70827E-03     104.266E-03    -46.0358E+06    -51.3879E+06     19.6415E+06    -5.08264E+06    -107.615E-03     214.458E-03    -106.843E-03     98.7812E-03    -108.905E-03     215.344E-03    -106.603E-03     95.0349E-03
             874     10.5171E-03     104.374E-03    -39.4482E+06    -22.1697E+06     29.1652E+06    -4.22415E+06    -107.239E-03     214.032E-03    -106.793E-03     96.0618E-03    -108.608E-03     215.098E-03    -106.557E-03     92.2113E-03
             875     11.3267E-03     104.479E-03    -32.5898E+06     5.18116E+06     39.1789E+06    -2.90997E+06    -106.725E-03     213.468E-03    -106.742E-03     90.5953E-03    -108.111E-03     214.642E-03    -106.507E-03     86.7347E-03
             876     12.1370E-03     104.574E-03    -26.2860E+06     49.8056E+06     46.9533E+06    -855.686E+03    -105.838E-03     212.479E-03    -106.641E-03     82.2508E-03    -107.200E-03     213.788E-03    -106.441E-03     78.4818E-03
             877     12.9471E-03     104.658E-03    -20.1440E+06     106.691E+06     63.7440E+06     1.62440E+06    -104.953E-03     211.500E-03    -106.547E-03     71.7240E-03    -106.280E-03     212.949E-03    -106.354E-03     68.1007E-03
             878     13.7579E-03     104.729E-03    -15.0433E+06     124.972E+06     75.8414E+06     1.58636E+06    -104.558E-03     211.041E-03    -106.482E-03     57.4488E-03    -105.737E-03     212.389E-03    -106.263E-03     53.9956E-03
             879     14.5689E-03     104.781E-03    -9.90695E+06     128.198E+06     87.8390E+06     297.161E+03    -104.141E-03     210.586E-03    -106.445E-03     43.8042E-03    -105.180E-03     211.790E-03    -106.178E-03     40.4540E-03
             880     15.3800E-03     104.823E-03    -4.74870E+06     129.076E+06     100.427E+06     168.119E+03    -104.087E-03     210.506E-03    -106.419E-03     19.6192E-03    -104.838E-03     211.407E-03    -106.097E-03     16.9677E-03
             881     808.765E-06     104.601E-03    -126.766E+06    -263.987E+06    -122.250E+06    -218.818E+03    -106.972E-03     213.884E-03    -106.912E-03     14.3120E-03    -107.057E-03     212.937E-03    -106.957E-03     14.0142E-03
             882     1.61740E-03     104.623E-03    -121.838E+06    -258.083E+06    -109.581E+06    -1.77507E+06    -107.067E-03     214.039E-03    -106.972E-03     26.1632E-03    -107.177E-03     213.118E-03    -106.969E-03     25.5921E-03
             883     2.42600E-03     104.659E-03    -115.366E+06    -240.722E+06    -94.0314E+06    -2.94092E+06    -107.178E-03     214.181E-03    -107.003E-03     38.1606E-03    -107.343E-03     213.354E-03    -106.957E-03     37.2919E-03
             884     3.23494E-03     104.708E-03    -107.948E+06    -224.146E+06    -75.8555E+06    -3.23918E+06    -107.338E-03     214.374E-03    -107.036E-03     49.6370E-03    -107.574E-03     213.651E-03    -106.934E-03     48.4626E-03
             885     4.04377E-03     104.770E-03    -99.5092E+06    -206.397E+06    -58.7652E+06    -3.91048E+06    -107.567E-03     214.627E-03    -107.059E-03     60.2750E-03    -107.889E-03     214.033E-03    -106.910E-03     58.7670E-03
             886     4.85267E-03     104.843E-03    -90.8931E+06    -186.499E+06    -44.6213E+06    -5.12512E+06    -107.811E-03     214.879E-03    -107.068E-03     69.9587E-03    -108.236E-03     214.449E-03    -106.889E-03     68.0900E-03
             887     5.66144E-03     104.926E-03    -82.5692E+06    -166.086E+06    -32.5129E+06    -6.19222E+06    -108.012E-03     215.080E-03    -107.068E-03     78.5443E-03    -108.560E-03     214.840E-03    -106.870E-03     76.3045E-03
             888     6.47037E-03     105.017E-03    -74.6815E+06    -145.477E+06    -21.6550E+06    -6.94545E+06    -108.131E-03     215.190E-03    -107.059E-03     85.8089E-03    -108.820E-03     215.160E-03    -106.848E-03     83.1984E-03
             889     7.27947E-03     105.117E-03    -67.4134E+06    -123.897E+06    -11.6719E+06    -7.46255E+06    -108.167E-03     215.206E-03    -107.039E-03     91.6032E-03    -109.012E-03     215.406E-03    -106.820E-03     88.6329E-03
             890     8.08850E-03     105.221E-03    -60.2426E+06    -101.654E+06    -1.61044E+06    -7.44417E+06    -108.139E-03     215.154E-03    -107.015E-03     95.8825E-03    -109.146E-03     215.591E-03    -106.788E-03     92.5834E-03
             891     8.89779E-03     105.330E-03    -53.6591E+06    -76.0749E+06     8.01671E+06    -7.42804E+06    -107.972E-03     214.952E-03    -106.980E-03     98.3772E-03    -109.136E-03     215.633E-03    -106.752E-03     94.8006E-03
             892     9.70660E-03     105.439E-03    -47.0678E+06    -52.1773E+06     17.8956E+06    -6.91176E+06    -107.678E-03     214.620E-03    -106.943E-03     98.4981E-03    -108.967E-03     215.505E-03    -106.709E-03     94.7246E-03
             893     10.5165E-03     105.547E-03    -40.3994E+06    -22.8321E+06     27.8022E+06    -6.11128E+06    -107.234E-03     214.123E-03    -106.889E-03     96.0523E-03    -108.605E-03     215.190E-03    -106.659E-03     92.1742E-03
             894     11.3260E-03     105.651E-03    -34.3181E+06     2.85324E+06     37.0022E+06    -5.01029E+06    -106.519E-03     213.343E-03    -106.824E-03     90.4953E-03    -107.904E-03     214.510E-03    -106.594E-03     86.6160E-03
             895     12.1358E-03     105.746E-03    -28.1546E+06     45.7653E+06     44.3948E+06    -2.52914E+06    -105.671E-03     212.378E-03    -106.707E-03     81.6642E-03    -107.029E-03     213.670E-03    -106.510E-03     77.8789E-03
             896     12.9468E-03     105.829E-03    -22.0954E+06     103.564E+06     61.1256E+06    -276.231E+03    -104.955E-03     211.558E-03    -106.603E-03     70.7474E-03    -106.278E-03     212.993E-03    -106.416E-03     67.0937E-03
             897     13.7570E-03     105.901E-03    -15.3353E+06     125.559E+06     75.4740E+06     1.01846E+06    -104.456E-03     210.994E-03    -106.538E-03     56.6211E-03    -105.633E-03     212.343E-03    -106.320E-03     53.1573E-03
             898     14.5663E-03     105.953E-03    -10.3008E+06     129.113E+06     88.4302E+06     1.42302E+06    -104.032E-03     210.529E-03    -106.497E-03     43.8137E-03    -105.075E-03     211.737E-03    -106.227E-03     40.4792E-03
             899     15.3760E-03     105.994E-03    -5.71181E+06     129.326E+06     100.292E+06     819.862E+03    -103.563E-03     210.013E-03    -106.450E-03     20.5105E-03    -104.322E-03     210.920E-03    -106.128E-03     17.8775E-03
             900     808.646E-06     105.774E-03    -129.303E+06    -262.576E+06    -126.008E+06    -480.030E+03    -107.153E-03     214.136E-03    -106.982E-03     14.2777E-03    -107.247E-03     213.204E-03    -107.044E-03     13.9740E-03
             901     1.61714E-03     105.797E-03    -124.127E+06    -253.811E+06    -112.565E+06    -2.03045E+06    -107.187E-03     214.280E-03    -107.092E-03     26.1346E-03    -107.311E-03     213.388E-03    -107.107E-03     25.5582E-03
             902     2.42587E-03     105.832E-03    -117.402E+06    -238.624E+06    -94.9823E+06    -3.07850E+06    -107.286E-03     214.420E-03    -107.133E-03     38.1220E-03    -107.463E-03     213.608E-03    -107.092E-03     37.2491E-03
             903     3.23450E-03     105.882E-03    -109.370E+06    -222.139E+06    -75.8657E+06    -3.65714E+06    -107.461E-03     214.630E-03    -107.168E-03     49.5314E-03    -107.707E-03     213.919E-03    -107.067E-03     48.3478E-03
             904     4.04325E-03     105.943E-03    -100.549E+06    -203.219E+06    -59.3229E+06    -4.97889E+06    -107.677E-03     214.864E-03    -107.187E-03     60.1047E-03    -108.007E-03     214.288E-03    -107.043E-03     58.5786E-03
             905     4.85194E-03     106.016E-03    -91.4474E+06    -183.398E+06    -45.2923E+06    -6.46465E+06    -107.915E-03     215.108E-03    -107.193E-03     69.7546E-03    -108.346E-03     214.695E-03    -107.021E-03     67.8643E-03
             906     5.66084E-03     106.099E-03    -83.0501E+06    -163.350E+06    -33.3817E+06    -7.62332E+06    -108.130E-03     215.321E-03    -107.191E-03     78.2514E-03    -108.683E-03     215.096E-03    -107.001E-03     75.9878E-03
             907     6.46961E-03     106.191E-03    -75.4215E+06    -143.525E+06    -22.7901E+06    -8.31687E+06    -108.269E-03     215.453E-03    -107.184E-03     85.4627E-03    -108.962E-03     215.435E-03    -106.981E-03     82.8274E-03
             908     7.27836E-03     106.290E-03    -68.1345E+06    -121.967E+06    -12.6312E+06    -8.83619E+06    -108.327E-03     215.496E-03    -107.170E-03     91.3025E-03    -109.176E-03     215.708E-03    -106.957E-03     88.3059E-03
             909     8.08727E-03     106.394E-03    -61.0718E+06    -101.056E+06    -3.03591E+06    -9.32156E+06    -108.244E-03     215.391E-03    -107.147E-03     95.5872E-03    -109.253E-03     215.834E-03    -106.927E-03     92.2571E-03
             910     8.89625E-03     106.502E-03    -53.8951E+06    -75.2473E+06     7.10172E+06    -9.10114E+06    -107.995E-03     215.104E-03    -107.109E-03     98.0182E-03    -109.159E-03     215.789E-03    -106.886E-03     94.4169E-03
             911     9.70605E-03     106.612E-03    -47.2035E+06    -52.2400E+06     16.8843E+06    -8.69672E+06    -107.641E-03     214.703E-03    -107.062E-03     98.1184E-03    -108.927E-03     215.588E-03    -106.834E-03     94.3185E-03
             912     10.5150E-03     106.720E-03    -41.1639E+06    -24.5673E+06     25.7132E+06    -7.66210E+06    -107.062E-03     214.054E-03    -106.991E-03     95.4874E-03    -108.428E-03     215.111E-03    -106.767E-03     91.5931E-03
             913     11.3251E-03     106.823E-03    -35.3149E+06     1.45001E+06     35.3685E+06    -6.06015E+06    -106.404E-03     213.317E-03    -106.913E-03     89.7413E-03    -107.784E-03     214.474E-03    -106.687E-03     85.8536E-03
             914     12.1354E-03     106.918E-03    -29.7976E+06     41.8368E+06     41.6431E+06    -4.33238E+06    -105.796E-03     212.586E-03    -106.790E-03     81.1112E-03    -107.150E-03     213.862E-03    -106.599E-03     77.2944E-03
             915     12.9446E-03     107.002E-03    -24.0878E+06     100.413E+06     58.6037E+06    -1.83961E+06    -104.885E-03     211.569E-03    -106.684E-03     70.5515E-03    -106.210E-03     212.995E-03    -106.502E-03     66.8772E-03
             916     13.7551E-03     107.072E-03    -18.5962E+06     123.629E+06     72.2813E+06     308.084E+03    -103.906E-03     210.499E-03    -106.593E-03     56.8996E-03    -105.091E-03     211.847E-03    -106.384E-03     53.4493E-03
             917     14.5679E-03     107.124E-03    -11.9957E+06     128.828E+06     86.7384E+06     1.04715E+06    -103.313E-03     209.829E-03    -106.516E-03     44.0879E-03    -104.361E-03     211.040E-03    -106.252E-03     40.7770E-03
             918     15.3803E-03     107.165E-03    -5.24189E+06     131.031E+06     101.649E+06     545.495E+03    -103.286E-03     209.736E-03    -106.450E-03     20.2645E-03    -104.044E-03     210.646E-03    -106.124E-03     17.6407E-03
             919     808.325E-06     106.948E-03    -130.048E+06    -259.360E+06    -127.158E+06    -1.58251E+06    -107.315E-03     214.428E-03    -107.112E-03     14.3502E-03    -107.416E-03     213.515E-03    -107.183E-03     14.0309E-03
             920     1.61695E-03     106.970E-03    -125.281E+06    -250.243E+06    -113.886E+06    -2.65081E+06    -107.314E-03     214.546E-03    -107.232E-03     26.1603E-03    -107.446E-03     213.676E-03    -107.257E-03     25.5749E-03
             921     2.42541E-03     107.006E-03    -118.020E+06    -236.389E+06    -94.3713E+06    -3.27555E+06    -107.478E-03     214.766E-03    -107.288E-03     38.0046E-03    -107.662E-03     213.966E-03    -107.246E-03     37.1264E-03
             922     3.23396E-03     107.056E-03    -109.339E+06    -218.934E+06    -75.4805E+06    -4.51248E+06    -107.651E-03     214.983E-03    -107.332E-03     49.3920E-03    -107.902E-03     214.288E-03    -107.233E-03     48.1928E-03
             923     4.04249E-03     107.117E-03    -100.102E+06    -199.267E+06    -59.4896E+06    -6.22421E+06    -107.867E-03     215.219E-03    -107.352E-03     59.9396E-03    -108.201E-03     214.663E-03    -107.216E-03     58.3913E-03
             924     4.85122E-03     107.190E-03    -91.4727E+06    -179.824E+06    -45.8578E+06    -7.71812E+06    -108.092E-03     215.453E-03    -107.362E-03     69.4859E-03    -108.527E-03     215.059E-03    -107.198E-03     67.5727E-03
             925     5.65969E-03     107.273E-03    -83.5148E+06    -160.394E+06    -34.0954E+06    -8.80304E+06    -108.269E-03     215.630E-03    -107.361E-03     77.9050E-03    -108.827E-03     215.421E-03    -107.178E-03     75.6197E-03
             926     6.46841E-03     107.365E-03    -75.6938E+06    -140.975E+06    -23.3099E+06    -9.85398E+06    -108.388E-03     215.741E-03    -107.352E-03     85.0916E-03    -109.085E-03     215.736E-03    -107.155E-03     82.4298E-03
             927     7.27724E-03     107.464E-03    -68.1577E+06    -119.933E+06    -13.3005E+06    -10.5107E+06    -108.414E-03     215.746E-03    -107.332E-03     90.9395E-03    -109.264E-03     215.967E-03    -107.126E-03     87.9152E-03
             928     8.08610E-03     107.568E-03    -61.1272E+06    -99.1162E+06    -3.56947E+06    -10.9415E+06    -108.334E-03     215.639E-03    -107.305E-03     95.1580E-03    -109.343E-03     216.090E-03    -107.091E-03     91.8004E-03
             929     8.89521E-03     107.676E-03    -54.4381E+06    -74.9459E+06     5.80266E+06    -11.2001E+06    -108.072E-03     215.333E-03    -107.262E-03     97.4799E-03    -109.235E-03     216.020E-03    -107.045E-03     93.8428E-03
             930     9.70393E-03     107.785E-03    -47.6802E+06    -52.5331E+06     15.4329E+06    -10.5386E+06    -107.569E-03     214.774E-03    -107.205E-03     97.4940E-03    -108.851E-03     215.655E-03    -106.982E-03     93.6701E-03
             931     10.5140E-03     107.893E-03    -40.8728E+06    -25.5307E+06     24.7060E+06    -9.52344E+06    -106.981E-03     214.102E-03    -107.121E-03     94.8364E-03    -108.336E-03     215.150E-03    -106.901E-03     90.9228E-03
             932     11.3236E-03     107.995E-03    -34.1155E+06    -1.63314E+06     33.9842E+06    -7.66973E+06    -106.329E-03     213.358E-03    -107.029E-03     89.1306E-03    -107.692E-03     214.496E-03    -106.807E-03     85.2227E-03
             933     12.1332E-03     108.090E-03    -28.0590E+06     39.6090E+06     41.4240E+06    -5.27779E+06    -105.374E-03     212.260E-03    -106.886E-03     80.9220E-03    -106.710E-03     213.517E-03    -106.696E-03     77.1140E-03
             934     12.9444E-03     108.173E-03    -22.5144E+06     95.9265E+06     58.1269E+06    -2.45198E+06    -104.362E-03     211.108E-03    -106.746E-03     70.7110E-03    -105.668E-03     212.505E-03    -106.562E-03     67.0579E-03
             935     13.7560E-03     108.242E-03    -16.5331E+06     121.522E+06     71.6356E+06     64.4154E+03    -103.671E-03     210.294E-03    -106.622E-03     56.7726E-03    -104.839E-03     211.627E-03    -106.416E-03     53.3315E-03
             936     14.5660E-03     108.294E-03    -11.0271E+06     129.750E+06     86.1130E+06    -59.4187E+03    -103.112E-03     209.640E-03    -106.528E-03     43.5206E-03    -104.151E-03     210.851E-03    -106.270E-03     40.2034E-03
             937     15.3765E-03     108.334E-03    -5.02311E+06     130.684E+06     101.449E+06    -194.007E+03    -102.826E-03     209.276E-03    -106.450E-03     19.9574E-03    -103.580E-03     210.182E-03    -106.125E-03     17.3357E-03
             938     808.472E-06     108.122E-03    -128.043E+06    -255.225E+06    -124.441E+06    -1.56819E+06    -107.511E-03     214.788E-03    -107.277E-03     14.2753E-03    -107.611E-03     213.888E-03    -107.343E-03     13.9584E-03
             939     1.61671E-03     108.144E-03    -123.672E+06    -246.775E+06    -111.536E+06    -2.68067E+06    -107.541E-03     214.966E-03    -107.425E-03     26.0580E-03    -107.674E-03     214.107E-03    -107.445E-03     25.4694E-03
             940     2.42498E-03     108.181E-03    -116.711E+06    -233.275E+06    -93.8897E+06    -3.76882E+06    -107.707E-03     215.194E-03    -107.487E-03     37.8899E-03    -107.890E-03     214.407E-03    -107.449E-03     37.0012E-03
             941     3.23330E-03     108.230E-03    -108.253E+06    -214.941E+06    -75.4678E+06    -5.37111E+06    -107.890E-03     215.426E-03    -107.537E-03     49.1778E-03    -108.141E-03     214.749E-03    -107.445E-03     47.9621E-03
             942     4.04174E-03     108.291E-03    -99.6022E+06    -195.000E+06    -59.7299E+06    -7.11050E+06    -108.098E-03     215.660E-03    -107.563E-03     59.7136E-03    -108.435E-03     215.125E-03    -107.434E-03     58.1482E-03
             943     4.84991E-03     108.364E-03    -91.2229E+06    -176.047E+06    -46.0592E+06    -8.66098E+06    -108.301E-03     215.877E-03    -107.576E-03     69.2275E-03    -108.740E-03     215.501E-03    -107.419E-03     67.2942E-03
             944     5.65857E-03     108.447E-03    -83.0730E+06    -156.617E+06    -34.0226E+06    -10.2100E+06    -108.450E-03     216.026E-03    -107.576E-03     77.6102E-03    -109.011E-03     215.834E-03    -107.398E-03     75.2982E-03
             945     6.46705E-03     108.539E-03    -75.3010E+06    -137.821E+06    -23.4266E+06    -11.3265E+06    -108.536E-03     216.099E-03    -107.562E-03     84.7026E-03    -109.234E-03     216.108E-03    -107.370E-03     82.0139E-03
             946     7.27564E-03     108.637E-03    -68.0273E+06    -117.651E+06    -13.7326E+06    -12.1170E+06    -108.522E-03     216.058E-03    -107.536E-03     90.4230E-03    -109.373E-03     216.289E-03    -107.335E-03     87.3708E-03
             947     8.08445E-03     108.742E-03    -61.0410E+06    -97.0984E+06    -4.13031E+06    -12.6863E+06    -108.386E-03     215.884E-03    -107.498E-03     94.5958E-03    -109.394E-03     216.343E-03    -107.290E-03     91.2116E-03
             948     8.89312E-03     108.849E-03    -54.2312E+06    -73.3485E+06     5.42483E+06    -12.9930E+06    -108.040E-03     215.483E-03    -107.442E-03     96.9258E-03    -109.200E-03     216.173E-03    -107.230E-03     93.2665E-03
             949     9.70279E-03     108.958E-03    -47.3441E+06    -52.4003E+06     14.8304E+06    -12.9047E+06    -107.529E-03     214.900E-03    -107.370E-03     96.9409E-03    -108.804E-03     215.777E-03    -107.151E-03     93.0887E-03
             950     10.5120E-03     109.065E-03    -40.3122E+06    -26.5125E+06     23.9572E+06    -12.0254E+06    -106.832E-03     214.101E-03    -107.268E-03     94.3802E-03    -108.177E-03     215.139E-03    -107.052E-03     90.4416E-03
             951     11.3219E-03     109.168E-03    -33.5226E+06    -4.19650E+06     32.9763E+06    -10.4172E+06    -105.906E-03     213.053E-03    -107.147E-03     88.9436E-03    -107.255E-03     214.172E-03    -106.927E-03     85.0231E-03
             952     12.1328E-03     109.261E-03    -26.9720E+06     35.3083E+06     40.1061E+06    -7.18954E+06    -104.845E-03     211.809E-03    -106.964E-03     80.5827E-03    -106.160E-03     213.037E-03    -106.776E-03     76.7805E-03
             953     12.9442E-03     109.344E-03    -21.0258E+06     90.7352E+06     56.8531E+06    -3.06329E+06    -103.979E-03     210.769E-03    -106.791E-03     70.1824E-03    -105.259E-03     212.133E-03    -106.608E-03     66.5450E-03
             954     13.7546E-03     109.414E-03    -15.7564E+06     119.058E+06     69.8508E+06    -464.868E+03    -103.385E-03     210.024E-03    -106.639E-03     56.3778E-03    -104.537E-03     211.340E-03    -106.440E-03     52.9503E-03
             955     14.5670E-03     109.464E-03    -10.5114E+06     130.918E+06     85.2991E+06     509.032E+03    -102.860E-03     209.389E-03    -106.528E-03     43.7739E-03    -103.896E-03     210.604E-03    -106.277E-03     40.4821E-03
             956     15.3796E-03     109.504E-03    -5.52640E+06     130.793E+06     101.346E+06     31.6433E+03    -102.715E-03     209.161E-03    -106.446E-03     20.0964E-03    -103.473E-03     210.069E-03    -106.121E-03     17.4832E-03
             957     808.024E-06     109.296E-03    -126.456E+06    -251.641E+06    -123.034E+06    -1.24536E+06    -107.817E-03     215.438E-03    -107.621E-03     14.0741E-03    -107.916E-03     214.553E-03    -107.688E-03     13.7601E-03
             958     1.61612E-03     109.319E-03    -121.870E+06    -242.911E+06    -109.850E+06    -2.37124E+06    -107.764E-03     215.496E-03    -107.731E-03     25.7660E-03    -107.896E-03     214.651E-03    -107.752E-03     25.1795E-03
             959     2.42435E-03     109.355E-03    -114.958E+06    -228.754E+06    -92.8012E+06    -4.34613E+06    -107.914E-03     215.673E-03    -107.759E-03     37.7351E-03    -108.096E-03     214.904E-03    -107.725E-03     36.8354E-03
             960     3.23242E-03     109.405E-03    -106.747E+06    -210.272E+06    -75.2893E+06    -6.14049E+06    -108.157E-03     215.951E-03    -107.794E-03     48.9991E-03    -108.408E-03     215.295E-03    -107.711E-03     47.7681E-03
             961     4.04045E-03     109.466E-03    -98.5763E+06    -190.664E+06    -59.5506E+06    -7.86260E+06    -108.339E-03     216.160E-03    -107.821E-03     59.4805E-03    -108.678E-03     215.644E-03    -107.699E-03     57.8981E-03
             962     4.84893E-03     109.539E-03    -90.2564E+06    -171.559E+06    -45.6115E+06    -9.67849E+06    -108.514E-03     216.345E-03    -107.831E-03     68.9607E-03    -108.955E-03     215.990E-03    -107.680E-03     67.0076E-03
             963     5.65696E-03     109.622E-03    -82.1966E+06    -152.729E+06    -33.7285E+06    -11.2215E+06    -108.669E-03     216.495E-03    -107.827E-03     77.2632E-03    -109.230E-03     216.321E-03    -107.655E-03     74.9297E-03
             964     6.46537E-03     109.714E-03    -74.9737E+06    -134.115E+06    -23.2087E+06    -12.4321E+06    -108.708E-03     216.517E-03    -107.809E-03     84.2981E-03    -109.408E-03     216.542E-03    -107.622E-03     81.5880E-03
             965     7.27386E-03     109.812E-03    -67.8033E+06    -114.582E+06    -13.6284E+06    -13.7240E+06    -108.624E-03     216.397E-03    -107.773E-03     90.0439E-03    -109.476E-03     216.641E-03    -107.577E-03     86.9661E-03
             966     8.08243E-03     109.916E-03    -60.5799E+06    -94.6009E+06    -4.03574E+06    -14.5722E+06    -108.360E-03     216.079E-03    -107.718E-03     94.2366E-03    -109.366E-03     216.546E-03    -107.513E-03     90.8291E-03
             967     8.89170E-03     110.023E-03    -53.5585E+06    -71.1175E+06     5.81193E+06    -14.9843E+06    -107.934E-03     215.574E-03    -107.639E-03     96.4807E-03    -109.088E-03     216.268E-03    -107.429E-03     92.8035E-03
             968     9.70071E-03     110.131E-03    -46.8754E+06    -51.7320E+06     14.8458E+06    -15.0677E+06    -107.358E-03     214.899E-03    -107.541E-03     96.5432E-03    -108.624E-03     215.772E-03    -107.324E-03     92.6746E-03
             969     10.5104E-03     110.238E-03    -40.4373E+06    -26.7426E+06     23.4030E+06    -14.5444E+06    -106.454E-03     213.859E-03    -107.406E-03     94.0549E-03    -107.790E-03     214.889E-03    -107.191E-03     90.1056E-03
             970     11.3212E-03     110.339E-03    -33.9124E+06    -5.65397E+06     32.3397E+06    -13.1115E+06    -105.475E-03     212.723E-03    -107.248E-03     88.4710E-03    -106.813E-03     213.826E-03    -107.029E-03     84.5445E-03
             971     12.1319E-03     110.432E-03     -27.846E+06     28.8453E+06     37.8901E+06    -9.68088E+06    -104.657E-03     211.695E-03    -107.038E-03     79.9335E-03    -105.955E-03     212.887E-03    -106.850E-03     76.1154E-03
             972     12.9426E-03     110.514E-03    -22.0787E+06     83.6853E+06     54.2526E+06    -4.41374E+06    -103.775E-03     210.623E-03    -106.848E-03     69.6868E-03    -105.041E-03     211.950E-03    -106.666E-03     66.0452E-03
             973     13.7552E-03     110.584E-03    -16.5975E+06     117.286E+06     67.1319E+06    -686.441E+03    -102.981E-03     209.648E-03    -106.667E-03     55.6140E-03    -104.125E-03     210.954E-03    -106.477E-03     52.2017E-03
             974     14.5665E-03     110.633E-03    -11.5213E+06     131.060E+06     83.2482E+06    -299.200E+03    -102.484E-03     209.019E-03    -106.535E-03     42.5754E-03    -103.517E-03     210.234E-03    -106.292E-03     39.2793E-03
             975     15.3777E-03     110.674E-03    -6.16800E+06     130.860E+06     101.704E+06     29.1119E+03    -102.355E-03     208.800E-03    -106.444E-03     19.6169E-03    -103.115E-03     209.707E-03    -106.117E-03     17.0094E-03
             976     807.647E-06     110.472E-03    -125.054E+06    -248.323E+06    -121.768E+06    -1.24707E+06    -108.050E-03     216.159E-03    -108.109E-03     14.1230E-03    -108.149E-03     215.286E-03    -108.176E-03     13.8059E-03
             977     1.61550E-03     110.494E-03    -119.945E+06    -238.971E+06    -108.670E+06    -2.82513E+06    -108.079E-03     216.159E-03    -108.080E-03     25.7396E-03    -108.208E-03     215.329E-03    -108.103E-03     25.1429E-03
             978     2.42345E-03     110.531E-03    -112.960E+06    -223.365E+06    -91.4670E+06    -4.75679E+06    -108.210E-03     216.300E-03    -108.090E-03     37.6670E-03    -108.392E-03     215.553E-03    -108.060E-03     36.7582E-03
             979     3.23145E-03     110.580E-03    -105.233E+06    -205.212E+06    -74.2034E+06    -6.73223E+06    -108.398E-03     216.507E-03    -108.110E-03     48.8109E-03    -108.650E-03     215.872E-03    -108.030E-03     47.5670E-03
             980     4.03943E-03     110.642E-03    -96.8294E+06    -185.680E+06    -58.4169E+06    -8.59694E+06    -108.604E-03     216.728E-03    -108.124E-03     59.2077E-03    -108.942E-03     216.233E-03    -108.007E-03     57.6102E-03
             981     4.84718E-03     110.714E-03    -88.8259E+06    -166.628E+06    -44.6359E+06    -10.4128E+06    -108.760E-03     216.888E-03    -108.128E-03     68.6426E-03    -109.202E-03     216.552E-03    -107.980E-03     66.6741E-03
             982     5.65546E-03     110.797E-03    -81.3485E+06    -148.519E+06    -32.7838E+06    -11.9631E+06    -108.834E-03     216.948E-03    -108.114E-03     76.9247E-03    -109.397E-03     216.790E-03    -107.944E-03     74.5780E-03
             983     6.46353E-03     110.889E-03    -73.6695E+06    -129.994E+06    -22.0482E+06    -13.4767E+06    -108.822E-03     216.903E-03    -108.080E-03     83.9953E-03    -109.522E-03     216.943E-03    -107.895E-03     81.2680E-03
             984     7.27193E-03     110.987E-03    -66.6006E+06    -110.460E+06    -12.4197E+06    -14.9790E+06    -108.646E-03     216.670E-03    -108.024E-03     89.6985E-03    -109.496E-03     216.927E-03    -107.829E-03     86.6056E-03
             985     8.08076E-03     111.090E-03    -60.0293E+06    -91.3619E+06    -3.23170E+06    -16.1172E+06    -108.283E-03     216.227E-03    -107.943E-03     93.7829E-03    -109.287E-03     216.702E-03    -107.740E-03     90.3630E-03
             986     8.88959E-03     111.197E-03    -53.5712E+06    -69.0635E+06     5.99837E+06    -16.8100E+06    -107.735E-03     215.568E-03    -107.833E-03     96.1349E-03    -108.886E-03     216.265E-03    -107.625E-03     92.4480E-03
             987     9.69919E-03     111.305E-03    -47.1546E+06    -50.3170E+06     14.9527E+06    -16.9587E+06    -106.975E-03     214.672E-03    -107.696E-03     96.1973E-03    -108.236E-03     215.543E-03    -107.480E-03     92.3303E-03
             988     10.5096E-03     111.410E-03    -40.8401E+06    -26.0058E+06     23.2236E+06    -16.4994E+06    -106.119E-03     213.641E-03    -107.522E-03     93.4967E-03    -107.447E-03     214.665E-03    -107.309E-03     89.5488E-03
             989     11.3198E-03     111.511E-03    -35.0646E+06    -7.63899E+06     31.1458E+06    -15.1844E+06    -105.298E-03     212.637E-03    -107.339E-03     87.9075E-03    -106.627E-03     213.723E-03    -107.121E-03     83.9748E-03
             990     12.1308E-03     111.603E-03    -29.2517E+06     22.6664E+06     35.6780E+06    -11.7690E+06    -104.429E-03     211.540E-03    -107.112E-03     79.6437E-03    -105.713E-03     212.698E-03    -106.924E-03     75.8226E-03
             991     12.9426E-03     111.685E-03    -23.2170E+06     75.9633E+06     51.7848E+06    -6.50913E+06    -103.452E-03     210.352E-03    -106.900E-03     69.4382E-03    -104.700E-03     211.637E-03    -106.718E-03     65.8005E-03
             992     13.7533E-03     111.753E-03    -17.4489E+06     113.415E+06     63.7649E+06    -1.89566E+06    -102.566E-03     209.249E-03    -106.683E-03     55.8915E-03    -103.697E-03     210.536E-03    -106.503E-03     52.4980E-03
             993     14.5657E-03     111.803E-03    -11.7622E+06     131.378E+06     80.3765E+06        -48.4844    -101.952E-03     208.469E-03    -106.517E-03     43.7946E-03    -102.979E-03     209.687E-03    -106.288E-03     40.5491E-03
             994     15.3786E-03     111.843E-03    -5.71878E+06     130.751E+06     101.670E+06    -289.137E+03    -101.802E-03     208.212E-03    -106.411E-03     20.7571E-03    -102.557E-03     209.117E-03    -106.083E-03     18.1809E-03
             995     807.562E-06     111.648E-03    -122.644E+06    -244.052E+06    -119.706E+06    -2.00993E+06    -108.436E-03     216.790E-03    -108.354E-03     14.1028E-03    -108.532E-03     215.932E-03    -108.421E-03     13.7729E-03
             996     1.61512E-03     111.671E-03    -117.885E+06    -234.259E+06    -106.868E+06    -3.54254E+06    -108.504E-03     216.919E-03    -108.415E-03     25.6650E-03    -108.633E-03     216.108E-03    -108.439E-03     25.0554E-03
             997     2.42257E-03     111.707E-03    -111.397E+06    -218.459E+06    -90.2272E+06    -5.10884E+06    -108.600E-03     217.050E-03    -108.451E-03     37.5353E-03    -108.782E-03     216.324E-03    -108.423E-03     36.6181E-03
             998     3.23013E-03     111.756E-03    -103.489E+06    -199.589E+06    -72.5839E+06    -7.22855E+06    -108.703E-03     217.173E-03    -108.469E-03     48.6353E-03    -108.957E-03     216.561E-03    -108.393E-03     47.3797E-03
             999     4.03786E-03     111.818E-03    -95.0839E+06    -180.287E+06    -56.6393E+06    -9.40276E+06    -108.855E-03     217.325E-03    -108.470E-03     58.9763E-03    -109.194E-03     216.851E-03    -108.354E-03     57.3639E-03
            1000     4.84576E-03     111.891E-03    -86.9765E+06    -161.880E+06    -42.8927E+06    -11.0086E+06    -108.957E-03     217.412E-03    -108.456E-03     68.3664E-03    -109.397E-03     217.094E-03    -108.309E-03     66.3874E-03
            1001     5.65348E-03     111.973E-03    -79.1562E+06    -143.294E+06    -30.5890E+06    -12.6910E+06    -108.936E-03     217.355E-03    -108.419E-03     76.6483E-03    -109.497E-03     217.215E-03    -108.249E-03     74.2926E-03
            1002     6.46180E-03     112.064E-03    -71.8824E+06    -125.760E+06    -20.4642E+06    -14.5354E+06    -108.821E-03     217.175E-03    -108.354E-03     83.7443E-03    -109.517E-03     217.229E-03    -108.169E-03     81.0081E-03
            1003     7.27015E-03     112.162E-03    -64.9927E+06    -106.124E+06    -10.7987E+06    -15.6023E+06    -108.571E-03     216.835E-03    -108.264E-03     89.4485E-03    -109.416E-03     217.104E-03    -108.069E-03     86.3599E-03
            1004     8.07876E-03     112.265E-03    -58.6604E+06    -87.4866E+06    -1.57819E+06    -16.7682E+06    -108.114E-03     216.263E-03    -108.149E-03     93.5895E-03    -109.112E-03     216.746E-03    -107.945E-03     90.1792E-03
            1005     8.88816E-03     112.371E-03    -52.5004E+06    -66.2475E+06     7.32739E+06    -17.8141E+06    -107.415E-03     215.413E-03    -107.998E-03     95.9045E-03    -108.556E-03     216.112E-03    -107.789E-03     92.2319E-03
            1006     9.69813E-03     112.478E-03    -46.6869E+06    -48.1176E+06     16.0016E+06    -18.0492E+06    -106.623E-03     214.443E-03    -107.821E-03     95.8714E-03    -107.873E-03     215.311E-03    -107.603E-03     92.0255E-03
            1007     10.5081E-03     112.582E-03    -41.1865E+06    -25.5601E+06     23.4996E+06    -17.8213E+06    -105.828E-03     213.440E-03    -107.612E-03     93.3855E-03    -107.146E-03     214.453E-03    -107.398E-03     89.4576E-03
            1008     11.3191E-03     112.682E-03    -35.4673E+06    -8.70850E+06     31.1315E+06    -16.5397E+06    -104.953E-03     212.353E-03    -107.400E-03     88.0286E-03    -106.270E-03     213.423E-03    -107.180E-03     84.1200E-03
            1009     12.1303E-03     112.774E-03    -29.7242E+06     17.9123E+06      34.809E+06    -14.2734E+06    -103.947E-03     211.088E-03    -107.140E-03     80.1483E-03    -105.215E-03     212.213E-03    -106.949E-03     76.3452E-03
            1010     12.9415E-03     112.855E-03    -23.3309E+06     67.0025E+06     50.1322E+06    -8.93802E+06    -102.820E-03     209.711E-03    -106.891E-03     70.3737E-03    -104.046E-03     210.946E-03    -106.704E-03     66.7615E-03
            1011     13.7550E-03     112.922E-03    -17.2879E+06     107.803E+06     59.5971E+06    -3.06337E+06    -102.094E-03     208.714E-03    -106.621E-03     57.1478E-03    -103.206E-03     209.975E-03    -106.454E-03     53.7871E-03
            1012     14.5680E-03     112.972E-03    -11.4396E+06     131.700E+06     77.7807E+06    -1.30445E+06    -101.820E-03     208.257E-03    -106.437E-03     44.1114E-03    -102.839E-03     209.477E-03    -106.222E-03     40.8648E-03
            1013     15.3808E-03     113.011E-03    -5.29987E+06     130.631E+06     103.068E+06    -900.892E+03    -101.807E-03     208.158E-03    -106.351E-03     20.3872E-03    -102.561E-03     209.058E-03    -106.017E-03     17.7991E-03
            1014     807.245E-06     112.825E-03    -120.479E+06    -239.086E+06    -116.864E+06    -1.82658E+06    -108.898E-03     217.512E-03    -108.614E-03     13.9495E-03    -108.995E-03     216.671E-03    -108.677E-03     13.6218E-03
            1015     1.61432E-03     112.848E-03    -116.101E+06    -228.896E+06    -104.365E+06    -3.70875E+06    -108.910E-03     217.697E-03    -108.787E-03     25.6310E-03    -109.041E-03     216.906E-03    -108.808E-03     25.0190E-03
            1016     2.42161E-03     112.884E-03    -109.005E+06    -212.889E+06    -87.6047E+06    -6.06385E+06    -108.973E-03     217.804E-03    -108.831E-03     37.3924E-03    -109.155E-03     217.098E-03    -108.802E-03     36.4593E-03
            1017     3.22901E-03     112.933E-03    -100.673E+06    -193.813E+06    -70.2355E+06    -8.08663E+06    -109.028E-03     217.870E-03    -108.841E-03     48.5511E-03    -109.279E-03     217.279E-03    -108.765E-03     47.2819E-03
            1018     4.03638E-03     112.995E-03    -92.6341E+06    -174.768E+06    -54.3186E+06    -9.97414E+06    -109.064E-03     217.887E-03    -108.823E-03     58.8964E-03    -109.401E-03     217.432E-03    -108.706E-03     57.2757E-03
            1019     4.84394E-03     113.067E-03    -84.4918E+06    -156.954E+06    -40.4266E+06    -11.7616E+06    -109.042E-03     217.817E-03    -108.776E-03     68.2875E-03    -109.478E-03     217.514E-03    -108.628E-03     66.3036E-03
            1020     5.65197E-03     113.150E-03    -76.5546E+06    -138.452E+06    -28.4402E+06    -13.2922E+06    -108.945E-03     217.643E-03    -108.698E-03     76.6050E-03    -109.500E-03     217.517E-03    -108.528E-03     74.2513E-03
            1021     6.45998E-03     113.240E-03    -69.4391E+06    -120.572E+06    -17.8222E+06    -14.8156E+06    -108.725E-03     217.318E-03    -108.594E-03     83.7506E-03    -109.414E-03     217.385E-03    -108.407E-03     81.0296E-03
            1022     7.26862E-03     113.338E-03    -62.9055E+06    -102.233E+06    -8.58576E+06    -16.1589E+06    -108.329E-03     216.786E-03    -108.458E-03     89.4734E-03    -109.164E-03     217.061E-03    -108.261E-03     86.4046E-03
            1023     8.07773E-03     113.440E-03    -56.4533E+06    -83.2630E+06     831.855E+03    -17.1204E+06    -107.745E-03     216.037E-03    -108.292E-03     93.6577E-03    -108.730E-03     216.524E-03    -108.085E-03     90.2808E-03
            1024     8.88717E-03     113.545E-03    -50.6054E+06    -62.6825E+06     9.78804E+06    -17.9527E+06    -107.032E-03     215.126E-03    -108.094E-03     96.0837E-03    -108.160E-03     215.823E-03    -107.880E-03     92.4552E-03
            1025     9.69713E-03     113.650E-03    -45.0834E+06    -46.3608E+06     17.7974E+06    -18.3421E+06    -106.241E-03     214.115E-03    -107.874E-03     96.2985E-03    -107.475E-03     214.972E-03    -107.652E-03     92.4992E-03
            1026     10.5082E-03     113.754E-03    -39.6781E+06    -24.2085E+06     25.3059E+06    -18.1704E+06    -105.302E-03     212.925E-03    -107.623E-03     94.0624E-03    -106.601E-03     213.924E-03    -107.404E-03     90.1945E-03
            1027     11.3192E-03     113.853E-03    -34.5191E+06    -9.14134E+06     32.2981E+06    -17.5911E+06    -104.266E-03     211.628E-03    -107.362E-03     88.9985E-03    -105.563E-03     212.677E-03    -107.138E-03     85.1509E-03
            1028     12.1310E-03     113.944E-03    -29.6909E+06     15.2795E+06     35.7970E+06    -15.2777E+06    -103.211E-03     210.268E-03    -107.057E-03     81.4225E-03    -104.462E-03     211.364E-03    -106.857E-03     77.6873E-03
            1029     12.9444E-03     114.023E-03    -24.6241E+06     58.4841E+06     48.9573E+06    -11.2265E+06    -102.475E-03     209.249E-03    -106.774E-03     71.5530E-03    -103.682E-03     210.434E-03    -106.578E-03     67.9721E-03
            1030     13.7567E-03     114.090E-03    -17.8696E+06     101.195E+06     57.2597E+06    -6.15049E+06    -102.122E-03     208.610E-03    -106.489E-03     57.9298E-03    -103.219E-03     209.837E-03    -106.323E-03     54.5597E-03
            1031     14.5683E-03     114.142E-03    -11.3941E+06     130.568E+06     76.0850E+06    -2.43993E+06    -101.878E-03     208.185E-03    -106.307E-03     45.3976E-03    -102.894E-03     209.403E-03    -106.099E-03     42.1588E-03
            1032     15.3796E-03     114.179E-03    -5.57157E+06     129.256E+06     102.712E+06    -1.03013E+06    -101.963E-03     208.202E-03    -106.239E-03     22.1032E-03    -102.719E-03     209.099E-03    -105.905E-03     19.5236E-03
            1033     806.910E-06     114.003E-03    -117.891E+06    -234.133E+06    -114.415E+06    -1.84803E+06    -109.255E-03     218.310E-03    -109.055E-03     14.1034E-03    -109.350E-03     217.487E-03    -109.116E-03     13.7765E-03
            1034     1.61388E-03     114.026E-03    -112.610E+06    -222.772E+06    -100.988E+06    -4.04830E+06    -109.281E-03     218.462E-03    -109.181E-03     25.6157E-03    -109.408E-03     217.691E-03    -109.199E-03     24.9988E-03
            1035     2.42070E-03     114.062E-03    -105.655E+06    -206.050E+06    -84.4088E+06    -6.63555E+06    -109.270E-03     218.475E-03    -109.205E-03     37.2478E-03    -109.450E-03     217.793E-03    -109.175E-03     36.3077E-03
            1036     3.22771E-03     114.111E-03    -97.8218E+06    -188.019E+06    -67.5194E+06    -8.99983E+06    -109.199E-03     218.380E-03    -109.181E-03     48.5105E-03    -109.447E-03     217.809E-03    -109.104E-03     47.2348E-03
            1037     4.03511E-03     114.172E-03    -89.5508E+06    -169.258E+06    -51.5598E+06    -10.6119E+06    -109.130E-03     218.247E-03    -109.118E-03     58.9881E-03    -109.461E-03     217.809E-03    -109.000E-03     57.3695E-03
            1038     4.84278E-03     114.245E-03    -81.3427E+06    -151.700E+06    -37.5613E+06    -12.4457E+06    -109.008E-03     218.031E-03    -109.023E-03     68.4626E-03    -109.438E-03     217.742E-03    -108.873E-03     66.4849E-03
            1039     5.65064E-03     114.326E-03    -73.5533E+06    -133.697E+06    -25.7574E+06    -13.9837E+06    -108.781E-03     217.674E-03    -108.893E-03     76.8663E-03    -109.326E-03     217.558E-03    -108.722E-03     74.5290E-03
            1040     6.45911E-03     114.416E-03    -66.3203E+06    -115.806E+06    -14.9530E+06    -14.9934E+06    -108.429E-03     217.162E-03    -108.734E-03     84.1348E-03    -109.105E-03     217.236E-03    -108.544E-03     81.4481E-03
            1041     7.26780E-03     114.513E-03    -59.6933E+06    -97.8750E+06    -5.40614E+06    -16.2782E+06    -107.888E-03     216.427E-03    -108.539E-03     90.0087E-03    -108.708E-03     216.703E-03    -108.337E-03     86.9869E-03
            1042     8.07721E-03     114.614E-03    -53.6735E+06    -79.7664E+06     3.63305E+06    -17.1921E+06    -107.207E-03     215.518E-03    -108.311E-03     94.3424E-03    -108.173E-03     216.000E-03    -108.100E-03     91.0267E-03
            1043     8.88743E-03     114.718E-03    -48.0118E+06    -59.6874E+06     12.6447E+06    -17.6658E+06    -106.448E-03     214.503E-03    -108.055E-03     96.9905E-03    -107.554E-03     215.190E-03    -107.836E-03     93.4383E-03
            1044     9.69825E-03     114.823E-03    -42.8312E+06    -43.6709E+06     20.7160E+06    -17.9857E+06    -105.581E-03     213.362E-03    -107.781E-03     97.4595E-03    -106.793E-03     214.207E-03    -107.552E-03     93.7474E-03
            1045     10.5091E-03     114.926E-03    -38.1967E+06    -23.2491E+06     27.5614E+06    -17.6772E+06    -104.532E-03     212.009E-03    -107.477E-03     95.4595E-03    -105.809E-03     212.987E-03    -107.250E-03     91.6904E-03
            1046     11.3216E-03     115.023E-03    -33.4044E+06    -7.48540E+06     34.7765E+06    -17.4284E+06    -103.547E-03     210.714E-03    -107.167E-03     90.5050E-03    -104.826E-03     211.747E-03    -106.934E-03     86.7542E-03
            1047     12.1346E-03     115.113E-03    -28.2831E+06     12.5339E+06     37.6221E+06    -16.1889E+06    -102.890E-03     209.727E-03    -106.837E-03     82.5448E-03    -104.116E-03     210.788E-03    -106.626E-03     78.8721E-03
            1048     12.9468E-03     115.192E-03    -22.9868E+06     53.2344E+06     50.0275E+06    -12.8539E+06    -102.406E-03     208.956E-03    -106.551E-03     72.9361E-03    -103.587E-03     210.100E-03    -106.344E-03     69.3944E-03
            1049     13.7588E-03     115.260E-03    -17.7148E+06     94.8800E+06     56.9868E+06    -8.70320E+06    -102.023E-03     208.289E-03    -106.266E-03     60.0140E-03    -103.104E-03     209.479E-03    -106.093E-03     56.6691E-03
            1050     14.5726E-03     115.308E-03    -11.5894E+06     125.357E+06     74.1238E+06    -3.90830E+06    -102.062E-03     208.148E-03    -106.086E-03     47.5087E-03    -103.068E-03     209.343E-03    -105.881E-03     44.2869E-03
            1051     15.3868E-03     115.349E-03    -5.68999E+06     128.270E+06     101.566E+06    -1.17231E+06    -103.076E-03     209.135E-03    -106.059E-03     23.1903E-03    -103.831E-03     210.031E-03    -105.729E-03     20.6050E-03
            1052     806.601E-06     115.183E-03    -114.200E+06    -227.551E+06    -111.323E+06    -2.98611E+06    -109.608E-03     219.109E-03    -109.502E-03     14.0907E-03    -109.698E-03     218.309E-03    -109.563E-03     13.7496E-03
            1053     1.61302E-03     115.205E-03    -109.067E+06    -216.249E+06    -98.5791E+06    -4.99700E+06    -109.478E-03     219.011E-03    -109.534E-03     25.6559E-03    -109.600E-03     218.264E-03    -109.555E-03     25.0307E-03
            1054     2.41981E-03     115.241E-03    -102.391E+06    -199.498E+06    -81.8130E+06    -7.06018E+06    -109.348E-03     218.831E-03    -109.483E-03     37.3962E-03    -109.523E-03     218.172E-03    -109.454E-03     36.4588E-03
            1055     3.22696E-03     115.290E-03    -94.7525E+06    -181.165E+06    -64.3425E+06    -9.58472E+06    -109.199E-03     218.597E-03    -109.398E-03     48.7908E-03    -109.444E-03     218.049E-03    -109.320E-03     47.5226E-03
            1056     4.03437E-03     115.350E-03    -86.2165E+06    -163.687E+06    -48.5898E+06    -11.8197E+06    -109.018E-03     218.296E-03    -109.278E-03     59.3391E-03    -109.342E-03     217.874E-03    -109.158E-03     57.7276E-03
            1057     4.84210E-03     115.422E-03    -77.8980E+06    -145.979E+06    -34.7065E+06    -13.1300E+06    -108.739E-03     217.859E-03    -109.120E-03     68.9028E-03    -109.158E-03     217.584E-03    -108.969E-03     66.9502E-03
            1058     5.65038E-03     115.503E-03    -70.2677E+06    -128.833E+06    -22.7469E+06    -14.6135E+06    -108.337E-03     217.259E-03    -108.923E-03     77.5586E-03    -108.868E-03     217.150E-03    -108.748E-03     75.2604E-03
            1059     6.45906E-03     115.592E-03    -62.9700E+06    -112.024E+06    -12.2156E+06    -15.7005E+06    -107.802E-03     216.488E-03    -108.686E-03     85.0934E-03    -108.460E-03     216.560E-03    -108.493E-03     82.4610E-03
            1060     7.26866E-03     115.687E-03    -56.1628E+06    -94.0240E+06    -2.25003E+06    -16.1810E+06    -107.162E-03     215.576E-03    -108.414E-03     91.2175E-03    -107.959E-03     215.846E-03    -108.208E-03     88.2774E-03
            1061     8.07883E-03     115.788E-03    -50.1334E+06    -76.1874E+06     7.14625E+06    -16.7722E+06    -106.437E-03     214.554E-03    -108.117E-03     95.8691E-03    -107.377E-03     215.025E-03    -107.898E-03     92.6500E-03
            1062     8.88947E-03     115.891E-03    -44.7833E+06    -57.3876E+06     15.8674E+06    -16.8952E+06    -105.603E-03     213.399E-03    -107.795E-03     98.8258E-03    -106.681E-03     214.067E-03    -107.568E-03     95.3870E-03
            1063     9.70083E-03     115.994E-03    -39.9033E+06    -40.8978E+06     24.1744E+06    -16.8133E+06    -104.676E-03     212.136E-03    -107.460E-03     99.4932E-03    -105.859E-03     212.962E-03    -107.222E-03     95.9112E-03
            1064     10.5136E-03     116.096E-03    -35.3418E+06    -21.6800E+06     31.1023E+06    -16.6128E+06    -103.809E-03     210.919E-03    -107.109E-03     97.4969E-03    -105.056E-03     211.873E-03    -106.871E-03     93.8527E-03
            1065     11.3262E-03     116.192E-03    -31.2758E+06    -5.62250E+06     37.7055E+06    -16.3293E+06    -103.148E-03     209.922E-03    -106.774E-03     92.5597E-03    -104.402E-03     210.936E-03    -106.532E-03     88.9217E-03
            1066     12.1385E-03     116.281E-03    -27.3812E+06     11.9796E+06     40.3592E+06     -16.074E+06    -102.662E-03     209.107E-03    -106.446E-03     85.2293E-03    -103.871E-03     210.145E-03    -106.221E-03     81.6474E-03
            1067     12.9511E-03     116.360E-03    -22.2472E+06     50.0150E+06     51.6793E+06    -14.5557E+06    -102.304E-03     208.468E-03    -106.164E-03     76.1040E-03    -103.470E-03     209.584E-03    -105.946E-03     72.6226E-03
            1068     13.7656E-03     116.427E-03    -15.8764E+06     88.9448E+06     58.3110E+06    -10.7661E+06    -102.580E-03     208.490E-03    -105.910E-03     62.5481E-03    -103.640E-03     209.641E-03    -105.725E-03     59.2254E-03
            1069     14.5769E-03     116.478E-03    -10.2609E+06     118.188E+06     73.1468E+06    -5.35220E+06    -103.602E-03     209.396E-03    -105.795E-03     49.1794E-03    -104.590E-03     210.555E-03    -105.585E-03     45.9316E-03
            1070     15.3855E-03     116.519E-03    -5.22914E+06     126.251E+06     99.4437E+06    -1.23800E+06    -104.662E-03     210.514E-03    -105.851E-03     24.6840E-03    -105.412E-03     211.405E-03    -105.530E-03     22.0703E-03
            1071     806.059E-06     116.363E-03    -110.685E+06    -219.251E+06    -107.514E+06    -2.96564E+06    -109.648E-03     219.410E-03    -109.761E-03     14.2846E-03    -109.738E-03     218.640E-03    -109.821E-03     13.9471E-03
            1072     1.61283E-03     116.385E-03    -106.337E+06    -208.625E+06    -95.8314E+06    -6.00040E+06    -109.404E-03     219.039E-03    -109.635E-03     26.0547E-03    -109.527E-03     218.322E-03    -109.658E-03     25.4265E-03
            1073     2.41979E-03     116.420E-03    -99.3029E+06    -192.865E+06    -79.4760E+06    -8.47920E+06    -109.217E-03     218.725E-03    -109.509E-03     37.9037E-03    -109.388E-03     218.090E-03    -109.482E-03     36.9679E-03
            1074     3.22696E-03     116.468E-03    -91.1127E+06    -174.265E+06    -61.8796E+06    -10.4088E+06    -108.987E-03     218.355E-03    -109.368E-03     49.3295E-03    -109.224E-03     217.829E-03    -109.293E-03     48.0798E-03
            1075     4.03448E-03     116.528E-03    -82.9784E+06    -157.214E+06    -45.7094E+06    -12.4559E+06    -108.595E-03     217.782E-03    -109.188E-03     60.0948E-03    -108.911E-03     217.378E-03    -109.068E-03     58.5179E-03
            1076     4.84268E-03     116.599E-03    -75.0938E+06    -140.757E+06    -32.2649E+06    -14.2364E+06    -108.090E-03     217.039E-03    -108.949E-03     70.0132E-03    -108.498E-03     216.774E-03    -108.797E-03     68.1063E-03
            1077     5.65153E-03     116.679E-03    -67.3053E+06    -124.280E+06    -20.2816E+06    -15.3109E+06    -107.506E-03     216.167E-03    -108.661E-03     78.9805E-03    -108.021E-03     216.061E-03    -108.485E-03     76.7509E-03
            1078     6.46127E-03     116.767E-03    -60.2060E+06    -108.001E+06    -9.39975E+06    -16.0431E+06    -106.811E-03     215.146E-03    -108.335E-03     86.8117E-03    -107.449E-03     215.214E-03    -108.138E-03     84.2718E-03
            1079     7.27155E-03     116.861E-03    -53.8112E+06    -90.9973E+06     264.364E+03    -16.4617E+06    -106.056E-03     214.029E-03    -107.973E-03     93.3824E-03    -106.829E-03     214.288E-03    -107.762E-03     90.5533E-03
            1080     8.08262E-03     116.960E-03    -47.5956E+06    -73.0162E+06     9.79780E+06    -16.6544E+06    -105.297E-03     212.890E-03    -107.593E-03     98.4833E-03    -106.211E-03     213.347E-03    -107.369E-03     95.3940E-03
            1081     8.89462E-03     117.062E-03    -41.6040E+06    -55.4794E+06     18.9670E+06    -16.2957E+06    -104.506E-03     211.710E-03    -107.205E-03     101.762E-03    -105.549E-03     212.354E-03    -106.969E-03     98.4695E-03
            1082     9.70739E-03     117.164E-03    -36.0278E+06    -38.5880E+06     27.4549E+06    -15.8953E+06    -103.809E-03     210.629E-03    -106.820E-03     102.629E-03    -104.955E-03     211.430E-03    -106.574E-03     99.1958E-03
            1083     10.5200E-03     117.264E-03    -31.1705E+06    -20.9644E+06     34.2957E+06    -15.2357E+06    -103.248E-03     209.697E-03    -106.449E-03     100.796E-03    -104.455E-03     210.619E-03    -106.202E-03     97.2978E-03
            1084     11.3330E-03     117.361E-03    -27.1719E+06    -4.15105E+06     41.1551E+06    -14.2875E+06    -102.750E-03     208.863E-03    -106.113E-03     96.2948E-03    -103.969E-03     209.851E-03    -105.861E-03     92.8068E-03
            1085     12.1468E-03     117.449E-03    -24.2107E+06     13.4295E+06     44.3107E+06    -13.7298E+06    -102.553E-03     208.354E-03    -105.802E-03     89.0171E-03    -103.737E-03     209.372E-03    -105.565E-03     85.5775E-03
            1086     12.9609E-03     117.528E-03    -21.7622E+06     50.5214E+06     53.8915E+06    -13.8943E+06    -103.013E-03     208.579E-03    -105.566E-03     79.5126E-03    -104.171E-03     209.683E-03    -105.338E-03     76.1118E-03
            1087     13.7712E-03     117.597E-03    -17.9951E+06     83.5672E+06     58.7444E+06    -12.4111E+06    -104.206E-03     209.617E-03    -105.411E-03     66.1904E-03    -105.270E-03     210.744E-03    -105.213E-03     62.8708E-03
            1088     14.5818E-03     117.648E-03    -12.6293E+06     108.663E+06     69.3725E+06    -6.51384E+06    -105.627E-03     211.032E-03    -105.405E-03     53.2087E-03    -106.617E-03     212.161E-03    -105.197E-03     49.9394E-03
            1089     15.3926E-03     117.692E-03    -5.84867E+06     123.531E+06     95.8296E+06    -1.81407E+06    -106.982E-03     212.563E-03    -105.581E-03     27.4143E-03    -107.735E-03     213.455E-03    -105.272E-03     24.7582E-03
            1090     806.727E-06     117.543E-03    -106.868E+06    -210.720E+06    -104.667E+06    -3.79620E+06    -109.304E-03     218.759E-03    -109.455E-03     14.4304E-03    -109.391E-03     218.023E-03    -109.518E-03     14.0907E-03
            1091     1.61336E-03     117.564E-03    -102.409E+06    -199.652E+06    -92.3860E+06    -6.46010E+06    -109.072E-03     218.378E-03    -109.306E-03     26.3090E-03    -109.192E-03     217.693E-03    -109.330E-03     25.6956E-03
            1092     2.42051E-03     117.599E-03    -96.3416E+06    -184.647E+06    -76.8766E+06    -9.45560E+06    -108.730E-03     217.879E-03    -109.150E-03     38.5827E-03    -108.900E-03     217.275E-03    -109.127E-03     37.6689E-03
            1093     3.22795E-03     117.646E-03    -88.6498E+06    -167.735E+06    -60.3494E+06    -11.6589E+06    -108.278E-03     217.220E-03    -108.942E-03     50.3876E-03    -108.510E-03     216.717E-03    -108.872E-03     49.1718E-03
            1094     4.03632E-03     117.705E-03    -80.5900E+06    -150.838E+06    -44.1576E+06    -13.2243E+06    -107.657E-03     216.331E-03    -108.673E-03     61.5138E-03    -107.965E-03     215.945E-03    -108.559E-03     59.9969E-03
            1095     4.84541E-03     117.775E-03    -72.9261E+06    -135.133E+06    -30.3538E+06    -14.9522E+06    -106.947E-03     215.285E-03    -108.338E-03     71.8786E-03    -107.344E-03     215.032E-03    -108.188E-03     70.0530E-03
            1096     5.65537E-03     117.853E-03    -65.4717E+06    -119.917E+06    -18.4759E+06    -16.0225E+06    -106.182E-03     214.131E-03    -107.949E-03     81.3363E-03    -106.681E-03     214.026E-03    -107.773E-03     79.2108E-03
            1097     6.46600E-03     117.940E-03    -58.3073E+06    -104.247E+06    -7.54632E+06    -16.6103E+06    -105.365E-03     212.888E-03    -107.522E-03     89.6942E-03    -105.982E-03     212.949E-03    -107.324E-03     87.2812E-03
            1098     7.27788E-03     118.032E-03    -51.2642E+06    -87.8430E+06     2.51461E+06    -16.9431E+06    -104.571E-03     211.642E-03    -107.071E-03     96.8205E-03    -105.315E-03     211.885E-03    -106.857E-03     94.1362E-03
            1099     8.09055E-03     118.130E-03    -44.9354E+06    -70.4223E+06     11.9473E+06    -16.7682E+06    -103.869E-03     210.483E-03    -106.614E-03     102.350E-03    -104.748E-03     210.918E-03    -106.387E-03     99.4245E-03
            1100     8.90369E-03     118.230E-03    -39.3334E+06    -54.3888E+06     20.8188E+06    -16.1821E+06    -103.313E-03     209.488E-03    -106.175E-03     105.856E-03    -104.320E-03     210.101E-03    -105.935E-03     102.732E-03
            1101     9.71718E-03     118.332E-03    -34.2251E+06    -36.9398E+06     29.1333E+06    -15.3966E+06    -102.901E-03     208.667E-03    -105.766E-03     107.158E-03    -104.013E-03     209.442E-03    -105.517E-03     103.896E-03
            1102     10.5310E-03     118.432E-03    -29.6048E+06    -21.2473E+06     35.9793E+06    -13.9478E+06    -102.682E-03     208.084E-03    -105.402E-03     105.695E-03    -103.857E-03     208.974E-03    -105.148E-03     102.367E-03
            1103     11.3452E-03     118.527E-03    -25.3755E+06    -3.26168E+06     43.3537E+06    -12.3597E+06    -102.813E-03     207.918E-03    -105.104E-03     100.938E-03    -104.007E-03     208.884E-03    -104.846E-03     97.6010E-03
            1104     12.1586E-03     118.616E-03    -21.4915E+06     14.0686E+06     47.1941E+06    -11.5748E+06    -103.529E-03     208.412E-03    -104.883E-03     93.1605E-03    -104.691E-03     209.410E-03    -104.636E-03     89.8295E-03
            1105     12.9695E-03     118.696E-03    -18.4374E+06     51.8508E+06     57.3535E+06    -10.4177E+06    -104.689E-03     209.465E-03    -104.776E-03     83.6011E-03    -105.832E-03     210.560E-03    -104.538E-03     80.2844E-03
            1106     13.7818E-03     118.767E-03    -16.8331E+06     83.1416E+06     61.2752E+06    -9.96683E+06    -106.418E-03     211.193E-03    -104.774E-03     70.1884E-03    -107.483E-03     212.315E-03    -104.564E-03     66.9045E-03
            1107     14.5903E-03     118.822E-03    -13.6074E+06     101.531E+06     68.0115E+06    -8.84313E+06    -108.544E-03     213.477E-03    -104.933E-03     55.9260E-03    -109.535E-03     214.583E-03    -104.720E-03     52.5721E-03
            1108     15.3959E-03     118.867E-03    -7.83462E+06     118.087E+06     92.0157E+06    -4.33177E+06    -110.554E-03     215.841E-03    -105.287E-03     28.6732E-03    -111.311E-03     216.723E-03    -104.987E-03     25.8972E-03
            1109     807.031E-06     118.721E-03    -104.412E+06    -200.670E+06    -101.244E+06    -4.07139E+06    -108.494E-03     217.073E-03    -108.579E-03     14.4967E-03    -108.588E-03     216.377E-03    -108.643E-03     14.1713E-03
            1110     1.61454E-03     118.742E-03    -100.107E+06    -190.392E+06    -90.4950E+06    -7.22882E+06    -108.109E-03     216.541E-03    -108.433E-03     26.9613E-03    -108.232E-03     215.895E-03    -108.464E-03     26.3734E-03
            1111     2.42237E-03     118.776E-03    -93.9547E+06    -175.658E+06    -75.1885E+06    -10.0047E+06    -107.578E-03     215.788E-03    -108.210E-03     39.7809E-03    -107.748E-03     215.219E-03    -108.195E-03     38.9126E-03
            1112     3.23128E-03     118.822E-03    -86.8692E+06    -160.581E+06    -58.9824E+06    -12.4178E+06    -106.876E-03     214.787E-03    -107.911E-03     52.0259E-03    -107.105E-03     214.309E-03    -107.847E-03     50.8766E-03
            1113     4.04062E-03     118.880E-03    -79.1129E+06    -145.021E+06    -43.5241E+06    -14.2357E+06    -106.064E-03     213.598E-03    -107.535E-03     63.6625E-03    -106.363E-03     213.228E-03    -107.427E-03     62.2336E-03
            1114     4.85110E-03     118.948E-03    -71.4014E+06    -129.140E+06    -29.2958E+06    -15.3636E+06    -105.161E-03     212.254E-03    -107.093E-03     74.6739E-03    -105.546E-03     212.012E-03    -106.948E-03     72.9708E-03
            1115     5.66255E-03     119.025E-03    -64.3513E+06    -114.923E+06    -17.2701E+06    -16.4699E+06    -104.242E-03     210.841E-03    -106.599E-03     84.7979E-03    -104.725E-03     210.737E-03    -106.425E-03     82.8198E-03
            1116     6.47537E-03     119.109E-03    -57.5143E+06    -100.069E+06    -6.88276E+06    -17.4441E+06    -103.421E-03     209.496E-03    -106.075E-03     93.8297E-03    -104.016E-03     209.551E-03    -105.881E-03     91.5794E-03
            1117     7.28870E-03     119.201E-03    -51.0507E+06    -85.1330E+06     2.65893E+06    -17.5844E+06    -102.764E-03     208.315E-03    -105.551E-03     101.506E-03    -103.482E-03     208.541E-03    -105.340E-03     99.0016E-03
            1118     8.10282E-03     119.297E-03    -45.2340E+06    -68.7747E+06     11.9486E+06    -16.7330E+06    -102.297E-03     207.349E-03    -105.052E-03     107.517E-03    -103.148E-03     207.760E-03    -104.827E-03     104.787E-03
            1119     8.91751E-03     119.397E-03    -40.0490E+06    -52.9046E+06     20.9162E+06    -15.9751E+06    -102.109E-03     206.713E-03    -104.604E-03     111.478E-03    -103.088E-03     207.301E-03    -104.364E-03     108.548E-03
            1120     9.73229E-03     119.498E-03    -34.9874E+06    -36.4461E+06     29.0313E+06    -14.8756E+06    -102.204E-03     206.426E-03    -104.222E-03     112.788E-03    -103.290E-03     207.174E-03    -103.973E-03     109.707E-03
            1121     10.5473E-03     119.598E-03    -30.3350E+06    -22.2679E+06     36.0359E+06    -12.8733E+06    -102.714E-03     206.645E-03    -103.930E-03     110.920E-03    -103.864E-03     207.503E-03    -103.674E-03     107.750E-03
            1122     11.3607E-03     119.694E-03    -26.0864E+06    -2.46718E+06     43.2693E+06    -11.6619E+06    -103.790E-03     207.541E-03    -103.751E-03     105.989E-03    -104.969E-03     208.493E-03    -103.493E-03     102.763E-03
            1123     12.1726E-03     119.784E-03    -21.3385E+06     13.4515E+06     47.9582E+06    -10.7168E+06    -105.399E-03     209.100E-03    -103.702E-03     98.3065E-03    -106.552E-03     210.087E-03    -103.451E-03     95.0401E-03
            1124     12.9842E-03     119.866E-03    -16.6103E+06     51.0393E+06     58.5066E+06    -8.57690E+06    -107.458E-03     211.257E-03    -103.798E-03     88.4087E-03    -108.594E-03     212.345E-03    -103.556E-03     85.1222E-03
            1125     13.7911E-03     119.939E-03    -11.5591E+06     85.8436E+06     65.1399E+06    -8.13676E+06    -109.887E-03     213.915E-03    -104.028E-03     74.2206E-03    -110.943E-03     215.047E-03    -103.810E-03     70.9189E-03
            1126     14.5967E-03     119.998E-03    -7.31226E+06     98.5724E+06     71.4157E+06    -7.73858E+06    -112.395E-03     216.822E-03    -104.427E-03     59.6157E-03    -113.370E-03     217.914E-03    -104.202E-03     56.1995E-03
            1127     15.4001E-03     120.047E-03    -3.63527E+06     111.092E+06     88.8496E+06    -4.50299E+06    -114.733E-03     219.721E-03    -104.989E-03     31.9941E-03    -115.467E-03     220.579E-03    -104.700E-03     29.1353E-03
            1128     808.346E-06     119.898E-03    -101.878E+06    -190.035E+06    -99.8603E+06    -3.90715E+06    -106.939E-03     213.659E-03    -106.721E-03     15.3585E-03    -107.037E-03     213.010E-03    -106.797E-03     15.0662E-03
            1129     1.61720E-03     119.917E-03    -98.7298E+06    -180.316E+06    -89.2380E+06    -7.35354E+06    -106.327E-03     213.030E-03    -106.703E-03     28.1301E-03    -106.457E-03     212.428E-03    -106.745E-03     27.5891E-03
            1130     2.42678E-03     119.950E-03    -93.1326E+06    -166.952E+06    -74.8427E+06    -10.2817E+06    -105.576E-03     211.996E-03    -106.420E-03     41.4102E-03    -105.750E-03     211.463E-03    -106.417E-03     40.6151E-03
            1131     3.23677E-03     119.995E-03    -86.6864E+06    -152.874E+06    -59.1250E+06    -12.5384E+06    -104.645E-03     210.673E-03    -106.029E-03     54.3245E-03    -104.875E-03     210.224E-03    -105.977E-03     53.2787E-03
            1132     4.04839E-03     120.051E-03    -80.1279E+06    -138.202E+06    -44.3816E+06    -14.5027E+06    -103.622E-03     209.168E-03    -105.546E-03     66.7450E-03    -103.922E-03     208.821E-03    -105.452E-03     65.4477E-03
            1133     4.86092E-03     120.117E-03    -73.0755E+06    -123.764E+06    -30.9023E+06    -15.9652E+06    -102.603E-03     207.602E-03    -104.999E-03     78.5187E-03    -102.981E-03     207.371E-03    -104.868E-03     76.9728E-03
            1134     5.67482E-03     120.192E-03    -66.2887E+06    -109.879E+06    -19.0789E+06    -16.8330E+06    -101.701E-03     206.118E-03    -104.417E-03     89.4296E-03    -102.173E-03     206.019E-03    -104.257E-03     87.6376E-03
            1135     6.48938E-03     120.275E-03    -60.0687E+06    -95.8138E+06    -8.69319E+06    -17.4378E+06    -101.055E-03     204.888E-03    -103.834E-03     99.2016E-03    -101.635E-03     204.940E-03    -103.651E-03     97.1602E-03
            1136     7.30510E-03     120.365E-03    -54.6605E+06    -82.4336E+06     578.245E+03    -17.4516E+06    -100.719E-03     204.006E-03    -103.287E-03     107.495E-03    -101.421E-03     204.220E-03    -103.085E-03     105.210E-03
            1137     8.12109E-03     120.460E-03    -49.4324E+06    -67.5906E+06     9.46764E+06    -16.7196E+06    -100.756E-03     203.563E-03    -102.806E-03     113.975E-03    -101.591E-03     203.954E-03    -102.589E-03     111.458E-03
            1138     8.93714E-03     120.560E-03    -43.9608E+06    -51.1263E+06     18.8086E+06    -15.7846E+06    -101.252E-03     203.675E-03    -102.423E-03     118.044E-03    -102.218E-03     204.248E-03    -102.191E-03     115.309E-03
            1139     9.75279E-03     120.661E-03    -39.1130E+06    -36.5009E+06     26.6925E+06    -14.5273E+06    -102.278E-03     204.441E-03    -102.163E-03     119.122E-03    -103.352E-03     205.169E-03    -101.920E-03     116.202E-03
            1140     10.5666E-03     120.762E-03    -33.7037E+06    -23.1574E+06     33.7412E+06    -13.2955E+06    -103.762E-03     205.810E-03    -102.047E-03     117.109E-03    -104.904E-03     206.652E-03    -101.796E-03     114.046E-03
            1141     11.3797E-03     120.860E-03    -27.8522E+06    -1.95333E+06     41.7348E+06    -11.9561E+06    -105.707E-03     207.790E-03    -102.084E-03     111.994E-03    -106.881E-03     208.738E-03    -101.832E-03     108.833E-03
            1142     12.1910E-03     120.953E-03    -23.0341E+06     13.3221E+06     47.0157E+06    -11.1290E+06    -108.329E-03     210.619E-03    -102.290E-03     103.739E-03    -109.486E-03     211.606E-03    -102.040E-03     100.486E-03
            1143     12.9978E-03     121.038E-03    -17.3958E+06     49.8889E+06     57.1956E+06    -10.3790E+06    -111.251E-03     213.915E-03    -102.665E-03     93.4380E-03    -112.393E-03     215.008E-03    -102.426E-03     90.0955E-03
            1144     13.8036E-03     121.117E-03    -11.7991E+06     86.5630E+06     65.1511E+06    -8.77846E+06    -114.087E-03     217.271E-03    -103.185E-03     79.1074E-03    -115.159E-03     218.421E-03    -102.967E-03     75.7319E-03
            1145     14.6058E-03     121.178E-03    -6.94044E+06     96.9652E+06     71.3041E+06    -6.39414E+06    -116.946E-03     220.809E-03    -103.863E-03     63.8118E-03    -117.936E-03     221.912E-03    -103.637E-03     60.3064E-03
            1146     15.4062E-03     121.231E-03    -3.16532E+06     104.366E+06     85.6758E+06    -2.92095E+06    -119.645E-03     224.333E-03    -104.687E-03     34.6654E-03    -120.377E-03     225.175E-03    -104.406E-03     31.7159E-03
            1147     810.972E-06     121.068E-03    -103.036E+06    -179.798E+06    -101.801E+06    -4.26928E+06    -104.082E-03     207.904E-03    -103.822E-03     16.0378E-03    -104.197E-03     207.310E-03    -103.921E-03     15.7796E-03
            1148     1.62165E-03     121.088E-03    -99.8434E+06    -170.486E+06    -91.4873E+06    -7.02317E+06    -103.432E-03     207.245E-03    -103.813E-03     29.6242E-03    -103.576E-03     206.694E-03    -103.879E-03     29.1524E-03
            1149     2.43323E-03     121.119E-03    -95.5165E+06    -158.369E+06    -77.6896E+06    -9.66278E+06    -102.517E-03     206.012E-03    -103.495E-03     43.6755E-03    -102.705E-03     205.524E-03    -103.516E-03     42.9860E-03
            1150     3.24651E-03     121.162E-03    -90.3470E+06    -144.870E+06    -62.5975E+06    -11.9824E+06    -101.380E-03     204.414E-03    -103.034E-03     57.4164E-03    -101.624E-03     204.004E-03    -103.006E-03     56.5104E-03
            1151     4.06045E-03     121.215E-03    -84.3670E+06    -131.009E+06    -48.3705E+06    -14.0030E+06    -100.270E-03     202.741E-03    -102.471E-03     70.7744E-03    -100.578E-03     202.424E-03    -102.401E-03     69.6500E-03
            1152     4.87600E-03     121.279E-03    -78.3951E+06    -118.223E+06    -35.4347E+06    -15.4300E+06    -99.3209E-03     201.184E-03    -101.864E-03     83.4006E-03    -99.7037E-03     200.971E-03    -101.756E-03     82.0566E-03
            1153     5.69240E-03     121.353E-03    -72.5710E+06    -104.969E+06    -23.6543E+06    -16.3718E+06    -98.6624E-03     199.916E-03    -101.254E-03     95.1618E-03    -99.1352E-03     199.827E-03    -101.115E-03     93.5927E-03
            1154     6.51002E-03     121.435E-03    -67.1176E+06    -92.1443E+06    -13.1847E+06    -16.8418E+06    -98.4362E-03     199.123E-03    -100.687E-03     105.690E-03    -99.0146E-03     199.173E-03    -100.522E-03     103.886E-03
            1155     7.32761E-03     121.524E-03    -61.7329E+06    -79.5422E+06    -3.70815E+06    -16.7594E+06    -98.7348E-03     198.939E-03    -100.204E-03     114.461E-03    -99.4325E-03     199.146E-03    -100.018E-03     112.412E-03
            1156     8.14536E-03     121.619E-03    -56.3083E+06    -65.3251E+06     5.29604E+06    -16.7598E+06    -99.6375E-03     199.482E-03    -99.8444E-03     121.177E-03    -100.467E-03     199.864E-03    -99.6415E-03     118.867E-03
            1157     8.96222E-03     121.719E-03    -50.6962E+06    -50.0858E+06     14.1061E+06    -16.2020E+06    -101.158E-03     200.799E-03    -99.6403E-03     125.302E-03    -102.120E-03     201.362E-03    -99.4237E-03     122.736E-03
            1158     9.77747E-03     121.822E-03    -44.2005E+06    -35.7600E+06     22.8511E+06    -15.4986E+06    -103.231E-03     202.848E-03    -99.6167E-03     126.346E-03    -104.303E-03     203.570E-03    -99.3865E-03     123.545E-03
            1159     10.5915E-03     121.926E-03    -37.6703E+06    -22.0592E+06     30.3170E+06    -15.3020E+06    -105.861E-03     205.643E-03    -99.7823E-03     123.995E-03    -107.007E-03     206.490E-03    -99.5441E-03     120.982E-03
            1160     11.4023E-03     122.027E-03    -30.9385E+06    -2.88884E+06     38.0522E+06    -14.3499E+06    -108.979E-03     209.122E-03    -100.143E-03     118.309E-03    -110.161E-03     210.074E-03    -99.9037E-03     115.132E-03
            1161     12.2097E-03     122.124E-03    -23.8757E+06     14.3784E+06     45.0473E+06    -13.3628E+06    -112.367E-03     213.065E-03    -100.698E-03     109.697E-03    -113.533E-03     214.068E-03    -100.459E-03     106.386E-03
            1162     13.0149E-03     122.215E-03    -18.0200E+06     49.3106E+06     54.9423E+06    -12.0783E+06    -115.687E-03     217.102E-03    -101.415E-03     98.9538E-03    -116.842E-03     218.210E-03    -101.186E-03     95.5248E-03
            1163     13.8159E-03     122.297E-03    -13.4107E+06     82.5942E+06     61.4682E+06    -8.39230E+06    -119.047E-03     221.311E-03    -102.265E-03     83.8312E-03    -120.136E-03     222.469E-03    -102.058E-03     80.3495E-03
            1164     14.6144E-03     122.365E-03    -10.4148E+06     93.8848E+06     67.7690E+06    -5.13373E+06    -122.456E-03     225.728E-03    -103.272E-03     67.8262E-03    -123.478E-03     226.851E-03    -103.054E-03     64.1796E-03
            1165     15.4080E-03     122.422E-03    -6.17981E+06     100.010E+06     84.1476E+06    -2.91549E+06    -124.874E-03     229.285E-03    -104.411E-03     37.7510E-03    -125.629E-03     230.130E-03    -104.127E-03     34.6621E-03
            1166     813.681E-06     122.231E-03    -108.925E+06    -169.546E+06    -105.974E+06    -3.68093E+06    -99.6664E-03     199.495E-03    -99.8288E-03     17.0975E-03    -99.8190E-03     198.965E-03    -99.9548E-03     16.8856E-03
            1167     1.62861E-03     122.250E-03    -105.887E+06    -161.905E+06    -97.6161E+06    -6.26159E+06    -99.0383E-03     198.603E-03    -99.5648E-03     31.4978E-03    -99.2128E-03     198.108E-03    -99.6646E-03     31.1170E-03
            1168     2.44396E-03     122.280E-03    -102.386E+06    -150.518E+06    -84.8714E+06    -8.36768E+06    -98.1505E-03     197.339E-03    -99.1882E-03     46.4362E-03    -98.3665E-03     196.901E-03    -99.2459E-03     45.8802E-03
            1169     3.26001E-03     122.320E-03    -97.5234E+06    -137.638E+06    -69.8354E+06    -10.5146E+06    -97.0628E-03     195.769E-03    -98.7061E-03     61.1626E-03    -97.3291E-03     195.401E-03    -98.7143E-03     60.4270E-03
            1170     4.07807E-03     122.372E-03    -92.3489E+06    -124.747E+06    -55.1845E+06    -12.2126E+06    -96.0853E-03     194.232E-03    -98.1471E-03     75.5266E-03    -96.4116E-03     193.946E-03    -98.1082E-03     74.6108E-03
            1171     4.89680E-03     122.434E-03    -87.3116E+06    -112.230E+06    -41.8880E+06    -13.6106E+06    -95.4834E-03     193.057E-03    -97.5733E-03     89.0983E-03    -95.8822E-03     192.867E-03    -97.4934E-03     87.9883E-03
            1172     5.71666E-03     122.506E-03    -81.8971E+06    -99.6786E+06    -29.8467E+06    -15.0218E+06    -95.3894E-03     192.435E-03    -97.0454E-03     101.647E-03    -95.8736E-03     192.360E-03    -96.9314E-03     100.320E-03
            1173     6.53648E-03     122.587E-03    -76.1044E+06    -87.9240E+06    -19.0953E+06    -15.9596E+06    -95.9148E-03     192.529E-03    -96.6137E-03     112.766E-03    -96.4976E-03     192.583E-03    -96.4714E-03     111.201E-03
            1174     7.35648E-03     122.677E-03    -69.9150E+06    -75.9213E+06    -9.36106E+06    -16.8483E+06    -97.2054E-03     193.530E-03    -96.3245E-03     122.010E-03    -97.9028E-03     193.736E-03    -96.1599E-03     120.174E-03
            1175     8.17513E-03     122.773E-03    -63.0351E+06    -62.0916E+06     67.5871E+03    -17.6996E+06    -99.2550E-03     195.473E-03    -96.2185E-03     128.976E-03    -100.080E-03     195.855E-03    -96.0368E-03     126.841E-03
            1176     8.99220E-03     122.876E-03    -55.5886E+06    -48.0807E+06     9.21719E+06    -18.1371E+06    -101.959E-03     198.283E-03    -96.3231E-03     133.127E-03    -102.915E-03     198.844E-03    -96.1267E-03     130.682E-03
            1177     9.80720E-03     122.982E-03    -48.1296E+06    -33.9084E+06     18.1368E+06    -18.2755E+06    -105.268E-03     201.921E-03    -96.6528E-03     133.899E-03    -106.341E-03     202.651E-03    -96.4432E-03     131.150E-03
            1178     10.6185E-03     123.090E-03    -40.8363E+06    -20.6455E+06     25.9444E+06    -17.9883E+06    -109.151E-03     206.364E-03    -97.2127E-03     131.260E-03    -110.307E-03     207.227E-03    -96.9938E-03     128.240E-03
            1179     11.4266E-03     123.196E-03    -33.7080E+06    -2.08641E+06     33.9334E+06    -17.9561E+06    -113.311E-03     211.305E-03    -97.9934E-03     125.266E-03    -114.512E-03     212.281E-03    -97.7718E-03     122.010E-03
            1180     12.2311E-03     123.299E-03    -27.3658E+06     13.4009E+06     40.2608E+06    -16.6455E+06    -117.257E-03     216.224E-03    -98.9666E-03     115.909E-03    -118.448E-03     217.250E-03    -98.7450E-03     112.483E-03
            1181     13.0317E-03     123.395E-03    -21.6386E+06     47.2176E+06     50.2920E+06    -13.2476E+06    -121.027E-03     221.113E-03    -100.086E-03     104.414E-03    -122.210E-03     222.242E-03    -99.8718E-03     100.862E-03
            1182     13.8294E-03     123.484E-03    -15.9814E+06     76.8953E+06     56.0669E+06    -9.53731E+06    -124.871E-03     226.189E-03    -101.318E-03     88.9553E-03    -125.983E-03     227.356E-03    -101.126E-03     85.3078E-03
            1183     14.6223E-03     123.556E-03    -9.76893E+06     89.1506E+06     64.8480E+06    -5.60881E+06    -128.048E-03     230.730E-03    -102.682E-03     72.2953E-03    -129.081E-03     231.858E-03    -102.473E-03     68.4809E-03
            1184     15.4145E-03     123.620E-03    -4.65107E+06     97.7692E+06     84.7443E+06    -3.38946E+06    -130.032E-03     234.166E-03    -104.135E-03     40.8849E-03    -130.792E-03     235.012E-03    -103.846E-03     37.6600E-03
            1185     818.892E-06     123.383E-03    -119.285E+06    -161.859E+06    -117.566E+06    -2.28846E+06    -93.8928E-03     187.812E-03    -93.9189E-03     18.5668E-03    -94.0910E-03     187.349E-03    -94.0991E-03     18.4178E-03
            1186     1.63770E-03     123.400E-03    -118.414E+06    -154.559E+06    -108.774E+06    -4.38503E+06    -93.2763E-03     187.015E-03    -93.7387E-03     33.6956E-03    -93.5039E-03     186.585E-03    -93.8867E-03     33.4252E-03
            1187     2.45779E-03     123.428E-03    -114.705E+06    -143.664E+06    -96.1526E+06    -6.55911E+06    -92.4449E-03     185.835E-03    -93.3899E-03     49.5730E-03    -92.7067E-03     185.455E-03    -93.4960E-03     49.1659E-03
            1188     3.27917E-03     123.467E-03    -110.070E+06    -131.415E+06    -80.9302E+06    -8.47207E+06    -91.7584E-03     184.729E-03    -92.9702E-03     65.3739E-03    -92.0648E-03     184.409E-03    -93.0247E-03     64.8227E-03
            1189     4.10083E-03     123.517E-03    -104.433E+06    -118.803E+06    -64.8556E+06    -10.2844E+06    -91.3375E-03     183.881E-03    -92.5433E-03     80.6712E-03    -91.6960E-03     183.632E-03    -92.5439E-03     79.9647E-03
            1190     4.92377E-03     123.578E-03    -97.7521E+06    -106.011E+06    -49.8486E+06    -12.2796E+06    -91.4187E-03     183.572E-03    -92.1531E-03     95.1110E-03    -91.8375E-03     183.410E-03    -92.1068E-03     94.2212E-03
            1191     5.74647E-03     123.650E-03    -90.6511E+06    -94.0074E+06    -36.7061E+06    -14.3176E+06    -92.2352E-03     184.094E-03    -91.8586E-03     108.360E-03    -92.7264E-03     184.034E-03    -91.7744E-03     107.253E-03
            1192     6.56915E-03     123.732E-03    -83.0667E+06    -82.5732E+06    -24.9802E+06    -16.2647E+06    -93.8683E-03     185.585E-03    -91.7169E-03     120.055E-03    -94.4479E-03     185.648E-03    -91.6016E-03     118.692E-03
            1193     7.39028E-03     123.824E-03    -75.1299E+06    -70.7049E+06    -14.6169E+06    -18.2694E+06    -96.3823E-03     188.153E-03    -91.7707E-03     129.765E-03    -97.0696E-03     188.365E-03    -91.6323E-03     128.100E-03
            1194     8.20968E-03     123.924E-03    -67.1776E+06    -57.2860E+06    -5.00471E+06    -20.2301E+06    -99.7144E-03     191.769E-03    -92.0544E-03     136.927E-03    -100.530E-03     192.157E-03    -91.8989E-03     134.916E-03
            1195     9.02626E-03     124.030E-03    -59.2315E+06    -45.0761E+06     3.93547E+06    -21.4235E+06    -103.745E-03     196.335E-03    -92.5900E-03     141.124E-03    -104.696E-03     196.905E-03    -92.4191E-03     138.745E-03
            1196     9.83908E-03     124.142E-03    -51.7294E+06    -31.8251E+06     12.6863E+06    -21.3032E+06    -108.396E-03     201.781E-03    -93.3845E-03     141.917E-03    -109.477E-03     202.530E-03    -93.1999E-03     139.177E-03
            1197     10.6485E-03     124.255E-03    -44.3839E+06    -17.7746E+06     21.4199E+06    -21.8476E+06    -113.400E-03     207.833E-03    -94.4327E-03     139.095E-03    -114.581E-03     208.733E-03    -94.2354E-03     136.008E-03
            1198     11.4531E-03     124.369E-03    -37.1717E+06    -1.19033E+06     29.2201E+06    -21.7810E+06    -118.262E-03     213.958E-03    -95.6962E-03     132.556E-03    -119.492E-03     214.969E-03    -95.4945E-03     129.188E-03
            1199     12.2532E-03     124.478E-03    -30.1614E+06     11.0430E+06     35.4267E+06    -19.5575E+06    -122.980E-03     220.120E-03    -97.1401E-03     122.630E-03    -124.200E-03     221.171E-03    -96.9352E-03     119.055E-03
            1200     13.0496E-03     124.580E-03    -23.3198E+06     43.3761E+06     46.0448E+06    -15.9785E+06    -127.341E-03     226.058E-03    -98.7171E-03     110.529E-03    -128.549E-03     227.205E-03    -98.5159E-03     106.790E-03
            1201     13.8416E-03     124.675E-03    -17.0496E+06     72.7899E+06     52.7604E+06    -12.4228E+06    -130.959E-03     231.328E-03    -100.369E-03     94.4102E-03    -132.093E-03     232.508E-03    -100.186E-03     90.5664E-03
            1202     14.6310E-03     124.755E-03    -11.0587E+06     84.8890E+06     62.7109E+06    -9.69142E+06    -133.743E-03     235.840E-03    -102.097E-03     76.5313E-03    -134.795E-03     236.973E-03    -101.890E-03     72.5060E-03
            1203     15.4168E-03     124.821E-03    -4.43434E+06     92.0680E+06     83.5567E+06    -4.79312E+06    -135.307E-03     239.166E-03    -103.859E-03     43.6346E-03    -136.071E-03     239.999E-03    -103.568E-03     40.2494E-03
            1204     824.943E-06     124.519E-03    -142.429E+06    -157.059E+06    -140.143E+06    -1.33221E+06    -86.4599E-03     172.773E-03    -86.3135E-03     19.7784E-03    -86.7473E-03     172.399E-03    -86.5799E-03     19.6888E-03
            1205     1.65019E-03     124.536E-03    -139.312E+06    -148.433E+06    -129.095E+06    -3.25238E+06    -86.1086E-03     172.402E-03    -86.2938E-03     36.1122E-03    -86.4162E-03     172.058E-03    -86.5221E-03     35.9369E-03
            1206     2.47598E-03     124.562E-03    -133.638E+06    -137.103E+06    -113.442E+06    -6.03399E+06    -85.8523E-03     171.985E-03    -86.1322E-03     53.0264E-03    -86.1838E-03     171.679E-03    -86.3068E-03     52.7407E-03
            1207     3.30217E-03     124.601E-03    -125.754E+06    -124.678E+06    -95.1282E+06    -8.70369E+06    -85.8664E-03     171.830E-03    -85.9632E-03     69.6556E-03    -86.2243E-03     171.571E-03    -86.0757E-03     69.2452E-03
            1208     4.12904E-03     124.650E-03    -116.232E+06    -112.182E+06    -76.0868E+06    -11.3185E+06    -86.3618E-03     172.202E-03    -85.8399E-03     85.6645E-03    -86.7502E-03     171.997E-03    -85.8891E-03     85.1073E-03
            1209     4.95533E-03     124.712E-03    -106.229E+06    -99.7744E+06    -58.6910E+06    -13.8780E+06    -87.5234E-03     173.330E-03    -85.8071E-03     100.935E-03    -87.9525E-03     173.196E-03    -85.8018E-03     100.200E-03
            1210     5.78142E-03     124.785E-03    -96.2746E+06    -87.5154E+06    -43.6121E+06    -16.2720E+06    -89.5339E-03     175.450E-03    -85.9164E-03     114.790E-03    -90.0200E-03     175.409E-03    -85.8680E-03     113.838E-03
            1211     6.60568E-03     124.869E-03    -86.7655E+06    -76.1491E+06    -31.0750E+06    -18.7862E+06    -92.4778E-03     178.696E-03    -86.2179E-03     127.022E-03    -93.0424E-03     178.772E-03    -86.1371E-03     125.799E-03
            1212     7.42802E-03     124.965E-03    -77.6187E+06    -64.3446E+06    -20.1019E+06    -21.3982E+06    -96.3095E-03     183.059E-03    -86.7500E-03     137.216E-03    -96.9786E-03     183.283E-03    -86.6447E-03     135.666E-03
            1213     8.24713E-03     125.069E-03    -68.9263E+06    -51.4291E+06    -9.63378E+06    -23.5082E+06    -100.942E-03     188.480E-03    -87.5386E-03     144.821E-03    -101.742E-03     188.882E-03    -87.4122E-03     142.895E-03
            1214     9.06245E-03     125.183E-03    -60.7308E+06    -41.0373E+06    -375.016E+03    -25.0856E+06    -106.353E-03     194.952E-03    -88.5996E-03     149.407E-03    -107.297E-03     195.537E-03    -88.4539E-03     147.061E-03
            1215     9.87372E-03     125.301E-03    -51.7841E+06    -29.4532E+06     8.93426E+06    -25.8878E+06    -112.285E-03     202.220E-03    -89.9350E-03     150.405E-03    -113.367E-03     202.989E-03    -89.7725E-03     147.623E-03
            1216     10.6792E-03     125.423E-03    -43.1142E+06    -14.2466E+06     18.9586E+06    -25.7519E+06    -118.217E-03     209.740E-03    -91.5226E-03     147.416E-03    -119.411E-03     210.677E-03    -91.3446E-03     144.234E-03
            1217     11.4800E-03     125.544E-03    -35.7357E+06    -365.612E+03     27.2509E+06    -25.2435E+06    -123.919E-03     217.234E-03    -93.3154E-03     140.371E-03    -125.166E-03     218.277E-03    -93.1268E-03     136.863E-03
            1218     12.2767E-03     125.661E-03    -28.5375E+06     8.26120E+06     33.5235E+06    -23.5567E+06    -129.317E-03     224.587E-03    -95.2704E-03     129.852E-03    -130.551E-03     225.654E-03    -95.0734E-03     126.089E-03
            1219     13.0675E-03     125.772E-03    -21.1737E+06     39.3564E+06     44.7515E+06    -19.9902E+06    -133.965E-03     231.293E-03    -97.3284E-03     117.015E-03    -135.184E-03     232.449E-03    -97.1310E-03     113.059E-03
            1220     13.8550E-03     125.873E-03    -14.2852E+06     67.3002E+06     52.0248E+06    -15.3116E+06    -137.382E-03     236.796E-03    -99.4139E-03     99.7912E-03    -138.518E-03     237.971E-03    -99.2307E-03     95.7482E-03
            1221     14.6394E-03     125.959E-03    -9.76081E+06     79.8778E+06     62.5055E+06    -10.7886E+06    -139.496E-03     241.007E-03    -101.511E-03     80.9604E-03    -140.556E-03     242.135E-03    -101.300E-03     76.7628E-03
            1222     15.4222E-03     126.030E-03    -6.19932E+06     85.1848E+06     82.7373E+06    -5.97855E+06    -140.548E-03     244.128E-03    -103.580E-03     47.0825E-03    -141.327E-03     244.948E-03    -103.281E-03     43.5372E-03
            1223     832.205E-06     125.636E-03    -177.736E+06    -149.964E+06    -175.804E+06    -4.32086E+06    -77.7895E-03     155.303E-03    -77.5139E-03     20.9767E-03    -78.2111E-03     155.065E-03    -77.9177E-03     20.8849E-03
            1224     1.66491E-03     125.653E-03    -169.128E+06    -140.693E+06    -160.078E+06    -7.69829E+06    -77.9876E-03     155.673E-03    -77.6853E-03     38.0511E-03    -78.4065E-03     155.450E-03    -78.0364E-03     37.8809E-03
            1225     2.49705E-03     125.680E-03    -157.150E+06    -128.079E+06    -138.009E+06    -11.6795E+06    -78.7093E-03     156.552E-03    -77.8425E-03     55.8484E-03    -79.1274E-03     156.352E-03    -78.1190E-03     55.5779E-03
            1226     3.32892E-03     125.719E-03    -142.941E+06    -116.171E+06    -113.608E+06    -15.6562E+06    -79.8198E-03     157.913E-03    -78.0935E-03     73.3733E-03    -80.2354E-03     157.735E-03    -78.2859E-03     72.9822E-03
            1227     4.15997E-03     125.770E-03    -128.071E+06    -104.780E+06    -90.6586E+06    -18.5567E+06    -81.5541E-03     159.995E-03    -78.4408E-03     90.1112E-03    -81.9722E-03     159.846E-03    -78.5565E-03     89.5854E-03
            1228     4.99039E-03     125.833E-03    -113.553E+06    -92.8736E+06    -70.2856E+06    -20.7388E+06    -84.0751E-03     162.998E-03    -78.9227E-03     105.887E-03    -84.5099E-03     162.902E-03    -78.9748E-03     105.199E-03
            1229     5.81855E-03     125.910E-03    -99.9437E+06    -81.0030E+06    -52.8317E+06    -22.5733E+06    -87.4264E-03     167.004E-03    -79.5777E-03     120.345E-03    -87.8995E-03     166.987E-03    -79.5795E-03     119.451E-03
            1230     6.64460E-03     125.999E-03    -87.6171E+06    -69.4930E+06    -37.7487E+06    -24.4246E+06    -91.6901E-03     172.132E-03    -80.4419E-03     133.235E-03    -92.2299E-03     172.224E-03    -80.4029E-03     132.078E-03
            1231     7.46713E-03     126.100E-03    -76.4943E+06    -57.5935E+06    -24.1846E+06    -26.4432E+06    -96.7999E-03     178.344E-03    -81.5444E-03     144.044E-03    -97.4395E-03     178.579E-03    -81.4709E-03     142.556E-03
            1232     8.28592E-03     126.212E-03    -66.2009E+06    -45.8232E+06    -12.0106E+06    -28.2467E+06    -102.750E-03     185.655E-03    -82.9049E-03     152.290E-03    -103.519E-03     186.063E-03    -82.8025E-03     150.404E-03
            1233     9.10015E-03     126.333E-03    -56.4519E+06    -35.7429E+06    -1.15619E+06    -29.6486E+06    -109.433E-03     193.972E-03    -84.5388E-03     157.454E-03    -110.350E-03     194.567E-03    -84.4109E-03     155.112E-03
            1234     9.90811E-03     126.461E-03    -47.9446E+06    -25.5504E+06     8.27993E+06    -30.9406E+06    -116.380E-03     202.817E-03    -86.4366E-03     158.888E-03    -117.449E-03     203.603E-03    -86.2886E-03     156.054E-03
            1235     10.7113E-03     126.592E-03    -39.9239E+06    -12.9354E+06     17.9306E+06    -30.4384E+06    -123.293E-03     211.865E-03    -88.5723E-03     156.025E-03    -124.487E-03     212.823E-03    -88.4060E-03     152.735E-03
            1236     11.5086E-03     126.723E-03    -32.2994E+06     256.519E+03     27.8098E+06    -28.4179E+06    -129.959E-03     220.869E-03    -90.9096E-03     148.768E-03    -131.222E-03     221.940E-03    -90.7241E-03     145.105E-03
            1237     12.2990E-03     126.850E-03    -26.1016E+06     7.43293E+06     34.5660E+06    -26.8651E+06    -135.947E-03     229.336E-03    -93.3898E-03     137.791E-03    -137.203E-03     230.429E-03    -93.1899E-03     133.836E-03
            1238     13.0860E-03     126.969E-03    -20.4096E+06     35.0773E+06     44.7750E+06    -24.0107E+06    -140.682E-03     236.614E-03    -95.9316E-03     123.858E-03    -141.920E-03     237.777E-03    -95.7290E-03     119.690E-03
            1239     13.8683E-03     127.079E-03    -14.9049E+06     60.0858E+06     51.4421E+06    -18.6574E+06    -143.843E-03     242.292E-03    -98.4495E-03     105.147E-03    -144.992E-03     243.454E-03    -98.2578E-03     100.903E-03
            1240     14.6477E-03     127.168E-03    -8.91594E+06     73.1537E+06     62.3808E+06    -12.3569E+06    -145.406E-03     246.320E-03    -100.915E-03     84.8259E-03    -146.467E-03     247.430E-03    -100.696E-03     80.4522E-03
            1241     15.4266E-03     127.244E-03    -3.27604E+06     76.7401E+06     82.8314E+06    -6.00953E+06    -145.826E-03     249.116E-03    -103.290E-03     49.6923E-03    -146.590E-03     249.902E-03    -102.983E-03     46.0088E-03
            1242     840.426E-06     126.734E-03    -201.983E+06    -133.872E+06    -200.188E+06    -9.14925E+06    -69.0065E-03     137.482E-03    -68.4754E-03     21.4184E-03    -69.5360E-03     137.394E-03    -68.9894E-03     21.2839E-03
            1243     1.67975E-03     126.751E-03    -194.518E+06    -125.783E+06    -186.020E+06    -16.2503E+06    -69.8926E-03     138.816E-03    -68.9232E-03     39.0788E-03    -70.4195E-03     138.740E-03    -69.3889E-03     38.8331E-03
            1244     2.51873E-03     126.780E-03    -182.025E+06    -113.618E+06    -163.636E+06    -22.7372E+06    -71.5314E-03     140.964E-03    -69.4328E-03     57.4342E-03    -72.0518E-03     140.905E-03    -69.8223E-03     57.0718E-03
            1245     3.35625E-03     126.821E-03    -166.485E+06    -103.544E+06    -137.244E+06    -28.4100E+06    -73.9264E-03     144.058E-03    -70.1312E-03     75.4059E-03    -74.4345E-03     144.002E-03    -70.4259E-03     74.9155E-03
            1246     4.19215E-03     126.876E-03    -148.715E+06    -94.7355E+06    -112.054E+06    -32.6992E+06    -77.1006E-03     148.111E-03    -71.0103E-03     92.8212E-03    -77.5921E-03     148.061E-03    -71.2176E-03     92.1921E-03
            1247     5.02510E-03     126.944E-03    -129.449E+06    -84.4340E+06    -88.6787E+06    -35.5926E+06    -81.0170E-03     153.088E-03    -72.0712E-03     109.224E-03    -81.4999E-03     153.068E-03    -72.2044E-03     108.435E-03
            1248     5.85578E-03     127.025E-03    -109.690E+06    -75.0361E+06    -66.5059E+06    -36.9841E+06    -85.7396E-03     159.070E-03    -73.3306E-03     124.425E-03    -86.2299E-03     159.097E-03    -73.3953E-03     123.443E-03
            1249     6.68270E-03     127.121E-03    -91.0200E+06    -64.4140E+06    -46.0914E+06    -36.8363E+06    -91.2715E-03     166.072E-03    -74.8003E-03     137.969E-03    -91.8006E-03     166.183E-03    -74.8054E-03     136.754E-03
            1250     7.50575E-03     127.230E-03    -74.9457E+06    -52.7272E+06    -28.2790E+06    -36.2394E+06    -97.6259E-03     174.122E-03    -76.4960E-03     149.460E-03    -98.2347E-03     174.361E-03    -76.4523E-03     147.945E-03
            1251     8.32385E-03     127.350E-03    -62.1575E+06    -41.5896E+06    -13.4037E+06    -35.3089E+06    -104.781E-03     183.218E-03    -78.4367E-03     158.519E-03    -105.512E-03     183.621E-03    -78.3533E-03     156.630E-03
            1252     9.13582E-03     127.482E-03    -52.8619E+06    -31.2735E+06    -1.18586E+06    -34.6820E+06    -112.390E-03     193.018E-03    -80.6278E-03     164.510E-03    -113.277E-03     193.612E-03    -80.5118E-03     162.171E-03
            1253     9.94274E-03     127.621E-03    -45.1949E+06    -20.4070E+06     9.79219E+06    -34.9747E+06    -120.273E-03     203.333E-03    -83.0598E-03     166.622E-03    -121.327E-03     204.128E-03    -82.9157E-03     163.772E-03
            1254     10.7425E-03     127.764E-03    -37.9549E+06    -11.7094E+06     19.3460E+06    -35.0624E+06    -128.241E-03     213.958E-03    -85.7171E-03     164.207E-03    -129.434E-03     214.922E-03    -85.5483E-03     160.834E-03
            1255     11.5352E-03     127.906E-03    -31.0262E+06    -1.73849E+06     28.6567E+06    -32.3981E+06    -135.730E-03     224.294E-03    -88.5642E-03     157.035E-03    -137.006E-03     225.375E-03    -88.3734E-03     153.228E-03
            1256     12.3235E-03     128.044E-03    -24.4138E+06     8.20379E+06     37.7773E+06    -29.5754E+06    -142.244E-03     233.783E-03    -91.5392E-03     145.623E-03    -143.523E-03     234.899E-03    -91.3269E-03     141.507E-03
            1257     13.1041E-03     128.173E-03    -18.2751E+06     31.1313E+06     47.1271E+06    -26.6800E+06    -147.133E-03     241.671E-03    -94.5379E-03     130.837E-03    -148.376E-03     242.825E-03    -94.3209E-03     126.513E-03
            1258     13.8818E-03     128.289E-03    -12.4712E+06     50.9340E+06     53.0395E+06    -20.8203E+06    -150.157E-03     247.627E-03    -97.4696E-03     110.973E-03    -151.294E-03     248.748E-03    -97.2601E-03     106.589E-03
            1259     14.6574E-03     128.386E-03    -8.38851E+06     63.1941E+06     63.1458E+06    -13.2124E+06    -151.597E-03     251.899E-03    -100.302E-03     89.1551E-03    -152.647E-03     252.961E-03    -100.065E-03     84.6648E-03
            1260     15.4302E-03     128.464E-03    -4.58949E+06     66.7043E+06     82.2417E+06    -5.93877E+06    -151.386E-03     254.378E-03    -102.992E-03     52.6199E-03    -152.145E-03     255.120E-03    -102.671E-03     48.8297E-03
            1261     846.911E-06     127.812E-03    -182.284E+06    -110.839E+06    -177.939E+06    -10.9730E+06    -61.5447E-03     122.439E-03    -60.8943E-03     20.8051E-03    -62.0401E-03     122.406E-03    -61.3589E-03     20.6493E-03
            1262     1.69350E-03     127.831E-03    -176.463E+06    -102.884E+06    -166.523E+06    -20.0662E+06    -62.9386E-03     124.445E-03    -61.5059E-03     38.0718E-03    -63.4354E-03     124.429E-03    -61.9335E-03     37.7827E-03
            1263     2.53808E-03     127.864E-03    -168.969E+06    -93.0232E+06    -149.707E+06    -29.3181E+06    -65.4077E-03     127.682E-03    -62.2746E-03     56.2609E-03    -65.9112E-03     127.687E-03    -62.6432E-03     55.8238E-03
            1264     3.38066E-03     127.909E-03    -158.503E+06    -85.0930E+06    -130.339E+06    -37.2061E+06    -68.8269E-03     132.141E-03    -63.3143E-03     74.3188E-03    -69.3293E-03     132.155E-03    -63.6127E-03     73.7323E-03
            1265     4.22006E-03     127.969E-03    -145.977E+06    -78.6012E+06    -110.791E+06    -44.1777E+06    -73.1018E-03     137.704E-03    -64.6024E-03     92.0737E-03    -73.6007E-03     137.726E-03    -64.8308E-03     91.3229E-03
            1266     5.05677E-03     128.043E-03    -132.169E+06    -71.7275E+06    -92.7624E+06    -49.6578E+06    -78.2052E-03     144.321E-03    -66.1163E-03     109.116E-03    -78.7072E-03     144.368E-03    -66.2845E-03     108.183E-03
            1267     5.88905E-03     128.132E-03    -117.622E+06    -66.4456E+06    -75.4660E+06    -52.8429E+06    -84.1226E-03     151.981E-03    -67.8587E-03     125.131E-03    -84.6411E-03     152.066E-03    -67.9691E-03     123.996E-03
            1268     6.71712E-03     128.236E-03    -102.091E+06    -59.1361E+06    -57.5258E+06    -53.7719E+06    -90.8363E-03     160.669E-03    -69.8323E-03     139.612E-03    -91.3953E-03     160.823E-03    -69.8862E-03     138.243E-03
            1269     7.54013E-03     128.354E-03    -85.4256E+06    -50.0478E+06    -38.6874E+06    -52.4917E+06    -98.3393E-03     170.385E-03    -72.0456E-03     152.081E-03    -98.9672E-03     170.646E-03    -72.0426E-03     150.432E-03
            1270     8.35730E-03     128.486E-03    -68.7735E+06    -42.1028E+06    -20.3321E+06    -48.8529E+06    -106.343E-03     180.839E-03    -74.4959E-03     162.083E-03    -107.067E-03     181.231E-03    -74.4368E-03     160.106E-03
            1271     9.16904E-03     128.629E-03    -53.2036E+06    -30.5872E+06    -2.38702E+06    -44.1165E+06    -114.771E-03     191.940E-03    -77.1694E-03     169.033E-03    -115.625E-03     192.507E-03    -77.0598E-03     166.665E-03
            1272     9.97341E-03     128.780E-03    -41.1939E+06    -18.3430E+06     13.1510E+06    -40.2514E+06    -123.528E-03     203.588E-03    -80.0600E-03     172.158E-03    -124.535E-03     204.349E-03    -79.9079E-03     169.322E-03
            1273     10.7709E-03     128.937E-03    -33.4624E+06    -10.1963E+06     24.4810E+06    -37.4374E+06    -132.271E-03     215.426E-03    -83.1553E-03     170.815E-03    -133.423E-03     216.356E-03    -82.9696E-03     167.465E-03
            1274     11.5619E-03     129.092E-03    -27.5620E+06    -3.43464E+06     32.9336E+06    -35.1111E+06    -140.615E-03     227.039E-03    -86.4247E-03     164.333E-03    -141.865E-03     228.088E-03    -86.2151E-03     160.491E-03
            1275     12.3440E-03     129.242E-03    -21.1477E+06     7.91270E+06     42.3528E+06    -32.6117E+06    -147.636E-03     237.448E-03    -89.8113E-03     152.643E-03    -148.907E-03     238.552E-03    -89.5803E-03     148.431E-03
            1276     13.1228E-03     129.381E-03    -15.4056E+06     25.3888E+06     51.5425E+06    -28.3168E+06    -152.872E-03     246.085E-03    -93.2121E-03     136.792E-03    -154.090E-03     247.191E-03    -92.9688E-03     132.409E-03
            1277     13.8965E-03     129.507E-03    -12.3359E+06     39.4632E+06     55.9211E+06    -20.4269E+06    -156.259E-03     252.786E-03    -96.5268E-03     115.331E-03    -157.365E-03     253.828E-03    -96.2865E-03     110.922E-03
            1278     14.6664E-03     129.608E-03    -9.30540E+06     54.0192E+06     66.4730E+06    -12.8921E+06    -157.363E-03     257.071E-03    -99.7083E-03     91.7556E-03    -158.391E-03     258.067E-03    -99.4408E-03     87.2251E-03
            1279     15.4367E-03     129.691E-03    -4.63948E+06     56.6471E+06     84.7265E+06    -6.49628E+06    -156.673E-03     259.369E-03    -102.696E-03     54.2970E-03    -157.411E-03     260.046E-03    -102.348E-03     50.4454E-03
            1280     851.574E-06     128.876E-03    -131.351E+06    -86.1643E+06    -127.495E+06    -10.9875E+06    -57.0688E-03     113.282E-03    -56.2128E-03     18.6463E-03    -57.4177E-03     113.227E-03    -56.5349E-03     18.4810E-03
            1281     1.70182E-03     128.898E-03    -125.987E+06    -78.3070E+06    -114.675E+06    -19.9990E+06    -58.5712E-03     115.554E-03    -56.9832E-03     34.3287E-03    -58.9270E-03     115.517E-03    -57.2603E-03     34.0232E-03
            1282     2.55075E-03     128.934E-03    -119.482E+06    -69.7728E+06    -99.9271E+06    -28.5141E+06    -61.3698E-03     119.231E-03    -57.8616E-03     51.1113E-03    -61.7345E-03     119.213E-03    -58.0868E-03     50.6606E-03
            1283     3.39678E-03     128.985E-03    -113.407E+06    -63.2072E+06    -86.9282E+06    -36.9949E+06    -65.2070E-03     124.244E-03    -59.0375E-03     68.2850E-03    -65.5832E-03     124.245E-03    -59.2160E-03     67.6736E-03
            1284     4.23995E-03     129.051E-03    -107.403E+06    -57.8282E+06    -75.5261E+06    -44.8774E+06    -70.0159E-03     130.511E-03    -60.4949E-03     85.4774E-03    -70.4091E-03     130.537E-03    -60.6329E-03     84.6893E-03
            1285     5.07861E-03     129.133E-03    -101.721E+06    -54.4615E+06    -65.4628E+06    -51.3048E+06    -75.7427E-03     137.964E-03    -62.2212E-03     102.470E-03    -76.1619E-03     138.019E-03    -62.3221E-03     101.494E-03
            1286     5.91310E-03     129.231E-03    -95.9624E+06    -52.0728E+06    -56.6213E+06    -56.5172E+06    -82.3785E-03     146.584E-03    -64.2052E-03     118.897E-03    -82.8374E-03     146.682E-03    -64.2736E-03     117.707E-03
            1287     6.74244E-03     129.344E-03    -88.9138E+06    -48.0451E+06    -46.5746E+06    -60.7132E+06    -89.8787E-03     156.328E-03    -66.4494E-03     134.284E-03    -90.3957E-03     156.496E-03    -66.4837E-03     132.840E-03
            1288     7.56571E-03     129.474E-03    -80.7435E+06    -44.5615E+06    -35.5877E+06    -62.2966E+06    -98.0432E-03     166.990E-03    -68.9467E-03     148.064E-03    -98.6380E-03     167.245E-03    -68.9429E-03     146.337E-03
            1289     8.38309E-03     129.617E-03    -70.8591E+06    -41.0686E+06    -22.8169E+06    -61.4228E+06    -106.757E-03     178.444E-03    -71.6866E-03     159.412E-03    -107.450E-03     178.808E-03    -71.6384E-03     157.358E-03
            1290     9.19356E-03     129.773E-03    -59.0378E+06    -33.1301E+06    -6.38235E+06    -58.0468E+06    -115.837E-03     190.496E-03    -74.6599E-03     167.834E-03    -116.650E-03     191.005E-03    -74.5582E-03     165.413E-03
            1291     9.99735E-03     129.938E-03    -45.7377E+06    -22.7438E+06     11.9104E+06    -51.7257E+06    -125.102E-03     202.949E-03    -77.8470E-03     172.595E-03    -126.046E-03     203.619E-03    -77.6882E-03     169.778E-03
            1292     10.7940E-03     130.108E-03    -32.9646E+06    -15.0495E+06     27.3337E+06    -43.7802E+06    -134.421E-03     215.643E-03    -81.2215E-03     172.862E-03    -135.481E-03     216.457E-03    -81.0152E-03     169.622E-03
            1293     11.5820E-03     130.279E-03    -23.6849E+06    -4.92338E+06     39.2857E+06    -37.4202E+06    -143.291E-03     228.044E-03    -84.7529E-03     168.010E-03    -144.444E-03     228.986E-03    -84.5150E-03     164.332E-03
            1294     12.3645E-03     130.443E-03    -18.8154E+06     6.10006E+06     48.5717E+06    -33.2626E+06    -151.358E-03     239.766E-03    -88.4076E-03     157.152E-03    -152.562E-03     240.787E-03    -88.1463E-03     153.055E-03
            1295     13.1384E-03     130.594E-03    -16.6606E+06     17.3740E+06     56.5860E+06    -27.1524E+06    -157.520E-03     249.634E-03    -92.1140E-03     140.443E-03    -158.700E-03     250.656E-03    -91.8321E-03     136.115E-03
            1296     13.9077E-03     130.729E-03    -13.5130E+06     29.4882E+06     62.3432E+06    -19.6039E+06    -161.096E-03     256.837E-03    -95.7416E-03     118.488E-03    -162.159E-03     257.779E-03    -95.4531E-03     114.163E-03
            1297     14.6745E-03     130.838E-03    -9.01464E+06     44.6869E+06     70.4498E+06    -12.7405E+06    -162.015E-03     261.200E-03    -99.1855E-03     93.6295E-03    -162.982E-03     262.091E-03    -98.8850E-03     89.2057E-03
            1298     15.4398E-03     130.922E-03    -4.53385E+06     46.3505E+06     86.9753E+06    -6.41964E+06    -161.225E-03     263.641E-03    -102.415E-03     56.2403E-03    -161.926E-03     264.239E-03    -102.041E-03     52.4302E-03
            1299     851.926E-06     129.935E-03    -81.5827E+06    -61.7380E+06    -78.1420E+06    -10.7612E+06    -56.6882E-03     112.525E-03    -55.8365E-03     15.2249E-03    -56.8959E-03     112.450E-03    -56.0194E-03     15.0460E-03
            1300     1.70327E-03     129.959E-03    -77.9772E+06    -55.6482E+06    -67.3514E+06    -18.7959E+06    -58.1257E-03     114.748E-03    -56.6224E-03     27.9653E-03    -58.3453E-03     114.688E-03    -56.7654E-03     27.6437E-03
            1301     2.55259E-03     129.998E-03    -73.1416E+06    -49.0231E+06    -54.5281E+06    -25.7814E+06    -60.7041E-03     118.196E-03    -57.4923E-03     41.7930E-03    -60.9379E-03     118.154E-03    -57.5878E-03     41.3304E-03
            1302     3.39989E-03     130.054E-03    -67.8667E+06    -41.9806E+06    -42.6164E+06    -32.5207E+06    -64.3154E-03     122.958E-03    -58.6424E-03     56.1531E-03    -64.5669E-03     122.943E-03    -58.6962E-03     55.5373E-03
            1303     4.24357E-03     130.127E-03    -63.2777E+06    -37.9067E+06    -33.2664E+06    -39.4381E+06    -68.8865E-03     128.960E-03    -60.0739E-03     70.9225E-03    -69.1596E-03     128.971E-03    -60.0935E-03     70.1312E-03
            1304     5.08379E-03     130.216E-03    -59.0307E+06    -36.5393E+06    -25.1224E+06    -45.1079E+06    -74.3526E-03     136.131E-03    -61.7783E-03     86.0765E-03    -74.6536E-03     136.166E-03    -61.7654E-03     85.1012E-03
            1305     5.91931E-03     130.322E-03    -55.3507E+06    -34.6728E+06    -17.5804E+06    -50.2008E+06    -80.7691E-03     144.514E-03    -63.7446E-03     101.531E-03    -81.1129E-03     144.590E-03    -63.7020E-03     100.351E-03
            1306     6.74920E-03     130.447E-03    -53.1770E+06    -33.2065E+06    -12.2423E+06    -54.3766E+06    -88.0015E-03     153.960E-03    -65.9588E-03     116.733E-03    -88.4067E-03     154.096E-03    -65.8947E-03     115.323E-03
            1307     7.57387E-03     130.587E-03    -52.2457E+06    -33.2504E+06    -8.62594E+06    -57.0362E+06    -95.9802E-03     164.391E-03    -68.4110E-03     131.135E-03    -96.4631E-03     164.598E-03    -68.3302E-03     129.476E-03
            1308     8.39202E-03     130.743E-03    -51.8264E+06    -32.0760E+06    -4.12449E+06    -59.0209E+06    -104.730E-03     175.834E-03    -71.1038E-03     144.109E-03    -105.313E-03     176.134E-03    -71.0027E-03     142.158E-03
            1309     9.20310E-03     130.912E-03     -50.433E+06    -29.3580E+06     3.36171E+06    -60.1667E+06    -113.972E-03     188.010E-03    -74.0389E-03     154.662E-03    -114.673E-03     188.422E-03    -73.9064E-03     152.368E-03
            1310     10.0075E-03     131.091E-03    -46.7571E+06    -25.8899E+06     13.2717E+06    -58.2753E+06    -123.435E-03     200.630E-03    -77.1954E-03     161.993E-03    -124.254E-03     201.157E-03    -77.0237E-03     159.344E-03
            1311     10.8037E-03     131.277E-03    -40.4602E+06    -23.0322E+06     24.4241E+06    -52.7655E+06    -132.888E-03     213.435E-03    -80.5469E-03     165.203E-03    -133.809E-03     214.064E-03    -80.3327E-03     162.205E-03
            1312     11.5939E-03     131.463E-03    -32.4051E+06    -12.6591E+06     38.8477E+06    -44.2028E+06    -142.186E-03     226.260E-03    -84.0741E-03     163.160E-03    -143.194E-03     227.000E-03    -83.8145E-03     159.823E-03
            1313     12.3749E-03     131.643E-03    -25.0196E+06    -473.931E+03     52.9777E+06    -35.0012E+06    -151.013E-03     238.762E-03    -87.7489E-03     155.361E-03    -152.078E-03     239.587E-03    -87.4471E-03     151.686E-03
            1314     13.1483E-03     131.811E-03    -17.8618E+06     7.87885E+06     63.9076E+06    -26.9380E+06    -158.597E-03     250.113E-03    -91.5165E-03     141.030E-03    -159.657E-03     250.956E-03    -91.1824E-03     137.045E-03
            1315     13.9169E-03     131.953E-03    -11.3184E+06     21.8419E+06     72.4483E+06    -20.4527E+06    -163.243E-03     258.502E-03    -95.2598E-03     119.346E-03    -164.211E-03     259.300E-03    -94.9128E-03     115.274E-03
            1316     14.6815E-03     132.073E-03    -5.47002E+06     34.1319E+06     78.0327E+06    -13.3522E+06    -164.620E-03     263.455E-03    -98.8349E-03     93.5621E-03    -165.474E-03     264.186E-03    -98.4863E-03     89.4391E-03
            1317     15.4461E-03     132.156E-03    -775.078E+03     34.2954E+06     90.3409E+06    -4.55117E+06    -164.279E-03     266.478E-03    -102.199E-03     57.1086E-03    -164.895E-03     266.952E-03    -101.796E-03     53.5404E-03
            1318     848.381E-06     130.998E-03    -35.6309E+06    -39.2716E+06    -32.9677E+06    -9.17941E+06    -61.3899E-03     122.416E-03    -61.0261E-03     10.3703E-03    -61.4688E-03     122.319E-03    -61.0823E-03     10.1877E-03
            1319     1.69534E-03     131.024E-03    -33.7510E+06    -35.5634E+06    -24.9313E+06    -16.1172E+06    -62.8309E-03     124.423E-03    -61.5922E-03     18.5355E-03    -62.9233E-03     124.336E-03    -61.6163E-03     18.2051E-03
            1320     2.54125E-03     131.066E-03    -30.1778E+06    -30.8915E+06    -14.5053E+06    -22.5730E+06    -64.9564E-03     127.378E-03    -62.4212E-03     27.6816E-03    -65.0635E-03     127.304E-03    -62.4052E-03     27.1954E-03
            1321     3.38462E-03     131.126E-03    -25.8146E+06    -24.8050E+06    -3.95321E+06    -27.8346E+06    -67.8053E-03     131.290E-03    -63.4848E-03     37.4254E-03    -67.9312E-03     131.243E-03    -63.4312E-03     36.7851E-03
            1322     4.22554E-03     131.204E-03    -22.3913E+06    -21.0543E+06     5.78981E+06    -32.2360E+06    -71.3667E-03     136.150E-03    -64.7834E-03     47.7573E-03    -71.5185E-03     136.127E-03    -64.6915E-03     46.9579E-03
            1323     5.06289E-03     131.299E-03    -20.9325E+06    -21.0601E+06     12.4967E+06    -36.4362E+06    -75.6764E-03     141.982E-03    -66.3052E-03     58.8445E-03    -75.8625E-03     141.979E-03    -66.1818E-03     57.8698E-03
            1324     5.89635E-03     131.413E-03    -20.9974E+06    -19.9128E+06     17.5102E+06    -39.5626E+06    -80.5811E-03     148.615E-03    -68.0341E-03     70.7837E-03    -80.8165E-03     148.652E-03    -67.8873E-03     69.6319E-03
            1325     6.72608E-03     131.545E-03    -22.3570E+06    -19.3906E+06     21.4099E+06    -41.9261E+06    -86.1869E-03     156.146E-03    -69.9590E-03     83.2977E-03    -86.4839E-03     156.231E-03    -69.7914E-03     81.9607E-03
            1326     7.55052E-03     131.695E-03    -24.0129E+06    -20.8586E+06     24.1615E+06    -44.0036E+06    -92.6010E-03     164.680E-03    -72.0788E-03     95.9638E-03    -92.9651E-03     164.815E-03    -71.8930E-03     94.4225E-03
            1327     8.36971E-03     131.861E-03    -25.1034E+06    -19.7653E+06     27.7296E+06    -45.9291E+06    -99.6422E-03     174.032E-03    -74.3896E-03     108.448E-03    -100.082E-03     174.233E-03    -74.1859E-03     106.688E-03
            1328     9.18351E-03     132.044E-03    -27.2159E+06    -19.0410E+06     30.7962E+06    -47.4062E+06    -107.471E-03     184.356E-03    -76.8851E-03     120.192E-03    -107.996E-03     184.631E-03    -76.6641E-03     118.195E-03
            1329     9.98975E-03     132.237E-03    -31.1546E+06    -20.3217E+06     32.0958E+06    -47.5769E+06    -115.921E-03     195.483E-03    -79.5619E-03     130.237E-03    -116.537E-03     195.827E-03    -79.3268E-03     127.996E-03
            1330     10.7905E-03     132.437E-03    -34.4592E+06    -20.3401E+06     35.7187E+06    -47.6917E+06    -124.726E-03     207.150E-03    -82.4239E-03     137.457E-03    -125.430E-03     207.561E-03    -82.1658E-03     134.954E-03
            1331     11.5829E-03     132.639E-03    -33.8869E+06    -19.7549E+06     42.8201E+06    -45.5312E+06    -133.665E-03     219.124E-03    -85.4591E-03     140.991E-03    -134.434E-03     219.584E-03    -85.1672E-03     138.235E-03
            1332     12.3685E-03     132.837E-03    -28.5708E+06    -11.2365E+06     54.7444E+06    -38.0778E+06    -142.482E-03     231.128E-03    -88.6459E-03     139.867E-03    -143.293E-03     231.644E-03    -88.3145E-03     136.909E-03
            1333     13.1486E-03     133.019E-03    -22.7470E+06    -1.00952E+06     68.5058E+06    -30.2950E+06    -151.028E-03     243.000E-03    -91.9718E-03     132.562E-03    -151.861E-03     243.555E-03    -91.5948E-03     129.378E-03
            1334     13.9174E-03     133.182E-03    -15.8766E+06     13.1892E+06     80.4345E+06    -23.6903E+06    -158.476E-03     253.863E-03    -95.3874E-03     116.541E-03    -159.285E-03     254.434E-03    -94.9813E-03     113.139E-03
            1335     14.6833E-03     133.301E-03    -9.65332E+06     18.4669E+06     83.9490E+06    -14.0606E+06    -163.314E-03     262.109E-03    -98.7950E-03     93.5241E-03    -164.043E-03     262.628E-03    -98.3881E-03     89.9886E-03
            1336     15.4456E-03     133.399E-03    -5.08661E+06     20.7266E+06     90.3934E+06    -4.03895E+06    -164.682E-03     266.783E-03    -102.100E-03     57.9734E-03    -165.214E-03     267.109E-03    -101.671E-03     54.9173E-03
            1337     838.675E-06     132.077E-03     6.02475E+06    -20.7719E+06     8.41003E+06    -6.77884E+06    -73.0458E-03     145.797E-03    -72.7511E-03     3.07112E-03    -73.0099E-03     145.663E-03    -72.6877E-03     2.89525E-03
            1338     1.67681E-03     132.105E-03     6.86168E+06    -18.3465E+06     13.6566E+06    -12.5626E+06    -73.8535E-03     147.141E-03    -73.2874E-03     4.99569E-03    -73.8274E-03     147.014E-03    -73.2025E-03     4.66599E-03
            1339     2.51301E-03     132.150E-03     8.60759E+06    -15.0885E+06     21.9967E+06    -17.6638E+06    -75.2395E-03     149.228E-03    -73.9882E-03     7.79113E-03    -75.2273E-03     149.109E-03    -73.8688E-03     7.30160E-03
            1340     3.34767E-03     132.212E-03     9.79163E+06    -11.7155E+06     30.5460E+06    -21.3378E+06    -76.9114E-03     151.807E-03    -74.8958E-03     11.2689E-03    -76.9200E-03     151.702E-03    -74.7403E-03     10.6305E-03
            1341     4.18002E-03     132.293E-03     9.97670E+06    -9.53550E+06     38.2814E+06    -23.1214E+06    -78.9673E-03     154.948E-03    -75.9810E-03     15.4677E-03    -79.0029E-03     154.857E-03    -75.7902E-03     14.6958E-03
            1342     5.00980E-03     132.392E-03     9.04140E+06    -9.15191E+06     44.5720E+06    -24.5273E+06    -81.3889E-03     158.624E-03    -77.2350E-03     20.5904E-03    -81.4573E-03     158.547E-03    -77.0120E-03     19.6791E-03
            1343     5.83673E-03     132.510E-03     7.38343E+06    -9.51978E+06     48.9297E+06    -26.0552E+06    -84.0670E-03     162.702E-03    -78.6351E-03     26.4610E-03    -84.1731E-03     162.645E-03    -78.3874E-03     25.3998E-03
            1344     6.66039E-03     132.647E-03     5.64213E+06    -9.26337E+06     53.4337E+06    -26.8578E+06    -86.9397E-03     167.101E-03    -80.1613E-03     33.3201E-03    -87.0896E-03     167.072E-03    -79.8889E-03     32.1150E-03
            1345     7.48093E-03     132.802E-03     3.10746E+06    -9.84999E+06     57.1990E+06    -28.1428E+06    -90.1206E-03     171.909E-03    -81.7889E-03     41.1823E-03    -90.3209E-03     171.911E-03    -81.4931E-03     39.8229E-03
            1346     8.29811E-03     132.976E-03    -521.353E+03    -9.97897E+06     59.3693E+06    -29.0245E+06    -93.7285E-03     177.228E-03    -83.4991E-03     49.6386E-03    -93.9859E-03     177.270E-03    -83.1870E-03     48.1276E-03
            1347     9.11146E-03     133.165E-03    -5.12232E+06    -10.1163E+06     61.4736E+06    -28.7624E+06    -97.6493E-03     182.933E-03    -85.2835E-03     58.5569E-03    -97.9686E-03     183.017E-03    -84.9540E-03     56.9185E-03
            1348     9.92252E-03     133.368E-03    -8.67978E+06    -10.7931E+06     63.7097E+06    -28.8483E+06    -102.204E-03     189.331E-03    -87.1272E-03     67.6069E-03    -102.578E-03     189.454E-03    -86.7805E-03     65.8402E-03
            1349     10.7279E-03     133.580E-03    -10.8247E+06    -10.7723E+06     65.7226E+06    -29.5597E+06    -107.395E-03     196.413E-03    -89.0175E-03     76.5643E-03    -107.815E-03     196.572E-03    -88.6576E-03     74.6687E-03
            1350     11.5298E-03     133.797E-03    -13.8072E+06    -13.2389E+06     66.7109E+06    -30.8464E+06    -113.048E-03     203.989E-03    -90.9403E-03     84.9725E-03    -113.504E-03     204.166E-03    -90.5675E-03     82.9639E-03
            1351     12.3280E-03     134.008E-03    -17.7203E+06    -15.8220E+06     67.1380E+06    -30.2575E+06    -119.543E-03     212.434E-03    -92.8917E-03     92.3451E-03    -120.031E-03     212.623E-03    -92.5073E-03     90.2557E-03
            1352     13.1173E-03     134.212E-03    -17.6155E+06    -5.82581E+06     75.9489E+06    -26.1615E+06    -126.881E-03     221.795E-03    -94.9143E-03     97.2509E-03    -127.406E-03     222.031E-03    -94.5006E-03     95.1141E-03
            1353     13.9064E-03     134.387E-03    -14.2897E+06     7.74485E+06     85.5903E+06    -22.9648E+06    -136.842E-03     233.924E-03    -97.0819E-03     97.2147E-03    -137.390E-03     234.211E-03    -96.6445E-03     94.9402E-03
            1354     14.6806E-03     134.536E-03    -8.75069E+06     33.8849E+03     83.2282E+06    -15.6106E+06    -149.579E-03     249.110E-03    -99.5308E-03     87.1033E-03    -150.074E-03     249.341E-03    -99.1020E-03     84.6469E-03
            1355     15.4486E-03     134.630E-03    -2.39876E+06     8.26875E+06     85.6801E+06    -4.92849E+06    -158.316E-03     260.592E-03    -102.277E-03     56.2259E-03    -158.687E-03     260.739E-03    -101.857E-03     54.0306E-03
            1356     822.068E-06     133.191E-03     42.3565E+06    -7.76648E+06     43.9888E+06    -4.09428E+06    -92.6089E-03     185.600E-03    -92.9914E-03    -7.24622E-03    -92.4740E-03     185.411E-03    -92.8216E-03    -7.38992E-03
            1357     1.64398E-03     133.219E-03     41.7414E+06    -5.74564E+06     47.7303E+06    -6.87072E+06    -92.5457E-03     185.707E-03    -93.1614E-03    -12.6967E-03    -92.4210E-03     185.522E-03    -92.9750E-03    -12.9534E-03
            1358     2.46512E-03     133.265E-03     40.0177E+06    -4.57634E+06     53.7982E+06    -9.06366E+06    -92.7416E-03     186.340E-03    -93.5988E-03    -18.0473E-03    -92.6340E-03     186.155E-03    -93.3812E-03    -18.4154E-03
            1359     3.28477E-03     133.328E-03     37.5648E+06    -3.17699E+06     60.4302E+06    -10.1257E+06    -93.0401E-03     187.307E-03    -94.2672E-03    -23.0514E-03    -92.9547E-03     187.122E-03    -94.0149E-03    -23.5193E-03
            1360     4.10276E-03     133.410E-03     34.9239E+06    -3.12233E+06     66.6174E+06    -10.4964E+06    -93.2007E-03     188.313E-03    -95.1125E-03    -27.4244E-03    -93.1363E-03     188.123E-03    -94.8255E-03    -27.9861E-03
            1361     4.91886E-03     133.510E-03     32.8017E+06    -2.52450E+06     73.3516E+06    -10.3549E+06    -93.1871E-03     189.276E-03    -96.0884E-03    -30.9864E-03    -93.1435E-03     189.083E-03    -95.7655E-03    -31.6365E-03
            1362     5.73279E-03     133.629E-03     30.3027E+06    -2.62554E+06     79.3345E+06    -10.5145E+06    -92.9447E-03     190.100E-03    -97.1552E-03    -33.5473E-03    -92.9226E-03     189.906E-03    -96.7987E-03    -34.2906E-03
            1363     6.54438E-03     133.766E-03     27.1881E+06    -3.10753E+06     83.6856E+06    -10.5385E+06    -92.3080E-03     190.573E-03    -98.2646E-03    -34.8378E-03    -92.3096E-03     190.380E-03    -97.8811E-03    -35.6714E-03
            1364     7.35467E-03     133.922E-03     24.2091E+06    -2.27054E+06     87.8143E+06    -10.5264E+06    -91.2044E-03     190.574E-03    -99.3698E-03    -34.6881E-03    -91.2328E-03     190.393E-03    -98.9625E-03    -35.6016E-03
            1365     8.16324E-03     134.096E-03     20.6211E+06    -3.51652E+06     90.4749E+06    -10.2235E+06    -89.7857E-03     190.211E-03    -100.425E-03    -32.9914E-03    -89.8408E-03     190.038E-03    -99.9977E-03    -33.9726E-03
            1366     8.97082E-03     134.285E-03     17.9573E+06    -4.10209E+06     93.3066E+06    -9.68906E+06    -88.1680E-03     189.560E-03    -101.392E-03    -29.7552E-03    -88.2483E-03     189.399E-03    -100.945E-03    -30.7901E-03
            1367     9.77715E-03     134.489E-03     15.7337E+06    -3.64612E+06     96.1228E+06    -9.97303E+06    -86.1521E-03     188.362E-03    -102.210E-03    -24.4940E-03    -86.2585E-03     188.223E-03    -101.747E-03    -25.5714E-03
            1368     10.5853E-03     134.705E-03     12.3592E+06    -2.79599E+06     97.2412E+06    -10.3941E+06    -84.0508E-03     186.860E-03    -102.809E-03    -17.2228E-03    -84.1886E-03     186.750E-03    -102.337E-03    -18.3182E-03
            1369     11.3959E-03     134.924E-03     8.48587E+06    -3.80306E+06     97.3164E+06    -10.3677E+06    -82.6796E-03     185.845E-03    -103.165E-03    -8.25536E-03    -82.8447E-03     185.756E-03    -102.685E-03    -9.34580E-03
            1370     12.2066E-03     135.146E-03     5.33275E+06    -7.86117E+06     94.4528E+06    -12.0105E+06    -82.1520E-03     185.417E-03    -103.265E-03     2.12192E-03    -82.3307E-03     185.332E-03    -102.790E-03     1.03554E-03
            1371     13.0258E-03     135.356E-03     3.09554E+06    -6.32378E+06     91.5734E+06    -12.9609E+06    -84.4868E-03     187.677E-03    -103.190E-03     12.4863E-03    -84.6801E-03     187.617E-03    -102.728E-03     11.4099E-03
            1372     13.8389E-03     135.555E-03    -834.126E+03     6.64280E+06      91.334E+06    -11.6185E+06    -92.3533E-03     195.535E-03    -103.182E-03     21.0702E-03    -92.5884E-03     195.552E-03    -102.734E-03     19.9853E-03
            1373     14.6500E-03     135.726E-03    -2.89610E+06    -2.74529E+06     79.8632E+06    -9.19752E+06    -104.985E-03     208.438E-03    -103.453E-03     27.4772E-03    -105.201E-03     208.434E-03    -103.045E-03     26.3250E-03
            1374     15.4353E-03     135.865E-03     279.552E+03    -2.56365E+06     63.0969E+06    -4.86969E+06    -118.733E-03     222.801E-03    -104.068E-03     23.3691E-03    -118.884E-03     222.787E-03    -103.749E-03     22.3335E-03
            1375     15.3816E-03     67.3116E-03    -4.64037E+06     121.294E+06     97.4411E+06    -166.967E+03    -105.087E-03     211.429E-03    -106.341E-03     21.4356E-03    -105.829E-03     212.302E-03    -106.023E-03     18.7575E-03
            1376     14.5700E-03     67.2704E-03    -10.2872E+06     118.900E+06     86.6011E+06     266.534E+03    -104.972E-03     211.299E-03    -106.327E-03     45.7481E-03    -106.005E-03     212.466E-03    -106.051E-03     42.3810E-03
            1377     13.7593E-03     67.2184E-03    -15.5842E+06     114.040E+06     75.9800E+06     776.144E+03    -105.338E-03     211.659E-03    -106.322E-03     58.6697E-03    -106.507E-03     212.958E-03    -106.085E-03     55.1907E-03
            1378     12.9505E-03     67.1465E-03    -20.9985E+06     103.513E+06     66.1461E+06     639.865E+03    -105.927E-03     212.249E-03    -106.323E-03     72.5621E-03    -107.260E-03     213.684E-03    -106.112E-03     68.8990E-03
            1379     12.1405E-03     67.0608E-03    -27.2385E+06     58.6822E+06     53.2851E+06    -48.8813E+03    -106.479E-03     212.830E-03    -106.351E-03     83.1259E-03    -107.870E-03     214.179E-03    -106.130E-03     79.3559E-03
            1380     11.3312E-03     66.9659E-03    -32.6777E+06     16.6797E+06     46.7031E+06    -94.9748E+03    -106.847E-03     213.253E-03    -106.407E-03     91.7714E-03    -108.260E-03     214.474E-03    -106.150E-03     87.9646E-03
            1381     10.5215E-03     66.8616E-03    -37.8021E+06    -12.5622E+06     37.4631E+06     4.65683E+03    -107.195E-03     213.630E-03    -106.435E-03     97.4820E-03    -108.584E-03     214.731E-03    -106.174E-03     93.7088E-03
            1382     9.71178E-03     66.7533E-03    -43.6748E+06    -44.3010E+06     28.0273E+06     214.392E+03    -107.499E-03     213.967E-03    -106.468E-03     99.9687E-03    -108.798E-03     214.873E-03    -106.200E-03     96.3190E-03
            1383     8.90219E-03     66.6435E-03    -49.9151E+06    -71.2578E+06     17.5843E+06     247.794E+03    -107.708E-03     214.197E-03    -106.488E-03     99.6096E-03    -108.874E-03     214.881E-03    -106.224E-03     96.1684E-03
            1384     8.09276E-03     66.5351E-03    -56.2563E+06    -100.459E+06     7.20843E+06     100.181E+03    -107.799E-03     214.308E-03    -106.509E-03     96.8273E-03    -108.798E-03     214.730E-03    -106.246E-03     93.6627E-03
            1385     7.28347E-03     66.4308E-03    -62.7237E+06    -124.737E+06    -2.73162E+06     223.264E+03    -107.758E-03     214.282E-03    -106.524E-03     92.2572E-03    -108.588E-03     214.454E-03    -106.266E-03     89.4220E-03
            1386     6.47398E-03     66.3322E-03    -69.4766E+06    -148.822E+06    -12.9993E+06     265.833E+03    -107.645E-03     214.183E-03    -106.538E-03     86.2016E-03    -108.312E-03     214.113E-03    -106.287E-03     83.7172E-03
            1387     5.66469E-03     66.2408E-03    -76.7172E+06    -171.304E+06    -23.7677E+06     201.153E+03    -107.458E-03     214.009E-03    -106.551E-03     78.7813E-03    -107.979E-03     213.718E-03    -106.310E-03     76.6551E-03
            1388     4.85519E-03     66.1584E-03    -84.8808E+06    -192.512E+06    -36.3845E+06     263.560E+03    -107.242E-03     213.798E-03    -106.557E-03     70.1050E-03    -107.637E-03     213.315E-03    -106.337E-03     68.3322E-03
            1389     4.04597E-03     66.0861E-03    -93.2503E+06    -209.595E+06    -52.6597E+06     18.3259E+03    -107.041E-03     213.579E-03    -106.539E-03     60.3488E-03    -107.333E-03     212.949E-03    -106.363E-03     58.9112E-03
            1390     3.23669E-03     66.0250E-03    -100.784E+06    -223.953E+06    -71.4226E+06     77.8470E+03    -106.828E-03     213.329E-03    -106.501E-03     49.6745E-03    -107.034E-03     212.589E-03    -106.388E-03     48.5571E-03
            1391     2.42737E-03     65.9760E-03    -107.978E+06    -243.338E+06    -88.3338E+06     464.339E+03    -106.629E-03     213.114E-03    -106.485E-03     38.2217E-03    -106.761E-03     212.255E-03    -106.418E-03     37.4090E-03
            1392     1.61824E-03     65.9402E-03    -114.548E+06    -260.489E+06    -102.527E+06     239.825E+03    -106.541E-03     213.018E-03    -106.477E-03     26.1880E-03    -106.621E-03     212.064E-03    -106.446E-03     25.6514E-03
            1393     808.974E-06     65.9179E-03    -118.459E+06    -261.834E+06    -114.541E+06     203.470E+03    -106.559E-03     212.907E-03    -106.349E-03     14.6365E-03    -106.616E-03     211.947E-03    -106.370E-03     14.3474E-03
            1394     15.3777E-03     66.1403E-03    -4.85378E+06     121.137E+06     97.3023E+06     37.3171E+03    -104.879E-03     211.236E-03    -106.357E-03     21.0139E-03    -105.618E-03     212.106E-03    -106.039E-03     18.3417E-03
            1395     14.5689E-03     66.0980E-03    -10.9547E+06     118.751E+06     86.2662E+06    -89.1366E+03    -105.090E-03     211.435E-03    -106.344E-03     44.8019E-03    -106.123E-03     212.600E-03    -106.069E-03     41.4223E-03
            1396     13.7602E-03     66.0456E-03    -16.4077E+06     113.335E+06     75.3074E+06    -56.3896E+03    -105.677E-03     212.002E-03    -106.325E-03     58.2051E-03    -106.850E-03     213.300E-03    -106.089E-03     54.6948E-03
            1397     12.9505E-03     65.9734E-03    -21.3938E+06     103.430E+06     65.9770E+06     606.580E+03    -106.035E-03     212.348E-03    -106.313E-03     72.7004E-03    -107.372E-03     213.784E-03    -106.102E-03     69.0316E-03
            1398     12.1411E-03     65.8893E-03    -25.9245E+06     60.0272E+06     54.3114E+06     639.474E+03    -106.298E-03     212.644E-03    -106.346E-03     83.3390E-03    -107.685E-03     213.995E-03    -106.123E-03     79.5897E-03
            1399     11.3309E-03     65.7933E-03    -31.6908E+06     16.8895E+06     47.1436E+06    -51.3976E+03    -106.766E-03     213.176E-03    -106.410E-03     91.9863E-03    -108.176E-03     214.396E-03    -106.153E-03     88.1845E-03
            1400     10.5214E-03     65.6897E-03    -37.8698E+06    -13.1121E+06     37.1550E+06     25.5172E+03    -107.260E-03     213.698E-03    -106.438E-03     97.5516E-03    -108.648E-03     214.797E-03    -106.178E-03     93.7770E-03
            1401     9.71180E-03     65.5811E-03    -43.8380E+06    -44.6814E+06     27.6922E+06     288.140E+03    -107.603E-03     214.068E-03    -106.464E-03     99.8423E-03    -108.902E-03     214.972E-03    -106.198E-03     96.1889E-03
            1402     8.90245E-03     65.4711E-03    -49.8030E+06    -71.0560E+06     17.6576E+06     300.547E+03    -107.748E-03     214.226E-03    -106.478E-03     99.4509E-03    -108.913E-03     214.911E-03    -106.214E-03     96.0086E-03
            1403     8.09302E-03     65.3630E-03    -56.0762E+06    -100.183E+06     7.32423E+06     271.955E+03    -107.770E-03     214.266E-03    -106.497E-03     96.7674E-03    -108.768E-03     214.688E-03    -106.234E-03     93.6069E-03
            1404     7.28340E-03     65.2586E-03    -62.6044E+06    -124.921E+06    -2.81522E+06     109.133E+03    -107.727E-03     214.241E-03    -106.513E-03     92.2811E-03    -108.556E-03     214.412E-03    -106.256E-03     89.4453E-03
            1405     6.47411E-03     65.1601E-03    -69.4325E+06    -148.828E+06    -13.0016E+06     159.769E+03    -107.622E-03     214.152E-03    -106.530E-03     86.2225E-03    -108.288E-03     214.082E-03    -106.279E-03     83.7382E-03
            1406     5.66457E-03     65.0689E-03    -76.7780E+06    -171.329E+06    -23.8484E+06     318.368E+03    -107.444E-03     213.988E-03    -106.544E-03     78.7348E-03    -107.964E-03     213.697E-03    -106.304E-03     76.6110E-03
            1407     4.85530E-03     64.9864E-03    -84.3528E+06    -192.338E+06    -36.4985E+06     422.471E+03    -107.242E-03     213.791E-03    -106.549E-03     70.0276E-03    -107.635E-03     213.307E-03    -106.330E-03     68.2583E-03
            1408     4.04591E-03     64.9141E-03    -92.0152E+06    -208.890E+06    -52.1743E+06    -88.6866E+03    -107.044E-03     213.574E-03    -106.530E-03     60.3434E-03    -107.332E-03     212.945E-03    -106.355E-03     58.9047E-03
            1409     3.23673E-03     64.8529E-03    -99.9925E+06    -224.946E+06    -68.5759E+06    -240.835E+03    -106.840E-03     213.345E-03    -106.505E-03     49.6673E-03    -107.045E-03     212.595E-03    -106.376E-03     48.5453E-03
            1410     2.42755E-03     64.8042E-03    -107.170E+06    -243.651E+06    -84.6074E+06     546.326E+03    -106.662E-03     213.142E-03    -106.480E-03     38.1988E-03    -106.795E-03     212.274E-03    -106.394E-03     37.3873E-03
            1411     1.61823E-03     64.7681E-03    -113.664E+06    -258.905E+06    -100.605E+06     225.288E+03    -106.583E-03     213.008E-03    -106.424E-03     26.2405E-03    -106.664E-03     212.057E-03    -106.387E-03     25.7032E-03
            1412     809.473E-06     64.7457E-03    -119.618E+06    -262.569E+06    -114.831E+06    -1.07773E+06    -106.475E-03     212.735E-03    -106.260E-03     14.3401E-03    -106.536E-03     211.773E-03    -106.280E-03     14.0344E-03
            1413     15.3813E-03     64.9674E-03    -5.19875E+06     121.260E+06     97.3975E+06     84.9002E+03    -105.231E-03     211.590E-03    -106.359E-03     20.7059E-03    -105.973E-03     212.462E-03    -106.040E-03     18.0228E-03
            1414     14.5707E-03     64.9262E-03    -10.7933E+06     118.977E+06     86.2880E+06     245.594E+03    -105.237E-03     211.568E-03    -106.331E-03     45.0162E-03    -106.270E-03     212.735E-03    -106.057E-03     41.6367E-03
            1415     13.7599E-03     64.8727E-03    -16.4615E+06     113.208E+06     74.8838E+06     95.6472E+03    -105.482E-03     211.793E-03    -106.312E-03     58.4617E-03    -106.653E-03     213.091E-03    -106.078E-03     54.9651E-03
            1416     12.9504E-03     64.8012E-03    -21.6714E+06     103.270E+06      65.691E+06    -261.364E+03    -105.786E-03     212.101E-03    -106.314E-03     72.6214E-03    -107.121E-03     213.534E-03    -106.104E-03     68.9538E-03
            1417     12.1403E-03     64.7168E-03    -26.6672E+06     59.7372E+06     53.8481E+06    -45.0168E+03    -106.325E-03     212.679E-03    -106.354E-03     83.3598E-03    -107.715E-03     214.030E-03    -106.133E-03     79.5991E-03
            1418     11.3310E-03     64.6215E-03    -31.8522E+06     17.2240E+06     47.1637E+06     477.698E+03    -106.890E-03     213.303E-03    -106.414E-03     91.8580E-03    -108.302E-03     214.527E-03    -106.157E-03     88.0549E-03
            1419     10.5212E-03     64.5171E-03    -37.8902E+06    -13.3111E+06     36.9275E+06     305.457E+03    -107.329E-03     213.763E-03    -106.434E-03     97.3363E-03    -108.715E-03     214.860E-03    -106.175E-03     93.5629E-03
            1420     9.71206E-03     64.4087E-03    -43.7624E+06    -44.9564E+06     27.5985E+06     124.567E+03    -107.627E-03     214.083E-03    -106.456E-03     99.7679E-03    -108.925E-03     214.986E-03    -106.189E-03     96.1106E-03
            1421     8.90252E-03     64.2990E-03    -49.6727E+06    -70.8423E+06     17.9279E+06     365.414E+03    -107.723E-03     214.192E-03    -106.470E-03     99.4757E-03    -108.888E-03     214.877E-03    -106.205E-03     96.0357E-03
            1422     8.09294E-03     64.1909E-03    -55.9482E+06    -99.7750E+06     7.54750E+06     378.836E+03    -107.761E-03     214.250E-03    -106.489E-03     96.8174E-03    -108.759E-03     214.673E-03    -106.225E-03     93.6590E-03
            1423     7.28361E-03     64.0866E-03    -62.5293E+06    -124.850E+06    -2.82797E+06     168.708E+03    -107.733E-03     214.237E-03    -106.504E-03     92.2373E-03    -108.561E-03     214.408E-03    -106.247E-03     89.4033E-03
            1424     6.47399E-03     63.9880E-03    -69.4027E+06    -148.959E+06    -13.0131E+06     119.889E+03    -107.609E-03     214.130E-03    -106.521E-03     86.1074E-03    -108.274E-03     214.058E-03    -106.269E-03     83.6238E-03
            1425     5.66478E-03     63.8968E-03    -76.5768E+06    -171.316E+06    -23.9283E+06     141.653E+03    -107.436E-03     213.969E-03    -106.533E-03     78.6790E-03    -107.954E-03     213.677E-03    -106.293E-03     76.5538E-03
            1426     4.85535E-03     63.8144E-03    -84.1001E+06    -192.269E+06    -36.3734E+06    -67.0296E+03    -107.243E-03     213.781E-03    -106.537E-03     70.0529E-03    -107.635E-03     213.297E-03    -106.319E-03     68.2779E-03
            1427     4.04607E-03     63.7420E-03    -92.1370E+06    -208.570E+06    -51.6853E+06     113.936E+03    -107.025E-03     213.546E-03    -106.521E-03     60.3340E-03    -107.315E-03     212.918E-03    -106.343E-03     58.8987E-03
            1428     3.23668E-03     63.6809E-03    -100.263E+06    -224.811E+06    -68.2756E+06     29.2091E+03    -106.839E-03     213.332E-03    -106.493E-03     49.6248E-03    -107.045E-03     212.583E-03    -106.363E-03     48.5081E-03
            1429     2.42746E-03     63.6321E-03    -108.288E+06    -244.633E+06    -85.1224E+06    -370.885E+03    -106.705E-03     213.157E-03    -106.453E-03     38.1674E-03    -106.841E-03     212.287E-03    -106.366E-03     37.3441E-03
            1430     1.61852E-03     63.5962E-03    -114.929E+06    -257.749E+06    -103.100E+06     51.7034E+03    -106.515E-03     212.895E-03    -106.380E-03     26.2572E-03    -106.600E-03     211.956E-03    -106.355E-03     25.7192E-03
            1431     809.043E-06     63.5737E-03    -118.881E+06    -263.514E+06    -117.119E+06    -320.546E+03    -106.452E-03     212.683E-03    -106.232E-03     14.2688E-03    -106.505E-03     211.719E-03    -106.263E-03     13.9764E-03
            1432     15.3780E-03     63.7950E-03    -5.46692E+06     120.840E+06     97.0240E+06     150.144E+03    -105.144E-03     211.507E-03    -106.363E-03     21.2091E-03    -105.887E-03     212.378E-03    -106.045E-03     18.5334E-03
            1433     14.5692E-03     63.7535E-03    -10.6824E+06     118.937E+06     87.0128E+06     383.984E+03    -105.348E-03     211.688E-03    -106.340E-03     45.4636E-03    -106.384E-03     212.855E-03    -106.062E-03     42.0837E-03
            1434     13.7605E-03     63.7005E-03    -15.6753E+06     113.927E+06     76.1737E+06     196.554E+03    -105.498E-03     211.816E-03    -106.318E-03     58.5578E-03    -106.669E-03     213.115E-03    -106.079E-03     55.0625E-03
            1435     12.9502E-03     63.6292E-03    -21.0549E+06     103.619E+06     66.1320E+06    -207.932E+03    -105.814E-03     212.129E-03    -106.316E-03     72.4564E-03    -107.146E-03     213.563E-03    -106.105E-03     68.7885E-03
            1436     12.1406E-03     63.5446E-03    -26.9964E+06     58.8563E+06     53.4677E+06    -239.515E+03    -106.416E-03     212.766E-03    -106.350E-03     82.9950E-03    -107.806E-03     214.114E-03    -106.129E-03     79.2249E-03
            1437     11.3310E-03     63.4487E-03    -32.5797E+06     16.5882E+06     46.6704E+06     2.77209E+03    -106.956E-03     213.358E-03    -106.402E-03     91.6102E-03    -108.369E-03     214.579E-03    -106.145E-03     87.7966E-03
            1438     10.5218E-03     63.3450E-03    -37.8115E+06    -12.7284E+06     37.2898E+06     340.167E+03    -107.298E-03     213.719E-03    -106.420E-03     97.2797E-03    -108.685E-03     214.818E-03    -106.161E-03     93.5075E-03
            1439     9.71192E-03     63.2363E-03    -43.7649E+06    -44.8599E+06     27.6929E+06     217.219E+03    -107.518E-03     213.965E-03    -106.447E-03     99.7055E-03    -108.814E-03     214.866E-03    -106.180E-03     96.0575E-03
            1440     8.90246E-03     63.1269E-03    -49.9772E+06    -71.2983E+06     17.6303E+06     121.700E+03    -107.703E-03     214.167E-03    -106.464E-03     99.3921E-03    -108.867E-03     214.850E-03    -106.200E-03     95.9504E-03
            1441     8.09307E-03     63.0188E-03    -55.9940E+06    -99.6818E+06     7.70281E+06     318.310E+03    -107.788E-03     214.271E-03    -106.483E-03     96.7298E-03    -108.786E-03     214.695E-03    -106.219E-03     93.5697E-03
            1442     7.28353E-03     62.9144E-03    -62.5328E+06    -124.472E+06    -2.61239E+06     300.315E+03    -107.735E-03     214.231E-03    -106.496E-03     92.2066E-03    -108.564E-03     214.403E-03    -106.238E-03     89.3755E-03
            1443     6.47438E-03     62.8160E-03    -69.4236E+06    -148.982E+06    -13.0540E+06     90.7483E+03    -107.608E-03     214.118E-03    -106.510E-03     86.1366E-03    -108.273E-03     214.046E-03    -106.259E-03     83.6538E-03
            1444     5.66471E-03     62.7249E-03    -76.6757E+06    -171.271E+06    -23.8462E+06     32.4494E+03    -107.420E-03     213.943E-03    -106.523E-03     78.7010E-03    -107.939E-03     213.651E-03    -106.283E-03     76.5761E-03
            1445     4.85537E-03     62.6424E-03    -84.7829E+06    -192.272E+06    -36.3695E+06     127.177E+03    -107.230E-03     213.759E-03    -106.529E-03     70.0660E-03    -107.625E-03     213.276E-03    -106.309E-03     68.2940E-03
            1446     4.04603E-03     62.5700E-03    -93.2382E+06    -209.193E+06    -52.2172E+06     338.812E+03    -107.043E-03     213.550E-03    -106.507E-03     60.3264E-03    -107.337E-03     212.922E-03    -106.330E-03     58.8950E-03
            1447     3.23685E-03     62.5089E-03    -101.475E+06    -223.954E+06    -71.0592E+06     481.949E+03    -106.845E-03     213.304E-03    -106.459E-03     49.6183E-03    -107.055E-03     212.565E-03    -106.342E-03     48.5086E-03
            1448     2.42768E-03     62.4600E-03    -109.108E+06    -244.141E+06    -88.5746E+06    -176.121E+03    -106.684E-03     213.094E-03    -106.411E-03     38.1385E-03    -106.820E-03     212.233E-03    -106.341E-03     37.3189E-03
            1449     1.61837E-03     62.4244E-03    -115.435E+06    -258.674E+06    -104.508E+06    -582.282E+03    -106.471E-03     212.825E-03    -106.354E-03     26.0368E-03    -106.555E-03     211.884E-03    -106.334E-03     25.4897E-03
            1450     809.215E-06     62.4023E-03    -119.588E+06    -263.416E+06    -116.690E+06     720.856E+03    -106.322E-03     212.650E-03    -106.328E-03     14.3023E-03    -106.379E-03     211.687E-03    -106.356E-03     14.0244E-03
            1451     15.3803E-03     62.6228E-03    -5.20424E+06     120.724E+06     97.0335E+06     272.982E+03    -105.138E-03     211.503E-03    -106.365E-03     21.0117E-03    -105.879E-03     212.373E-03    -106.048E-03     18.3377E-03
            1452     14.5701E-03     62.5804E-03    -10.5237E+06     119.000E+06     87.3116E+06    -258.087E+03    -105.335E-03     211.679E-03    -106.343E-03     44.8825E-03    -106.370E-03     212.845E-03    -106.064E-03     41.4842E-03
            1453     13.7596E-03     62.5284E-03    -15.6040E+06     113.994E+06     76.5000E+06    -61.5750E+03    -105.612E-03     211.930E-03    -106.318E-03     58.0220E-03    -106.782E-03     213.228E-03    -106.078E-03     54.5111E-03
            1454     12.9504E-03     62.4566E-03    -21.1161E+06     103.531E+06     66.2569E+06     170.055E+03    -105.938E-03     212.244E-03    -106.307E-03     72.3144E-03    -107.271E-03     213.679E-03    -106.095E-03     68.6417E-03
            1455     12.1410E-03     62.3722E-03    -26.6488E+06     59.0951E+06     53.8241E+06    -8.57841E+03    -106.428E-03     212.764E-03    -106.336E-03     83.1217E-03    -107.817E-03     214.112E-03    -106.114E-03     79.3541E-03
            1456     11.3314E-03     62.2767E-03    -32.1897E+06     16.3104E+06     46.8044E+06    -53.6342E+03    -106.908E-03     213.297E-03    -106.389E-03     91.7670E-03    -108.318E-03     214.514E-03    -106.132E-03     87.9597E-03
            1457     10.5215E-03     62.1724E-03    -38.1274E+06    -13.2705E+06     37.0991E+06     130.818E+03    -107.267E-03     213.676E-03    -106.409E-03     97.2356E-03    -108.653E-03     214.772E-03    -106.149E-03     93.4646E-03
            1458     9.71229E-03     62.0646E-03    -43.9511E+06     -44.451E+06     27.8374E+06     332.448E+03    -107.507E-03     213.943E-03    -106.436E-03     99.6238E-03    -108.804E-03     214.845E-03    -106.169E-03     95.9786E-03
            1459     8.90256E-03     61.9546E-03    -49.9634E+06    -71.3483E+06      17.635E+06     59.2368E+03    -107.677E-03     214.131E-03    -106.454E-03     99.3571E-03    -108.840E-03     214.812E-03    -106.190E-03     95.9167E-03
            1460     8.09314E-03     61.8466E-03    -56.3280E+06    -100.056E+06     7.54412E+06     100.169E+03    -107.758E-03     214.233E-03    -106.475E-03     96.6810E-03    -108.757E-03     214.654E-03    -106.210E-03     93.5210E-03
            1461     7.28375E-03     61.7425E-03    -62.7379E+06    -124.164E+06    -2.51999E+06     264.924E+03    -107.698E-03     214.188E-03    -106.490E-03     92.1920E-03    -108.527E-03     214.361E-03    -106.231E-03     89.3636E-03
            1462     6.47400E-03     61.6439E-03    -69.5228E+06    -148.815E+06    -13.0208E+06     161.483E+03    -107.602E-03     214.107E-03    -106.506E-03     86.1339E-03    -108.267E-03     214.035E-03    -106.254E-03     83.6538E-03
            1463     5.66489E-03     61.5528E-03    -76.9877E+06    -171.604E+06    -24.0526E+06     190.840E+03    -107.461E-03     213.977E-03    -106.515E-03     78.6649E-03    -107.981E-03     213.684E-03    -106.275E-03     76.5416E-03
            1464     4.85545E-03     61.4705E-03    -84.8066E+06    -192.514E+06    -36.5951E+06     397.984E+03    -107.259E-03     213.771E-03    -106.512E-03     70.0055E-03    -107.653E-03     213.287E-03    -106.293E-03     68.2377E-03
            1465     4.04614E-03     61.3980E-03    -92.8079E+06    -209.146E+06    -52.3858E+06     700.744E+03    -107.033E-03     213.518E-03    -106.485E-03     60.2476E-03    -107.323E-03     212.889E-03    -106.310E-03     58.8226E-03
            1466     3.23686E-03     61.3369E-03    -100.530E+06    -223.592E+06    -71.0668E+06     503.918E+03    -106.803E-03     213.243E-03    -106.439E-03     49.6038E-03    -107.009E-03     212.503E-03    -106.325E-03     48.4950E-03
            1467     2.42758E-03     61.2881E-03    -107.335E+06    -242.804E+06    -87.7225E+06     15.6681E+03    -106.612E-03     213.021E-03    -106.409E-03     38.2118E-03    -106.742E-03     212.162E-03    -106.340E-03     37.3947E-03
            1468     1.61855E-03     61.2524E-03    -114.020E+06    -259.920E+06    -101.943E+06     63.8209E+03    -106.488E-03     212.867E-03    -106.379E-03     26.0833E-03    -106.567E-03     211.914E-03    -106.346E-03     25.5424E-03
            1469     809.279E-06     61.2308E-03    -119.819E+06    -262.828E+06    -115.508E+06     643.649E+03    -106.380E-03     212.677E-03    -106.297E-03     14.3991E-03    -106.441E-03     211.715E-03    -106.320E-03     14.1203E-03
            1470     15.3789E-03     61.4504E-03    -5.14101E+06     120.840E+06      97.305E+06    -84.3004E+03    -105.312E-03     211.662E-03    -106.350E-03     20.7524E-03    -106.054E-03     212.532E-03    -106.031E-03     18.0660E-03
            1471     14.5695E-03     61.4081E-03    -10.1031E+06     118.921E+06     86.9535E+06     127.847E+03    -105.167E-03     211.491E-03    -106.324E-03     44.8163E-03    -106.198E-03     212.656E-03    -106.047E-03     41.4283E-03
            1472     13.7608E-03     61.3556E-03    -16.0466E+06     113.481E+06     75.5791E+06     58.8372E+03    -105.451E-03     211.757E-03    -106.306E-03     58.0991E-03    -106.620E-03     213.053E-03    -106.070E-03     54.6008E-03
            1473     12.9508E-03     61.2844E-03    -21.1010E+06     103.421E+06     66.1139E+06    -35.4743E+03    -105.920E-03     212.224E-03    -106.303E-03     72.6821E-03    -107.253E-03     213.657E-03    -106.092E-03     69.0118E-03
            1474     12.1407E-03     61.1999E-03    -26.1964E+06     59.1162E+06     53.9141E+06     250.586E+03    -106.517E-03     212.848E-03    -106.331E-03     83.2127E-03    -107.903E-03     214.195E-03    -106.109E-03     79.4479E-03
            1475     11.3312E-03     61.1041E-03    -32.3534E+06     16.6024E+06     46.9803E+06     502.339E+03    -106.918E-03     213.299E-03    -106.381E-03     91.5819E-03    -108.328E-03     214.516E-03    -106.123E-03     87.7853E-03
            1476     10.5220E-03     61.0005E-03    -38.2135E+06    -13.2803E+06     37.0252E+06     76.9429E+03    -107.209E-03     213.610E-03    -106.402E-03     97.2056E-03    -108.594E-03     214.705E-03    -106.142E-03     93.4385E-03
            1477     9.71213E-03     60.8921E-03    -43.9442E+06    -44.9230E+06     27.7712E+06     -23.009E+03    -107.525E-03     213.955E-03    -106.430E-03     99.7109E-03    -108.821E-03     214.855E-03    -106.162E-03     96.0601E-03
            1478     8.90280E-03     60.7827E-03    -49.9292E+06    -70.7843E+06     17.9704E+06     348.814E+03    -107.684E-03     214.131E-03    -106.447E-03     99.4284E-03    -108.848E-03     214.814E-03    -106.182E-03     95.9941E-03
            1479     8.09315E-03     60.6744E-03    -56.2827E+06    -100.226E+06     7.26688E+06        -852.418    -107.733E-03     214.199E-03    -106.466E-03     96.6804E-03    -108.730E-03     214.619E-03    -106.203E-03     93.5227E-03
            1480     7.28360E-03     60.5705E-03    -62.6977E+06    -124.594E+06    -2.64714E+06     36.9155E+03    -107.717E-03     214.199E-03    -106.482E-03     92.0935E-03    -108.545E-03     214.369E-03    -106.223E-03     89.2624E-03
            1481     6.47442E-03     60.4720E-03    -69.6197E+06    -148.711E+06    -12.9632E+06     364.116E+03    -107.611E-03     214.106E-03    -106.494E-03     86.0059E-03    -108.277E-03     214.034E-03    -106.243E-03     83.5292E-03
            1482     5.66475E-03     60.3808E-03    -76.8506E+06    -171.635E+06    -24.0574E+06     291.404E+03    -107.465E-03     213.965E-03    -106.500E-03     78.5762E-03    -107.984E-03     213.672E-03    -106.260E-03     76.4552E-03
            1483     4.85560E-03     60.2984E-03    -84.4586E+06    -192.626E+06    -36.6147E+06     340.998E+03    -107.265E-03     213.759E-03    -106.493E-03     69.9728E-03    -107.657E-03     213.273E-03    -106.275E-03     68.2052E-03
            1484     4.04631E-03     60.2261E-03    -92.4550E+06    -209.240E+06    -52.6807E+06     407.306E+03    -106.990E-03     213.455E-03    -106.466E-03     60.2913E-03    -107.278E-03     212.826E-03    -106.292E-03     58.8627E-03
            1485     3.23694E-03     60.1651E-03    -99.8791E+06    -223.119E+06    -70.7360E+06     429.383E+03    -106.735E-03     213.168E-03    -106.433E-03     49.6270E-03    -106.938E-03     212.430E-03    -106.318E-03     48.5173E-03
            1486     2.42762E-03     60.1163E-03    -107.312E+06    -242.415E+06    -87.2902E+06     574.141E+03    -106.532E-03     212.959E-03    -106.428E-03     38.1666E-03    -106.663E-03     212.102E-03    -106.357E-03     37.3567E-03
            1487     1.61809E-03     60.0807E-03    -113.990E+06    -260.079E+06    -102.067E+06     489.107E+03    -106.451E-03     212.886E-03    -106.435E-03     26.1457E-03    -106.529E-03     211.932E-03    -106.403E-03     25.6123E-03
            1488     809.109E-06     60.0585E-03    -118.154E+06    -261.737E+06    -114.543E+06     223.604E+03    -106.489E-03     212.846E-03    -106.356E-03     14.4052E-03    -106.545E-03     211.885E-03    -106.378E-03     14.1167E-03
            1489     15.3809E-03     60.2779E-03    -5.24398E+06     120.676E+06     97.3371E+06    -287.213E+03    -105.133E-03     211.477E-03    -106.344E-03     21.1107E-03    -105.875E-03     212.347E-03    -106.025E-03     18.4276E-03
            1490     14.5709E-03     60.2359E-03    -10.6588E+06     118.286E+06     86.6618E+06     109.305E+03    -105.114E-03     211.438E-03    -106.325E-03     45.3565E-03    -106.145E-03     212.600E-03    -106.047E-03     41.9855E-03
            1491     13.7598E-03     60.1837E-03    -15.6668E+06     113.831E+06     75.8800E+06     85.2012E+03    -105.439E-03     211.749E-03    -106.310E-03     58.4888E-03    -106.606E-03     213.045E-03    -106.073E-03     54.9989E-03
            1492     12.9499E-03     60.1120E-03    -21.5380E+06     102.980E+06     65.7485E+06     128.436E+03    -106.063E-03     212.365E-03    -106.302E-03     72.5414E-03    -107.396E-03     213.797E-03    -106.092E-03     68.8692E-03
            1493     12.1411E-03     60.0269E-03    -27.3847E+06     58.8536E+06     53.4717E+06     491.615E+03    -106.525E-03     212.849E-03    -106.324E-03     82.8366E-03    -107.914E-03     214.195E-03    -106.103E-03     79.0772E-03
            1494     11.3317E-03     59.9321E-03    -32.5370E+06     16.9556E+06     47.0597E+06     290.662E+03    -106.821E-03     213.198E-03    -106.377E-03     91.5537E-03    -108.231E-03     214.416E-03    -106.119E-03     87.7585E-03
            1495     10.5216E-03     59.8283E-03    -38.0458E+06    -12.8119E+06     37.2681E+06     134.601E+03    -107.201E-03     213.602E-03    -106.401E-03     97.3683E-03    -108.586E-03     214.698E-03    -106.141E-03     93.6039E-03
            1496     9.71225E-03     59.7201E-03    -44.0557E+06    -45.1958E+06     27.4851E+06    -17.0093E+03    -107.545E-03     213.973E-03    -106.428E-03     99.7390E-03    -108.839E-03     214.871E-03    -106.162E-03     96.0908E-03
            1497     8.90260E-03     59.6103E-03    -50.0605E+06    -71.1979E+06     17.6803E+06    -21.7680E+03    -107.719E-03     214.162E-03    -106.443E-03     99.3304E-03    -108.882E-03     214.843E-03    -106.179E-03     95.8909E-03
            1498     8.09326E-03     59.5026E-03    -56.0530E+06    -99.5162E+06     7.57998E+06     221.310E+03    -107.771E-03     214.229E-03    -106.458E-03     96.6155E-03    -108.767E-03     214.652E-03    -106.195E-03     93.4602E-03
            1499     7.28388E-03     59.3982E-03    -62.8043E+06    -125.093E+06    -2.93807E+06     46.0181E+03    -107.748E-03     214.216E-03    -106.468E-03     92.0699E-03    -108.575E-03     214.384E-03    -106.211E-03     89.2389E-03
            1500     6.47430E-03     59.3000E-03    -69.5765E+06    -149.044E+06    -12.9911E+06     107.042E+03    -107.642E-03     214.119E-03    -106.476E-03     85.9747E-03    -108.307E-03     214.045E-03    -106.224E-03     83.4934E-03
            1501     5.66515E-03     59.2088E-03    -76.7887E+06    -171.370E+06    -23.6165E+06     349.389E+03    -107.427E-03     213.909E-03    -106.482E-03     78.5638E-03    -107.947E-03     213.616E-03    -106.240E-03     76.4450E-03
            1502     4.85561E-03     59.1264E-03    -84.8466E+06    -192.687E+06    -36.5952E+06     323.184E+03    -107.190E-03     213.670E-03    -106.480E-03     69.9543E-03    -107.584E-03     213.184E-03    -106.260E-03     68.1877E-03
            1503     4.04620E-03     59.0543E-03    -92.8148E+06    -209.176E+06    -52.5036E+06     211.965E+03    -106.953E-03     213.414E-03    -106.461E-03     60.2600E-03    -107.244E-03     212.785E-03    -106.285E-03     58.8285E-03
            1504     3.23687E-03     58.9932E-03    -100.571E+06    -223.212E+06    -70.6401E+06     440.537E+03    -106.716E-03     213.148E-03    -106.432E-03     49.5933E-03    -106.922E-03     212.410E-03    -106.316E-03     48.4838E-03
            1505     2.42752E-03     58.9446E-03    -107.235E+06    -242.337E+06    -87.0623E+06     685.795E+03    -106.545E-03     212.970E-03    -106.425E-03     38.0717E-03    -106.676E-03     212.112E-03    -106.353E-03     37.2635E-03
            1506     1.61842E-03     58.9088E-03    -113.220E+06    -259.130E+06    -100.978E+06     356.168E+03    -106.438E-03     212.871E-03    -106.433E-03     26.0774E-03    -106.515E-03     211.919E-03    -106.398E-03     25.5426E-03
            1507     809.012E-06     58.8864E-03    -118.723E+06    -261.654E+06    -114.079E+06    -353.913E+03    -106.395E-03     212.836E-03    -106.441E-03     14.2561E-03    -106.455E-03     211.877E-03    -106.460E-03     13.9583E-03
            1508     15.3784E-03     59.1053E-03    -4.75356E+06     120.635E+06     97.3584E+06     139.583E+03    -105.038E-03     211.393E-03    -106.355E-03     21.3751E-03    -105.778E-03     212.263E-03    -106.037E-03     18.7006E-03
            1509     14.5688E-03     59.0636E-03    -10.6200E+06     118.346E+06     86.7686E+06    -358.708E+03    -105.353E-03     211.686E-03    -106.333E-03     44.9282E-03    -106.384E-03     212.848E-03    -106.055E-03     41.5361E-03
            1510     13.7603E-03     59.0115E-03    -16.0866E+06     113.465E+06     75.8064E+06    -154.525E+03    -105.764E-03     212.065E-03    -106.301E-03     57.9749E-03    -106.933E-03     213.360E-03    -106.063E-03     54.4619E-03
            1511     12.9513E-03     58.9387E-03    -21.8906E+06     102.922E+06     65.9502E+06     510.216E+03    -105.909E-03     212.196E-03    -106.288E-03     72.1560E-03    -107.241E-03     213.625E-03    -106.075E-03     68.4967E-03
            1512     12.1412E-03     58.8551E-03    -27.0739E+06     59.1662E+06     53.8977E+06     97.3399E+03    -106.214E-03     212.538E-03    -106.324E-03     83.0667E-03    -107.600E-03     213.882E-03    -106.101E-03     79.3194E-03
            1513     11.3310E-03     58.7599E-03    -32.2111E+06     16.3609E+06     46.7725E+06    -182.568E+03    -106.862E-03     213.246E-03    -106.384E-03     91.7947E-03    -108.270E-03     214.463E-03    -106.127E-03     87.9896E-03
            1514     10.5218E-03     58.6561E-03    -37.9196E+06    -12.8854E+06     37.3288E+06     237.790E+03    -107.339E-03     213.743E-03    -106.404E-03     97.2577E-03    -108.724E-03     214.839E-03    -106.144E-03     93.4889E-03
            1515     9.71219E-03     58.5477E-03    -43.8224E+06    -44.4091E+06     27.7070E+06     188.998E+03    -107.599E-03     214.021E-03    -106.422E-03     99.5671E-03    -108.893E-03     214.922E-03    -106.156E-03     95.9205E-03
            1516     8.90285E-03     58.4383E-03    -49.9961E+06    -71.5692E+06     17.4272E+06    -150.831E+03    -107.737E-03     214.168E-03    -106.432E-03     99.1523E-03    -108.897E-03     214.847E-03    -106.168E-03     95.7110E-03
            1517     8.09331E-03     58.3303E-03    -56.3365E+06    -99.8275E+06     7.59382E+06      105.81E+03    -107.781E-03     214.226E-03    -106.446E-03     96.4777E-03    -108.778E-03     214.647E-03    -106.181E-03     93.3206E-03
            1518     7.28382E-03     58.2264E-03    -62.6226E+06    -124.498E+06    -2.51058E+06     214.356E+03    -107.736E-03     214.189E-03    -106.454E-03     92.0066E-03    -108.562E-03     214.359E-03    -106.195E-03     89.1787E-03
            1519     6.47459E-03     58.1278E-03    -69.6560E+06    -149.194E+06    -12.8228E+06    -28.3771E+03    -107.608E-03     214.070E-03    -106.463E-03     85.9443E-03    -108.272E-03     213.995E-03    -106.209E-03     83.4635E-03
            1520     5.66505E-03     58.0369E-03    -77.2431E+06    -171.857E+06    -23.6425E+06     206.439E+03    -107.407E-03     213.876E-03    -106.469E-03     78.5605E-03    -107.928E-03     213.581E-03    -106.226E-03     76.4403E-03
            1521     4.85568E-03     57.9547E-03    -84.9875E+06    -192.567E+06    -36.2019E+06     375.124E+03    -107.169E-03     213.639E-03    -106.469E-03     69.9277E-03    -107.565E-03     213.154E-03    -106.248E-03     68.1613E-03
            1522     4.04633E-03     57.8823E-03    -93.1636E+06    -209.094E+06    -52.2667E+06     405.290E+03    -106.933E-03     213.383E-03    -106.450E-03     60.1710E-03    -107.225E-03     212.754E-03    -106.273E-03     58.7432E-03
            1523     3.23696E-03     57.8216E-03    -101.066E+06    -223.282E+06    -70.5198E+06     331.163E+03    -106.721E-03     213.140E-03    -106.419E-03     49.5126E-03    -106.930E-03     212.402E-03    -106.301E-03     48.4022E-03
            1524     2.42767E-03     57.7726E-03    -108.941E+06    -242.462E+06    -87.5067E+06     555.918E+03    -106.570E-03     212.967E-03    -106.397E-03     38.0598E-03    -106.709E-03     212.112E-03    -106.325E-03     37.2494E-03
            1525     1.61835E-03     57.7370E-03    -116.148E+06    -258.039E+06    -104.277E+06     888.699E+03    -106.463E-03     212.819E-03    -106.356E-03     26.0905E-03    -106.552E-03     211.882E-03    -106.335E-03     25.5631E-03
            1526     809.284E-06     57.7145E-03    -120.769E+06    -261.417E+06    -118.253E+06     137.748E+03    -106.383E-03     212.640E-03    -106.257E-03     14.2461E-03    -106.447E-03     211.690E-03    -106.294E-03     13.9597E-03
            1527     15.3805E-03     57.9324E-03    -5.05435E+06     120.949E+06     97.5192E+06    -96.8407E+03    -105.321E-03     211.672E-03    -106.350E-03     20.7169E-03    -106.063E-03     212.542E-03    -106.031E-03     18.0273E-03
            1528     14.5708E-03     57.8916E-03    -10.3866E+06     118.571E+06     86.7431E+06     33.4051E+03    -105.386E-03     211.703E-03    -106.317E-03     44.8103E-03    -106.417E-03     212.866E-03    -106.040E-03     41.4177E-03
            1529     13.7610E-03     57.8374E-03    -16.0119E+06     112.810E+06     75.4572E+06     311.308E+03    -105.566E-03     211.856E-03    -106.290E-03     58.3335E-03    -106.733E-03     213.148E-03    -106.053E-03     54.8405E-03
            1530     12.9508E-03     57.7676E-03    -20.8383E+06     103.181E+06     66.0888E+06     162.692E+03    -105.685E-03     211.976E-03    -106.290E-03     72.6636E-03    -107.013E-03     213.404E-03    -106.079E-03     69.0128E-03
            1531     12.1404E-03     57.6830E-03    -26.4415E+06     59.3191E+06     53.7142E+06     62.5982E+03    -106.327E-03     212.657E-03    -106.330E-03     83.2182E-03    -107.711E-03     214.002E-03    -106.110E-03     79.4649E-03
            1532     11.3313E-03     57.5873E-03    -32.4124E+06     16.2954E+06     46.6206E+06     36.7238E+03    -106.997E-03     213.380E-03    -106.383E-03     91.4550E-03    -108.405E-03     214.596E-03    -106.127E-03     87.6462E-03
            1533     10.5218E-03     57.4836E-03    -38.2240E+06    -13.3381E+06     36.9232E+06    -13.7002E+03    -107.381E-03     213.776E-03    -106.395E-03     96.9744E-03    -108.765E-03     214.870E-03    -106.135E-03     93.1988E-03
            1534     9.71247E-03     57.3757E-03    -43.9536E+06    -44.1864E+06     27.9944E+06     197.141E+03    -107.617E-03     214.028E-03    -106.411E-03     99.4802E-03    -108.913E-03     214.930E-03    -106.143E-03     95.8319E-03
            1535     8.90292E-03     57.2659E-03    -50.0881E+06    -71.0861E+06     17.7124E+06     169.806E+03    -107.750E-03     214.167E-03    -106.417E-03     99.0961E-03    -108.912E-03     214.847E-03    -106.153E-03     95.6599E-03
            1536     8.09354E-03     57.1585E-03    -56.2957E+06    -100.500E+06     7.53542E+06    -124.664E+03    -107.785E-03     214.213E-03    -106.428E-03     96.4120E-03    -108.780E-03     214.629E-03    -106.163E-03     93.2528E-03
            1537     7.28415E-03     57.0541E-03    -62.8332E+06    -124.391E+06    -2.17493E+06     110.999E+03    -107.697E-03     214.134E-03    -106.437E-03     91.9312E-03    -108.525E-03     214.304E-03    -106.176E-03     89.1031E-03
            1538     6.47452E-03     56.9561E-03    -69.9091E+06    -148.973E+06    -12.6282E+06     343.592E+03    -107.553E-03     214.001E-03    -106.448E-03     85.8587E-03    -108.218E-03     213.926E-03    -106.194E-03     83.3855E-03
            1539     5.66512E-03     56.8650E-03    -77.3942E+06    -172.035E+06    -23.7787E+06     72.7451E+03    -107.387E-03     213.843E-03    -106.456E-03     78.4554E-03    -107.908E-03     213.547E-03    -106.213E-03     76.3344E-03
            1540     4.85580E-03     56.7828E-03    -85.2329E+06    -192.844E+06    -36.4727E+06     184.182E+03    -107.177E-03     213.630E-03    -106.453E-03     69.8499E-03    -107.572E-03     213.144E-03    -106.232E-03     68.0820E-03
            1541     4.04633E-03     56.7107E-03    -93.1512E+06    -209.132E+06    -52.2833E+06     380.662E+03    -106.940E-03     213.370E-03    -106.430E-03     60.1476E-03    -107.233E-03     212.741E-03    -106.253E-03     58.7199E-03
            1542     3.23702E-03     56.6496E-03    -101.291E+06    -223.401E+06    -70.5746E+06     636.784E+03    -106.726E-03     213.118E-03    -106.391E-03     49.4702E-03    -106.936E-03     212.379E-03    -106.273E-03     48.3638E-03
            1543     2.42770E-03     56.6010E-03    -108.831E+06    -242.580E+06    -87.7558E+06     1.03370E+06    -106.562E-03     212.921E-03    -106.359E-03     38.0410E-03    -106.699E-03     212.066E-03    -106.289E-03     37.2381E-03
            1544     1.61854E-03     56.5651E-03    -115.035E+06    -256.877E+06    -103.246E+06     975.136E+03    -106.437E-03     212.749E-03    -106.313E-03     26.0878E-03    -106.523E-03     211.815E-03    -106.290E-03     25.5628E-03
            1545     809.301E-06     56.5430E-03    -119.772E+06    -259.823E+06    -116.405E+06     922.686E+03    -106.370E-03     212.546E-03    -106.177E-03     14.3203E-03    -106.433E-03     211.600E-03    -106.208E-03     14.0436E-03
            1546     15.3796E-03     56.7616E-03    -5.48267E+06     120.437E+06     96.7517E+06    -182.758E+03    -105.274E-03     211.621E-03    -106.347E-03     21.4664E-03    -106.017E-03     212.492E-03    -106.030E-03     18.7835E-03
            1547     14.5697E-03     56.7176E-03    -10.7933E+06     118.124E+06     86.4461E+06     214.218E+03    -105.214E-03     211.536E-03    -106.323E-03     45.7576E-03    -106.247E-03     212.700E-03    -106.046E-03     42.3868E-03
            1548     13.7601E-03     56.6667E-03    -15.6305E+06     113.133E+06     75.8748E+06     74.1241E+03    -105.378E-03     211.687E-03    -106.309E-03     58.4380E-03    -106.544E-03     212.979E-03    -106.071E-03     54.9493E-03
            1549     12.9498E-03     56.5948E-03    -21.2840E+06     102.739E+06     65.4600E+06     127.708E+03    -106.014E-03     212.316E-03    -106.302E-03     72.3100E-03    -107.343E-03     213.744E-03    -106.093E-03     68.6411E-03
            1550     12.1413E-03     56.5106E-03    -26.8597E+06     59.2899E+06     53.5143E+06     448.348E+03    -106.642E-03     212.964E-03    -106.322E-03     82.7819E-03    -108.028E-03     214.310E-03    -106.101E-03     79.0175E-03
            1551     11.3316E-03     56.4148E-03    -32.3975E+06     16.9227E+06     46.9368E+06     269.350E+03    -106.962E-03     213.327E-03    -106.364E-03     91.2801E-03    -108.370E-03     214.543E-03    -106.107E-03     87.4786E-03
            1552     10.5220E-03     56.3115E-03    -38.1959E+06    -13.2561E+06     37.1194E+06     -30.802E+03    -107.288E-03     213.667E-03    -106.379E-03     96.9094E-03    -108.671E-03     214.759E-03    -106.119E-03     93.1387E-03
            1553     9.71246E-03     56.2032E-03    -44.0821E+06    -44.7049E+06     27.9512E+06        -47.6406    -107.590E-03     213.988E-03    -106.398E-03     99.4051E-03    -108.884E-03     214.886E-03    -106.130E-03     95.7564E-03
            1554     8.90307E-03     56.0940E-03    -49.9827E+06    -70.8101E+06     18.1475E+06     168.669E+03    -107.740E-03     214.145E-03    -106.405E-03     99.0601E-03    -108.901E-03     214.825E-03    -106.140E-03     95.6255E-03
            1555     8.09363E-03     55.9861E-03    -56.4948E+06    -100.205E+06     7.70432E+06     87.3417E+03    -107.782E-03     214.197E-03    -106.415E-03     96.3918E-03    -108.778E-03     214.614E-03    -106.149E-03     93.2361E-03
            1556     7.28413E-03     55.8825E-03    -63.1718E+06    -124.961E+06    -2.43580E+06     34.3596E+03    -107.699E-03     214.120E-03    -106.421E-03     91.8937E-03    -108.527E-03     214.288E-03    -106.160E-03     89.0660E-03
            1557     6.47476E-03     55.7840E-03    -69.8317E+06    -148.981E+06    -12.5000E+06     190.351E+03    -107.562E-03     213.992E-03    -106.430E-03     85.8094E-03    -108.228E-03     213.917E-03    -106.175E-03     83.3342E-03
            1558     5.66534E-03     55.6932E-03    -77.1608E+06    -171.883E+06    -23.5747E+06     256.445E+03    -107.379E-03     213.813E-03    -106.434E-03     78.3778E-03    -107.898E-03     213.516E-03    -106.191E-03     76.2606E-03
            1559     4.85578E-03     55.6110E-03    -84.9625E+06    -193.031E+06    -36.5420E+06     38.7286E+03    -107.169E-03     213.597E-03    -106.428E-03     69.7485E-03    -107.562E-03     213.110E-03    -106.208E-03     67.9795E-03
            1560     4.04653E-03     55.5388E-03    -93.2954E+06    -209.378E+06    -52.5753E+06     234.698E+03    -106.937E-03     213.336E-03    -106.400E-03     60.0458E-03    -107.229E-03     212.706E-03    -106.224E-03     58.6163E-03
            1561     3.23716E-03     55.4779E-03    -100.970E+06    -223.456E+06    -70.8040E+06     680.055E+03    -106.702E-03     213.058E-03    -106.356E-03     49.4306E-03    -106.909E-03     212.319E-03    -106.240E-03     48.3263E-03
            1562     2.42787E-03     55.4291E-03    -107.489E+06    -242.437E+06    -86.8404E+06     607.951E+03    -106.534E-03     212.861E-03    -106.327E-03     38.0634E-03    -106.666E-03     212.003E-03    -106.254E-03     37.2554E-03
            1563     1.61852E-03     55.3934E-03    -113.840E+06    -256.263E+06    -101.416E+06     721.930E+03    -106.373E-03     212.668E-03    -106.295E-03     26.0682E-03    -106.457E-03     211.732E-03    -106.265E-03     25.5385E-03
            1564     809.187E-06     55.3713E-03    -118.808E+06    -258.348E+06    -114.522E+06     469.683E+03    -106.313E-03     212.523E-03    -106.210E-03     14.2716E-03    -106.377E-03     211.580E-03    -106.236E-03     13.9883E-03
            1565     15.3791E-03     55.5869E-03    -5.22258E+06     120.704E+06     97.0411E+06     188.960E+03    -105.249E-03     211.604E-03    -106.355E-03     21.0753E-03    -105.990E-03     212.474E-03    -106.037E-03     18.3913E-03
            1566     14.5700E-03     55.5467E-03    -10.7823E+06     118.147E+06     86.1690E+06    -542.645E+03    -105.274E-03     211.601E-03    -106.327E-03     44.4396E-03    -106.304E-03     212.762E-03    -106.052E-03     41.0415E-03
            1567     13.7597E-03     55.4934E-03    -16.2389E+06     112.569E+06     75.0212E+06    -105.214E+03    -105.611E-03     211.913E-03    -106.302E-03     57.6912E-03    -106.776E-03     213.202E-03    -106.066E-03     54.1850E-03
            1568     12.9512E-03     55.4223E-03    -21.9643E+06     102.383E+06     65.5549E+06     301.231E+03    -106.118E-03     212.406E-03    -106.287E-03     72.0010E-03    -107.449E-03     213.831E-03    -106.076E-03     68.3293E-03
            1569     12.1411E-03     55.3375E-03    -27.1374E+06     59.5066E+06     54.0055E+06     82.3203E+03    -106.522E-03     212.830E-03    -106.307E-03     82.7893E-03    -107.910E-03     214.175E-03    -106.084E-03     79.0270E-03
            1570     11.3318E-03     55.2430E-03    -32.2153E+06     17.2341E+06     47.4970E+06     138.250E+03    -106.945E-03     213.298E-03    -106.353E-03     91.4025E-03    -108.352E-03     214.514E-03    -106.094E-03     87.6023E-03
            1571     10.5221E-03     55.1391E-03    -37.8232E+06    -13.1704E+06     37.5165E+06     75.0807E+03    -107.323E-03     213.688E-03    -106.365E-03     96.9603E-03    -108.704E-03     214.779E-03    -106.104E-03     93.1921E-03
            1572     9.71272E-03     55.0313E-03    -43.7490E+06    -44.8831E+06     28.0531E+06     77.9015E+03    -107.573E-03     213.955E-03    -106.382E-03     99.2662E-03    -108.863E-03     214.849E-03    -106.113E-03     95.6223E-03
            1573     8.90315E-03     54.9217E-03    -50.0454E+06    -71.0425E+06      18.152E+06     151.667E+03    -107.689E-03     214.080E-03    -106.391E-03     98.9428E-03    -108.849E-03     214.757E-03    -106.124E-03     95.5112E-03
            1574     8.09369E-03     54.8142E-03    -56.3030E+06    -100.057E+06     7.80095E+06     190.678E+03    -107.745E-03     214.147E-03    -106.402E-03     96.2740E-03    -108.740E-03     214.563E-03    -106.136E-03     93.1221E-03
            1575     7.28429E-03     54.7103E-03    -62.7692E+06    -124.888E+06    -2.29245E+06     64.7942E+03    -107.710E-03     214.117E-03    -106.407E-03     91.8070E-03    -108.536E-03     214.283E-03    -106.147E-03     88.9802E-03
            1576     6.47484E-03     54.6123E-03    -69.8184E+06    -149.386E+06    -12.6799E+06    -12.2481E+03    -107.585E-03     213.997E-03    -106.412E-03     85.7863E-03    -108.249E-03     213.920E-03    -106.157E-03     83.3086E-03
            1577     5.66536E-03     54.5213E-03    -77.1257E+06    -171.926E+06    -23.3601E+06     142.619E+03    -107.399E-03     213.811E-03    -106.412E-03     78.3562E-03    -107.918E-03     213.514E-03    -106.168E-03     76.2379E-03
            1578     4.85614E-03     54.4392E-03    -85.1960E+06    -192.877E+06    -36.2494E+06     351.527E+03    -107.168E-03     213.568E-03    -106.401E-03     69.7262E-03    -107.563E-03     213.081E-03    -106.179E-03     67.9618E-03
            1579     4.04663E-03     54.3671E-03    -93.3977E+06    -209.483E+06    -52.6607E+06     220.893E+03    -106.907E-03     213.275E-03    -106.367E-03     60.0381E-03    -107.199E-03     212.644E-03    -106.192E-03     58.6101E-03
            1580     3.23727E-03     54.3063E-03    -101.158E+06    -223.367E+06     -70.422E+06    -21.0317E+03    -106.676E-03     213.001E-03    -106.325E-03     49.4370E-03    -106.885E-03     212.262E-03    -106.207E-03     48.3239E-03
            1581     2.42782E-03     54.2575E-03    -108.869E+06    -242.979E+06    -86.7176E+06     570.773E+03    -106.484E-03     212.782E-03    -106.298E-03     38.0104E-03    -106.623E-03     211.923E-03    -106.221E-03     37.2029E-03
            1582     1.61860E-03     54.2218E-03    -115.648E+06    -255.426E+06    -104.057E+06     770.789E+03    -106.330E-03     212.583E-03    -106.253E-03     25.9920E-03    -106.420E-03     211.658E-03    -106.235E-03     25.4648E-03
            1583     809.303E-06     54.1998E-03    -119.649E+06    -257.238E+06    -117.617E+06     62.0112E+03    -106.284E-03     212.449E-03    -106.165E-03     14.3206E-03    -106.349E-03     211.518E-03    -106.207E-03     14.0327E-03
            1584     15.3804E-03     54.4149E-03    -4.80596E+06     121.104E+06     97.6537E+06     78.0970E+03    -105.301E-03     211.647E-03    -106.347E-03     20.7969E-03    -106.041E-03     212.517E-03    -106.027E-03     18.1143E-03
            1585     14.5701E-03     54.3738E-03    -10.1815E+06     118.705E+06     86.7361E+06     347.472E+03    -105.344E-03     211.658E-03    -106.314E-03     44.8873E-03    -106.372E-03     212.821E-03    -106.038E-03     41.5049E-03
            1586     13.7614E-03     54.3212E-03    -16.4864E+06     111.677E+06     74.4753E+06     24.8155E+03    -105.732E-03     212.013E-03    -106.281E-03     58.1694E-03    -106.896E-03     213.299E-03    -106.047E-03     54.6705E-03
            1587     12.9507E-03     54.2496E-03    -21.0789E+06     102.599E+06     65.8169E+06     29.9789E+03    -105.930E-03     212.200E-03    -106.270E-03     72.2859E-03    -107.255E-03     213.624E-03    -106.059E-03     68.6257E-03
            1588     12.1414E-03     54.1657E-03    -26.1388E+06     59.9776E+06     54.3482E+06     128.366E+03    -106.438E-03     212.736E-03    -106.298E-03     82.8073E-03    -107.819E-03     214.080E-03    -106.076E-03     79.0529E-03
            1589     11.3315E-03     54.0703E-03    -32.0954E+06     16.6285E+06     47.2729E+06    -13.1812E+03    -107.000E-03     213.345E-03    -106.345E-03     91.2764E-03    -108.405E-03     214.557E-03    -106.086E-03     87.4723E-03
            1590     10.5223E-03     53.9669E-03    -37.9066E+06    -12.9928E+06     37.4333E+06     221.799E+03    -107.371E-03     213.723E-03    -106.352E-03     96.8084E-03    -108.751E-03     214.813E-03    -106.091E-03     93.0418E-03
            1591     9.71288E-03     53.8589E-03    -43.8831E+06    -44.9690E+06     27.8637E+06     178.807E+03    -107.579E-03     213.943E-03    -106.365E-03     99.2124E-03    -108.869E-03     214.837E-03    -106.097E-03     95.5705E-03
            1592     8.90340E-03     53.7499E-03    -49.8271E+06    -71.3014E+06     18.1161E+06     134.524E+03    -107.684E-03     214.056E-03    -106.372E-03     98.8638E-03    -108.841E-03     214.730E-03    -106.106E-03     95.4338E-03
            1593     8.09386E-03     53.6421E-03    -56.0441E+06    -99.8302E+06     7.98945E+06     100.854E+03    -107.720E-03     214.103E-03    -106.383E-03     96.1855E-03    -108.713E-03     214.519E-03    -106.117E-03     93.0353E-03
            1594     7.28436E-03     53.5385E-03    -62.7783E+06    -124.982E+06    -2.29050E+06     89.2153E+03    -107.690E-03     214.078E-03    -106.388E-03     91.6868E-03    -108.515E-03     214.243E-03    -106.128E-03     88.8623E-03
            1595     6.47491E-03     53.4403E-03    -69.7572E+06    -149.438E+06    -12.5197E+06     79.2466E+03    -107.579E-03     213.971E-03    -106.392E-03     85.6478E-03    -108.242E-03     213.892E-03    -106.137E-03     83.1728E-03
            1596     5.66561E-03     53.3496E-03    -77.3869E+06    -172.107E+06    -23.3460E+06     122.058E+03    -107.382E-03     213.772E-03    -106.390E-03     78.2738E-03    -107.902E-03     213.474E-03    -106.145E-03     76.1561E-03
            1597     4.85605E-03     53.2674E-03    -85.2926E+06    -192.978E+06    -36.2528E+06     270.334E+03    -107.136E-03     213.514E-03    -106.378E-03     69.6933E-03    -107.531E-03     213.026E-03    -106.156E-03     67.9299E-03
            1598     4.04676E-03     53.1955E-03    -93.4600E+06    -209.052E+06    -52.0008E+06     426.849E+03    -106.896E-03     213.243E-03    -106.347E-03     60.0355E-03    -107.190E-03     212.613E-03    -106.168E-03     58.6114E-03
            1599     3.23733E-03     53.1346E-03    -101.872E+06    -223.506E+06    -70.3224E+06     326.675E+03    -106.673E-03     212.971E-03    -106.298E-03     49.4078E-03    -106.885E-03     212.232E-03    -106.178E-03     48.3003E-03
            1600     2.42811E-03     53.0860E-03    -109.378E+06    -243.403E+06    -86.9914E+06     38.2174E+03    -106.466E-03     212.728E-03    -106.262E-03     37.9533E-03    -106.606E-03     211.868E-03    -106.185E-03     37.1396E-03
            1601     1.61860E-03     53.0504E-03    -115.453E+06    -254.712E+06    -102.754E+06     116.108E+03    -106.303E-03     212.517E-03    -106.214E-03     25.9861E-03    -106.395E-03     211.593E-03    -106.191E-03     25.4506E-03
            1602     809.314E-06     53.0281E-03    -119.510E+06    -256.592E+06    -116.144E+06     101.552E+03    -106.252E-03     212.355E-03    -106.103E-03     14.2437E-03    -106.320E-03     211.424E-03    -106.138E-03     13.9566E-03
            1603     15.3794E-03     53.2441E-03    -5.08594E+06     120.251E+06     96.9150E+06    -19.6603E+03    -105.228E-03     211.579E-03    -106.350E-03     21.4199E-03    -105.969E-03     212.447E-03    -106.033E-03     18.7388E-03
            1604     14.5699E-03     53.2004E-03    -10.6072E+06     118.334E+06     86.8003E+06     340.847E+03    -105.527E-03     211.846E-03    -106.319E-03     45.3239E-03    -106.559E-03     213.009E-03    -106.041E-03     41.9421E-03
            1605     13.7600E-03     53.1486E-03    -15.3187E+06     112.869E+06     76.1024E+06     154.463E+03    -105.727E-03     212.012E-03    -106.285E-03     57.9450E-03    -106.890E-03     213.300E-03    -106.046E-03     54.4447E-03
            1606     12.9513E-03     53.0774E-03    -21.3163E+06     102.315E+06     65.7417E+06    -239.044E+03    -106.023E-03     212.289E-03    -106.266E-03     72.2349E-03    -107.349E-03     213.711E-03    -106.055E-03     68.5664E-03
            1607     12.1412E-03     52.9932E-03    -26.7807E+06     59.4568E+06     54.0423E+06     28.4645E+03    -106.557E-03     212.843E-03    -106.286E-03     82.6265E-03    -107.939E-03     214.185E-03    -106.063E-03     78.8660E-03
            1608     11.3321E-03     52.8979E-03    -32.2160E+06     16.7843E+06     47.2160E+06     406.640E+03    -106.986E-03     213.313E-03    -106.327E-03     91.0529E-03    -108.389E-03     214.524E-03    -106.068E-03     87.2569E-03
            1609     10.5225E-03     52.7945E-03    -38.1382E+06    -12.9902E+06     37.3650E+06     197.279E+03    -107.296E-03     213.631E-03    -106.336E-03     96.6641E-03    -108.675E-03     214.721E-03    -106.075E-03     92.9008E-03
            1610     9.71294E-03     52.6869E-03    -44.0000E+06    -44.9308E+06     27.7791E+06     52.0189E+03    -107.568E-03     213.917E-03    -106.350E-03     99.1289E-03    -108.857E-03     214.810E-03    -106.082E-03     95.4873E-03
            1611     8.90351E-03     52.5776E-03    -50.0950E+06    -71.2996E+06     18.0279E+06     15.0848E+03    -107.705E-03     214.060E-03    -106.355E-03     98.7963E-03    -108.862E-03     214.734E-03    -106.089E-03     95.3665E-03
            1612     8.09406E-03     52.4704E-03    -56.4027E+06    -99.8967E+06     7.92313E+06     85.0939E+03    -107.748E-03     214.109E-03    -106.362E-03     96.1422E-03    -108.741E-03     214.525E-03    -106.096E-03     92.9922E-03
            1613     7.28460E-03     52.3664E-03    -62.9834E+06    -124.967E+06    -2.24668E+06     106.122E+03    -107.691E-03     214.054E-03    -106.363E-03     91.5962E-03    -108.516E-03     214.218E-03    -106.102E-03     88.7744E-03
            1614     6.47522E-03     52.2686E-03    -70.0412E+06    -149.341E+06    -12.3984E+06     151.054E+03    -107.544E-03     213.909E-03    -106.365E-03     85.5542E-03    -108.208E-03     213.830E-03    -106.109E-03     83.0830E-03
            1615     5.66564E-03     52.1777E-03    -77.4093E+06    -172.162E+06    -23.3221E+06     141.482E+03    -107.334E-03     213.699E-03    -106.364E-03     78.1764E-03    -107.853E-03     213.399E-03    -106.119E-03     76.0620E-03
            1616     4.85632E-03     52.0959E-03     -85.368E+06    -193.134E+06    -36.2606E+06     121.311E+03    -107.110E-03     213.463E-03    -106.353E-03     69.5845E-03    -107.504E-03     212.974E-03    -106.131E-03     67.8204E-03
            1617     4.04675E-03     52.0237E-03    -93.5260E+06    -209.359E+06    -52.4289E+06     314.851E+03    -106.891E-03     213.208E-03    -106.317E-03     59.9476E-03    -107.184E-03     212.578E-03    -106.140E-03     58.5227E-03
            1618     3.23748E-03     51.9631E-03    -101.087E+06    -223.054E+06    -70.0909E+06     530.669E+03    -106.647E-03     212.914E-03    -106.267E-03     49.2944E-03    -106.856E-03     212.175E-03    -106.147E-03     48.1911E-03
            1619     2.42795E-03     51.9144E-03    -108.994E+06    -242.462E+06    -85.9073E+06    -60.0895E+03    -106.445E-03     212.676E-03    -106.231E-03     37.9114E-03    -106.586E-03     211.819E-03    -106.151E-03     37.0972E-03
            1620     1.61880E-03     51.8790E-03    -116.284E+06    -254.841E+06    -102.468E+06    -1.10038E+06    -106.300E-03     212.468E-03    -106.168E-03     25.9595E-03    -106.397E-03     211.544E-03    -106.142E-03     25.4071E-03
            1621     809.373E-06     51.8567E-03    -121.083E+06    -257.994E+06    -117.079E+06    -949.690E+03    -106.223E-03     212.224E-03    -106.002E-03     14.1383E-03    -106.295E-03     211.290E-03    -106.038E-03     13.8398E-03
            1622     15.3790E-03     52.0698E-03    -5.31525E+06     120.648E+06     97.1331E+06     52.4426E+03    -105.524E-03     211.872E-03    -106.348E-03     20.6674E-03    -106.265E-03     212.741E-03    -106.030E-03     17.9758E-03
            1623     14.5704E-03     52.0280E-03    -10.5288E+06     118.383E+06     86.5645E+06    -230.815E+03    -105.432E-03     211.741E-03    -106.309E-03     44.5726E-03    -106.461E-03     212.901E-03    -106.032E-03     41.1771E-03
            1624     13.7611E-03     51.9760E-03    -16.1057E+06     112.616E+06     75.3776E+06     53.4911E+03    -105.678E-03     211.954E-03    -106.276E-03     57.6992E-03    -106.841E-03     213.242E-03    -106.039E-03     54.1963E-03
            1625     12.9508E-03     51.9049E-03    -21.3198E+06     102.559E+06     66.0393E+06     272.037E+03    -106.156E-03     212.413E-03    -106.257E-03     72.0365E-03    -107.482E-03     213.836E-03    -106.045E-03     68.3675E-03
            1626     12.1419E-03     51.8205E-03    -27.2381E+06     58.9895E+06     53.7325E+06     100.854E+03    -106.577E-03     212.847E-03    -106.270E-03     82.5914E-03    -107.960E-03     214.187E-03    -106.047E-03     78.8329E-03
            1627     11.3322E-03     51.7257E-03    -32.5914E+06     16.9010E+06     47.1831E+06     115.146E+03    -106.943E-03     213.253E-03    -106.311E-03     91.0895E-03    -108.347E-03     214.465E-03    -106.052E-03     87.2936E-03
            1628     10.5226E-03     51.6225E-03    -37.9811E+06    -13.0631E+06     37.3529E+06     75.3016E+03    -107.284E-03     213.604E-03    -106.320E-03     96.6842E-03    -108.661E-03     214.692E-03    -106.059E-03     92.9228E-03
            1629     9.71320E-03     51.5146E-03    -43.9064E+06    -44.7281E+06     28.0076E+06     108.759E+03    -107.557E-03     213.892E-03    -106.335E-03     99.0470E-03    -108.844E-03     214.783E-03    -106.067E-03     95.4103E-03
            1630     8.90363E-03     51.4058E-03    -50.1023E+06    -71.2240E+06     18.0728E+06     103.439E+03    -107.722E-03     214.060E-03    -106.338E-03     98.7017E-03    -108.879E-03     214.733E-03    -106.071E-03     95.2734E-03
            1631     8.09419E-03     51.2982E-03    -56.5208E+06    -100.112E+06     7.82448E+06     93.9125E+03    -107.777E-03     214.117E-03    -106.339E-03     96.0220E-03    -108.770E-03     214.530E-03    -106.073E-03     92.8734E-03
            1632     7.28482E-03     51.1947E-03    -63.1828E+06    -124.857E+06    -2.32025E+06     191.731E+03    -107.681E-03     214.018E-03    -106.337E-03     91.5241E-03    -108.506E-03     214.182E-03    -106.076E-03     88.7058E-03
            1633     6.47528E-03     51.0967E-03    -70.1556E+06    -149.379E+06    -12.5420E+06     136.293E+03    -107.525E-03     213.862E-03    -106.336E-03     85.4900E-03    -108.189E-03     213.782E-03    -106.081E-03     83.0207E-03
            1634     5.66592E-03     51.0061E-03    -77.7035E+06    -172.002E+06    -23.3995E+06     132.624E+03    -107.332E-03     213.665E-03    -106.332E-03     78.0675E-03    -107.852E-03     213.366E-03    -106.087E-03     75.9548E-03
            1635     4.85633E-03     50.9242E-03    -85.7500E+06    -193.235E+06    -36.5563E+06     80.7192E+03    -107.119E-03     213.433E-03    -106.314E-03     69.4585E-03    -107.514E-03     212.944E-03    -106.092E-03     67.6947E-03
            1636     4.04707E-03     50.8523E-03    -93.6323E+06    -209.501E+06    -52.5560E+06    -170.650E+03    -106.854E-03     213.127E-03    -106.273E-03     59.8016E-03    -107.147E-03     212.496E-03    -106.096E-03     58.3715E-03
            1637     3.23755E-03     50.7914E-03    -101.714E+06    -223.695E+06    -70.6417E+06     299.972E+03    -106.584E-03     212.806E-03    -106.222E-03     49.1592E-03    -106.794E-03     212.066E-03    -106.103E-03     48.0544E-03
            1638     2.42825E-03     50.7432E-03    -108.884E+06    -240.297E+06    -88.1361E+06     109.068E+03    -106.381E-03     212.559E-03    -106.179E-03     37.8355E-03    -106.521E-03     211.716E-03    -106.113E-03     37.0248E-03
            1639     1.61871E-03     50.7073E-03    -114.872E+06    -255.090E+06    -103.935E+06    -1.35700E+06    -106.234E-03     212.373E-03    -106.139E-03     25.9886E-03    -106.321E-03     211.448E-03    -106.122E-03     25.4343E-03
            1640     809.532E-06     50.6858E-03    -119.525E+06    -260.661E+06    -117.039E+06    -679.503E+03    -106.206E-03     212.227E-03    -106.022E-03     14.2097E-03    -106.266E-03     211.278E-03    -106.056E-03     13.9128E-03
            1641     15.3814E-03     50.8975E-03    -5.47393E+06     120.474E+06     97.0130E+06    -49.7004E+03    -105.478E-03     211.813E-03    -106.335E-03     20.9940E-03    -106.219E-03     212.681E-03    -106.017E-03     18.3106E-03
            1642     14.5704E-03     50.8559E-03    -10.6040E+06     118.240E+06     86.9056E+06     446.720E+03    -105.381E-03     211.681E-03    -106.300E-03     45.0086E-03    -106.409E-03     212.839E-03    -106.021E-03     41.6345E-03
            1643     13.7602E-03     50.8034E-03    -16.3481E+06     112.368E+06     75.3907E+06    -46.1431E+03    -105.762E-03     212.027E-03    -106.265E-03     57.8506E-03    -106.926E-03     213.313E-03    -106.027E-03     54.3468E-03
            1644     12.9517E-03     50.7321E-03    -21.7238E+06     102.247E+06     65.5748E+06     9.94209E+03    -106.067E-03     212.310E-03    -106.243E-03     71.9226E-03    -107.392E-03     213.731E-03    -106.032E-03     68.2580E-03
            1645     12.1416E-03     50.6482E-03    -26.4356E+06     59.2893E+06     54.0336E+06     403.684E+03    -106.471E-03     212.734E-03    -106.263E-03     82.6622E-03    -107.848E-03     214.071E-03    -106.040E-03     78.9175E-03
            1646     11.3322E-03     50.5534E-03    -32.1827E+06     16.5030E+06     46.9861E+06     34.7038E+03    -107.008E-03     213.312E-03    -106.304E-03     91.1337E-03    -108.409E-03     214.521E-03    -106.046E-03     87.3347E-03
            1647     10.5228E-03     50.4502E-03    -38.2283E+06    -12.7230E+06     37.4438E+06     168.027E+03    -107.367E-03     213.676E-03    -106.309E-03     96.5671E-03    -108.744E-03     214.764E-03    -106.048E-03     92.8074E-03
            1648     9.71322E-03     50.3426E-03    -44.1342E+06    -44.7025E+06     27.8423E+06     118.046E+03    -107.592E-03     213.908E-03    -106.316E-03     98.9431E-03    -108.879E-03     214.799E-03    -106.048E-03     95.3069E-03
            1649     8.90385E-03     50.2336E-03    -50.1463E+06    -71.3068E+06     18.0022E+06     112.790E+03    -107.740E-03     214.055E-03    -106.315E-03     98.5849E-03    -108.895E-03     214.726E-03    -106.049E-03     95.1591E-03
            1650     8.09448E-03     50.1262E-03    -56.4780E+06    -100.025E+06     7.82481E+06     229.566E+03    -107.756E-03     214.070E-03    -106.314E-03     95.8783E-03    -108.747E-03     214.482E-03    -106.048E-03     92.7346E-03
            1651     7.28495E-03     50.0229E-03    -63.0339E+06    -125.056E+06    -2.44237E+06     135.275E+03    -107.682E-03     213.990E-03    -106.309E-03     91.3861E-03    -108.504E-03     214.152E-03    -106.048E-03     88.5676E-03
            1652     6.47555E-03     49.9250E-03    -70.0064E+06    -149.271E+06    -12.5358E+06     251.986E+03    -107.543E-03     213.846E-03    -106.303E-03     85.3201E-03    -108.205E-03     213.766E-03    -106.048E-03     82.8537E-03
            1653     5.66603E-03     49.8345E-03    -77.5123E+06    -172.089E+06    -23.5178E+06     228.678E+03    -107.352E-03     213.642E-03    -106.290E-03     77.9230E-03    -107.870E-03     213.342E-03    -106.046E-03     75.8117E-03
            1654     4.85677E-03     49.7526E-03    -85.2211E+06    -192.799E+06    -36.2065E+06     4.04611E+03    -107.107E-03     213.372E-03    -106.265E-03     69.3381E-03    -107.500E-03     212.883E-03    -106.043E-03     67.5749E-03
            1655     4.04724E-03     49.6808E-03    -94.0658E+06    -209.527E+06    -52.3822E+06     63.0904E+03    -106.785E-03     213.007E-03    -106.222E-03     59.6795E-03    -107.079E-03     212.375E-03    -106.044E-03     58.2551E-03
            1656     3.23779E-03     49.6203E-03    -102.164E+06    -224.442E+06    -71.4709E+06     78.2966E+03    -106.503E-03     212.676E-03    -106.173E-03     49.1716E-03    -106.713E-03     211.934E-03    -106.057E-03     48.0656E-03
            1657     2.42824E-03     49.5716E-03    -108.561E+06    -238.705E+06    -91.3108E+06    -338.596E+03    -106.305E-03     212.431E-03    -106.126E-03     37.8517E-03    -106.441E-03     211.599E-03    -106.079E-03     37.0352E-03
            1658     1.61881E-03     49.5365E-03    -114.008E+06    -255.803E+06    -105.727E+06    -364.477E+03    -106.150E-03     212.275E-03    -106.125E-03     25.9397E-03    -106.229E-03     211.347E-03    -106.117E-03     25.3991E-03
            1659     809.086E-06     49.5140E-03    -118.212E+06    -262.222E+06    -114.760E+06    -18.9523E+03    -106.224E-03     212.277E-03    -106.053E-03     14.1875E-03    -106.279E-03     211.315E-03    -106.076E-03     13.8995E-03
            1660     15.3782E-03     49.7245E-03    -5.11703E+06     120.250E+06     97.0663E+06     128.358E+03    -105.467E-03     211.805E-03    -106.339E-03     20.9225E-03    -106.207E-03     212.673E-03    -106.020E-03     18.2319E-03
            1661     14.5702E-03     49.6832E-03    -10.8310E+06     118.040E+06     86.5146E+06    -308.423E+03    -105.607E-03     211.903E-03    -106.296E-03     44.7145E-03    -106.636E-03     213.062E-03    -106.019E-03     41.3146E-03
            1662     13.7617E-03     49.6304E-03    -15.4155E+06     112.704E+06     75.7616E+06     183.607E+03    -105.715E-03     211.973E-03    -106.257E-03     57.8287E-03    -106.875E-03     213.257E-03    -106.019E-03     54.3330E-03
            1663     12.9511E-03     49.5599E-03    -21.2165E+06     102.105E+06     65.5377E+06     265.078E+03    -105.991E-03     212.230E-03    -106.238E-03     71.9897E-03    -107.312E-03     213.648E-03    -106.028E-03     68.3326E-03
            1664     12.1418E-03     49.4761E-03    -27.4695E+06     58.8483E+06     53.4493E+06    -110.308E+03    -106.563E-03     212.820E-03    -106.257E-03     82.5443E-03    -107.943E-03     214.157E-03    -106.035E-03     78.7886E-03
            1665     11.3322E-03     49.3808E-03    -32.7144E+06     17.1019E+06     47.2224E+06     193.013E+03    -107.043E-03     213.338E-03    -106.294E-03     90.8404E-03    -108.445E-03     214.547E-03    -106.035E-03     87.0465E-03
            1666     10.5229E-03     49.2779E-03    -38.1631E+06    -12.9249E+06     37.3368E+06     83.2635E+03    -107.396E-03     213.689E-03    -106.293E-03     96.3377E-03    -108.771E-03     214.775E-03    -106.032E-03     92.5755E-03
            1667     9.71359E-03     49.1705E-03    -43.9590E+06    -44.7725E+06     27.8732E+06     93.0440E+03    -107.652E-03     213.948E-03    -106.295E-03     98.8116E-03    -108.938E-03     214.837E-03    -106.027E-03     95.1738E-03
            1668     8.90414E-03     49.0615E-03    -50.0700E+06    -71.2994E+06     17.9860E+06     192.234E+03    -107.745E-03     214.033E-03    -106.288E-03     98.4520E-03    -108.898E-03     214.703E-03    -106.022E-03     95.0300E-03
            1669     8.09459E-03     48.9545E-03    -56.3292E+06    -100.222E+06     7.76488E+06     141.985E+03    -107.766E-03     214.049E-03    -106.283E-03     95.7049E-03    -108.754E-03     214.459E-03    -106.017E-03     92.5617E-03
            1670     7.28524E-03     48.8509E-03    -62.9221E+06    -124.934E+06    -2.41347E+06     254.230E+03    -107.692E-03     213.964E-03    -106.272E-03     91.1860E-03    -108.513E-03     214.125E-03    -106.012E-03     88.3708E-03
            1671     6.47580E-03     48.7534E-03    -69.8357E+06    -149.427E+06    -12.7592E+06     210.938E+03    -107.545E-03     213.804E-03    -106.259E-03     85.1779E-03    -108.204E-03     213.722E-03    -106.005E-03     82.7121E-03
            1672     5.66645E-03     48.6628E-03    -77.0484E+06    -171.881E+06    -23.4453E+06     137.123E+03    -107.325E-03     213.567E-03    -106.243E-03     77.8346E-03    -107.840E-03     213.267E-03    -105.999E-03     75.7246E-03
            1673     4.85690E-03     48.5811E-03    -85.2659E+06    -192.863E+06    -36.2341E+06     322.790E+03    -107.021E-03     213.240E-03    -106.219E-03     69.2763E-03    -107.413E-03     212.750E-03    -105.997E-03     67.5210E-03
            1674     4.04745E-03     48.5095E-03    -93.1433E+06    -209.331E+06    -52.4893E+06     286.474E+03    -106.717E-03     212.898E-03    -106.181E-03     59.6693E-03    -107.006E-03     212.266E-03    -106.005E-03     58.2501E-03
            1675     3.23786E-03     48.4490E-03    -100.634E+06    -223.549E+06    -70.9112E+06    -482.677E+03    -106.466E-03     212.604E-03    -106.138E-03     49.1774E-03    -106.671E-03     211.863E-03    -106.022E-03     48.0641E-03
            1676     2.42830E-03     48.4006E-03    -107.218E+06    -239.474E+06    -88.0760E+06    -429.447E+03    -106.275E-03     212.382E-03    -106.107E-03     37.7883E-03    -106.408E-03     211.540E-03    -106.045E-03     36.9720E-03
            1677     1.61881E-03     48.3651E-03    -112.902E+06    -256.437E+06    -102.107E+06     524.669E+03    -106.152E-03     212.247E-03    -106.095E-03     25.8391E-03    -106.229E-03     211.310E-03    -106.070E-03     25.3114E-03
            1678     809.564E-06     48.3432E-03    -117.804E+06    -261.641E+06    -114.364E+06     202.511E+03    -106.158E-03     212.162E-03    -106.003E-03     14.3670E-03    -106.213E-03     211.201E-03    -106.025E-03     14.0842E-03
            1679     15.3815E-03     48.5519E-03    -4.77649E+06     120.486E+06     97.2559E+06     110.324E+03    -105.541E-03     211.882E-03    -106.341E-03     20.9972E-03    -106.280E-03     212.749E-03    -106.022E-03     18.3067E-03
            1680     14.5709E-03     48.5099E-03    -10.1359E+06     118.674E+06     86.7681E+06     155.855E+03    -105.547E-03     211.844E-03    -106.298E-03     44.9557E-03    -106.574E-03     213.005E-03    -106.021E-03     41.5676E-03
            1681     13.7604E-03     48.4584E-03    -16.2173E+06     111.818E+06     74.8218E+06     53.7813E+03    -105.762E-03     212.020E-03    -106.258E-03     57.9349E-03    -106.921E-03     213.302E-03    -106.022E-03     54.4404E-03
            1682     12.9513E-03     48.3874E-03    -21.2100E+06     102.123E+06     65.5978E+06     358.442E+03    -106.228E-03     212.460E-03    -106.233E-03     71.7870E-03    -107.548E-03     213.877E-03    -106.022E-03     68.1238E-03
            1683     12.1420E-03     48.3032E-03    -26.3364E+06     59.8203E+06     54.2844E+06     422.390E+03    -106.660E-03     212.900E-03    -106.240E-03     82.1389E-03    -108.035E-03     214.236E-03    -106.017E-03     78.3873E-03
            1684     11.3328E-03     48.2087E-03    -32.1923E+06     16.8280E+06     47.2652E+06    -157.098E+03    -106.992E-03     213.265E-03    -106.273E-03     90.7235E-03    -108.389E-03     214.470E-03    -106.014E-03     86.9291E-03
            1685     10.5231E-03     48.1057E-03    -37.9470E+06    -13.3015E+06     37.2106E+06    -116.677E+03    -107.399E-03     213.670E-03    -106.271E-03     96.2944E-03    -108.771E-03     214.752E-03    -106.011E-03     92.5314E-03
            1686     9.71372E-03     47.9981E-03    -43.7205E+06    -44.8891E+06     27.9729E+06     166.684E+03    -107.696E-03     213.966E-03    -106.270E-03     98.6172E-03    -108.978E-03     214.852E-03    -106.002E-03     94.9807E-03
            1687     8.90431E-03     47.8897E-03    -49.7835E+06    -71.1960E+06     18.0821E+06     253.226E+03    -107.786E-03     214.041E-03    -106.255E-03     98.2152E-03    -108.936E-03     214.710E-03    -105.990E-03     94.7930E-03
            1688     8.09504E-03     47.7823E-03    -56.2732E+06    -100.259E+06     7.68776E+06     281.017E+03    -107.770E-03     214.014E-03    -106.244E-03     95.5148E-03    -108.756E-03     214.422E-03    -105.978E-03     92.3763E-03
            1689     7.28561E-03     47.6794E-03    -62.7935E+06    -124.957E+06    -2.51079E+06     199.889E+03    -107.675E-03     213.903E-03    -106.228E-03     91.0625E-03    -108.494E-03     214.063E-03    -105.969E-03     88.2492E-03
            1690     6.47612E-03     47.5816E-03    -69.5379E+06    -149.221E+06    -12.6784E+06     108.367E+03    -107.505E-03     213.719E-03    -106.214E-03     85.0879E-03    -108.163E-03     213.637E-03    -105.960E-03     82.6232E-03
            1691     5.66663E-03     47.4913E-03    -77.0047E+06    -172.008E+06    -23.5603E+06     173.678E+03    -107.231E-03     213.430E-03    -106.200E-03     77.7360E-03    -107.745E-03     213.128E-03    -105.956E-03     75.6306E-03
            1692     4.85712E-03     47.4098E-03    -84.5583E+06    -192.753E+06    -36.4696E+06     146.912E+03    -106.942E-03     213.124E-03    -106.182E-03     69.2087E-03    -107.331E-03     212.634E-03    -105.962E-03     67.4541E-03
            1693     4.04745E-03     47.3383E-03    -92.3579E+06    -209.034E+06    -52.3726E+06    -106.770E+03    -106.708E-03     212.854E-03    -106.146E-03     59.5787E-03    -106.993E-03     212.222E-03    -105.971E-03     58.1556E-03
            1694     3.23793E-03     47.2778E-03    -99.8294E+06    -222.646E+06    -70.0788E+06    -549.295E+03    -106.474E-03     212.570E-03    -106.096E-03     49.0107E-03    -106.676E-03     211.831E-03    -105.979E-03     47.8975E-03
            1695     2.42850E-03     47.2295E-03    -107.436E+06    -241.442E+06    -85.5804E+06    -425.236E+03    -106.250E-03     212.317E-03    -106.067E-03     37.6858E-03    -106.384E-03     211.461E-03    -105.989E-03     36.8713E-03
            1696     1.61896E-03     47.1941E-03    -114.822E+06    -256.595E+06    -101.332E+06     687.341E+03    -106.124E-03     212.150E-03    -106.026E-03     25.8244E-03    -106.212E-03     211.213E-03    -105.994E-03     25.3003E-03
            1697     809.378E-06     47.1719E-03    -119.678E+06    -259.978E+06    -116.263E+06     801.993E+03    -106.045E-03     211.962E-03    -105.917E-03     14.2910E-03    -106.109E-03     211.015E-03    -105.947E-03     14.0160E-03
            1698     15.3781E-03     47.3788E-03    -5.30762E+06     119.884E+06     96.7350E+06      8.6415E+03    -105.399E-03     211.741E-03    -106.342E-03     21.2473E-03    -106.138E-03     212.607E-03    -106.025E-03     18.5627E-03
            1699     14.5696E-03     47.3374E-03    -10.7108E+06     118.106E+06     86.7002E+06     305.299E+03    -105.699E-03     212.000E-03    -106.301E-03     44.4984E-03    -106.725E-03     213.156E-03    -106.023E-03     41.1090E-03
            1700     13.7610E-03     47.2857E-03    -15.6450E+06     112.445E+06     75.8970E+06     314.075E+03    -106.047E-03     212.296E-03    -106.249E-03     57.1029E-03    -107.203E-03     213.576E-03    -106.010E-03     53.5974E-03
            1701     12.9518E-03     47.2141E-03    -21.6351E+06     101.896E+06     65.6927E+06    -158.775E+03    -106.178E-03     212.390E-03    -106.213E-03     71.3937E-03    -107.496E-03     213.803E-03    -106.001E-03     67.7286E-03
            1702     12.1425E-03     47.1311E-03    -26.6231E+06     59.7015E+06     54.2635E+06     -66.748E+03    -106.539E-03     212.762E-03    -106.223E-03     82.2570E-03    -107.914E-03     214.097E-03    -106.000E-03     78.5060E-03
            1703     11.3326E-03     47.0364E-03    -31.7676E+06     16.9167E+06     47.4094E+06     301.604E+03    -107.118E-03     213.372E-03    -106.254E-03     90.7882E-03    -108.513E-03     214.577E-03    -105.995E-03     86.9954E-03
            1704     10.5234E-03     46.9333E-03    -37.8888E+06    -13.1008E+06     37.4582E+06     183.501E+03    -107.501E-03     213.744E-03    -106.243E-03     96.0568E-03    -108.870E-03     214.824E-03    -105.982E-03     92.2987E-03
            1705     9.71405E-03     46.8261E-03    -44.0289E+06    -45.1213E+06     27.6442E+06     54.4349E+03    -107.697E-03     213.930E-03    -106.233E-03     98.2877E-03    -108.977E-03     214.813E-03    -105.965E-03     94.6522E-03
            1706     8.90484E-03     46.7174E-03    -50.0977E+06    -71.5778E+06     17.7995E+06     181.658E+03    -107.760E-03     213.975E-03    -106.215E-03     97.9739E-03    -108.909E-03     214.640E-03    -105.949E-03     94.5546E-03
            1707     8.09533E-03     46.6108E-03    -56.0975E+06    -99.9148E+06     7.82051E+06     286.414E+03    -107.729E-03     213.931E-03    -106.202E-03     95.3925E-03    -108.713E-03     214.339E-03    -105.937E-03     92.2577E-03
            1708     7.28581E-03     46.5075E-03    -62.5419E+06    -124.901E+06    -2.43402E+06     34.6020E+03    -107.643E-03     213.829E-03    -106.185E-03     90.9835E-03    -108.460E-03     213.987E-03    -105.926E-03     88.1712E-03
            1709     6.47646E-03     46.4101E-03    -69.4511E+06    -149.316E+06    -12.6663E+06     74.3268E+03    -107.442E-03     213.613E-03    -106.171E-03     84.9389E-03    -108.098E-03     213.529E-03    -105.917E-03     82.4779E-03
            1710     5.66686E-03     46.3200E-03    -76.5588E+06    -171.832E+06    -23.4103E+06     91.9237E+03    -107.167E-03     213.326E-03    -106.159E-03     77.5791E-03    -107.678E-03     213.023E-03    -105.916E-03     75.4764E-03
            1711     4.85718E-03     46.2386E-03    -84.3032E+06    -192.570E+06    -36.2568E+06    -95.8941E+03    -106.937E-03     213.076E-03    -106.139E-03     69.0420E-03    -107.323E-03     212.585E-03    -105.919E-03     67.2859E-03
            1712     4.04773E-03     46.1671E-03    -92.2714E+06    -208.838E+06    -52.1856E+06    -320.542E+03    -106.698E-03     212.794E-03    -106.096E-03     59.4291E-03    -106.983E-03     212.161E-03    -105.920E-03     58.0056E-03
            1713     3.23828E-03     46.1067E-03    -100.289E+06    -222.675E+06    -69.8875E+06    -322.429E+03    -106.431E-03     212.471E-03    -106.040E-03     48.8941E-03    -106.636E-03     211.732E-03    -105.921E-03     47.7870E-03
            1714     2.42860E-03     46.0586E-03    -108.210E+06    -242.498E+06    -86.6609E+06     42.4884E+03    -106.211E-03     212.210E-03    -105.999E-03     37.6267E-03    -106.347E-03     211.352E-03    -105.924E-03     36.8189E-03
            1715     1.61909E-03     46.0230E-03    -114.726E+06    -256.813E+06    -101.839E+06     123.603E+03    -106.068E-03     212.017E-03    -105.949E-03     25.8568E-03    -106.154E-03     211.080E-03    -105.920E-03     25.3265E-03
            1716     809.719E-06     46.0010E-03    -119.229E+06    -258.911E+06    -115.014E+06     294.847E+03    -106.034E-03     211.807E-03    -105.773E-03     14.0941E-03    -106.098E-03     210.863E-03    -105.800E-03     13.8131E-03
            1717     15.3812E-03     46.2064E-03    -5.13921E+06     120.279E+06     97.1011E+06     263.346E+03    -105.780E-03     212.110E-03    -106.330E-03     20.6394E-03    -106.518E-03     212.976E-03    -106.012E-03     17.9452E-03
            1718     14.5710E-03     46.1642E-03    -10.7997E+06     117.982E+06     86.5322E+06    -18.0755E+03    -105.739E-03     212.013E-03    -106.274E-03     44.0791E-03    -106.763E-03     213.167E-03    -105.997E-03     40.6803E-03
            1719     13.7619E-03     46.1119E-03    -16.4219E+06     112.218E+06     75.4470E+06     82.2107E+03    -105.790E-03     212.017E-03    -106.228E-03     57.2369E-03    -106.947E-03     213.296E-03    -105.989E-03     53.7423E-03
            1720     12.9522E-03     46.0426E-03    -20.8902E+06     102.963E+06     66.1456E+06     64.8591E+03    -106.079E-03     212.281E-03    -106.202E-03     71.8276E-03    -107.397E-03     213.698E-03    -105.990E-03     68.1706E-03
            1721     12.1417E-03     45.9585E-03    -26.7954E+06     58.5586E+06     53.3895E+06    -338.696E+03    -106.777E-03     212.982E-03    -106.205E-03     82.1169E-03    -108.149E-03     214.312E-03    -105.984E-03     78.3531E-03
            1722     11.3331E-03     45.8637E-03    -32.5815E+06     16.9129E+06     47.2619E+06     259.366E+03    -107.265E-03     213.487E-03    -106.223E-03     90.2324E-03    -108.660E-03     214.690E-03    -105.964E-03     86.4358E-03
            1723     10.5239E-03     45.7609E-03    -38.0182E+06    -12.6374E+06     37.3788E+06     351.901E+03    -107.494E-03     213.695E-03    -106.201E-03     95.6997E-03    -108.862E-03     214.775E-03    -105.941E-03     91.9448E-03
            1724     9.71470E-03     45.6540E-03    -43.9051E+06    -45.3359E+06     27.6142E+06     82.2842E+03    -107.636E-03     213.826E-03    -106.190E-03     98.1761E-03    -108.913E-03     214.706E-03    -105.922E-03     94.5476E-03
            1725     8.90507E-03     45.5456E-03    -49.9050E+06    -71.5612E+06     17.8981E+06     70.7781E+03    -107.695E-03     213.869E-03    -106.174E-03     97.8736E-03    -108.840E-03     214.531E-03    -105.908E-03     94.4597E-03
            1726     8.09566E-03     45.4390E-03    -56.1121E+06    -100.077E+06     7.80584E+06    -57.1300E+03    -107.715E-03     213.876E-03    -106.160E-03     95.2649E-03    -108.698E-03     214.281E-03    -105.895E-03     92.1277E-03
            1727     7.28627E-03     45.3359E-03    -62.5718E+06    -124.584E+06    -2.24859E+06     128.118E+03    -107.594E-03     213.736E-03    -106.142E-03     90.7996E-03    -108.410E-03     213.894E-03    -105.882E-03     87.9936E-03
            1728     6.47663E-03     45.2387E-03    -69.3992E+06    -149.356E+06    -12.7470E+06    -108.590E+03    -107.380E-03     213.508E-03    -106.128E-03     84.7506E-03    -108.034E-03     213.422E-03    -105.874E-03     82.2930E-03
            1729     5.66708E-03     45.1489E-03    -76.6672E+06    -171.822E+06    -23.5664E+06    -175.196E+03    -107.180E-03     213.291E-03    -106.111E-03     77.4385E-03    -107.690E-03     212.987E-03    -105.869E-03     75.3346E-03
            1730     4.85763E-03     45.0674E-03    -84.2997E+06    -192.573E+06    -36.2212E+06    -116.015E+03    -106.932E-03     213.015E-03    -106.083E-03     68.9100E-03    -107.318E-03     212.523E-03    -105.863E-03     67.1568E-03
            1731     4.04802E-03     44.9960E-03    -92.2252E+06    -208.740E+06    -51.9805E+06    -140.556E+03    -106.627E-03     212.663E-03    -106.036E-03     59.3374E-03    -106.912E-03     212.030E-03    -105.860E-03     57.9195E-03
            1732     3.23827E-03     44.9358E-03    -100.353E+06    -222.948E+06    -70.1772E+06     112.403E+03    -106.367E-03     212.346E-03    -105.980E-03     48.8238E-03    -106.571E-03     211.606E-03    -105.862E-03     47.7242E-03
            1733     2.42882E-03     44.8876E-03    -107.548E+06    -242.388E+06    -86.8498E+06     32.1946E+03    -106.177E-03     212.111E-03    -105.934E-03     37.5460E-03    -106.308E-03     211.252E-03    -105.860E-03     36.7407E-03
            1734     1.61920E-03     44.8523E-03    -113.959E+06    -257.043E+06    -102.636E+06    -169.970E+03    -105.968E-03     211.857E-03    -105.889E-03     25.8122E-03    -106.048E-03     210.918E-03    -105.864E-03     25.2799E-03
            1735     809.468E-06     44.8301E-03    -118.555E+06    -259.029E+06    -115.535E+06    -215.672E+03    -105.904E-03     211.722E-03    -105.818E-03     14.3164E-03    -105.964E-03     210.777E-03    -105.848E-03     14.0292E-03
            1736     15.3795E-03     45.0336E-03    -5.24865E+06     119.965E+06     96.8033E+06     123.998E+03    -105.858E-03     212.176E-03    -106.318E-03     21.0380E-03    -106.596E-03     213.040E-03    -106.000E-03     18.3513E-03
            1737     14.5713E-03     44.9906E-03    -10.0026E+06     117.946E+06     87.0285E+06     420.974E+03    -105.522E-03     211.790E-03    -106.269E-03     44.8972E-03    -106.543E-03     212.942E-03    -105.990E-03     41.5254E-03
            1738     13.7610E-03     44.9410E-03    -15.4117E+06     112.470E+06     75.7825E+06    -57.5310E+03    -105.822E-03     212.048E-03    -106.226E-03     57.4279E-03    -106.975E-03     213.326E-03    -105.988E-03     53.9307E-03
            1739     12.9510E-03     44.8691E-03    -21.2842E+06     102.434E+06     65.6265E+06    -178.661E+03    -106.496E-03     212.680E-03    -106.184E-03     71.2060E-03    -107.812E-03     214.094E-03    -105.974E-03     67.5258E-03
            1740     12.1434E-03     44.7857E-03    -26.5570E+06     59.0894E+06     53.8906E+06     548.097E+03    -106.916E-03     213.086E-03    -106.169E-03     81.5257E-03    -108.286E-03     214.414E-03    -105.947E-03     77.7699E-03
            1741     11.3339E-03     44.6911E-03    -32.4246E+06     16.5133E+06     46.9090E+06     51.3076E+03    -107.162E-03     213.342E-03    -106.180E-03     90.1895E-03    -108.553E-03     214.540E-03    -105.922E-03     86.3981E-03
            1742     10.5244E-03     44.5889E-03    -38.1435E+06    -12.8842E+06     37.3440E+06    -22.4369E+03    -107.408E-03     213.572E-03    -106.164E-03     95.7508E-03    -108.774E-03     214.649E-03    -105.903E-03     91.9990E-03
            1743     9.71478E-03     44.4818E-03    -43.8505E+06    -44.8659E+06     27.9408E+06     233.314E+03    -107.603E-03     213.758E-03    -106.155E-03     98.0904E-03    -108.877E-03     214.637E-03    -105.887E-03     94.4706E-03
            1744     8.90550E-03     44.3739E-03    -49.9862E+06    -71.4387E+06     17.8932E+06    -88.7995E+03    -107.702E-03     213.838E-03    -106.136E-03     97.7572E-03    -108.846E-03     214.499E-03    -105.870E-03     94.3447E-03
            1745     8.09602E-03     44.2671E-03    -56.2342E+06    -100.185E+06     7.72898E+06    -146.634E+03    -107.699E-03     213.817E-03    -106.118E-03     95.1366E-03    -108.680E-03     214.221E-03    -105.853E-03     92.0032E-03
            1746     7.28653E-03     44.1644E-03    -62.5997E+06    -124.721E+06    -2.24425E+06    -117.481E+03    -107.552E-03     213.650E-03    -106.098E-03     90.6230E-03    -108.365E-03     213.805E-03    -105.838E-03     87.8191E-03
            1747     6.47699E-03     44.0675E-03    -69.3971E+06    -148.924E+06    -12.6332E+06    -76.4197E+03    -107.377E-03     213.456E-03    -106.079E-03     84.6129E-03    -108.030E-03     213.371E-03    -105.826E-03     82.1591E-03
            1748     5.66743E-03     43.9775E-03    -76.7246E+06    -172.131E+06    -23.7933E+06    -361.906E+03    -107.175E-03     213.230E-03    -106.055E-03     77.2981E-03    -107.684E-03     212.925E-03    -105.814E-03     75.1939E-03
            1749     4.85783E-03     43.8963E-03    -84.3119E+06    -192.671E+06    -36.2352E+06    -343.793E+03    -106.886E-03     212.908E-03    -106.022E-03     68.7595E-03    -107.271E-03     212.415E-03    -105.802E-03     67.0059E-03
            1750     4.04818E-03     43.8252E-03    -92.5628E+06    -209.075E+06    -52.1450E+06    -16.3027E+03    -106.584E-03     212.555E-03    -105.971E-03     59.1810E-03    -106.869E-03     211.921E-03    -105.794E-03     57.7671E-03
            1751     3.23867E-03     43.7650E-03    -100.118E+06    -223.042E+06    -70.2937E+06     164.239E+03    -106.310E-03     212.218E-03    -105.908E-03     48.6625E-03    -106.512E-03     211.477E-03    -105.791E-03     47.5668E-03
            1752     2.42889E-03     43.7169E-03    -107.115E+06    -242.203E+06    -86.7487E+06     233.105E+03    -106.099E-03     211.961E-03    -105.862E-03     37.4310E-03    -106.229E-03     211.102E-03    -105.789E-03     36.6306E-03
            1753     1.61934E-03     43.6817E-03    -113.986E+06    -256.970E+06    -102.632E+06     237.715E+03    -105.940E-03     211.743E-03    -105.803E-03     25.5752E-03    -106.021E-03     210.805E-03    -105.779E-03     25.0467E-03
            1754     809.562E-06     43.6600E-03    -118.522E+06    -258.991E+06    -115.628E+06     157.323E+03    -105.845E-03     211.517E-03    -105.672E-03     14.0021E-03    -105.905E-03     210.572E-03    -105.703E-03     13.7224E-03
            1755     15.3808E-03     43.8591E-03    -5.00795E+06     120.054E+06     97.1976E+06    -28.7938E+03    -105.760E-03     212.083E-03    -106.323E-03     20.4512E-03    -106.496E-03     212.945E-03    -106.003E-03     17.7563E-03
            1756     14.5700E-03     43.8198E-03    -10.3405E+06     117.662E+06     86.7115E+06    -445.606E+03    -105.740E-03     212.007E-03    -106.267E-03     43.8862E-03    -106.761E-03     213.157E-03    -105.989E-03     40.4793E-03
            1757     13.7613E-03     43.7666E-03    -15.4680E+06     112.498E+06     75.5925E+06     287.749E+03    -106.262E-03     212.465E-03    -106.203E-03     56.8675E-03    -107.415E-03     213.743E-03    -105.966E-03     53.3511E-03
            1758     12.9539E-03     43.6963E-03    -21.5884E+06     102.280E+06     65.8217E+06     566.445E+03    -106.490E-03     212.638E-03    -106.148E-03     70.9762E-03    -107.805E-03     214.049E-03    -105.936E-03     67.3101E-03
            1759     12.1431E-03     43.6130E-03    -27.4452E+06     58.9815E+06     53.8323E+06     27.8307E+03    -106.685E-03     212.824E-03    -106.139E-03     81.8450E-03    -108.057E-03     214.151E-03    -105.915E-03     78.0978E-03
            1760     11.3338E-03     43.5192E-03    -32.0915E+06     17.0274E+06     47.2481E+06      29.627E+03    -107.116E-03     213.273E-03    -106.157E-03     90.3348E-03    -108.504E-03     214.471E-03    -105.898E-03     86.5498E-03
            1761     10.5245E-03     43.4164E-03    -37.7377E+06    -13.3391E+06     37.4727E+06     103.159E+03    -107.445E-03     213.585E-03    -106.140E-03     95.6608E-03    -108.805E-03     214.655E-03    -105.879E-03     91.9168E-03
            1762     9.71531E-03     43.3101E-03    -43.7897E+06    -44.6806E+06     28.0272E+06     141.573E+03    -107.658E-03     213.783E-03    -106.124E-03     97.9586E-03    -108.930E-03     214.660E-03    -105.856E-03     94.3394E-03
            1763     8.90574E-03     43.2019E-03    -49.8044E+06    -71.1896E+06     17.9965E+06    -7.70854E+03    -107.745E-03     213.842E-03    -106.097E-03     97.5925E-03    -108.886E-03     214.501E-03    -105.832E-03     94.1835E-03
            1764     8.09640E-03     43.0956E-03    -56.0365E+06    -100.084E+06     7.78003E+06    -206.920E+03    -107.677E-03     213.751E-03    -106.074E-03     94.8823E-03    -108.654E-03     214.151E-03    -105.809E-03     91.7538E-03
            1765     7.28682E-03     42.9930E-03    -62.6304E+06    -124.869E+06    -2.42022E+06    -268.593E+03    -107.552E-03     213.601E-03    -106.049E-03     90.3923E-03    -108.363E-03     213.753E-03    -105.789E-03     87.5903E-03
            1766     6.47730E-03     42.8962E-03    -69.4504E+06    -149.043E+06    -12.5496E+06    -248.256E+03    -107.397E-03     213.419E-03    -106.022E-03     84.3877E-03    -108.049E-03     213.332E-03    -105.768E-03     81.9327E-03
            1767     5.66779E-03     42.8064E-03    -76.7784E+06    -171.769E+06    -23.4810E+06    -233.543E+03    -107.127E-03     213.118E-03    -105.991E-03     77.0481E-03    -107.635E-03     212.812E-03    -105.748E-03     74.9499E-03
            1768     4.85818E-03     42.7255E-03    -85.0341E+06    -193.172E+06    -36.4328E+06    -263.716E+03    -106.835E-03     212.788E-03    -105.953E-03     68.5319E-03    -107.222E-03     212.293E-03    -105.732E-03     66.7833E-03
            1769     4.04859E-03     42.6543E-03    -92.8391E+06    -209.315E+06    -52.3323E+06    -277.130E+03    -106.545E-03     212.439E-03    -105.894E-03     59.0011E-03    -106.830E-03     211.803E-03    -105.717E-03     57.5860E-03
            1770     3.23884E-03     42.5943E-03    -100.546E+06    -223.416E+06    -70.5125E+06    -219.762E+03    -106.245E-03     212.069E-03    -105.824E-03     48.5264E-03    -106.447E-03     211.326E-03    -105.707E-03     47.4277E-03
            1771     2.42920E-03     42.5464E-03    -107.712E+06    -242.623E+06    -86.7854E+06     308.075E+03    -106.027E-03     211.798E-03    -105.771E-03     37.3173E-03    -106.158E-03     210.938E-03    -105.697E-03     36.5190E-03
            1772     1.61942E-03     42.5111E-03    -113.718E+06    -256.272E+06    -101.421E+06     488.722E+03    -105.904E-03     211.595E-03    -105.691E-03     25.4955E-03    -105.986E-03     210.658E-03    -105.662E-03     24.9727E-03
            1773     810.140E-06     42.4894E-03    -118.600E+06    -258.494E+06    -114.735E+06    -8.14962E+03    -105.823E-03     211.243E-03    -105.420E-03     13.9622E-03    -105.885E-03     210.299E-03    -105.447E-03     13.6780E-03
            1774     15.3797E-03     42.6869E-03    -5.37784E+06     120.149E+06     97.2984E+06    -83.4346E+03    -105.909E-03     212.225E-03    -106.316E-03     20.0459E-03    -106.646E-03     213.087E-03    -105.996E-03     17.3424E-03
            1775     14.5718E-03     42.6460E-03    -10.8422E+06     118.274E+06     86.8178E+06     419.459E+03    -106.005E-03     212.252E-03    -106.248E-03     44.2128E-03    -107.028E-03     213.405E-03    -105.969E-03     40.8195E-03
            1776     13.7630E-03     42.5934E-03    -17.1602E+06     111.418E+06     74.7461E+06     151.022E+03    -106.077E-03     212.258E-03    -106.181E-03     57.5480E-03    -107.233E-03     213.533E-03    -105.944E-03     54.0526E-03
            1777     12.9518E-03     42.5237E-03    -21.3814E+06     102.733E+06     65.9096E+06     292.396E+03    -106.309E-03     212.446E-03    -106.138E-03     71.4873E-03    -107.622E-03     213.858E-03    -105.926E-03     67.8326E-03
            1778     12.1434E-03     42.4408E-03    -26.0716E+06     59.3353E+06     54.0247E+06     60.7926E+03    -106.848E-03     212.975E-03    -106.127E-03     81.7195E-03    -108.211E-03     214.299E-03    -105.905E-03     77.9704E-03
            1779     11.3342E-03     42.3464E-03    -32.1159E+06     16.7761E+06     47.2639E+06     32.8029E+03    -107.185E-03     213.323E-03    -106.138E-03     89.9646E-03    -108.568E-03     214.515E-03    -105.879E-03     86.1825E-03
            1780     10.5249E-03     42.2445E-03    -37.8691E+06    -12.9684E+06     37.3759E+06     276.794E+03    -107.479E-03     213.593E-03    -106.114E-03     95.4306E-03    -108.837E-03     214.662E-03    -105.853E-03     91.6909E-03
            1781     9.71533E-03     42.1379E-03    -43.6875E+06    -45.0711E+06     27.8140E+06    -96.1906E+03    -107.741E-03     213.832E-03    -106.090E-03     97.7403E-03    -109.010E-03     214.705E-03    -105.823E-03     94.1172E-03
            1782     8.90624E-03     42.0301E-03    -49.6654E+06    -70.8102E+06     18.1843E+06        -295.594    -107.781E-03     213.835E-03    -106.054E-03     97.2680E-03    -108.920E-03     214.493E-03    -105.789E-03     93.8613E-03
            1783     8.09676E-03     41.9240E-03    -56.1282E+06    -99.9318E+06     7.79308E+06    -36.4834E+03    -107.709E-03     213.730E-03    -106.021E-03     94.5522E-03    -108.684E-03     214.129E-03    -105.756E-03     91.4284E-03
            1784     7.28731E-03     41.8217E-03    -62.7910E+06    -124.773E+06    -2.43401E+06    -196.984E+03    -107.576E-03     213.562E-03    -105.985E-03     90.1040E-03    -108.386E-03     213.713E-03    -105.726E-03     87.3055E-03
            1785     6.47786E-03     41.7248E-03    -69.8499E+06    -149.233E+06    -12.5798E+06    -293.091E+03    -107.360E-03     213.311E-03    -105.951E-03     84.1132E-03    -108.012E-03     213.222E-03    -105.696E-03     81.6628E-03
            1786     5.66825E-03     41.6355E-03    -77.5000E+06    -171.711E+06    -23.5265E+06    -89.8717E+03    -107.081E-03     212.994E-03    -105.914E-03     76.7771E-03    -107.591E-03     212.688E-03    -105.670E-03     74.6854E-03
            1787     4.85859E-03     41.5546E-03    -85.1024E+06    -193.025E+06    -36.7367E+06    -326.897E+03    -106.775E-03     212.642E-03    -105.867E-03     68.3330E-03    -107.160E-03     212.147E-03    -105.648E-03     66.5877E-03
            1788     4.04889E-03     41.4837E-03    -93.3471E+06    -209.738E+06    -52.5814E+06    -439.496E+03    -106.457E-03     212.263E-03    -105.807E-03     58.8184E-03    -106.743E-03     211.626E-03    -105.630E-03     57.4041E-03
            1789     3.23919E-03     41.4239E-03    -101.397E+06    -223.747E+06    -70.4960E+06    -134.696E+03    -106.171E-03     211.905E-03    -105.735E-03     48.3857E-03    -106.376E-03     211.161E-03    -105.616E-03     47.2900E-03
            1790     2.42940E-03     41.3760E-03    -108.956E+06    -243.546E+06    -87.0180E+06     51.5476E+03    -105.936E-03     211.614E-03    -105.677E-03     37.2494E-03    -106.072E-03     210.750E-03    -105.601E-03     36.4510E-03
            1791     1.61978E-03     41.3409E-03    -115.911E+06    -255.675E+06    -103.738E+06     389.967E+03    -105.687E-03     211.308E-03    -105.621E-03     25.5425E-03    -105.778E-03     210.381E-03    -105.601E-03     25.0209E-03
            1792     809.568E-06     41.3193E-03    -120.235E+06    -257.890E+06    -117.737E+06    -167.099E+03    -105.530E-03     211.177E-03    -105.647E-03     14.0419E-03    -105.597E-03     210.243E-03    -105.688E-03     13.7533E-03
            1793     15.3806E-03     41.5140E-03    -5.06216E+06     119.540E+06     96.5764E+06     67.1967E+03    -105.793E-03     212.105E-03    -106.312E-03     20.6487E-03    -106.526E-03     212.965E-03    -105.995E-03     17.9604E-03
            1794     14.5708E-03     41.4717E-03    -10.7110E+06     117.777E+06     86.8125E+06     126.470E+03    -105.938E-03     212.191E-03    -106.253E-03     44.5866E-03    -106.958E-03     213.340E-03    -105.974E-03     41.2028E-03
            1795     13.7610E-03     41.4218E-03    -15.0240E+06     112.267E+06     76.3989E+06     116.546E+03    -106.146E-03     212.337E-03    -106.191E-03     57.2926E-03    -107.294E-03     213.608E-03    -105.950E-03     53.7963E-03
            1796     12.9530E-03     41.3505E-03    -21.0784E+06     102.083E+06     65.7638E+06    -271.101E+03    -106.526E-03     212.660E-03    -106.134E-03     70.9657E-03    -107.835E-03     214.065E-03    -105.922E-03     67.2948E-03
            1797     12.1435E-03     41.2677E-03    -26.5948E+06     59.7133E+06     54.1718E+06     289.897E+03    -106.947E-03     213.059E-03    -106.112E-03     81.2529E-03    -108.310E-03     214.383E-03    -105.890E-03     77.5032E-03
            1798     11.3345E-03     41.1743E-03    -32.1301E+06     16.5229E+06     46.9944E+06     325.399E+03    -107.310E-03     213.421E-03    -106.111E-03     89.7371E-03    -108.691E-03     214.610E-03    -105.853E-03     85.9559E-03
            1799     10.5250E-03     41.0723E-03    -38.0264E+06    -13.0598E+06     37.3596E+06    -29.1627E+03    -107.596E-03     213.672E-03    -106.076E-03     95.0824E-03    -108.952E-03     214.738E-03    -105.815E-03     91.3359E-03
            1800     9.71606E-03     40.9657E-03    -43.8596E+06    -44.3393E+06     28.0384E+06     44.5050E+03    -107.738E-03     213.781E-03    -106.043E-03     97.2833E-03    -109.004E-03     214.652E-03    -105.775E-03     93.6676E-03
            1801     8.90660E-03     40.8583E-03    -50.1481E+06    -71.2909E+06     17.7687E+06    -149.392E+03    -107.780E-03     213.779E-03    -105.999E-03     96.9125E-03    -108.915E-03     214.432E-03    -105.734E-03     93.5089E-03
            1802     8.09728E-03     40.7524E-03    -56.3142E+06    -99.7345E+06     7.91350E+06     32.4421E+03    -107.754E-03     213.713E-03    -105.959E-03     94.2452E-03    -108.728E-03     214.110E-03    -105.693E-03     91.1249E-03
            1803     7.28795E-03     40.6503E-03    -62.9911E+06    -124.707E+06    -2.40191E+06    -20.7374E+03    -107.583E-03     213.494E-03    -105.911E-03     89.8106E-03    -108.392E-03     213.643E-03    -105.650E-03     87.0186E-03
            1804     6.47831E-03     40.5539E-03    -70.1123E+06    -149.158E+06    -12.7687E+06    -48.6158E+03    -107.321E-03     213.187E-03    -105.866E-03     83.8178E-03    -107.971E-03     213.096E-03    -105.612E-03     81.3769E-03
            1805     5.66873E-03     40.4645E-03    -77.3112E+06    -171.809E+06    -23.4554E+06    -290.893E+03    -107.010E-03     212.834E-03    -105.824E-03     76.5076E-03    -107.517E-03     212.525E-03    -105.580E-03     74.4189E-03
            1806     4.85910E-03     40.3841E-03    -85.4573E+06    -192.844E+06    -36.1576E+06    -213.092E+03    -106.681E-03     212.459E-03    -105.778E-03     68.1249E-03    -107.068E-03     211.963E-03    -105.555E-03     66.3853E-03
            1807     4.04931E-03     40.3132E-03    -93.9339E+06    -209.916E+06    -52.6448E+06    -177.180E+03    -106.356E-03     212.070E-03    -105.714E-03     58.6516E-03    -106.644E-03     211.432E-03    -105.536E-03     57.2461E-03
            1808     3.23947E-03     40.2536E-03    -101.812E+06    -224.100E+06    -70.6583E+06    -307.617E+03    -106.047E-03     211.692E-03    -105.645E-03     48.2919E-03    -106.253E-03     210.946E-03    -105.526E-03     47.1988E-03
            1809     2.42967E-03     40.2058E-03    -109.321E+06    -243.915E+06    -87.2165E+06     16.3429E+03    -105.780E-03     211.385E-03    -105.605E-03     37.2031E-03    -105.916E-03     210.520E-03    -105.529E-03     36.4061E-03
            1810     1.61957E-03     40.1711E-03    -115.597E+06    -255.630E+06    -103.651E+06    -57.0116E+03    -105.582E-03     211.160E-03    -105.578E-03     25.4401E-03    -105.671E-03     210.232E-03    -105.558E-03     24.9115E-03
            1811     809.766E-06     40.1495E-03    -120.080E+06    -257.580E+06    -116.892E+06     240.532E+03    -105.503E-03     211.124E-03    -105.621E-03     13.8761E-03    -105.571E-03     210.190E-03    -105.658E-03     13.5997E-03
            1812     15.3797E-03     40.3398E-03    -4.40546E+06     120.090E+06     97.0054E+06     79.4410E+03    -106.027E-03     212.342E-03    -106.316E-03     20.4931E-03    -106.758E-03     213.203E-03    -105.998E-03     17.7943E-03
            1813     14.5709E-03     40.3000E-03    -9.70273E+06     118.030E+06     86.5039E+06    -470.082E+03    -106.077E-03     212.319E-03    -106.242E-03     43.5156E-03    -107.090E-03     213.465E-03    -105.966E-03     40.1028E-03
            1814     13.7625E-03     40.2473E-03    -15.3341E+06     111.586E+06     75.1503E+06    -77.3619E+03    -106.310E-03     212.477E-03    -106.167E-03     56.3856E-03    -107.452E-03     213.743E-03    -105.931E-03     52.8755E-03
            1815     12.9530E-03     40.1780E-03    -20.6855E+06     102.359E+06     66.1124E+06     575.405E+03    -106.515E-03     212.624E-03    -106.109E-03     70.6454E-03    -107.818E-03     214.025E-03    -105.897E-03     66.9893E-03
            1816     12.1438E-03     40.0951E-03    -26.6843E+06     59.1039E+06     53.8783E+06     250.602E+03    -106.958E-03     213.042E-03    -106.084E-03     81.0575E-03    -108.316E-03     214.359E-03    -105.862E-03     77.3110E-03
            1817     11.3345E-03     40.0017E-03    -32.0714E+06     16.9199E+06     47.1348E+06     53.5297E+03    -107.460E-03     213.535E-03    -106.074E-03     89.2600E-03    -108.838E-03     214.722E-03    -105.817E-03     85.4702E-03
            1818     10.5260E-03     39.8996E-03    -37.6744E+06    -13.1785E+06     37.4010E+06     67.5238E+03    -107.684E-03     213.710E-03    -106.026E-03     94.7297E-03    -109.034E-03     214.770E-03    -105.765E-03     90.9863E-03
            1819     9.71655E-03     39.7941E-03    -43.6855E+06    -44.1772E+06     28.1813E+06     278.299E+03    -107.763E-03     213.746E-03    -105.983E-03     96.9937E-03    -109.024E-03     214.614E-03    -105.715E-03     93.3873E-03
            1820     8.90720E-03     39.6865E-03    -49.8430E+06    -70.8176E+06     18.0365E+06     160.298E+03    -107.784E-03     213.716E-03    -105.932E-03     96.5804E-03    -108.915E-03     214.366E-03    -105.667E-03     93.1877E-03
            1821     8.09795E-03     39.5809E-03    -56.4372E+06    -100.286E+06     7.59322E+06    -82.8593E+03    -107.738E-03     213.621E-03    -105.883E-03     93.9063E-03    -108.707E-03     214.012E-03    -105.618E-03     90.7906E-03
            1822     7.28840E-03     39.4792E-03    -62.9665E+06    -124.457E+06    -2.46019E+06     100.320E+03    -107.575E-03     213.401E-03    -105.826E-03     89.4634E-03    -108.380E-03     213.548E-03    -105.567E-03     86.6781E-03
            1823     6.47907E-03     39.3828E-03    -69.7735E+06    -148.986E+06    -12.6597E+06    -38.9539E+03    -107.277E-03     213.051E-03    -105.773E-03     83.4804E-03    -107.923E-03     212.957E-03    -105.519E-03     81.0462E-03
            1824     5.66936E-03     39.2941E-03    -77.5149E+06    -171.643E+06    -23.4774E+06     4.00648E+03    -106.918E-03     212.645E-03    -105.726E-03     76.2511E-03    -107.425E-03     212.334E-03    -105.482E-03     74.1746E-03
            1825     4.85949E-03     39.2136E-03    -85.8036E+06    -193.102E+06    -36.4979E+06    -73.0991E+03    -106.587E-03     212.264E-03    -105.676E-03     67.8860E-03    -106.973E-03     211.766E-03    -105.454E-03     66.1547E-03
            1826     4.04969E-03     39.1431E-03    -93.8042E+06    -209.600E+06    -52.2763E+06    -161.343E+03    -106.242E-03     211.856E-03    -105.614E-03     58.4262E-03    -106.529E-03     211.217E-03    -105.435E-03     57.0262E-03
            1827     3.23978E-03     39.0836E-03    -102.158E+06    -224.382E+06    -70.7951E+06    -248.675E+03    -105.912E-03     211.461E-03    -105.549E-03     48.0707E-03    -106.119E-03     210.714E-03    -105.429E-03     46.9825E-03
            1828     2.42966E-03     39.0361E-03    -109.569E+06    -244.163E+06    -87.3280E+06    -506.555E+03    -105.690E-03     211.201E-03    -105.510E-03     36.9405E-03    -105.827E-03     210.335E-03    -105.434E-03     36.1382E-03
            1829     1.61984E-03     39.0011E-03    -115.867E+06    -255.799E+06    -103.502E+06    -402.672E+03    -105.555E-03     211.013E-03    -105.458E-03     25.2243E-03    -105.645E-03     210.084E-03    -105.436E-03     24.6952E-03
            1830     809.993E-06     38.9795E-03    -120.277E+06    -258.043E+06    -117.264E+06    -269.871E+03    -105.592E-03     210.831E-03    -105.239E-03     13.9946E-03    -105.659E-03     209.895E-03    -105.277E-03     13.7146E-03
            1831     15.3808E-03     39.1668E-03    -5.47719E+06     119.825E+06     96.7146E+06    -585.822E+03    -106.174E-03     212.480E-03    -106.306E-03     20.2682E-03    -106.910E-03     213.342E-03    -105.988E-03     17.5534E-03
            1832     14.5720E-03     39.1256E-03    -10.4848E+06     117.797E+06     86.4617E+06     403.888E+03    -106.234E-03     212.458E-03    -106.224E-03     44.0126E-03    -107.251E-03     213.605E-03    -105.947E-03     40.6136E-03
            1833     13.7626E-03     39.0750E-03    -16.2768E+06     111.243E+06     74.6981E+06     490.814E+03    -106.362E-03     212.503E-03    -106.141E-03     56.6397E-03    -107.506E-03     213.767E-03    -105.905E-03     53.1450E-03
            1834     12.9534E-03     39.0051E-03    -21.5147E+06     102.087E+06     65.3760E+06     143.975E+03    -106.580E-03     212.656E-03    -106.076E-03     70.4066E-03    -107.881E-03     214.054E-03    -105.866E-03     66.7512E-03
            1835     12.1442E-03     38.9223E-03    -26.3954E+06     59.5591E+06     53.8790E+06     269.121E+03    -107.079E-03     213.122E-03    -106.043E-03     80.7470E-03    -108.431E-03     214.436E-03    -105.822E-03     77.0043E-03
            1836     11.3357E-03     38.8287E-03    -32.0501E+06     16.9508E+06     47.1233E+06     167.863E+03    -107.471E-03     213.498E-03    -106.026E-03     89.0256E-03    -108.844E-03     214.680E-03    -105.769E-03     85.2438E-03
            1837     10.5260E-03     38.7277E-03    -38.0297E+06    -12.8996E+06     37.1950E+06     274.924E+03    -107.721E-03     213.691E-03    -105.970E-03     94.3656E-03    -109.067E-03     214.749E-03    -105.710E-03     90.6307E-03
            1838     9.71713E-03     38.6217E-03    -43.8762E+06    -44.5626E+06     27.8826E+06     140.030E+03    -107.844E-03     213.761E-03    -105.917E-03     96.5884E-03    -109.100E-03     214.622E-03    -105.649E-03     92.9830E-03
            1839     8.90808E-03     38.5150E-03    -49.8523E+06    -70.6363E+06     18.0633E+06     351.709E+03    -107.816E-03     213.670E-03    -105.854E-03     96.2106E-03    -108.943E-03     214.316E-03    -105.589E-03     92.8252E-03
            1840     8.09852E-03     38.4095E-03    -56.1947E+06    -99.8791E+06     7.59331E+06     273.367E+03    -107.713E-03     213.507E-03    -105.794E-03     93.5511E-03    -108.677E-03     213.895E-03    -105.530E-03     90.4482E-03
            1841     7.28929E-03     38.3079E-03    -62.9578E+06    -124.550E+06    -2.60265E+06     4.71922E+03    -107.495E-03     213.227E-03    -105.732E-03     89.0875E-03    -108.296E-03     213.370E-03    -105.473E-03     86.3111E-03
            1842     6.47957E-03     38.2122E-03    -70.0751E+06    -148.996E+06    -12.8372E+06     198.136E+03    -107.190E-03     212.866E-03    -105.676E-03     83.1746E-03    -107.834E-03     212.770E-03    -105.423E-03     80.7521E-03
            1843     5.66986E-03     38.1236E-03    -77.5689E+06    -171.648E+06    -23.7379E+06     188.638E+03    -106.881E-03     212.503E-03    -105.622E-03     75.9891E-03    -107.385E-03     212.191E-03    -105.379E-03     73.9213E-03
            1844     4.86014E-03     38.0435E-03    -85.3061E+06    -192.805E+06    -36.6505E+06    -10.9622E+03    -106.537E-03     212.096E-03    -105.560E-03     67.5621E-03    -106.919E-03     211.597E-03    -105.340E-03     65.8382E-03
            1845     4.05019E-03     37.9731E-03    -93.7892E+06    -209.828E+06    -52.5631E+06    -23.6847E+03    -106.151E-03     211.638E-03    -105.487E-03     58.0517E-03    -106.435E-03     210.997E-03    -105.310E-03     56.6590E-03
            1846     3.24013E-03     37.9140E-03    -101.723E+06    -223.836E+06    -70.2836E+06    -41.2260E+03    -105.834E-03     211.245E-03    -105.411E-03     47.7276E-03    -106.039E-03     210.498E-03    -105.291E-03     46.6471E-03
            1847     2.43027E-03     37.8664E-03    -109.614E+06    -244.193E+06    -87.2930E+06    -672.882E+03    -105.604E-03     210.954E-03    -105.351E-03     36.6864E-03    -105.740E-03     210.087E-03    -105.274E-03     35.8868E-03
            1848     1.62023E-03     37.8316E-03    -116.637E+06    -256.586E+06    -103.995E+06    -761.073E+03    -105.402E-03     210.678E-03    -105.276E-03     25.1391E-03    -105.494E-03     209.746E-03    -105.255E-03     24.6087E-03
            1849     810.054E-06     37.8101E-03    -120.979E+06    -258.980E+06    -118.329E+06    -42.0600E+03    -105.401E-03     210.449E-03    -105.048E-03     13.9124E-03    -105.469E-03     209.511E-03    -105.088E-03     13.6333E-03
            1850     15.3801E-03     37.9938E-03    -5.63765E+06     119.320E+06     96.3635E+06    -42.1356E+03    -106.073E-03     212.376E-03    -106.303E-03     20.8210E-03    -106.809E-03     213.236E-03    -105.986E-03     18.1220E-03
            1851     14.5708E-03     37.9520E-03    -11.4526E+06     116.652E+06     86.1410E+06    -312.070E+03    -106.328E-03     212.552E-03    -106.223E-03     43.9536E-03    -107.346E-03     213.693E-03    -105.945E-03     40.5490E-03
            1852     13.7625E-03     37.9015E-03    -15.8411E+06     111.541E+06     75.7332E+06     206.803E+03    -106.606E-03     212.738E-03    -106.132E-03     56.1870E-03    -107.746E-03     213.999E-03    -105.892E-03     52.6812E-03
            1853     12.9540E-03     37.8320E-03    -21.4349E+06     102.255E+06     65.5226E+06     330.085E+03    -106.861E-03     212.906E-03    -106.045E-03     70.2694E-03    -108.160E-03     214.302E-03    -105.835E-03     66.6094E-03
            1854     12.1452E-03     37.7495E-03    -27.1699E+06     59.7405E+06     53.7419E+06    -48.0170E+03    -107.182E-03     213.180E-03    -105.998E-03     80.6242E-03    -108.536E-03     214.493E-03    -105.776E-03     76.8770E-03
            1855     11.3355E-03     37.6564E-03    -32.6611E+06     16.8783E+06     46.7562E+06     346.784E+03    -107.558E-03     213.526E-03    -105.969E-03     88.6229E-03    -108.927E-03     214.704E-03    -105.712E-03     84.8473E-03
            1856     10.5272E-03     37.5550E-03    -38.2214E+06    -12.5756E+06     37.1372E+06     288.262E+03    -107.777E-03     213.679E-03    -105.901E-03     93.7494E-03    -109.118E-03     214.731E-03    -105.642E-03     90.0192E-03
            1857     9.71803E-03     37.4499E-03    -44.2418E+06    -44.7341E+06     27.4917E+06     113.592E+03    -107.837E-03     213.674E-03    -105.838E-03     96.1112E-03    -109.088E-03     214.530E-03    -105.571E-03     92.5140E-03
            1858     8.90857E-03     37.3432E-03    -50.3476E+06    -71.1271E+06     17.5495E+06     157.618E+03    -107.825E-03     213.591E-03    -105.765E-03     95.8102E-03    -108.948E-03     214.231E-03    -105.501E-03     92.4302E-03
            1859     8.09959E-03     37.2382E-03    -56.4472E+06    -99.4092E+06     7.55045E+06     331.614E+03    -107.676E-03     213.372E-03    -105.697E-03     93.1725E-03    -108.637E-03     213.758E-03    -105.433E-03     90.0815E-03
            1860     7.28985E-03     37.1371E-03    -63.0053E+06    -124.596E+06    -2.73213E+06     346.675E+03    -107.400E-03     213.030E-03    -105.630E-03     88.7109E-03    -108.196E-03     213.168E-03    -105.372E-03     85.9522E-03
            1861     6.48027E-03     37.0417E-03    -69.9762E+06    -149.042E+06    -13.1406E+06     221.273E+03    -107.148E-03     212.715E-03    -105.567E-03     82.7753E-03    -107.787E-03     212.615E-03    -105.315E-03     80.3617E-03
            1862     5.67054E-03     36.9533E-03    -77.3331E+06    -171.594E+06    -24.0680E+06     124.828E+03    -106.859E-03     212.358E-03    -105.498E-03     75.5503E-03    -107.359E-03     212.043E-03    -105.258E-03     73.4879E-03
            1863     4.86072E-03     36.8734E-03    -85.1686E+06    -192.730E+06    -36.6530E+06     219.891E+03    -106.473E-03     211.896E-03    -105.423E-03     67.1254E-03    -106.852E-03     211.395E-03    -105.203E-03     65.4115E-03
            1864     4.05084E-03     36.8036E-03    -93.0495E+06    -209.652E+06    -52.6847E+06     53.3954E+03    -106.084E-03     211.416E-03    -105.332E-03     57.7415E-03    -106.364E-03     210.774E-03    -105.156E-03     56.3561E-03
            1865     3.24088E-03     36.7444E-03    -100.938E+06    -223.666E+06    -70.5882E+06    -232.376E+03    -105.742E-03     210.977E-03    -105.235E-03     47.5308E-03    -105.942E-03     210.230E-03    -105.118E-03     46.4522E-03
            1866     2.43064E-03     36.6971E-03    -108.170E+06    -243.076E+06    -86.9485E+06    -393.981E+03    -105.440E-03     210.601E-03    -105.162E-03     36.5197E-03    -105.570E-03     209.737E-03    -105.087E-03     35.7289E-03
            1867     1.62041E-03     36.6626E-03    -114.708E+06    -257.972E+06    -102.809E+06    -868.454E+03    -105.204E-03     210.301E-03    -105.097E-03     25.0501E-03    -105.286E-03     209.357E-03    -105.070E-03     24.5214E-03
            1868     810.313E-06     36.6409E-03    -119.516E+06    -259.926E+06    -115.593E+06    -88.1308E+03    -105.113E-03     210.107E-03    -104.994E-03     13.9024E-03    -105.176E-03     209.159E-03    -105.022E-03     13.6223E-03
            1869     15.3801E-03     36.8196E-03    -4.73816E+06     120.305E+06     97.3681E+06     369.291E+03    -106.528E-03     212.815E-03    -106.287E-03     19.6956E-03    -107.258E-03     213.672E-03    -105.967E-03     16.9906E-03
            1870     14.5723E-03     36.7784E-03    -10.1219E+06     117.164E+06     86.2328E+06    -352.217E+03    -106.229E-03     212.421E-03    -106.192E-03     42.9229E-03    -107.235E-03     213.557E-03    -105.916E-03     39.5151E-03
            1871     13.7631E-03     36.7280E-03    -16.2078E+06     110.320E+06     74.3483E+06    -424.643E+03    -106.558E-03     212.659E-03    -106.100E-03     55.9433E-03    -107.694E-03     213.913E-03    -105.865E-03     52.4321E-03
            1872     12.9542E-03     36.6585E-03    -21.1921E+06     102.210E+06     65.4907E+06     245.651E+03    -107.054E-03     213.064E-03    -106.011E-03     69.8455E-03    -108.348E-03     214.457E-03    -105.801E-03     66.1769E-03
            1873     12.1452E-03     36.5767E-03    -26.6498E+06     59.5045E+06     53.5274E+06     637.001E+03    -107.434E-03     213.378E-03    -105.944E-03     80.0171E-03    -108.779E-03     214.684E-03    -105.724E-03     76.2732E-03
            1874     11.3373E-03     36.4833E-03    -32.5757E+06     17.3906E+06     47.0182E+06     325.628E+03    -107.627E-03     213.527E-03    -105.900E-03     88.1632E-03    -108.990E-03     214.700E-03    -105.643E-03     84.3938E-03
            1875     10.5278E-03     36.3829E-03    -38.3252E+06    -12.6453E+06     36.9499E+06     163.511E+03    -107.749E-03     213.573E-03    -105.824E-03     93.4927E-03    -109.083E-03     214.619E-03    -105.565E-03     89.7731E-03
            1876     9.71870E-03     36.2780E-03    -44.0247E+06    -44.8323E+06     27.3987E+06     239.703E+03    -107.872E-03     213.625E-03    -105.753E-03     95.8217E-03    -109.116E-03     214.474E-03    -105.487E-03     92.2348E-03
            1877     8.90978E-03     36.1717E-03    -50.1334E+06    -70.9493E+06     17.5135E+06     224.863E+03    -107.823E-03     213.493E-03    -105.670E-03     95.4278E-03    -108.938E-03     214.128E-03    -105.407E-03     92.0596E-03
            1878     8.10011E-03     36.0671E-03    -56.5335E+06    -99.7462E+06     7.20571E+06     291.957E+03    -107.653E-03     213.244E-03    -105.591E-03     92.6828E-03    -108.607E-03     213.623E-03    -105.329E-03     89.6033E-03
            1879     7.29078E-03     35.9665E-03    -62.8992E+06    -124.352E+06    -2.94555E+06     360.512E+03    -107.430E-03     212.940E-03    -105.509E-03     88.1674E-03    -108.221E-03     213.074E-03    -105.253E-03     85.4168E-03
            1880     6.48109E-03     35.8713E-03    -69.7287E+06    -148.902E+06    -13.4239E+06     219.818E+03    -107.150E-03     212.576E-03    -105.426E-03     82.2067E-03    -107.783E-03     212.472E-03    -105.176E-03     79.8015E-03
            1881     5.67145E-03     35.7831E-03    -77.0649E+06    -171.406E+06    -24.3163E+06     150.175E+03    -106.765E-03     212.106E-03    -105.342E-03     74.9899E-03    -107.259E-03     211.789E-03    -105.103E-03     72.9379E-03
            1882     4.86159E-03     35.7038E-03    -84.6472E+06    -192.717E+06    -36.9508E+06     5.37924E+03    -106.354E-03     211.609E-03    -105.255E-03     66.6524E-03    -106.727E-03     211.105E-03    -105.037E-03     64.9441E-03
            1883     4.05150E-03     35.6341E-03    -92.6100E+06    -209.481E+06    -52.5940E+06    -4.67906E+03    -105.973E-03     211.126E-03    -105.153E-03     57.3671E-03    -106.248E-03     210.482E-03    -104.978E-03     55.9874E-03
            1884     3.24132E-03     35.5753E-03    -100.172E+06    -223.537E+06    -70.8683E+06    -233.093E+03    -105.589E-03     210.631E-03    -105.042E-03     47.1794E-03    -105.784E-03     209.882E-03    -104.926E-03     46.1059E-03
            1885     2.43116E-03     35.5284E-03    -106.612E+06    -242.407E+06    -86.9797E+06    -760.447E+03    -105.248E-03     210.209E-03    -104.961E-03     36.2542E-03    -105.371E-03     209.345E-03    -104.890E-03     35.4625E-03
            1886     1.62086E-03     35.4939E-03    -112.562E+06    -258.952E+06    -100.887E+06    -776.238E+03    -105.018E-03     209.923E-03    -104.904E-03     24.8845E-03    -105.090E-03     208.969E-03    -104.870E-03     24.3596E-03
            1887     810.265E-06     35.4726E-03    -117.898E+06    -261.123E+06    -113.933E+06    -504.258E+03    -104.871E-03     209.717E-03    -104.846E-03     13.7649E-03    -104.927E-03     208.758E-03    -104.866E-03     13.4810E-03
            1888     15.3826E-03     35.6453E-03    -5.20783E+06     119.760E+06     96.7848E+06     6.63209E+03    -106.686E-03     212.958E-03    -106.272E-03     20.3692E-03    -107.419E-03     213.817E-03    -105.954E-03     17.6551E-03
            1889     14.5724E-03     35.6062E-03    -10.1000E+06     117.654E+06     86.8389E+06     955.651E+03    -106.526E-03     212.694E-03    -106.168E-03     43.6110E-03    -107.535E-03     213.833E-03    -105.890E-03     40.2209E-03
            1890     13.7633E-03     35.5542E-03    -16.1513E+06     110.857E+06     74.5804E+06     359.070E+03    -106.747E-03     212.806E-03    -106.059E-03     55.8608E-03    -107.879E-03     214.058E-03    -105.824E-03     52.3627E-03
            1891     12.9548E-03     35.4852E-03    -22.5071E+06     101.110E+06     64.3161E+06    -74.8536E+03    -107.116E-03     213.072E-03    -105.956E-03     69.3114E-03    -108.406E-03     214.455E-03    -105.748E-03     65.6471E-03
            1892     12.1469E-03     35.4029E-03    -27.5245E+06     59.6739E+06     53.2150E+06     356.641E+03    -107.441E-03     213.325E-03    -105.884E-03     79.7059E-03    -108.783E-03     214.626E-03    -105.664E-03     75.9701E-03
            1893     11.3373E-03     35.3112E-03    -32.2764E+06     17.4172E+06     46.9401E+06     291.092E+03    -107.638E-03     213.473E-03    -105.835E-03     87.9562E-03    -108.993E-03     214.639E-03    -105.579E-03     84.1976E-03
            1894     10.5285E-03     35.2107E-03    -37.9653E+06    -12.5352E+06     37.0065E+06     327.674E+03    -107.821E-03     213.571E-03    -105.751E-03     93.2155E-03    -109.147E-03     214.611E-03    -105.492E-03     89.5065E-03
            1895     9.71970E-03     35.1061E-03    -44.0878E+06    -44.7008E+06     27.1019E+06     302.782E+03    -107.965E-03     213.629E-03    -105.664E-03     95.4065E-03    -109.203E-03     214.473E-03    -105.400E-03     91.8267E-03
            1896     8.91031E-03     35.0003E-03    -50.1587E+06     -71.014E+06     17.2371E+06     408.696E+03    -107.909E-03     213.473E-03    -105.564E-03     94.8282E-03    -109.017E-03     214.100E-03    -105.302E-03     91.4706E-03
            1897     8.10131E-03     34.8962E-03    -56.4004E+06    -99.4879E+06     7.04391E+06     399.428E+03    -107.731E-03     213.195E-03    -105.463E-03     91.9982E-03    -108.679E-03     213.568E-03    -105.202E-03     88.9270E-03
            1898     7.29177E-03     34.7958E-03    -63.0438E+06    -124.428E+06    -3.34689E+06     181.149E+03    -107.482E-03     212.838E-03    -105.356E-03     87.5073E-03    -108.267E-03     212.968E-03    -105.101E-03     84.7607E-03
            1899     6.48241E-03     34.7010E-03    -69.7648E+06    -148.717E+06    -13.6199E+06     204.844E+03    -107.111E-03     212.361E-03    -105.250E-03     81.5686E-03    -107.740E-03     212.254E-03    -105.002E-03     79.1730E-03
            1900     5.67252E-03     34.6135E-03    -76.7903E+06    -171.231E+06    -24.3937E+06     2.28355E+03    -106.653E-03     211.801E-03    -105.148E-03     74.3573E-03    -107.142E-03     211.481E-03    -104.911E-03     72.3140E-03
            1901     4.86246E-03     34.5344E-03    -84.5774E+06    -192.457E+06    -37.0826E+06    -73.4412E+03    -106.202E-03     211.250E-03    -105.048E-03     66.0705E-03    -106.572E-03     210.744E-03    -104.831E-03     64.3715E-03
            1902     4.05242E-03     34.4651E-03    -92.4527E+06    -209.430E+06    -52.7463E+06    -108.526E+03    -105.774E-03     210.711E-03    -104.937E-03     56.8835E-03    -106.047E-03     210.065E-03    -104.763E-03     55.5121E-03
            1903     3.24221E-03     34.4066E-03    -99.6778E+06    -222.995E+06    -70.5097E+06    -496.105E+03    -105.360E-03     210.184E-03    -104.824E-03     46.7906E-03    -105.553E-03     209.435E-03    -104.708E-03     45.7214E-03
            1904     2.43169E-03     34.3600E-03    -106.925E+06    -242.551E+06    -87.2277E+06    -768.696E+03    -105.036E-03     209.776E-03    -104.740E-03     36.0019E-03    -105.159E-03     208.911E-03    -104.669E-03     35.2137E-03
            1905     1.62105E-03     34.3258E-03    -113.740E+06    -259.943E+06    -101.644E+06    -524.256E+03    -104.840E-03     209.504E-03    -104.664E-03     24.7108E-03    -104.916E-03     208.548E-03    -104.630E-03     24.1905E-03
            1906     810.791E-06     34.3043E-03    -118.899E+06    -262.221E+06    -115.112E+06     14.2137E+03    -104.681E-03     209.197E-03    -104.516E-03     13.5076E-03    -104.738E-03     208.235E-03    -104.539E-03     13.2343E-03
            1907     15.3782E-03     34.4712E-03    -5.29589E+06     118.793E+06     96.2093E+06    -59.2062E+03    -106.638E-03     212.918E-03    -106.280E-03     20.1891E-03    -107.369E-03     213.773E-03    -105.964E-03     17.4622E-03
            1908     14.5722E-03     34.4311E-03    -11.3647E+06     116.486E+06     85.5613E+06    -13.8347E+03    -107.084E-03     213.244E-03    -106.159E-03     43.1245E-03    -108.096E-03     214.380E-03    -105.884E-03     39.6931E-03
            1909     13.7647E-03     34.3809E-03    -15.9770E+06     111.731E+06     75.1841E+06     1.20511E+06    -107.176E-03     213.202E-03    -106.025E-03     55.8585E-03    -108.307E-03     214.455E-03    -105.788E-03     52.3651E-03
            1910     12.9561E-03     34.3115E-03    -21.0113E+06     102.268E+06     65.4581E+06     661.422E+03    -107.151E-03     213.057E-03    -105.907E-03     69.3779E-03    -108.432E-03     214.437E-03    -105.697E-03     65.7335E-03
            1911     12.1464E-03     34.2305E-03    -26.5171E+06     59.4189E+06     53.4248E+06    -378.491E+03    -107.398E-03     213.228E-03    -105.830E-03     79.4295E-03    -108.728E-03     214.520E-03    -105.611E-03     75.6947E-03
            1912     11.3383E-03     34.1382E-03    -32.1438E+06     16.6567E+06     46.5704E+06     215.113E+03    -107.804E-03     213.575E-03    -105.771E-03     87.4739E-03    -109.149E-03     214.730E-03    -105.516E-03     83.7175E-03
            1913     10.5295E-03     34.0385E-03    -38.1417E+06    -12.6214E+06     36.6668E+06     684.056E+03    -108.074E-03     213.738E-03    -105.664E-03     92.5367E-03    -109.393E-03     214.770E-03    -105.407E-03     88.8305E-03
            1914     9.72038E-03     33.9341E-03     -44.196E+06    -44.0811E+06     27.1256E+06     732.374E+03    -108.082E-03     213.635E-03    -105.553E-03     94.5375E-03    -109.312E-03     214.473E-03    -105.289E-03     90.9704E-03
            1915     8.91179E-03     33.8287E-03     -50.538E+06    -70.9243E+06     16.8515E+06     400.498E+03    -107.977E-03     213.406E-03    -105.429E-03     94.0002E-03    -109.078E-03     214.027E-03    -105.169E-03     90.6512E-03
            1916     8.10246E-03     33.7253E-03    -56.7674E+06    -99.5961E+06     6.62974E+06     190.055E+03    -107.811E-03     213.115E-03    -105.304E-03     91.3124E-03    -108.753E-03     213.483E-03    -105.044E-03     88.2450E-03
            1917     7.29331E-03     33.6252E-03    -62.9888E+06    -124.116E+06    -3.33978E+06     233.035E+03    -107.480E-03     212.653E-03    -105.173E-03     86.8306E-03    -108.260E-03     212.778E-03    -104.918E-03     84.0953E-03
            1918     6.48355E-03     33.5312E-03    -69.7978E+06    -148.625E+06    -13.7325E+06     60.9651E+03    -107.039E-03     212.084E-03    -105.045E-03     80.8786E-03    -107.664E-03     211.973E-03    -104.797E-03     78.4925E-03
            1919     5.67385E-03     33.4440E-03    -77.1207E+06    -170.922E+06    -24.6713E+06     14.3430E+03    -106.545E-03     211.467E-03    -104.922E-03     73.7271E-03    -107.032E-03     211.144E-03    -104.685E-03     71.6957E-03
            1920     4.86388E-03     33.3657E-03    -84.6492E+06    -192.287E+06    -37.3239E+06    -154.440E+03    -106.033E-03     210.836E-03    -104.803E-03     65.5391E-03    -106.400E-03     210.328E-03    -104.588E-03     63.8506E-03
            1921     4.05344E-03     33.2966E-03    -92.3762E+06    -209.276E+06    -52.7609E+06    -429.970E+03    -105.524E-03     210.208E-03    -104.684E-03     56.4064E-03    -105.794E-03     209.560E-03    -104.510E-03     55.0415E-03
            1922     3.24283E-03     33.2386E-03    -100.405E+06    -223.074E+06    -70.5581E+06    -334.025E+03    -105.091E-03     209.661E-03    -104.570E-03     46.3654E-03    -105.286E-03     208.912E-03    -104.454E-03     45.3065E-03
            1923     2.43222E-03     33.1922E-03    -107.797E+06    -242.743E+06    -87.5301E+06    -139.031E+03    -104.817E-03     209.294E-03    -104.476E-03     35.6500E-03    -104.944E-03     208.430E-03    -104.406E-03     34.8760E-03
            1924     1.62173E-03     33.1581E-03    -114.188E+06    -260.697E+06    -102.387E+06    -210.440E+03    -104.570E-03     208.957E-03    -104.387E-03     24.4261E-03    -104.645E-03     207.998E-03    -104.355E-03     23.9167E-03
            1925     810.777E-06     33.1370E-03    -118.656E+06    -262.502E+06    -115.024E+06    -250.363E+03    -104.412E-03     208.644E-03    -104.232E-03     13.4109E-03    -104.468E-03     207.680E-03    -104.254E-03     13.1362E-03
            1926     15.3831E-03     33.2972E-03    -4.93147E+06     118.682E+06     96.2484E+06     255.219E+03    -106.828E-03     213.098E-03    -106.270E-03     20.2385E-03    -107.556E-03     213.951E-03    -105.954E-03     17.5233E-03
            1927     14.5726E-03     33.2566E-03    -10.4974E+06     116.753E+06     85.8087E+06     177.881E+03    -107.072E-03     213.217E-03    -106.144E-03     43.1097E-03    -108.075E-03     214.348E-03    -105.869E-03     39.6926E-03
            1928     13.7640E-03     33.2064E-03    -15.7329E+06     111.326E+06     75.0393E+06     85.5335E+03    -107.303E-03     213.309E-03    -106.006E-03     55.4862E-03    -108.426E-03     214.554E-03    -105.769E-03     51.9824E-03
            1929     12.9558E-03     33.1383E-03    -20.0064E+06     102.925E+06     65.6864E+06     286.111E+03    -107.414E-03     213.287E-03    -105.873E-03     69.1016E-03    -108.688E-03     214.665E-03    -105.665E-03     65.4448E-03
            1930     12.1481E-03     33.0572E-03    -25.5503E+06     59.2827E+06     53.2863E+06     1.05760E+06    -107.777E-03     213.549E-03    -105.771E-03     78.9596E-03    -109.097E-03     214.834E-03    -105.554E-03     75.2353E-03
            1931     11.3389E-03     32.9656E-03    -32.4851E+06     16.3099E+06     46.0910E+06     1.16363E+06    -108.130E-03     213.812E-03    -105.682E-03     86.7381E-03    -109.468E-03     214.959E-03    -105.428E-03     82.9885E-03
            1932     10.5305E-03     32.8656E-03    -38.8393E+06    -12.3433E+06     36.2647E+06     844.785E+03    -108.261E-03     213.806E-03    -105.545E-03     91.6145E-03    -109.574E-03     214.833E-03    -105.290E-03     87.9132E-03
            1933     9.72245E-03     32.7624E-03    -44.5810E+06    -43.6557E+06     27.0014E+06     737.656E+03    -108.193E-03     213.603E-03    -105.409E-03     93.7102E-03    -109.416E-03     214.434E-03    -105.146E-03     90.1514E-03
            1934     8.91298E-03     32.6575E-03    -50.4272E+06    -70.2248E+06     17.0003E+06     482.921E+03    -108.029E-03     213.292E-03    -105.262E-03     93.2919E-03    -109.123E-03     213.908E-03    -105.002E-03     89.9539E-03
            1935     8.10409E-03     32.5542E-03    -56.7041E+06    -99.4523E+06     6.61295E+06     60.6468E+03    -107.801E-03     212.917E-03    -105.116E-03     90.5162E-03    -108.735E-03     213.277E-03    -104.856E-03     87.4605E-03
            1936     7.29465E-03     32.4551E-03    -63.2631E+06    -124.098E+06    -3.47166E+06     29.8244E+03    -107.419E-03     212.382E-03    -104.963E-03     86.0536E-03    -108.192E-03     212.501E-03    -104.709E-03     83.3301E-03
            1937     6.48526E-03     32.3615E-03    -69.9360E+06    -148.520E+06    -13.8500E+06    -4.32476E+03    -106.923E-03     211.739E-03    -104.816E-03     80.1876E-03    -107.543E-03     211.624E-03    -104.569E-03     77.8142E-03
            1938     5.67526E-03     32.2752E-03    -76.8920E+06    -170.588E+06    -24.5032E+06    -122.979E+03    -106.377E-03     211.055E-03    -104.678E-03     73.1562E-03    -106.859E-03     210.729E-03    -104.442E-03     71.1365E-03
            1939     4.86495E-03     32.1971E-03    -84.6131E+06    -192.131E+06    -37.1927E+06    -225.839E+03    -105.850E-03     210.395E-03    -104.545E-03     65.0628E-03    -106.215E-03     209.885E-03    -104.330E-03     63.3848E-03
            1940     4.05464E-03     32.1289E-03    -93.0960E+06    -209.542E+06    -52.9384E+06    -125.122E+03    -105.326E-03     209.735E-03    -104.409E-03     55.9179E-03    -105.597E-03     209.085E-03    -104.235E-03     54.5667E-03
            1941     3.24396E-03     32.0712E-03    -100.923E+06    -223.364E+06    -70.7542E+06    -27.1443E+03    -104.872E-03     209.146E-03    -104.274E-03     45.9624E-03    -105.067E-03     208.394E-03    -104.157E-03     44.9169E-03
            1942     2.43314E-03     32.0249E-03    -107.864E+06    -242.931E+06    -87.6186E+06    -58.5119E+03    -104.530E-03     208.693E-03    -104.163E-03     35.3177E-03    -104.655E-03     207.827E-03    -104.093E-03     34.5534E-03
            1943     1.62210E-03     31.9912E-03    -114.259E+06    -260.709E+06    -102.418E+06    -141.453E+03    -104.226E-03     208.302E-03    -104.076E-03     24.0991E-03    -104.301E-03     207.342E-03    -104.044E-03     23.5951E-03
            1944     811.064E-06     31.9705E-03    -119.516E+06    -263.083E+06    -115.470E+06    -298.364E+03    -104.107E-03     208.031E-03    -103.924E-03     13.2760E-03    -104.165E-03     207.066E-03    -103.946E-03     13.0037E-03
            1945     15.3788E-03     32.1232E-03    -5.27782E+06     118.513E+06     96.1040E+06     689.795E+03    -107.195E-03     213.451E-03    -106.256E-03     20.4823E-03    -107.922E-03     214.302E-03    -105.940E-03     17.7701E-03
            1946     14.5727E-03     32.0818E-03    -10.5387E+06     117.358E+06     86.2582E+06     516.415E+03    -107.234E-03     213.350E-03    -106.116E-03     42.5073E-03    -108.233E-03     214.479E-03    -105.840E-03     39.0931E-03
            1947     13.7650E-03     32.0325E-03    -16.0280E+06     111.674E+06     74.6787E+06    -288.304E+03    -107.334E-03     213.300E-03    -105.966E-03     54.3586E-03    -108.452E-03     214.541E-03    -105.731E-03     50.8439E-03
            1948     12.9566E-03     31.9643E-03    -22.8441E+06     100.995E+06     63.8632E+06     364.559E+03    -107.689E-03     213.507E-03    -105.818E-03     68.1435E-03    -108.964E-03     214.875E-03    -105.612E-03     64.4793E-03
            1949     12.1479E-03     31.8836E-03    -28.7384E+06     58.5771E+06     52.0716E+06     1.70783E+06    -108.185E-03     213.874E-03    -105.689E-03     78.0881E-03    -109.512E-03     215.156E-03    -105.472E-03     74.3591E-03
            1950     11.3408E-03     31.7922E-03    -33.9178E+06     17.5444E+06     45.9406E+06     1.53238E+06    -108.373E-03     213.941E-03    -105.568E-03     85.9569E-03    -109.712E-03     215.088E-03    -105.314E-03     82.2115E-03
            1951     10.5325E-03     31.6934E-03    -39.3753E+06    -11.4285E+06     36.3736E+06     659.180E+03    -108.321E-03     213.730E-03    -105.408E-03     91.0175E-03    -109.629E-03     214.751E-03    -105.153E-03     87.3269E-03
            1952     9.72322E-03     31.5904E-03    -44.9826E+06    -43.8403E+06     26.6588E+06     117.391E+03    -108.311E-03     213.561E-03    -105.250E-03     93.1136E-03    -109.527E-03     214.384E-03    -104.988E-03     89.5547E-03
            1953     8.91507E-03     31.4862E-03    -50.6058E+06    -70.0047E+06     17.1767E+06     171.043E+03    -108.143E-03     213.221E-03    -105.078E-03     92.5755E-03    -109.230E-03     213.830E-03    -104.817E-03     89.2417E-03
            1954     8.10582E-03     31.3838E-03    -56.5026E+06    -98.5578E+06     7.00531E+06     194.275E+03    -107.760E-03     212.665E-03    -104.905E-03     89.7986E-03    -108.687E-03     213.021E-03    -104.645E-03     86.7603E-03
            1955     7.29656E-03     31.2852E-03    -62.8953E+06    -124.277E+06    -3.35529E+06    -144.711E+03    -107.287E-03     212.023E-03    -104.736E-03     85.3565E-03    -108.052E-03     212.133E-03    -104.481E-03     82.6476E-03
            1956     6.48667E-03     31.1924E-03    -69.6435E+06    -148.293E+06    -13.4873E+06    -133.179E+03    -106.756E-03     211.333E-03    -104.577E-03     79.5417E-03    -107.369E-03     211.211E-03    -104.328E-03     77.1834E-03
            1957     5.67668E-03     31.1067E-03    -77.0571E+06    -170.585E+06    -24.4198E+06    -65.9545E+03    -106.207E-03     210.631E-03    -104.424E-03     72.5458E-03    -106.686E-03     210.301E-03    -104.187E-03     70.5404E-03
            1958     4.86641E-03     31.0293E-03    -85.1024E+06    -192.368E+06    -37.3566E+06     143.102E+03    -105.651E-03     209.926E-03    -104.275E-03     64.4652E-03    -106.014E-03     209.412E-03    -104.060E-03     62.8044E-03
            1959     4.05571E-03     30.9615E-03    -92.9602E+06    -209.466E+06    -52.9629E+06     31.1884E+03    -105.131E-03     209.251E-03    -104.120E-03     55.4428E-03    -105.399E-03     208.599E-03    -103.946E-03     54.1038E-03
            1960     3.24493E-03     30.9043E-03    -100.779E+06    -223.408E+06    -70.7716E+06    -120.911E+03    -104.662E-03     208.623E-03    -103.961E-03     45.6312E-03    -104.855E-03     207.870E-03    -103.845E-03     44.5936E-03
            1961     2.43390E-03     30.8584E-03    -108.137E+06    -243.032E+06    -87.5048E+06    -60.6834E+03    -104.207E-03     208.043E-03    -103.836E-03     34.9782E-03    -104.333E-03     207.176E-03    -103.764E-03     34.2215E-03
            1962     1.62271E-03     30.8252E-03    -114.640E+06    -260.796E+06    -102.374E+06     42.4693E+03    -103.882E-03     207.630E-03    -103.748E-03     23.9136E-03    -103.959E-03     206.671E-03    -103.715E-03     23.4163E-03
            1963     811.440E-06     30.8044E-03    -119.551E+06    -263.228E+06    -115.922E+06     91.2121E+03    -103.774E-03     207.377E-03    -103.603E-03     13.2665E-03    -103.831E-03     206.412E-03    -103.628E-03     13.0012E-03
            1964     15.3834E-03     30.9477E-03    -4.95199E+06     118.937E+06     96.6762E+06     822.360E+03    -107.790E-03     214.022E-03    -106.233E-03     19.4685E-03    -108.513E-03     214.870E-03    -105.915E-03     16.7453E-03
            1965     14.5741E-03     30.9072E-03    -10.6610E+06     116.980E+06     85.5281E+06     843.244E+03    -107.360E-03     213.427E-03    -106.067E-03     42.0907E-03    -108.355E-03     214.551E-03    -105.793E-03     38.6788E-03
            1966     13.7657E-03     30.8585E-03    -17.0171E+06     110.515E+06     73.3621E+06     1.23543E+06    -107.635E-03     213.535E-03    -105.900E-03     54.1777E-03    -108.751E-03     214.771E-03    -105.669E-03     50.6756E-03
            1967     12.9577E-03     30.7902E-03    -23.0628E+06     100.595E+06     63.4978E+06     1.97865E+06    -108.034E-03     213.765E-03    -105.730E-03     67.6475E-03    -109.303E-03     215.124E-03    -105.525E-03     64.0020E-03
            1968     12.1506E-03     30.7097E-03    -28.8293E+06     58.8090E+06     51.8899E+06     1.06476E+06    -108.295E-03     213.874E-03    -105.579E-03     77.4335E-03    -109.612E-03     215.147E-03    -105.363E-03     73.7045E-03
            1969     11.3418E-03     30.6190E-03    -33.4986E+06     18.9011E+06     46.5467E+06     513.621E+03    -108.399E-03     213.844E-03    -105.445E-03     85.3470E-03    -109.729E-03     214.987E-03    -105.191E-03     81.6014E-03
            1970     10.5333E-03     30.5211E-03    -38.4018E+06    -11.0165E+06     36.8248E+06     186.392E+03    -108.492E-03     213.759E-03    -105.267E-03     90.3991E-03    -109.787E-03     214.772E-03    -105.011E-03     86.7076E-03
            1971     9.72558E-03     30.4184E-03    -44.0119E+06    -43.7496E+06     27.1947E+06    -60.7016E+03    -108.447E-03     213.530E-03    -105.083E-03     92.3915E-03    -109.650E-03     214.343E-03    -104.820E-03     88.8381E-03
            1972     8.91645E-03     30.3150E-03    -50.0492E+06    -70.1308E+06     17.3447E+06    -77.2828E+03    -108.147E-03     213.033E-03    -104.886E-03     91.8436E-03    -109.223E-03     213.631E-03    -104.625E-03     88.5209E-03
            1973     8.10765E-03     30.2135E-03    -56.0821E+06    -98.4889E+06     7.30112E+06     20.9505E+03    -107.710E-03     212.405E-03    -104.694E-03     89.1677E-03    -108.629E-03     212.753E-03    -104.433E-03     86.1409E-03
            1974     7.29809E-03     30.1157E-03    -62.5379E+06    -123.882E+06    -2.96683E+06     142.144E+03    -107.185E-03     211.692E-03    -104.507E-03     84.7279E-03    -107.942E-03     211.796E-03    -104.252E-03     82.0392E-03
            1975     6.48839E-03     30.0238E-03    -69.7758E+06    -148.286E+06    -13.4877E+06     108.074E+03    -106.632E-03     210.961E-03    -104.329E-03     78.8532E-03    -107.240E-03     210.834E-03    -104.081E-03     76.5142E-03
            1976     5.67820E-03     29.9386E-03    -77.2459E+06    -170.853E+06    -24.6843E+06     115.338E+03    -106.052E-03     210.209E-03    -104.157E-03     71.8637E-03    -106.527E-03     209.874E-03    -103.920E-03     69.8747E-03
            1977     4.86772E-03     29.8620E-03    -84.8473E+06    -192.493E+06    -37.0667E+06     93.6344E+03    -105.475E-03     209.464E-03    -103.989E-03     63.8269E-03    -105.833E-03     208.945E-03    -103.772E-03     62.1782E-03
            1978     4.05699E-03     29.7948E-03    -92.9410E+06    -209.115E+06    -52.5251E+06     63.0375E+03    -104.909E-03     208.721E-03    -103.812E-03     54.8298E-03    -105.175E-03     208.067E-03    -103.637E-03     53.5034E-03
            1979     3.24597E-03     29.7380E-03    -100.761E+06    -223.365E+06    -70.8436E+06     56.6400E+03    -104.347E-03     207.985E-03    -103.638E-03     45.0573E-03    -104.537E-03     207.230E-03    -103.522E-03     44.0315E-03
            1980     2.43477E-03     29.6928E-03    -107.962E+06    -242.898E+06    -87.4841E+06     83.3266E+03    -103.869E-03     207.380E-03    -103.512E-03     34.5973E-03    -103.993E-03     206.512E-03    -103.440E-03     33.8493E-03
            1981     1.62318E-03     29.6599E-03    -114.643E+06    -260.838E+06    -102.285E+06     46.4753E+03    -103.560E-03     206.985E-03    -103.425E-03     23.7671E-03    -103.635E-03     206.024E-03    -103.392E-03     23.2745E-03
            1982     811.508E-06     29.6391E-03    -119.628E+06    -263.083E+06    -115.496E+06     6.88509E+03    -103.456E-03     206.730E-03    -103.274E-03     13.0904E-03    -103.515E-03     205.765E-03    -103.296E-03     12.8251E-03
            1983     15.3809E-03     29.7728E-03    -5.15062E+06     117.761E+06     95.8039E+06     549.664E+03    -107.933E-03     214.153E-03    -106.220E-03     19.9478E-03    -108.654E-03     214.996E-03    -105.904E-03     17.2163E-03
            1984     14.5738E-03     29.7331E-03    -10.0048E+06     117.583E+06     86.7159E+06     1.22746E+06    -107.908E-03     213.950E-03    -106.041E-03     42.4753E-03    -108.900E-03     215.072E-03    -105.764E-03     39.0648E-03
            1985     13.7664E-03     29.6834E-03    -14.5565E+06     109.061E+06     75.4514E+06     1.52264E+06    -108.166E-03     214.013E-03    -105.847E-03     54.0146E-03    -109.266E-03     215.229E-03    -105.607E-03     50.5123E-03
            1986     12.9594E-03     29.6157E-03    -19.0784E+06     100.480E+06     66.0521E+06     2.24936E+06    -108.319E-03     213.965E-03    -105.647E-03     67.3185E-03    -109.564E-03     215.308E-03    -105.435E-03     63.6775E-03
            1987     12.1508E-03     29.5358E-03    -24.2716E+06     61.2799E+06     54.6626E+06     1.89159E+06    -108.395E-03     213.868E-03    -105.474E-03     77.0103E-03    -109.688E-03     215.135E-03    -105.254E-03     73.3026E-03
            1988     11.3434E-03     29.4463E-03    -30.5192E+06     19.4205E+06     47.8331E+06     598.026E+03    -108.583E-03     213.902E-03    -105.320E-03     84.7297E-03    -109.891E-03     215.033E-03    -105.064E-03     80.9899E-03
            1989     10.5355E-03     29.3481E-03    -36.7314E+06    -10.5754E+06     37.8695E+06     381.366E+03    -108.660E-03     213.777E-03    -105.117E-03     89.6323E-03    -109.940E-03     214.780E-03    -104.859E-03     85.9487E-03
            1990     9.72680E-03     29.2467E-03    -42.9943E+06    -43.3659E+06     27.7023E+06     361.208E+03    -108.462E-03     213.372E-03    -104.910E-03     91.6440E-03    -109.652E-03     214.175E-03    -104.646E-03     88.1105E-03
            1991     8.91846E-03     29.1441E-03    -49.0986E+06    -69.9207E+06     17.6878E+06     145.680E+03    -108.095E-03     212.790E-03    -104.695E-03     91.1352E-03    -109.157E-03     213.379E-03    -104.434E-03     87.8319E-03
            1992     8.10918E-03     29.0434E-03    -55.7076E+06    -98.9556E+06     7.36305E+06     253.237E+03    -107.663E-03     212.150E-03    -104.487E-03     88.3883E-03    -108.570E-03     212.487E-03    -104.226E-03     85.3802E-03
            1993     7.29982E-03     28.9467E-03    -62.5643E+06    -123.745E+06    -2.93698E+06     517.579E+03    -107.139E-03     211.417E-03    -104.278E-03     83.9447E-03    -107.890E-03     211.515E-03    -104.023E-03     81.2753E-03
            1994     6.48996E-03     28.8553E-03    -69.3954E+06    -148.111E+06    -13.3186E+06     517.065E+03    -106.557E-03     210.633E-03    -104.076E-03     78.1206E-03    -107.158E-03     210.500E-03    -103.827E-03     75.8015E-03
            1995     5.67982E-03     28.7713E-03    -76.8296E+06    -170.843E+06    -24.4523E+06     278.705E+03    -105.941E-03     209.818E-03    -103.877E-03     71.1091E-03    -106.409E-03     209.478E-03    -103.640E-03     69.1362E-03
            1996     4.86923E-03     28.6951E-03    -84.8817E+06    -192.281E+06    -36.9663E+06     103.120E+03    -105.290E-03     208.972E-03    -103.683E-03     63.0874E-03    -105.645E-03     208.451E-03    -103.466E-03     61.4517E-03
            1997     4.05843E-03     28.6286E-03    -92.9176E+06    -208.825E+06    -52.3111E+06     146.944E+03    -104.617E-03     208.106E-03    -103.489E-03     54.2466E-03    -104.882E-03     207.451E-03    -103.313E-03     52.9330E-03
            1998     3.24718E-03     28.5726E-03    -100.896E+06    -223.298E+06    -70.8711E+06     146.502E+03    -103.994E-03     207.305E-03    -103.311E-03     44.5964E-03    -104.184E-03     206.549E-03    -103.195E-03     43.5819E-03
            1999     2.43539E-03     28.5280E-03    -108.243E+06    -243.069E+06    -87.6658E+06     168.723E+03    -103.559E-03     206.740E-03    -103.181E-03     34.2354E-03    -103.683E-03     205.871E-03    -103.110E-03     33.4963E-03
            2000     1.62374E-03     28.4952E-03    -114.398E+06    -260.628E+06    -102.206E+06     251.283E+03    -103.294E-03     206.360E-03    -103.066E-03     23.4064E-03    -103.369E-03     205.399E-03    -103.033E-03     22.9217E-03
            2001     812.029E-06     28.4748E-03    -119.362E+06    -263.033E+06    -115.930E+06    -58.2257E+03    -103.101E-03     205.959E-03    -102.858E-03     12.8370E-03    -103.157E-03     204.995E-03    -102.884E-03     12.5746E-03
            2002     15.3814E-03     28.5965E-03    -4.83564E+06     117.410E+06     95.2741E+06     369.635E+03    -108.268E-03     214.481E-03    -106.213E-03     19.0543E-03    -108.984E-03     215.321E-03    -105.900E-03     16.3029E-03
            2003     14.5747E-03     28.5569E-03    -10.0235E+06     117.619E+06     86.5483E+06     302.779E+03    -108.455E-03     214.465E-03    -106.010E-03     41.5483E-03    -109.443E-03     215.585E-03    -105.734E-03     38.0984E-03
            2004     13.7677E-03     28.5084E-03    -15.1556E+06     108.415E+06     74.9985E+06     649.080E+03    -108.556E-03     214.342E-03    -105.786E-03     53.6911E-03    -109.653E-03     215.554E-03    -105.547E-03     50.1648E-03
            2005     12.9599E-03     28.4409E-03    -19.8915E+06     99.4436E+06     65.8362E+06     1.13847E+06    -108.525E-03     214.090E-03    -105.565E-03     66.7334E-03    -109.766E-03     215.423E-03    -105.351E-03     63.0760E-03
            2006     12.1529E-03     28.3625E-03    -24.5283E+06     62.4471E+06     55.4723E+06     1.87027E+06    -108.657E-03     214.028E-03    -105.371E-03     76.3189E-03    -109.946E-03     215.291E-03    -105.148E-03     72.6112E-03
            2007     11.3448E-03     28.2725E-03    -29.8468E+06     20.5902E+06     48.4895E+06     1.67305E+06    -108.803E-03     213.991E-03    -105.188E-03     84.1206E-03    -110.103E-03     215.117E-03    -104.932E-03     80.3987E-03
            2008     10.5368E-03     28.1759E-03    -36.0471E+06    -10.4692E+06     38.1579E+06     1.20736E+06    -108.693E-03     213.657E-03    -104.964E-03     88.9719E-03    -109.960E-03     214.649E-03    -104.706E-03     85.3131E-03
            2009     9.72884E-03     28.0751E-03    -42.1960E+06    -42.5316E+06     28.3210E+06     1.03418E+06    -108.439E-03     213.180E-03    -104.742E-03     90.9344E-03    -109.617E-03     213.976E-03    -104.477E-03     87.4246E-03
            2010     8.91985E-03     27.9735E-03    -48.8827E+06    -69.8843E+06     17.7776E+06     836.688E+03    -108.102E-03     212.611E-03    -104.509E-03     90.3768E-03    -109.155E-03     213.191E-03    -104.248E-03     87.0961E-03
            2011     8.11096E-03     27.8737E-03    -55.5139E+06    -98.8433E+06     7.39122E+06     820.492E+03    -107.665E-03     211.944E-03    -104.279E-03     87.5815E-03    -108.564E-03     212.273E-03    -104.018E-03     84.5953E-03
            2012     7.30151E-03     27.7777E-03    -62.0264E+06    -123.663E+06    -2.77728E+06     707.537E+03    -107.114E-03     211.159E-03    -104.044E-03     83.0912E-03    -107.856E-03     211.249E-03    -103.789E-03     80.4371E-03
            2013     6.49167E-03     27.6875E-03    -69.0794E+06    -147.874E+06    -13.0398E+06     767.019E+03    -106.484E-03     210.299E-03    -103.815E-03     77.2666E-03    -107.078E-03     210.161E-03    -103.566E-03     74.9643E-03
            2014     5.68144E-03     27.6039E-03    -76.6670E+06    -170.428E+06    -24.1442E+06     724.341E+03    -105.791E-03     209.382E-03    -103.591E-03     70.3391E-03    -106.254E-03     209.038E-03    -103.353E-03     68.3866E-03
            2015     4.87094E-03     27.5290E-03    -84.6244E+06    -191.821E+06    -36.8401E+06     546.911E+03    -105.043E-03     208.421E-03    -103.377E-03     62.4563E-03    -105.394E-03     207.897E-03    -103.161E-03     60.8409E-03
            2016     4.05961E-03     27.4633E-03    -92.9184E+06    -208.853E+06    -52.6167E+06     381.336E+03    -104.312E-03     207.486E-03    -103.174E-03     53.6703E-03    -104.574E-03     206.829E-03    -102.999E-03     52.3726E-03
            2017     3.24798E-03     27.4080E-03    -100.885E+06    -223.105E+06    -70.7280E+06     399.611E+03    -103.724E-03     206.710E-03    -102.986E-03     44.0535E-03    -103.912E-03     205.953E-03    -102.870E-03     43.0523E-03
            2018     2.43641E-03     27.3638E-03    -108.169E+06    -242.738E+06    -87.3428E+06     104.068E+03    -103.286E-03     206.121E-03    -102.835E-03     33.8401E-03    -103.409E-03     205.252E-03    -102.763E-03     33.1088E-03
            2019     1.62446E-03     27.3313E-03    -114.768E+06    -260.738E+06    -102.366E+06    -175.947E+03    -102.938E-03     205.640E-03    -102.702E-03     23.1993E-03    -103.014E-03     204.679E-03    -102.669E-03     22.7148E-03
            2020     812.353E-06     27.3114E-03    -119.700E+06    -262.862E+06    -115.587E+06     31.7352E+03    -102.643E-03     205.225E-03    -102.582E-03     12.7100E-03    -102.701E-03     204.261E-03    -102.605E-03     12.4508E-03
            2021     15.3828E-03     27.4208E-03    -5.29903E+06     117.069E+06     94.6372E+06     266.037E+03    -108.757E-03     214.945E-03    -106.188E-03     19.2601E-03    -109.471E-03     215.782E-03    -105.877E-03     16.5083E-03
            2022     14.5750E-03     27.3813E-03    -10.1305E+06     117.470E+06     86.0188E+06     657.024E+03    -108.737E-03     214.700E-03    -105.963E-03     41.4291E-03    -109.721E-03     215.815E-03    -105.689E-03     37.9856E-03
            2023     13.7680E-03     27.3324E-03    -15.6707E+06     108.169E+06     74.2827E+06     474.712E+03    -108.767E-03     214.488E-03    -105.721E-03     52.9023E-03    -109.858E-03     215.693E-03    -105.484E-03     49.3724E-03
            2024     12.9614E-03     27.2666E-03    -21.1831E+06     98.6928E+06     64.5412E+06     518.758E+03    -108.774E-03     214.253E-03    -105.479E-03     66.0707E-03    -110.011E-03     215.579E-03    -105.269E-03     62.4048E-03
            2025     12.1536E-03     27.1879E-03    -26.3611E+06     61.6701E+06     54.1569E+06     862.956E+03    -108.917E-03     214.179E-03    -105.262E-03     75.8491E-03    -110.206E-03     215.436E-03    -105.042E-03     72.1283E-03
            2026     11.3465E-03     27.0995E-03    -31.3233E+06     21.2386E+06     47.9111E+06     1.41111E+06    -108.884E-03     213.943E-03    -105.059E-03     83.4615E-03    -110.182E-03     215.066E-03    -104.805E-03     79.7466E-03
            2027     10.5386E-03     27.0033E-03    -36.5158E+06    -10.1009E+06     37.8423E+06     1.56005E+06    -108.693E-03     213.514E-03    -104.820E-03     88.2983E-03    -109.953E-03     214.498E-03    -104.563E-03     84.6580E-03
            2028     9.73005E-03     26.9037E-03    -42.6824E+06    -42.4344E+06     28.0681E+06     1.61117E+06    -108.502E-03     213.083E-03    -104.582E-03     90.2550E-03    -109.673E-03     213.871E-03    -104.318E-03     86.7641E-03
            2029     8.92166E-03     26.8029E-03    -49.0303E+06    -69.1434E+06     17.8528E+06     1.57116E+06    -108.164E-03     212.490E-03    -104.326E-03     89.5553E-03    -109.210E-03     213.065E-03    -104.065E-03     86.2966E-03
            2030     8.11263E-03     26.7040E-03    -55.5136E+06    -98.4693E+06     7.41933E+06     1.19414E+06    -107.683E-03     211.753E-03    -104.070E-03     86.7251E-03    -108.574E-03     212.076E-03    -103.809E-03     83.7565E-03
            2031     7.30323E-03     26.6091E-03    -62.3481E+06    -123.379E+06    -2.91131E+06     1.04952E+06    -107.085E-03     210.893E-03    -103.809E-03     82.2407E-03    -107.821E-03     210.979E-03    -103.554E-03     79.6060E-03
            2032     6.49349E-03     26.5197E-03    -69.3191E+06    -147.747E+06    -13.2447E+06     981.757E+03    -106.368E-03     209.923E-03    -103.555E-03     76.4667E-03    -106.957E-03     209.779E-03    -103.306E-03     74.1827E-03
            2033     5.68315E-03     26.4375E-03    -76.5347E+06    -169.835E+06    -24.0811E+06     1.11112E+06    -105.564E-03     208.878E-03    -103.314E-03     69.6025E-03    -106.022E-03     208.531E-03    -103.078E-03     67.6727E-03
            2034     4.87203E-03     26.3633E-03    -84.4257E+06    -191.433E+06    -36.9307E+06     903.353E+03    -104.805E-03     207.894E-03    -103.089E-03     61.7359E-03    -105.152E-03     207.369E-03    -102.874E-03     60.1400E-03
            2035     4.06091E-03     26.2987E-03    -92.8014E+06    -208.734E+06    -52.8922E+06     803.850E+03    -104.115E-03     206.981E-03    -102.866E-03     52.9713E-03    -104.373E-03     206.322E-03    -102.694E-03     51.6909E-03
            2036     3.24932E-03     26.2440E-03    -100.529E+06    -222.714E+06    -70.7869E+06     669.441E+03    -103.474E-03     206.129E-03    -102.655E-03     43.5052E-03    -103.659E-03     205.372E-03    -102.540E-03     42.5179E-03
            2037     2.43718E-03     26.2003E-03    -107.853E+06    -241.962E+06    -86.9342E+06     392.860E+03    -102.933E-03     205.429E-03    -102.495E-03     33.4378E-03    -103.056E-03     204.562E-03    -102.423E-03     32.7172E-03
            2038     1.62488E-03     26.1685E-03    -115.188E+06    -260.381E+06    -102.158E+06    -126.511E+03    -102.536E-03     204.918E-03    -102.382E-03     22.9365E-03    -102.614E-03     203.959E-03    -102.348E-03     22.4570E-03
            2039     812.338E-06     26.1486E-03    -120.933E+06    -263.523E+06    -116.347E+06    -544.533E+03    -102.386E-03     204.613E-03    -102.228E-03     12.3928E-03    -102.448E-03     203.649E-03    -102.252E-03     12.1294E-03
            2040     15.3811E-03     26.2436E-03    -5.22427E+06     116.752E+06     94.8124E+06     230.455E+03    -109.148E-03     215.311E-03    -106.163E-03     18.7078E-03    -109.859E-03     216.143E-03    -105.850E-03     15.9418E-03
            2041     14.5762E-03     26.2045E-03    -10.7073E+06     116.954E+06     85.8665E+06     178.299E+03    -109.010E-03     214.927E-03    -105.917E-03     40.6856E-03    -109.990E-03     216.035E-03    -105.641E-03     37.2261E-03
            2042     13.7696E-03     26.1571E-03    -15.7014E+06     108.176E+06     74.2544E+06     741.539E+03    -108.900E-03     214.559E-03    -105.659E-03     52.4118E-03    -109.985E-03     215.757E-03    -105.422E-03     48.8908E-03
            2043     12.9620E-03     26.0915E-03    -20.9005E+06     98.8479E+06     64.4059E+06     664.334E+03    -108.966E-03     214.367E-03    -105.401E-03     65.7353E-03    -110.195E-03     215.686E-03    -105.192E-03     62.0744E-03
            2044     12.1554E-03     26.0138E-03    -26.1604E+06     61.1579E+06     53.7293E+06     478.034E+03    -109.026E-03     214.193E-03    -105.168E-03     75.3508E-03    -110.304E-03     215.440E-03    -104.950E-03     71.6307E-03
            2045     11.3476E-03     25.9259E-03    -31.6879E+06     20.4013E+06     47.3841E+06     1.08742E+06    -108.939E-03     213.891E-03    -104.952E-03     83.0308E-03    -110.229E-03     215.003E-03    -104.699E-03     79.3200E-03
            2046     10.5397E-03     25.8314E-03    -37.8908E+06    -10.0848E+06     37.1520E+06     1.73433E+06    -108.857E-03     213.552E-03    -104.695E-03     87.8275E-03    -110.116E-03     214.533E-03    -104.440E-03     84.1944E-03
            2047     9.73174E-03     25.7320E-03    -43.7617E+06    -41.9068E+06     27.6758E+06     1.78990E+06    -108.637E-03     213.068E-03    -104.432E-03     89.5440E-03    -109.805E-03     213.853E-03    -104.169E-03     86.0643E-03
            2048     8.92319E-03     25.6325E-03    -49.6963E+06    -68.6058E+06     17.6171E+06     1.63235E+06    -108.244E-03     212.394E-03    -104.150E-03     88.7912E-03    -109.285E-03     212.964E-03    -103.890E-03     85.5447E-03
            2049     8.11430E-03     25.5346E-03    -55.9026E+06    -97.9784E+06     7.14415E+06     1.49194E+06    -107.708E-03     211.575E-03    -103.867E-03     85.8855E-03    -108.593E-03     211.893E-03    -103.608E-03     82.9350E-03
            2050     7.30499E-03     25.4407E-03    -62.2652E+06    -122.971E+06    -3.02312E+06     1.29539E+06    -107.004E-03     210.587E-03    -103.583E-03     81.4114E-03    -107.732E-03     210.666E-03    -103.330E-03     78.7976E-03
            2051     6.49498E-03     25.3526E-03    -69.0637E+06    -147.474E+06    -13.4732E+06     1.18431E+06    -106.235E-03     209.546E-03    -103.310E-03     75.6262E-03    -106.816E-03     209.397E-03    -103.064E-03     73.3619E-03
            2052     5.68444E-03     25.2714E-03    -76.3160E+06    -169.720E+06    -24.2884E+06     1.20954E+06    -105.435E-03     208.485E-03    -103.049E-03     68.6815E-03    -105.887E-03     208.133E-03    -102.814E-03     66.7679E-03
            2053     4.87366E-03     25.1984E-03    -84.0576E+06    -190.965E+06    -36.8780E+06     1.32843E+06    -104.637E-03     207.437E-03    -102.801E-03     60.8240E-03    -104.978E-03     206.909E-03    -102.586E-03     59.2481E-03
            2054     4.06207E-03     25.1343E-03    -91.8633E+06    -208.002E+06    -52.7177E+06     1.06720E+06    -103.882E-03     206.437E-03    -102.556E-03     52.1802E-03    -104.133E-03     205.777E-03    -102.384E-03     50.9159E-03
            2055     3.25021E-03     25.0807E-03    -99.8296E+06    -222.216E+06    -70.7447E+06     882.891E+03    -103.181E-03     205.510E-03    -102.330E-03     42.8679E-03    -103.361E-03     204.753E-03    -102.216E-03     41.8929E-03
            2056     2.43801E-03     25.0377E-03    -107.422E+06    -241.535E+06    -87.0857E+06     946.657E+03    -102.621E-03     204.779E-03    -102.159E-03     32.9156E-03    -102.740E-03     203.913E-03    -102.088E-03     32.2095E-03
            2057     1.62544E-03     25.0063E-03    -113.531E+06    -258.812E+06    -101.632E+06     466.391E+03    -102.233E-03     204.261E-03    -102.028E-03     22.4568E-03    -102.305E-03     203.306E-03    -101.997E-03     21.9916E-03
            2058     812.865E-06     24.9866E-03    -118.217E+06    -264.595E+06    -114.946E+06    -565.540E+03    -102.104E-03     203.901E-03    -101.798E-03     12.3045E-03    -102.153E-03     202.925E-03    -101.817E-03     12.0448E-03
            2059     15.3847E-03     25.0671E-03    -4.84172E+06     116.481E+06     95.1400E+06     489.907E+03    -109.422E-03     215.562E-03    -106.140E-03     18.7071E-03    -110.128E-03     216.389E-03    -105.826E-03     15.9494E-03
            2060     14.5764E-03     25.0279E-03    -10.2086E+06     117.264E+06     86.1846E+06     637.898E+03    -109.059E-03     214.942E-03    -105.883E-03     40.7650E-03    -110.033E-03     216.046E-03    -105.607E-03     37.3236E-03
            2061     13.7695E-03     24.9817E-03    -15.8053E+06     107.804E+06     74.0543E+06     166.612E+03    -109.107E-03     214.722E-03    -105.615E-03     52.2968E-03    -110.188E-03     215.914E-03    -105.378E-03     48.7687E-03
            2062     12.9632E-03     24.9162E-03    -20.6900E+06     98.9311E+06     64.2961E+06     516.689E+03    -109.093E-03     214.436E-03    -105.344E-03     65.4690E-03    -110.315E-03     215.750E-03    -105.136E-03     61.8117E-03
            2063     12.1558E-03     24.8393E-03    -26.1149E+06     60.6052E+06     53.0605E+06     1.23084E+06    -109.078E-03     214.176E-03    -105.099E-03     74.9917E-03    -110.347E-03     215.414E-03    -104.883E-03     71.2913E-03
            2064     11.3483E-03     24.7532E-03    -32.5819E+06     19.1782E+06     46.2787E+06     1.81892E+06    -109.160E-03     214.027E-03    -104.867E-03     82.4802E-03    -110.444E-03     215.130E-03    -104.617E-03     78.7796E-03
            2065     10.5408E-03     24.6581E-03    -38.5922E+06    -9.30477E+06     36.9543E+06     1.91316E+06    -109.053E-03     213.640E-03    -104.587E-03     87.0751E-03    -110.307E-03     214.617E-03    -104.333E-03     83.4480E-03
            2066     9.73301E-03     24.5609E-03    -44.4052E+06    -41.4422E+06     27.2037E+06     1.53069E+06    -108.788E-03     213.085E-03    -104.297E-03     88.8758E-03    -109.951E-03     213.865E-03    -104.037E-03     85.3995E-03
            2067     8.92456E-03     24.4619E-03    -50.1200E+06    -68.4081E+06     17.2034E+06     1.34316E+06    -108.374E-03     212.362E-03    -103.988E-03     88.0084E-03    -109.408E-03     212.925E-03    -103.730E-03     84.7670E-03
            2068     8.11590E-03     24.3652E-03    -55.9809E+06    -97.3568E+06     7.00886E+06     1.25922E+06    -107.753E-03     211.429E-03    -103.677E-03     84.9079E-03    -108.629E-03     211.741E-03    -103.419E-03     81.9682E-03
            2069     7.30638E-03     24.2728E-03    -62.2282E+06    -122.806E+06    -3.30367E+06     1.19189E+06    -106.993E-03     210.358E-03    -103.365E-03     80.3187E-03    -107.711E-03     210.429E-03    -103.114E-03     77.7185E-03
            2070     6.49647E-03     24.1856E-03    -68.7847E+06    -147.166E+06    -13.6003E+06     1.21074E+06    -106.166E-03     209.231E-03    -103.065E-03     74.4168E-03    -106.737E-03     209.075E-03    -102.820E-03     72.1699E-03
            2071     5.68611E-03     24.1057E-03    -75.9302E+06    -169.866E+06    -24.5677E+06     1.28517E+06    -105.320E-03     208.097E-03    -102.777E-03     67.5602E-03    -105.762E-03     207.737E-03    -102.543E-03     65.6643E-03
            2072     4.87496E-03     24.0337E-03    -83.3232E+06    -190.528E+06    -36.5008E+06     1.46290E+06    -104.472E-03     206.975E-03    -102.503E-03     59.8322E-03    -104.806E-03     206.442E-03    -102.288E-03     58.2743E-03
            2073     4.06350E-03     23.9710E-03    -91.3943E+06    -207.183E+06    -52.2753E+06     1.55763E+06    -103.641E-03     205.875E-03    -102.234E-03     51.2609E-03    -103.888E-03     205.213E-03    -102.062E-03     50.0182E-03
            2074     3.25135E-03     23.9179E-03    -99.3125E+06    -221.741E+06    -70.8021E+06     1.39063E+06    -102.911E-03     204.894E-03    -101.984E-03     41.9572E-03    -103.087E-03     204.136E-03    -101.872E-03     41.0015E-03
            2075     2.43881E-03     23.8759E-03    -105.772E+06    -240.455E+06    -86.9684E+06     974.319E+03    -102.318E-03     204.105E-03    -101.788E-03     32.2126E-03    -102.429E-03     203.240E-03    -101.721E-03     31.5179E-03
            2076     1.62619E-03     23.8446E-03    -111.672E+06    -257.459E+06    -101.640E+06     465.496E+03    -101.882E-03     203.517E-03    -101.636E-03     22.0597E-03    -101.946E-03     202.566E-03    -101.609E-03     21.6024E-03
            2077     813.092E-06     23.8260E-03    -115.552E+06    -264.813E+06    -113.005E+06     248.661E+03    -101.688E-03     203.123E-03    -101.435E-03     12.1282E-03    -101.726E-03     202.139E-03    -101.449E-03     11.8830E-03
            2078     15.3811E-03     23.8890E-03    -4.68214E+06     115.852E+06     95.1028E+06     516.104E+03    -109.620E-03     215.763E-03    -106.143E-03     18.7279E-03    -110.323E-03     216.584E-03    -105.828E-03     15.9664E-03
            2079     14.5766E-03     23.8522E-03    -10.2869E+06     117.580E+06     86.1664E+06     515.673E+03    -109.404E-03     215.274E-03    -105.870E-03     40.1447E-03    -110.374E-03     216.375E-03    -105.594E-03     36.6929E-03
            2080     13.7703E-03     23.8050E-03    -15.5701E+06     108.397E+06     74.0123E+06     405.375E+03    -109.210E-03     214.796E-03    -105.586E-03     51.7857E-03    -110.284E-03     215.985E-03    -105.351E-03     48.2627E-03
            2081     12.9635E-03     23.7411E-03    -21.9473E+06     97.2816E+06     63.0006E+06     938.938E+03    -109.179E-03     214.485E-03    -105.306E-03     64.9641E-03    -110.397E-03     215.788E-03    -105.100E-03     61.3141E-03
            2082     12.1562E-03     23.6655E-03    -28.3588E+06     59.5748E+06     51.6939E+06     2.21966E+06    -109.338E-03     214.383E-03    -105.045E-03     74.3086E-03    -110.608E-03     215.614E-03    -104.832E-03     70.6166E-03
            2083     11.3494E-03     23.5786E-03    -33.8869E+06     20.3911E+06     45.9846E+06     1.93152E+06    -109.374E-03     214.166E-03    -104.792E-03     81.7006E-03    -110.657E-03     215.268E-03    -104.543E-03     78.0028E-03
            2084     10.5420E-03     23.4862E-03    -39.0049E+06    -8.93350E+06     36.6534E+06     1.13669E+06    -109.224E-03     213.713E-03    -104.489E-03     86.3108E-03    -110.472E-03     214.684E-03    -104.236E-03     82.6771E-03
            2085     9.73387E-03     23.3889E-03    -44.1282E+06    -41.1963E+06     27.1301E+06     1.03057E+06    -109.001E-03     213.173E-03    -104.172E-03     87.9259E-03    -110.152E-03     213.942E-03    -103.912E-03     84.4485E-03
            2086     8.92606E-03     23.2913E-03    -49.7162E+06    -68.1371E+06     17.2361E+06     965.088E+03    -108.530E-03     212.361E-03    -103.831E-03     86.8094E-03    -109.550E-03     212.913E-03    -103.574E-03     83.5739E-03
            2087     8.11718E-03     23.1961E-03    -55.7404E+06    -97.1934E+06     6.95566E+06     1.08062E+06    -107.868E-03     211.354E-03    -103.485E-03     83.6106E-03    -108.731E-03     211.653E-03    -103.229E-03     80.6833E-03
            2088     7.30816E-03     23.1047E-03    -62.0541E+06    -122.543E+06    -3.48976E+06     1.05659E+06    -107.079E-03     210.214E-03    -103.135E-03     78.9135E-03    -107.785E-03     210.275E-03    -102.885E-03     76.3282E-03
            2089     6.49836E-03     23.0192E-03    -68.6354E+06    -147.151E+06    -13.7591E+06     1.16161E+06    -106.154E-03     208.949E-03    -102.796E-03     72.9992E-03    -106.713E-03     208.782E-03    -102.552E-03     70.7729E-03
            2090     5.68764E-03     22.9404E-03    -75.6936E+06    -169.600E+06    -24.5675E+06     1.33598E+06    -105.197E-03     207.670E-03    -102.472E-03     66.1526E-03    -105.629E-03     207.302E-03    -102.240E-03     64.2804E-03
            2091     4.87658E-03     22.8697E-03    -83.4663E+06    -190.500E+06    -36.9367E+06     1.59821E+06    -104.268E-03     206.434E-03    -102.166E-03     58.4173E-03    -104.594E-03     205.895E-03    -101.954E-03     56.8822E-03
            2092     4.06476E-03     22.8079E-03    -91.1715E+06    -206.876E+06    -52.5741E+06     1.83110E+06    -103.394E-03     205.262E-03    -101.868E-03     50.0192E-03    -103.634E-03     204.597E-03    -101.699E-03     48.7987E-03
            2093     3.25263E-03     22.7561E-03    -98.4087E+06    -220.693E+06    -70.4569E+06     1.60456E+06    -102.625E-03     204.213E-03    -101.588E-03     40.9782E-03    -102.795E-03     203.454E-03    -101.478E-03     40.0425E-03
            2094     2.44003E-03     22.7147E-03    -105.462E+06    -239.341E+06    -86.3564E+06     1.20714E+06    -101.937E-03     203.306E-03    -101.369E-03     31.3772E-03    -102.048E-03     202.443E-03    -101.301E-03     30.6991E-03
            2095     1.62667E-03     22.6845E-03    -111.478E+06    -256.308E+06    -100.968E+06     847.979E+03    -101.441E-03     202.651E-03    -101.210E-03     21.5448E-03    -101.506E-03     201.702E-03    -101.181E-03     21.1015E-03
            2096     813.459E-06     22.6654E-03    -115.383E+06    -263.964E+06    -112.746E+06     109.320E+03    -101.300E-03     202.268E-03    -100.968E-03     11.6801E-03    -101.338E-03     201.287E-03    -100.982E-03     11.4373E-03
            2097     15.3841E-03     22.7118E-03    -4.57439E+06     115.645E+06     95.0217E+06     449.549E+03    -109.818E-03     215.968E-03    -106.150E-03     17.9711E-03    -110.514E-03     216.783E-03    -105.836E-03     15.2153E-03
            2098     14.5769E-03     22.6742E-03    -10.0788E+06     117.412E+06     86.3362E+06     731.987E+03    -109.471E-03     215.343E-03    -105.871E-03     39.8954E-03    -110.435E-03     216.437E-03    -105.595E-03     36.4550E-03
            2099     13.7705E-03     22.6298E-03    -16.2799E+06     107.267E+06     73.1289E+06     1.67503E+06    -109.419E-03     214.996E-03    -105.577E-03     51.6116E-03    -110.490E-03     216.178E-03    -105.344E-03     48.1049E-03
            2100     12.9634E-03     22.5658E-03    -22.5973E+06     96.1479E+06     62.1629E+06     2.90152E+06    -109.510E-03     214.790E-03    -105.279E-03     64.4878E-03    -110.724E-03     216.084E-03    -105.075E-03     60.8570E-03
            2101     12.1573E-03     22.4902E-03    -28.2653E+06     60.9889E+06     52.2080E+06     2.26775E+06    -109.601E-03     214.599E-03    -104.998E-03     73.6446E-03    -110.866E-03     215.829E-03    -104.785E-03     69.9507E-03
            2102     11.3500E-03     22.4056E-03    -32.8311E+06     22.1213E+06     46.5843E+06     736.178E+03    -109.558E-03     214.281E-03    -104.723E-03     81.0080E-03    -110.831E-03     215.380E-03    -104.474E-03     77.2956E-03
            2103     10.5425E-03     22.3129E-03    -37.5680E+06    -9.23643E+06     36.8297E+06     258.616E+03    -109.562E-03     213.954E-03    -104.392E-03     85.4117E-03    -110.792E-03     214.911E-03    -104.140E-03     81.7648E-03
            2104     9.73568E-03     22.2172E-03    -43.0598E+06    -41.2590E+06     27.4626E+06     701.393E+03    -109.326E-03     213.363E-03    -104.037E-03     86.6786E-03    -110.459E-03     214.117E-03    -103.778E-03     83.2016E-03
            2105     8.92732E-03     22.1208E-03    -49.0350E+06    -68.1754E+06     17.1971E+06     1.02605E+06    -108.773E-03     212.426E-03    -103.652E-03     85.2818E-03    -109.773E-03     212.959E-03    -103.396E-03     82.0625E-03
            2106     8.11914E-03     22.0268E-03    -55.1705E+06    -97.2964E+06     6.89046E+06     1.11228E+06    -108.073E-03     211.334E-03    -103.261E-03     81.8703E-03    -108.915E-03     211.615E-03    -103.005E-03     78.9628E-03
            2107     7.30993E-03     21.9369E-03    -61.6051E+06    -122.205E+06    -3.32943E+06     1.30741E+06    -107.177E-03     210.039E-03    -102.862E-03     77.0210E-03    -107.865E-03     210.084E-03    -102.612E-03     74.4647E-03
            2108     6.50013E-03     21.8529E-03    -68.5286E+06    -147.001E+06    -13.7932E+06     1.36003E+06    -106.185E-03     208.657E-03    -102.472E-03     71.0438E-03    -106.729E-03     208.476E-03    -102.228E-03     68.8476E-03
            2109     5.68988E-03     21.7757E-03    -75.8809E+06    -169.550E+06    -24.6738E+06     1.53499E+06    -105.124E-03     207.220E-03    -102.096E-03     64.2104E-03    -105.545E-03     206.841E-03    -101.863E-03     62.3680E-03
            2110     4.87860E-03     21.7063E-03    -83.4237E+06    -190.281E+06    -37.3696E+06     1.65074E+06    -104.056E-03     205.794E-03    -101.739E-03     56.5895E-03    -104.372E-03     205.247E-03    -101.529E-03     55.0833E-03
            2111     4.06674E-03     21.6459E-03    -90.9529E+06    -206.593E+06    -52.9490E+06     1.58091E+06    -103.067E-03     204.466E-03    -101.400E-03     48.3402E-03    -103.298E-03     203.796E-03    -101.233E-03     47.1427E-03
            2112     3.25409E-03     21.5949E-03    -98.1117E+06    -219.906E+06    -70.1016E+06     1.81389E+06    -102.173E-03     203.268E-03    -101.096E-03     39.5372E-03    -102.338E-03     202.508E-03    -100.985E-03     38.6258E-03
            2113     2.44099E-03     21.5546E-03    -104.971E+06    -237.845E+06      -85.23E+06     1.59230E+06    -101.471E-03     202.330E-03    -100.859E-03     30.2603E-03    -101.581E-03     201.470E-03    -100.788E-03     29.6024E-03
            2114     1.62774E-03     21.5252E-03    -111.268E+06    -254.699E+06    -99.3870E+06     589.835E+03    -100.936E-03     201.616E-03    -100.680E-03     20.8201E-03    -101.003E-03     200.672E-03    -100.646E-03     20.3831E-03
            2115     813.875E-06     21.5063E-03    -115.059E+06    -263.512E+06    -111.934E+06    -378.257E+03    -100.694E-03     201.177E-03    -100.483E-03     11.4267E-03    -100.732E-03     200.197E-03    -100.494E-03     11.1835E-03
            2116     15.3816E-03     21.5343E-03    -4.95532E+06     114.739E+06     94.1790E+06     350.089E+03    -109.791E-03     215.953E-03    -106.162E-03     17.8379E-03    -110.483E-03     216.762E-03    -105.851E-03     15.0911E-03
            2117     14.5759E-03     21.4979E-03    -10.1831E+06     117.002E+06     86.3722E+06     841.324E+03    -109.525E-03     215.411E-03    -105.887E-03     39.4479E-03    -110.483E-03     216.499E-03    -105.610E-03     36.0141E-03
            2118     13.7696E-03     21.4528E-03    -14.8593E+06     105.139E+06     74.0365E+06     1.93416E+06    -109.737E-03     215.324E-03    -105.587E-03     50.9121E-03    -110.795E-03     216.488E-03    -105.348E-03     47.3979E-03
            2119     12.9645E-03     21.3898E-03    -19.1744E+06     95.8426E+06     64.4609E+06     2.97652E+06    -109.788E-03     215.060E-03    -105.272E-03     64.0058E-03    -110.982E-03     216.339E-03    -105.060E-03     60.3714E-03
            2120     12.1572E-03     21.3154E-03    -23.4920E+06     63.8669E+06     55.1005E+06     2.23371E+06    -109.870E-03     214.838E-03    -104.968E-03     73.2421E-03    -111.113E-03     216.064E-03    -104.751E-03     69.5442E-03
            2121     11.3507E-03     21.2314E-03    -29.1758E+06     23.4267E+06     48.1492E+06     899.803E+03    -110.129E-03     214.785E-03    -104.657E-03     80.1756E-03    -111.376E-03     215.873E-03    -104.408E-03     76.4524E-03
            2122     10.5442E-03     21.1398E-03    -35.5942E+06    -9.45175E+06     37.4663E+06     736.086E+03    -110.103E-03     214.379E-03    -104.276E-03     84.1119E-03    -111.306E-03     215.314E-03    -104.023E-03     80.4706E-03
            2123     9.73657E-03     21.0449E-03    -41.9555E+06    -41.9311E+06     27.3869E+06     1.17100E+06    -109.778E-03     213.643E-03    -103.865E-03     84.8433E-03    -110.881E-03     214.369E-03    -103.606E-03     81.3837E-03
            2124     8.92955E-03     20.9501E-03    -48.2487E+06    -67.8886E+06     17.3764E+06     1.51389E+06    -109.195E-03     212.613E-03    -103.418E-03     83.1560E-03    -110.166E-03     213.122E-03    -103.163E-03     79.9624E-03
            2125     8.12125E-03     20.8574E-03    -54.7828E+06    -97.2095E+06     6.90421E+06     1.59650E+06    -108.376E-03     211.335E-03    -102.959E-03     79.4420E-03    -109.192E-03     211.592E-03    -102.704E-03     76.5686E-03
            2126     7.31263E-03     20.7695E-03    -61.5184E+06    -122.008E+06    -3.34844E+06     1.75355E+06    -107.352E-03     209.842E-03    -102.490E-03     74.3559E-03    -108.017E-03     209.865E-03    -102.241E-03     71.8406E-03
            2127     6.50311E-03     20.6869E-03    -68.5430E+06    -146.749E+06    -13.8858E+06     1.90135E+06    -106.213E-03     208.241E-03    -102.028E-03     68.3483E-03    -106.737E-03     208.041E-03    -101.785E-03     66.1976E-03
            2128     5.69255E-03     20.6115E-03    -75.8513E+06    -169.549E+06    -24.8983E+06     1.92225E+06    -105.007E-03     206.589E-03    -101.582E-03     61.5564E-03    -105.410E-03     206.194E-03    -101.351E-03     59.7580E-03
            2129     4.88130E-03     20.5437E-03    -83.4653E+06    -189.638E+06    -37.1053E+06     1.82451E+06    -103.796E-03     204.956E-03    -101.160E-03     54.1310E-03    -104.101E-03     204.399E-03    -100.949E-03     52.6643E-03
            2130     4.06917E-03     20.4847E-03    -91.5374E+06    -205.759E+06    -52.6789E+06     1.59402E+06    -102.647E-03     203.408E-03    -100.761E-03     46.1209E-03    -102.875E-03     202.733E-03    -100.593E-03     44.9569E-03
            2131     3.25640E-03     20.4352E-03    -99.3628E+06    -219.916E+06    -70.5245E+06     1.71020E+06    -101.605E-03     202.011E-03    -100.405E-03     37.5660E-03    -101.770E-03     201.247E-03    -100.295E-03     36.6813E-03
            2132     2.44277E-03     20.3958E-03    -106.041E+06    -235.616E+06    -87.2608E+06     1.70819E+06    -100.792E-03     200.916E-03    -100.123E-03     28.7229E-03    -100.904E-03     200.067E-03    -100.064E-03     28.0892E-03
            2133     1.62872E-03     20.3668E-03    -111.567E+06    -252.561E+06    -102.024E+06     429.631E+03    -100.215E-03     200.132E-03    -99.9176E-03     19.6480E-03    -100.281E-03     199.202E-03    -99.8997E-03     19.2233E-03
            2134     814.390E-06     20.3494E-03    -116.017E+06    -264.093E+06    -113.550E+06    -45.2250E+03    -99.9096E-03     199.652E-03    -99.7423E-03     10.9628E-03    -99.9492E-03     198.672E-03    -99.7589E-03     10.7347E-03
            2135     15.3827E-03     20.3558E-03    -4.82198E+06     114.691E+06     93.8047E+06     333.722E+03    -109.844E-03     216.026E-03    -106.182E-03     16.9554E-03    -110.530E-03     216.830E-03    -105.872E-03     14.2091E-03
            2136     14.5766E-03     20.3213E-03    -9.95393E+06     116.402E+06     86.2376E+06     629.877E+03    -109.651E-03     215.555E-03    -105.904E-03     39.1238E-03    -110.604E-03     216.636E-03    -105.627E-03     35.6864E-03
            2137     13.7707E-03     20.2756E-03    -15.0514E+06     104.009E+06     74.0192E+06     878.488E+03    -109.791E-03     215.393E-03    -105.602E-03     51.0462E-03    -110.846E-03     216.550E-03    -105.361E-03     47.5204E-03
            2138     12.9635E-03     20.2143E-03    -18.6814E+06     95.5084E+06     64.6592E+06     970.490E+03    -110.118E-03     215.392E-03    -105.274E-03     63.7385E-03    -111.304E-03     216.664E-03    -105.063E-03     60.0679E-03
            2139     12.1576E-03     20.1400E-03    -22.8864E+06     64.4182E+06     55.3007E+06     1.41859E+06    -110.596E-03     215.529E-03    -104.933E-03     72.4702E-03    -111.826E-03     216.746E-03    -104.717E-03     68.7404E-03
            2140     11.3516E-03     20.0562E-03    -28.2386E+06     24.2675E+06     48.5630E+06     2.28672E+06    -110.942E-03     215.504E-03    -104.562E-03     78.7864E-03    -112.168E-03     216.576E-03    -104.314E-03     75.0680E-03
            2141     10.5454E-03     19.9658E-03    -34.8190E+06    -9.50386E+06     37.2871E+06     2.47872E+06    -110.946E-03     215.051E-03    -104.105E-03     82.0753E-03    -112.119E-03     215.958E-03    -103.854E-03     78.4549E-03
            2142     9.73956E-03     19.8724E-03    -41.5108E+06    -41.6684E+06     27.3883E+06     2.22301E+06    -110.537E-03     214.144E-03    -103.607E-03     82.2207E-03    -111.605E-03     214.838E-03    -103.350E-03     78.7908E-03
            2143     8.93219E-03     19.7789E-03    -47.9580E+06    -67.6083E+06     17.5431E+06     2.22212E+06    -109.804E-03     212.871E-03    -103.067E-03     79.9725E-03    -110.739E-03     213.345E-03    -102.812E-03     76.8180E-03
            2144     8.12489E-03     19.6882E-03    -54.4382E+06    -96.5838E+06     7.00671E+06     2.27944E+06    -108.804E-03     211.312E-03    -102.507E-03     75.8814E-03    -109.584E-03     211.535E-03    -102.253E-03     73.0609E-03
            2145     7.31639E-03     19.6019E-03    -61.0096E+06    -121.849E+06    -3.48426E+06     2.21963E+06    -107.582E-03     209.519E-03    -101.936E-03     70.6287E-03    -108.212E-03     209.509E-03    -101.689E-03     68.1704E-03
            2146     6.50698E-03     19.5217E-03    -67.7592E+06    -146.667E+06    -13.8279E+06     2.40947E+06    -106.221E-03     207.596E-03    -101.376E-03     64.5682E-03    -106.714E-03     207.368E-03    -101.134E-03     62.4776E-03
            2147     5.69669E-03     19.4480E-03    -75.0759E+06    -168.935E+06    -24.4348E+06     2.57332E+06    -104.791E-03     205.627E-03    -100.836E-03     57.8514E-03    -105.170E-03     205.210E-03    -100.604E-03     56.1170E-03
            2148     4.88527E-03     19.3823E-03    -83.3036E+06    -188.771E+06    -36.5843E+06     2.65322E+06    -103.380E-03     203.705E-03    -100.325E-03     50.6767E-03    -103.669E-03     203.134E-03    -100.113E-03     49.2730E-03
            2149     4.07284E-03     19.3250E-03    -92.0289E+06    -204.666E+06    -52.4372E+06     2.52323E+06    -102.033E-03     201.876E-03    -99.8429E-03     43.0209E-03    -102.252E-03     201.194E-03    -99.6748E-03     41.9164E-03
            2150     3.25939E-03     19.2771E-03    -100.272E+06    -219.354E+06    -70.8331E+06     2.14438E+06    -100.855E-03     200.265E-03    -99.4100E-03     34.9767E-03    -101.017E-03     199.498E-03    -99.3007E-03     34.1371E-03
            2151     2.44538E-03     19.2390E-03    -107.287E+06    -233.664E+06    -90.0024E+06     1.79830E+06    -99.8898E-03     198.932E-03    -99.0426E-03     26.6792E-03    -100.002E-03     198.095E-03    -98.9982E-03     26.0779E-03
            2152     1.63055E-03     19.2110E-03    -112.589E+06    -250.545E+06    -105.039E+06     1.32981E+06    -99.1924E-03     197.961E-03    -98.7686E-03     18.0971E-03    -99.2600E-03     197.044E-03    -98.7673E-03     17.7065E-03
            2153     815.479E-06     19.1936E-03    -116.618E+06    -263.447E+06    -114.325E+06     1.00225E+06    -98.7089E-03     197.308E-03    -98.5992E-03     10.0777E-03    -98.7506E-03     196.332E-03    -98.6197E-03     9.87489E-03
            2154     15.3816E-03     19.1796E-03    -5.18281E+06     114.005E+06     92.9814E+06     161.156E+03    -109.707E-03     215.909E-03    -106.202E-03     16.8596E-03    -110.387E-03     216.706E-03    -105.895E-03     14.1333E-03
            2155     14.5752E-03     19.1430E-03    -9.94986E+06     116.219E+06     86.3010E+06     465.831E+03    -109.633E-03     215.566E-03    -105.933E-03     39.0633E-03    -110.581E-03     216.641E-03    -105.656E-03     35.6346E-03
            2156     13.7688E-03     19.0999E-03    -14.5556E+06     104.456E+06     74.6331E+06    -82.3760E+03    -110.153E-03     215.776E-03    -105.623E-03     50.6582E-03    -111.204E-03     216.930E-03    -105.381E-03     47.1025E-03
            2157     12.9636E-03     19.0368E-03    -19.8644E+06     94.6822E+06     63.5377E+06    -258.553E+03    -110.979E-03     216.232E-03    -105.253E-03     62.7346E-03    -112.157E-03     217.492E-03    -105.044E-03     59.0201E-03
            2158     12.1584E-03     18.9635E-03    -25.1350E+06     62.6401E+06     53.4269E+06     1.09926E+06    -111.695E-03     216.536E-03    -104.841E-03     70.7724E-03    -112.909E-03     217.728E-03    -104.628E-03     67.0164E-03
            2159     11.3533E-03     18.8804E-03    -30.8210E+06     23.1036E+06     46.7970E+06     2.66524E+06    -112.102E-03     216.480E-03    -104.378E-03     76.3556E-03    -113.303E-03     217.518E-03    -104.133E-03     72.6364E-03
            2160     10.5485E-03     18.7908E-03    -36.4437E+06    -8.52449E+06     36.7294E+06     3.30223E+06    -112.105E-03     215.916E-03    -103.812E-03     78.6942E-03    -113.241E-03     216.787E-03    -103.563E-03     75.0972E-03
            2161     9.74270E-03     18.6990E-03    -42.1018E+06    -40.7298E+06     27.0853E+06     2.82592E+06    -111.652E-03     214.834E-03    -103.183E-03     78.1184E-03    -112.674E-03     215.485E-03    -102.927E-03     74.7239E-03
            2162     8.93727E-03     18.6075E-03    -47.8281E+06    -67.3313E+06     17.2492E+06     2.44946E+06    -110.694E-03     213.192E-03    -102.498E-03     75.2023E-03    -111.576E-03     213.616E-03    -102.245E-03     72.1005E-03
            2163     8.13024E-03     18.5189E-03    -53.6955E+06    -96.1237E+06     7.13023E+06     2.70081E+06    -109.367E-03     211.160E-03    -101.793E-03     70.6512E-03    -110.093E-03     211.333E-03    -101.540E-03     67.9042E-03
            2164     7.32239E-03     18.4352E-03    -60.0906E+06    -121.294E+06    -3.24573E+06     2.78749E+06    -107.816E-03     208.894E-03    -101.078E-03     65.1773E-03    -108.397E-03     208.841E-03    -100.831E-03     62.8033E-03
            2165     6.51335E-03     18.3571E-03    -66.9396E+06    -146.358E+06    -13.5598E+06     2.94661E+06    -106.133E-03     206.512E-03    -100.379E-03     59.1289E-03    -106.585E-03     206.246E-03    -100.137E-03     57.1280E-03
            2166     5.70284E-03     18.2861E-03    -74.3204E+06    -168.482E+06    -24.0076E+06     3.54145E+06    -104.400E-03     204.108E-03    -99.7080E-03     52.6624E-03    -104.745E-03     203.661E-03    -99.4759E-03     51.0221E-03
            2167     4.89108E-03     18.2226E-03    -82.3598E+06    -187.652E+06    -36.4563E+06     3.80068E+06    -102.688E-03     201.761E-03    -99.0731E-03     45.8380E-03    -102.950E-03     201.170E-03    -98.8638E-03     44.5266E-03
            2168     4.07813E-03     18.1675E-03    -90.5081E+06    -203.318E+06    -52.4095E+06     3.65171E+06    -101.075E-03     199.558E-03    -98.4827E-03     38.7436E-03    -101.272E-03     198.863E-03    -98.3187E-03     37.7228E-03
            2169     3.26408E-03     18.1214E-03    -98.1391E+06    -217.133E+06    -70.1513E+06     2.87349E+06    -99.6844E-03     197.643E-03    -97.9586E-03     31.4658E-03    -99.8291E-03     196.872E-03    -97.8522E-03     30.6930E-03
            2170     2.44894E-03     18.0846E-03    -104.850E+06    -232.346E+06    -86.5538E+06     2.00161E+06    -98.5770E-03     196.097E-03    -97.5200E-03     23.9745E-03    -98.6775E-03     195.251E-03    -97.4638E-03     23.4186E-03
            2171     1.63327E-03     18.0580E-03    -110.695E+06    -249.053E+06    -100.929E+06     2.18155E+06    -97.7132E-03     194.881E-03    -97.1676E-03     16.2784E-03    -97.7767E-03     193.960E-03    -97.1506E-03     15.9290E-03
            2172     816.827E-06     18.0413E-03    -114.861E+06    -260.220E+06    -112.147E+06     1.81967E+06    -97.0149E-03     193.994E-03    -96.9789E-03     8.85767E-03    -97.0548E-03     193.027E-03    -96.9958E-03     8.68206E-03
            2173     15.3812E-03     18.0003E-03    -5.00942E+06     114.173E+06     93.7690E+06    -17.8506E+03    -109.980E-03     216.195E-03    -106.216E-03     15.7089E-03    -110.655E-03     216.987E-03    -105.905E-03     12.9689E-03
            2174     14.5756E-03     17.9672E-03    -10.5607E+06     115.117E+06     85.1904E+06    -118.149E+03    -109.981E-03     215.903E-03    -105.922E-03     37.3794E-03    -110.920E-03     216.967E-03    -105.648E-03     33.9187E-03
            2175     13.7699E-03     17.9214E-03    -16.8118E+06     105.424E+06     72.1269E+06     703.298E+03    -110.964E-03     216.532E-03    -105.568E-03     49.4293E-03    -112.009E-03     217.682E-03    -105.336E-03     45.8643E-03
            2176     12.9649E-03     17.8593E-03    -23.1802E+06     94.6484E+06     61.1693E+06     279.222E+03    -112.272E-03     217.402E-03    -105.130E-03     60.7896E-03    -113.436E-03     218.642E-03    -104.928E-03     57.0582E-03
            2177     12.1605E-03     17.7856E-03    -28.8140E+06     60.1245E+06     50.6322E+06     790.227E+03    -113.306E-03     217.917E-03    -104.611E-03     67.7859E-03    -114.489E-03     219.064E-03    -104.403E-03     64.0135E-03
            2178     11.3571E-03     17.7030E-03    -33.4807E+06     22.2837E+06     45.5048E+06     1.82602E+06    -113.849E-03     217.856E-03    -104.007E-03     71.9600E-03    -115.002E-03     218.837E-03    -103.763E-03     68.2392E-03
            2179     10.5533E-03     17.6151E-03    -37.8967E+06    -8.05490E+06     36.1610E+06     2.05788E+06    -113.729E-03     216.998E-03    -103.269E-03     73.1808E-03    -114.804E-03     217.804E-03    -103.021E-03     69.6030E-03
            2180     9.74984E-03     17.5247E-03    -42.1798E+06    -39.6884E+06     26.8237E+06     2.01128E+06    -113.049E-03     215.498E-03    -102.450E-03     71.5860E-03    -113.997E-03     216.079E-03    -102.197E-03     68.2440E-03
            2181     8.94485E-03     17.4357E-03    -47.3005E+06    -67.3464E+06     17.0079E+06     2.30940E+06    -111.747E-03     213.313E-03    -101.566E-03     67.9504E-03    -112.551E-03     213.661E-03    -101.315E-03     64.9352E-03
            2182     8.13923E-03     17.3501E-03    -53.1107E+06    -96.2529E+06     6.93089E+06     2.91552E+06    -110.014E-03     210.671E-03    -100.657E-03     63.1285E-03    -110.667E-03     210.774E-03    -100.406E-03     60.4908E-03
            2183     7.33189E-03     17.2692E-03    -59.3172E+06    -120.608E+06    -2.98289E+06     3.35679E+06    -108.005E-03     207.747E-03    -99.7420E-03     57.5283E-03    -108.522E-03     207.634E-03    -99.4960E-03     55.2803E-03
            2184     6.52284E-03     17.1945E-03    -66.2008E+06    -145.924E+06    -13.4778E+06     3.87283E+06    -105.846E-03     204.697E-03    -98.8512E-03     51.5945E-03    -106.243E-03     204.380E-03    -98.6110E-03     49.7281E-03
            2185     5.71229E-03     17.1263E-03    -73.3798E+06    -168.268E+06    -24.2154E+06     4.33275E+06    -103.658E-03     201.661E-03    -98.0030E-03     45.5362E-03    -103.958E-03     201.174E-03    -97.7737E-03     44.0245E-03
            2186     4.90009E-03     17.0657E-03    -80.8092E+06    -186.237E+06    -36.4565E+06     4.49562E+06    -101.517E-03     198.729E-03    -97.2118E-03     39.3652E-03    -101.744E-03     198.113E-03    -97.0068E-03     38.1712E-03
            2187     4.08614E-03     17.0133E-03    -88.1066E+06    -201.333E+06    -52.1186E+06     4.00195E+06    -99.5663E-03     196.056E-03    -96.4893E-03     33.1787E-03    -99.7341E-03     195.347E-03    -96.3302E-03     32.2554E-03
            2188     3.27072E-03     16.9693E-03    -95.1320E+06    -214.169E+06    -68.8886E+06     3.20141E+06    -97.9057E-03     193.763E-03    -95.8575E-03     26.8874E-03    -98.0286E-03     192.988E-03    -95.7535E-03     26.1952E-03
            2189     2.45425E-03     16.9345E-03     -102.07E+06    -231.105E+06    -83.2410E+06     2.55315E+06    -96.5394E-03     191.890E-03    -95.3501E-03     20.4281E-03    -96.6254E-03     191.034E-03    -95.2832E-03     19.9383E-03
            2190     1.63669E-03     16.9090E-03    -107.994E+06    -247.349E+06    -96.9599E+06     2.41905E+06    -95.5058E-03     190.466E-03    -94.9602E-03     13.8271E-03    -95.5608E-03     189.540E-03    -94.9297E-03     13.5206E-03
            2191     818.557E-06     16.8938E-03    -111.927E+06    -255.566E+06    -109.001E+06     1.82896E+06    -94.8494E-03     189.534E-03    -94.6849E-03     7.51119E-03    -94.8849E-03     188.581E-03    -94.6970E-03     7.35715E-03
            2192     15.3824E-03     16.8221E-03    -5.18024E+06     112.975E+06     93.2027E+06    -253.098E+03    -110.367E-03     216.569E-03    -106.202E-03     15.6883E-03    -111.036E-03     217.351E-03    -105.893E-03     12.9414E-03
            2193     14.5765E-03     16.7899E-03    -9.88038E+06     114.449E+06     86.3802E+06     1.36305E+06    -111.376E-03     217.241E-03    -105.866E-03     37.3816E-03    -112.301E-03     218.288E-03    -105.585E-03     33.9251E-03
            2194     13.7714E-03     16.7429E-03    -15.5899E+06     106.050E+06     73.8492E+06     2.21892E+06    -112.946E-03     218.354E-03    -105.409E-03     48.0468E-03    -113.963E-03     219.479E-03    -105.171E-03     44.4743E-03
            2195     12.9679E-03     16.6798E-03    -21.4664E+06     95.7372E+06     61.8584E+06     1.84683E+06    -114.495E-03     219.314E-03    -104.819E-03     57.1078E-03    -115.607E-03     220.510E-03    -104.617E-03     53.3746E-03
            2196     12.1661E-03     16.6057E-03    -27.0973E+06     60.6725E+06     51.0764E+06     857.121E+03    -115.658E-03     219.776E-03    -104.118E-03     62.4190E-03    -116.767E-03     220.856E-03    -103.912E-03     58.6475E-03
            2197     11.3645E-03     16.5241E-03    -31.7444E+06     21.5998E+06     45.5219E+06     215.305E+03    -116.128E-03     219.429E-03    -103.301E-03     65.2079E-03    -117.189E-03     220.322E-03    -103.059E-03     61.4959E-03
            2198     10.5633E-03     16.4378E-03    -36.0945E+06    -7.95786E+06     36.3074E+06     572.875E+03    -115.805E-03     218.128E-03    -102.323E-03     65.2721E-03    -116.777E-03     218.839E-03    -102.078E-03     61.7395E-03
            2199     9.76095E-03     16.3499E-03    -41.1858E+06    -39.5302E+06     26.8216E+06     1.19138E+06    -114.643E-03     215.893E-03    -101.250E-03     62.7907E-03    -115.489E-03     216.376E-03    -100.999E-03     59.5431E-03
            2200     8.95804E-03     16.2643E-03    -46.4798E+06    -68.0497E+06     16.8545E+06     2.09757E+06    -112.847E-03     212.956E-03    -100.108E-03     58.5612E-03    -113.553E-03     213.206E-03    -99.8581E-03     55.6733E-03
            2201     8.15298E-03     16.1822E-03    -52.0474E+06    -96.3543E+06     6.83540E+06     3.05343E+06    -110.561E-03     209.499E-03    -98.9387E-03     53.4850E-03    -111.125E-03     209.517E-03    -98.6893E-03     50.9956E-03
            2202     7.34629E-03     16.1052E-03    -58.1121E+06    -120.348E+06    -2.99919E+06     3.84901E+06    -107.949E-03     205.721E-03    -97.7718E-03     48.0901E-03    -108.390E-03     205.537E-03    -97.5280E-03     46.0034E-03
            2203     6.53753E-03     16.0344E-03    -64.2906E+06    -145.600E+06    -12.9612E+06     4.51517E+06    -105.212E-03     201.857E-03    -96.6451E-03     42.5984E-03    -105.545E-03     201.482E-03    -96.4056E-03     40.8911E-03
            2204     5.72638E-03     15.9701E-03    -71.3067E+06    -167.527E+06    -23.3775E+06     5.12257E+06    -102.398E-03     197.983E-03    -95.5841E-03     37.2286E-03    -102.648E-03     197.452E-03    -95.3547E-03     35.8705E-03
            2205     4.91288E-03     15.9131E-03    -78.9896E+06    -184.342E+06    -35.6773E+06     5.01891E+06    -99.7408E-03     194.349E-03    -94.6086E-03     31.9817E-03    -99.9316E-03     193.709E-03    -94.4051E-03     30.9222E-03
            2206     4.09748E-03     15.8639E-03    -86.4943E+06    -198.845E+06    -51.5282E+06     4.43533E+06    -97.4034E-03     191.131E-03    -93.7274E-03     26.8126E-03    -97.5467E-03     190.410E-03    -93.5713E-03     26.0038E-03
            2207     3.28035E-03     15.8226E-03    -93.5975E+06    -211.855E+06    -68.5549E+06     3.89319E+06    -95.3749E-03     188.340E-03    -92.9650E-03     21.6214E-03    -95.4807E-03     187.560E-03    -92.8649E-03     21.0270E-03
            2208     2.46164E-03     15.7899E-03    -100.080E+06    -228.929E+06    -83.1994E+06     3.39283E+06    -93.7124E-03     186.078E-03    -92.3653E-03     16.3358E-03    -93.7844E-03     185.222E-03    -92.3042E-03     15.9234E-03
            2209     1.64173E-03     15.7664E-03    -105.952E+06    -244.564E+06     -96.275E+06     2.47294E+06    -92.5200E-03     184.446E-03    -91.9265E-03     11.0048E-03    -92.5665E-03     183.527E-03    -91.8996E-03     10.7435E-03
            2210     821.029E-06     15.7516E-03    -109.768E+06    -251.398E+06    -106.756E+06     1.32701E+06    -91.7801E-03     183.433E-03    -91.6534E-03     5.88129E-03    -91.8133E-03     182.493E-03    -91.6635E-03     5.74388E-03
            2211     15.3804E-03     15.6443E-03    -4.96237E+06     112.105E+06     92.7401E+06     15.2972E+03    -111.826E-03     217.968E-03    -106.142E-03     15.1450E-03    -112.485E-03     218.738E-03    -105.834E-03     12.3580E-03
            2212     14.5770E-03     15.6088E-03    -10.0893E+06     113.511E+06     86.4687E+06    -188.167E+03    -114.019E-03     219.709E-03    -105.690E-03     35.1808E-03    -114.928E-03     220.735E-03    -105.408E-03     31.6173E-03
            2213     13.7762E-03     15.5614E-03    -13.0207E+06     104.482E+06     76.1593E+06     827.616E+03    -116.281E-03     221.332E-03    -105.052E-03     44.4324E-03    -117.255E-03     222.411E-03    -104.804E-03     40.7488E-03
            2214     12.9763E-03     15.4974E-03    -16.5488E+06     96.1169E+06     65.3077E+06     2.22895E+06    -117.753E-03     221.981E-03    -104.228E-03     52.0953E-03    -118.789E-03     223.110E-03    -104.017E-03     48.3257E-03
            2215     12.1767E-03     15.4238E-03    -21.1067E+06     63.8577E+06     54.6657E+06     1.86781E+06    -118.682E-03     221.948E-03    -103.265E-03     56.0239E-03    -119.695E-03     222.954E-03    -103.054E-03     52.2655E-03
            2216     11.3776E-03     15.3435E-03    -27.0548E+06     22.0278E+06     47.1627E+06       744.9E+03    -118.900E-03     221.064E-03    -102.163E-03     57.2776E-03    -119.848E-03     221.857E-03    -101.920E-03     53.6164E-03
            2217     10.5784E-03     15.2591E-03    -33.4446E+06    -7.95010E+06     37.1604E+06     698.364E+03    -118.053E-03     218.939E-03    -100.886E-03     56.1141E-03    -118.913E-03     219.545E-03    -100.641E-03     52.6731E-03
            2218     9.77855E-03     15.1754E-03    -39.2835E+06    -39.8443E+06     27.2509E+06     1.41466E+06    -116.317E-03     215.823E-03    -99.5061E-03     52.8744E-03    -117.055E-03     216.202E-03    -99.2551E-03     49.7523E-03
            2219     8.97638E-03     15.0932E-03    -45.1667E+06    -68.5796E+06     16.9460E+06     2.19638E+06    -113.846E-03     211.902E-03    -98.0561E-03     48.3061E-03    -114.453E-03     212.057E-03    -97.8064E-03     45.5681E-03
            2220     8.17276E-03     15.0163E-03    -51.0010E+06    -96.4503E+06     6.85127E+06     3.18839E+06    -110.845E-03     207.431E-03    -96.5862E-03     43.2191E-03    -111.325E-03     207.368E-03    -96.3382E-03     40.8946E-03
            2221     7.36604E-03     14.9442E-03    -56.5630E+06    -120.194E+06    -2.62645E+06     4.04944E+06    -107.505E-03     202.641E-03    -95.1362E-03     38.1840E-03    -107.874E-03     202.391E-03    -94.8930E-03     36.2663E-03
            2222     6.55663E-03     14.8781E-03    -62.7438E+06    -145.405E+06    -12.2970E+06     4.98558E+06    -104.048E-03     197.799E-03    -93.7506E-03     33.2833E-03    -104.323E-03     197.371E-03    -93.5103E-03     31.7449E-03
            2223     5.74449E-03     14.8190E-03    -69.5625E+06    -166.628E+06    -22.2581E+06     5.75323E+06    -100.647E-03     193.101E-03    -92.4541E-03     28.6439E-03    -100.853E-03     192.533E-03    -92.2229E-03     27.4417E-03
            2224     4.92960E-03     14.7664E-03    -76.6257E+06    -182.101E+06    -34.8966E+06     5.91203E+06    -97.4396E-03     188.700E-03    -91.2604E-03     24.3148E-03    -97.5955E-03     188.038E-03    -91.0597E-03     23.3973E-03
            2225     4.11218E-03     14.7209E-03    -83.9454E+06    -195.868E+06    -50.7338E+06     5.17314E+06    -94.5588E-03     184.756E-03    -90.1972E-03     20.2159E-03    -94.6766E-03     184.027E-03    -90.0451E-03     19.5266E-03
            2226     3.29256E-03     14.6830E-03    -90.7468E+06    -209.980E+06    -65.5933E+06     4.42690E+06    -92.0894E-03     181.399E-03    -89.3093E-03     16.2763E-03    -92.1767E-03     180.608E-03    -89.2012E-03     15.7767E-03
            2227     2.47101E-03     14.6531E-03    -97.0347E+06    -226.276E+06    -79.5912E+06     4.39277E+06    -90.1683E-03     178.778E-03    -88.6098E-03     12.2980E-03    -90.2280E-03     177.920E-03    -88.5390E-03     11.9639E-03
            2228     1.64818E-03     14.6312E-03    -103.038E+06    -240.007E+06    -94.2157E+06     3.40090E+06    -88.8020E-03     176.881E-03    -88.0792E-03     8.26600E-03    -88.8410E-03     175.974E-03    -88.0529E-03     8.05984E-03
            2229     824.404E-06     14.6179E-03    -107.744E+06    -247.892E+06    -105.520E+06     1.47083E+06    -87.9007E-03     175.659E-03    -87.7580E-03     4.30645E-03    -87.9299E-03     174.730E-03    -87.7699E-03     4.19493E-03
            2230     15.3858E-03     14.4625E-03    -4.15671E+06     113.656E+06     94.0364E+06     77.7588E+03    -115.593E-03     221.573E-03    -105.981E-03     14.5807E-03    -116.253E-03     222.349E-03    -105.669E-03     11.6700E-03
            2231     14.5844E-03     14.4260E-03    -9.44704E+06     113.649E+06     85.7070E+06    -710.512E+03    -117.686E-03     222.991E-03    -105.305E-03     33.4438E-03    -118.580E-03     224.007E-03    -105.028E-03     29.7476E-03
            2232     13.7850E-03     14.3749E-03    -15.0781E+06     102.013E+06     73.1259E+06    -1.70108E+06    -119.903E-03     224.329E-03    -104.425E-03     41.3408E-03    -120.852E-03     225.375E-03    -104.186E-03     37.5271E-03
            2233     12.9878E-03     14.3124E-03    -18.0533E+06     94.3498E+06     64.2089E+06    -415.135E+03    -121.635E-03     224.967E-03    -103.333E-03     47.6604E-03    -122.628E-03     226.046E-03    -103.122E-03     43.7849E-03
            2234     12.1914E-03     14.2391E-03    -21.6822E+06     64.1879E+06     54.2864E+06     1.55971E+06    -122.413E-03     224.463E-03    -102.049E-03     49.8112E-03    -123.364E-03     225.408E-03    -101.839E-03     46.0218E-03
            2235     11.3958E-03     14.1606E-03    -26.7379E+06     24.4389E+06     47.7975E+06     2.14405E+06    -121.947E-03     222.555E-03    -100.609E-03     49.4752E-03    -122.817E-03     223.280E-03    -100.366E-03     45.8656E-03
            2236     10.5992E-03     14.0805E-03    -32.2980E+06    -7.22930E+06     37.5303E+06     1.61902E+06    -120.425E-03     219.413E-03    -98.9886E-03     47.2974E-03    -121.195E-03     219.936E-03    -98.7437E-03     43.9468E-03
            2237     9.80061E-03     14.0004E-03    -38.1408E+06    -40.0247E+06     27.2321E+06     1.94230E+06    -117.912E-03     215.178E-03    -97.2662E-03     43.3032E-03    -118.561E-03     215.472E-03    -97.0167E-03     40.3033E-03
            2238     9.00050E-03     13.9246E-03    -43.9610E+06    -68.3235E+06     17.2079E+06     2.83021E+06    -114.596E-03     210.082E-03    -95.4863E-03     38.5505E-03    -115.122E-03     210.161E-03    -95.2375E-03     35.9634E-03
            2239     8.19655E-03     13.8529E-03    -49.6671E+06    -96.2670E+06     7.25139E+06     3.41293E+06    -110.869E-03     204.568E-03    -93.6995E-03     33.5514E-03    -111.278E-03     204.439E-03    -93.4516E-03     31.3847E-03
            2240     7.39015E-03     13.7872E-03    -55.8641E+06    -120.479E+06    -2.35827E+06     4.33705E+06    -106.789E-03     198.734E-03    -91.9453E-03     28.5911E-03    -107.101E-03     198.427E-03    -91.7014E-03     26.8338E-03
            2241     6.57994E-03     13.7275E-03    -62.2458E+06    -144.967E+06    -12.1675E+06     5.41329E+06    -102.556E-03     192.829E-03    -90.2738E-03     24.1134E-03    -102.787E-03     192.361E-03    -90.0342E-03     22.7317E-03
            2242     5.76634E-03     13.6738E-03    -68.2910E+06    -165.491E+06    -22.0309E+06     5.69712E+06    -98.4697E-03     187.187E-03    -88.7176E-03     20.1613E-03    -98.6397E-03     186.591E-03    -88.4887E-03     19.0945E-03
            2243     4.94958E-03     13.6267E-03    -74.5605E+06    -180.583E+06    -34.5954E+06     6.02755E+06    -94.6332E-03     181.927E-03    -87.2936E-03     16.8342E-03    -94.7599E-03     181.248E-03    -87.0966E-03     16.0354E-03
            2244     4.12970E-03     13.5860E-03    -80.8836E+06    -192.305E+06    -49.6986E+06     5.78746E+06    -91.1518E-03     177.192E-03    -86.0401E-03     13.8532E-03    -91.2467E-03     176.460E-03    -85.8924E-03     13.2697E-03
            2245     3.30693E-03     13.5522E-03    -87.5551E+06    -207.952E+06    -62.7421E+06     5.20954E+06    -88.2342E-03     173.252E-03    -85.0176E-03     11.1092E-03    -88.3041E-03     172.453E-03    -84.9029E-03     10.6966E-03
            2246     2.48212E-03     13.5251E-03    -94.3668E+06    -223.877E+06    -76.2536E+06     5.32866E+06    -85.9870E-03     170.203E-03    -84.2156E-03     8.44277E-03    -86.0372E-03     169.343E-03    -84.1354E-03     8.17868E-03
            2247     1.65567E-03     13.5057E-03    -100.382E+06    -234.561E+06    -91.1363E+06     4.64650E+06    -84.3877E-03     168.008E-03    -83.6201E-03     5.70946E-03    -84.4238E-03     167.117E-03    -83.5901E-03     5.55866E-03
            2248     828.101E-06     13.4936E-03    -104.680E+06    -242.399E+06    -102.417E+06     2.69530E+06    -83.4511E-03     166.701E-03    -83.2499E-03     3.06664E-03    -83.4770E-03     165.790E-03    -83.2587E-03     2.99064E-03
            2249     15.3869E-03     13.2764E-03    -4.94464E+06     113.414E+06     93.2849E+06    -737.078E+03    -119.931E-03     225.676E-03    -105.744E-03     15.9409E-03    -120.605E-03     226.464E-03    -105.435E-03     12.8623E-03
            2250     14.5912E-03     13.2368E-03    -9.29552E+06     114.411E+06     86.7576E+06    -601.697E+03    -122.313E-03     227.129E-03    -104.816E-03     33.8574E-03    -123.218E-03     228.156E-03    -104.535E-03     29.9896E-03
            2251     13.7963E-03     13.1877E-03    -14.2150E+06     103.366E+06     74.0524E+06    -1.13569E+06    -124.488E-03     228.124E-03    -103.637E-03     39.9707E-03    -125.431E-03     229.169E-03    -103.396E-03     36.0065E-03
            2252     13.0023E-03     13.1222E-03    -20.5721E+06     92.2139E+06     61.4457E+06    -1.81686E+06    -126.055E-03     228.260E-03    -102.205E-03     44.0100E-03    -127.028E-03     229.310E-03    -102.002E-03     39.9933E-03
            2253     12.2107E-03     13.0513E-03    -24.8959E+06     62.5990E+06     51.9337E+06    -944.394E+03    -126.333E-03     226.903E-03    -100.570E-03     44.5709E-03    -127.252E-03     227.806E-03    -100.365E-03     40.6821E-03
            2254     11.4174E-03     12.9767E-03    -28.1845E+06     24.7529E+06     46.5928E+06     616.083E+03    -125.227E-03     223.990E-03    -98.7628E-03     42.9913E-03    -126.049E-03     224.666E-03    -98.5249E-03     39.3530E-03
            2255     10.6230E-03     12.9006E-03    -32.3515E+06    -6.70065E+06     37.0369E+06     1.98666E+06    -122.759E-03     219.540E-03    -96.7806E-03     39.7060E-03    -123.469E-03     220.005E-03    -96.5388E-03     36.4085E-03
            2256     9.82701E-03     12.8271E-03    -37.7140E+06    -39.4330E+06     26.9563E+06     2.62993E+06    -119.333E-03     214.044E-03    -94.7108E-03     35.3298E-03    -119.920E-03     214.280E-03    -94.4642E-03     32.4299E-03
            2257     9.02668E-03     12.7579E-03    -43.2316E+06    -68.1585E+06     17.1866E+06     3.04038E+06    -115.357E-03     207.950E-03    -92.5925E-03     30.2082E-03    -115.825E-03     207.974E-03    -92.3451E-03     27.7332E-03
            2258     8.22403E-03     12.6932E-03    -49.0455E+06    -95.9752E+06     7.45954E+06     4.08089E+06    -110.789E-03     201.263E-03    -90.4742E-03     24.8706E-03    -111.147E-03     201.086E-03    -90.2266E-03     22.8349E-03
            2259     7.41681E-03     12.6350E-03    -54.9715E+06    -120.220E+06    -2.13829E+06     4.83529E+06    -105.871E-03     194.277E-03    -88.4068E-03     20.0873E-03    -106.140E-03     193.932E-03    -88.1635E-03     18.4618E-03
            2260     6.60600E-03     12.5825E-03    -60.6730E+06    -144.078E+06    -11.5747E+06     5.28888E+06    -100.897E-03     187.341E-03    -86.4445E-03     16.1672E-03    -101.093E-03     186.845E-03    -86.2055E-03     14.8995E-03
            2261     5.79085E-03     12.5360E-03    -67.1033E+06    -164.169E+06    -21.5525E+06     5.79216E+06    -96.0010E-03     180.629E-03    -84.6276E-03     13.0067E-03    -96.1469E-03     180.016E-03    -84.4000E-03     12.0473E-03
            2262     4.97162E-03     12.4951E-03    -73.7915E+06    -179.158E+06    -34.5294E+06     5.83969E+06    -91.4708E-03     174.453E-03    -82.9825E-03     10.5352E-03    -91.5817E-03     173.766E-03    -82.7884E-03     9.82444E-03
            2263     4.14877E-03     12.4603E-03    -80.0602E+06    -189.994E+06    -49.8009E+06     5.92168E+06    -87.4856E-03     169.026E-03    -81.5408E-03     8.52532E-03    -87.5705E-03     168.296E-03    -81.3983E-03     8.01715E-03
            2264     3.32293E-03     12.4309E-03    -86.3052E+06    -205.622E+06    -63.1629E+06     6.34175E+06    -84.1403E-03     164.497E-03    -80.3569E-03     6.78615E-03    -84.2013E-03     163.704E-03    -80.2495E-03     6.44621E-03
            2265     2.49437E-03     12.4077E-03    -92.6376E+06    -220.624E+06    -75.6109E+06     6.02765E+06    -81.4843E-03     160.922E-03    -79.4378E-03     5.16232E-03    -81.5285E-03     160.072E-03    -79.3617E-03     4.95019E-03
            2266     1.66385E-03     12.3905E-03    -97.7318E+06    -229.132E+06    -88.2834E+06     4.77475E+06    -79.6361E-03     158.412E-03    -78.7754E-03     3.47870E-03    -79.6697E-03     157.539E-03    -78.7429E-03     3.35753E-03
            2267     832.130E-06     12.3802E-03    -100.986E+06    -235.393E+06    -97.9932E+06     2.93528E+06    -78.6267E-03     156.959E-03    -78.3323E-03     1.78562E-03    -78.6504E-03     156.071E-03    -78.3345E-03     1.72817E-03
            2268     15.3928E-03     12.0830E-03    -5.06098E+06     114.581E+06     94.1230E+06    -820.443E+03    -124.643E-03     230.135E-03    -105.492E-03     17.1791E-03    -125.343E-03     230.951E-03    -105.180E-03     13.8887E-03
            2269     14.5988E-03     12.0450E-03    -10.2116E+06     114.601E+06     86.4179E+06    -1.96075E+06    -127.250E-03     231.532E-03    -104.281E-03     34.1141E-03    -128.188E-03     232.589E-03    -104.001E-03     29.9722E-03
            2270     13.8080E-03     11.9918E-03    -15.1289E+06     103.206E+06     73.4886E+06    -1.19411E+06    -129.763E-03     232.538E-03    -102.774E-03     39.5522E-03    -130.727E-03     233.601E-03    -102.535E-03     35.3586E-03
            2271     13.0200E-03     11.9296E-03    -19.3845E+06     93.7192E+06     62.1674E+06    -1.32907E+06    -130.765E-03     231.749E-03    -100.985E-03     41.9612E-03    -131.733E-03     232.802E-03    -100.782E-03     37.7842E-03
            2272     12.2296E-03     11.8607E-03    -23.8620E+06     62.1044E+06     51.0759E+06    -2.12497E+06    -130.256E-03     229.238E-03    -98.9818E-03     40.9161E-03    -131.151E-03     230.121E-03    -98.7819E-03     36.9079E-03
            2273     11.4404E-03     11.7901E-03    -28.8557E+06     22.0839E+06     44.5547E+06    -850.305E+03    -128.264E-03     225.082E-03    -96.8185E-03     38.0215E-03    -129.053E-03     225.720E-03    -96.5859E-03     34.3215E-03
            2274     10.6488E-03     11.7211E-03    -33.8358E+06    -7.56492E+06     35.4918E+06     1.07747E+06    -124.933E-03     219.426E-03    -94.4924E-03     34.1990E-03    -125.614E-03     219.858E-03    -94.2549E-03     30.8970E-03
            2275     9.85262E-03     11.6553E-03    -38.2078E+06    -38.8687E+06     26.2915E+06     2.40134E+06    -120.893E-03     212.975E-03    -92.0819E-03     29.2229E-03    -121.448E-03     213.182E-03    -91.8386E-03     26.3559E-03
            2276     9.05474E-03     11.5927E-03    -43.4217E+06    -68.1378E+06     16.6654E+06     3.40395E+06    -116.037E-03     205.666E-03    -89.6287E-03     23.4981E-03    -116.473E-03     205.659E-03    -89.3836E-03     21.0894E-03
            2277     8.25176E-03     11.5376E-03    -49.0205E+06    -95.8014E+06     7.20508E+06     4.24567E+06    -110.477E-03     197.679E-03    -87.2018E-03     18.3057E-03    -110.809E-03     197.477E-03    -86.9558E-03     16.3488E-03
            2278     7.44447E-03     11.4876E-03    -54.1554E+06    -119.149E+06    -1.60063E+06     4.74066E+06    -104.666E-03     189.530E-03    -84.8638E-03     14.1551E-03    -104.914E-03     189.168E-03    -84.6205E-03     12.6099E-03
            2279     6.63201E-03     11.4439E-03    -60.0109E+06    -143.346E+06    -10.8109E+06     5.28496E+06    -98.9175E-03     181.586E-03    -82.6682E-03     10.9408E-03    -99.0990E-03     181.077E-03    -82.4274E-03     9.75029E-03
            2280     5.81496E-03     11.4054E-03    -66.2585E+06    -163.113E+06    -21.2328E+06     5.97511E+06    -93.4400E-03     174.083E-03    -80.6429E-03     8.63372E-03    -93.5746E-03     173.465E-03    -80.4165E-03     7.74327E-03
            2281     4.99339E-03     11.3723E-03    -72.4882E+06    -176.781E+06    -34.1422E+06     5.90774E+06    -88.4107E-03     167.222E-03    -78.8112E-03     6.89007E-03    -88.5134E-03     166.539E-03    -78.6204E-03     6.23517E-03
            2282     4.16772E-03     11.3434E-03    -78.7697E+06    -189.077E+06    -47.3072E+06     5.74124E+06    -83.9879E-03     161.203E-03    -77.2151E-03     5.51510E-03    -84.0680E-03     160.469E-03    -77.0632E-03     5.04725E-03
            2283     3.33852E-03     11.3197E-03    -84.6902E+06    -203.779E+06    -59.8790E+06     6.52230E+06    -80.2712E-03     156.151E-03    -75.8799E-03     4.34852E-03    -80.3296E-03     155.358E-03    -75.7610E-03     4.04276E-03
            2284     2.50652E-03     11.3005E-03    -90.1409E+06    -215.640E+06    -72.9060E+06     5.99054E+06    -77.3014E-03     152.107E-03    -74.8056E-03     3.26351E-03    -77.3431E-03     151.273E-03    -74.7268E-03     3.07329E-03
            2285     1.67226E-03     11.2865E-03    -94.7733E+06    -223.793E+06    -85.3841E+06     3.97849E+06    -75.1290E-03     149.136E-03    -74.0067E-03     2.19654E-03    -75.1592E-03     148.281E-03    -73.9717E-03     2.08023E-03
            2286     836.670E-06     11.2773E-03    -97.4246E+06    -229.398E+06    -94.8105E+06     2.08012E+06    -73.8495E-03     147.298E-03    -73.4481E-03     1.14365E-03    -73.8685E-03     146.430E-03    -73.4482E-03     1.08365E-03
            2287     15.3957E-03     10.8872E-03    -4.51653E+06     116.007E+06     95.3255E+06    -856.733E+03    -129.343E-03     234.594E-03    -105.250E-03     19.4453E-03    -130.076E-03     235.445E-03    -104.935E-03     15.9373E-03
            2288     14.6070E-03     10.8457E-03    -9.93383E+06     115.126E+06     86.9646E+06    -873.229E+03    -132.405E-03     236.162E-03    -103.757E-03     36.4601E-03    -133.383E-03     237.262E-03    -103.475E-03     32.0819E-03
            2289     13.8207E-03     10.7923E-03    -15.5042E+06     103.075E+06     73.3509E+06    -1.99219E+06    -134.726E-03     236.656E-03    -101.930E-03     39.9601E-03    -135.719E-03     237.747E-03    -101.690E-03     35.5281E-03
            2290     13.0340E-03     10.7315E-03    -19.6783E+06     94.4451E+06     61.2544E+06    -2.41305E+06    -135.202E-03     235.000E-03    -99.7982E-03     40.5323E-03    -136.187E-03     236.074E-03    -99.6003E-03     36.1497E-03
            2291     12.2501E-03     10.6667E-03    -24.8663E+06     62.0301E+06     49.2872E+06    -1.24222E+06    -133.722E-03     231.183E-03    -97.4613E-03     38.5213E-03    -134.622E-03     232.073E-03    -97.2687E-03     34.4032E-03
            2292     11.4621E-03     10.6030E-03    -30.6623E+06     20.8799E+06     42.3321E+06    -632.587E+03    -130.819E-03     225.806E-03    -94.9869E-03     35.0404E-03    -131.609E-03     226.441E-03    -94.7611E-03     31.2685E-03
            2293     10.6708E-03     10.5417E-03    -35.4943E+06    -8.61396E+06     33.2885E+06    -44.1804E+03    -127.096E-03     219.446E-03    -92.3503E-03     30.3754E-03    -127.773E-03     219.872E-03    -92.1199E-03     27.0068E-03
            2294     9.87858E-03     10.4828E-03    -40.4575E+06    -40.1431E+06     24.3356E+06     1.50552E+06    -122.080E-03     211.717E-03    -89.6379E-03     24.8627E-03    -122.630E-03     211.914E-03    -89.3994E-03     21.9730E-03
            2295     9.08016E-03     10.4312E-03    -45.2424E+06    -68.4011E+06     15.4537E+06     3.20582E+06    -115.937E-03     202.868E-03    -86.9307E-03     19.6470E-03    -116.370E-03     202.855E-03    -86.6887E-03     17.2646E-03
            2296     8.27708E-03     10.3852E-03    -49.8394E+06    -94.8148E+06     7.07483E+06     3.65581E+06    -109.453E-03     193.764E-03    -84.3108E-03     15.4194E-03    -109.785E-03     193.563E-03    -84.0656E-03     13.4980E-03
            2297     7.46833E-03     10.3458E-03    -55.1337E+06    -118.799E+06    -1.38100E+06     4.04025E+06    -102.954E-03     184.781E-03    -81.8272E-03     12.2950E-03    -103.206E-03     184.421E-03    -81.5819E-03     10.7840E-03
            2298     6.65429E-03     10.3115E-03    -60.8340E+06    -142.929E+06    -9.79803E+06     4.93874E+06    -96.6999E-03     176.224E-03    -79.5237E-03     10.0077E-03    -96.8887E-03     175.719E-03    -79.2772E-03     8.85213E-03
            2299     5.83495E-03     10.2821E-03    -66.6822E+06    -162.058E+06    -20.1886E+06     5.30106E+06    -90.9509E-03     168.357E-03    -77.4064E-03     8.41721E-03    -91.0929E-03     167.746E-03    -77.1756E-03     7.54774E-03
            2300     5.01109E-03     10.2565E-03    -72.3111E+06    -174.552E+06    -32.9542E+06     5.08156E+06    -85.7676E-03     161.251E-03    -75.4832E-03     7.16596E-03    -85.8768E-03     160.580E-03    -75.2900E-03     6.52094E-03
            2301     4.18303E-03     10.2350E-03    -77.9260E+06    -188.093E+06    -43.9011E+06     5.13163E+06    -81.1494E-03     154.953E-03    -73.8036E-03     6.05370E-03    -81.2336E-03     154.220E-03    -73.6374E-03     5.59240E-03
            2302     3.35127E-03     10.2168E-03    -83.6513E+06    -201.925E+06    -55.3205E+06     5.18231E+06    -77.2136E-03     149.588E-03    -72.3739E-03     4.99710E-03    -77.2774E-03     148.798E-03    -72.2365E-03     4.68347E-03
            2303     2.51644E-03     10.2025E-03    -88.5779E+06    -210.937E+06    -69.1204E+06     4.22210E+06    -74.0284E-03     145.217E-03    -71.1886E-03     3.91813E-03    -74.0753E-03     144.401E-03    -71.0999E-03     3.71068E-03
            2304     1.67927E-03     10.1918E-03    -92.4007E+06    -219.202E+06    -82.3227E+06     2.67887E+06    -71.6072E-03     141.895E-03    -70.2882E-03     2.77571E-03    -71.6367E-03     141.057E-03    -70.2480E-03     2.64601E-03
            2305     839.939E-06     10.1854E-03    -95.3775E+06    -225.249E+06    -92.1864E+06     1.38692E+06    -70.1214E-03     139.774E-03    -69.6528E-03     1.55560E-03    -70.1397E-03     138.921E-03    -69.6488E-03     1.48844E-03
            2306     15.3984E-03     9.68487E-03    -5.12481E+06     116.483E+06     95.4602E+06    -603.057E+03    -133.716E-03     238.750E-03    -105.034E-03     21.9098E-03    -134.486E-03     239.638E-03    -104.718E-03     18.1921E-03
            2307     14.6134E-03     9.64033E-03    -10.8077E+06     115.271E+06     87.4076E+06    -1.56281E+06    -137.175E-03     240.459E-03    -103.284E-03     37.9822E-03    -138.204E-03     241.606E-03    -102.999E-03     33.3241E-03
            2308     13.8306E-03     9.58796E-03    -14.2768E+06     104.725E+06     74.6595E+06    -1.59911E+06    -138.933E-03     240.106E-03    -101.173E-03     40.3035E-03    -139.962E-03     241.240E-03    -100.931E-03     35.6436E-03
            2309     13.0500E-03     9.52920E-03    -20.9578E+06     93.9334E+06     59.6466E+06    -1.56895E+06    -138.440E-03     237.205E-03    -98.7643E-03     40.0352E-03    -139.457E-03     238.308E-03    -98.5719E-03     35.4963E-03
            2310     12.2651E-03     9.47109E-03    -26.9405E+06     61.4234E+06     47.5906E+06    -1.39441E+06    -136.324E-03     232.500E-03    -96.1765E-03     37.3373E-03    -137.254E-03     233.416E-03    -95.9885E-03     33.0799E-03
            2311     11.4792E-03     9.41499E-03    -30.9204E+06     20.9192E+06     41.2448E+06    -723.283E+03    -133.067E-03     226.516E-03    -93.4497E-03     33.2644E-03    -133.876E-03     227.172E-03    -93.2290E-03     29.3743E-03
            2312     10.6921E-03     9.35999E-03    -36.2805E+06    -9.70036E+06     31.9529E+06     284.733E+03    -128.095E-03     218.682E-03    -90.5870E-03     28.3849E-03    -128.783E-03     219.116E-03    -90.3606E-03     24.9645E-03
            2313     9.89828E-03     9.31326E-03    -41.9754E+06    -41.3348E+06     23.3443E+06     1.43516E+06    -121.583E-03     209.310E-03    -87.7278E-03     23.8336E-03    -122.148E-03     209.515E-03    -87.4903E-03     20.9421E-03
            2314     9.09971E-03     9.27199E-03    -46.8294E+06    -68.6696E+06     15.0483E+06     1.95997E+06    -114.463E-03     199.420E-03    -84.9579E-03     20.1382E-03    -114.915E-03     199.422E-03    -84.7152E-03     17.7629E-03
            2315     8.29473E-03     9.23786E-03    -51.7857E+06    -94.2100E+06     7.43988E+06     2.51456E+06    -107.329E-03     189.674E-03    -82.3449E-03     17.4111E-03    -107.686E-03     189.493E-03    -82.0960E-03     15.5065E-03
            2316     7.48394E-03     9.20873E-03    -57.0522E+06    -118.846E+06    -589.942E+03     2.93873E+06    -100.563E-03     180.481E-03    -79.9181E-03     15.5722E-03    -100.841E-03     180.138E-03    -79.6660E-03     14.0717E-03
            2317     6.66762E-03     9.18462E-03    -62.2998E+06    -142.860E+06    -7.95255E+06     3.41986E+06    -94.3692E-03     172.065E-03    -77.6962E-03     14.2870E-03    -94.5822E-03     171.574E-03    -77.4385E-03     13.1258E-03
            2318     5.84636E-03     9.16397E-03    -67.4492E+06    -160.305E+06    -17.0353E+06     3.29770E+06    -88.7530E-03     164.417E-03    -75.6640E-03     13.2561E-03    -88.9178E-03     163.824E-03    -75.4189E-03     12.3673E-03
            2319     5.02055E-03     9.14642E-03    -72.6002E+06    -173.581E+06    -28.2625E+06     2.82133E+06    -83.7133E-03     157.544E-03    -73.8306E-03     12.2087E-03    -83.8413E-03     156.881E-03    -73.6150E-03     11.5370E-03
            2320     4.19073E-03     9.13187E-03    -77.9585E+06    -187.375E+06    -39.4272E+06     3.05059E+06    -79.3133E-03     151.535E-03    -72.2221E-03     11.0264E-03    -79.4117E-03     150.807E-03    -72.0345E-03     10.5387E-03
            2321     3.35737E-03     9.11985E-03    -83.1241E+06    -199.223E+06    -52.3631E+06     2.33065E+06    -75.5187E-03     146.358E-03    -70.8388E-03     9.57299E-03    -75.5922E-03     145.581E-03    -70.6912E-03     9.22278E-03
            2322     2.52094E-03     9.11034E-03    -87.5821E+06    -208.478E+06    -66.6451E+06     1.08492E+06    -72.4010E-03     142.107E-03    -69.7059E-03     7.78470E-03    -72.4524E-03     141.301E-03    -69.6098E-03     7.53721E-03
            2323     1.68191E-03     9.10354E-03    -91.2942E+06    -216.879E+06    -80.1570E+06     602.422E+03    -70.1243E-03     138.971E-03    -68.8469E-03     5.54607E-03    -70.1556E-03     138.141E-03    -68.8008E-03     5.38947E-03
            2324     841.638E-06     9.09925E-03    -94.2263E+06    -223.316E+06    -90.6455E+06     347.477E+03    -68.7059E-03     136.918E-03    -68.2122E-03     3.11013E-03    -68.7235E-03     136.071E-03    -68.2050E-03     3.02994E-03
            2325     15.4023E-03     8.47701E-03    -4.08755E+06     118.632E+06     97.7139E+06    -696.541E+03    -137.998E-03     242.834E-03    -104.837E-03     24.0179E-03    -138.808E-03     243.768E-03    -104.514E-03     20.0647E-03
            2326     14.6204E-03     8.43094E-03    -8.96773E+06     116.356E+06     87.3974E+06    -1.71864E+06    -140.474E-03     243.335E-03    -102.862E-03     39.6480E-03    -141.547E-03     244.536E-03    -102.580E-03     34.7564E-03
            2327     13.8405E-03     8.37918E-03    -15.4244E+06     102.872E+06     72.0594E+06    -1.04039E+06    -141.436E-03     241.995E-03    -100.559E-03     41.0654E-03    -142.506E-03     243.167E-03    -100.325E-03     36.2475E-03
            2328     13.0584E-03     8.32558E-03    -20.3574E+06     94.9055E+06     59.6396E+06    -243.558E+03    -140.387E-03     238.375E-03    -97.9876E-03     40.0094E-03    -141.442E-03     239.522E-03    -97.7975E-03     35.3427E-03
            2329     12.2772E-03     8.27424E-03    -25.5096E+06     61.0652E+06     46.9545E+06    -358.838E+03    -137.862E-03     233.101E-03    -95.2385E-03     36.8459E-03    -138.820E-03     234.050E-03    -95.0553E-03     32.4766E-03
            2330     11.4939E-03     8.22350E-03    -32.1448E+06     19.6787E+06     40.5107E+06     468.104E+03    -133.069E-03     225.474E-03    -92.4052E-03     33.2065E-03    -133.910E-03     226.155E-03    -92.1845E-03     29.2820E-03
            2331     10.7039E-03     8.18203E-03    -38.3148E+06    -9.83155E+06     31.7432E+06     1.09547E+06    -126.245E-03     215.791E-03    -89.5462E-03     30.0772E-03    -126.969E-03     216.254E-03    -89.3177E-03     26.6957E-03
            2332     9.90927E-03     8.14576E-03    -43.2984E+06    -41.4743E+06     24.3128E+06     994.626E+03    -118.703E-03     205.515E-03    -86.8122E-03     27.6264E-03    -119.303E-03     205.746E-03    -86.5677E-03     24.7876E-03
            2333     9.10757E-03     8.11763E-03    -48.5550E+06    -68.1776E+06     16.5936E+06     888.568E+03    -111.155E-03     195.406E-03    -84.2511E-03     26.0740E-03    -111.647E-03     195.437E-03    -83.9988E-03     23.7435E-03
            2334     8.29977E-03     8.09438E-03    -53.5054E+06    -94.2113E+06     9.37406E+06     480.947E+03    -104.083E-03     185.987E-03    -81.9035E-03     25.1716E-03    -104.479E-03     185.833E-03    -81.6424E-03     23.2867E-03
            2335     7.48621E-03     8.07624E-03    -58.2743E+06    -119.212E+06     2.51589E+06     666.212E+03    -97.7061E-03     177.482E-03    -79.7755E-03     24.4997E-03    -98.0186E-03     177.158E-03    -79.5055E-03     23.0010E-03
            2336     6.66753E-03     8.06107E-03    -62.7378E+06    -142.279E+06    -3.51581E+06     397.940E+03    -92.0481E-03     169.911E-03    -77.8633E-03     23.8897E-03    -92.2910E-03     169.438E-03    -77.5836E-03     22.7092E-03
            2337     5.84453E-03     8.04878E-03    -67.0276E+06    -158.906E+06    -11.0651E+06    -596.103E+03    -87.0243E-03     163.170E-03    -76.1459E-03     23.0854E-03    -87.2137E-03     162.591E-03    -75.8736E-03     22.1586E-03
            2338     5.01738E-03     8.03881E-03    -71.9429E+06    -174.008E+06    -21.7314E+06    -713.871E+03    -82.6407E-03     157.265E-03    -74.6243E-03     21.8456E-03    -82.7861E-03     156.601E-03    -74.3763E-03     21.1368E-03
            2339     4.18667E-03     8.03046E-03    -76.7466E+06    -186.898E+06    -34.3554E+06    -787.743E+03    -78.9049E-03     152.208E-03    -73.3027E-03     19.9488E-03    -79.0133E-03     151.480E-03    -73.0922E-03     19.4178E-03
            2340     3.35312E-03     8.02390E-03    -81.4537E+06    -197.613E+06    -49.6820E+06    -1.48880E+06    -75.8083E-03     147.987E-03    -72.1788E-03     17.3087E-03    -75.8848E-03     147.217E-03    -72.0225E-03     16.9137E-03
            2341     2.51696E-03     8.01906E-03    -86.1519E+06    -208.426E+06    -65.8106E+06    -1.81118E+06    -73.3403E-03     144.612E-03    -71.2712E-03     13.9124E-03    -73.3888E-03     143.804E-03    -71.1731E-03     13.6314E-03
            2342     1.67918E-03     8.01513E-03    -90.3821E+06    -217.581E+06    -80.0141E+06    -1.38494E+06    -71.5057E-03     142.114E-03    -70.6085E-03     9.89075E-03    -71.5333E-03     141.280E-03    -70.5620E-03     9.71140E-03
            2343     839.846E-06     8.01316E-03    -93.2839E+06    -223.929E+06    -90.2381E+06    -668.750E+03    -70.4379E-03     140.634E-03    -70.1958E-03     5.63282E-03    -70.4515E-03     139.782E-03    -70.1870E-03     5.54055E-03
            2344     15.4053E-03     7.26525E-03    -4.90978E+06     118.324E+06     97.8021E+06    -1.66862E+06    -140.623E-03     245.326E-03    -104.703E-03     27.1986E-03    -141.481E-03     246.302E-03    -104.378E-03     23.0717E-03
            2345     14.6247E-03     7.21889E-03    -10.1319E+06     116.256E+06     88.1447E+06     61.8110E+03    -142.489E-03     245.090E-03    -102.601E-03     42.8019E-03    -143.625E-03     246.348E-03    -102.314E-03     37.7896E-03
            2346     13.8449E-03     7.16906E-03    -16.2264E+06     103.254E+06     72.1750E+06     644.060E+03    -142.573E-03     242.764E-03    -100.191E-03     42.3349E-03    -143.695E-03     243.986E-03    -99.9562E-03     37.4331E-03
            2347     13.0659E-03     7.12163E-03    -22.3567E+06     93.1841E+06     57.8657E+06     531.471E+03    -140.545E-03     238.101E-03    -97.5556E-03     40.9191E-03    -141.650E-03     239.290E-03    -97.3690E-03     36.1924E-03
            2348     12.2843E-03     7.07389E-03    -29.0001E+06      60.274E+06     46.1334E+06     2.49548E+06    -135.951E-03     230.795E-03    -94.8442E-03     38.7726E-03    -136.960E-03     231.784E-03    -94.6589E-03     34.4713E-03
            2349     11.4973E-03     7.03793E-03    -35.7896E+06     20.2864E+06     41.1765E+06     2.48106E+06    -128.933E-03     221.136E-03    -92.2030E-03     37.2322E-03    -129.825E-03     221.856E-03    -91.9746E-03     33.4627E-03
            2350     10.7048E-03     7.00655E-03    -41.5672E+06    -8.47393E+06     33.6191E+06     1.04366E+06    -121.008E-03     210.694E-03    -89.6860E-03     36.9244E-03    -121.781E-03     211.194E-03    -89.4453E-03     33.7086E-03
            2351     9.90482E-03     6.98452E-03    -46.9844E+06    -40.7613E+06     26.5822E+06    -315.029E+03    -113.263E-03     200.661E-03    -87.3984E-03     37.2136E-03    -113.914E-03     200.926E-03    -87.1382E-03     34.5208E-03
            2352     9.09868E-03     6.96711E-03    -51.6230E+06    -67.3508E+06     20.2713E+06    -1.63464E+06    -106.219E-03     191.567E-03    -85.3482E-03     37.8599E-03    -106.760E-03     191.629E-03    -85.0743E-03     35.6360E-03
            2353     8.28708E-03     6.95492E-03    -55.7206E+06    -93.9848E+06     14.1399E+06    -2.67889E+06    -100.106E-03     183.641E-03    -83.5347E-03     38.3404E-03    -100.544E-03     183.508E-03    -83.2470E-03     36.5213E-03
            2354     7.47066E-03     6.94537E-03    -59.3237E+06    -119.664E+06     9.03754E+06    -3.66429E+06    -94.8490E-03     176.793E-03    -81.9439E-03     38.3776E-03    -95.1955E-03     176.479E-03    -81.6392E-03     36.9030E-03
            2355     6.65030E-03     6.93848E-03    -62.7817E+06    -141.162E+06     2.49746E+06    -4.91540E+06    -90.3303E-03     170.876E-03    -80.5456E-03     37.7449E-03    -90.5993E-03     170.415E-03    -80.2374E-03     36.5550E-03
            2356     5.82590E-03     6.93310E-03    -66.5204E+06    -159.521E+06    -6.27005E+06    -5.87113E+06    -86.5320E-03     165.858E-03    -79.3259E-03     36.1581E-03    -86.7365E-03     165.278E-03    -79.0295E-03     35.2054E-03
            2357     4.99869E-03     6.92893E-03    -70.3530E+06    -175.521E+06    -18.7430E+06    -5.84579E+06    -83.3639E-03     161.631E-03    -78.2670E-03     33.5368E-03    -83.5117E-03     160.959E-03    -78.0042E-03     32.7895E-03
            2358     4.16910E-03     6.92557E-03    -74.5666E+06    -187.815E+06    -34.3316E+06    -5.54496E+06    -80.7491E-03     158.115E-03    -77.3654E-03     29.9734E-03    -80.8510E-03     157.383E-03    -77.1566E-03     29.3986E-03
            2359     3.33728E-03     6.92313E-03    -79.2847E+06    -199.379E+06    -50.4259E+06    -4.86002E+06    -78.7387E-03     155.367E-03    -76.6280E-03     25.4325E-03    -78.8045E-03     154.587E-03    -76.4761E-03     25.0034E-03
            2360     2.50441E-03     6.92091E-03    -84.2622E+06    -210.945E+06    -66.9611E+06    -3.44909E+06    -77.2184E-03     153.260E-03    -76.0417E-03     19.9776E-03    -77.2547E-03     152.440E-03    -75.9485E-03     19.6786E-03
            2361     1.67007E-03     6.92006E-03    -88.6695E+06    -220.200E+06     -80.715E+06    -2.00007E+06    -76.1017E-03     151.727E-03    -75.6250E-03     13.9282E-03    -76.1179E-03     150.877E-03    -75.5807E-03     13.7413E-03
            2362     834.987E-06     6.91879E-03    -91.8592E+06    -226.108E+06    -89.7212E+06    -911.843E+03    -75.3795E-03     150.878E-03    -75.4982E-03     7.85733E-03    -75.3849E-03     150.011E-03    -75.4858E-03     7.76205E-03
            2363     15.4039E-03     6.05153E-03    -5.36894E+06     117.769E+06     97.1521E+06    -268.239E+03    -141.960E-03     246.633E-03    -104.672E-03     28.9186E-03    -142.847E-03     247.637E-03    -104.350E-03     24.7283E-03
            2364     14.6254E-03     6.00355E-03    -12.5505E+06     113.347E+06     86.7866E+06     501.172E+03    -142.398E-03     244.937E-03    -102.539E-03     44.0198E-03    -143.584E-03     246.230E-03    -102.251E-03     38.9624E-03
            2365     13.8470E-03     5.95977E-03    -19.0178E+06     103.445E+06     72.4097E+06     2.53560E+06    -140.965E-03     241.143E-03    -100.178E-03     44.8415E-03    -142.150E-03     242.418E-03    -99.9382E-03     39.9813E-03
            2366     13.0659E-03     5.91544E-03    -26.7807E+06     90.1363E+06     58.2974E+06     4.24064E+06    -136.372E-03     234.098E-03    -97.7254E-03     45.0477E-03    -137.532E-03     235.315E-03    -97.5258E-03     40.5244E-03
            2367     12.2798E-03     5.88260E-03    -34.1900E+06     60.1586E+06     48.5551E+06     4.51770E+06    -128.870E-03     224.264E-03    -95.3941E-03     45.2221E-03    -129.926E-03     225.274E-03    -95.1890E-03     41.2511E-03
            2368     11.4869E-03     5.85638E-03    -40.0915E+06     24.1402E+06     45.7316E+06     2.47986E+06    -120.553E-03     213.875E-03    -93.3229E-03     47.0746E-03    -121.484E-03     214.621E-03    -93.0711E-03     43.6733E-03
            2369     10.6867E-03     5.84007E-03    -45.0044E+06    -6.09194E+06     39.2769E+06    -844.113E+03    -112.858E-03     204.356E-03    -91.4984E-03     50.0125E-03    -113.663E-03     204.869E-03    -91.2280E-03     47.1290E-03
            2370     9.88034E-03     5.82780E-03    -48.8607E+06    -38.6931E+06     33.1941E+06    -3.83782E+06    -106.350E-03     196.298E-03    -89.9473E-03     52.3651E-03    -107.023E-03     196.566E-03    -89.6544E-03     49.9388E-03
            2371     9.06924E-03     5.82097E-03    -52.1121E+06    -66.6910E+06     28.1145E+06    -6.28177E+06    -101.019E-03     189.652E-03    -88.6333E-03     53.7641E-03    -101.572E-03     189.705E-03    -88.3204E-03     51.7326E-03
            2372     8.25376E-03     5.81608E-03    -54.8699E+06    -93.5465E+06     23.3950E+06    -8.49459E+06    -96.6778E-03     184.205E-03    -87.5276E-03     54.1603E-03    -97.1237E-03     184.058E-03    -87.1954E-03     52.4637E-03
            2373     7.43525E-03     5.81368E-03    -57.1312E+06    -119.854E+06     18.2661E+06    -10.6204E+06    -93.2702E-03     179.867E-03    -86.5967E-03     53.3442E-03    -93.6172E-03     179.533E-03    -86.2487E-03     51.9259E-03
            2374     6.61375E-03     5.81220E-03    -59.7215E+06    -141.885E+06     9.17708E+06    -11.9730E+06    -90.6113E-03     176.399E-03    -85.7875E-03     51.0953E-03    -90.8727E-03     175.917E-03    -85.4493E-03     49.9145E-03
            2375     5.79081E-03     5.81143E-03    -62.9820E+06    -162.428E+06    -4.55736E+06    -12.1108E+06    -88.4576E-03     173.539E-03    -85.0815E-03     47.5653E-03    -88.6423E-03     172.935E-03    -84.7774E-03     46.5955E-03
            2376     4.96615E-03     5.81092E-03    -66.7561E+06    -179.300E+06    -21.1522E+06    -11.0472E+06    -86.7501E-03     171.223E-03    -84.4733E-03     42.9299E-03    -86.8714E-03     170.529E-03    -84.2223E-03     42.1511E-03
            2377     4.13995E-03     5.81096E-03    -71.1952E+06    -192.308E+06    -38.1857E+06    -8.90057E+06    -85.4411E-03     169.404E-03    -83.9625E-03     37.2828E-03    -85.5151E-03     168.649E-03    -83.7713E-03     36.6797E-03
            2378     3.31315E-03     5.81030E-03    -76.4969E+06    -204.470E+06    -54.5478E+06    -5.99163E+06    -84.3942E-03     167.949E-03    -83.5550E-03     30.8104E-03    -84.4341E-03     167.145E-03    -83.4203E-03     30.3688E-03
            2379     2.48518E-03     5.81046E-03    -81.9808E+06    -215.420E+06    -69.5389E+06    -3.24053E+06    -83.6823E-03     166.928E-03    -83.2460E-03     23.7307E-03    -83.6984E-03     166.085E-03    -83.1625E-03     23.4294E-03
            2380     1.65713E-03     5.81006E-03    -86.4553E+06    -223.201E+06    -80.4808E+06    -1.38655E+06    -83.2794E-03     166.287E-03    -83.0072E-03     16.2591E-03    -83.2817E-03     165.418E-03    -82.9606E-03     16.0734E-03
            2381     829.006E-06     5.81016E-03    -88.9238E+06    -227.963E+06    -87.7339E+06    -412.336E+03    -82.7824E-03     165.745E-03    -82.9627E-03     8.98167E-03    -82.7743E-03     164.861E-03    -82.9419E-03     8.88791E-03
            2382     15.4065E-03     4.83451E-03    -5.08955E+06     116.875E+06     96.3931E+06     1.60382E+06    -141.038E-03     245.913E-03    -104.875E-03     33.1871E-03    -141.951E-03     246.944E-03    -104.555E-03     29.1063E-03
            2383     14.6246E-03     4.79372E-03    -12.4061E+06     110.717E+06     86.4650E+06     3.49157E+06    -138.731E-03     241.616E-03    -102.885E-03     51.3445E-03    -139.969E-03     242.953E-03    -102.595E-03     46.5278E-03
            2384     13.8407E-03     4.75067E-03    -20.1497E+06     99.3592E+06     74.2556E+06     5.34963E+06    -134.292E-03     235.148E-03    -100.855E-03     52.7919E-03    -135.515E-03     236.439E-03    -100.599E-03     48.3020E-03
            2385     13.0533E-03     4.72035E-03    -26.8658E+06     88.6572E+06     64.4634E+06     7.96562E+06    -126.216E-03     225.183E-03    -98.9667E-03     54.5572E-03    -127.368E-03     226.371E-03    -98.7339E-03     50.6284E-03
            2386     12.2578E-03     4.69853E-03    -34.1868E+06     64.5972E+06     56.9773E+06     6.08825E+06    -117.414E-03     214.818E-03    -97.4040E-03     58.5648E-03    -118.449E-03     215.800E-03    -97.1632E-03     55.2444E-03
            2387     11.4546E-03     4.68744E-03    -40.2647E+06     30.3633E+06     55.3602E+06    -268.481E+03    -110.179E-03     206.389E-03    -96.2096E-03     63.0499E-03    -111.082E-03     207.100E-03    -95.9185E-03     60.2199E-03
            2388     10.6458E-03     4.67916E-03    -43.5314E+06    -2.37382E+06     49.1642E+06    -6.06657E+06    -104.775E-03     200.038E-03    -95.2623E-03     66.1046E-03    -105.534E-03     200.493E-03    -94.9499E-03     63.6818E-03
            2389     9.83352E-03     4.67580E-03    -45.6296E+06    -36.9069E+06     42.4974E+06    -10.2442E+06    -100.795E-03     195.326E-03    -94.5311E-03     67.3603E-03    -101.411E-03     195.527E-03    -94.1989E-03     65.2840E-03
            2390     9.01836E-03     4.67390E-03    -47.1821E+06    -65.7495E+06     36.3238E+06    -13.6486E+06    -97.9649E-03     191.926E-03    -93.9608E-03     67.1368E-03    -98.4596E-03     191.915E-03    -93.6154E-03     65.3448E-03
            2391     8.20175E-03     4.67453E-03    -48.2742E+06    -93.3248E+06     28.5503E+06    -16.8313E+06    -96.0718E-03     189.573E-03    -93.5013E-03     65.3064E-03    -96.4542E-03     189.369E-03    -93.1532E-03     63.7472E-03
            2392     7.38339E-03     4.67516E-03    -49.9149E+06    -121.940E+06     18.3411E+06    -18.7158E+06    -94.7515E-03     187.870E-03    -93.1187E-03     62.0087E-03    -95.0306E-03     187.484E-03    -92.7778E-03     60.6553E-03
            2393     6.56502E-03     4.67628E-03    -52.5988E+06    -146.522E+06     4.42608E+06    -18.1865E+06    -93.8067E-03     186.586E-03    -92.7797E-03     57.5911E-03    -93.9983E-03     186.055E-03    -92.4689E-03     56.4402E-03
            2394     5.74551E-03     4.67781E-03    -57.0043E+06    -168.533E+06    -11.9884E+06    -16.0637E+06    -93.1578E-03     185.635E-03    -92.4768E-03     52.2371E-03    -93.2798E-03     184.987E-03    -92.2097E-03     51.2796E-03
            2395     4.92535E-03     4.67930E-03    -62.5875E+06    -186.684E+06    -28.8695E+06    -12.8411E+06    -92.6767E-03     184.882E-03    -92.2049E-03     46.0564E-03    -92.7472E-03     184.146E-03    -91.9878E-03     45.2846E-03
            2396     4.10541E-03     4.68006E-03    -68.7708E+06    -200.284E+06    -45.6080E+06    -8.55242E+06    -92.2663E-03     184.229E-03    -91.9627E-03     39.2701E-03    -92.3013E-03     183.436E-03    -91.8006E-03     38.6805E-03
            2397     3.28462E-03     4.68142E-03    -74.6009E+06    -211.266E+06    -59.8047E+06    -4.38654E+06    -91.9176E-03     183.686E-03    -91.7681E-03     31.9903E-03    -91.9285E-03     182.849E-03    -91.6527E-03     31.5663E-03
            2398     2.46379E-03     4.68175E-03    -79.4627E+06    -219.374E+06    -70.6965E+06    -1.68237E+06    -91.6739E-03     183.300E-03    -91.6263E-03     24.4801E-03    -91.6692E-03     182.434E-03    -91.5465E-03     24.1922E-03
            2399     1.64266E-03     4.68212E-03    -83.2846E+06    -225.401E+06    -78.8919E+06    -493.857E+03    -91.5694E-03     183.088E-03    -91.5186E-03     16.7259E-03    -91.5548E-03     182.200E-03    -91.4654E-03     16.5448E-03
            2400     821.205E-06     4.68242E-03    -85.2514E+06    -228.936E+06    -83.9714E+06    -104.394E+03    -91.4344E-03     182.890E-03    -91.4557E-03     9.02206E-03    -91.4123E-03     181.990E-03    -91.4200E-03     8.92571E-03
            2401     15.3930E-03     3.62627E-03    -6.89014E+06     112.467E+06     93.1857E+06     2.96322E+06    -135.303E-03     241.051E-03    -105.749E-03     46.9958E-03    -136.274E-03     242.128E-03    -105.436E-03     43.2538E-03
            2402     14.6070E-03     3.58385E-03    -12.6199E+06     108.426E+06     88.3475E+06     6.16044E+06    -130.866E-03     235.059E-03    -104.193E-03     66.1743E-03    -132.144E-03     236.423E-03    -103.890E-03     61.9123E-03
            2403     13.8181E-03     3.55417E-03    -17.9431E+06     98.5663E+06     78.3757E+06     7.88425E+06    -122.178E-03     224.987E-03    -102.809E-03     67.6943E-03    -123.350E-03     226.223E-03    -102.534E-03     64.0043E-03
            2404     13.0181E-03     3.53714E-03    -24.4011E+06     86.6243E+06      68.646E+06     8.30562E+06    -113.368E-03     215.151E-03    -101.783E-03     71.4752E-03    -114.406E-03     216.215E-03    -101.530E-03     68.4363E-03
            2405     12.2100E-03     3.52936E-03    -28.8341E+06     73.5314E+06     64.6766E+06     4.79536E+06    -107.245E-03     208.368E-03    -101.123E-03     74.1607E-03    -108.146E-03     209.242E-03    -100.864E-03     71.6434E-03
            2406     11.3982E-03     3.52333E-03    -32.6462E+06     40.3812E+06     61.4606E+06    -4.43659E+06    -103.372E-03     204.114E-03    -100.741E-03     75.0699E-03    -104.124E-03     204.716E-03    -100.445E-03     72.8835E-03
            2407     10.5856E-03     3.52130E-03    -36.3150E+06     1.00540E+06     49.5098E+06    -12.3747E+06    -101.009E-03     201.504E-03    -100.496E-03     74.1555E-03    -101.611E-03     201.838E-03    -100.197E-03     72.2179E-03
            2408     9.77137E-03     3.52063E-03    -38.1791E+06    -34.2267E+06     36.8152E+06    -17.8694E+06    -99.6622E-03     200.014E-03    -100.352E-03     71.9989E-03    -100.131E-03     200.119E-03    -100.063E-03     70.2679E-03
            2409     8.95674E-03     3.52172E-03    -38.8883E+06    -66.3040E+06     24.3528E+06    -21.9432E+06    -99.1583E-03     199.431E-03    -100.272E-03     68.6266E-03    -99.5077E-03     199.334E-03    -99.9981E-03     67.0628E-03
            2410     8.14188E-03     3.52254E-03    -40.6844E+06    -96.0600E+06     10.2603E+06    -22.9397E+06    -99.0760E-03     199.290E-03    -100.214E-03     64.3473E-03    -99.3238E-03     199.020E-03    -99.9642E-03     62.9538E-03
            2411     7.32816E-03     3.52448E-03    -44.5105E+06    -128.084E+06    -2.68211E+06    -22.0615E+06    -99.1419E-03     199.322E-03    -100.180E-03     59.4926E-03    -99.3054E-03     198.878E-03    -99.9431E-03     58.2692E-03
            2412     6.51327E-03     3.52655E-03    -50.2565E+06    -155.679E+06    -17.4137E+06    -18.9186E+06    -99.2583E-03     199.398E-03    -100.140E-03     54.0770E-03    -99.3580E-03     198.814E-03    -99.9283E-03     53.0350E-03
            2413     5.69898E-03     3.52828E-03    -56.5859E+06    -177.595E+06    -30.8096E+06    -14.5559E+06    -99.4426E-03     199.541E-03    -100.098E-03     48.2148E-03    -99.4975E-03     198.850E-03    -99.9129E-03     47.3546E-03
            2414     4.88536E-03     3.52996E-03    -63.0640E+06    -195.996E+06    -42.2546E+06    -10.1870E+06    -99.5951E-03     199.651E-03    -100.056E-03     42.0731E-03    -99.6185E-03     198.873E-03    -99.8918E-03     41.3856E-03
            2415     4.07085E-03     3.53186E-03    -68.9420E+06    -209.190E+06    -53.5523E+06    -5.72754E+06    -99.6794E-03     199.683E-03    -100.004E-03     35.6320E-03    -99.6802E-03     198.847E-03    -99.8682E-03     35.1096E-03
            2416     3.25687E-03     3.53282E-03    -73.2440E+06    -216.875E+06    -63.5796E+06    -2.30325E+06    -99.7622E-03     199.709E-03    -99.9467E-03     28.9138E-03    -99.7461E-03     198.842E-03    -99.8439E-03     28.5343E-03
            2417     2.44269E-03     3.53415E-03    -76.1909E+06    -222.195E+06    -71.0267E+06    -279.993E+03    -99.7835E-03     199.684E-03    -99.9009E-03     22.0773E-03    -99.7541E-03     198.797E-03    -99.8234E-03     21.8176E-03
            2418     1.62830E-03     3.53432E-03    -78.2998E+06    -225.888E+06    -76.2237E+06     626.705E+03    -99.7530E-03     199.644E-03    -99.8912E-03     15.0607E-03    -99.7147E-03     198.742E-03    -99.8313E-03     14.8998E-03
            2419     814.307E-06     3.53480E-03    -80.3032E+06    -228.669E+06    -79.7491E+06     365.800E+03    -99.8642E-03     199.766E-03    -99.9018E-03     8.12598E-03    -99.8228E-03     198.854E-03    -99.8526E-03     8.03856E-03
            2420     15.3632E-03     2.41758E-03    -5.63513E+06     109.651E+06     92.9193E+06     4.77646E+06    -125.748E-03     233.556E-03    -107.808E-03     68.4008E-03    -126.740E-03     234.651E-03    -107.494E-03     65.2285E-03
            2421     14.5715E-03     2.38417E-03    -9.98264E+06     104.863E+06     90.2034E+06     6.82455E+06    -120.036E-03     226.947E-03    -106.911E-03     82.0684E-03    -121.191E-03     228.181E-03    -106.597E-03     78.6900E-03
            2422     13.7660E-03     2.37446E-03    -15.8731E+06     99.8095E+06     79.9866E+06     7.55881E+06    -111.999E-03     218.259E-03    -106.260E-03     79.1318E-03    -112.947E-03     219.274E-03    -105.982E-03     76.4873E-03
            2423     12.9545E-03     2.36477E-03    -19.2653E+06     89.8386E+06     68.4607E+06     4.22266E+06    -107.054E-03     212.972E-03    -105.918E-03     77.4564E-03    -107.838E-03     213.808E-03    -105.678E-03     75.3238E-03
            2424     12.1449E-03     2.36058E-03    -20.7370E+06     81.2627E+06     54.0331E+06    -455.738E+03    -104.834E-03     210.584E-03    -105.750E-03     73.0094E-03    -105.469E-03     211.276E-03    -105.567E-03     71.2312E-03
            2425     11.3346E-03     2.35770E-03    -23.4901E+06     50.6429E+06     38.4537E+06    -6.80980E+06    -103.443E-03     209.170E-03    -105.727E-03     68.9800E-03    -103.942E-03     209.652E-03    -105.574E-03     67.4245E-03
            2426     10.5227E-03     2.35707E-03    -27.2640E+06     6.32139E+06     21.5047E+06    -15.5392E+06    -102.941E-03     208.742E-03    -105.801E-03     64.4557E-03    -103.311E-03     208.974E-03    -105.663E-03     63.0118E-03
            2427     9.71111E-03     2.35700E-03    -30.6971E+06    -32.4622E+06     4.12436E+06    -21.4593E+06    -103.075E-03     208.982E-03    -105.907E-03     59.8465E-03    -103.339E-03     209.008E-03    -105.795E-03     58.4954E-03
            2428     8.90027E-03     2.35720E-03    -35.3620E+06    -70.4596E+06    -10.7410E+06    -22.8908E+06    -103.420E-03     209.464E-03    -106.044E-03     55.1919E-03    -103.598E-03     209.296E-03    -105.944E-03     53.9591E-03
            2429     8.09007E-03     2.35836E-03    -41.4706E+06    -103.459E+06    -23.9383E+06    -21.0006E+06    -103.839E-03     210.029E-03    -106.190E-03     50.6083E-03    -103.955E-03     209.698E-03    -106.100E-03     49.5186E-03
            2430     7.27896E-03     2.35972E-03    -48.3651E+06    -137.153E+06    -33.7384E+06    -17.6289E+06    -104.380E-03     210.731E-03    -106.351E-03     46.0011E-03    -104.447E-03     210.236E-03    -106.251E-03     45.0584E-03
            2431     6.46981E-03     2.36122E-03    -54.9621E+06    -166.024E+06    -41.7965E+06    -13.8380E+06    -104.944E-03     211.442E-03    -106.498E-03     41.4230E-03    -104.974E-03     210.806E-03    -106.386E-03     40.6244E-03
            2432     5.66053E-03     2.36292E-03    -60.6515E+06    -187.194E+06    -49.2779E+06    -9.59213E+06    -105.376E-03     211.995E-03    -106.619E-03     36.7705E-03    -105.378E-03     211.258E-03    -106.506E-03     36.1185E-03
            2433     4.85070E-03     2.36444E-03    -65.6828E+06    -203.727E+06    -54.6846E+06    -5.92410E+06    -105.789E-03     212.518E-03    -106.729E-03     31.9541E-03    -105.773E-03     211.702E-03    -106.612E-03     31.4353E-03
            2434     4.04227E-03     2.36578E-03    -69.5882E+06    -215.541E+06    -59.4875E+06    -3.48681E+06    -106.189E-03     213.001E-03    -106.812E-03     26.9724E-03    -106.160E-03     212.129E-03    -106.696E-03     26.5660E-03
            2435     3.23343E-03     2.36708E-03    -72.0426E+06    -220.720E+06    -66.0154E+06    -1.39058E+06    -106.480E-03     213.330E-03    -106.850E-03     21.8722E-03    -106.439E-03     212.438E-03    -106.756E-03     21.5701E-03
            2436     2.42499E-03     2.36778E-03    -73.4072E+06    -224.309E+06    -71.2789E+06     276.538E+03    -106.682E-03     213.554E-03    -106.872E-03     16.6246E-03    -106.629E-03     212.648E-03    -106.797E-03     16.4173E-03
            2437     1.61679E-03     2.36856E-03    -73.8206E+06    -225.761E+06    -73.9256E+06     1.30427E+06    -106.766E-03     213.669E-03    -106.903E-03     11.3490E-03    -106.705E-03     212.756E-03    -106.838E-03     11.2261E-03
            2438     807.942E-06     2.36861E-03    -74.2182E+06    -226.377E+06    -74.9130E+06     1.57685E+06    -106.912E-03     213.841E-03    -106.929E-03     6.24580E-03    -106.849E-03     212.925E-03    -106.867E-03     6.19298E-03
            2439     15.3111E-03     1.21950E-03    -3.22638E+06     109.061E+06     95.2459E+06     4.48393E+06    -126.511E-03     237.710E-03    -111.198E-03     85.0278E-03    -127.353E-03     238.646E-03    -110.875E-03     82.5764E-03
            2440     14.5039E-03     1.19721E-03    -6.49386E+06     104.241E+06     93.2195E+06     5.58296E+06    -118.968E-03     229.451E-03    -110.483E-03     73.7085E-03    -119.730E-03     230.287E-03    -110.158E-03     71.6612E-03
            2441     13.7014E-03     1.19422E-03    -9.88107E+06     102.483E+06     80.4116E+06     3.50540E+06    -113.290E-03     223.308E-03    -110.019E-03     59.6509E-03    -113.860E-03     223.972E-03    -109.751E-03     58.1883E-03
            2442     12.8985E-03     1.18718E-03    -11.6049E+06     96.6828E+06     57.2277E+06    -111.364E+03    -110.295E-03     220.024E-03    -109.730E-03     52.7403E-03    -110.749E-03     220.613E-03    -109.567E-03     51.5497E-03
            2443     12.0919E-03     1.18405E-03    -14.5937E+06     83.7379E+06     27.7412E+06    -2.16614E+06    -108.448E-03     218.015E-03    -109.567E-03     45.7023E-03    -108.799E-03     218.530E-03    -109.529E-03     44.7360E-03
            2444     11.2840E-03     1.18331E-03    -18.2185E+06     58.0145E+06    -1.00179E+06    -5.52958E+06    -107.554E-03     217.082E-03    -109.528E-03     40.9139E-03    -107.814E-03     217.485E-03    -109.591E-03     40.0619E-03
            2445     10.4767E-03     1.18213E-03    -23.2214E+06     13.3276E+06    -20.5638E+06    -11.7312E+06    -107.285E-03     216.913E-03    -109.628E-03     36.9850E-03    -107.456E-03     217.107E-03    -109.716E-03     36.1675E-03
            2446     9.66965E-03     1.18178E-03    -30.7150E+06    -34.7884E+06    -32.9653E+06    -14.6517E+06    -107.328E-03     217.140E-03    -109.813E-03     33.5553E-03    -107.434E-03     217.108E-03    -109.882E-03     32.7849E-03
            2447     8.86199E-03     1.18204E-03    -39.3812E+06    -75.9633E+06    -42.1033E+06    -13.5715E+06    -107.499E-03     217.533E-03    -110.034E-03     30.4927E-03    -107.564E-03     217.310E-03    -110.077E-03     29.8086E-03
            2448     8.05401E-03     1.18249E-03    -47.7993E+06    -111.700E+06    -49.0214E+06    -11.4432E+06    -107.869E-03     218.145E-03    -110.276E-03     27.6167E-03    -107.907E-03     217.758E-03    -110.290E-03     27.0201E-03
            2449     7.24780E-03     1.18313E-03    -54.9474E+06    -144.488E+06    -54.1905E+06    -9.15016E+06    -108.377E-03     218.903E-03    -110.526E-03     24.9535E-03    -108.389E-03     218.363E-03    -110.508E-03     24.4397E-03
            2450     6.44042E-03     1.18393E-03    -60.5864E+06    -173.144E+06    -57.3777E+06    -7.19953E+06    -108.935E-03     219.707E-03    -110.772E-03     22.3497E-03    -108.923E-03     219.030E-03    -110.720E-03     21.9117E-03
            2451     5.63397E-03     1.18492E-03    -64.8246E+06    -194.720E+06    -60.6830E+06    -4.70266E+06    -109.521E-03     220.511E-03    -110.990E-03     19.7495E-03    -109.489E-03     219.733E-03    -110.917E-03     19.3929E-03
            2452     4.82879E-03     1.18582E-03    -67.8899E+06    -208.153E+06    -63.8017E+06    -2.50741E+06    -110.065E-03     221.239E-03    -111.174E-03     17.1737E-03    -110.020E-03     220.399E-03    -111.093E-03     16.8917E-03
            2453     4.02291E-03     1.18645E-03    -70.2287E+06    -218.081E+06    -66.6319E+06    -1.82115E+06    -110.558E-03     221.885E-03    -111.328E-03     14.4646E-03    -110.503E-03     221.000E-03    -111.243E-03     14.2353E-03
            2454     3.21815E-03     1.18728E-03    -71.9791E+06    -224.032E+06    -68.9717E+06    -860.644E+03    -110.975E-03     222.420E-03    -111.446E-03     11.7646E-03    -110.914E-03     221.508E-03    -111.361E-03     11.5912E-03
            2455     2.41338E-03     1.18770E-03    -72.8597E+06    -225.395E+06    -70.6791E+06     238.736E+03    -111.281E-03     222.805E-03    -111.525E-03     8.94681E-03    -111.219E-03     221.889E-03    -111.446E-03     8.82835E-03
            2456     1.60863E-03     1.18827E-03    -73.3076E+06    -226.146E+06    -71.7531E+06     881.703E+03    -111.499E-03     223.065E-03    -111.566E-03     6.11331E-03    -111.435E-03     222.145E-03    -111.491E-03     6.04427E-03
            2457     804.741E-06     1.18811E-03    -73.4278E+06    -222.908E+06    -72.5848E+06     1.64843E+06    -111.618E-03     223.128E-03    -111.511E-03     3.48132E-03    -111.557E-03     222.225E-03    -111.444E-03     3.46225E-03


