********************************************************************************
Field Output Report, written Tue May 28 20:08:57 2024

Source 1
---------

   ODB: G:/Abaqus_calc_2019/1740/Vel_20/odb/zeides_2a_8_red_150_cal_100_vel_20_fric_0100.odb
   Step: Step-1
   Frame: Increment   3467380: Step Time =   0.4571

Loc 1 : Nodal values from source 1

Output sorted by column "Nodal Label".

Field Output reported at nodes for region: DIE_2A_8_D0_36-1.Region_1
   Computation algorithm: EXTRAPOLATE_COMPUTE_AVERAGE
   Averaged at nodes
   Averaging regions: ODB_REGIONS

      Node Label     COORD.COOR1     COORD.COOR2
                          @Loc 1          @Loc 1
-------------------------------------------------
               1     18.9668E-03     109.991E-03


Field Output reported at nodes for region: DIE_2A_8_D0_36-1.Region_2
   Computation algorithm: EXTRAPOLATE_COMPUTE_AVERAGE
   Averaged at nodes
   Averaging regions: ODB_REGIONS

      Node Label     COORD.COOR1     COORD.COOR2
                          @Loc 1          @Loc 1
-------------------------------------------------
               1     18.9668E-03     109.991E-03


Field Output reported at nodes for part: WIRE-1
   Computation algorithm: EXTRAPOLATE_COMPUTE_AVERAGE
   Averaged at nodes
   Averaging regions: ODB_REGIONS

      Node Label     COORD.COOR1     COORD.COOR2           S.S11           S.S22           S.S33           S.S12         PE.PE11         PE.PE22         PE.PE33         PE.PE12         LE.LE11         LE.LE22         LE.LE33         LE.LE12
                          @Loc 1          @Loc 1          @Loc 1          @Loc 1          @Loc 1          @Loc 1          @Loc 1          @Loc 1          @Loc 1          @Loc 1          @Loc 1          @Loc 1          @Loc 1          @Loc 1
-------------------------------------------------------------------------------------------------------------------------------------------------------------------------------------------------------------------------------------------------
               1    -58.4321E-09     56.4209E-03    -31.2299E+06    -91.9131E+06    -31.2590E+06    -103.458E+03    -15.5393E-03     31.1008E-03    -15.5616E-03     2.08125E-03    -15.5168E-03     30.7320E-03    -15.5393E-03     2.07957E-03
               2     17.7255E-03     57.0308E-03    -2.23859E+06     113.052E+06     73.1526E+06     127.394E+03    -14.9924E-03     30.5745E-03    -15.5821E-03     26.3229E-03    -15.3165E-03     31.0798E-03    -15.3770E-03     26.3600E-03
               3     17.6208E-03     113.938E-03    -21.2588E+06    -13.9229E+06    -8.80016E+06     23.0214E+06     9.89218E-03     8.86923E-03    -18.7614E-03     1.86113E-03     9.81564E-03     8.84000E-03    -18.7544E-03     2.15811E-03
               4     62.8378E-09     113.040E-03     6.55725E+06     555.920E+03     7.14690E+06    -357.482E+03    -17.3296E-03     34.8184E-03    -17.4887E-03    -193.188E-06    -17.3085E-03     34.8008E-03    -17.4633E-03    -197.845E-06
               5     29.1463E-09    -62.4500E-18    -24.2698E+06    -76.8290E+06    -24.1791E+06    -181.142E+03    -14.6556E-03     29.3247E-03    -14.6691E-03     118.071E-06    -14.6302E-03     29.0109E-03    -14.6434E-03     115.793E-06
               6     17.6519E-03    -62.4500E-18    -1.68932E+06     81.4101E+06     58.1025E+06     4.96156E+06    -23.8695E-03     42.2923E-03    -18.4228E-03     33.2959E-03    -24.0931E-03     42.6285E-03    -18.2479E-03     33.3304E-03
               7     886.133E-06     56.4228E-03    -30.9484E+06    -91.2406E+06    -30.3069E+06    -49.5503E+03    -15.5434E-03     31.1013E-03    -15.5579E-03     3.49003E-03    -15.5219E-03     30.7340E-03    -15.5323E-03     3.48882E-03
               8     1.77228E-03     56.4274E-03    -30.1379E+06    -87.3226E+06    -27.7560E+06     26.8834E+03    -15.5410E-03     31.0955E-03    -15.5544E-03     6.46291E-03    -15.5249E-03     30.7429E-03    -15.5229E-03     6.46219E-03
               9     2.65842E-03     56.4348E-03    -28.7207E+06    -82.1222E+06    -23.5897E+06     65.3521E+03    -15.5329E-03     31.0932E-03    -15.5602E-03     9.62292E-03    -15.5234E-03     30.7586E-03    -15.5175E-03     9.62212E-03
              10     3.54459E-03     56.4452E-03    -26.7414E+06    -77.7823E+06    -18.2487E+06     44.5707E+03    -15.5320E-03     31.1033E-03    -15.5713E-03     12.8445E-03    -15.5268E-03     30.7800E-03    -15.5110E-03     12.8427E-03
              11     4.43076E-03     56.4587E-03    -24.5942E+06    -73.2378E+06    -12.8580E+06     26.5614E+03    -15.5376E-03     31.1191E-03    -15.5816E-03     16.1249E-03    -15.5363E-03     30.8079E-03    -15.5040E-03     16.1222E-03
              12     5.31697E-03     56.4752E-03    -22.2828E+06    -69.4940E+06    -7.84466E+06     126.058E+03    -15.5530E-03     31.1438E-03    -15.5908E-03     19.4596E-03    -15.5532E-03     30.8410E-03    -15.4970E-03     19.4572E-03
              13     6.20316E-03     56.4949E-03    -19.8128E+06    -65.1848E+06    -3.39901E+06     139.501E+03    -15.5764E-03     31.1727E-03    -15.5963E-03     22.8583E-03    -15.5776E-03     30.8820E-03    -15.4900E-03     22.8550E-03
              14     7.08938E-03     56.5177E-03    -17.4975E+06    -60.7949E+06     101.252E+03     62.9510E+03    -15.6082E-03     31.2055E-03    -15.5973E-03     26.3173E-03    -15.6100E-03     30.9291E-03    -15.4833E-03     26.3116E-03
              15     7.97559E-03     56.5438E-03    -15.4165E+06    -58.3129E+06     2.58149E+06     79.8361E+03    -15.6551E-03     31.2521E-03    -15.5969E-03     29.8019E-03    -15.6549E-03     30.9826E-03    -15.4771E-03     29.7946E-03
              16     8.86183E-03     56.5731E-03    -13.5762E+06    -54.4055E+06     3.67622E+06     47.3497E+03    -15.7133E-03     31.3021E-03    -15.5889E-03     33.3168E-03    -15.7126E-03     31.0495E-03    -15.4719E-03     33.3069E-03
              17     9.74803E-03     56.6057E-03    -11.9716E+06    -50.0318E+06     4.25287E+06     39.3199E+03    -15.7635E-03     31.3419E-03    -15.5784E-03     36.8361E-03    -15.7644E-03     31.1103E-03    -15.4672E-03     36.8234E-03
              18     10.6343E-03     56.6416E-03    -10.6842E+06    -47.6213E+06     3.96957E+06     147.748E+03    -15.8232E-03     31.3900E-03    -15.5667E-03     40.3097E-03    -15.8242E-03     31.1724E-03    -15.4624E-03     40.2949E-03
              19     11.5205E-03     56.6806E-03    -9.78077E+06    -40.9221E+06     1.92554E+06     164.328E+03    -15.8889E-03     31.4300E-03    -15.5410E-03     43.6813E-03    -15.8972E-03     31.2526E-03    -15.4579E-03     43.6626E-03
              20     12.4067E-03     56.7228E-03    -8.96231E+06    -26.4930E+06     3.13892E+06    -50.6266E+03    -15.8900E-03     31.4093E-03    -15.5193E-03     47.1944E-03    -15.9245E-03     31.3089E-03    -15.4522E-03     47.1683E-03
              21     13.2932E-03     56.7683E-03    -8.12151E+06    -14.5613E+06     2.47902E+06    -92.2480E+03    -15.8814E-03     31.3695E-03    -15.4880E-03     51.0482E-03    -15.9409E-03     31.3412E-03    -15.4427E-03     51.0167E-03
              22     14.1796E-03     56.8176E-03    -7.42985E+06     4.17853E+06    -1.16470E+06     69.1032E+03    -15.9907E-03     31.4214E-03    -15.4307E-03     56.4957E-03    -16.0942E-03     31.5168E-03    -15.4318E-03     56.4620E-03
              23     15.0658E-03     56.8735E-03    -6.76994E+06     45.6925E+06     214.627E+03     4.90825E+03    -16.0451E-03     31.4089E-03    -15.3637E-03     65.1220E-03    -16.2605E-03     31.7618E-03    -15.4191E-03     65.0938E-03
              24     15.9525E-03     56.9389E-03    -5.58259E+06     95.6025E+06     23.9841E+06     150.557E+03    -15.9640E-03     31.3550E-03    -15.3910E-03     71.2323E-03    -16.3568E-03     31.9978E-03    -15.4016E-03     71.2497E-03
              25     16.8390E-03     57.0064E-03    -3.49244E+06     116.358E+06     59.5030E+06     258.555E+03    -15.4566E-03     30.9749E-03    -15.5183E-03     49.2497E-03    -15.8669E-03     31.6132E-03    -15.3844E-03     49.2963E-03
              26     17.7254E-03     58.0085E-03    -1.46006E+06     113.669E+06     73.6838E+06     281.623E+03    -14.6101E-03     30.1960E-03    -15.5859E-03     25.5849E-03    -14.9305E-03     30.7011E-03    -15.3802E-03     25.6244E-03
              27     17.7260E-03     58.9854E-03    -2.20654E+06     112.920E+06     72.9692E+06    -993.371E+03    -14.7266E-03     30.3025E-03    -15.5759E-03     25.6200E-03    -15.0487E-03     30.8061E-03    -15.3716E-03     25.6427E-03
              28     17.7252E-03     59.9641E-03    -2.53012E+06     112.593E+06     72.8183E+06     133.885E+03    -14.7654E-03     30.3512E-03    -15.5858E-03     24.5886E-03    -15.0877E-03     30.8531E-03    -15.3813E-03     24.6254E-03
              29     17.7254E-03     60.9411E-03    -922.616E+03     114.061E+06     74.1196E+06     1.74752E+06    -13.9129E-03     29.5221E-03    -15.6093E-03     24.6428E-03    -14.2316E-03     30.0276E-03    -15.4027E-03     24.7025E-03
              30     17.7259E-03     61.9171E-03    -1.31534E+06     113.865E+06      73.674E+06    -1.06141E+06    -15.0422E-03     30.6139E-03    -15.5717E-03     26.5831E-03    -15.3646E-03     31.1222E-03    -15.3665E-03     26.6032E-03
              31     17.7253E-03     62.8992E-03    -4.08669E+06     111.607E+06     71.3569E+06     -2.0112E+06    -16.2523E-03     31.7954E-03    -15.5431E-03     26.6488E-03    -16.5824E-03     32.3004E-03    -15.3423E-03     26.6544E-03
              32     17.7255E-03     63.8774E-03    -1.40945E+06     114.089E+06     73.9912E+06     382.395E+03    -14.5149E-03     30.1114E-03    -15.5965E-03     27.0432E-03    -14.8385E-03     30.6204E-03    -15.3899E-03     27.0862E-03
              33     17.7255E-03     64.8544E-03     916.752E+03     115.904E+06     75.8939E+06     1.04551E+06    -13.5797E-03     29.1976E-03    -15.6179E-03     28.3587E-03    -13.8977E-03     29.7102E-03    -15.4078E-03     28.4122E-03
              34     17.7258E-03     65.8297E-03    -2.43841E+06     113.147E+06     72.9693E+06     406.997E+03    -15.0520E-03     30.6348E-03    -15.5828E-03     27.2151E-03    -15.3771E-03     31.1413E-03    -15.3785E-03     27.2543E-03
              35     17.7245E-03     66.8097E-03    -2.39649E+06     113.665E+06     73.2129E+06     1.40856E+06    -14.9562E-03     30.5480E-03    -15.5918E-03     25.1459E-03    -15.2794E-03     31.0540E-03    -15.3871E-03     25.1976E-03
              36     17.7262E-03     67.7853E-03    -838.365E+03     115.224E+06     74.5614E+06    -94.4393E+03    -14.1571E-03     29.7532E-03    -15.5961E-03     25.5344E-03    -14.4777E-03     30.2638E-03    -15.3892E-03     25.5695E-03
              37     17.7254E-03     68.7624E-03    -2.67972E+06     113.927E+06     73.2458E+06    -1.78539E+06    -15.6058E-03     31.1678E-03    -15.5619E-03     25.5393E-03    -15.9325E-03     31.6770E-03    -15.3570E-03     25.5486E-03
              38     17.7250E-03     69.7450E-03    -2.34494E+06     114.230E+06     73.4076E+06     239.369E+03    -15.1502E-03     30.7286E-03    -15.5783E-03     25.2123E-03    -15.4752E-03     31.2379E-03    -15.3735E-03     25.2490E-03
              39     17.7262E-03     70.7185E-03    -1.19029E+06     115.342E+06     74.5284E+06    -239.346E+03    -14.3929E-03     29.9864E-03    -15.5934E-03     26.3818E-03    -14.7161E-03     30.4987E-03    -15.3863E-03     26.4155E-03
              40     17.7247E-03     71.6994E-03    -2.55478E+06     114.094E+06     73.2759E+06     199.624E+03    -15.1315E-03     30.7148E-03    -15.5833E-03     25.9029E-03    -15.4578E-03     31.2246E-03    -15.3787E-03     25.9396E-03
              41     17.7258E-03     72.6761E-03    -2.57394E+06     114.063E+06     73.0523E+06     1.21558E+06    -14.9555E-03     30.5473E-03    -15.5918E-03     26.4866E-03    -15.2822E-03     31.0580E-03    -15.3882E-03     26.5373E-03
              42     17.7248E-03     73.6548E-03    -114.739E+03     116.139E+06     74.7005E+06     1.55362E+06    -13.9923E-03     29.5853E-03    -15.5930E-03     25.6573E-03    -14.3103E-03     30.0987E-03    -15.3877E-03     25.7141E-03
              43     17.7274E-03     74.6292E-03     1.11697E+06     117.535E+06     75.7441E+06     6.27712E+03    -13.9648E-03     29.5274E-03    -15.5626E-03     26.1867E-03    -14.2810E-03     30.0454E-03    -15.3559E-03     26.2234E-03
              44     17.7254E-03     75.6091E-03    -7.82877E+06     110.097E+06     68.1859E+06    -2.70578E+06    -15.7694E-03     31.3420E-03    -15.5725E-03     23.6577E-03    -16.1081E-03     31.8463E-03    -15.3799E-03     23.6555E-03
              45     17.7219E-03     76.5876E-03    -8.10176E+06     109.389E+06     66.6981E+06     3.59951E+06    -15.2656E-03     30.8939E-03    -15.6283E-03     22.7863E-03    -15.6032E-03     31.3978E-03    -15.4417E-03     22.8680E-03
              46     17.7276E-03     77.5604E-03     2.54812E+06     118.735E+06     76.8222E+06     1.20013E+06    -14.6802E-03     30.2709E-03    -15.5907E-03     26.5485E-03    -14.9940E-03     30.7925E-03    -15.3824E-03     26.5987E-03
              47     17.7249E-03     78.5505E-03     1.80585E+06     119.263E+06     77.8617E+06    -3.26245E+06    -14.3867E-03     29.9686E-03    -15.5819E-03     28.3707E-03    -14.7089E-03     30.4949E-03    -15.3682E-03     28.3662E-03
              48     17.7260E-03     79.5192E-03    -1.77201E+06     116.192E+06     74.1902E+06    -156.350E+03    -13.7788E-03     29.3882E-03    -15.6093E-03     28.4787E-03    -14.1100E-03     29.9105E-03    -15.4043E-03     28.5178E-03
              49     17.7250E-03     80.4956E-03    -2.10291E+06     115.458E+06     73.5376E+06    -247.943E+03    -15.3480E-03     30.9168E-03    -15.5688E-03     24.9220E-03    -15.6726E-03     31.4306E-03    -15.3655E-03     24.9504E-03
              50     17.7258E-03     81.4778E-03    -2.63922E+06     115.566E+06     73.4386E+06     462.882E+03    -15.8317E-03     31.3951E-03    -15.5634E-03     25.6390E-03    -16.1604E-03     31.9118E-03    -15.3600E-03     25.6760E-03
              51     17.7248E-03     82.4555E-03    -1.53941E+06     116.465E+06     74.2130E+06     412.833E+03    -14.5879E-03     30.1821E-03    -15.5942E-03     25.6951E-03    -14.9136E-03     30.7005E-03    -15.3898E-03     25.7359E-03
              52     17.7261E-03     83.4307E-03    -1.77661E+06     116.467E+06     74.1012E+06    -207.316E+03    -14.3978E-03     29.9868E-03    -15.5890E-03     24.9493E-03    -14.7230E-03     30.5043E-03    -15.3848E-03     24.9823E-03
              53     17.7252E-03     84.4095E-03    -1.95179E+06     116.992E+06     74.4960E+06    -14.0694E+03    -14.9283E-03     30.5034E-03    -15.5750E-03     24.7934E-03    -15.2558E-03     31.0233E-03    -15.3693E-03     24.8269E-03
              54     17.7259E-03     85.3890E-03    -2.13368E+06     117.050E+06     74.4238E+06    -20.0519E+03    -14.8994E-03     30.4752E-03    -15.5759E-03     25.7913E-03    -15.2296E-03     30.9977E-03    -15.3704E-03     25.8253E-03
              55     17.7254E-03     86.3646E-03    -2.36118E+06     117.143E+06     74.5702E+06    -68.0875E+03    -15.1030E-03     30.6730E-03    -15.5700E-03     25.9078E-03    -15.4348E-03     31.1961E-03    -15.3636E-03     25.9409E-03
              56     17.7258E-03     87.3460E-03    -1.80037E+06     117.272E+06     75.0131E+06     129.584E+03    -14.6301E-03     30.2052E-03    -15.5751E-03     25.5667E-03    -14.9595E-03     30.7271E-03    -15.3675E-03     25.6037E-03
              57     17.7260E-03     88.3196E-03    -1.65611E+06     117.388E+06     75.3189E+06    -467.433E+03    -14.5978E-03     30.1627E-03    -15.5649E-03     26.1961E-03    -14.9275E-03     30.6849E-03    -15.3561E-03     26.2258E-03
              58     17.7260E-03     89.3010E-03    -1.48603E+06     117.316E+06     75.5455E+06     360.209E+03    -15.1244E-03     30.6722E-03    -15.5478E-03     26.3511E-03    -15.4539E-03     31.1938E-03    -15.3380E-03     26.3894E-03
              59     17.7261E-03     90.2781E-03    -2.64146E+06     116.006E+06     74.5369E+06     19.3694E+03    -15.0554E-03     30.5949E-03    -15.5395E-03     26.5693E-03    -15.3877E-03     31.1134E-03    -15.3312E-03     26.6033E-03
              60     17.7265E-03     91.2546E-03    -2.39535E+06     115.346E+06     74.4998E+06    -661.754E+03    -15.3270E-03     30.8492E-03    -15.5222E-03     25.3920E-03    -15.6552E-03     31.3623E-03    -15.3135E-03     25.4160E-03
              61     17.7264E-03     92.2352E-03    -1.73117E+06     115.468E+06     75.0429E+06     217.279E+03    -15.0114E-03     30.5251E-03    -15.5137E-03     25.5419E-03    -15.3379E-03     31.0377E-03    -15.3034E-03     25.5787E-03
              62     17.7275E-03     93.2109E-03    -1.00058E+06     115.277E+06     75.6307E+06    -140.671E+03    -15.0442E-03     30.5331E-03    -15.4889E-03     26.2543E-03    -15.3688E-03     31.0441E-03    -15.2765E-03     26.2865E-03
              63     17.7272E-03     94.1905E-03    -1.90587E+06     113.726E+06     74.9210E+06    -938.396E+03    -15.6613E-03     31.1124E-03    -15.4511E-03     25.9859E-03    -15.9868E-03     31.6176E-03    -15.2386E-03     26.0056E-03
              64     17.7282E-03     95.1692E-03    -2.30307E+06     111.971E+06     74.1606E+06    -1.21434E+06    -16.1840E-03     31.5994E-03    -15.4154E-03     26.5492E-03    -16.5090E-03     32.0986E-03    -15.2036E-03     26.5644E-03
              65     17.7280E-03     96.1479E-03    -2.83992E+06     110.384E+06     73.7834E+06    -802.205E+03    -16.9334E-03     32.3094E-03    -15.3759E-03     26.2709E-03    -17.2580E-03     32.8018E-03    -15.1630E-03     26.2887E-03
              66     17.7289E-03     97.1292E-03    -892.419E+03     109.673E+06     74.5920E+06     15.8771E+03    -16.9033E-03     32.2516E-03    -15.3484E-03     26.3729E-03    -17.2186E-03     32.7369E-03    -15.1331E-03     26.4011E-03
              67     17.7295E-03     98.1073E-03    -2.02517E+06     107.653E+06     74.1105E+06    -890.476E+03    -17.7610E-03     33.0613E-03    -15.3003E-03     27.8523E-03    -18.0805E-03     33.5409E-03    -15.0829E-03     27.8668E-03
              68     17.7294E-03     99.0911E-03    -1.53557E+06     104.825E+06     73.5958E+06    -595.261E+03    -18.9427E-03     34.1911E-03    -15.2483E-03     27.4183E-03    -19.2552E-03     34.6568E-03    -15.0301E-03     27.4320E-03
              69     17.7305E-03     100.070E-03    -2.47382E+06     102.709E+06     73.3109E+06    -1.33922E+06    -19.9310E-03     35.1294E-03    -15.1984E-03     27.6427E-03    -20.2458E-03     35.5875E-03    -14.9772E-03     27.6434E-03
              70     17.7303E-03     101.055E-03    -1.88195E+06     99.4863E+06     73.0834E+06    -2.12440E+06    -21.7847E-03     36.9154E-03    -15.1307E-03     28.1773E-03    -22.0928E-03     37.3582E-03    -14.9068E-03     28.1609E-03
              71     17.7312E-03     102.041E-03    -2.13880E+06     95.1219E+06     71.3108E+06    -1.55720E+06    -22.9305E-03     38.0094E-03    -15.0789E-03     29.7277E-03    -23.2336E-03     38.4359E-03    -14.8572E-03     29.7142E-03
              72     17.7310E-03     103.026E-03    -1.34718E+06     91.4030E+06     70.6494E+06    -1.06551E+06    -24.3855E-03     39.4097E-03    -15.0242E-03     30.8758E-03    -24.6809E-03     39.8199E-03    -14.8015E-03     30.8625E-03
              73     17.7319E-03     104.014E-03    -3.90774E+06     88.5107E+06     70.1744E+06    -1.89701E+06    -27.1232E-03     42.0654E-03    -14.9423E-03     31.8498E-03    -27.4292E-03     42.4685E-03    -14.7141E-03     31.8130E-03
              74     17.7317E-03     105.006E-03     136.226E+03     85.4969E+06     72.0459E+06    -924.572E+03    -29.5483E-03     44.4151E-03    -14.8668E-03     33.8966E-03    -29.8362E-03     44.7984E-03    -14.6307E-03     33.8607E-03
              75     17.7328E-03     106.001E-03    -4.56877E+06     81.6991E+06     70.8828E+06    -1.81777E+06    -31.2921E-03     46.0962E-03    -14.8041E-03     36.1936E-03    -31.6027E-03     46.4751E-03    -14.5615E-03     36.1361E-03
              76     17.7325E-03     106.993E-03     1.97824E+06     76.9668E+06     71.2412E+06    -2.43270E+06    -34.1934E-03     48.8918E-03    -14.6984E-03     38.7068E-03    -34.4724E-03     49.2447E-03    -14.4566E-03     38.6234E-03
              77     17.7344E-03     107.994E-03    -3.54893E+06     72.0292E+06     68.4013E+06    -2.12821E+06    -37.7958E-03     52.3731E-03    -14.5773E-03     43.3681E-03    -38.1074E-03     52.7303E-03    -14.3346E-03     43.2587E-03
              78     17.7333E-03     109.000E-03     3.17169E+06     72.7584E+06     70.7355E+06     2.87567E+06    -40.6057E-03     55.0836E-03    -14.4779E-03     53.4026E-03    -40.9205E-03     55.4641E-03    -14.2343E-03     53.3244E-03
              79     17.7361E-03     110.009E-03    -9.10612E+06     73.7257E+06     62.1199E+06    -1.11886E+06    -42.0311E-03     56.4114E-03    -14.3803E-03     67.9355E-03    -42.4379E-03     56.8695E-03    -14.1634E-03     67.7780E-03
              80     17.7346E-03     111.023E-03     2.09478E+06     66.5315E+06     44.1061E+06    -4.82353E+06    -38.7275E-03     53.0673E-03    -14.3397E-03     86.2645E-03    -39.0748E-03     53.5327E-03    -14.2187E-03     86.0587E-03
              81     17.7380E-03     112.028E-03    -12.2070E+06     37.6214E+06     6.01526E+06    -20.3387E+06    -21.3321E-03     36.0236E-03    -14.6915E-03     94.9061E-03    -21.5857E-03     36.3530E-03    -14.6983E-03     94.5733E-03
              82     17.7306E-03     112.994E-03    -54.8328E+06     -85.381E+03    -21.5041E+06    -10.4596E+06     1.22586E-03     15.6731E-03    -16.8990E-03     47.7646E-03     955.708E-06     15.8094E-03    -16.9269E-03     47.6252E-03
              83     16.7235E-03     113.844E-03    -34.1796E+06     19.3690E+06     4.00671E+06     5.35836E+06     2.49001E-03     16.7308E-03    -19.2208E-03     13.5306E-03     2.28220E-03     16.8704E-03    -19.1793E-03     13.5981E-03
              84     15.8340E-03     113.734E-03    -40.4708E+06    -3.15829E+06     5.77087E+06    -12.3004E+06    -9.90779E-03     29.7363E-03    -19.8285E-03     24.0659E-03    -10.1172E-03     29.7715E-03    -19.7364E-03     23.9025E-03
              85     14.9546E-03     113.625E-03    -29.0267E+06    -10.3450E+06     16.6516E+06    -7.55192E+06    -14.9452E-03     34.9692E-03    -20.0241E-03     17.6601E-03    -15.1035E-03     34.9341E-03    -19.8837E-03     17.5570E-03
              86     14.0783E-03     113.531E-03    -24.0288E+06     6.04400E+06     27.6607E+06    -5.55260E+06    -16.2230E-03     36.2890E-03    -20.0660E-03     9.78149E-03    -16.3954E-03     36.3121E-03    -19.9016E-03     9.70430E-03
              87     13.1997E-03     113.456E-03    -20.1246E+06    -5.23190E+06     26.5644E+06    -7.00485E+06    -19.2800E-03     39.2779E-03    -19.9978E-03     5.60984E-03    -19.4141E-03     39.2409E-03    -19.8282E-03     5.51312E-03
              88     12.3254E-03     113.388E-03    -14.5830E+06      133.93E+03     30.6436E+06    -5.39308E+06    -21.5590E-03     41.3361E-03    -19.7771E-03     3.25841E-03    -21.6790E-03     41.3118E-03    -19.6029E-03     3.18227E-03
              89     11.4507E-03     113.330E-03    -10.8837E+06    -2.05552E+06     29.1466E+06    -4.79756E+06    -21.9395E-03     41.3917E-03    -19.4522E-03     2.05251E-03    -22.0351E-03     41.3536E-03    -19.2877E-03     1.98473E-03
              90     10.5751E-03     113.279E-03    -7.33896E+06     203.177E+03     30.3685E+06    -4.47335E+06    -21.6120E-03     40.7334E-03    -19.1215E-03     1.47654E-03    -21.6945E-03     40.6999E-03    -18.9593E-03     1.41383E-03
              91     9.69799E-03     113.236E-03    -4.24458E+06    -1.84141E+06     28.9754E+06    -3.70050E+06    -21.0627E-03     39.8610E-03    -18.7984E-03     1.21935E-03    -21.1244E-03     39.8151E-03    -18.6447E-03     1.16748E-03
              92     8.81986E-03     113.198E-03    -1.94816E+06     113.864E+03     27.2148E+06    -2.92624E+06    -20.3814E-03     38.8767E-03    -18.4953E-03     1.06746E-03    -20.4318E-03     38.8399E-03    -18.3565E-03     1.02633E-03
              93     7.94053E-03     113.166E-03    -383.977E+03    -875.018E+03     24.9067E+06    -2.59645E+06    -19.6619E-03     37.8936E-03    -18.2317E-03     952.183E-06    -19.6995E-03     37.8530E-03    -18.1054E-03     915.944E-06
              94     7.06017E-03     113.138E-03     1.05470E+06     153.117E+03     22.6378E+06    -2.45221E+06    -19.0342E-03     37.0410E-03    -18.0068E-03     833.791E-06    -19.0627E-03     37.0069E-03    -17.8954E-03     799.927E-06
              95     6.17904E-03     113.115E-03     2.38755E+06    -866.689E+03     18.7599E+06    -2.12979E+06    -18.5156E-03     36.3322E-03    -17.8165E-03     722.312E-06    -18.5302E-03     36.2966E-03    -17.7249E-03     693.034E-06
              96     5.29719E-03     113.094E-03     3.53722E+06     96.7974E+03     16.1470E+06    -1.81891E+06    -18.1213E-03     35.7864E-03    -17.6651E-03     598.767E-06    -18.1277E-03     35.7579E-03    -17.5897E-03     573.848E-06
              97     4.41491E-03     113.078E-03     4.59145E+06    -653.306E+03     13.2576E+06    -1.65225E+06    -17.8246E-03     35.3695E-03    -17.5449E-03     472.519E-06    -17.8204E-03     35.3399E-03    -17.4843E-03     450.040E-06
              98     3.53225E-03     113.064E-03     5.51430E+06    -185.094E+03     10.9386E+06    -1.26927E+06    -17.5999E-03     35.0533E-03    -17.4534E-03     346.535E-06    -17.5884E-03     35.0281E-03    -17.4064E-03     329.255E-06
              99     2.64934E-03     113.054E-03     6.18618E+06    -472.078E+03     9.23321E+06    -1.01568E+06    -17.4456E-03     34.8381E-03    -17.3926E-03     202.719E-06    -17.4277E-03     34.8130E-03    -17.3547E-03     188.944E-06
             100     1.76616E-03     113.047E-03     6.80668E+06    -236.595E+03     7.88697E+06    -875.802E+03    -17.3260E-03     34.6945E-03    -17.3685E-03     58.3995E-06    -17.3035E-03     34.6716E-03    -17.3386E-03     46.6450E-06
             101     882.857E-06     113.042E-03     6.87042E+06    -546.597E+03     6.94025E+06    -639.288E+03    -17.2984E-03     34.7266E-03    -17.4282E-03    -100.862E-06    -17.2738E-03     34.7034E-03    -17.4027E-03    -109.309E-06
             102    -197.562E-09     112.058E-03     5.88092E+06    -1.21141E+06     5.34940E+06    -540.382E+03    -15.8419E-03     31.8780E-03    -16.0361E-03     270.989E-06    -15.8188E-03     31.8554E-03    -16.0161E-03     263.899E-06
             103    -14.3052E-09     111.082E-03     3.70342E+06    -3.40576E+06     3.87919E+06    -684.524E+03    -13.5349E-03     27.1508E-03    -13.6159E-03     909.579E-06    -13.5171E-03     27.1227E-03    -13.5969E-03     900.535E-06
             104     85.5841E-09     110.110E-03     417.258E+03    -6.46912E+06     713.546E+03    -1.33770E+06    -12.0589E-03     24.0980E-03    -12.0391E-03     1.27183E-03    -12.0485E-03     24.0640E-03    -12.0268E-03     1.25434E-03
             105    -118.512E-09     109.139E-03    -7.12473E+06    -11.1078E+06    -7.20236E+06    -1.39165E+06    -11.0023E-03     22.0332E-03    -11.0308E-03     1.58305E-03    -11.0114E-03     21.9984E-03    -11.0404E-03     1.56490E-03
             106     98.8892E-09     108.171E-03    -18.4165E+06    -16.6651E+06    -17.9682E+06    -1.90441E+06    -10.4353E-03     20.8748E-03    -10.4395E-03     1.76420E-03    -10.4771E-03     20.8443E-03    -10.4785E-03     1.73949E-03
             107    -83.1430E-09     107.203E-03    -31.8460E+06    -23.4380E+06    -31.8821E+06    -2.26012E+06    -10.2310E-03     20.4406E-03    -10.2096E-03     1.89658E-03    -10.3099E-03     20.4159E-03    -10.2889E-03     1.86733E-03
             108     103.368E-09     106.236E-03    -48.3663E+06    -30.9909E+06    -48.1086E+06    -2.42243E+06    -10.2730E-03     20.5412E-03    -10.2681E-03     2.07404E-03    -10.4001E-03     20.5262E-03    -10.3936E-03     2.04272E-03
             109    -113.831E-09     105.267E-03    -65.0335E+06    -38.9738E+06    -65.3090E+06    -2.39691E+06    -10.5457E-03     21.0793E-03    -10.5336E-03     2.21156E-03    -10.7196E-03     21.0735E-03    -10.7093E-03     2.18058E-03
             110     140.493E-09     104.298E-03    -73.9435E+06    -45.9823E+06    -73.9148E+06    -1.78910E+06    -10.9633E-03     21.9481E-03    -10.9848E-03     2.27876E-03    -11.1592E-03     21.9327E-03    -11.1805E-03     2.25563E-03
             111    -207.310E-09     103.329E-03    -65.7360E+06    -50.7111E+06    -66.2956E+06    -981.872E+03    -11.5042E-03     23.0736E-03    -11.5694E-03     2.26635E-03    -11.6632E-03     23.0115E-03    -11.7320E-03     2.25364E-03
             112     149.422E-09     102.358E-03    -52.2565E+06    -51.8011E+06    -52.4489E+06     201.134E+03    -12.1554E-03     24.3019E-03    -12.1465E-03     2.26673E-03    -12.2654E-03     24.1948E-03    -12.2579E-03     2.26927E-03
             113    -80.4428E-09     101.386E-03    -42.3380E+06    -50.7117E+06    -42.3649E+06     508.265E+03    -12.7458E-03     25.4722E-03    -12.7264E-03     2.28211E-03    -12.8225E-03     25.3415E-03    -12.8033E-03     2.28858E-03
             114     43.2725E-09     100.413E-03    -35.8878E+06    -49.1577E+06    -35.8220E+06     450.100E+03    -13.2809E-03     26.5481E-03    -13.2671E-03     2.19218E-03    -13.3371E-03     26.4063E-03    -13.3229E-03     2.19787E-03
             115     16.9707E-09     99.4385E-03    -32.1899E+06    -48.4944E+06    -32.0874E+06    -58.4482E+03    -13.7354E-03     27.4950E-03    -13.7596E-03     2.16703E-03    -13.7794E-03     27.3458E-03    -13.8031E-03     2.16612E-03
             116    -121.238E-09     98.4634E-03    -30.1367E+06    -48.6819E+06    -30.1981E+06    -169.982E+03    -14.0973E-03     28.2861E-03    -14.1888E-03     2.12773E-03    -14.1336E-03     28.1302E-03    -14.2255E-03     2.12536E-03
             117     60.4411E-09     97.4878E-03    -28.5676E+06    -49.5474E+06    -28.4066E+06    -313.903E+03    -14.4527E-03     28.9371E-03    -14.4844E-03     2.10932E-03    -14.4824E-03     28.7720E-03    -14.5132E-03     2.10508E-03
             118    -56.1629E-09     96.5114E-03    -27.8928E+06    -50.8848E+06    -27.9614E+06    -530.843E+03    -14.7395E-03     29.4611E-03    -14.7217E-03     2.12613E-03    -14.7646E-03     29.2878E-03    -14.7472E-03     2.11905E-03
             119     80.5780E-09     95.5348E-03    -29.1040E+06    -52.8057E+06    -29.0679E+06    -532.921E+03    -14.9483E-03     29.8618E-03    -14.9135E-03     2.11313E-03    -14.9750E-03     29.6822E-03    -14.9401E-03     2.10599E-03
             120    -45.1203E-09     94.5577E-03    -27.9215E+06    -54.2152E+06    -27.9909E+06    -347.581E+03    -15.0866E-03     30.1758E-03    -15.0892E-03     2.10159E-03    -15.1070E-03     29.9859E-03    -15.1101E-03     2.09683E-03
             121     2.15058E-09     93.5806E-03    -27.8843E+06    -55.5109E+06    -27.8114E+06    -543.168E+03    -15.1836E-03     30.4265E-03    -15.2429E-03     2.06980E-03    -15.2021E-03     30.2298E-03    -15.2611E-03     2.06251E-03
             122    -65.6119E-09     92.6029E-03    -29.0615E+06    -57.3560E+06    -29.2018E+06    -497.719E+03    -15.2850E-03     30.6098E-03    -15.3248E-03     2.08983E-03    -15.3047E-03     30.4075E-03    -15.3455E-03     2.08311E-03
             123     54.7424E-09     91.6253E-03    -29.5427E+06    -59.1215E+06    -29.4381E+06    -473.683E+03    -15.3775E-03     30.7418E-03    -15.3643E-03     2.10469E-03    -15.3967E-03     30.5318E-03    -15.3830E-03     2.09827E-03
             124    -21.5077E-09     90.6476E-03    -29.7151E+06    -61.2036E+06    -29.7118E+06    -686.416E+03    -15.4239E-03     30.8384E-03    -15.4145E-03     2.07938E-03    -15.4406E-03     30.6186E-03    -15.4312E-03     2.07020E-03
             125     2.98738E-09     89.6699E-03    -30.7700E+06    -63.3419E+06    -30.7416E+06    -772.629E+03    -15.4551E-03     30.9238E-03    -15.4687E-03     2.06014E-03    -15.4725E-03     30.6963E-03    -15.4859E-03     2.04983E-03
             126    -10.1309E-09     88.6920E-03    -32.2108E+06    -65.6926E+06    -32.2168E+06    -707.559E+03    -15.4854E-03     30.9871E-03    -15.5017E-03     2.08961E-03    -15.5044E-03     30.7521E-03    -15.5208E-03     2.08015E-03
             127    -13.8101E-09     87.7140E-03    -33.3549E+06    -68.1215E+06    -33.3580E+06    -674.895E+03    -15.4954E-03     31.0109E-03    -15.5155E-03     2.11661E-03    -15.5149E-03     30.7671E-03    -15.5352E-03     2.10757E-03
             128    -139.647E-12     86.7361E-03    -32.7664E+06    -70.4999E+06    -32.7832E+06    -684.587E+03    -15.5299E-03     31.0462E-03    -15.5163E-03     2.08878E-03    -15.5440E-03     30.7889E-03    -15.5305E-03     2.07962E-03
             129     35.9993E-09     85.7582E-03    -33.0356E+06    -72.6997E+06    -32.9624E+06    -685.100E+03    -15.5518E-03     31.0866E-03    -15.5348E-03     2.08967E-03    -15.5637E-03     30.8189E-03    -15.5463E-03     2.08049E-03
             130    -42.9919E-09     84.7802E-03     -34.457E+06    -74.8801E+06    -34.5880E+06    -672.337E+03    -15.5540E-03     31.1060E-03    -15.5521E-03     2.10098E-03    -15.5675E-03     30.8318E-03    -15.5665E-03     2.09196E-03
             131     49.8241E-09     83.8023E-03    -34.5026E+06    -76.8793E+06    -34.4221E+06    -492.454E+03    -15.5406E-03     31.1219E-03    -15.5813E-03     2.11176E-03    -15.5517E-03     30.8375E-03    -15.5919E-03     2.10507E-03
             132    -129.935E-09     82.8243E-03    -34.4122E+06    -78.5225E+06    -34.5857E+06    -411.604E+03    -15.5420E-03     31.1359E-03    -15.5939E-03     2.12507E-03    -15.5500E-03     30.8434E-03    -15.6030E-03     2.11942E-03
             133     114.022E-09     81.8462E-03    -34.7440E+06    -80.0143E+06    -34.6059E+06    -331.303E+03    -15.5675E-03     31.1293E-03    -15.5618E-03     2.13352E-03    -15.5750E-03     30.8299E-03    -15.5684E-03     2.12891E-03
             134    -88.4766E-09     80.8684E-03    -34.4280E+06    -81.4168E+06    -34.3850E+06    -425.768E+03    -15.5427E-03     31.1011E-03    -15.5584E-03     2.10540E-03    -15.5468E-03     30.7938E-03    -15.5623E-03     2.09956E-03
             135     33.4423E-09     79.8904E-03    -34.2068E+06    -82.6480E+06    -34.3357E+06    -404.898E+03    -15.5516E-03     31.1035E-03    -15.5519E-03     2.04254E-03    -15.5530E-03     30.7897E-03    -15.5541E-03     2.03697E-03
             136     17.7157E-09     78.9126E-03    -34.0988E+06    -83.7801E+06    -34.0196E+06    -349.278E+03    -15.5720E-03     31.1191E-03    -15.5471E-03     2.08341E-03    -15.5716E-03     30.7990E-03    -15.5463E-03     2.07856E-03
             137    -26.0525E-09     77.9344E-03    -34.3702E+06    -85.1008E+06    -34.3929E+06    -412.966E+03    -15.5569E-03     31.1051E-03    -15.5482E-03     2.09944E-03    -15.5554E-03     30.7794E-03    -15.5469E-03     2.09379E-03
             138     47.5552E-09     76.9568E-03    -33.6498E+06    -86.5569E+06    -33.5500E+06    -415.212E+03    -15.5450E-03     31.1018E-03    -15.5568E-03     2.08742E-03    -15.5390E-03     30.7665E-03    -15.5502E-03     2.08173E-03
             139    -90.8917E-09     75.9787E-03    -33.2050E+06    -87.5412E+06    -33.4240E+06    -220.287E+03    -15.5387E-03     31.1139E-03    -15.5753E-03     2.07352E-03    -15.5292E-03     30.7729E-03    -15.5673E-03     2.07033E-03
             140     64.7452E-09     75.0009E-03    -33.0063E+06    -87.9891E+06    -32.9630E+06    -93.6263E+03    -15.5681E-03     31.1232E-03    -15.5551E-03     2.08021E-03    -15.5577E-03     30.7789E-03    -15.5444E-03     2.07866E-03
             141    -17.1181E-09     74.0228E-03    -32.8634E+06    -88.1682E+06    -32.9141E+06    -58.0719E+03    -15.5545E-03     31.1218E-03    -15.5673E-03     2.12642E-03    -15.5432E-03     30.7764E-03    -15.5564E-03     2.12533E-03
             142    -55.8612E-09     73.0451E-03    -33.7826E+06    -88.4644E+06    -33.7844E+06    -27.4760E+03    -15.5081E-03     31.1070E-03    -15.5990E-03     2.07698E-03    -15.4996E-03     30.7628E-03    -15.5906E-03     2.07630E-03
             143    -34.4272E-09     72.0671E-03    -32.9916E+06    -88.9367E+06    -32.8690E+06    -233.172E+03    -15.5188E-03     31.1067E-03    -15.5879E-03     2.04442E-03    -15.5071E-03     30.7576E-03    -15.5754E-03     2.04108E-03
             144     1.62801E-09     71.0893E-03    -32.7991E+06    -89.5705E+06    -32.9167E+06    -294.378E+03    -15.5467E-03     31.1121E-03    -15.5654E-03     2.07048E-03    -15.5330E-03     30.7596E-03    -15.5526E-03     2.06635E-03
             145    -5.41591E-09     70.1113E-03    -32.2411E+06    -90.1332E+06    -32.2438E+06     66.1558E+03    -15.5474E-03     31.1042E-03    -15.5567E-03     2.06394E-03    -15.5311E-03     30.7471E-03    -15.5405E-03     2.06446E-03
             146    -9.41699E-09     69.1336E-03    -32.0934E+06    -90.0973E+06    -32.0710E+06    -93.3898E+03    -15.5563E-03     31.1058E-03    -15.5494E-03     2.02815E-03    -15.5396E-03     30.7484E-03    -15.5326E-03     2.02661E-03
             147     34.7683E-09     68.1556E-03    -32.5949E+06    -90.2582E+06    -32.6082E+06    -124.563E+03    -15.5768E-03     31.1243E-03    -15.5475E-03     2.05538E-03    -15.5616E-03     30.7676E-03    -15.5324E-03     2.05344E-03
             148    -10.2911E-09     67.1776E-03    -32.4389E+06    -90.3638E+06    -32.4831E+06     210.261E+03    -15.5472E-03     31.1118E-03    -15.5646E-03     2.11122E-03    -15.5312E-03     30.7542E-03    -15.5489E-03     2.11360E-03
             149    -47.5968E-09     66.1997E-03    -32.0898E+06    -89.6661E+06    -32.1409E+06     321.317E+03    -15.5281E-03     31.0901E-03    -15.5620E-03     2.07649E-03    -15.5118E-03     30.7349E-03    -15.5461E-03     2.08032E-03
             150     42.7343E-09     65.2220E-03    -32.1175E+06    -89.0868E+06    -31.9349E+06     4.01834E+03    -15.5357E-03     31.0980E-03    -15.5623E-03     2.04545E-03    -15.5207E-03     30.7455E-03    -15.5462E-03     2.04517E-03
             151    -84.9096E-09     64.2441E-03    -31.9699E+06    -89.1835E+06    -32.1149E+06    -173.408E+03    -15.5354E-03     31.1142E-03    -15.5789E-03     2.04014E-03    -15.5193E-03     30.7613E-03    -15.5638E-03     2.03758E-03
             152     46.3740E-09     63.2661E-03    -32.1446E+06    -89.7592E+06    -32.0630E+06    -67.7780E+03    -15.5522E-03     31.1203E-03    -15.5681E-03     2.06482E-03    -15.5362E-03     30.7647E-03    -15.5517E-03     2.06363E-03
             153    -37.1446E-09     62.2882E-03    -31.9843E+06    -90.3682E+06    -31.8997E+06    -268.572E+03    -15.5642E-03     31.1187E-03    -15.5545E-03     2.08887E-03    -15.5468E-03     30.7595E-03    -15.5365E-03     2.08508E-03
             154     44.0999E-09     61.3103E-03    -31.5696E+06    -91.2814E+06    -31.5928E+06    -326.723E+03    -15.5621E-03     31.1185E-03    -15.5564E-03     2.08542E-03    -15.5417E-03     30.7538E-03    -15.5363E-03     2.08087E-03
             155    -43.2899E-09     60.3325E-03    -31.6457E+06    -92.0432E+06    -31.7538E+06    -155.735E+03    -15.5577E-03     31.1291E-03    -15.5713E-03     2.06630E-03    -15.5364E-03     30.7608E-03    -15.5507E-03     2.06395E-03
             156     15.1855E-09     59.3545E-03    -31.0409E+06    -92.1076E+06    -31.1077E+06     130.532E+03    -15.5584E-03     31.1424E-03    -15.5840E-03     2.06847E-03    -15.5349E-03     30.7720E-03    -15.5610E-03     2.06982E-03
             157    -35.3864E-09     58.3766E-03    -31.6070E+06    -91.8091E+06    -31.5608E+06     90.1806E+03    -15.5602E-03     31.1215E-03    -15.5613E-03     2.08583E-03    -15.5393E-03     30.7541E-03    -15.5401E-03     2.08666E-03
             158     52.2450E-09     57.3987E-03    -31.8897E+06    -91.7117E+06    -31.8211E+06    -47.6468E+03    -15.5546E-03     31.1024E-03    -15.5478E-03     2.09317E-03    -15.5349E-03     30.7363E-03    -15.5277E-03     2.09222E-03
             159     22.6484E-09     55.4430E-03    -31.4556E+06    -92.0919E+06    -31.5557E+06    -23.4094E+03    -15.5396E-03     31.0915E-03    -15.5519E-03     2.07590E-03    -15.5175E-03     30.7225E-03    -15.5305E-03     2.07526E-03
             160    -11.9224E-09     54.4651E-03    -31.4318E+06    -92.1690E+06    -31.3399E+06    -25.7210E+03    -15.5499E-03     31.0767E-03    -15.5268E-03     2.09127E-03    -15.5279E-03     30.7070E-03    -15.5043E-03     2.09060E-03
             161     41.1228E-09     53.4873E-03    -31.5785E+06    -92.3058E+06    -31.5843E+06    -30.9780E+03    -15.5431E-03     31.0525E-03    -15.5094E-03     2.08349E-03    -15.5213E-03     30.6826E-03    -15.4877E-03     2.08276E-03
             162    -12.7392E-09     52.5096E-03    -31.4526E+06    -92.3462E+06    -31.3851E+06     43.9656E+03    -15.5105E-03     31.0309E-03    -15.5204E-03     2.05420E-03    -15.4883E-03     30.6604E-03    -15.4978E-03     2.05444E-03
             163    -34.3736E-09     51.5317E-03    -31.3700E+06    -92.3184E+06    -31.4071E+06    -43.4957E+03    -15.4760E-03     31.0084E-03    -15.5324E-03     2.01397E-03    -15.4534E-03     30.6379E-03    -15.5101E-03     2.01308E-03
             164    -20.9988E-09     50.5540E-03    -31.6885E+06    -92.3462E+06    -31.7534E+06    -6.37456E+03    -15.4772E-03     30.9957E-03    -15.5185E-03     2.03865E-03    -15.4557E-03     30.6261E-03    -15.4974E-03     2.03824E-03
             165     536.305E-12     49.5761E-03    -31.4763E+06    -92.2561E+06    -31.5147E+06     74.2301E+03    -15.4856E-03     30.9680E-03    -15.4823E-03     2.08863E-03    -15.4635E-03     30.5981E-03    -15.4605E-03     2.08926E-03
             166     23.2316E-09     48.5985E-03    -31.5219E+06    -92.3077E+06    -31.4214E+06     9.71573E+03    -15.4565E-03     30.9122E-03    -15.4557E-03     2.10436E-03    -15.4347E-03     30.5420E-03    -15.4332E-03     2.10415E-03
             167    -46.4032E-09     47.6208E-03    -31.3702E+06    -92.3164E+06    -31.5030E+06    -16.8048E+03    -15.4279E-03     30.8748E-03    -15.4469E-03     2.03619E-03    -15.4052E-03     30.5045E-03    -15.4251E-03     2.03565E-03
             168     32.5095E-09     46.6432E-03    -31.4889E+06    -92.3264E+06    -31.4637E+06    -1.07662E+03    -15.4181E-03     30.8448E-03    -15.4267E-03     2.01385E-03    -15.3960E-03     30.4745E-03    -15.4045E-03     2.01351E-03
             169    -35.4312E-09     45.6656E-03    -31.3409E+06     -92.373E+06    -31.4131E+06    -18.5287E+03    -15.3814E-03     30.7951E-03    -15.4138E-03     2.04894E-03    -15.3585E-03     30.4243E-03    -15.3914E-03     2.04838E-03
             170    -21.8957E-09     44.6881E-03    -31.5644E+06    -92.4089E+06    -31.4578E+06     16.2296E+03    -15.3497E-03     30.7356E-03    -15.3859E-03     2.00946E-03    -15.3279E-03     30.3650E-03    -15.3634E-03     2.00935E-03
             171     14.4666E-09     43.7106E-03    -31.5816E+06    -92.4712E+06    -31.5715E+06    -64.8878E+03    -15.3469E-03     30.6731E-03    -15.3262E-03     1.97967E-03    -15.3249E-03     30.3024E-03    -15.3042E-03     1.97852E-03
             172     27.8688E-09     42.7331E-03    -31.3453E+06    -92.4734E+06    -31.4089E+06     24.7823E+03    -15.3047E-03     30.5879E-03    -15.2832E-03     1.99039E-03    -15.2817E-03     30.2166E-03    -15.2607E-03     1.99039E-03
             173    -34.6709E-09     41.7559E-03    -31.4979E+06    -92.4244E+06    -31.4315E+06    -3.18155E+03    -15.2441E-03     30.5021E-03    -15.2580E-03     1.97676E-03    -15.2219E-03     30.1313E-03    -15.2355E-03     1.97641E-03
             174     15.6301E-09     40.7786E-03    -31.5042E+06    -92.3851E+06    -31.6318E+06     32.9930E+03    -15.1933E-03     30.3943E-03    -15.2010E-03     1.98754E-03    -15.1709E-03     30.0240E-03    -15.1795E-03     1.98765E-03
             175    -13.5357E-09     39.8015E-03    -31.6974E+06    -92.1828E+06    -31.5298E+06     79.1783E+03    -15.1023E-03     30.2284E-03    -15.1260E-03     2.00694E-03    -15.0814E-03     29.8592E-03    -15.1041E-03     2.00764E-03
             176    -30.6263E-09     38.8246E-03    -31.3717E+06    -91.9555E+06    -31.4895E+06     129.638E+03    -15.0282E-03     30.0536E-03    -15.0254E-03     1.89156E-03    -15.0060E-03     29.6850E-03    -15.0040E-03     1.89294E-03
             177     76.5509E-09     37.8479E-03    -32.2710E+06    -91.3644E+06    -32.2243E+06     66.7002E+03    -14.9861E-03     29.8974E-03    -14.9113E-03     1.84613E-03    -14.9682E-03     29.5342E-03    -14.8931E-03     1.84670E-03
             178     9.07074E-09     36.8712E-03    -32.1250E+06    -91.1918E+06    -32.0935E+06    -59.4531E+03    -14.8907E-03     29.7351E-03    -14.8444E-03     1.88733E-03    -14.8725E-03     29.3723E-03    -14.8261E-03     1.88627E-03
             179    -14.0310E-09     35.8948E-03    -31.7673E+06    -91.7181E+06    -31.6698E+06    -81.2816E+03    -14.7187E-03     29.4989E-03    -14.7802E-03     1.86994E-03    -14.6985E-03     29.1324E-03    -14.7595E-03     1.86860E-03
             180    -90.7801E-09     34.9187E-03    -31.7522E+06    -92.1304E+06    -31.8885E+06    -145.046E+03    -14.6010E-03     29.2650E-03    -14.6641E-03     1.80510E-03    -14.5798E-03     28.8967E-03    -14.6439E-03     1.80294E-03
             181     80.4870E-09     33.9427E-03    -31.9293E+06    -92.3509E+06    -31.9185E+06    -90.7447E+03    -14.5614E-03     29.0422E-03    -14.4808E-03     1.74750E-03    -14.5408E-03     28.6731E-03    -14.4602E-03     1.74605E-03
             182     71.4410E-09     32.9669E-03    -32.0131E+06    -92.4302E+06    -31.9688E+06    -34.6510E+03    -14.4103E-03     28.7384E-03    -14.3281E-03     1.77982E-03    -14.3899E-03     28.3691E-03    -14.3075E-03     1.77910E-03
             183    -78.6438E-09     31.9916E-03    -31.6317E+06    -92.4267E+06    -31.7097E+06     80.9489E+03    -14.1531E-03     28.3876E-03    -14.2345E-03     1.72530E-03    -14.1311E-03     28.0174E-03    -14.2132E-03     1.72609E-03
             184    -61.0444E-09     31.0166E-03    -31.4162E+06    -92.3948E+06    -31.3752E+06    -43.9565E+03    -13.9398E-03     27.9961E-03    -14.0564E-03     1.62878E-03    -13.9173E-03     27.6253E-03    -14.0337E-03     1.62795E-03
             185    -7.15567E-09     30.0419E-03    -31.4215E+06    -92.4812E+06    -31.4610E+06    -104.645E+03    -13.7753E-03     27.5829E-03    -13.8076E-03     1.61603E-03    -13.7526E-03     27.2118E-03    -13.7853E-03     1.61442E-03
             186     16.2032E-09     29.0677E-03    -31.3534E+06    -92.4672E+06    -31.4773E+06     163.553E+03    -13.5699E-03     27.1366E-03    -13.5667E-03     1.59709E-03    -13.5468E-03     26.7654E-03    -13.5446E-03     1.59896E-03
             187    -22.3629E-09     28.0939E-03    -31.5951E+06    -91.7142E+06    -31.5979E+06     330.919E+03    -13.3049E-03     26.6284E-03    -13.3235E-03     1.53548E-03    -13.2840E-03     26.2615E-03    -13.3027E-03     1.53952E-03
             188    -5.74779E-09     27.1209E-03    -31.2564E+06    -91.0450E+06    -31.1290E+06     88.4838E+03    -13.0531E-03     26.1225E-03    -13.0694E-03     1.45771E-03    -13.0322E-03     25.7578E-03    -13.0477E-03     1.45863E-03
             189     5.34827E-09     26.1479E-03    -29.8667E+06    -90.8251E+06    -29.9685E+06     37.3195E+03    -12.7950E-03     25.5902E-03    -12.7952E-03     1.39557E-03    -12.7691E-03     25.2229E-03    -12.7700E-03     1.39583E-03
             190    -7.32976E-09     25.1759E-03    -28.9590E+06    -90.6994E+06    -28.8104E+06    -38.5595E+03    -12.5310E-03     25.0289E-03    -12.4980E-03     1.32140E-03    -12.5024E-03     24.6593E-03    -12.4685E-03     1.32070E-03
             191     68.7505E-09     24.2042E-03    -29.5764E+06    -90.6553E+06    -29.8536E+06     113.882E+03    -12.2313E-03     24.4572E-03    -12.2259E-03     1.26138E-03    -12.2044E-03     24.0902E-03    -12.2009E-03     1.26266E-03
             192    -124.661E-09     23.2332E-03    -29.3364E+06    -89.3018E+06    -29.3766E+06     628.359E+03    -11.9284E-03     23.8873E-03    -11.9588E-03     1.16560E-03    -11.9030E-03     23.5260E-03    -11.9337E-03     1.17353E-03
             193     125.321E-09     22.2626E-03    -28.2150E+06    -88.0936E+06    -27.7281E+06     59.8604E+03    -11.6798E-03     23.3430E-03    -11.6632E-03     1.12836E-03    -11.6529E-03     22.9837E-03    -11.6332E-03     1.12896E-03
             194    -91.5346E-09     21.2926E-03    -28.9413E+06    -88.1865E+06    -29.3365E+06    -48.9273E+03    -11.3973E-03     22.8070E-03    -11.4097E-03     1.15374E-03    -11.3715E-03     22.4506E-03    -11.3865E-03     1.15294E-03
             195     30.4601E-09     20.3229E-03    -28.6243E+06    -87.0045E+06    -28.8194E+06     751.192E+03    -11.1727E-03     22.3561E-03    -11.1834E-03     1.09051E-03    -11.1478E-03     22.0045E-03    -11.1599E-03     1.10005E-03
             196     8.65896E-09     19.3540E-03    -26.5666E+06    -84.3609E+06    -26.5509E+06     945.172E+03    -11.0338E-03     22.0287E-03    -10.9949E-03     1.04757E-03    -11.0057E-03     21.6840E-03    -10.9668E-03     1.05962E-03
             197     21.0267E-09     18.3849E-03    -26.3134E+06    -81.4195E+06    -26.2095E+06     936.560E+03    -10.8987E-03     21.7528E-03    -10.8541E-03     983.065E-06    -10.8742E-03     21.4219E-03    -10.8289E-03     995.010E-06
             198     29.4600E-09     17.4165E-03    -24.9267E+06    -78.4167E+06    -24.9552E+06     866.135E+03    -10.7520E-03     21.5083E-03    -10.7563E-03     981.155E-06    -10.7267E-03     21.1886E-03    -10.7312E-03     992.195E-06
             199    -88.4615E-09     16.4477E-03    -20.9615E+06    -75.0654E+06    -21.2057E+06     1.15163E+06    -10.6296E-03     21.3009E-03    -10.6714E-03     933.417E-06    -10.5947E-03     20.9868E-03    -10.6382E-03     948.142E-06
             200     69.6674E-09     15.4798E-03    -17.5282E+06    -71.1414E+06    -17.5211E+06     1.34561E+06    -10.4585E-03     20.9541E-03    -10.4957E-03     752.367E-06    -10.4175E-03     20.6493E-03    -10.4547E-03     769.615E-06
             201    -117.468E-09     14.5118E-03    -14.5373E+06    -67.2796E+06    -14.3944E+06     947.715E+03    -10.1839E-03     20.3654E-03    -10.1814E-03     550.527E-06    -10.1381E-03     20.0710E-03    -10.1348E-03     562.657E-06
             202     171.205E-09     13.5449E-03    -14.3446E+06    -64.9847E+06    -14.2430E+06     533.505E+03    -9.84977E-03     19.5979E-03    -9.74810E-03     369.339E-06    -9.80655E-03     19.3145E-03    -9.70428E-03     376.146E-06
             203    -42.6377E-09     12.5785E-03    -15.1668E+06    -63.7763E+06    -15.2071E+06     134.646E+03    -9.37565E-03     18.6545E-03    -9.27885E-03     208.969E-06    -9.33689E-03     18.3797E-03    -9.24042E-03     210.640E-06
             204     86.1611E-09     11.6132E-03    -17.6439E+06    -63.7863E+06    -17.3873E+06    -239.948E+03    -8.73188E-03     17.4090E-03    -8.67710E-03     76.1131E-06    -8.70234E-03     17.1409E-03    -8.64596E-03     72.9488E-06
             205    -28.8864E-09     10.6491E-03    -21.1549E+06    -64.5447E+06    -21.2699E+06    -208.197E+03    -7.97311E-03     15.8897E-03    -7.91662E-03     49.4680E-06    -7.95440E-03     15.6286E-03    -7.89871E-03     46.7036E-06
             206     71.2755E-09     9.68685E-03    -24.2540E+06    -65.0076E+06    -24.1435E+06    -147.644E+03    -7.35204E-03     14.6266E-03    -7.27454E-03     117.025E-06    -7.34397E-03     14.3718E-03    -7.26582E-03     115.028E-06
             207     26.0887E-09     8.72532E-03    -25.5845E+06    -65.4317E+06    -25.3279E+06     14.2261E+03    -7.16125E-03     14.2623E-03    -7.10108E-03     331.609E-06    -7.15749E-03     14.0091E-03    -7.09575E-03     331.704E-06
             208    -13.1232E-09     7.76366E-03    -24.0431E+06    -65.4439E+06    -23.8513E+06     127.244E+03    -7.51510E-03     15.0457E-03    -7.53058E-03     583.703E-06    -7.50577E-03     14.7880E-03    -7.52008E-03     585.269E-06
             209    -25.3617E-09     6.80063E-03    -20.9335E+06    -65.7019E+06    -20.7466E+06    -316.518E+03    -8.39761E-03     16.8088E-03    -8.41119E-03     764.689E-06    -8.37689E-03     16.5408E-03    -8.38930E-03     760.533E-06
             210     41.8031E-09     5.83550E-03    -18.0513E+06    -67.2371E+06    -17.8970E+06    -747.265E+03    -9.57200E-03     19.1363E-03    -9.56425E-03     867.290E-06    -9.53878E-03     18.8522E-03    -9.53007E-03     857.578E-06
             211    -42.4851E-09     4.86801E-03    -15.3101E+06    -69.4597E+06    -15.3274E+06    -632.494E+03    -10.8333E-03     21.6557E-03    -10.8225E-03     859.395E-06    -10.7868E-03     21.3529E-03    -10.7762E-03     851.163E-06
             212     62.3663E-09     3.89803E-03    -12.0759E+06    -70.8947E+06    -12.1588E+06    -297.323E+03    -12.0550E-03     24.1166E-03    -12.0616E-03     839.480E-06    -11.9948E-03     23.7973E-03    -12.0021E-03     835.586E-06
             213    -95.0162E-09     2.92570E-03    -11.5230E+06    -72.3627E+06    -11.5084E+06    -507.962E+03    -13.1142E-03     26.2708E-03    -13.1566E-03     730.433E-06    -13.0501E-03     25.9424E-03    -13.0925E-03     723.814E-06
             214     52.3410E-09     1.95167E-03    -16.4312E+06    -74.3011E+06    -16.7014E+06    -706.727E+03    -13.9523E-03     27.9203E-03    -13.9680E-03     501.304E-06    -13.9023E-03     27.5969E-03    -13.9199E-03     492.130E-06
             215    -40.8974E-09     976.174E-06    -22.3569E+06    -76.1154E+06    -22.5377E+06    -407.400E+03    -14.4821E-03     28.9630E-03    -14.4809E-03     258.379E-06    -14.4506E-03     28.6476E-03    -14.4508E-03     253.141E-06
             216     886.833E-06    -62.4500E-18    -24.1317E+06    -76.6327E+06    -24.5503E+06    -291.238E+03    -14.6750E-03     29.3436E-03    -14.6686E-03     208.972E-06    -14.6488E-03     29.0311E-03    -14.6452E-03     205.236E-06
             217     1.77367E-03    -62.4500E-18    -23.8649E+06    -76.8433E+06    -25.4498E+06    -499.672E+03    -14.7376E-03     29.4157E-03    -14.6781E-03     420.483E-06    -14.7086E-03     29.1030E-03    -14.6593E-03     414.006E-06
             218     2.66037E-03    -62.4500E-18    -23.6384E+06    -77.7583E+06    -26.9041E+06    -713.257E+03    -14.8391E-03     29.5424E-03    -14.7033E-03     642.151E-06    -14.8055E-03     29.2268E-03    -14.6908E-03     632.892E-06
             219     3.54702E-03    -62.4500E-18    -23.2179E+06    -78.8413E+06    -28.9641E+06    -1.07836E+06    -14.9729E-03     29.7108E-03    -14.7378E-03     870.441E-06    -14.9327E-03     29.3922E-03    -14.7347E-03     856.449E-06
             220     4.43350E-03    -62.4500E-18    -22.4893E+06    -79.6584E+06    -31.3625E+06    -1.43252E+06    -15.1455E-03     29.9270E-03    -14.7814E-03     1.10916E-03    -15.0970E-03     29.6067E-03    -14.7901E-03     1.09057E-03
             221     5.31986E-03    -62.4500E-18    -21.3168E+06    -79.9851E+06    -34.0012E+06    -1.94565E+06    -15.3574E-03     30.1918E-03    -14.8345E-03     1.35558E-03    -15.2987E-03     29.8721E-03    -14.8576E-03     1.33033E-03
             222     6.20596E-03    -62.4500E-18    -19.7572E+06    -78.7793E+06    -36.2316E+06    -2.18303E+06    -15.6106E-03     30.5099E-03    -14.8993E-03     1.65195E-03    -15.5426E-03     30.1972E-03    -14.9376E-03     1.62359E-03
             223     7.09184E-03    -62.4500E-18    -18.0192E+06    -77.6701E+06    -36.4028E+06    -2.25957E+06    -15.9176E-03     30.9059E-03    -14.9882E-03     1.95796E-03    -15.8423E-03     30.5964E-03    -15.0315E-03     1.92856E-03
             224     7.97743E-03    -62.4500E-18    -15.8784E+06    -75.4013E+06    -36.6605E+06    -2.55374E+06    -16.2826E-03     31.3726E-03    -15.0900E-03     2.31594E-03    -16.1995E-03     31.0718E-03    -15.1410E-03     2.28267E-03
             225     8.86257E-03    -62.4500E-18    -13.5802E+06    -68.9599E+06    -38.2269E+06    -2.62431E+06    -16.7110E-03     31.9071E-03    -15.1961E-03     2.71096E-03    -16.6235E-03     31.6375E-03    -15.2676E-03     2.67668E-03
             226     9.74747E-03    -62.4500E-18    -10.6653E+06    -60.1384E+06    -39.4101E+06    -3.28609E+06    -17.2409E-03     32.5608E-03    -15.3199E-03     3.20783E-03    -17.1499E-03     32.3327E-03    -15.4143E-03     3.16490E-03
             227     10.6315E-03    -62.4500E-18    -6.18512E+06    -49.0627E+06    -40.3972E+06    -4.65970E+06    -17.9021E-03     33.3657E-03    -15.4636E-03     3.83751E-03    -17.8033E-03     33.1880E-03    -15.5855E-03     3.77670E-03
             228     11.5152E-03    -62.4500E-18    -697.228E+03    -33.7780E+06    -40.7285E+06    -4.65052E+06    -18.7292E-03     34.3625E-03    -15.6333E-03     4.58703E-03    -18.6247E-03     34.2537E-03    -15.7870E-03     4.52608E-03
             229     12.3976E-03    -62.4500E-18     4.31190E+06    -10.6608E+06    -37.1452E+06    -4.06739E+06    -19.7692E-03     35.6191E-03    -15.8498E-03     5.68163E-03    -19.6784E-03     35.6134E-03    -16.0264E-03     5.62790E-03
             230     13.2790E-03    -62.4500E-18     6.59051E+06     24.1133E+06    -26.5113E+06    -1.37725E+06    -21.1008E-03     37.2384E-03    -16.1377E-03     7.01816E-03    -21.0645E-03     37.3880E-03    -16.3148E-03     6.99846E-03
             231     14.1591E-03    -62.4500E-18     4.48723E+06     54.0905E+06    -7.90683E+06     2.60035E+06    -22.9723E-03     39.5186E-03    -16.5463E-03     9.04268E-03    -23.0171E-03     39.7943E-03    -16.6708E-03     9.07341E-03
             232     15.0360E-03    -62.4500E-18     2.40527E+06     67.5717E+06     16.9309E+06     834.444E+03    -24.8480E-03     41.9309E-03    -17.0828E-03     12.1897E-03    -24.9590E-03     42.2409E-03    -17.0996E-03     12.1973E-03
             233     15.9105E-03    -62.4500E-18     3.31957E+06     78.7919E+06     46.2527E+06    -933.590E+03    -26.3774E-03     44.0702E-03    -17.6929E-03     20.3817E-03    -26.5443E-03     44.3934E-03    -17.5807E-03     20.3613E-03
             234     16.7781E-03    -62.4500E-18     1.21690E+06     83.6113E+06     60.1483E+06     2.57551E+06    -25.5084E-03     43.7255E-03    -18.2171E-03     30.0350E-03    -25.7192E-03     44.0610E-03    -18.0393E-03     30.0467E-03
             235     17.6916E-03     985.398E-06     355.341E+03     85.1440E+06     60.0534E+06     4.40337E+06    -24.5620E-03     42.1212E-03    -17.5592E-03     28.3358E-03    -24.7850E-03     42.4736E-03    -17.3829E-03     28.3602E-03
             236     17.7106E-03     1.98086E-03    -1.04361E+06     90.5564E+06     62.7548E+06     2.57616E+06    -30.3631E-03     46.5775E-03    -16.2144E-03     20.9972E-03    -30.6097E-03     46.9614E-03    -16.0304E-03     20.9789E-03
             237     17.7165E-03     2.98413E-03    -4.04345E+06     94.9106E+06     65.1891E+06     2.44081E+06    -36.6484E-03     52.2155E-03    -15.5671E-03     17.3972E-03    -36.9239E-03     52.6251E-03    -15.3729E-03     17.3571E-03
             238     17.7203E-03     3.98449E-03    -763.077E+03     99.8747E+06     69.4747E+06     1.93153E+06    -36.3351E-03     51.6878E-03    -15.3527E-03     15.1451E-03    -36.6073E-03     52.1103E-03    -15.1491E-03     15.0993E-03
             239     17.7228E-03     4.98145E-03    -1.38896E+06     100.752E+06     69.4279E+06    -1.45145E+06    -35.5395E-03     50.8402E-03    -15.3007E-03     13.4737E-03    -35.8146E-03     51.2667E-03    -15.0976E-03     13.3897E-03
             240     17.7189E-03     5.98212E-03    -3.86328E+06     99.7325E+06     66.9197E+06     714.665E+03    -34.1642E-03     49.5306E-03    -15.3663E-03     11.2517E-03    -34.4443E-03     49.9570E-03    -15.1708E-03     11.2041E-03
             241     17.7215E-03     6.97428E-03    -297.127E+03     102.410E+06     69.5395E+06     1.74698E+06    -30.2479E-03     45.7090E-03    -15.4611E-03     11.0392E-03    -30.5164E-03     46.1383E-03    -15.2615E-03     11.0177E-03
             242     17.7208E-03     7.96487E-03     247.900E+03     103.325E+06     70.2274E+06    -1.01598E+06    -28.9468E-03     44.4190E-03    -15.4722E-03     10.8433E-03    -29.2141E-03     44.8505E-03    -15.2713E-03     10.7909E-03
             243     17.7212E-03     8.95851E-03    -1.95379E+06     102.369E+06     68.5850E+06    -490.771E+03    -28.8702E-03     44.3456E-03    -15.4754E-03     10.6621E-03    -29.1451E-03     44.7781E-03    -15.2781E-03     10.6185E-03
             244     17.7207E-03     9.94902E-03    -2.92288E+06     102.273E+06     67.9152E+06     573.250E+03    -27.7311E-03     43.2225E-03    -15.4915E-03     11.7426E-03    -28.0107E-03     43.6579E-03    -15.2959E-03     11.7169E-03
             245     17.7220E-03     10.9397E-03    -3.01453E+06     103.075E+06     68.1766E+06     251.690E+03    -26.6944E-03     42.1888E-03    -15.4945E-03     12.7176E-03    -26.9774E-03     42.6295E-03    -15.2987E-03     12.6917E-03
             246     17.7215E-03     11.9298E-03    -1.57831E+06     105.051E+06     69.9695E+06     336.622E+03    -25.3458E-03     40.8474E-03    -15.5017E-03     14.1680E-03    -25.6291E-03     41.2952E-03    -15.3019E-03     14.1478E-03
             247     17.7234E-03     12.9170E-03    -946.238E+03     106.210E+06     70.9005E+06     539.733E+03    -24.6663E-03     40.1532E-03    -15.4869E-03     16.8663E-03    -24.9525E-03     40.6076E-03    -15.2850E-03     16.8515E-03
             248     17.7226E-03     13.9076E-03    -884.828E+03     106.700E+06     71.0511E+06     1.40129E+06    -24.4226E-03     39.8905E-03    -15.4679E-03     18.5867E-03    -24.7119E-03     40.3495E-03    -15.2661E-03     18.5840E-03
             249     17.7241E-03     14.8931E-03    -918.532E+03     106.920E+06     70.9622E+06     812.710E+03    -23.5489E-03     39.0060E-03    -15.4571E-03     18.3426E-03    -23.8392E-03     39.4668E-03    -15.2560E-03     18.3359E-03
             250     17.7241E-03     15.8776E-03    -3.02909E+06     106.034E+06     69.6606E+06    -1.18205E+06    -24.2273E-03     39.6550E-03    -15.4277E-03     18.8630E-03    -24.5264E-03     40.1179E-03    -15.2287E-03     18.8305E-03
             251     17.7233E-03     16.8703E-03    -2.88822E+06     106.524E+06      69.674E+06     932.023E+03    -23.7489E-03     39.1798E-03    -15.4309E-03     19.8137E-03    -24.0498E-03     39.6467E-03    -15.2328E-03     19.8113E-03
             252     17.7255E-03     17.8521E-03    -1.72663E+06     107.793E+06     70.8144E+06     387.515E+03    -22.0673E-03     37.5192E-03    -15.4519E-03     21.2487E-03    -22.3674E-03     37.9905E-03    -15.2516E-03     21.2464E-03
             253     17.7236E-03     18.8395E-03    -2.41438E+06     107.347E+06     70.3432E+06    -208.607E+03    -21.4318E-03     36.8977E-03    -15.4659E-03     20.7653E-03    -21.7342E-03     37.3687E-03    -15.2664E-03     20.7589E-03
             254     17.7252E-03     19.8216E-03    -2.17284E+06     107.828E+06     70.6866E+06     249.982E+03    -20.7107E-03     36.1936E-03    -15.4828E-03     21.1733E-03    -21.0144E-03     36.6673E-03    -15.2826E-03     21.1766E-03
             255     17.7240E-03     20.8051E-03    -1.49225E+06     109.145E+06     71.4548E+06     784.837E+03    -20.5427E-03     36.0134E-03    -15.4708E-03     22.1070E-03    -20.8470E-03     36.4928E-03    -15.2696E-03     22.1190E-03
             256     17.7261E-03     21.7911E-03    -1.22947E+06     109.761E+06     71.7062E+06     170.574E+03    -20.0178E-03     35.4820E-03    -15.4642E-03     24.0341E-03    -20.3248E-03     35.9664E-03    -15.2630E-03     24.0410E-03
             257     17.7245E-03     22.7727E-03    -2.00075E+06     109.655E+06     71.6993E+06    -865.935E+03    -19.4735E-03     34.9591E-03    -15.4856E-03     24.1346E-03    -19.7848E-03     35.4446E-03    -15.2832E-03     24.1319E-03
             258     17.7251E-03     23.7546E-03    -1.80466E+06     110.310E+06     72.1182E+06     1.27516E+06    -18.8547E-03     34.3594E-03    -15.5047E-03     23.4505E-03    -19.1661E-03     34.8468E-03    -15.3014E-03     23.4790E-03
             259     17.7254E-03     24.7353E-03    -497.565E+03     111.373E+06     72.4421E+06     429.013E+03    -18.1287E-03     33.6168E-03    -15.4881E-03     25.0461E-03    -18.4372E-03     34.1088E-03    -15.2866E-03     25.0662E-03
             260     17.7266E-03     25.7192E-03    -6.33549E+06     106.502E+06     67.0178E+06    -2.24025E+06    -18.5364E-03     34.0413E-03    -15.5049E-03     23.9997E-03    -18.8598E-03     34.5259E-03    -15.3151E-03     23.9872E-03
             261     17.7211E-03     26.6980E-03    -6.79435E+06     105.724E+06     66.0256E+06     3.52597E+06    -17.6741E-03     33.2449E-03    -15.5708E-03     22.3386E-03    -17.9961E-03     33.7266E-03    -15.3842E-03     22.4040E-03
             262     17.7276E-03     27.6759E-03     3.04270E+06     114.137E+06     75.2338E+06     1.28142E+06    -16.0898E-03     31.6598E-03    -15.5700E-03     23.8383E-03    -16.3870E-03     32.1549E-03    -15.3637E-03     23.8766E-03
             263     17.7244E-03     28.6590E-03     1.29716E+06     113.945E+06     75.4696E+06    -3.46997E+06    -16.9970E-03     32.5298E-03    -15.5327E-03     25.4756E-03    -17.3053E-03     33.0283E-03    -15.3225E-03     25.4530E-03
             264     17.7256E-03     29.6392E-03    -2.61488E+06     110.784E+06     71.7246E+06     1.02889E+06    -16.9944E-03     32.5325E-03    -15.5381E-03     25.7018E-03    -17.3133E-03     33.0274E-03    -15.3363E-03     25.7392E-03
             265     17.7255E-03     30.6167E-03    -905.936E+03     112.096E+06     73.1078E+06     157.134E+03    -15.9347E-03     31.4868E-03    -15.5521E-03     24.5552E-03    -16.2470E-03     31.9818E-03    -15.3478E-03     24.5837E-03
             266     17.7255E-03     31.5963E-03    -1.80390E+06     111.796E+06     72.7250E+06    -855.221E+03    -16.2189E-03     31.7661E-03    -15.5472E-03     24.4326E-03    -16.5352E-03     32.2620E-03    -15.3431E-03     24.4487E-03
             267     17.7253E-03     32.5754E-03    -2.09935E+06     111.577E+06     72.4544E+06     26.3015E+03    -16.2799E-03     31.8237E-03    -15.5438E-03     24.9458E-03    -16.5976E-03     32.3200E-03    -15.3403E-03     24.9733E-03
             268     17.7258E-03     33.5559E-03    -1.66177E+06     112.156E+06     72.9649E+06     130.303E+03    -16.0062E-03     31.5622E-03    -15.5560E-03     25.3704E-03    -16.3243E-03     32.0610E-03    -15.3514E-03     25.4007E-03
             269     17.7248E-03     34.5336E-03    -2.67880E+06     111.446E+06     72.0699E+06     184.738E+03    -16.2459E-03     31.8067E-03    -15.5609E-03     25.9236E-03    -16.5680E-03     32.3060E-03    -15.3582E-03     25.9550E-03
             270     17.7255E-03     35.5144E-03    -3.15473E+06     110.755E+06     71.4937E+06     433.316E+03    -15.7824E-03     31.3537E-03    -15.5712E-03     25.5234E-03    -16.1039E-03     31.8498E-03    -15.3698E-03     25.5594E-03
             271     17.7251E-03     36.4916E-03     239.907E+03     113.824E+06     74.7094E+06     213.058E+03    -14.6193E-03     30.2112E-03    -15.5919E-03     25.9046E-03    -14.9325E-03     30.7127E-03    -15.3837E-03     25.9411E-03
             272     17.7262E-03     37.4691E-03     24.1571E+03     113.698E+06     74.6272E+06    -322.991E+03    -15.3031E-03     30.8756E-03    -15.5725E-03     26.9614E-03    -15.6183E-03     31.3781E-03    -15.3642E-03     26.9888E-03
             273     17.7246E-03     38.4497E-03    -3.24679E+06     110.536E+06     71.3670E+06     176.227E+03    -15.8681E-03     31.4312E-03    -15.5631E-03     25.8989E-03    -16.1898E-03     31.9269E-03    -15.3618E-03     25.9310E-03
             274     17.7259E-03     39.4259E-03    -3.19795E+06     110.756E+06     71.4149E+06     215.832E+03    -15.3668E-03     30.9444E-03    -15.5775E-03     25.4026E-03    -15.6883E-03     31.4407E-03    -15.3764E-03     25.4379E-03
             275     17.7247E-03     40.4051E-03    -1.75696E+06     112.251E+06     72.9810E+06     216.173E+03    -15.2672E-03     30.8450E-03    -15.5778E-03     25.6279E-03    -15.5860E-03     31.3445E-03    -15.3731E-03     25.6638E-03
             276     17.7262E-03     41.3843E-03    -815.688E+03     112.986E+06     73.8035E+06     250.481E+03    -14.5348E-03     30.1239E-03    -15.5891E-03     25.9976E-03    -14.8513E-03     30.6247E-03    -15.3828E-03     26.0361E-03
             277     17.7251E-03     42.3599E-03    -1.78968E+06     112.137E+06     72.7894E+06    -724.504E+03    -14.6290E-03     30.2128E-03    -15.5838E-03     26.1415E-03    -14.9480E-03     30.7124E-03    -15.3798E-03     26.1677E-03
             278     17.7259E-03     43.3387E-03    -2.97537E+06     111.139E+06     71.6232E+06    -876.957E+03    -15.7069E-03     31.2658E-03    -15.5589E-03     25.4455E-03    -16.0286E-03     31.7638E-03    -15.3577E-03     25.4658E-03
             279     17.7250E-03     44.3175E-03    -2.48651E+06     112.024E+06     72.6155E+06     450.193E+03    -15.5977E-03     31.1680E-03    -15.5703E-03     25.9398E-03    -15.9198E-03     31.6684E-03    -15.3661E-03     25.9782E-03
             280     17.7255E-03     45.2984E-03    -688.409E+03     113.674E+06     74.1546E+06     1.14508E+06    -14.1773E-03     29.7815E-03    -15.6042E-03     26.6316E-03    -14.4961E-03     30.2864E-03    -15.3973E-03     26.6842E-03
             281     17.7257E-03     46.2706E-03    -1.86132E+06     112.571E+06     72.9248E+06    -556.720E+03    -14.7337E-03     30.3159E-03    -15.5822E-03     26.9489E-03    -15.0554E-03     30.8192E-03    -15.3781E-03     26.9772E-03
             282     17.7252E-03     47.2528E-03    -2.52905E+06     112.214E+06     72.5436E+06    -88.9442E+03    -15.4431E-03     31.0076E-03    -15.5645E-03     25.5363E-03    -15.7647E-03     31.5083E-03    -15.3608E-03     25.5671E-03
             283     17.7260E-03     48.2294E-03    -1.55043E+06     113.335E+06     73.6177E+06     149.687E+03    -14.7331E-03     30.3170E-03    -15.5839E-03     25.9469E-03    -15.0540E-03     30.8213E-03    -15.3779E-03     25.9843E-03
             284     17.7250E-03     49.2061E-03    -2.60991E+06     112.397E+06     72.6763E+06    -437.967E+03    -15.2273E-03     30.8053E-03    -15.5779E-03     25.5084E-03    -15.5505E-03     31.3075E-03    -15.3737E-03     25.5367E-03
             285     17.7255E-03     50.1871E-03    -3.09867E+06     111.892E+06     72.1475E+06    -147.892E+03    -14.9496E-03     30.5353E-03    -15.5857E-03     25.5145E-03    -15.2737E-03     31.0365E-03    -15.3827E-03     25.5476E-03
             286     17.7253E-03     51.1623E-03    -89.2242E+03     114.690E+06     74.9471E+06     186.252E+03    -14.2538E-03     29.8514E-03    -15.5976E-03     26.1577E-03    -14.5713E-03     30.3583E-03    -15.3890E-03     26.1973E-03
             287     17.7261E-03     52.1412E-03    -1.09696E+06     113.743E+06     74.0273E+06    -449.206E+03    -14.8411E-03     30.4186E-03    -15.5775E-03     26.8133E-03    -15.1617E-03     30.9244E-03    -15.3707E-03     26.8425E-03
             288     17.7250E-03     53.1197E-03    -2.42986E+06     112.478E+06     72.8509E+06     276.778E+03    -14.9738E-03     30.5549E-03    -15.5811E-03     26.5320E-03    -15.2972E-03     31.0578E-03    -15.3764E-03     26.5702E-03
             289     17.7257E-03     54.0969E-03    -1.35574E+06     113.509E+06     73.7965E+06     861.287E+03    -14.3031E-03     29.9026E-03    -15.5995E-03     26.4078E-03    -14.6239E-03     30.4075E-03    -15.3931E-03     26.4559E-03
             290     17.7254E-03     55.0734E-03    -2.25944E+06     112.772E+06     72.9988E+06     155.480E+03    -14.9214E-03     30.5016E-03    -15.5802E-03     26.7063E-03    -15.2452E-03     31.0060E-03    -15.3755E-03     26.7433E-03
             291     17.7254E-03     56.0532E-03    -2.21930E+06     112.908E+06     73.1410E+06     83.0960E+03    -15.4015E-03     30.9727E-03    -15.5712E-03     26.2143E-03    -15.7250E-03     31.4771E-03    -15.3660E-03     26.2487E-03
             292     886.129E-06     57.4007E-03    -31.4596E+06    -91.2651E+06    -30.5925E+06     3.04061E+03    -15.5546E-03     31.1086E-03    -15.5540E-03     3.49327E-03    -15.5352E-03     30.7423E-03    -15.5290E-03     3.49275E-03
             293     1.77226E-03     57.4052E-03    -30.3381E+06    -87.3969E+06    -27.7841E+06     43.1824E+03    -15.5459E-03     31.1057E-03    -15.5599E-03     6.46154E-03    -15.5306E-03     30.7531E-03    -15.5281E-03     6.46103E-03
             294     2.65842E-03     57.4127E-03    -28.7408E+06    -82.0820E+06    -23.6282E+06    -24.1009E+03    -15.5362E-03     31.1012E-03    -15.5650E-03     9.62703E-03    -15.5268E-03     30.7669E-03    -15.5225E-03     9.62507E-03
             295     3.54457E-03     57.4231E-03    -26.7566E+06    -77.8348E+06    -18.3015E+06    -11.6069E+03    -15.5352E-03     31.1108E-03    -15.5757E-03     12.8504E-03    -15.5300E-03     30.7874E-03    -15.5155E-03     12.8480E-03
             296     4.43076E-03     57.4366E-03    -24.4849E+06    -73.3375E+06    -12.8212E+06     116.423E+03    -15.5407E-03     31.1267E-03    -15.5859E-03     16.1302E-03    -15.5389E-03     30.8147E-03    -15.5082E-03     16.1286E-03
             297     5.31693E-03     57.4531E-03    -22.0948E+06    -69.5249E+06    -7.74181E+06     84.7703E+03    -15.5567E-03     31.1517E-03    -15.5950E-03     19.4659E-03    -15.5561E-03     30.8484E-03    -15.5009E-03     19.4630E-03
             298     6.20315E-03     57.4728E-03    -19.7111E+06    -65.2125E+06    -3.36668E+06     72.3985E+03    -15.5789E-03     31.1790E-03    -15.6000E-03     22.8683E-03    -15.5796E-03     30.8879E-03    -15.4937E-03     22.8641E-03
             299     7.08934E-03     57.4956E-03    -17.4636E+06    -60.7457E+06     199.855E+03     107.426E+03    -15.6106E-03     31.2118E-03    -15.6012E-03     26.3247E-03    -15.6125E-03     30.9355E-03    -15.4868E-03     26.3196E-03
             300     7.97558E-03     57.5217E-03    -15.3423E+06    -58.3120E+06     2.65051E+06     35.6668E+03    -15.6596E-03     31.2603E-03    -15.6007E-03     29.8128E-03    -15.6590E-03     30.9905E-03    -15.4806E-03     29.8049E-03
             301     8.86178E-03     57.5510E-03    -13.4318E+06    -54.4055E+06     3.75999E+06     69.4556E+03    -15.7131E-03     31.3054E-03    -15.5924E-03     33.3379E-03    -15.7118E-03     31.0525E-03    -15.4752E-03     33.3283E-03
             302     9.74802E-03     57.5836E-03    -11.9139E+06    -50.0837E+06     4.36257E+06     109.126E+03    -15.7664E-03     31.3483E-03    -15.5819E-03     36.8369E-03    -15.7670E-03     31.1162E-03    -15.4702E-03     36.8250E-03
             303     10.6343E-03     57.6194E-03    -10.6285E+06    -47.8057E+06     3.97564E+06     233.081E+03    -15.8281E-03     31.3982E-03    -15.5700E-03     40.3199E-03    -15.8285E-03     31.1796E-03    -15.4654E-03     40.3062E-03
             304     11.5205E-03     57.6586E-03    -9.52474E+06    -40.8298E+06     2.00180E+06     237.548E+03    -15.8753E-03     31.4187E-03    -15.5433E-03     43.7158E-03    -15.8826E-03     31.2413E-03    -15.4603E-03     43.6980E-03
             305     12.4068E-03     57.7006E-03    -8.71005E+06    -26.2565E+06     3.31156E+06     105.775E+03    -15.8848E-03     31.4057E-03    -15.5209E-03     47.1907E-03    -15.9186E-03     31.3058E-03    -15.4537E-03     47.1666E-03
             306     13.2931E-03     57.7462E-03    -7.90648E+06    -14.4433E+06     2.50312E+06    -124.524E+03    -15.9629E-03     31.4543E-03    -15.4914E-03     51.0515E-03    -16.0216E-03     31.4264E-03    -15.4465E-03     51.0194E-03
             307     14.1792E-03     57.7954E-03    -7.35308E+06     3.73700E+06    -1.52584E+06    -4.92153E+03    -16.0404E-03     31.4774E-03    -15.4370E-03     56.5425E-03    -16.1425E-03     31.5711E-03    -15.4394E-03     56.5077E-03
             308     15.0657E-03     57.8515E-03    -7.68604E+06     45.8745E+06    -385.598E+03     325.296E+03    -16.0575E-03     31.4283E-03    -15.3708E-03     65.0987E-03    -16.2767E-03     31.7842E-03    -15.4281E-03     65.0745E-03
             309     15.9521E-03     57.9164E-03    -7.18683E+06     95.6048E+06     23.0556E+06    -89.2448E+03    -16.0295E-03     31.4290E-03    -15.3995E-03     71.4657E-03    -16.4307E-03     32.0772E-03    -15.4124E-03     71.4801E-03
             310     16.8388E-03     57.9846E-03    -3.86816E+06     116.042E+06     59.1570E+06    -95.9693E+03    -15.2945E-03     30.8198E-03    -15.5252E-03     49.1638E-03    -15.7068E-03     31.4587E-03    -15.3921E-03     49.2064E-03
             311     886.130E-06     58.3785E-03    -31.1933E+06    -91.3079E+06    -30.3830E+06     41.9378E+03    -15.5588E-03     31.1229E-03    -15.5640E-03     3.48834E-03    -15.5384E-03     30.7557E-03    -15.5383E-03     3.48832E-03
             312     1.77225E-03     58.3831E-03    -30.1577E+06    -87.3724E+06    -27.7362E+06    -33.4028E+03    -15.5488E-03     31.1141E-03    -15.5652E-03     6.46307E-03    -15.5328E-03     30.7612E-03    -15.5335E-03     6.46157E-03
             313     2.65839E-03     58.3906E-03    -28.7408E+06    -82.0260E+06    -23.7341E+06    -49.6767E+03    -15.5384E-03     31.1071E-03    -15.5687E-03     9.63180E-03    -15.5290E-03     30.7733E-03    -15.5267E-03     9.62951E-03
             314     3.54456E-03     58.4010E-03    -26.9166E+06    -77.9304E+06    -18.4848E+06    -13.3949E+03    -15.5373E-03     31.1162E-03    -15.5789E-03     12.8550E-03    -15.5325E-03     30.7928E-03    -15.5193E-03     12.8525E-03
             315     4.43073E-03     58.4145E-03    -24.6415E+06    -73.4225E+06    -13.0517E+06    -1.53971E+03    -15.5420E-03     31.1306E-03    -15.5885E-03     16.1390E-03    -15.5405E-03     30.8188E-03    -15.5116E-03     16.1359E-03
             316     5.31693E-03     58.4310E-03    -22.1844E+06    -69.5094E+06    -7.80843E+06     49.0921E+03    -15.5574E-03     31.1553E-03    -15.5979E-03     19.4755E-03    -15.5572E-03     30.8522E-03    -15.5039E-03     19.4721E-03
             317     6.20311E-03     58.4506E-03    -19.8174E+06    -65.2866E+06    -3.36200E+06     84.8379E+03    -15.5803E-03     31.1834E-03    -15.6031E-03     22.8772E-03    -15.5814E-03     30.8922E-03    -15.4965E-03     22.8732E-03
             318     7.08934E-03     58.4735E-03    -17.5100E+06    -60.7617E+06     118.629E+03     93.4861E+03    -15.6117E-03     31.2152E-03    -15.6035E-03     26.3373E-03    -15.6136E-03     30.9390E-03    -15.4894E-03     26.3319E-03
             319     7.97554E-03     58.4996E-03    -15.4525E+06    -58.2326E+06     2.61979E+06     78.7368E+03    -15.6585E-03     31.2614E-03    -15.6029E-03     29.8291E-03    -15.6586E-03     30.9923E-03    -15.4830E-03     29.8218E-03
             320     8.86178E-03     58.5289E-03    -13.6769E+06    -54.5063E+06     3.55383E+06     51.8830E+03    -15.7068E-03     31.3005E-03    -15.5936E-03     33.3542E-03    -15.7064E-03     31.0477E-03    -15.4770E-03     33.3443E-03
             321     9.74801E-03     58.5615E-03    -12.0209E+06    -50.1474E+06     4.22851E+06     152.404E+03    -15.7616E-03     31.3442E-03    -15.5827E-03     36.8646E-03    -15.7624E-03     31.1121E-03    -15.4714E-03     36.8533E-03
             322     10.6342E-03     58.5974E-03    -10.5277E+06    -47.8968E+06     3.92497E+06     128.293E+03    -15.8200E-03     31.3902E-03    -15.5702E-03     40.3496E-03    -15.8197E-03     31.1711E-03    -15.4659E-03     40.3345E-03
             323     11.5205E-03     58.6364E-03    -9.32557E+06    -40.7443E+06     1.94193E+06     128.948E+03    -15.8650E-03     31.4073E-03    -15.5422E-03     43.7418E-03    -15.8713E-03     31.2301E-03    -15.4599E-03     43.7227E-03
             324     12.4067E-03     58.6786E-03    -8.30207E+06    -26.1595E+06     3.53140E+06     145.425E+03    -15.8821E-03     31.4024E-03    -15.5203E-03     47.1963E-03    -15.9143E-03     31.3021E-03    -15.4527E-03     47.1727E-03
             325     13.2931E-03     58.7240E-03    -7.60151E+06    -14.2828E+06     2.76723E+06     4.85023E+03    -15.9662E-03     31.4572E-03    -15.4909E-03     51.2459E-03    -16.0241E-03     31.4293E-03    -15.4453E-03     51.2154E-03
             326     14.1794E-03     58.7736E-03    -6.82461E+06     3.61505E+06    -943.876E+03    -131.482E+03    -16.0672E-03     31.5060E-03    -15.4388E-03     56.6922E-03    -16.1674E-03     31.5976E-03    -15.4388E-03     56.6557E-03
             327     15.0657E-03     58.8289E-03    -5.77448E+06     45.5545E+06     599.927E+03     704.750E+03    -16.0785E-03     31.4523E-03    -15.3738E-03     65.2037E-03    -16.2894E-03     31.8027E-03    -15.4285E-03     65.1844E-03
             328     15.9522E-03     58.8947E-03    -5.34087E+06     96.2685E+06     24.5796E+06     1.04326E+06    -15.9296E-03     31.3303E-03    -15.4007E-03     71.9908E-03    -16.3253E-03     31.9774E-03    -15.4096E-03     72.0209E-03
             329     16.8383E-03     58.9624E-03    -3.77964E+06     116.199E+06     59.8129E+06    -263.683E+03    -15.2551E-03     30.7758E-03    -15.5208E-03     49.5452E-03    -15.6683E-03     31.4147E-03    -15.3847E-03     49.5865E-03
             330     886.102E-06     59.3565E-03    -30.7884E+06    -91.3418E+06    -30.2719E+06     55.4755E+03    -15.5572E-03     31.1340E-03    -15.5768E-03     3.48218E-03    -15.5348E-03     30.7659E-03    -15.5511E-03     3.48233E-03
             331     1.77225E-03     59.3610E-03    -30.0301E+06    -87.2852E+06    -27.9059E+06    -32.8449E+03    -15.5498E-03     31.1176E-03    -15.5678E-03     6.46629E-03    -15.5330E-03     30.7653E-03    -15.5372E-03     6.46479E-03
             332     2.65839E-03     59.3685E-03    -28.7178E+06    -82.0853E+06    -23.8002E+06    -1.44415E+03    -15.5412E-03     31.1124E-03    -15.5712E-03     9.63530E-03    -15.5315E-03     30.7784E-03    -15.5295E-03     9.63363E-03
             333     3.54454E-03     59.3789E-03    -26.8657E+06    -77.9361E+06    -18.4828E+06     14.8472E+03    -15.5394E-03     31.1209E-03    -15.5814E-03     12.8612E-03    -15.5343E-03     30.7973E-03    -15.5219E-03     12.8591E-03
             334     4.43073E-03     59.3924E-03    -24.7228E+06    -73.3967E+06    -13.0856E+06    -22.4461E+03    -15.5432E-03     31.1341E-03    -15.5909E-03     16.1446E-03    -15.5421E-03     30.8226E-03    -15.5141E-03     16.1412E-03
             335     5.31690E-03     59.4089E-03    -22.3841E+06    -69.6122E+06    -7.96800E+06    -11.4470E+03    -15.5570E-03     31.1567E-03    -15.5997E-03     19.4827E-03    -15.5575E-03     30.8537E-03    -15.5061E-03     19.4785E-03
             336     6.20312E-03     59.4286E-03    -19.9126E+06    -65.3027E+06    -3.44335E+06     37.5316E+03    -15.5795E-03     31.1842E-03    -15.6047E-03     22.8863E-03    -15.5809E-03     30.8931E-03    -15.4984E-03     22.8816E-03
             337     7.08931E-03     59.4514E-03    -17.5886E+06    -60.8134E+06     61.6590E+03     51.3573E+03    -15.6090E-03     31.2138E-03    -15.6049E-03     26.3493E-03    -15.6112E-03     30.9375E-03    -15.4909E-03     26.3434E-03
             338     7.97556E-03     59.4775E-03    -15.4530E+06    -58.3023E+06     2.54926E+06     140.181E+03    -15.6527E-03     31.2561E-03    -15.6034E-03     29.8426E-03    -15.6526E-03     30.9868E-03    -15.4837E-03     29.8361E-03
             339     8.86177E-03     59.5068E-03    -13.6214E+06    -54.4350E+06     3.63224E+06     133.719E+03    -15.7013E-03     31.2952E-03    -15.5939E-03     33.3651E-03    -15.7007E-03     31.0425E-03    -15.4771E-03     33.3563E-03
             340     9.74801E-03     59.5394E-03    -12.0357E+06    -50.2690E+06     4.22069E+06     51.9071E+03    -15.7460E-03     31.3280E-03    -15.5819E-03     36.8779E-03    -15.7468E-03     31.0953E-03    -15.4705E-03     36.8654E-03
             341     10.6343E-03     59.5752E-03    -10.6784E+06    -47.7934E+06     3.93702E+06     51.7681E+03    -15.8134E-03     31.3820E-03    -15.5686E-03     40.3482E-03    -15.8140E-03     31.1636E-03    -15.4641E-03     40.3321E-03
             342     11.5205E-03     59.6143E-03    -9.66029E+06    -40.8420E+06     1.91387E+06     67.3186E+03    -15.8720E-03     31.4132E-03    -15.5412E-03     43.7255E-03    -15.8797E-03     31.2361E-03    -15.4584E-03     43.7056E-03
             343     12.4068E-03     59.6564E-03    -8.87132E+06    -26.1043E+06     3.39909E+06     94.7233E+03    -15.8853E-03     31.4049E-03    -15.5196E-03     47.1568E-03    -15.9203E-03     31.3059E-03    -15.4519E-03     47.1325E-03
             344     13.2932E-03     59.7018E-03    -8.37359E+06    -14.3196E+06     2.59394E+06     196.259E+03    -15.9132E-03     31.4024E-03    -15.4892E-03     51.1495E-03    -15.9747E-03     31.3758E-03    -15.4433E-03     51.1216E-03
             345     14.1796E-03     59.7515E-03    -8.17377E+06     4.30896E+06    -1.00244E+06    -293.750E+03    -16.0540E-03     31.4899E-03    -15.4359E-03     56.6498E-03    -16.1619E-03     31.5869E-03    -15.4353E-03     56.6112E-03
             346     15.0657E-03     59.8070E-03    -6.94768E+06     44.3729E+06     205.504E+03    -699.405E+03    -16.2035E-03     31.5792E-03    -15.3758E-03     64.9474E-03    -16.4186E-03     31.9266E-03    -15.4290E-03     64.9094E-03
             347     15.9524E-03     59.8721E-03    -3.64360E+06     95.5615E+06     24.4988E+06     738.742E+03    -15.9926E-03     31.3982E-03    -15.4056E-03     71.1069E-03    -16.3783E-03     32.0391E-03    -15.4164E-03     71.1324E-03
             348     16.8403E-03     59.9401E-03    -2.03062E+06     117.620E+06     60.1428E+06     1.05394E+06    -15.2552E-03     30.7824E-03    -15.5272E-03     48.4234E-03    -15.6609E-03     31.4240E-03    -15.3941E-03     48.4813E-03
             349     886.127E-06     60.3343E-03    -31.2071E+06    -91.2608E+06    -30.6355E+06    -130.260E+03    -15.5603E-03     31.1305E-03    -15.5702E-03     3.48374E-03    -15.5396E-03     30.7640E-03    -15.5458E-03     3.48149E-03
             350     1.77224E-03     60.3389E-03    -30.1724E+06    -87.2659E+06    -27.9462E+06    -69.1470E+03    -15.5536E-03     31.1221E-03    -15.5685E-03     6.46958E-03    -15.5375E-03     30.7702E-03    -15.5379E-03     6.46762E-03
             351     2.65839E-03     60.3463E-03    -28.7261E+06    -82.1629E+06    -23.7979E+06    -12.0857E+03    -15.5430E-03     31.1160E-03    -15.5730E-03     9.63705E-03    -15.5332E-03     30.7816E-03    -15.5312E-03     9.63525E-03
             352     3.54455E-03     60.3568E-03    -26.8111E+06    -77.9033E+06    -18.4269E+06    -4.65925E+03    -15.5412E-03     31.1245E-03    -15.5833E-03     12.8642E-03    -15.5360E-03     30.8010E-03    -15.5236E-03     12.8618E-03
             353     4.43071E-03     60.3702E-03    -24.5554E+06    -73.4190E+06    -12.9371E+06     15.9135E+03    -15.5446E-03     31.1376E-03    -15.5930E-03     16.1473E-03    -15.5428E-03     30.8255E-03    -15.5156E-03     16.1445E-03
             354     5.31691E-03     60.3868E-03    -22.2057E+06    -69.5828E+06    -7.85212E+06    -6.30793E+03    -15.5572E-03     31.1585E-03    -15.6013E-03     19.4880E-03    -15.5570E-03     30.8552E-03    -15.5075E-03     19.4839E-03
             355     6.20309E-03     60.4064E-03    -19.8800E+06    -65.3842E+06    -3.49099E+06    -21.6619E+03    -15.5764E-03     31.1818E-03    -15.6054E-03     22.8953E-03    -15.5775E-03     30.8903E-03    -15.4992E-03     22.8898E-03
             356     7.08933E-03     60.4293E-03    -17.6030E+06    -60.8526E+06     58.4448E+03     51.6476E+03    -15.6050E-03     31.2102E-03    -15.6052E-03     26.3557E-03    -15.6072E-03     30.9337E-03    -15.4911E-03     26.3498E-03
             357     7.97554E-03     60.4554E-03    -15.4721E+06    -58.4018E+06     2.52338E+06     67.1940E+03    -15.6493E-03     31.2526E-03    -15.6033E-03     29.8446E-03    -15.6491E-03     30.9828E-03    -15.4835E-03     29.8371E-03
             358     8.86179E-03     60.4847E-03    -13.5537E+06    -54.4547E+06     3.63729E+06     165.764E+03    -15.6952E-03     31.2885E-03    -15.5933E-03     33.3590E-03    -15.6943E-03     31.0356E-03    -15.4765E-03     33.3506E-03
             359     9.74804E-03     60.5173E-03    -12.0334E+06    -50.1633E+06     4.29702E+06     135.110E+03    -15.7459E-03     31.3271E-03    -15.5813E-03     36.8479E-03    -15.7469E-03     31.0949E-03    -15.4696E-03     36.8364E-03
             360     10.6343E-03     60.5531E-03    -10.8030E+06    -47.8925E+06     3.81416E+06     99.5205E+03    -15.8193E-03     31.3871E-03    -15.5678E-03     40.3305E-03    -15.8202E-03     31.1686E-03    -15.4636E-03     40.3151E-03
             361     11.5205E-03     60.5922E-03    -9.85898E+06    -40.9061E+06     1.73317E+06     205.680E+03    -15.8751E-03     31.4158E-03    -15.5407E-03     43.6772E-03    -15.8835E-03     31.2390E-03    -15.4584E-03     43.6590E-03
             362     12.4068E-03     60.6342E-03    -9.21896E+06    -26.2094E+06     2.97416E+06     283.517E+03    -15.9199E-03     31.4394E-03    -15.5195E-03     47.1469E-03    -15.9559E-03     31.3410E-03    -15.4533E-03     47.1249E-03
             363     13.2930E-03     60.6798E-03    -8.57091E+06    -14.2978E+06     2.04086E+06     356.332E+03    -15.9933E-03     31.4853E-03    -15.4919E-03     50.9909E-03    -16.0551E-03     31.4600E-03    -15.4486E-03     50.9647E-03
             364     14.1794E-03     60.7290E-03    -8.58878E+06     4.66485E+06    -1.71249E+06     463.048E+03    -15.9909E-03     31.4292E-03    -15.4384E-03     56.4861E-03    -16.1002E-03     31.5295E-03    -15.4412E-03     56.4575E-03
             365     15.0657E-03     60.7853E-03    -10.0611E+06     45.8592E+06    -1.43699E+06    -693.757E+03    -16.2851E-03     31.6613E-03    -15.3762E-03     65.2379E-03    -16.5161E-03     32.0236E-03    -15.4353E-03     65.1997E-03
             366     15.9513E-03     60.8500E-03    -8.63549E+06     94.5478E+06     20.9551E+06    -1.46579E+06    -16.4209E-03     31.8379E-03    -15.4171E-03     71.2407E-03    -16.8277E-03     32.4890E-03    -15.4369E-03     71.2361E-03
             367     16.8363E-03     60.9180E-03    -3.51115E+06     116.197E+06     58.3884E+06     391.019E+03    -15.0655E-03     30.6149E-03    -15.5495E-03     48.3335E-03    -15.4763E-03     31.2564E-03    -15.4209E-03     48.3828E-03
             368     886.121E-06     61.3123E-03    -31.2510E+06    -90.9452E+06    -30.5254E+06    -281.492E+03    -15.5639E-03     31.1261E-03    -15.5622E-03     3.48947E-03    -15.5440E-03     30.7610E-03    -15.5376E-03     3.48527E-03
             369     1.77225E-03     61.3168E-03    -30.3187E+06    -87.3736E+06    -27.8890E+06    -130.397E+03    -15.5568E-03     31.1252E-03    -15.5684E-03     6.46747E-03    -15.5413E-03     30.7728E-03    -15.5372E-03     6.46472E-03
             370     2.65839E-03     61.3243E-03    -28.8471E+06    -82.1584E+06    -23.7777E+06    -53.9131E+03    -15.5447E-03     31.1186E-03    -15.5739E-03     9.64063E-03    -15.5355E-03     30.7843E-03    -15.5319E-03     9.63829E-03
             371     3.54453E-03     61.3347E-03    -26.9268E+06    -77.9241E+06    -18.5175E+06    -40.4411E+03    -15.5407E-03     31.1246E-03    -15.5838E-03     12.8689E-03    -15.5359E-03     30.8012E-03    -15.5244E-03     12.8661E-03
             372     4.43072E-03     61.3482E-03    -24.6855E+06    -73.4222E+06    -13.0890E+06    -41.6323E+03    -15.5433E-03     31.1363E-03    -15.5930E-03     16.1537E-03    -15.5420E-03     30.8246E-03    -15.5162E-03     16.1501E-03
             373     5.31690E-03     61.3647E-03    -22.2774E+06    -69.5937E+06    -7.92159E+06    -8.06597E+03    -15.5555E-03     31.1569E-03    -15.6013E-03     19.4923E-03    -15.5555E-03     30.8537E-03    -15.5077E-03     19.4882E-03
             374     6.20311E-03     61.3843E-03    -19.9373E+06    -65.4175E+06    -3.49594E+06     45.3719E+03    -15.5744E-03     31.1799E-03    -15.6055E-03     22.8952E-03    -15.5757E-03     30.8884E-03    -15.4992E-03     22.8906E-03
             375     7.08932E-03     61.4072E-03    -17.7116E+06    -60.8970E+06    -61.9663E+03     32.9195E+03    -15.6030E-03     31.2076E-03    -15.6046E-03     26.3572E-03    -15.6055E-03     30.9312E-03    -15.4909E-03     26.3511E-03
             376     7.97556E-03     61.4333E-03    -15.5955E+06    -58.3890E+06     2.39785E+06     30.8931E+03    -15.6484E-03     31.2509E-03    -15.6025E-03     29.8415E-03    -15.6486E-03     30.9815E-03    -15.4832E-03     29.8336E-03
             377     8.86178E-03     61.4626E-03    -13.7110E+06    -54.6527E+06     3.36157E+06     86.0328E+03    -15.6964E-03     31.2886E-03    -15.5922E-03     33.3479E-03    -15.6956E-03     31.0353E-03    -15.4762E-03     33.3385E-03
             378     9.74802E-03     61.4952E-03    -12.0698E+06    -50.1100E+06     4.09211E+06     223.001E+03    -15.7556E-03     31.3361E-03    -15.5805E-03     36.8472E-03    -15.7566E-03     31.1045E-03    -15.4699E-03     36.8368E-03
             379     10.6343E-03     61.5310E-03    -10.7561E+06    -47.9066E+06     3.73382E+06     195.114E+03    -15.8200E-03     31.3881E-03    -15.5681E-03     40.3263E-03    -15.8205E-03     31.1695E-03    -15.4643E-03     40.3121E-03
             380     11.5205E-03     61.5701E-03    -9.64788E+06    -41.0896E+06     1.51511E+06     170.415E+03    -15.8795E-03     31.4198E-03    -15.5403E-03     43.6927E-03    -15.8863E-03     31.2421E-03    -15.4592E-03     43.6740E-03
             381     12.4068E-03     61.6121E-03    -8.56282E+06    -26.2830E+06     3.03666E+06     277.787E+03    -15.9440E-03     31.4644E-03    -15.5204E-03     47.2332E-03    -15.9767E-03     31.3646E-03    -15.4547E-03     47.2111E-03
             382     13.2930E-03     61.6578E-03    -7.50405E+06    -14.2514E+06     2.54042E+06     312.214E+03    -16.0482E-03     31.5444E-03    -15.4963E-03     51.1710E-03    -16.1055E-03     31.5171E-03    -15.4520E-03     51.1443E-03
             383     14.1789E-03     61.7071E-03    -6.62491E+06     4.00114E+06    -1.24138E+06     878.426E+03    -16.0802E-03     31.5262E-03    -15.4460E-03     56.4391E-03    -16.1797E-03     31.6199E-03    -15.4484E-03     56.4155E-03
             384     15.0659E-03     61.7624E-03    -6.53229E+06     47.6022E+06     312.025E+03     1.09228E+06    -16.0483E-03     31.4272E-03    -15.3789E-03     65.6508E-03    -16.2661E-03     31.7899E-03    -15.4369E-03     65.6369E-03
             385     15.9521E-03     61.8300E-03    -8.09919E+06     95.7127E+06     22.2263E+06    -292.690E+03    -15.7381E-03     31.1332E-03    -15.3951E-03     72.4347E-03    -16.1425E-03     31.7842E-03    -15.4110E-03     72.4495E-03
             386     16.8393E-03     61.8953E-03    -5.36049E+06     114.556E+06     57.7980E+06    -1.19252E+06    -15.2306E-03     30.7414E-03    -15.5108E-03     49.9190E-03    -15.6462E-03     31.3770E-03    -15.3801E-03     49.9490E-03
             387     886.125E-06     62.2901E-03    -31.5586E+06    -90.5809E+06    -30.6278E+06    -212.013E+03    -15.5630E-03     31.1251E-03    -15.5621E-03     3.49126E-03    -15.5450E-03     30.7624E-03    -15.5382E-03     3.48797E-03
             388     1.77225E-03     62.2947E-03    -30.4408E+06    -87.4443E+06    -27.8253E+06    -153.930E+03    -15.5542E-03     31.1234E-03    -15.5692E-03     6.46578E-03    -15.5393E-03     30.7707E-03    -15.5374E-03     6.46272E-03
             389     2.65838E-03     62.3021E-03    -28.8852E+06    -82.1526E+06    -23.7849E+06    -90.9468E+03    -15.5438E-03     31.1174E-03    -15.5736E-03     9.64165E-03    -15.5348E-03     30.7832E-03    -15.5315E-03     9.63883E-03
             390     3.54455E-03     62.3126E-03    -26.9744E+06    -77.9484E+06    -18.5685E+06    -50.7198E+03    -15.5405E-03     31.1238E-03    -15.5833E-03     12.8718E-03    -15.5358E-03     30.8005E-03    -15.5240E-03     12.8688E-03
             391     4.43071E-03     62.3260E-03    -24.7804E+06    -73.3903E+06    -13.1684E+06    -49.2635E+03    -15.5423E-03     31.1346E-03    -15.5923E-03     16.1547E-03    -15.5413E-03     30.8233E-03    -15.5158E-03     16.1510E-03
             392     5.31691E-03     62.3426E-03    -22.4643E+06    -69.6837E+06    -8.03858E+06    -18.1182E+03    -15.5546E-03     31.1553E-03    -15.6007E-03     19.4918E-03    -15.5552E-03     30.8521E-03    -15.5073E-03     19.4875E-03
             393     6.20310E-03     62.3622E-03    -20.0362E+06    -65.4434E+06    -3.59866E+06     25.1896E+03    -15.5749E-03     31.1798E-03    -15.6049E-03     22.8942E-03    -15.5766E-03     30.8884E-03    -15.4989E-03     22.8893E-03
             394     7.08933E-03     62.3851E-03    -17.7005E+06    -60.8650E+06    -129.502E+03      28.519E+03    -15.6027E-03     31.2067E-03    -15.6039E-03     26.3559E-03    -15.6051E-03     30.9305E-03    -15.4907E-03     26.3497E-03
             395     7.97555E-03     62.4111E-03    -15.6032E+06    -58.4165E+06     2.27623E+06     12.4917E+03    -15.6464E-03     31.2480E-03    -15.6016E-03     29.8426E-03    -15.6464E-03     30.9787E-03    -15.4829E-03     29.8345E-03
             396     8.86178E-03     62.4405E-03    -13.7160E+06    -54.7127E+06     3.32004E+06     22.3850E+03    -15.6997E-03     31.2914E-03    -15.5917E-03     33.3558E-03    -15.6987E-03     31.0379E-03    -15.4759E-03     33.3456E-03
             397     9.74803E-03     62.4730E-03    -12.0566E+06    -50.3294E+06     4.05156E+06     128.097E+03    -15.7546E-03     31.3350E-03    -15.5804E-03     36.8729E-03    -15.7551E-03     31.1023E-03    -15.4697E-03     36.8613E-03
             398     10.6343E-03     62.5090E-03    -10.6052E+06    -47.7096E+06      3.9725E+06     166.254E+03    -15.8177E-03     31.3861E-03    -15.5684E-03     40.3327E-03    -15.8181E-03     31.1680E-03    -15.4640E-03     40.3182E-03
             399     11.5205E-03     62.5479E-03    -9.47389E+06    -41.0850E+06     1.83399E+06    -51.8169E+03    -15.8886E-03     31.4301E-03    -15.5415E-03     43.7308E-03    -15.8949E-03     31.2516E-03    -15.4590E-03     43.7093E-03
             400     12.4068E-03     62.5902E-03    -8.37163E+06    -26.3975E+06     3.36812E+06    -46.6052E+03    -15.9226E-03     31.4439E-03    -15.5213E-03     47.2911E-03    -15.9547E-03     31.3428E-03    -15.4540E-03     47.2649E-03
             401     13.2930E-03     62.6357E-03    -7.45000E+06    -14.6032E+06     2.84374E+06     192.524E+03    -15.9798E-03     31.4743E-03    -15.4945E-03     51.2556E-03    -16.0366E-03     31.4445E-03    -15.4483E-03     51.2275E-03
             402     14.1796E-03     62.6852E-03    -6.31108E+06     4.08074E+06    -677.797E+03    -31.3072E+03    -16.2325E-03     31.6794E-03    -15.4469E-03     56.6707E-03    -16.3318E-03     31.7727E-03    -15.4470E-03     56.6348E-03
             403     15.0649E-03     62.7406E-03    -3.89316E+06     46.1249E+06     1.57296E+06     765.095E+03    -15.8242E-03     31.2048E-03    -15.3806E-03     64.9354E-03    -16.0269E-03     31.5528E-03    -15.4340E-03     64.9181E-03
             404     15.9532E-03     62.8059E-03    -2.42423E+06     96.7684E+06     26.2631E+06     1.73231E+06    -15.0499E-03     30.4287E-03    -15.3788E-03     70.9572E-03    -15.4260E-03     31.0635E-03    -15.3843E-03     70.9999E-03
             405     16.8417E-03     62.8724E-03    -3.30637E+06     116.584E+06     60.0140E+06    -210.460E+03    -15.5651E-03     31.0468E-03    -15.4816E-03     49.3425E-03    -15.9718E-03     31.6816E-03    -15.3458E-03     49.3842E-03
             406     886.113E-06     63.2681E-03    -31.6291E+06    -90.2582E+06    -30.6923E+06    -158.703E+03    -15.5548E-03     31.1238E-03    -15.5690E-03     3.48387E-03    -15.5375E-03     30.7629E-03    -15.5457E-03     3.48126E-03
             407     1.77224E-03     63.2726E-03    -30.4806E+06    -87.4303E+06    -27.8594E+06    -172.302E+03    -15.5508E-03     31.1193E-03    -15.5685E-03     6.47207E-03    -15.5361E-03     30.7668E-03    -15.5368E-03     6.46877E-03
             408     2.65839E-03     63.2800E-03    -28.9879E+06    -82.1633E+06    -23.8746E+06    -115.113E+03    -15.5429E-03     31.1150E-03    -15.5721E-03     9.64308E-03    -15.5343E-03     30.7810E-03    -15.5303E-03     9.63995E-03
             409     3.54454E-03     63.2905E-03    -27.0235E+06    -77.9378E+06    -18.5777E+06    -103.117E+03    -15.5405E-03     31.1229E-03    -15.5824E-03     12.8709E-03    -15.5361E-03     30.7997E-03    -15.5231E-03     12.8673E-03
             410     4.43072E-03     63.3039E-03    -24.7718E+06    -73.4592E+06    -13.1326E+06    -19.2647E+03    -15.5424E-03     31.1343E-03    -15.5919E-03     16.1522E-03    -15.5414E-03     30.8226E-03    -15.5151E-03     16.1489E-03
             411     5.31690E-03     63.3205E-03    -22.4102E+06    -69.6725E+06    -8.04291E+06         283.243    -15.5547E-03     31.1548E-03    -15.6000E-03     19.4908E-03    -15.5551E-03     30.8516E-03    -15.5067E-03     19.4867E-03
             412     6.20312E-03     63.3401E-03    -20.0502E+06    -65.4651E+06    -3.68475E+06    -42.7365E+03    -15.5749E-03     31.1789E-03    -15.6040E-03     22.8963E-03    -15.5764E-03     30.8875E-03    -15.4984E-03     22.8906E-03
             413     7.08932E-03     63.3629E-03    -17.7367E+06    -60.8565E+06    -170.511E+03    -31.9056E+03    -15.6015E-03     31.2048E-03    -15.6033E-03     26.3570E-03    -15.6040E-03     30.9288E-03    -15.4902E-03     26.3500E-03
             414     7.97556E-03     63.3891E-03    -15.5793E+06    -58.4049E+06     2.35642E+06    -20.9775E+03    -15.6440E-03     31.2453E-03    -15.6013E-03     29.8439E-03    -15.6440E-03     30.9758E-03    -15.4822E-03     29.8354E-03
             415     8.86180E-03     63.4183E-03    -13.7042E+06    -54.7287E+06     3.42537E+06    -22.7341E+03    -15.6963E-03     31.2877E-03    -15.5914E-03     33.3658E-03    -15.6954E-03     31.0340E-03    -15.4750E-03     33.3550E-03
             416     9.74803E-03     63.4510E-03    -12.0562E+06    -50.4550E+06     4.12721E+06     6.95905E+03    -15.7498E-03     31.3296E-03    -15.5798E-03     36.8724E-03    -15.7502E-03     31.0961E-03    -15.4685E-03     36.8592E-03
             417     10.6343E-03     63.4867E-03    -10.6284E+06    -47.6489E+06     4.01509E+06     22.2114E+03    -15.8271E-03     31.3947E-03    -15.5676E-03     40.3394E-03    -15.8277E-03     31.1768E-03    -15.4630E-03     40.3229E-03
             418     11.5205E-03     63.5259E-03    -9.56674E+06    -40.7355E+06     2.09748E+06    -63.5179E+03    -15.8988E-03     31.4412E-03    -15.5424E-03     43.7260E-03    -15.9065E-03     31.2643E-03    -15.4590E-03     43.7043E-03
             419     12.4068E-03     63.5679E-03    -8.90018E+06    -26.6504E+06     3.16548E+06    -152.086E+03    -15.9084E-03     31.4299E-03    -15.5215E-03     47.2260E-03    -15.9425E-03     31.3285E-03    -15.4541E-03     47.1985E-03
             420     13.2932E-03     63.6136E-03    -8.04307E+06    -14.6032E+06     2.49428E+06    -117.485E+03    -16.0076E-03     31.5020E-03    -15.4944E-03     51.1500E-03    -16.0669E-03     31.4737E-03    -15.4491E-03     51.1177E-03
             421     14.1792E-03     63.6630E-03    -7.82477E+06     4.33007E+06    -1.24058E+06    -308.257E+03    -16.1059E-03     31.5499E-03    -15.4440E-03     56.7166E-03    -16.2120E-03     31.6472E-03    -15.4451E-03     56.6776E-03
             422     15.0658E-03     63.7195E-03    -7.84489E+06     45.0391E+06    -280.558E+03    -483.720E+03    -16.1269E-03     31.5101E-03    -15.3832E-03     64.0068E-03    -16.3446E-03     31.8606E-03    -15.4385E-03     63.9717E-03
             423     15.9522E-03     63.7808E-03    -5.55633E+06     95.2488E+06     23.0363E+06     567.839E+03    -16.0210E-03     31.4326E-03    -15.4117E-03     69.6467E-03    -16.4102E-03     32.0734E-03    -15.4266E-03     69.6681E-03
             424     16.8377E-03     63.8518E-03    -2.51280E+06     117.324E+06     59.3047E+06     971.799E+03    -15.1978E-03     30.7323E-03    -15.5345E-03     49.2647E-03    -15.6046E-03     31.3748E-03    -15.4045E-03     49.3210E-03
             425     886.125E-06     64.2459E-03    -31.6483E+06    -89.9300E+06    -30.9029E+06    -172.019E+03    -15.5443E-03     31.1165E-03    -15.5722E-03     3.47291E-03    -15.5274E-03     30.7576E-03    -15.5504E-03     3.47013E-03
             426     1.77226E-03     64.2505E-03    -30.6423E+06    -87.3911E+06    -28.0886E+06    -180.699E+03    -15.5492E-03     31.1143E-03    -15.5651E-03     6.47674E-03    -15.5350E-03     30.7626E-03    -15.5344E-03     6.47334E-03
             427     2.65839E-03     64.2579E-03    -29.0825E+06    -82.1369E+06    -23.9173E+06    -151.238E+03    -15.5432E-03     31.1135E-03    -15.5703E-03     9.64632E-03    -15.5350E-03     30.7798E-03    -15.5286E-03     9.64272E-03
             428     3.54455E-03     64.2684E-03    -27.1854E+06    -77.9486E+06    -18.6488E+06    -104.452E+03    -15.5402E-03     31.1214E-03    -15.5812E-03     12.8711E-03    -15.5364E-03     30.7985E-03    -15.5220E-03     12.8674E-03
             429     4.43072E-03     64.2818E-03    -24.9266E+06    -73.5145E+06    -13.2760E+06    -85.6635E+03    -15.5424E-03     31.1331E-03    -15.5907E-03     16.1519E-03    -15.5418E-03     30.8215E-03    -15.5143E-03     16.1477E-03
             430     5.31691E-03     64.2984E-03    -22.4481E+06    -69.6320E+06    -8.12160E+06    -75.1162E+03    -15.5545E-03     31.1535E-03    -15.5990E-03     19.4900E-03    -15.5550E-03     30.8507E-03    -15.5061E-03     19.4850E-03
             431     6.20311E-03     64.3180E-03    -19.9853E+06    -65.4319E+06    -3.60153E+06    -80.1319E+03    -15.5737E-03     31.1773E-03    -15.6036E-03     22.8945E-03    -15.5751E-03     30.8859E-03    -15.4978E-03     22.8883E-03
             432     7.08934E-03     64.3409E-03    -17.7098E+06    -60.9099E+06    -89.2991E+03    -55.8922E+03    -15.6006E-03     31.2036E-03    -15.6030E-03     26.3523E-03    -15.6030E-03     30.9272E-03    -15.4895E-03     26.3450E-03
             433     7.97557E-03     64.3669E-03    -15.6281E+06    -58.3492E+06     2.41217E+06    -48.6621E+03    -15.6451E-03     31.2461E-03    -15.6010E-03     29.8389E-03    -15.6456E-03     30.9770E-03    -15.4816E-03     29.8300E-03
             434     8.86179E-03     64.3963E-03    -13.7511E+06    -54.7546E+06     3.40506E+06    -56.0222E+03    -15.6965E-03     31.2875E-03    -15.5910E-03     33.3542E-03    -15.6958E-03     31.0337E-03    -15.4746E-03     33.3430E-03
             435     9.74807E-03     64.4288E-03    -12.1000E+06    -50.3943E+06     4.03467E+06    -109.393E+03    -15.7557E-03     31.3349E-03    -15.5793E-03     36.8493E-03    -15.7563E-03     31.1020E-03    -15.4685E-03     36.8347E-03
             436     10.6343E-03     64.4647E-03    -10.6824E+06    -47.7595E+06     3.77647E+06    -62.2231E+03    -15.8356E-03     31.4029E-03    -15.5672E-03     40.3384E-03    -15.8361E-03     31.1849E-03    -15.4636E-03     40.3209E-03
             437     11.5205E-03     64.5038E-03    -9.64533E+06    -40.6279E+06     1.88319E+06     34.9528E+03    -15.9013E-03     31.4436E-03    -15.5423E-03     43.7176E-03    -15.9093E-03     31.2676E-03    -15.4599E-03     43.6971E-03
             438     12.4067E-03     64.5459E-03    -8.79936E+06    -26.5691E+06     3.07412E+06    -15.0590E+03    -15.9474E-03     31.4705E-03    -15.5231E-03     47.2033E-03    -15.9810E-03     31.3696E-03    -15.4564E-03     47.1774E-03
             439     13.2929E-03     64.5914E-03    -8.15288E+06    -14.4316E+06     2.22738E+06    -240.908E+03    -16.0340E-03     31.5313E-03    -15.4972E-03     51.3031E-03    -16.0939E-03     31.5045E-03    -15.4533E-03     51.2692E-03
             440     14.1791E-03     64.6414E-03    -7.65020E+06     4.04466E+06    -1.43116E+06     12.9905E+03    -15.9737E-03     31.4177E-03    -15.4440E-03     56.5457E-03    -16.0776E-03     31.5130E-03    -15.4460E-03     56.5114E-03
             441     15.0658E-03     64.6961E-03    -7.97865E+06     45.3865E+06    -826.602E+03     431.006E+03    -16.3219E-03     31.7037E-03    -15.3818E-03     64.8016E-03    -16.5417E-03     32.0587E-03    -15.4402E-03     64.7776E-03
             442     15.9503E-03     64.7621E-03    -8.23939E+06     94.6502E+06     20.6671E+06    -367.553E+03    -16.5657E-03     31.9901E-03    -15.4244E-03     71.4015E-03    -16.9722E-03     32.6434E-03    -15.4463E-03     71.4100E-03
             443     16.8369E-03     64.8273E-03    -3.48708E+06      116.52E+06     58.3997E+06    -45.9198E+03    -14.9592E-03     30.5173E-03    -15.5581E-03     50.5564E-03    -15.3746E-03     31.1646E-03    -15.4300E-03     50.6011E-03
             444     886.122E-06     65.2238E-03    -31.6043E+06    -89.6873E+06    -30.5921E+06    -94.4630E+03    -15.5479E-03     31.1109E-03    -15.5630E-03     3.47446E-03    -15.5315E-03     30.7528E-03    -15.5401E-03     3.47268E-03
             445     1.77225E-03     65.2284E-03    -30.4701E+06    -87.2154E+06    -27.8324E+06    -201.860E+03    -15.5518E-03     31.1157E-03    -15.5639E-03     6.47592E-03    -15.5374E-03     30.7643E-03    -15.5324E-03     6.47224E-03
             446     2.65840E-03     65.2358E-03    -29.0160E+06    -82.2116E+06    -23.8854E+06    -136.455E+03    -15.5421E-03     31.1117E-03    -15.5695E-03     9.64342E-03    -15.5336E-03     30.7775E-03    -15.5277E-03     9.64000E-03
             447     3.54455E-03     65.2463E-03    -27.1298E+06    -77.9486E+06    -18.6151E+06    -48.5521E+03    -15.5401E-03     31.1205E-03    -15.5803E-03     12.8669E-03    -15.5361E-03     30.7974E-03    -15.5210E-03     12.8639E-03
             448     4.43072E-03     65.2597E-03    -24.9326E+06    -73.3968E+06    -13.2306E+06    -134.489E+03    -15.5426E-03     31.1326E-03    -15.5900E-03     16.1502E-03    -15.5423E-03     30.8216E-03    -15.5136E-03     16.1453E-03
             449     5.31691E-03     65.2762E-03    -22.5490E+06    -69.6595E+06    -8.14931E+06    -174.801E+03    -15.5551E-03     31.1537E-03    -15.5986E-03     19.4881E-03    -15.5561E-03     30.8510E-03    -15.5056E-03     19.4818E-03
             450     6.20312E-03     65.2959E-03    -20.1261E+06    -65.3705E+06    -3.65190E+06    -155.385E+03    -15.5742E-03     31.1775E-03    -15.6033E-03     22.8886E-03    -15.5763E-03     30.8867E-03    -15.4976E-03     22.8815E-03
             451     7.08934E-03     65.3187E-03    -17.7051E+06    -60.9560E+06    -99.9387E+03    -151.664E+03    -15.6034E-03     31.2065E-03    -15.6031E-03     26.3419E-03    -15.6057E-03     30.9299E-03    -15.4895E-03     26.3333E-03
             452     7.97556E-03     65.3448E-03    -15.5126E+06    -58.3991E+06     2.35490E+06    -44.8380E+03    -15.6508E-03     31.2519E-03    -15.6011E-03     29.8275E-03    -15.6506E-03     30.9824E-03    -15.4821E-03     29.8186E-03
             453     8.86181E-03     65.3741E-03    -13.6918E+06    -54.6605E+06     3.39683E+06    -48.6257E+03    -15.7054E-03     31.2973E-03    -15.5919E-03     33.3381E-03    -15.7046E-03     31.0439E-03    -15.4758E-03     33.3270E-03
             454     9.74800E-03     65.4068E-03    -12.1651E+06    -50.2951E+06     3.94396E+06    -132.146E+03    -15.7645E-03     31.3451E-03    -15.5806E-03     36.8455E-03    -15.7655E-03     31.1129E-03    -15.4703E-03     36.8305E-03
             455     10.6343E-03     65.4426E-03    -10.8251E+06    -47.8805E+06     3.62909E+06    -131.963E+03    -15.8315E-03     31.4003E-03    -15.5688E-03     40.3375E-03    -15.8323E-03     31.1822E-03    -15.4656E-03     40.3190E-03
             456     11.5205E-03     65.4817E-03    -9.72803E+06    -40.8390E+06     1.66864E+06     52.2244E+03    -15.8882E-03     31.4310E-03    -15.5428E-03     43.7285E-03    -15.8960E-03     31.2544E-03    -15.4611E-03     43.7083E-03
             457     12.4067E-03     65.5238E-03    -8.75337E+06    -26.2552E+06     3.15863E+06    -48.0465E+03    -15.9281E-03     31.4509E-03    -15.5228E-03     47.3227E-03    -15.9621E-03     31.3515E-03    -15.4563E-03     47.2964E-03
             458     13.2930E-03     65.5695E-03    -7.93777E+06    -14.5637E+06     2.33537E+06    -24.9997E+03    -15.9271E-03     31.4202E-03    -15.4931E-03     51.4290E-03    -15.9857E-03     31.3922E-03    -15.4488E-03     51.3982E-03
             459     14.1795E-03     65.6189E-03    -7.35608E+06     3.91333E+06    -1.18605E+06     21.4972E+03    -15.9720E-03     31.4090E-03    -15.4370E-03     56.6697E-03    -16.0747E-03     31.5029E-03    -15.4379E-03     56.6356E-03
             460     15.0655E-03     65.6743E-03    -6.00844E+06     44.7788E+06     13.6796E+03     205.174E+03    -16.0346E-03     31.4018E-03    -15.3672E-03     65.4877E-03    -16.2453E-03     31.7501E-03    -15.4233E-03     65.4624E-03
             461     15.9537E-03     65.7402E-03    -4.01068E+06     96.0478E+06     24.1043E+06     237.758E+03    -15.9574E-03     31.3484E-03    -15.3910E-03     71.7819E-03    -16.3460E-03     31.9938E-03    -15.4040E-03     71.8015E-03
             462     16.8396E-03     65.8062E-03    -2.73797E+06     117.400E+06     59.9667E+06     124.627E+03    -15.4666E-03     30.9860E-03    -15.5194E-03     49.7780E-03    -15.8772E-03     31.6298E-03    -15.3858E-03     49.8231E-03
             463     886.144E-06     66.2017E-03    -31.7506E+06    -89.5124E+06    -30.8803E+06     65.5163E+03    -15.5448E-03     31.1054E-03    -15.5606E-03     3.48636E-03    -15.5290E-03     30.7488E-03    -15.5392E-03     3.48665E-03
             464     1.77225E-03     66.2062E-03    -30.6995E+06    -86.9634E+06    -27.9302E+06    -203.925E+03    -15.5531E-03     31.1156E-03    -15.5625E-03     6.47200E-03    -15.5401E-03     30.7659E-03    -15.5316E-03     6.46830E-03
             465     2.65839E-03     66.2137E-03    -29.0914E+06    -82.3607E+06    -23.8147E+06    -125.289E+03    -15.5417E-03     31.1120E-03    -15.5702E-03     9.64336E-03    -15.5334E-03     30.7771E-03    -15.5277E-03     9.64009E-03
             466     3.54455E-03     66.2242E-03    -27.0805E+06    -77.8696E+06    -18.5982E+06    -100.384E+03    -15.5393E-03     31.1195E-03    -15.5801E-03     12.8655E-03    -15.5353E-03     30.7967E-03    -15.5209E-03     12.8619E-03
             467     4.43073E-03     66.2376E-03    -24.7847E+06    -73.3033E+06    -13.0739E+06    -120.102E+03    -15.5439E-03     31.1342E-03    -15.5903E-03     16.1454E-03    -15.5432E-03     30.8233E-03    -15.5135E-03     16.1408E-03
             468     5.31691E-03     66.2541E-03    -22.4259E+06    -69.5552E+06    -7.98984E+06    -196.282E+03    -15.5583E-03     31.1576E-03    -15.5993E-03     19.4807E-03    -15.5590E-03     30.8549E-03    -15.5059E-03     19.4741E-03
             469     6.20312E-03     66.2738E-03    -20.0087E+06    -65.3806E+06    -3.68342E+06    -235.888E+03    -15.5792E-03     31.1829E-03    -15.6037E-03     22.8802E-03    -15.5807E-03     30.8919E-03    -15.4983E-03     22.8720E-03
             470     7.08932E-03     66.2966E-03    -17.7296E+06    -60.8631E+06    -193.079E+03    -253.210E+03    -15.6101E-03     31.2140E-03    -15.6039E-03     26.3354E-03    -15.6126E-03     30.9380E-03    -15.4909E-03     26.3256E-03
             471     7.97556E-03     66.3227E-03    -15.5139E+06    -58.6018E+06     2.24684E+06    -207.605E+03    -15.6588E-03     31.2616E-03    -15.6028E-03     29.8193E-03    -15.6581E-03     30.9913E-03    -15.4841E-03     29.8083E-03
             472     8.86176E-03     66.3520E-03    -13.5314E+06    -54.6154E+06     3.41652E+06    -29.7094E+03    -15.7099E-03     31.3040E-03    -15.5941E-03     33.3345E-03    -15.7084E-03     31.0506E-03    -15.4782E-03     33.3236E-03
             473     9.74802E-03     66.3846E-03    -11.9969E+06    -50.2259E+06     4.10266E+06    -22.8341E+03    -15.7651E-03     31.3485E-03    -15.5834E-03     36.8512E-03    -15.7655E-03     31.1162E-03    -15.4727E-03     36.8377E-03
             474     10.6342E-03     66.4205E-03    -10.8495E+06    -47.9138E+06     3.69750E+06    -13.8884E+03    -15.8237E-03     31.3949E-03    -15.5711E-03     40.3319E-03    -15.8247E-03     31.1765E-03    -15.4674E-03     40.3150E-03
             475     11.5205E-03     66.4595E-03    -9.81787E+06    -40.8876E+06     1.69891E+06    -111.529E+03    -15.8736E-03     31.4176E-03    -15.5440E-03     43.7353E-03    -15.8818E-03     31.2409E-03    -15.4620E-03     43.7130E-03
             476     12.4068E-03     66.5017E-03    -8.97528E+06    -26.2244E+06     3.10907E+06    -24.5665E+03    -15.8686E-03     31.3898E-03    -15.5212E-03     47.2579E-03    -15.9036E-03     31.2909E-03    -15.4546E-03     47.2321E-03
             477     13.2932E-03     66.5473E-03    -8.27882E+06    -14.5875E+06     2.36133E+06    -2.17034E+03    -15.8519E-03     31.3401E-03    -15.4881E-03     51.1613E-03    -15.9121E-03     31.3122E-03    -15.4432E-03     51.1310E-03
             478     14.1796E-03     66.5967E-03    -7.68912E+06     3.78565E+06    -1.42009E+06     19.5809E+03    -15.9236E-03     31.3513E-03    -15.4277E-03     56.5228E-03    -16.0272E-03     31.4452E-03    -15.4292E-03     56.4888E-03
             479     15.0663E-03     66.6522E-03    -7.80601E+06     45.2244E+06    -413.894E+03    -638.757E+03    -16.0626E-03     31.4217E-03    -15.3591E-03     64.8899E-03    -16.2816E-03     31.7747E-03    -15.4154E-03     64.8533E-03
             480     15.9518E-03     66.7169E-03    -6.33514E+06     95.6890E+06     23.7508E+06    -702.098E+03    -16.0919E-03     31.4846E-03    -15.3927E-03     70.2949E-03    -16.4877E-03     32.1287E-03    -15.4035E-03     70.2998E-03
             481     16.8398E-03     66.7844E-03    -3.51029E+06     117.105E+06      59.835E+06     759.117E+03    -15.4990E-03     31.0261E-03    -15.5271E-03     47.8943E-03    -15.9087E-03     31.6655E-03    -15.3926E-03     47.9453E-03
             482     886.119E-06     67.1796E-03    -32.0169E+06    -89.4032E+06    -31.3187E+06     43.9885E+03    -15.5473E-03     31.1090E-03    -15.5616E-03     3.49995E-03    -15.5324E-03     30.7539E-03    -15.5422E-03     3.49996E-03
             483     1.77226E-03     67.1842E-03    -30.9455E+06    -86.6817E+06    -28.1444E+06    -155.098E+03    -15.5467E-03     31.1097E-03    -15.5629E-03     6.46773E-03    -15.5350E-03     30.7620E-03    -15.5331E-03     6.46466E-03
             484     2.65840E-03     67.1916E-03    -29.3208E+06    -82.4212E+06    -23.7843E+06    -209.776E+03    -15.5429E-03     31.1139E-03    -15.5710E-03     9.64397E-03    -15.5357E-03     30.7790E-03    -15.5279E-03     9.63961E-03
             485     3.54456E-03     67.2021E-03    -27.2408E+06    -77.7517E+06    -18.7119E+06    -208.972E+03    -15.5404E-03     31.1207E-03    -15.5803E-03     12.8653E-03    -15.5371E-03     30.7990E-03    -15.5216E-03     12.8603E-03
             486     4.43072E-03     67.2155E-03    -24.9254E+06    -73.3204E+06    -13.2915E+06    -187.393E+03    -15.5456E-03     31.1361E-03    -15.5905E-03     16.1433E-03    -15.5453E-03     30.8255E-03    -15.5145E-03     16.1378E-03
             487     5.31691E-03     67.2320E-03    -22.5046E+06    -69.3750E+06    -8.11271E+06    -191.244E+03    -15.5611E-03     31.1609E-03    -15.5998E-03     19.4776E-03    -15.5623E-03     30.8595E-03    -15.5071E-03     19.4711E-03
             488     6.20310E-03     67.2517E-03    -20.1461E+06    -65.3058E+06    -3.76446E+06    -298.476E+03    -15.5843E-03     31.1894E-03    -15.6051E-03     22.8760E-03    -15.5865E-03     30.8991E-03    -15.5000E-03     22.8669E-03
             489     7.08932E-03     67.2745E-03    -17.8354E+06    -60.8454E+06    -326.789E+03    -276.730E+03    -15.6158E-03     31.2214E-03    -15.6056E-03     26.3361E-03    -15.6186E-03     30.9459E-03    -15.4931E-03     26.3259E-03
             490     7.97551E-03     67.3006E-03    -15.7821E+06    -58.5577E+06     2.12673E+06    -302.817E+03    -15.6604E-03     31.2655E-03    -15.6051E-03     29.8223E-03    -15.6609E-03     30.9960E-03    -15.4867E-03     29.8100E-03
             491     8.86175E-03     67.3299E-03    -13.8520E+06    -54.9010E+06     3.08353E+06    -217.700E+03    -15.7093E-03     31.3050E-03    -15.5957E-03     33.3454E-03    -15.7084E-03     31.0511E-03    -15.4806E-03     33.3321E-03
             492     9.74796E-03     67.3626E-03    -12.1280E+06    -50.2190E+06     3.93244E+06     39.8935E+03    -15.7574E-03     31.3420E-03    -15.5846E-03     36.8538E-03    -15.7583E-03     31.1102E-03    -15.4746E-03     36.8411E-03
             493     10.6342E-03     67.3984E-03    -10.6020E+06    -47.8063E+06     3.67216E+06    -79.3449E+03    -15.8173E-03     31.3889E-03    -15.5716E-03     40.3277E-03    -15.8171E-03     31.1707E-03    -15.4685E-03     40.3099E-03
             494     11.5205E-03     67.4374E-03    -9.48665E+06    -40.7920E+06     1.67134E+06    -117.312E+03    -15.8672E-03     31.4108E-03    -15.5437E-03     43.7395E-03    -15.8738E-03     31.2341E-03    -15.4624E-03     43.7171E-03
             495     12.4067E-03     67.4796E-03    -8.62475E+06    -26.4647E+06     3.01889E+06     2.56105E+03    -15.8783E-03     31.3992E-03    -15.5210E-03     47.2014E-03    -15.9110E-03     31.2986E-03    -15.4550E-03     47.1759E-03
             496     13.2930E-03     67.5250E-03    -7.82118E+06    -14.5340E+06     2.32694E+06     163.771E+03    -15.8833E-03     31.3723E-03    -15.4889E-03     51.0015E-03    -15.9411E-03     31.3440E-03    -15.4449E-03     50.9733E-03
             497     14.1794E-03     67.5744E-03    -7.53650E+06     3.60520E+06    -1.65132E+06     147.903E+03    -15.9359E-03     31.3656E-03    -15.4297E-03     56.4075E-03    -16.0377E-03     31.4583E-03    -15.4323E-03     56.3752E-03
             498     15.0657E-03     67.6300E-03    -7.48771E+06     46.2034E+06    -500.100E+03     88.6382E+03    -16.1995E-03     31.5632E-03    -15.3637E-03     65.1746E-03    -16.4185E-03     31.9211E-03    -15.4223E-03     65.1468E-03
             499     15.9522E-03     67.6958E-03    -8.17193E+06     95.3427E+06     22.2167E+06    -97.0220E+03    -16.3270E-03     31.7305E-03    -15.4036E-03     71.6354E-03    -16.7324E-03     32.3810E-03    -15.4189E-03     71.6479E-03
             500     16.8360E-03     67.7627E-03    -4.83726E+06     115.902E+06     58.6850E+06    -238.252E+03    -15.1958E-03     30.7321E-03    -15.5363E-03     49.1319E-03    -15.6118E-03     31.3722E-03    -15.4039E-03     49.1720E-03
             501     886.109E-06     68.1575E-03    -32.1922E+06    -89.2439E+06    -31.4821E+06    -100.384E+03    -15.5592E-03     31.1133E-03    -15.5541E-03     3.48266E-03    -15.5451E-03     30.7595E-03    -15.5354E-03     3.48080E-03
             502     1.77225E-03     68.1620E-03    -31.0679E+06    -86.4625E+06    -28.4292E+06    -159.478E+03    -15.5442E-03     31.1075E-03    -15.5633E-03     6.47942E-03    -15.5330E-03     30.7616E-03    -15.5351E-03     6.47629E-03
             503     2.65840E-03     68.1695E-03    -29.4588E+06    -82.2618E+06    -24.0413E+06    -263.413E+03    -15.5443E-03     31.1151E-03    -15.5708E-03     9.64355E-03    -15.5376E-03     30.7815E-03    -15.5290E-03     9.63849E-03
             504     3.54454E-03     68.1799E-03    -27.4922E+06    -77.7317E+06    -18.9218E+06    -261.378E+03    -15.5421E-03     31.1231E-03    -15.5810E-03     12.8646E-03    -15.5398E-03     30.8021E-03    -15.5230E-03     12.8589E-03
             505     4.43072E-03     68.1934E-03    -25.2084E+06    -73.2096E+06    -13.5868E+06    -290.487E+03    -15.5472E-03     31.1381E-03    -15.5909E-03     16.1471E-03    -15.5481E-03     30.8290E-03    -15.5161E-03     16.1402E-03
             506     5.31689E-03     68.2099E-03    -22.7118E+06    -69.3468E+06    -8.39116E+06    -317.561E+03    -15.5634E-03     31.1639E-03    -15.6005E-03     19.4810E-03    -15.5653E-03     30.8633E-03    -15.5090E-03     19.4728E-03
             507     6.20310E-03     68.2296E-03    -20.2448E+06    -65.1445E+06    -3.79664E+06    -286.008E+03    -15.5876E-03     31.1945E-03    -15.6069E-03     22.8803E-03    -15.5904E-03     30.9052E-03    -15.5021E-03     22.8715E-03
             508     7.08928E-03     68.2524E-03    -17.9898E+06    -60.8764E+06    -421.423E+03    -329.221E+03    -15.6154E-03     31.2228E-03    -15.6075E-03     26.3413E-03    -15.6188E-03     30.9475E-03    -15.4952E-03     26.3304E-03
             509     7.97552E-03     68.2785E-03    -15.8497E+06    -58.4628E+06     1.99122E+06    -276.351E+03    -15.6579E-03     31.2640E-03    -15.6061E-03     29.8312E-03    -15.6587E-03     30.9952E-03    -15.4884E-03     29.8193E-03
             510     8.86172E-03     68.3078E-03    -14.0453E+06    -54.9758E+06     2.93626E+06    -310.591E+03    -15.7056E-03     31.3023E-03    -15.5966E-03     33.3558E-03    -15.7054E-03     31.0485E-03    -15.4819E-03     33.3413E-03
             511     9.74798E-03     68.3404E-03    -12.2291E+06    -50.3744E+06     3.61398E+06    -314.541E+03    -15.7495E-03     31.3335E-03    -15.5840E-03     36.8677E-03    -15.7502E-03     31.1015E-03    -15.4752E-03     36.8504E-03
             512     10.6342E-03     68.3763E-03    -10.6110E+06    -47.5187E+06     3.62707E+06    -297.836E+03    -15.8090E-03     31.3799E-03    -15.5709E-03     40.3427E-03    -15.8092E-03     31.1632E-03    -15.4684E-03     40.3221E-03
             513     11.5205E-03     68.4153E-03    -9.42739E+06    -41.1596E+06     1.56206E+06    -186.597E+03    -15.8492E-03     31.3916E-03    -15.5424E-03     43.7418E-03    -15.8547E-03     31.2131E-03    -15.4613E-03     43.7186E-03
             514     12.4068E-03     68.4574E-03    -8.51182E+06    -26.3889E+06     3.11401E+06     19.8957E+03    -15.8698E-03     31.3888E-03    -15.5190E-03     47.2819E-03    -15.9021E-03     31.2882E-03    -15.4529E-03     47.2568E-03
             515     13.2931E-03     68.5030E-03    -7.57558E+06    -14.8084E+06     2.45624E+06     17.1467E+03    -15.9368E-03     31.4257E-03    -15.4889E-03     51.0881E-03    -15.9931E-03     31.3954E-03    -15.4441E-03     51.0579E-03
             516     14.1794E-03     68.5520E-03    -6.71522E+06     3.66849E+06    -1.20881E+06     226.360E+03    -15.9932E-03     31.4263E-03    -15.4331E-03     56.5346E-03    -16.0921E-03     31.5178E-03    -15.4347E-03     56.5031E-03
             517     15.0659E-03     68.6080E-03    -6.48526E+06     45.1745E+06    -117.077E+03     677.835E+03    -15.9570E-03     31.3190E-03    -15.3620E-03     65.5457E-03    -16.1699E-03     31.6695E-03    -15.4187E-03     65.5268E-03
             518     15.9522E-03     68.6737E-03    -5.12641E+06     95.7333E+06     23.0835E+06     993.339E+03    -15.6455E-03     31.0182E-03    -15.3727E-03     72.0669E-03    -16.0352E-03     31.6626E-03    -15.3887E-03     72.0979E-03
             519     16.8417E-03     68.7408E-03    -3.23738E+06     117.426E+06     59.1077E+06    -368.650E+03    -15.4910E-03     30.9842E-03    -15.4932E-03     49.3174E-03    -15.9001E-03     31.6273E-03    -15.3632E-03     49.3568E-03
             520     886.130E-06     69.1353E-03    -31.8553E+06    -89.0965E+06    -31.2767E+06    -109.072E+03    -15.5574E-03     31.1110E-03    -15.5536E-03     3.47342E-03    -15.5422E-03     30.7571E-03    -15.5346E-03     3.47145E-03
             521     1.77225E-03     69.1399E-03    -31.0237E+06    -86.1595E+06    -28.7181E+06    -226.962E+03    -15.5527E-03     31.1143E-03    -15.5615E-03     6.48522E-03    -15.5414E-03     30.7702E-03    -15.5352E-03     6.48121E-03
             522     2.65838E-03     69.1474E-03    -29.5452E+06    -82.1377E+06    -24.4144E+06    -283.490E+03    -15.5444E-03     31.1151E-03    -15.5708E-03     9.64596E-03    -15.5378E-03     30.7829E-03    -15.5309E-03     9.64064E-03
             523     3.54455E-03     69.1579E-03    -27.5818E+06    -77.6453E+06    -19.0562E+06    -279.967E+03    -15.5436E-03     31.1256E-03    -15.5820E-03     12.8686E-03    -15.5417E-03     30.8054E-03    -15.5247E-03     12.8627E-03
             524     4.43070E-03     69.1713E-03    -25.3073E+06    -73.0119E+06    -13.6128E+06    -374.291E+03    -15.5493E-03     31.1417E-03    -15.5924E-03     16.1512E-03    -15.5508E-03     30.8337E-03    -15.5179E-03     16.1432E-03
             525     5.31689E-03     69.1878E-03    -22.8928E+06    -69.2659E+06    -8.54578E+06    -453.642E+03    -15.5645E-03     31.1662E-03    -15.6018E-03     19.4879E-03    -15.5671E-03     30.8665E-03    -15.5109E-03     19.4780E-03
             526     6.20307E-03     69.2075E-03    -20.3656E+06    -65.1359E+06    -4.02610E+06    -440.334E+03    -15.5851E-03     31.1926E-03    -15.6075E-03     22.8907E-03    -15.5882E-03     30.9039E-03    -15.5037E-03     22.8798E-03
             527     7.08930E-03     69.2304E-03    -17.8888E+06    -60.7827E+06    -387.601E+03    -388.892E+03    -15.6130E-03     31.2214E-03    -15.6084E-03     26.3455E-03    -15.6161E-03     30.9464E-03    -15.4963E-03     26.3340E-03
             528     7.97549E-03     69.2564E-03    -15.6997E+06    -58.5170E+06     1.97757E+06    -392.848E+03    -15.6559E-03     31.2624E-03    -15.6065E-03     29.8394E-03    -15.6558E-03     30.9932E-03    -15.4890E-03     29.8260E-03
             529     8.86174E-03     69.2858E-03    -13.6556E+06    -54.7952E+06     3.10910E+06    -388.912E+03    -15.6983E-03     31.2950E-03    -15.5967E-03     33.3553E-03    -15.6967E-03     31.0413E-03    -15.4819E-03     33.3398E-03
             530     9.74798E-03     69.3183E-03    -12.0789E+06    -50.3392E+06     3.73823E+06    -511.660E+03    -15.7418E-03     31.3254E-03    -15.5836E-03     36.8701E-03    -15.7419E-03     31.0931E-03    -15.4744E-03     36.8503E-03
             531     10.6342E-03     69.3542E-03    -10.8167E+06    -47.6253E+06     3.56668E+06    -396.218E+03    -15.7978E-03     31.3673E-03    -15.5695E-03     40.3497E-03    -15.7988E-03     31.1505E-03    -15.4669E-03     40.3280E-03
             532     11.5205E-03     69.3932E-03    -9.74688E+06    -41.1685E+06     1.66207E+06    -366.885E+03    -15.8430E-03     31.3845E-03    -15.5415E-03     43.7019E-03    -15.8503E-03     31.2062E-03    -15.4593E-03     43.6763E-03
             533     12.4068E-03     69.4352E-03    -8.60253E+06    -26.7823E+06     3.07241E+06    -204.199E+03    -15.8502E-03     31.3672E-03    -15.5170E-03     47.2204E-03    -15.8824E-03     31.2648E-03    -15.4503E-03     47.1924E-03
             534     13.2932E-03     69.4808E-03    -7.93026E+06    -14.5981E+06     2.37789E+06    -11.6073E+03    -15.9227E-03     31.4080E-03    -15.4853E-03     51.0629E-03    -15.9810E-03     31.3794E-03    -15.4408E-03     51.0323E-03
             535     14.1794E-03     69.5300E-03    -7.58679E+06     3.64678E+06    -1.40054E+06    -3.06681E+03    -16.0374E-03     31.4688E-03    -15.4314E-03     56.4757E-03    -16.1407E-03     31.5622E-03    -15.4327E-03     56.4409E-03
             536     15.0658E-03     69.5855E-03    -6.54604E+06     44.3151E+06    -132.077E+03     325.339E+03    -15.9554E-03     31.3190E-03    -15.3635E-03     64.8603E-03    -16.1669E-03     31.6649E-03    -15.4190E-03     64.8367E-03
             537     15.9534E-03     69.6507E-03    -5.03081E+06     95.6557E+06     24.0465E+06     157.901E+03    -15.8416E-03     31.2270E-03    -15.3854E-03     70.3544E-03    -16.2303E-03     31.8676E-03    -15.3966E-03     70.3724E-03
             538     16.8388E-03     69.7175E-03    -3.22379E+06     118.002E+06     60.0611E+06     53.8800E+03    -15.4974E-03     31.0102E-03    -15.5128E-03     48.0673E-03    -15.9074E-03     31.6535E-03    -15.3789E-03     48.1104E-03
             539     886.136E-06     70.1133E-03    -31.8998E+06    -88.8470E+06    -31.3255E+06    -105.111E+03    -15.5538E-03     31.1110E-03    -15.5573E-03     3.48868E-03    -15.5390E-03     30.7585E-03    -15.5388E-03     3.48676E-03
             540     1.77224E-03     70.1178E-03    -30.9871E+06    -85.9125E+06    -28.6243E+06    -234.462E+03    -15.5551E-03     31.1176E-03    -15.5626E-03     6.48245E-03    -15.5440E-03     30.7746E-03    -15.5362E-03     6.47835E-03
             541     2.65839E-03     70.1253E-03    -29.5707E+06    -81.9782E+06    -24.4063E+06    -289.273E+03    -15.5472E-03     31.1194E-03    -15.5723E-03     9.64819E-03    -15.5410E-03     30.7880E-03    -15.5326E-03     9.64280E-03
             542     3.54453E-03     70.1357E-03    -27.5849E+06    -77.4786E+06    -19.1855E+06    -395.869E+03    -15.5446E-03     31.1275E-03    -15.5829E-03     12.8729E-03    -15.5428E-03     30.8083E-03    -15.5265E-03     12.8654E-03
             543     4.43070E-03     70.1492E-03    -25.2839E+06    -72.8635E+06    -13.6508E+06    -403.615E+03    -15.5493E-03     31.1428E-03    -15.5935E-03     16.1562E-03    -15.5509E-03     30.8356E-03    -15.5194E-03     16.1479E-03
             544     5.31687E-03     70.1657E-03    -22.8914E+06    -69.0274E+06    -8.51746E+06    -507.188E+03    -15.5629E-03     31.1657E-03    -15.6028E-03     19.4948E-03    -15.5660E-03     30.8671E-03    -15.5121E-03     19.4843E-03
             545     6.20308E-03     70.1854E-03    -20.4474E+06    -65.0397E+06    -4.15658E+06    -651.976E+03    -15.5816E-03     31.1892E-03    -15.6076E-03     22.8950E-03    -15.5851E-03     30.9012E-03    -15.5044E-03     22.8814E-03
             546     7.08927E-03     70.2082E-03    -17.9809E+06    -60.7705E+06    -568.924E+03    -654.659E+03    -15.6099E-03     31.2178E-03    -15.6079E-03     26.3530E-03    -15.6132E-03     30.9431E-03    -15.4965E-03     26.3380E-03
             547     7.97551E-03     70.2343E-03    -15.6092E+06    -58.4559E+06     2.01931E+06    -588.729E+03    -15.6512E-03     31.2575E-03    -15.6063E-03     29.8388E-03    -15.6509E-03     30.9884E-03    -15.4888E-03     29.8229E-03
             548     8.86173E-03     70.2636E-03    -13.6697E+06    -54.7563E+06     3.01642E+06    -576.962E+03    -15.6944E-03     31.2899E-03    -15.5955E-03     33.3505E-03    -15.6927E-03     31.0366E-03    -15.4812E-03     33.3325E-03
             549     9.74800E-03     70.2962E-03    -12.0305E+06    -50.2520E+06     3.76596E+06    -446.224E+03    -15.7381E-03     31.3207E-03    -15.5827E-03     36.8467E-03    -15.7382E-03     31.0888E-03    -15.4735E-03     36.8277E-03
             550     10.6343E-03     70.3320E-03    -10.6975E+06    -47.7889E+06     3.45684E+06    -415.439E+03    -15.7939E-03     31.3618E-03    -15.5679E-03     40.3161E-03    -15.7939E-03     31.1441E-03    -15.4658E-03     40.2941E-03
             551     11.5205E-03     70.3711E-03    -9.64852E+06    -40.9210E+06     1.58544E+06    -410.982E+03    -15.8622E-03     31.4023E-03    -15.5401E-03     43.6772E-03    -15.8693E-03     31.2253E-03    -15.4588E-03     43.6510E-03
             552     12.4068E-03     70.4130E-03    -8.79810E+06    -27.0371E+06     2.72935E+06    -529.776E+03    -15.8687E-03     31.3856E-03    -15.5169E-03     47.1403E-03    -15.9010E-03     31.2828E-03    -15.4513E-03     47.1080E-03
             553     13.2931E-03     70.4586E-03    -7.67943E+06    -15.0696E+06     2.11108E+06    -57.5879E+03    -15.9015E-03     31.3867E-03    -15.4852E-03     51.0447E-03    -15.9575E-03     31.3558E-03    -15.4417E-03     51.0136E-03
             554     14.1796E-03     70.5079E-03    -7.11946E+06     3.82993E+06    -1.37222E+06     255.229E+03    -16.0259E-03     31.4562E-03    -15.4303E-03     56.4858E-03    -16.1271E-03     31.5497E-03    -15.4324E-03     56.4545E-03
             555     15.0657E-03     70.5636E-03    -7.24053E+06     44.7865E+06    -487.558E+03    -29.6624E+03    -16.2343E-03     31.6037E-03    -15.3693E-03     64.9368E-03    -16.4500E-03     31.9540E-03    -15.4262E-03     64.9073E-03
             556     15.9510E-03     70.6282E-03    -6.67744E+06     95.1675E+06     22.0945E+06     347.994E+03    -16.2001E-03     31.6024E-03    -15.4022E-03     71.6532E-03    -16.5982E-03     32.2504E-03    -15.4201E-03     71.6723E-03
             557     16.8370E-03     70.6974E-03    -3.71224E+06     117.471E+06     58.7160E+06     185.432E+03    -15.2066E-03     30.7363E-03    -15.5298E-03     49.8397E-03    -15.6207E-03     31.3841E-03    -15.4011E-03     49.8860E-03
             558     886.103E-06     71.0911E-03    -32.3983E+06    -88.4793E+06    -31.6898E+06    -250.385E+03    -15.5481E-03     31.1107E-03    -15.5626E-03     3.50148E-03    -15.5358E-03     30.7613E-03    -15.5458E-03     3.49768E-03
             559     1.77226E-03     71.0958E-03    -31.2807E+06    -85.7393E+06    -28.5464E+06    -259.429E+03    -15.5522E-03     31.1166E-03    -15.5644E-03     6.49129E-03    -15.5430E-03     30.7748E-03    -15.5375E-03     6.48686E-03
             560     2.65838E-03     71.1032E-03    -29.6254E+06    -81.7432E+06    -24.3008E+06    -326.074E+03    -15.5500E-03     31.1236E-03    -15.5737E-03     9.64979E-03    -15.5445E-03     30.7933E-03    -15.5337E-03     9.64392E-03
             561     3.54453E-03     71.1137E-03    -27.6734E+06    -77.2081E+06    -19.2884E+06    -454.771E+03    -15.5442E-03     31.1277E-03    -15.5835E-03     12.8782E-03    -15.5430E-03     30.8101E-03    -15.5279E-03     12.8700E-03
             562     4.43069E-03     71.1271E-03    -25.3909E+06    -72.8048E+06    -13.8738E+06    -524.545E+03    -15.5469E-03     31.1403E-03    -15.5934E-03     16.1637E-03    -15.5488E-03     30.8338E-03    -15.5204E-03     16.1538E-03
             563     5.31688E-03     71.1437E-03    -22.8830E+06    -68.6834E+06    -8.59872E+06    -599.126E+03    -15.5593E-03     31.1614E-03    -15.6022E-03     19.5000E-03    -15.5627E-03     30.8647E-03    -15.5124E-03     19.4883E-03
             564     6.20307E-03     71.1633E-03    -20.4188E+06    -64.8038E+06    -4.16409E+06    -776.929E+03    -15.5800E-03     31.1871E-03    -15.6071E-03     22.8982E-03    -15.5836E-03     30.9002E-03    -15.5043E-03     22.8830E-03
             565     7.08929E-03     71.1862E-03    -18.1490E+06    -60.7331E+06    -788.839E+03    -798.295E+03    -15.6061E-03     31.2127E-03    -15.6066E-03     26.3567E-03    -15.6100E-03     30.9389E-03    -15.4962E-03     26.3398E-03
             566     7.97551E-03     71.2122E-03    -16.0363E+06    -58.3275E+06     1.71772E+06    -838.031E+03    -15.6483E-03     31.2529E-03    -15.6047E-03     29.8360E-03    -15.6498E-03     30.9855E-03    -15.4882E-03     29.8168E-03
             567     8.86175E-03     71.2415E-03    -13.9774E+06    -54.8248E+06     2.79128E+06    -745.209E+03    -15.6963E-03     31.2909E-03    -15.5945E-03     33.3370E-03    -15.6958E-03     31.0380E-03    -15.4808E-03     33.3168E-03
             568     9.74799E-03     71.2741E-03    -12.2511E+06    -50.3542E+06     3.41887E+06    -588.167E+03    -15.7428E-03     31.3242E-03    -15.5814E-03     36.8244E-03    -15.7433E-03     31.0926E-03    -15.4736E-03     36.8036E-03
             569     10.6342E-03     71.3099E-03    -10.8069E+06    -47.6878E+06     3.26364E+06    -494.443E+03    -15.8057E-03     31.3735E-03    -15.5677E-03     40.2855E-03    -15.8061E-03     31.1568E-03    -15.4666E-03     40.2624E-03
             570     11.5205E-03     71.3489E-03    -9.59754E+06    -40.9088E+06     1.40569E+06    -561.953E+03    -15.8646E-03     31.4051E-03    -15.5404E-03     43.6760E-03    -15.8712E-03     31.2283E-03    -15.4602E-03     43.6479E-03
             571     12.4068E-03     71.3911E-03    -8.70540E+06    -26.8943E+06     2.72116E+06    -487.671E+03    -15.8828E-03     31.4011E-03    -15.5183E-03     47.0970E-03    -15.9148E-03     31.2989E-03    -15.4531E-03     47.0652E-03
             572     13.2932E-03     71.4363E-03    -7.88053E+06    -15.7118E+06     1.67991E+06    -580.271E+03    -15.9236E-03     31.4108E-03    -15.4872E-03     51.0513E-03    -15.9791E-03     31.3777E-03    -15.4446E-03     51.0133E-03
             573     14.1793E-03     71.4859E-03    -6.74136E+06     3.17846E+06    -1.57960E+06    -88.1046E+03    -15.9971E-03     31.4292E-03    -15.4321E-03     56.4637E-03    -16.0950E-03     31.5190E-03    -15.4348E-03     56.4280E-03
             574     15.0660E-03     71.5412E-03    -6.28742E+06     44.7733E+06    -357.012E+03     903.791E+03    -16.1122E-03     31.4783E-03    -15.3661E-03     65.2397E-03    -16.3234E-03     31.8272E-03    -15.4237E-03     65.2228E-03
             575     15.9528E-03     71.6074E-03    -5.33959E+06     95.9801E+06     22.9554E+06     315.770E+03    -15.9453E-03     31.3354E-03    -15.3901E-03     71.6300E-03    -16.3386E-03     31.9839E-03    -15.4067E-03     71.6508E-03
             576     16.8414E-03     71.6730E-03    -3.34736E+06     118.010E+06     59.2724E+06    -116.092E+03    -15.4117E-03     30.9290E-03    -15.5173E-03     49.1854E-03    -15.8247E-03     31.5772E-03    -15.3872E-03     49.2284E-03
             577     886.137E-06     72.0691E-03     -32.667E+06    -88.1164E+06    -31.8618E+06    -229.707E+03    -15.5364E-03     31.1099E-03    -15.5735E-03     3.49513E-03    -15.5258E-03     30.7629E-03    -15.5577E-03     3.49160E-03
             578     1.77224E-03     72.0736E-03    -31.6665E+06    -85.4676E+06    -28.9637E+06    -292.087E+03    -15.5511E-03     31.1144E-03    -15.5633E-03     6.50065E-03    -15.5436E-03     30.7751E-03    -15.5383E-03     6.49581E-03
             579     2.65838E-03     72.0811E-03    -30.0579E+06    -81.4841E+06    -24.6495E+06    -426.375E+03    -15.5458E-03     31.1183E-03    -15.5725E-03     9.65458E-03    -15.5423E-03     30.7904E-03    -15.5340E-03     9.64742E-03
             580     3.54453E-03     72.0915E-03    -28.0008E+06    -76.9669E+06    -19.5201E+06    -487.703E+03    -15.5422E-03     31.1246E-03    -15.5823E-03     12.8838E-03    -15.5427E-03     30.8090E-03    -15.5277E-03     12.8752E-03
             581     4.43069E-03     72.1050E-03    -25.7276E+06    -72.5279E+06    -14.2077E+06    -646.519E+03    -15.5437E-03     31.1353E-03    -15.5915E-03     16.1704E-03    -15.5472E-03     30.8312E-03    -15.5201E-03     16.1589E-03
             582     5.31688E-03     72.1215E-03    -23.3079E+06    -68.4844E+06    -9.12489E+06    -759.262E+03    -15.5548E-03     31.1541E-03    -15.5993E-03     19.5079E-03    -15.5598E-03     30.8597E-03    -15.5118E-03     19.4941E-03
             583     6.20309E-03     72.1412E-03    -20.8720E+06    -64.4347E+06    -4.50736E+06    -858.539E+03    -15.5765E-03     31.1812E-03    -15.6047E-03     22.9023E-03    -15.5825E-03     30.8974E-03    -15.5035E-03     22.8860E-03
             584     7.08929E-03     72.1640E-03    -18.4753E+06    -60.7471E+06    -1.02890E+06    -912.680E+03    -15.6065E-03     31.2116E-03    -15.6052E-03     26.3506E-03    -15.6116E-03     30.9385E-03    -15.4955E-03     26.3322E-03
             585     7.97553E-03     72.1901E-03    -16.3324E+06    -58.0880E+06     1.39829E+06    -859.375E+03    -15.6485E-03     31.2512E-03    -15.6027E-03     29.8340E-03    -15.6514E-03     30.9858E-03    -15.4878E-03     29.8145E-03
             586     8.86173E-03     72.2194E-03    -14.4800E+06    -54.7909E+06     2.41712E+06    -1.01363E+06    -15.6988E-03     31.2921E-03    -15.5933E-03     33.3349E-03    -15.7003E-03     31.0407E-03    -15.4807E-03     33.3113E-03
             587     9.74799E-03     72.2520E-03    -12.6896E+06    -50.6341E+06     2.96760E+06    -802.409E+03    -15.7512E-03     31.3320E-03    -15.5808E-03     36.8213E-03    -15.7529E-03     31.1002E-03    -15.4741E-03     36.7977E-03
             588     10.6342E-03     72.2877E-03    -11.1836E+06    -47.4809E+06     2.99186E+06    -710.340E+03    -15.8206E-03     31.3889E-03    -15.5682E-03     40.2980E-03    -15.8229E-03     31.1741E-03    -15.4682E-03     40.2721E-03
             589     11.5204E-03     72.3268E-03    -10.1268E+06    -40.9563E+06     1.11804E+06    -677.325E+03    -15.8659E-03     31.4081E-03    -15.5421E-03     43.6481E-03    -15.8747E-03     31.2322E-03    -15.4625E-03     43.6185E-03
             590     12.4068E-03     72.3688E-03    -9.14869E+06    -26.9033E+06     2.40847E+06    -632.359E+03    -15.8958E-03     31.4161E-03    -15.5202E-03     47.0784E-03    -15.9296E-03     31.3149E-03    -15.4559E-03     47.0447E-03
             591     13.2930E-03     72.4143E-03    -8.34536E+06    -15.3415E+06     1.55541E+06    -720.533E+03    -15.9718E-03     31.4633E-03    -15.4915E-03     50.9699E-03    -16.0301E-03     31.4330E-03    -15.4494E-03     50.9300E-03
             592     14.1795E-03     72.4635E-03    -7.83705E+06     2.29909E+06    -2.45840E+06    -848.017E+03    -16.0404E-03     31.4787E-03    -15.4384E-03     56.3557E-03    -16.1413E-03     31.5671E-03    -15.4426E-03     56.3100E-03
             593     15.0655E-03     72.5193E-03    -5.95879E+06     43.8986E+06    -440.526E+03    -417.495E+03    -16.0437E-03     31.4175E-03    -15.3737E-03     64.7464E-03    -16.2514E-03     31.7611E-03    -15.4310E-03     64.7128E-03
             594     15.9524E-03     72.5841E-03    -3.90690E+06     96.5623E+06     24.4246E+06     484.596E+03    -15.9793E-03     31.3806E-03    -15.4013E-03     70.8821E-03    -16.3661E-03     32.0255E-03    -15.4135E-03     70.9040E-03
             595     16.8363E-03     72.6525E-03    -3.01213E+06     118.268E+06     59.8653E+06     958.000E+03    -15.4432E-03     30.9715E-03    -15.5283E-03     49.2154E-03    -15.8543E-03     31.6181E-03    -15.3961E-03     49.2710E-03
             596     886.107E-06     73.0469E-03    -33.3348E+06    -87.6688E+06    -32.6321E+06    -183.287E+03    -15.5303E-03     31.1093E-03    -15.5790E-03     3.50603E-03    -15.5225E-03     30.7667E-03    -15.5667E-03     3.50310E-03
             597     1.77225E-03     73.0516E-03    -32.1689E+06    -85.1288E+06    -29.6059E+06    -392.656E+03    -15.5464E-03     31.1085E-03    -15.5622E-03     6.49749E-03    -15.5409E-03     30.7725E-03    -15.5401E-03     6.49134E-03
             598     2.65839E-03     73.0590E-03    -30.5044E+06    -81.1483E+06    -25.1547E+06    -526.073E+03    -15.5397E-03     31.1098E-03    -15.5702E-03     9.65770E-03    -15.5383E-03     30.7850E-03    -15.5340E-03     9.64925E-03
             599     3.54453E-03     73.0695E-03    -28.3670E+06    -76.6946E+06    -19.8816E+06    -701.783E+03    -15.5392E-03     31.1192E-03    -15.5799E-03     12.8839E-03    -15.5414E-03     30.8060E-03    -15.5270E-03     12.8725E-03
             600     4.43070E-03     73.0829E-03    -25.8708E+06    -72.1550E+06    -14.4009E+06    -825.826E+03    -15.5422E-03     31.1317E-03    -15.5894E-03     16.1679E-03    -15.5467E-03     30.8299E-03    -15.5193E-03     16.1541E-03
             601     5.31689E-03     73.0995E-03    -23.3076E+06    -68.2670E+06    -9.18531E+06    -945.246E+03    -15.5541E-03     31.1520E-03    -15.5979E-03     19.5041E-03    -15.5594E-03     30.8588E-03    -15.5111E-03     19.4879E-03
             602     6.20308E-03     73.1191E-03    -20.7963E+06    -64.2223E+06    -4.62182E+06    -953.127E+03    -15.5756E-03     31.1785E-03    -15.6029E-03     22.9006E-03    -15.5813E-03     30.8958E-03    -15.5028E-03     22.8832E-03
             603     7.08930E-03     73.1420E-03    -18.4662E+06    -60.5029E+06    -1.05845E+06    -1.05447E+06    -15.6080E-03     31.2121E-03    -15.6041E-03     26.3473E-03    -15.6134E-03     30.9402E-03    -15.4949E-03     26.3271E-03
             604     7.97550E-03     73.1679E-03    -16.1819E+06    -58.1479E+06     1.25546E+06    -1.03455E+06    -15.6503E-03     31.2517E-03    -15.6015E-03     29.8334E-03    -15.6521E-03     30.9861E-03    -15.4874E-03     29.8117E-03
             605     8.86177E-03     73.1973E-03    -14.2743E+06    -54.4024E+06     2.44730E+06    -968.011E+03    -15.6998E-03     31.2921E-03    -15.5923E-03     33.3375E-03    -15.7009E-03     31.0423E-03    -15.4805E-03     33.3145E-03
             606     9.74797E-03     73.2298E-03    -12.5723E+06    -50.7394E+06     2.89376E+06    -1.24512E+06    -15.7589E-03     31.3394E-03    -15.5805E-03     36.8339E-03    -15.7597E-03     31.1071E-03    -15.4742E-03     36.8045E-03
             607     10.6342E-03     73.2657E-03    -10.9980E+06    -47.7914E+06     2.70613E+06    -803.542E+03    -15.8222E-03     31.3895E-03    -15.5673E-03     40.3280E-03    -15.8227E-03     31.1734E-03    -15.4685E-03     40.3009E-03
             608     11.5205E-03     73.3046E-03    -10.0807E+06    -40.8228E+06     1.21185E+06    -522.281E+03    -15.8862E-03     31.4296E-03    -15.5433E-03     43.6720E-03    -15.8951E-03     31.2542E-03    -15.4635E-03     43.6444E-03
             609     12.4067E-03     73.3467E-03    -9.62733E+06    -26.8951E+06     2.19715E+06    -518.260E+03    -15.9213E-03     31.4437E-03    -15.5224E-03     47.1339E-03    -15.9572E-03     31.3436E-03    -15.4585E-03     47.1017E-03
             610     13.2930E-03     73.3922E-03    -9.32417E+06    -15.1063E+06     1.36178E+06    -506.341E+03    -15.9845E-03     31.4799E-03    -15.4954E-03     51.0685E-03    -16.0477E-03     31.4525E-03    -15.4532E-03     51.0313E-03
             611     14.1789E-03     73.4416E-03    -8.89594E+06     2.87084E+06    -2.65831E+06    -897.662E+03    -16.0898E-03     31.5334E-03    -15.4436E-03     56.5116E-03    -16.1967E-03     31.6266E-03    -15.4482E-03     56.4652E-03
             612     15.0657E-03     73.4970E-03    -8.98528E+06     43.7078E+06    -1.71063E+06    -1.64269E+06    -16.2423E-03     31.6269E-03    -15.3846E-03     65.0457E-03    -16.4637E-03     31.9765E-03    -15.4435E-03     64.9954E-03
             613     15.9513E-03     73.5625E-03    -7.51726E+06     94.5743E+06     21.2636E+06    -588.366E+03    -16.1390E-03     31.5546E-03    -15.4156E-03     71.1797E-03    -16.5372E-03     32.2002E-03    -15.4355E-03     71.1870E-03
             614     16.8411E-03     73.6297E-03    -2.92055E+06     117.903E+06     58.4800E+06     1.33237E+06    -14.9599E-03     30.4944E-03    -15.5344E-03     48.9051E-03    -15.3675E-03     31.1406E-03    -15.4088E-03     48.9663E-03
             615     886.120E-06     74.0249E-03    -32.6077E+06    -87.1723E+06    -31.9475E+06    -211.602E+03    -15.5531E-03     31.1178E-03    -15.5647E-03     3.52371E-03    -15.5434E-03     30.7756E-03    -15.5508E-03     3.52040E-03
             616     1.77223E-03     74.0294E-03    -31.7147E+06    -84.6772E+06    -29.1866E+06    -464.834E+03    -15.5467E-03     31.1115E-03    -15.5648E-03     6.49143E-03    -15.5403E-03     30.7765E-03    -15.5419E-03     6.48435E-03
             617     2.65837E-03     74.0369E-03    -30.1549E+06    -80.7558E+06    -25.0421E+06    -650.255E+03    -15.5391E-03     31.1095E-03    -15.5704E-03     9.65861E-03    -15.5366E-03     30.7860E-03    -15.5348E-03     9.64855E-03
             618     3.54454E-03     74.0473E-03    -28.1440E+06    -76.1852E+06    -19.8405E+06    -895.253E+03    -15.5381E-03     31.1173E-03    -15.5793E-03     12.8830E-03    -15.5399E-03     30.8064E-03    -15.5272E-03     12.8691E-03
             619     4.43069E-03     74.0608E-03    -25.8048E+06    -71.8354E+06    -14.3468E+06    -1.11665E+06    -15.5422E-03     31.1314E-03    -15.5892E-03     16.1644E-03    -15.5469E-03     30.8310E-03    -15.5193E-03     16.1469E-03
             620     5.31689E-03     74.0773E-03    -23.2289E+06    -67.9465E+06    -9.16929E+06    -1.19592E+06    -15.5544E-03     31.1518E-03    -15.5975E-03     19.5013E-03    -15.5597E-03     30.8601E-03    -15.5111E-03     19.4818E-03
             621     6.20308E-03     74.0970E-03    -20.5954E+06    -64.1001E+06    -4.68537E+06    -1.24388E+06    -15.5752E-03     31.1774E-03    -15.6022E-03     22.8989E-03    -15.5800E-03     30.8951E-03    -15.5028E-03     22.8777E-03
             622     7.08930E-03     74.1198E-03    -18.0310E+06    -60.1787E+06    -1.00611E+06    -1.24334E+06    -15.6068E-03     31.2098E-03    -15.6030E-03     26.3472E-03    -15.6106E-03     30.9389E-03    -15.4946E-03     26.3246E-03
             623     7.97553E-03     74.1459E-03    -15.7914E+06    -58.0971E+06     1.39580E+06    -1.31578E+06    -15.6525E-03     31.2536E-03    -15.6012E-03     29.8271E-03    -15.6526E-03     30.9875E-03    -15.4871E-03     29.8018E-03
             624     8.86174E-03     74.1751E-03    -13.5770E+06    -54.2928E+06     2.44751E+06    -1.27017E+06    -15.6989E-03     31.2895E-03    -15.5906E-03     33.3443E-03    -15.6966E-03     31.0392E-03    -15.4800E-03     33.3174E-03
             625     9.74800E-03     74.2078E-03    -11.8554E+06    -50.1946E+06     3.19588E+06    -1.34868E+06    -15.7544E-03     31.3336E-03    -15.5792E-03     36.8481E-03    -15.7528E-03     31.1025E-03    -15.4732E-03     36.8175E-03
             626     10.6342E-03     74.2435E-03    -10.4304E+06    -48.7051E+06     2.53872E+06    -1.22767E+06    -15.8147E-03     31.3800E-03    -15.5653E-03     40.3382E-03    -15.8107E-03     31.1587E-03    -15.4669E-03     40.3056E-03
             627     11.5205E-03     74.2826E-03    -9.07075E+06    -40.9458E+06     1.27277E+06    -412.492E+03    -15.8747E-03     31.4143E-03    -15.5396E-03     43.7577E-03    -15.8784E-03     31.2368E-03    -15.4608E-03     43.7315E-03
             628     12.4067E-03     74.3246E-03    -8.23224E+06    -27.0342E+06     2.77328E+06    -97.2262E+03    -15.9145E-03     31.4342E-03    -15.5197E-03     47.2522E-03    -15.9440E-03     31.3305E-03    -15.4547E-03     47.2255E-03
             629     13.2929E-03     74.3701E-03    -7.91479E+06    -15.2460E+06     1.40135E+06     246.378E+03    -15.9377E-03     31.4256E-03    -15.4878E-03     51.2315E-03    -15.9937E-03     31.3952E-03    -15.4472E-03     51.2042E-03
             630     14.1796E-03     74.4195E-03    -8.96862E+06     3.69461E+06    -2.51625E+06     188.918E+03    -16.0425E-03     31.4766E-03    -15.4341E-03     56.8524E-03    -16.1511E-03     31.5737E-03    -15.4390E-03     56.8202E-03
             631     15.0653E-03     74.4752E-03    -10.7535E+06     45.0759E+06    -2.06962E+06     306.580E+03    -16.2563E-03     31.6295E-03    -15.3732E-03     65.6199E-03    -16.4885E-03     31.9895E-03    -15.4333E-03     65.5950E-03
             632     15.9523E-03     74.5406E-03    -11.0410E+06     93.5026E+06     17.8893E+06    -1.27002E+06    -15.9385E-03     31.3287E-03    -15.3902E-03     71.8767E-03    -16.3493E-03     31.9802E-03    -15.4203E-03     71.8765E-03
             633     16.8349E-03     74.6078E-03    -4.69258E+06     116.132E+06     56.1707E+06    -1.75503E+06    -14.7297E-03     30.2315E-03    -15.5018E-03     49.5133E-03    -15.1413E-03     30.8758E-03    -15.3825E-03     49.5360E-03
             634     886.109E-06     75.0027E-03    -32.5866E+06    -86.6873E+06    -31.9406E+06    -233.967E+03    -15.5585E-03     31.1166E-03    -15.5581E-03     3.49733E-03    -15.5494E-03     30.7768E-03    -15.5449E-03     3.49374E-03
             635     1.77224E-03     75.0074E-03    -31.4991E+06    -84.0916E+06    -29.0454E+06    -514.007E+03    -15.5474E-03     31.1119E-03    -15.5645E-03     6.49138E-03    -15.5409E-03     30.7793E-03    -15.5421E-03     6.48367E-03
             636     2.65838E-03     75.0148E-03    -29.9189E+06    -80.2382E+06    -24.8664E+06    -796.252E+03    -15.5424E-03     31.1133E-03    -15.5709E-03     9.66283E-03    -15.5398E-03     30.7917E-03    -15.5355E-03     9.65089E-03
             637     3.54452E-03     75.0253E-03    -27.9343E+06    -75.6560E+06    -19.7990E+06    -1.00889E+06    -15.5376E-03     31.1169E-03    -15.5793E-03     12.8838E-03    -15.5393E-03     30.8083E-03    -15.5281E-03     12.8684E-03
             638     4.43070E-03     75.0387E-03    -25.6959E+06    -71.3265E+06    -14.3546E+06    -1.25004E+06    -15.5412E-03     31.1300E-03    -15.5888E-03     16.1655E-03    -15.5461E-03     30.8321E-03    -15.5199E-03     16.1463E-03
             639     5.31688E-03     75.0553E-03    -23.2620E+06    -67.6000E+06    -9.33372E+06    -1.47697E+06    -15.5545E-03     31.1512E-03    -15.5967E-03     19.5024E-03    -15.5603E-03     30.8615E-03    -15.5116E-03     19.4793E-03
             640     6.20308E-03     75.0749E-03    -20.7214E+06    -63.7717E+06    -4.91186E+06    -1.60071E+06    -15.5746E-03     31.1758E-03    -15.6012E-03     22.8992E-03    -15.5802E-03     30.8957E-03    -15.5032E-03     22.8734E-03
             641     7.08929E-03     75.0977E-03    -18.2370E+06    -60.0389E+06    -1.38005E+06    -1.63711E+06    -15.6035E-03     31.2050E-03    -15.6015E-03     26.3477E-03    -15.6080E-03     30.9356E-03    -15.4949E-03     26.3200E-03
             642     7.97552E-03     75.1238E-03    -15.7581E+06    -57.6935E+06     1.26568E+06    -1.69820E+06    -15.6481E-03     31.2478E-03    -15.5998E-03     29.8282E-03    -15.6485E-03     30.9838E-03    -15.4869E-03     29.7979E-03
             643     8.86176E-03     75.1531E-03    -13.6241E+06    -54.2283E+06     2.26489E+06    -1.84358E+06    -15.6943E-03     31.2835E-03    -15.5891E-03     33.3415E-03    -15.6922E-03     31.0339E-03    -15.4794E-03     33.3072E-03
             644     9.74801E-03     75.1856E-03    -11.7137E+06    -50.1716E+06     3.11117E+06    -1.54203E+06    -15.7425E-03     31.3198E-03    -15.5773E-03     36.8474E-03    -15.7402E-03     31.0887E-03    -15.4720E-03     36.8143E-03
             645     10.6343E-03     75.2215E-03    -10.2257E+06    -48.5509E+06     2.73245E+06    -1.56339E+06    -15.8036E-03     31.3672E-03    -15.5636E-03     40.3063E-03    -15.7990E-03     31.1461E-03    -15.4647E-03     40.2694E-03
             646     11.5205E-03     75.2603E-03    -8.74327E+06    -42.2341E+06     714.171E+03    -1.17362E+06    -15.8397E-03     31.3741E-03    -15.5344E-03     43.7435E-03    -15.8391E-03     31.1904E-03    -15.4569E-03     43.7076E-03
             647     12.4069E-03     75.3026E-03    -7.14468E+06    -26.9916E+06     3.08203E+06    -319.845E+03    -15.8482E-03     31.3604E-03    -15.5122E-03     47.2261E-03    -15.8728E-03     31.2549E-03    -15.4473E-03     47.1966E-03
             648     13.2933E-03     75.3479E-03    -5.65802E+06    -16.1753E+06     2.46604E+06     167.721E+03    -15.8972E-03     31.3775E-03    -15.4803E-03     51.1430E-03    -15.9422E-03     31.3378E-03    -15.4363E-03     51.1147E-03
             649     14.1795E-03     75.3972E-03    -4.80231E+06     2.94406E+06    -1.00804E+06     1.60775E+06    -15.8654E-03     31.2843E-03    -15.4189E-03     56.7775E-03    -15.9541E-03     31.3693E-03    -15.4212E-03     56.7641E-03
             650     15.0665E-03     75.4531E-03    -4.24827E+06     45.7143E+06     1.41344E+06     1.74065E+06    -15.8736E-03     31.2189E-03    -15.3453E-03     66.1274E-03    -16.0786E-03     31.5670E-03    -15.3984E-03     66.1228E-03
             651     15.9520E-03     75.5189E-03    -2.75693E+06     97.7577E+06     25.5711E+06    -95.2004E+03    -16.0075E-03     31.3740E-03    -15.3665E-03     71.7414E-03    -16.3928E-03     32.0222E-03    -15.3764E-03     71.7571E-03
             652     16.8446E-03     75.5836E-03    -4.85945E+06     117.182E+06     57.7987E+06    -1.86451E+06    -15.9133E-03     31.4133E-03    -15.5000E-03     47.5726E-03    -16.3285E-03     32.0595E-03    -15.3738E-03     47.5913E-03
             653     886.114E-06     75.9807E-03    -32.9369E+06    -86.0589E+06    -32.5125E+06    -389.317E+03    -15.5437E-03     31.1094E-03    -15.5658E-03     3.49703E-03    -15.5364E-03     30.7741E-03    -15.5558E-03     3.49143E-03
             654     1.77224E-03     75.9852E-03    -31.9799E+06    -83.4228E+06    -29.5869E+06    -695.253E+03    -15.5483E-03     31.1097E-03    -15.5614E-03     6.49078E-03    -15.5444E-03     30.7820E-03    -15.5420E-03     6.48073E-03
             655     2.65837E-03     75.9928E-03    -30.3793E+06    -79.6607E+06    -25.2191E+06    -934.435E+03    -15.5416E-03     31.1115E-03    -15.5699E-03     9.65784E-03    -15.5416E-03     30.7940E-03    -15.5365E-03     9.64411E-03
             656     3.54453E-03     76.0031E-03    -28.3265E+06    -75.0641E+06    -20.1677E+06    -1.20693E+06    -15.5360E-03     31.1143E-03    -15.5782E-03     12.8826E-03    -15.5400E-03     30.8097E-03    -15.5292E-03     12.8647E-03
             657     4.43069E-03     76.0166E-03    -25.9149E+06    -70.7526E+06    -14.7433E+06    -1.45683E+06    -15.5394E-03     31.1267E-03    -15.5872E-03     16.1656E-03    -15.5457E-03     30.8325E-03    -15.5208E-03     16.1437E-03
             658     5.31688E-03     76.0331E-03    -23.4257E+06    -67.0884E+06     -9.5501E+06    -1.67001E+06    -15.5531E-03     31.1488E-03    -15.5958E-03     19.4998E-03    -15.5601E-03     30.8622E-03    -15.5123E-03     19.4742E-03
             659     6.20308E-03     76.0528E-03    -21.0262E+06    -63.4038E+06    -5.20308E+06    -1.82277E+06    -15.5735E-03     31.1737E-03    -15.6003E-03     22.8975E-03    -15.5807E-03     30.8963E-03    -15.5038E-03     22.8687E-03
             660     7.08929E-03     76.0756E-03    -18.5785E+06    -59.5833E+06    -1.69652E+06    -2.04448E+06    -15.6021E-03     31.2024E-03    -15.6003E-03     26.3466E-03    -15.6085E-03     30.9362E-03    -15.4955E-03     26.3137E-03
             661     7.97553E-03     76.1017E-03    -16.2784E+06    -57.4469E+06     867.750E+03    -2.17526E+06    -15.6450E-03     31.2438E-03    -15.5987E-03     29.8212E-03    -15.6478E-03     30.9823E-03    -15.4875E-03     29.7848E-03
             662     8.86175E-03     76.1310E-03    -14.3127E+06    -53.9739E+06     2.09003E+06    -2.06600E+06    -15.6954E-03     31.2851E-03    -15.5896E-03     33.3134E-03    -15.6968E-03     31.0380E-03    -15.4802E-03     33.2762E-03
             663     9.74801E-03     76.1635E-03    -12.6441E+06    -50.3846E+06     2.63636E+06    -2.04102E+06    -15.7445E-03     31.3223E-03    -15.5778E-03     36.7950E-03    -15.7459E-03     31.0922E-03    -15.4732E-03     36.7554E-03
             664     10.6343E-03     76.1993E-03    -11.0241E+06    -48.1761E+06     2.50484E+06    -1.84020E+06    -15.8145E-03     31.3797E-03    -15.5652E-03     40.2232E-03    -15.8143E-03     31.1620E-03    -15.4668E-03     40.1827E-03
             665     11.5205E-03     76.2382E-03    -9.88386E+06    -42.7319E+06     335.725E+03    -1.85294E+06    -15.8563E-03     31.3948E-03    -15.5385E-03     43.5353E-03    -15.8602E-03     31.2109E-03    -15.4605E-03     43.4904E-03
             666     12.4069E-03     76.2803E-03    -8.58303E+06    -27.9049E+06     2.05291E+06    -1.31448E+06    -15.8808E-03     31.3970E-03    -15.5163E-03     46.9463E-03    -15.9098E-03     31.2906E-03    -15.4531E-03     46.9037E-03
             667     13.2933E-03     76.3257E-03    -7.13683E+06    -16.3411E+06     1.98449E+06    -891.927E+03    -15.9412E-03     31.4305E-03    -15.4893E-03     50.5787E-03    -15.9928E-03     31.3930E-03    -15.4454E-03     50.5364E-03
             668     14.1798E-03     76.3750E-03    -4.65557E+06     1.37726E+06    -1.43446E+06    -305.745E+03    -15.9966E-03     31.4309E-03    -15.4344E-03     55.6601E-03    -16.0820E-03     31.5089E-03    -15.4368E-03     55.6211E-03
             669     15.0665E-03     76.4300E-03    -258.334E+03     45.9863E+06     2.55057E+06    -1.38708E+06    -15.8986E-03     31.2656E-03    -15.3670E-03     63.7749E-03    -16.0857E-03     31.6075E-03    -15.4206E-03     63.7285E-03
             670     15.9553E-03     76.4964E-03    -815.838E+03     99.1598E+06     30.2740E+06    -1.05166E+06    -16.4429E-03     31.8649E-03    -15.4220E-03     70.1227E-03    -16.8277E-03     32.5109E-03    -15.4132E-03     70.1218E-03
             671     16.8331E-03     76.5645E-03    -5.89651E+06     117.042E+06     60.4263E+06     2.44642E+06    -16.1879E-03     31.7584E-03    -15.5704E-03     47.1925E-03    -16.6130E-03     32.4027E-03    -15.4295E-03     47.2647E-03
             672     886.125E-06     76.9585E-03    -33.3114E+06    -85.2086E+06    -32.6816E+06    -524.407E+03    -15.5502E-03     31.1062E-03    -15.5560E-03     3.50622E-03    -15.5458E-03     30.7759E-03    -15.5475E-03     3.49888E-03
             673     1.77223E-03     76.9632E-03    -32.3615E+06    -82.6984E+06    -29.8816E+06    -779.964E+03    -15.5496E-03     31.1103E-03    -15.5606E-03     6.48977E-03    -15.5483E-03     30.7871E-03    -15.5432E-03     6.47862E-03
             674     2.65837E-03     76.9706E-03    -30.7824E+06    -78.9693E+06    -25.5917E+06    -1.10038E+06    -15.5392E-03     31.1085E-03    -15.5693E-03     9.65602E-03    -15.5417E-03     30.7956E-03    -15.5381E-03     9.64015E-03
             675     3.54452E-03     76.9811E-03    -28.7075E+06    -74.3371E+06    -20.4918E+06    -1.43621E+06    -15.5350E-03     31.1125E-03    -15.5775E-03     12.8829E-03    -15.5414E-03     30.8125E-03    -15.5305E-03     12.8620E-03
             676     4.43069E-03     76.9945E-03    -26.3647E+06    -70.1176E+06    -15.0964E+06    -1.75284E+06    -15.5386E-03     31.1252E-03    -15.5866E-03     16.1642E-03    -15.5475E-03     30.8354E-03    -15.5222E-03     16.1385E-03
             677     5.31688E-03     77.0111E-03    -23.8351E+06    -66.6130E+06    -9.90052E+06    -1.90353E+06    -15.5519E-03     31.1472E-03    -15.5954E-03     19.4964E-03    -15.5612E-03     30.8641E-03    -15.5137E-03     19.4678E-03
             678     6.20307E-03     77.0307E-03    -21.2300E+06    -62.8855E+06    -5.30980E+06    -2.07045E+06    -15.5747E-03     31.1755E-03    -15.6008E-03     22.8864E-03    -15.5835E-03     30.9011E-03    -15.5054E-03     22.8544E-03
             679     7.08929E-03     77.0535E-03    -18.8411E+06    -58.9882E+06    -1.81590E+06    -2.30902E+06    -15.6061E-03     31.2073E-03    -15.6012E-03     26.3304E-03    -15.6145E-03     30.9446E-03    -15.4974E-03     26.2940E-03
             680     7.97550E-03     77.0796E-03    -16.7401E+06    -57.2440E+06     582.509E+03    -2.34541E+06    -15.6564E-03     31.2569E-03    -15.6005E-03     29.7940E-03    -15.6614E-03     30.9976E-03    -15.4903E-03     29.7554E-03
             681     8.86174E-03     77.1088E-03    -14.8516E+06    -53.8603E+06     1.57980E+06    -2.25328E+06    -15.7131E-03     31.3050E-03    -15.5919E-03     33.2760E-03    -15.7166E-03     31.0600E-03    -15.4844E-03     33.2363E-03
             682     9.74794E-03     77.1414E-03    -13.1808E+06    -50.0569E+06     2.17301E+06    -2.24277E+06    -15.7783E-03     31.3606E-03    -15.5822E-03     36.7281E-03    -15.7822E-03     31.1336E-03    -15.4797E-03     36.6858E-03
             683     10.6342E-03     77.1771E-03    -11.8252E+06    -48.3880E+06     1.57845E+06    -2.18616E+06    -15.8595E-03     31.4310E-03    -15.5715E-03     40.1563E-03    -15.8616E-03     31.2148E-03    -15.4763E-03     40.1112E-03
             684     11.5203E-03     77.2162E-03    -10.6813E+06    -42.3094E+06    -468.047E+03    -2.00342E+06    -15.9457E-03     31.4950E-03    -15.5493E-03     43.4114E-03    -15.9531E-03     31.3156E-03    -15.4748E-03     43.3644E-03
             685     12.4065E-03     77.2580E-03     -9.7515E+06    -28.6570E+06     485.086E+03    -2.01709E+06    -16.0134E-03     31.5461E-03    -15.5327E-03     46.8974E-03    -16.0451E-03     31.4401E-03    -15.4746E-03     46.8455E-03
             686     13.2925E-03     77.3040E-03    -8.65736E+06    -16.2357E+06     97.9534E+03    -1.66047E+06    -16.1521E-03     31.6659E-03    -15.5138E-03     50.5074E-03    -16.2089E-03     31.6341E-03    -15.4772E-03     50.4547E-03
             687     14.1785E-03     77.3524E-03    -7.40119E+06     2.21726E+06    -3.22085E+06    -2.73859E+06    -16.4422E-03     31.9211E-03    -15.4789E-03     55.7073E-03    -16.5406E-03     32.0105E-03    -15.4875E-03     55.6357E-03
             688     15.0636E-03     77.4091E-03    -8.72730E+06     45.4504E+06    -2.74812E+06    -2.53087E+06    -16.6196E-03     32.0564E-03    -15.4369E-03     63.7731E-03    -16.8426E-03     32.4178E-03    -15.5039E-03     63.7090E-03
             689     15.9476E-03     77.4726E-03    -10.6690E+06     93.5099E+06     17.7439E+06     1.85693E+06    -15.3902E-03     30.8430E-03    -15.4529E-03     71.4379E-03    -15.7941E-03     31.4897E-03    -15.4843E-03     71.4794E-03
             690     16.8413E-03     77.5460E-03    -4.11937E+06     115.851E+06     56.7547E+06     2.85655E+06    -14.4187E-03     29.9597E-03    -15.5411E-03     50.5655E-03    -14.8231E-03     30.5963E-03    -15.4193E-03     50.6495E-03
             691     886.111E-06     77.9366E-03    -33.9528E+06    -84.1690E+06    -33.1726E+06    -581.301E+03    -15.5523E-03     31.1051E-03    -15.5528E-03     3.50813E-03    -15.5519E-03     30.7817E-03    -15.5474E-03     3.50006E-03
             692     1.77223E-03     77.9410E-03    -32.7268E+06    -81.9048E+06    -30.0441E+06    -915.926E+03    -15.5457E-03     31.1071E-03    -15.5614E-03     6.48629E-03    -15.5471E-03     30.7887E-03    -15.5454E-03     6.47338E-03
             693     2.65837E-03     77.9486E-03    -30.9824E+06    -78.1094E+06    -25.7608E+06    -1.27856E+06    -15.5401E-03     31.1092E-03    -15.5691E-03     9.65566E-03    -15.5446E-03     30.8011E-03    -15.5397E-03     9.63749E-03
             694     3.54451E-03     77.9590E-03    -28.8771E+06    -73.5194E+06    -20.5926E+06    -1.66564E+06    -15.5364E-03     31.1144E-03    -15.5780E-03     12.8815E-03    -15.5447E-03     30.8190E-03    -15.5325E-03     12.8576E-03
             695     4.43068E-03     77.9724E-03    -26.5038E+06    -69.4104E+06    -15.1056E+06    -1.95501E+06    -15.5415E-03     31.1297E-03    -15.5882E-03     16.1594E-03    -15.5521E-03     30.8436E-03    -15.5246E-03     16.1310E-03
             696     5.31685E-03     77.9889E-03    -23.9922E+06    -66.0675E+06    -10.0125E+06    -2.20470E+06    -15.5575E-03     31.1546E-03    -15.5972E-03     19.4871E-03    -15.5681E-03     30.8746E-03    -15.5167E-03     19.4546E-03
             697     6.20305E-03     78.0086E-03    -21.4351E+06    -62.2950E+06    -5.55542E+06    -2.39570E+06    -15.5808E-03     31.1835E-03    -15.6026E-03     22.8753E-03    -15.5912E-03     30.9127E-03    -15.5090E-03     22.8391E-03
             698     7.08924E-03     78.0314E-03    -19.0465E+06    -58.5727E+06    -2.07215E+06    -2.43211E+06    -15.6172E-03     31.2212E-03    -15.6040E-03     26.3135E-03    -15.6269E-03     30.9614E-03    -15.5018E-03     26.2755E-03
             699     7.97547E-03     78.0575E-03    -16.8619E+06    -56.8994E+06     184.870E+03    -2.50072E+06    -15.6731E-03     31.2769E-03    -15.6038E-03     29.7841E-03    -15.6787E-03     31.0200E-03    -15.4959E-03     29.7434E-03
             700     8.86163E-03     78.0868E-03    -14.8213E+06    -53.6691E+06     1.05764E+06    -2.54351E+06    -15.7374E-03     31.3334E-03    -15.5961E-03     33.2782E-03    -15.7402E-03     31.0901E-03    -15.4915E-03     33.2348E-03
             701     9.74785E-03     78.1193E-03    -13.0358E+06    -49.8534E+06     1.68966E+06    -2.44462E+06    -15.8100E-03     31.3982E-03    -15.5882E-03     36.7644E-03    -15.8128E-03     31.1728E-03    -15.4885E-03     36.7194E-03
             702     10.6340E-03     78.1552E-03    -11.5958E+06    -48.3064E+06     1.24311E+06    -2.33191E+06    -15.8983E-03     31.4785E-03    -15.5803E-03     40.2242E-03    -15.8989E-03     31.2629E-03    -15.4872E-03     40.1772E-03
             703     11.5202E-03     78.1941E-03    -10.4266E+06    -42.2320E+06    -898.631E+03    -2.29912E+06    -16.0018E-03     31.5618E-03    -15.5599E-03     43.6106E-03    -16.0075E-03     31.3831E-03    -15.4881E-03     43.5597E-03
             704     12.4062E-03     78.2364E-03    -9.49925E+06    -28.5433E+06     368.135E+03    -2.12893E+06    -16.0546E-03     31.6016E-03    -15.5470E-03     47.1688E-03    -16.0850E-03     31.4959E-03    -15.4900E-03     47.1155E-03
             705     13.2925E-03     78.2817E-03    -8.80210E+06    -16.4968E+06    -159.388E+03    -2.07829E+06    -16.2170E-03     31.7470E-03    -15.5300E-03     51.2780E-03    -16.2737E-03     31.7144E-03    -15.4941E-03     51.2201E-03
             706     14.1781E-03     78.3317E-03    -9.64821E+06     3.06435E+06    -3.95637E+06    -1.78528E+06    -16.3911E-03     31.8833E-03    -15.4922E-03     57.0215E-03    -16.5011E-03     31.9814E-03    -15.5024E-03     56.9627E-03
             707     15.0646E-03     78.3870E-03    -11.7803E+06     41.5755E+06    -5.35337E+06     1.21004E+06    -16.2539E-03     31.6867E-03    -15.4328E-03     66.0845E-03    -16.4814E-03     32.0355E-03    -15.5028E-03     66.0717E-03
             708     15.9516E-03     78.4530E-03    -8.14484E+06     91.4614E+06     15.3382E+06     2.60226E+06    -15.2961E-03     30.7198E-03    -15.4238E-03     70.8884E-03    -15.6770E-03     31.3522E-03    -15.4679E-03     70.9404E-03
             709     16.8393E-03     78.5127E-03    -853.390E+03     118.914E+06     57.1950E+06    -920.184E+03    -14.4353E-03     29.9529E-03    -15.5177E-03     49.2647E-03    -14.8273E-03     30.5983E-03    -15.4029E-03     49.2997E-03
             710     886.104E-06     78.9144E-03    -33.7283E+06    -83.0123E+06    -33.0056E+06    -591.673E+03    -15.5577E-03     31.1109E-03    -15.5533E-03     3.50191E-03    -15.5581E-03     30.7927E-03    -15.5490E-03     3.49369E-03
             711     1.77223E-03     78.9190E-03    -32.7271E+06    -80.9529E+06    -30.0864E+06    -1.03377E+06    -15.5449E-03     31.1079E-03    -15.5630E-03     6.48686E-03    -15.5476E-03     30.7943E-03    -15.5486E-03     6.47243E-03
             712     2.65835E-03     78.9264E-03    -31.1282E+06    -77.1577E+06    -25.8283E+06    -1.44301E+06    -15.5430E-03     31.1134E-03    -15.5704E-03     9.65109E-03    -15.5495E-03     30.8104E-03    -15.5426E-03     9.63079E-03
             713     3.54451E-03     78.9369E-03    -29.1037E+06    -72.6141E+06    -20.7520E+06    -1.83527E+06    -15.5403E-03     31.1201E-03    -15.5798E-03     12.8739E-03    -15.5508E-03     30.8297E-03    -15.5361E-03     12.8479E-03
             714     4.43065E-03     78.9503E-03    -26.7857E+06    -68.6561E+06    -15.3707E+06    -2.17303E+06    -15.5460E-03     31.1363E-03    -15.5903E-03     16.1531E-03    -15.5588E-03     30.8548E-03    -15.5287E-03     16.1219E-03
             715     5.31684E-03     78.9669E-03    -24.2619E+06    -65.3243E+06    -10.3228E+06    -2.46567E+06    -15.5630E-03     31.1626E-03    -15.5996E-03     19.4843E-03    -15.5756E-03     30.8871E-03    -15.5213E-03     19.4484E-03
             716     6.20300E-03     78.9865E-03    -21.7484E+06    -61.7392E+06    -6.03539E+06    -2.67959E+06    -15.5886E-03     31.1936E-03    -15.6050E-03     22.8769E-03    -15.6006E-03     30.9268E-03    -15.5141E-03     22.8371E-03
             717     7.08922E-03     79.0094E-03    -19.2041E+06    -58.1882E+06    -2.60131E+06    -2.78529E+06    -15.6253E-03     31.2320E-03    -15.6067E-03     26.3274E-03    -15.6356E-03     30.9751E-03    -15.5075E-03     26.2848E-03
             718     7.97537E-03     79.0354E-03    -16.7735E+06    -56.4343E+06    -145.863E+03    -2.86194E+06    -15.6771E-03     31.2842E-03    -15.6070E-03     29.8129E-03    -15.6824E-03     31.0300E-03    -15.5016E-03     29.7675E-03
             719     8.86162E-03     79.0647E-03    -14.6850E+06    -53.3887E+06     825.418E+03    -2.92011E+06    -15.7358E-03     31.3353E-03    -15.5995E-03     33.3457E-03    -15.7380E-03     31.0935E-03    -15.4966E-03     33.2974E-03
             720     9.74775E-03     79.0973E-03    -12.9123E+06    -49.8015E+06     1.51276E+06    -2.78987E+06    -15.7996E-03     31.3906E-03    -15.5910E-03     36.8745E-03    -15.8016E-03     31.1655E-03    -15.4925E-03     36.8252E-03
             721     10.6340E-03     79.1331E-03    -11.3617E+06    -48.1272E+06     1.39970E+06    -2.63190E+06    -15.8841E-03     31.4668E-03    -15.5828E-03     40.3954E-03    -15.8840E-03     31.2515E-03    -15.4895E-03     40.3446E-03
             722     11.5201E-03     79.1722E-03    -10.1976E+06    -42.0996E+06    -651.990E+03    -2.54672E+06    -15.9542E-03     31.5143E-03    -15.5601E-03     43.8662E-03    -15.9592E-03     31.3355E-03    -15.4875E-03     43.8123E-03
             723     12.4064E-03     79.2143E-03    -9.29488E+06    -28.7897E+06     566.352E+03    -2.25382E+06    -15.9667E-03     31.5089E-03    -15.5421E-03     47.4607E-03    -15.9960E-03     31.4013E-03    -15.4841E-03     47.4061E-03
             724     13.2924E-03     79.2599E-03    -8.91749E+06    -16.5962E+06         -184.75    -1.77208E+06    -15.9852E-03     31.4996E-03    -15.5144E-03     51.8050E-03    -16.0424E-03     31.4662E-03    -15.4774E-03     51.7517E-03
             725     14.1791E-03     79.3096E-03    -8.92832E+06     1.18367E+06    -4.34367E+06    -233.760E+03    -15.9281E-03     31.3819E-03    -15.4538E-03     57.3589E-03    -16.0305E-03     31.4694E-03    -15.4643E-03     57.3215E-03
             726     15.0653E-03     79.3650E-03    -7.27402E+06     39.4283E+06    -3.80115E+06     1.07523E+06    -15.7315E-03     31.1033E-03    -15.3718E-03     65.2988E-03    -15.9325E-03     31.4295E-03    -15.4375E-03     65.2861E-03
             727     15.9533E-03     79.4285E-03    -4.34247E+06     93.9715E+06     21.5509E+06    -924.954E+03    -16.3625E-03     31.7607E-03    -15.3981E-03     70.8031E-03    -16.7456E-03     32.3994E-03    -15.4203E-03     70.8042E-03
             728     16.8355E-03     79.4966E-03    -2.37905E+06     120.044E+06     59.6479E+06    -1.55464E+06    -15.4431E-03     30.9834E-03    -15.5403E-03     49.9770E-03    -15.8593E-03     31.6445E-03    -15.4127E-03     49.9992E-03
             729     886.104E-06     79.8924E-03    -33.8805E+06    -81.8478E+06    -33.2475E+06    -608.649E+03    -15.5535E-03     31.1086E-03    -15.5551E-03     3.48796E-03    -15.5560E-03     30.7968E-03    -15.5535E-03     3.47953E-03
             730     1.77222E-03     79.8969E-03    -32.8366E+06    -79.8311E+06    -30.2342E+06    -1.07110E+06    -15.5534E-03     31.1173E-03    -15.5639E-03     6.49136E-03    -15.5581E-03     30.8097E-03    -15.5517E-03     6.47645E-03
             731     2.65835E-03     79.9044E-03    -31.2285E+06    -76.1207E+06    -25.9717E+06    -1.55758E+06    -15.5474E-03     31.1208E-03    -15.5735E-03     9.64658E-03    -15.5557E-03     30.8234E-03    -15.5477E-03     9.62480E-03
             732     3.54447E-03     79.9148E-03    -29.2091E+06    -71.6655E+06    -20.9541E+06    -1.96884E+06    -15.5441E-03     31.1270E-03    -15.5829E-03     12.8712E-03    -15.5563E-03     30.8418E-03    -15.5414E-03     12.8435E-03
             733     4.43064E-03     79.9283E-03    -26.9056E+06    -67.7716E+06    -15.6484E+06    -2.34801E+06    -15.5493E-03     31.1424E-03    -15.5931E-03     16.1544E-03    -15.5636E-03     30.8659E-03    -15.5340E-03     16.1210E-03
             734     5.31679E-03     79.9448E-03    -24.4687E+06    -64.4980E+06    -10.6630E+06    -2.70831E+06    -15.5648E-03     31.1669E-03    -15.6021E-03     19.4906E-03    -15.5792E-03     30.8963E-03    -15.5264E-03     19.4516E-03
             735     6.20299E-03     79.9645E-03    -21.8803E+06    -61.0094E+06    -6.34513E+06    -3.05265E+06    -15.5889E-03     31.1963E-03    -15.6073E-03     22.8936E-03    -15.6022E-03     30.9337E-03    -15.5189E-03     22.8489E-03
             736     7.08915E-03     79.9873E-03    -19.2777E+06    -57.5918E+06    -2.90360E+06    -3.35391E+06    -15.6180E-03     31.2263E-03    -15.6083E-03     26.3594E-03    -15.6290E-03     30.9728E-03    -15.5113E-03     26.3095E-03
             737     7.97541E-03     80.0133E-03    -16.7917E+06    -56.0554E+06    -330.830E+03    -3.42017E+06    -15.6614E-03     31.2691E-03    -15.6077E-03     29.8643E-03    -15.6671E-03     31.0172E-03    -15.5038E-03     29.8118E-03
             738     8.86156E-03     80.0427E-03    -14.6681E+06    -53.1234E+06     824.143E+03    -3.28250E+06    -15.7079E-03     31.3067E-03    -15.5988E-03     33.4053E-03    -15.7104E-03     31.0662E-03    -15.4964E-03     33.3524E-03
             739     9.74788E-03     80.0752E-03    -12.8662E+06    -49.6566E+06     1.53285E+06    -3.19964E+06    -15.7579E-03     31.3452E-03    -15.5873E-03     36.9515E-03    -15.7598E-03     31.1207E-03    -15.4890E-03     36.8969E-03
             740     10.6340E-03     80.1111E-03    -11.2542E+06    -48.0210E+06     1.35464E+06    -3.08317E+06    -15.8230E-03     31.3976E-03    -15.5746E-03     40.4986E-03    -15.8224E-03     31.1826E-03    -15.4819E-03     40.4421E-03
             741     11.5204E-03     80.1501E-03    -9.91283E+06    -42.1269E+06    -668.631E+03    -2.82421E+06    -15.8575E-03     31.4038E-03    -15.5463E-03     43.9499E-03    -15.8609E-03     31.2244E-03    -15.4742E-03     43.8926E-03
             742     12.4065E-03     80.1923E-03    -8.89794E+06    -28.9215E+06     509.630E+03    -2.53268E+06    -15.8314E-03     31.3520E-03    -15.5206E-03     47.5165E-03    -15.8582E-03     31.2431E-03    -15.4633E-03     47.4585E-03
             743     13.2933E-03     80.2376E-03    -7.83682E+06    -17.6117E+06    -126.397E+03    -1.64790E+06    -15.7859E-03     31.2688E-03    -15.4829E-03     51.6958E-03    -15.8360E-03     31.2288E-03    -15.4466E-03     51.6444E-03
             744     14.1795E-03     80.2874E-03    -6.46129E+06     -240.64E+03    -3.73410E+06    -778.438E+03    -15.7141E-03     31.1275E-03    -15.4134E-03     56.8368E-03    -15.8020E-03     31.2025E-03    -15.4224E-03     56.7933E-03
             745     15.0670E-03     80.3421E-03    -5.30368E+06     40.2706E+06    -2.20059E+06    -847.246E+03    -15.9291E-03     31.2648E-03    -15.3357E-03     64.9631E-03    -16.1248E-03     31.5910E-03    -15.3974E-03     64.9244E-03
             746     15.9517E-03     80.4073E-03    -4.77233E+06     94.7245E+06     22.5339E+06    -659.268E+03    -16.0513E-03     31.4124E-03    -15.3611E-03     72.0217E-03    -16.4407E-03     32.0558E-03    -15.3789E-03     72.0298E-03
             747     16.8415E-03     80.4752E-03    -3.39462E+06     119.166E+06     59.3405E+06    -258.594E+03    -15.6268E-03     31.1239E-03    -15.4972E-03     49.3667E-03    -16.0431E-03     31.7792E-03    -15.3683E-03     49.4063E-03
             748     886.131E-06     80.8703E-03    -34.0623E+06    -80.6406E+06    -33.3366E+06    -642.376E+03    -15.5542E-03     31.1139E-03    -15.5597E-03     3.51186E-03    -15.5592E-03     30.8085E-03    -15.5601E-03     3.50300E-03
             749     1.77221E-03     80.8749E-03    -32.9997E+06    -78.6048E+06    -30.3925E+06    -1.16705E+06    -15.5599E-03     31.1271E-03    -15.5672E-03     6.48196E-03    -15.5669E-03     30.8261E-03    -15.5574E-03     6.46581E-03
             750     2.65831E-03     80.8823E-03    -31.3421E+06    -74.9842E+06    -26.1883E+06    -1.70924E+06    -15.5493E-03     31.1263E-03    -15.5770E-03     9.64722E-03    -15.5595E-03     30.8350E-03    -15.5538E-03     9.62347E-03
             751     3.54447E-03     80.8928E-03    -29.2398E+06    -70.5997E+06    -21.1331E+06    -2.20179E+06    -15.5452E-03     31.1310E-03    -15.5858E-03     12.8779E-03    -15.5587E-03     30.8514E-03    -15.5467E-03     12.8471E-03
             752     4.43060E-03     80.9062E-03    -26.8069E+06    -66.8282E+06    -15.7323E+06    -2.60694E+06    -15.5497E-03     31.1454E-03    -15.5958E-03     16.1625E-03    -15.5646E-03     30.8736E-03    -15.5386E-03     16.1257E-03
             753     5.31679E-03     80.9228E-03    -24.2243E+06    -63.5274E+06    -10.6576E+06    -3.00058E+06    -15.5615E-03     31.1655E-03    -15.6040E-03     19.5061E-03    -15.5760E-03     30.8995E-03    -15.5301E-03     19.4633E-03
             754     6.20294E-03     80.9424E-03    -21.6841E+06    -60.0524E+06    -6.30068E+06    -3.45737E+06    -15.5767E-03     31.1847E-03    -15.6080E-03     22.9169E-03    -15.5905E-03     30.9266E-03    -15.5210E-03     22.8671E-03
             755     7.08919E-03     80.9652E-03    -19.2676E+06    -56.8320E+06    -2.87458E+06    -3.78622E+06    -15.5993E-03     31.2066E-03    -15.6073E-03     26.3865E-03    -15.6114E-03     30.9568E-03    -15.5113E-03     26.3310E-03
             756     7.97537E-03     80.9913E-03    -17.0743E+06    -55.6864E+06    -500.661E+03    -3.87647E+06    -15.6361E-03     31.2405E-03    -15.6044E-03     29.8926E-03    -15.6435E-03     30.9910E-03    -15.5014E-03     29.8343E-03
             757     8.86168E-03     81.0206E-03    -14.9364E+06    -52.8878E+06     575.931E+03    -3.80064E+06    -15.6765E-03     31.2693E-03    -15.5928E-03     33.4287E-03    -15.6804E-03     31.0307E-03    -15.4916E-03     33.3692E-03
             758     9.74786E-03     81.0531E-03    -12.9420E+06    -49.3526E+06     1.31416E+06    -3.73142E+06    -15.7170E-03     31.2953E-03    -15.5783E-03     36.9622E-03    -15.7194E-03     31.0728E-03    -15.4814E-03     36.9008E-03
             759     10.6343E-03     81.0889E-03    -11.2330E+06    -47.9609E+06     1.11198E+06    -3.61128E+06    -15.7628E-03     31.3249E-03    -15.5622E-03     40.4790E-03    -15.7618E-03     31.1106E-03    -15.4708E-03     40.4158E-03
             760     11.5204E-03     81.1280E-03    -9.91730E+06    -42.2472E+06    -947.178E+03    -3.31581E+06    -15.7800E-03     31.3097E-03    -15.5296E-03     43.8497E-03    -15.7828E-03     31.1300E-03    -15.4587E-03     43.7862E-03
             761     12.4071E-03     81.1699E-03    -8.72414E+06    -29.0601E+06     403.544E+03    -2.94485E+06    -15.7764E-03     31.2776E-03    -15.5011E-03     47.3295E-03    -15.8021E-03     31.1679E-03    -15.4443E-03     47.2662E-03
             762     13.2932E-03     81.2154E-03    -7.40996E+06    -18.5169E+06    -232.056E+03    -2.45641E+06    -15.7697E-03     31.2331E-03    -15.4633E-03     51.2384E-03    -15.8160E-03     31.1880E-03    -15.4269E-03     51.1767E-03
             763     14.1801E-03     81.2647E-03    -6.37933E+06    -646.124E+03    -3.49813E+06    -1.82287E+06    -15.7986E-03     31.1980E-03    -15.3994E-03     56.2899E-03    -15.8856E-03     31.2703E-03    -15.4067E-03     56.2326E-03
             764     15.0660E-03     81.3198E-03    -6.08359E+06     40.0335E+06    -2.34575E+06    -1.10562E+06    -15.9562E-03     31.2820E-03    -15.3258E-03     64.6963E-03    -16.1555E-03     31.6087E-03    -15.3868E-03     64.6543E-03
             765     15.9543E-03     81.3852E-03    -5.21813E+06     93.8663E+06     21.5300E+06    -320.669E+03    -15.8926E-03     31.2384E-03    -15.3459E-03     70.8686E-03    -16.2767E-03     31.8748E-03    -15.3667E-03     70.8799E-03
             766     16.8388E-03     81.4516E-03    -3.43354E+06     119.097E+06     58.8618E+06     264.262E+03    -15.7709E-03     31.2555E-03    -15.4846E-03     48.6426E-03    -16.1821E-03     31.9066E-03    -15.3580E-03     48.6873E-03
             767     886.074E-06     81.8483E-03    -34.2745E+06    -79.3090E+06    -33.5038E+06    -665.368E+03    -15.5632E-03     31.1284E-03    -15.5652E-03     3.52326E-03    -15.5710E-03     30.8302E-03    -15.5680E-03     3.51410E-03
             768     1.77219E-03     81.8528E-03    -33.1217E+06    -77.2749E+06    -30.5658E+06    -1.27996E+06    -15.5552E-03     31.1272E-03    -15.5720E-03     6.48421E-03    -15.5645E-03     30.8332E-03    -15.5648E-03     6.46660E-03
             769     2.65832E-03     81.8603E-03    -31.4787E+06    -73.6577E+06    -26.3594E+06    -1.91943E+06    -15.5486E-03     31.1274E-03    -15.5789E-03     9.65547E-03    -15.5611E-03     30.8432E-03    -15.5582E-03     9.62901E-03
             770     3.54444E-03     81.8707E-03    -29.4046E+06    -69.4302E+06    -21.3309E+06    -2.47627E+06    -15.5425E-03     31.1293E-03    -15.5869E-03     12.8857E-03    -15.5583E-03     30.8562E-03    -15.5502E-03     12.8514E-03
             771     4.43061E-03     81.8842E-03    -27.0014E+06    -65.6886E+06    -15.9606E+06    -2.99824E+06    -15.5416E-03     31.1371E-03    -15.5954E-03     16.1778E-03    -15.5589E-03     30.8716E-03    -15.5408E-03     16.1359E-03
             772     5.31676E-03     81.9007E-03    -24.3170E+06    -62.4606E+06    -10.7894E+06    -3.49300E+06    -15.5481E-03     31.1505E-03    -15.6024E-03     19.5252E-03    -15.5645E-03     30.8901E-03    -15.5305E-03     19.4761E-03
             773     6.20299E-03     81.9203E-03    -21.5813E+06    -59.0080E+06    -6.19288E+06    -3.87842E+06    -15.5599E-03     31.1652E-03    -15.6053E-03     22.9324E-03    -15.5748E-03     30.9120E-03    -15.5194E-03     22.8772E-03
             774     7.08918E-03     81.9431E-03    -19.1201E+06    -56.1735E+06    -2.73037E+06    -4.06220E+06    -15.5817E-03     31.1850E-03    -15.6033E-03     26.3933E-03    -15.5942E-03     30.9382E-03    -15.5078E-03     26.3343E-03
             775     7.97548E-03     81.9692E-03    -16.9003E+06    -55.0677E+06    -454.688E+03    -4.17708E+06    -15.6163E-03     31.2147E-03    -15.5984E-03     29.8912E-03    -15.6238E-03     30.9680E-03    -15.4963E-03     29.8290E-03
             776     8.86166E-03     81.9984E-03    -14.8303E+06    -52.3921E+06     399.464E+03    -4.40820E+06    -15.6536E-03     31.2379E-03    -15.5843E-03     33.4224E-03    -15.6574E-03     31.0019E-03    -15.4848E-03     33.3550E-03
             777     9.74805E-03     82.0310E-03    -12.9183E+06    -49.1404E+06     1.03293E+06    -4.32891E+06    -15.6987E-03     31.2673E-03    -15.5686E-03     36.9406E-03    -15.7009E-03     31.0461E-03    -15.4734E-03     36.8715E-03
             778     10.6342E-03     82.0667E-03    -11.3657E+06    -47.8558E+06     805.609E+03    -4.07568E+06    -15.7367E-03     31.2883E-03    -15.5516E-03     40.3918E-03    -15.7361E-03     31.0751E-03    -15.4617E-03     40.3226E-03
             779     11.5207E-03     82.1057E-03    -10.0466E+06    -42.2110E+06    -1.26785E+06    -3.89966E+06    -15.7717E-03     31.2903E-03    -15.5187E-03     43.7182E-03    -15.7747E-03     31.1115E-03    -15.4492E-03     43.6472E-03
             780     12.4069E-03     82.1477E-03    -8.80349E+06    -29.3181E+06    -38.5133E+03    -3.54844E+06    -15.8072E-03     31.2988E-03    -15.4916E-03     47.1743E-03    -15.8322E-03     31.1886E-03    -15.4365E-03     47.1032E-03
             781     13.2936E-03     82.1932E-03    -7.81030E+06    -18.8710E+06    -689.369E+03    -3.04454E+06    -15.8497E-03     31.3086E-03    -15.4588E-03     50.9848E-03    -15.8967E-03     31.2628E-03    -15.4236E-03     50.9154E-03
             782     14.1796E-03     82.2422E-03    -7.29940E+06    -1.53240E+06    -4.50850E+06    -2.30658E+06    -15.9807E-03     31.3831E-03    -15.4024E-03     56.1807E-03    -16.0698E-03     31.4539E-03    -15.4121E-03     56.1166E-03
             783     15.0667E-03     82.2977E-03    -6.85772E+06     38.8996E+06    -3.42524E+06    -1.15343E+06    -16.1617E-03     31.5018E-03    -15.3401E-03     64.4415E-03    -16.3614E-03     31.8252E-03    -15.4037E-03     64.3978E-03
             784     15.9515E-03     82.3626E-03    -6.16214E+06     93.0400E+06     20.3930E+06    -148.100E+03    -16.3328E-03     31.7099E-03    -15.3770E-03     70.6453E-03    -16.7200E-03     32.3463E-03    -15.4011E-03     70.6560E-03
             785     16.8394E-03     82.4306E-03    -3.69699E+06     118.881E+06     58.2591E+06     307.432E+03    -15.5048E-03     31.0249E-03    -15.5201E-03     48.7519E-03    -15.9180E-03     31.6780E-03    -15.3958E-03     48.7970E-03
             786     886.100E-06     82.8262E-03    -34.1239E+06    -77.8171E+06    -33.5050E+06    -740.141E+03    -15.5488E-03     31.1304E-03    -15.5816E-03     3.52485E-03    -15.5580E-03     30.8394E-03    -15.5868E-03     3.51473E-03
             787     1.77220E-03     82.8308E-03    -33.0839E+06    -75.7971E+06    -30.5675E+06    -1.45050E+06    -15.5535E-03     31.1256E-03    -15.5721E-03     6.49252E-03    -15.5647E-03     30.8390E-03    -15.5671E-03     6.47271E-03
             788     2.65830E-03     82.8382E-03    -31.4377E+06    -72.2055E+06    -26.3784E+06    -2.09966E+06    -15.5440E-03     31.1218E-03    -15.5778E-03     9.66198E-03    -15.5585E-03     30.8448E-03    -15.5594E-03     9.63321E-03
             789     3.54445E-03     82.8487E-03    -29.3904E+06    -68.0739E+06    -21.3221E+06    -2.73791E+06    -15.5345E-03     31.1192E-03    -15.5847E-03     12.8970E-03    -15.5522E-03     30.8527E-03    -15.5500E-03     12.8593E-03
             790     4.43060E-03     82.8621E-03    -27.0065E+06    -64.3634E+06    -15.9339E+06    -3.34556E+06    -15.5296E-03     31.1215E-03    -15.5919E-03     16.1896E-03    -15.5489E-03     30.8626E-03    -15.5390E-03     16.1433E-03
             791     5.31681E-03     82.8786E-03    -24.5166E+06    -61.2082E+06    -10.8156E+06    -3.92156E+06    -15.5324E-03     31.1297E-03    -15.5973E-03     19.5342E-03    -15.5516E-03     30.8759E-03    -15.5271E-03     19.4796E-03
             792     6.20299E-03     82.8982E-03    -21.9696E+06    -58.0181E+06    -6.39038E+06    -4.34892E+06    -15.5440E-03     31.1426E-03    -15.5986E-03     22.9379E-03    -15.5620E-03     30.8952E-03    -15.5146E-03     22.8766E-03
             793     7.08926E-03     82.9210E-03    -19.3026E+06    -55.4583E+06    -2.92571E+06    -4.56683E+06    -15.5665E-03     31.1623E-03    -15.5957E-03     26.3950E-03    -15.5807E-03     30.9196E-03    -15.5020E-03     26.3295E-03
             794     7.97546E-03     82.9470E-03    -16.7306E+06    -54.3641E+06    -600.410E+03    -4.71015E+06    -15.6012E-03     31.1908E-03    -15.5896E-03     29.8869E-03    -15.6086E-03     30.9476E-03    -15.4895E-03     29.8178E-03
             795     8.86181E-03     82.9763E-03    -14.6462E+06    -51.6743E+06     334.280E+03    -4.79724E+06    -15.6447E-03     31.2201E-03    -15.5754E-03     33.4129E-03    -15.6486E-03     30.9875E-03    -15.4775E-03     33.3405E-03
             796     9.74801E-03     83.0088E-03    -12.9954E+06    -48.9536E+06     757.846E+03    -4.80920E+06    -15.6899E-03     31.2495E-03    -15.5596E-03     36.9203E-03    -15.6923E-03     31.0298E-03    -15.4660E-03     36.8451E-03
             797     10.6344E-03     83.0446E-03    -11.3460E+06    -47.6352E+06     498.005E+03    -4.63715E+06    -15.7463E-03     31.2893E-03    -15.5430E-03     40.3460E-03    -15.7455E-03     31.0777E-03    -15.4550E-03     40.2696E-03
             798     11.5206E-03     83.0834E-03    -9.99750E+06    -42.1201E+06    -1.48745E+06    -4.43212E+06    -15.8105E-03     31.3235E-03    -15.5131E-03     43.6887E-03    -15.8131E-03     31.1454E-03    -15.4449E-03     43.6108E-03
             799     12.4071E-03     83.1256E-03    -8.86208E+06    -29.4570E+06    -262.896E+03    -4.17044E+06    -15.8505E-03     31.3402E-03    -15.4897E-03     47.1499E-03    -15.8752E-03     31.2297E-03    -15.4354E-03     47.0708E-03
             800     13.2932E-03     83.1708E-03    -7.93922E+06    -19.6050E+06    -1.22652E+06    -3.43049E+06    -15.9388E-03     31.3996E-03    -15.4608E-03     50.9480E-03    -15.9846E-03     31.3511E-03    -15.4270E-03     50.8734E-03
             801     14.1799E-03     83.2202E-03    -7.43340E+06    -2.29535E+06    -5.02137E+06    -2.50415E+06    -16.1025E-03     31.5132E-03    -15.4107E-03     56.3474E-03    -16.1906E-03     31.5813E-03    -15.4217E-03     56.2803E-03
             802     15.0652E-03     83.2757E-03    -7.21522E+06     37.4599E+06    -4.02328E+06    -1.43662E+06    -16.3054E-03     31.6613E-03    -15.3559E-03     64.9067E-03    -16.5049E-03     31.9798E-03    -15.4199E-03     64.8586E-03
             803     15.9527E-03     83.3409E-03    -5.92286E+06     91.9547E+06     19.5399E+06     106.526E+03    -16.2492E-03     31.6385E-03    -15.3892E-03     72.0071E-03    -16.6354E-03     32.2734E-03    -15.4163E-03     72.0229E-03
             804     16.8367E-03     83.4094E-03    -3.18270E+06     119.314E+06     58.0022E+06     364.150E+03    -15.2379E-03     30.7583E-03    -15.5205E-03     49.4541E-03    -15.6503E-03     31.4148E-03    -15.3989E-03     49.5024E-03
             805     886.087E-06     83.8042E-03    -34.0419E+06    -76.1304E+06    -33.4190E+06    -895.661E+03    -15.5477E-03     31.1201E-03    -15.5724E-03     3.52312E-03    -15.5591E-03     30.8373E-03    -15.5797E-03     3.51099E-03
             806     1.77219E-03     83.8088E-03    -32.9380E+06    -74.1478E+06    -30.5278E+06    -1.61275E+06    -15.5486E-03     31.1153E-03    -15.5667E-03     6.49742E-03    -15.5616E-03     30.8367E-03    -15.5641E-03     6.47553E-03
             807     2.65832E-03     83.8162E-03    -31.3296E+06    -70.6817E+06    -26.2700E+06    -2.29794E+06    -15.5354E-03     31.1077E-03    -15.5724E-03     9.66805E-03    -15.5516E-03     30.8380E-03    -15.5558E-03     9.63673E-03
             808     3.54446E-03     83.8266E-03    -29.2342E+06    -66.4772E+06    -21.1265E+06    -3.02351E+06    -15.5235E-03     31.1020E-03    -15.5784E-03     12.9031E-03    -15.5430E-03     30.8430E-03    -15.5453E-03     12.8618E-03
             809     4.43064E-03     83.8400E-03    -26.8084E+06    -62.9633E+06    -15.6795E+06    -3.68726E+06    -15.5181E-03     31.1032E-03    -15.5851E-03     16.1896E-03    -15.5387E-03     30.8506E-03    -15.5333E-03     16.1389E-03
             810     5.31682E-03     83.8565E-03    -24.2746E+06    -59.9052E+06    -10.6394E+06    -4.16398E+06    -15.5197E-03     31.1091E-03    -15.5894E-03     19.5342E-03    -15.5398E-03     30.8612E-03    -15.5205E-03     19.4764E-03
             811     6.20307E-03     83.8761E-03    -21.8365E+06    -56.8475E+06    -6.41216E+06    -4.64592E+06    -15.5309E-03     31.1202E-03    -15.5893E-03     22.9389E-03    -15.5499E-03     30.8785E-03    -15.5072E-03     22.8737E-03
             812     7.08928E-03     83.8989E-03    -19.4626E+06    -54.4652E+06    -3.18610E+06    -5.13053E+06    -15.5522E-03     31.1375E-03    -15.5853E-03     26.3966E-03    -15.5682E-03     30.9003E-03    -15.4940E-03     26.3238E-03
             813     7.97560E-03     83.9249E-03    -17.1517E+06    -53.6982E+06    -942.231E+03    -5.31521E+06    -15.5905E-03     31.1698E-03    -15.5793E-03     29.8864E-03    -15.6004E-03     30.9310E-03    -15.4813E-03     29.8095E-03
             814     8.86181E-03     83.9541E-03    -14.9889E+06    -51.1414E+06    -5.67153E+03    -5.26794E+06    -15.6364E-03     31.2017E-03    -15.5653E-03     33.4185E-03    -15.6422E-03     30.9727E-03    -15.4694E-03     33.3401E-03
             815     9.74817E-03     83.9867E-03    -13.0099E+06    -48.3433E+06     591.021E+03    -5.33385E+06    -15.6844E-03     31.2345E-03    -15.5501E-03     36.9149E-03    -15.6876E-03     31.0181E-03    -15.4582E-03     36.8329E-03
             816     10.6344E-03     84.0223E-03    -11.3603E+06    -47.5335E+06     185.497E+03    -5.29179E+06    -15.7586E-03     31.2930E-03    -15.5344E-03     40.3738E-03    -15.7575E-03     31.0823E-03    -15.4481E-03     40.2889E-03
             817     11.5208E-03     84.0614E-03    -9.99348E+06    -41.9393E+06    -1.74646E+06    -4.98763E+06    -15.8433E-03     31.3500E-03    -15.5067E-03     43.7488E-03    -15.8458E-03     31.1732E-03    -15.4401E-03     43.6637E-03
             818     12.4069E-03     84.1032E-03    -8.99058E+06    -29.6789E+06    -594.311E+03    -4.60801E+06    -15.8905E-03     31.3771E-03    -15.4866E-03     47.2095E-03    -15.9151E-03     31.2662E-03    -15.4335E-03     47.1246E-03
             819     13.2935E-03     84.1488E-03    -7.99581E+06    -20.2151E+06    -1.61521E+06    -4.02243E+06    -15.9804E-03     31.4410E-03    -15.4605E-03     51.1143E-03    -16.0252E-03     31.3902E-03    -15.4277E-03     51.0319E-03
             820     14.1793E-03     84.1979E-03    -7.12325E+06    -3.77716E+06    -5.58811E+06    -2.75091E+06    -16.0762E-03     31.4865E-03    -15.4102E-03     56.6172E-03    -16.1601E-03     31.5478E-03    -15.4224E-03     56.5470E-03
             821     15.0665E-03     84.2538E-03    -6.88488E+06     36.1582E+06    -4.45283E+06    -1.20539E+06    -16.2375E-03     31.5896E-03    -15.3521E-03     65.3520E-03    -16.4335E-03     31.9025E-03    -15.4169E-03     65.3074E-03
             822     15.9515E-03     84.3188E-03    -6.24153E+06     91.3962E+06     18.8537E+06    -284.830E+03    -15.9849E-03     31.3599E-03    -15.3750E-03     71.6344E-03    -16.3697E-03     31.9922E-03    -15.4042E-03     71.6474E-03
             823     16.8416E-03     84.3867E-03    -3.78898E+06     118.987E+06     57.3545E+06     3.78178E+03    -15.2569E-03     30.7584E-03    -15.5015E-03     48.7014E-03    -15.6691E-03     31.4133E-03    -15.3818E-03     48.7459E-03
             824     886.103E-06     84.7822E-03    -34.1090E+06    -74.1408E+06    -33.4914E+06    -1.07640E+06    -15.5474E-03     31.1006E-03    -15.5532E-03     3.51466E-03    -15.5618E-03     30.8279E-03    -15.5637E-03     3.50020E-03
             825     1.77222E-03     84.7867E-03    -32.9582E+06    -72.3818E+06    -30.4463E+06    -1.85189E+06    -15.5366E-03     31.0940E-03    -15.5574E-03     6.49587E-03    -15.5524E-03     30.8242E-03    -15.5569E-03     6.47089E-03
             826     2.65834E-03     84.7941E-03    -31.1563E+06    -68.9580E+06    -26.0684E+06    -2.60602E+06    -15.5250E-03     31.0879E-03    -15.5629E-03     9.66668E-03    -15.5432E-03     30.8263E-03    -15.5480E-03     9.63138E-03
             827     3.54449E-03     84.8045E-03    -28.9507E+06    -64.7561E+06    -20.8998E+06    -3.37135E+06    -15.5119E-03     31.0804E-03    -15.5686E-03     12.9001E-03    -15.5328E-03     30.8293E-03    -15.5372E-03     12.8543E-03
             828     4.43067E-03     84.8179E-03    -26.5323E+06    -61.4737E+06    -15.5431E+06    -4.01376E+06    -15.5056E-03     31.0802E-03    -15.5746E-03     16.1872E-03    -15.5272E-03     30.8345E-03    -15.5247E-03     16.1323E-03
             829     5.31688E-03     84.8344E-03    -23.9661E+06    -58.6182E+06    -10.5819E+06    -4.53460E+06    -15.5083E-03     31.0866E-03    -15.5782E-03     19.5295E-03    -15.5288E-03     30.8446E-03    -15.5114E-03     19.4670E-03
             830     6.20310E-03     84.8540E-03    -21.2903E+06    -55.4959E+06    -6.19681E+06    -5.02036E+06    -15.5187E-03     31.0968E-03    -15.5781E-03     22.9361E-03    -15.5372E-03     30.8608E-03    -15.4978E-03     22.8662E-03
             831     7.08938E-03     84.8768E-03    -18.8897E+06    -53.3798E+06    -2.83308E+06    -5.37299E+06    -15.5432E-03     31.1182E-03    -15.5750E-03     26.3867E-03    -15.5585E-03     30.8851E-03    -15.4843E-03     26.3108E-03
             832     7.97562E-03     84.9027E-03    -16.8329E+06    -52.8697E+06    -759.421E+03    -5.64541E+06    -15.5830E-03     31.1520E-03    -15.5690E-03     29.8845E-03    -15.5929E-03     30.9166E-03    -15.4717E-03     29.8033E-03
             833     8.86195E-03     84.9320E-03    -14.8176E+06    -50.4700E+06    -56.8639E+03    -5.90241E+06    -15.6252E-03     31.1795E-03    -15.5543E-03     33.4220E-03    -15.6311E-03     30.9537E-03    -15.4599E-03     33.3354E-03
             834     9.74821E-03     84.9644E-03    -12.9012E+06    -47.7141E+06     494.327E+03    -5.97409E+06    -15.6772E-03     31.2162E-03    -15.5390E-03     36.9306E-03    -15.6805E-03     31.0029E-03    -15.4487E-03     36.8404E-03
             835     10.6346E-03     85.0002E-03    -11.2498E+06    -47.2705E+06     80.7483E+03    -5.87855E+06    -15.7547E-03     31.2788E-03    -15.5241E-03     40.4205E-03    -15.7533E-03     31.0694E-03    -15.4389E-03     40.3281E-03
             836     11.5208E-03     85.0390E-03    -9.99444E+06    -42.0130E+06    -2.02651E+06    -5.52628E+06    -15.8403E-03     31.3368E-03    -15.4965E-03     43.8491E-03    -15.8423E-03     31.1601E-03    -15.4312E-03     43.7570E-03
             837     12.4072E-03     85.0813E-03    -8.88746E+06    -29.5901E+06    -671.472E+03    -5.10277E+06    -15.9115E-03     31.3896E-03    -15.4781E-03     47.3388E-03    -15.9357E-03     31.2791E-03    -15.4256E-03     47.2475E-03
             838     13.2932E-03     85.1264E-03    -7.95050E+06    -20.9721E+06    -1.95086E+06    -4.44657E+06    -15.9591E-03     31.4114E-03    -15.4523E-03     51.2322E-03    -16.0021E-03     31.3574E-03    -15.4201E-03     51.1444E-03
             839     14.1800E-03     85.1761E-03    -7.39227E+06    -5.25440E+06    -6.25391E+06    -3.32462E+06    -16.0760E-03     31.4773E-03    -15.4014E-03     56.7035E-03    -16.1584E-03     31.5330E-03    -15.4143E-03     56.6259E-03
             840     15.0656E-03     85.2311E-03    -6.44530E+06     34.1765E+06    -4.89422E+06    -1.54843E+06    -16.1775E-03     31.5201E-03    -15.3426E-03     65.3668E-03    -16.3680E-03     31.8232E-03    -15.4073E-03     65.3182E-03
             841     15.9531E-03     85.2976E-03    -5.47668E+06     90.5631E+06     19.0382E+06    -191.074E+03    -16.0494E-03     31.4162E-03    -15.3668E-03     71.5026E-03    -16.4291E-03     32.0427E-03    -15.3950E-03     71.5161E-03
             842     16.8365E-03     85.3631E-03    -3.67153E+06     119.388E+06     57.7299E+06    -19.1122E+03    -15.4098E-03     30.9093E-03    -15.4996E-03     49.0780E-03    -15.8234E-03     31.5664E-03    -15.3787E-03     49.1213E-03
             843     886.101E-06     85.7601E-03    -32.6971E+06    -71.9771E+06    -31.9576E+06    -1.10318E+06    -15.5431E-03     31.0833E-03    -15.5403E-03     3.50829E-03    -15.5559E-03     30.8173E-03    -15.5483E-03     3.49348E-03
             844     1.77223E-03     85.7647E-03    -31.7676E+06    -70.3993E+06    -29.1941E+06    -1.96522E+06    -15.5298E-03     31.0787E-03    -15.5489E-03     6.48970E-03    -15.5443E-03     30.8152E-03    -15.5468E-03     6.46325E-03
             845     2.65836E-03     85.7721E-03    -30.2742E+06    -67.0171E+06    -25.3743E+06    -2.86113E+06    -15.5138E-03     31.0661E-03    -15.5523E-03     9.65835E-03    -15.5314E-03     30.8119E-03    -15.5381E-03     9.61976E-03
             846     3.54453E-03     85.7825E-03    -28.3441E+06    -62.9661E+06    -20.6564E+06    -3.64873E+06    -15.4982E-03     31.0539E-03    -15.5557E-03     12.8932E-03    -15.5191E-03     30.8105E-03    -15.5265E-03     12.8438E-03
             847     4.43072E-03     85.7958E-03    -26.0935E+06    -59.9014E+06    -15.3682E+06    -4.30884E+06    -15.4931E-03     31.0546E-03    -15.5614E-03     16.1812E-03    -15.5151E-03     30.8158E-03    -15.5136E-03     16.1225E-03
             848     5.31694E-03     85.8123E-03    -23.5977E+06    -57.0901E+06    -10.3648E+06    -4.96410E+06    -15.4958E-03     31.0612E-03    -15.5653E-03     19.5252E-03    -15.5170E-03     30.8260E-03    -15.5002E-03     19.4571E-03
             849     6.20318E-03     85.8319E-03    -21.1289E+06    -54.2408E+06    -6.08027E+06    -5.43922E+06    -15.5059E-03     31.0713E-03    -15.5654E-03     22.9319E-03    -15.5257E-03     30.8411E-03    -15.4865E-03     22.8566E-03
             850     7.08944E-03     85.8546E-03    -18.7283E+06    -52.3869E+06    -2.78210E+06    -5.66492E+06    -15.5305E-03     31.0927E-03    -15.5622E-03     26.3884E-03    -15.5465E-03     30.8643E-03    -15.4730E-03     26.3088E-03
             851     7.97574E-03     85.8805E-03    -16.4195E+06    -51.7274E+06    -571.822E+03    -5.99255E+06    -15.5701E-03     31.1263E-03    -15.5562E-03     29.8914E-03    -15.5798E-03     30.8957E-03    -15.4603E-03     29.8059E-03
             852     8.86201E-03     85.9097E-03    -14.4241E+06    -49.5159E+06     132.350E+03    -6.36840E+06    -15.6123E-03     31.1539E-03    -15.5416E-03     33.4333E-03    -15.6178E-03     30.9321E-03    -15.4482E-03     33.3407E-03
             853     9.74835E-03     85.9423E-03    -12.7477E+06    -47.1521E+06     458.188E+03    -6.49961E+06    -15.6655E-03     31.1915E-03    -15.5261E-03     36.9583E-03    -15.6688E-03     30.9809E-03    -15.4369E-03     36.8613E-03
             854     10.6346E-03     85.9779E-03    -11.2504E+06    -46.8239E+06     10.6930E+03    -6.44217E+06    -15.7452E-03     31.2566E-03    -15.5114E-03     40.4571E-03    -15.7443E-03     31.0496E-03    -15.4272E-03     40.3574E-03
             855     11.5210E-03     86.0170E-03    -9.94087E+06    -42.1759E+06    -2.19903E+06    -6.10935E+06    -15.8258E-03     31.3099E-03    -15.4841E-03     43.8898E-03    -15.8271E-03     31.1325E-03    -15.4195E-03     43.7903E-03
             856     12.4073E-03     86.0589E-03    -8.92053E+06    -29.4983E+06    -774.410E+03    -5.61120E+06    -15.8766E-03     31.3414E-03    -15.4647E-03     47.4129E-03    -15.9009E-03     31.2315E-03    -15.4129E-03     47.3152E-03
             857     13.2937E-03     86.1046E-03    -7.95119E+06    -21.5605E+06    -2.07826E+06    -4.96228E+06    -15.9845E-03     31.4247E-03    -15.4402E-03     51.2329E-03    -16.0266E-03     31.3680E-03    -15.4078E-03     51.1383E-03
             858     14.1797E-03     86.1533E-03    -7.16411E+06    -6.60185E+06    -6.57996E+06    -3.68671E+06    -16.1303E-03     31.5224E-03    -15.3920E-03     56.7889E-03    -16.2094E-03     31.5717E-03    -15.4050E-03     56.7064E-03
             859     15.0664E-03     86.2100E-03    -7.06371E+06     32.2811E+06    -5.45087E+06    -2.19155E+06    -16.1929E-03     31.5297E-03    -15.3367E-03     65.2452E-03    -16.3827E-03     31.8247E-03    -15.4005E-03     65.1883E-03
             860     15.9522E-03     86.2738E-03    -5.99107E+06     89.1442E+06     17.8492E+06    -456.396E+03    -15.9935E-03     31.3499E-03    -15.3564E-03     71.4294E-03    -16.3714E-03     31.9712E-03    -15.3877E-03     71.4391E-03
             861     16.8416E-03     86.3434E-03    -3.56966E+06     119.555E+06     57.0664E+06     283.262E+03    -15.4450E-03     30.9332E-03    -15.4882E-03     49.3194E-03    -15.8572E-03     31.5916E-03    -15.3710E-03     49.3661E-03
             862     886.132E-06     86.7380E-03    -32.4431E+06    -69.8497E+06    -31.7835E+06    -1.06859E+06    -15.5273E-03     31.0499E-03    -15.5226E-03     3.50620E-03    -15.5422E-03     30.7938E-03    -15.5332E-03     3.49183E-03
             863     1.77225E-03     86.7426E-03    -31.4390E+06    -68.2189E+06    -29.0212E+06    -1.98816E+06    -15.5166E-03     31.0490E-03    -15.5324E-03     6.48639E-03    -15.5329E-03     30.7956E-03    -15.5330E-03     6.45964E-03
             864     2.65840E-03     86.7500E-03    -29.9082E+06    -64.8952E+06    -25.1291E+06    -2.98204E+06    -15.4988E-03     31.0355E-03    -15.5367E-03     9.65176E-03    -15.5180E-03     30.7911E-03    -15.5249E-03     9.61161E-03
             865     3.54457E-03     86.7603E-03    -28.0168E+06    -61.1235E+06    -20.3812E+06    -3.82781E+06    -15.4836E-03     31.0242E-03    -15.5407E-03     12.8847E-03    -15.5058E-03     30.7892E-03    -15.5133E-03     12.8329E-03
             866     4.43078E-03     86.7737E-03    -25.8015E+06    -58.1534E+06    -15.1243E+06    -4.57028E+06    -15.4768E-03     31.0232E-03    -15.5463E-03     16.1755E-03    -15.5002E-03     30.7924E-03    -15.5002E-03     16.1134E-03
             867     5.31701E-03     86.7902E-03    -23.4392E+06    -55.4107E+06    -10.1692E+06    -5.25969E+06    -15.4785E-03     31.0286E-03    -15.5500E-03     19.5225E-03    -15.5017E-03     30.8013E-03    -15.4865E-03     19.4506E-03
             868     6.20326E-03     86.8097E-03    -20.9972E+06    -53.0098E+06    -6.00414E+06    -5.74326E+06    -15.4889E-03     31.0388E-03    -15.5499E-03     22.9348E-03    -15.5099E-03     30.8144E-03    -15.4726E-03     22.8555E-03
             869     7.08954E-03     86.8324E-03    -18.5695E+06    -51.2453E+06    -2.78209E+06    -6.12073E+06    -15.5119E-03     31.0579E-03    -15.5461E-03     26.4034E-03    -15.5287E-03     30.8350E-03    -15.4587E-03     26.3179E-03
             870     7.97584E-03     86.8583E-03    -16.2854E+06    -50.5511E+06    -503.942E+03    -6.46765E+06    -15.5505E-03     31.0904E-03    -15.5399E-03     29.9124E-03    -15.5613E-03     30.8654E-03    -15.4455E-03     29.8208E-03
             871     8.86216E-03     86.8875E-03    -14.3259E+06    -48.5128E+06     275.573E+03    -6.71284E+06    -15.5964E-03     31.1222E-03    -15.5258E-03     33.4549E-03    -15.6031E-03     30.9050E-03    -15.4333E-03     33.3579E-03
             872     9.74849E-03     86.9199E-03    -12.6871E+06    -46.4279E+06     520.622E+03    -6.87192E+06    -15.6563E-03     31.1668E-03    -15.5105E-03     36.9935E-03    -15.6605E-03     30.9596E-03    -15.4222E-03     36.8917E-03
             873     10.6348E-03     86.9557E-03    -11.3022E+06    -46.3107E+06    -1.35665E+03    -6.88765E+06    -15.7446E-03     31.2414E-03    -15.4968E-03     40.5010E-03    -15.7447E-03     31.0370E-03    -15.4133E-03     40.3956E-03
             874     11.5211E-03     86.9946E-03    -10.0966E+06    -42.0308E+06    -2.30129E+06    -6.74429E+06    -15.8253E-03     31.2960E-03    -15.4707E-03     43.9221E-03    -15.8273E-03     31.1197E-03    -15.4067E-03     43.8144E-03
             875     12.4074E-03     87.0369E-03    -8.93391E+06    -29.9550E+06    -1.02979E+06    -6.12502E+06    -15.8607E-03     31.3124E-03    -15.4516E-03     47.3941E-03    -15.8839E-03     31.2005E-03    -15.4004E-03     47.2898E-03
             876     13.2938E-03     87.0821E-03    -8.06989E+06    -21.6580E+06    -2.08370E+06    -5.48218E+06    -16.0170E-03     31.4462E-03    -15.4292E-03     51.3190E-03    -16.0595E-03     31.3892E-03    -15.3965E-03     51.2177E-03
             877     14.1800E-03     87.1319E-03    -7.23490E+06    -7.86356E+06    -6.80046E+06    -4.35110E+06    -16.1810E-03     31.5659E-03    -15.3849E-03     56.7493E-03    -16.2582E-03     31.6092E-03    -15.3970E-03     56.6582E-03
             878     15.0662E-03     87.1869E-03    -6.49290E+06     29.7166E+06    -6.00928E+06    -2.21531E+06    -16.2546E-03     31.5870E-03    -15.3324E-03     65.1806E-03    -16.4368E-03     31.8691E-03    -15.3961E-03     65.1230E-03
             879     15.9527E-03     87.2531E-03    -6.13158E+06     87.8725E+06     17.1578E+06    -631.402E+03    -16.1911E-03     31.5491E-03    -15.3579E-03     71.2040E-03    -16.5667E-03     32.1651E-03    -15.3907E-03     71.2104E-03
             880     16.8373E-03     87.3187E-03    -3.89429E+06     119.478E+06     56.7817E+06    -36.3718E+03    -15.3490E-03     30.8425E-03    -15.4935E-03     48.8322E-03    -15.7618E-03     31.5010E-03    -15.3772E-03     48.8746E-03
             881     886.136E-06     87.7160E-03    -32.8939E+06    -67.5773E+06    -32.2896E+06    -1.19271E+06    -15.4970E-03     31.0090E-03    -15.5120E-03     3.50939E-03    -15.5166E-03     30.7657E-03    -15.5278E-03     3.49343E-03
             882     1.77229E-03     87.7205E-03    -31.6775E+06    -65.8771E+06    -29.3157E+06    -2.24880E+06    -15.4926E-03     31.0042E-03    -15.5115E-03     6.47500E-03    -15.5131E-03     30.7633E-03    -15.5167E-03     6.44490E-03
             883     2.65844E-03     87.7279E-03    -29.9397E+06    -62.7209E+06    -24.9723E+06    -3.22332E+06    -15.4789E-03     30.9962E-03    -15.5173E-03     9.64689E-03    -15.5016E-03     30.7624E-03    -15.5078E-03     9.60364E-03
             884     3.54464E-03     87.7382E-03    -27.8584E+06    -59.1928E+06    -19.8903E+06    -4.02585E+06    -15.4656E-03     30.9889E-03    -15.5233E-03     12.8812E-03    -15.4906E-03     30.7626E-03    -15.4966E-03     12.8269E-03
             885     4.43084E-03     87.7516E-03    -25.5820E+06    -56.2680E+06    -14.7390E+06    -4.79123E+06    -15.4564E-03     30.9849E-03    -15.5285E-03     16.1751E-03    -15.4820E-03     30.7627E-03    -15.4835E-03     16.1102E-03
             886     5.31710E-03     87.7680E-03    -23.1302E+06    -53.6694E+06    -9.88796E+06    -5.51889E+06    -15.4550E-03     30.9862E-03    -15.5312E-03     19.5273E-03    -15.4795E-03     30.7668E-03    -15.4693E-03     19.4521E-03
             887     6.20337E-03     87.7875E-03    -20.6544E+06    -51.6287E+06    -5.71565E+06    -6.09581E+06    -15.4654E-03     30.9962E-03    -15.5308E-03     22.9462E-03    -15.4871E-03     30.7779E-03    -15.4546E-03     22.8624E-03
             888     7.08968E-03     87.8102E-03    -18.2509E+06    -49.9187E+06    -2.49322E+06    -6.53605E+06    -15.4885E-03     31.0150E-03    -15.5265E-03     26.4251E-03    -15.5061E-03     30.7978E-03    -15.4401E-03     26.3343E-03
             889     7.97599E-03     87.8361E-03    -16.0212E+06    -49.4014E+06    -264.619E+03    -6.90206E+06    -15.5277E-03     31.0478E-03    -15.5200E-03     29.9409E-03    -15.5392E-03     30.8278E-03    -15.4265E-03     29.8437E-03
             890     8.86233E-03     87.8652E-03    -14.0522E+06    -47.6523E+06     550.509E+03    -7.04192E+06    -15.5810E-03     31.0874E-03    -15.5064E-03     33.4922E-03    -15.5879E-03     30.8737E-03    -15.4142E-03     33.3910E-03
             891     9.74865E-03     87.8978E-03    -12.4449E+06    -45.5041E+06     841.226E+03    -7.16623E+06    -15.6475E-03     31.1395E-03    -15.4920E-03     37.0441E-03    -15.6523E-03     30.9361E-03    -15.4037E-03     36.9386E-03
             892     10.6350E-03     87.9334E-03    -11.0212E+06    -45.7092E+06     190.183E+03    -7.29444E+06    -15.7412E-03     31.2202E-03    -15.4790E-03     40.5866E-03    -15.7411E-03     31.0181E-03    -15.3958E-03     40.4760E-03
             893     11.5213E-03     87.9725E-03    -9.91390E+06    -41.6849E+06    -2.16917E+06    -7.15915E+06    -15.8254E-03     31.2795E-03    -15.4541E-03     44.0042E-03    -15.8272E-03     31.1045E-03    -15.3902E-03     43.8912E-03
             894     12.4076E-03     88.0144E-03    -8.86531E+06    -30.3775E+06    -1.12946E+06    -6.75557E+06    -15.8962E-03     31.3336E-03    -15.4374E-03     47.5148E-03    -15.9184E-03     31.2197E-03    -15.3861E-03     47.4024E-03
             895     13.2938E-03     88.0602E-03    -7.85863E+06    -22.3653E+06    -2.23785E+06    -5.78206E+06    -16.0191E-03     31.4359E-03    -15.4168E-03     51.5191E-03    -16.0593E-03     31.3753E-03    -15.3841E-03     51.4140E-03
             896     14.1801E-03     88.1095E-03    -7.55269E+06    -8.54113E+06    -6.94590E+06    -4.79856E+06    -16.1611E-03     31.5341E-03    -15.3730E-03     56.9448E-03    -16.2385E-03     31.5746E-03    -15.3844E-03     56.8480E-03
             897     15.0662E-03     88.1654E-03    -7.07770E+06     26.8657E+06    -6.67986E+06    -3.08009E+06    -16.3502E-03     31.6740E-03    -15.3238E-03     65.4886E-03    -16.5307E-03     31.9441E-03    -15.3859E-03     65.4196E-03
             898     15.9526E-03     88.2302E-03    -5.60886E+06     85.8897E+06     15.8793E+06    -492.928E+03    -16.2215E-03     31.5679E-03    -15.3464E-03     71.8231E-03    -16.5906E-03     32.1760E-03    -15.3834E-03     71.8310E-03
             899     16.8397E-03     88.2992E-03    -3.13630E+06     119.870E+06     56.1646E+06     108.487E+03    -15.2817E-03     30.7613E-03    -15.4796E-03     49.5520E-03    -15.6910E-03     31.4222E-03    -15.3681E-03     49.5967E-03
             900     886.141E-06     88.6939E-03    -31.8941E+06    -65.0414E+06    -31.1854E+06    -1.27502E+06    -15.4776E-03     30.9741E-03    -15.4965E-03     3.49765E-03    -15.4975E-03     30.7404E-03    -15.5119E-03     3.48063E-03
             901     1.77231E-03     88.6984E-03    -30.9471E+06    -63.3414E+06    -28.3395E+06    -2.41012E+06    -15.4660E-03     30.9586E-03    -15.4926E-03     6.47542E-03    -15.4879E-03     30.7280E-03    -15.4976E-03     6.44325E-03
             902     2.65850E-03     88.7057E-03    -29.4133E+06    -60.4886E+06    -24.2027E+06    -3.41940E+06    -15.4545E-03     30.9507E-03    -15.4963E-03     9.64570E-03    -15.4789E-03     30.7262E-03    -15.4869E-03     9.59994E-03
             903     3.54471E-03     88.7161E-03    -27.3692E+06    -57.1766E+06    -19.2376E+06    -4.27347E+06    -15.4406E-03     30.9421E-03    -15.5015E-03     12.8816E-03    -15.4670E-03     30.7242E-03    -15.4751E-03     12.8241E-03
             904     4.43095E-03     88.7294E-03    -24.9715E+06    -54.3121E+06    -14.0626E+06    -5.05951E+06    -15.4304E-03     30.9365E-03    -15.5061E-03     16.1801E-03    -15.4568E-03     30.7222E-03    -15.4615E-03     16.1118E-03
             905     5.31721E-03     88.7458E-03    -22.5036E+06    -51.8360E+06    -9.28109E+06    -5.80747E+06    -15.4267E-03     30.9346E-03    -15.5079E-03     19.5396E-03    -15.4516E-03     30.7225E-03    -15.4465E-03     19.4607E-03
             906     6.20353E-03     88.7652E-03    -20.1070E+06    -50.1523E+06    -5.16790E+06    -6.36067E+06    -15.4364E-03     30.9434E-03    -15.5070E-03     22.9664E-03    -15.4583E-03     30.7308E-03    -15.4310E-03     22.8792E-03
             907     7.08983E-03     88.7879E-03    -17.8878E+06    -48.5037E+06    -2.05059E+06    -6.81597E+06    -15.4581E-03     30.9598E-03    -15.5018E-03     26.4555E-03    -15.4765E-03     30.7485E-03    -15.4158E-03     26.3612E-03
             908     7.97620E-03     88.8138E-03    -15.7951E+06    -48.1583E+06     45.5350E+03    -7.23902E+06    -15.5004E-03     30.9950E-03    -15.4946E-03     29.9885E-03    -15.5130E-03     30.7805E-03    -15.4017E-03     29.8869E-03
             909     8.86252E-03     88.8430E-03    -13.8937E+06    -46.8733E+06     746.585E+03    -7.40717E+06    -15.5571E-03     31.0383E-03    -15.4811E-03     33.5609E-03    -15.5647E-03     30.8279E-03    -15.3893E-03     33.4551E-03
             910     9.74891E-03     88.8754E-03    -12.1334E+06    -44.4772E+06     1.11856E+06    -7.53790E+06    -15.6276E-03     31.0943E-03    -15.4667E-03     37.1442E-03    -15.6327E-03     30.8952E-03    -15.3790E-03     37.0340E-03
             911     10.6352E-03     88.9112E-03    -10.7035E+06    -44.9988E+06     467.820E+03    -7.67646E+06    -15.7187E-03     31.1729E-03    -15.4543E-03     40.7097E-03    -15.7183E-03     30.9735E-03    -15.3712E-03     40.5942E-03
             912     11.5216E-03     88.9502E-03    -9.54030E+06    -41.4185E+06    -2.01433E+06    -7.53761E+06    -15.8174E-03     31.2472E-03    -15.4298E-03     44.1545E-03    -15.8179E-03     31.0726E-03    -15.3660E-03     44.0367E-03
             913     12.4079E-03     88.9923E-03    -8.62950E+06    -30.3365E+06    -1.00121E+06    -7.19314E+06    -15.9103E-03     31.3253E-03    -15.4150E-03     47.7250E-03    -15.9316E-03     31.2111E-03    -15.3635E-03     47.6070E-03
             914     13.2942E-03     89.0379E-03    -7.70769E+06    -23.3758E+06    -2.39937E+06    -6.35304E+06    -16.0181E-03     31.4142E-03    -15.3961E-03     51.7286E-03    -16.0558E-03     31.3485E-03    -15.3630E-03     51.6162E-03
             915     14.1804E-03     89.0875E-03    -7.34869E+06    -9.95827E+06    -7.11438E+06    -4.72362E+06    -16.1047E-03     31.4566E-03    -15.3520E-03     57.0687E-03    -16.1787E-03     31.4899E-03    -15.3624E-03     56.9732E-03
             916     15.0671E-03     89.1430E-03    -7.93147E+06     24.8484E+06    -7.21090E+06    -3.07991E+06    -16.3301E-03     31.6318E-03    -15.3017E-03     65.9264E-03    -16.5116E-03     31.8943E-03    -15.3623E-03     65.8574E-03
             917     15.9525E-03     89.2093E-03    -6.68555E+06     84.2003E+06     14.6230E+06    -1.80131E+06    -16.1229E-03     31.4414E-03    -15.3184E-03     71.6453E-03    -16.4929E-03     32.0441E-03    -15.3577E-03     71.6375E-03
             918     16.8399E-03     89.2744E-03    -3.32320E+06     119.563E+06     55.5565E+06    -420.321E+03    -15.4175E-03     30.8720E-03    -15.4545E-03     49.0502E-03    -15.8258E-03     31.5318E-03    -15.3452E-03     49.0882E-03
             919     886.171E-06     89.6717E-03    -30.4314E+06    -62.5612E+06    -29.6742E+06    -1.22244E+06    -15.4530E-03     30.9193E-03    -15.4663E-03     3.48712E-03    -15.4714E-03     30.6937E-03    -15.4798E-03     3.47079E-03
             920     1.77236E-03     89.6762E-03    -29.5420E+06    -60.7701E+06    -26.7556E+06    -2.21987E+06    -15.4435E-03     30.9103E-03    -15.4668E-03     6.47935E-03    -15.4643E-03     30.6881E-03    -15.4696E-03     6.44965E-03
             921     2.65857E-03     89.6836E-03    -28.1631E+06    -58.1046E+06    -22.7725E+06    -3.34517E+06    -15.4262E-03     30.8971E-03    -15.4710E-03     9.64631E-03    -15.4499E-03     30.6807E-03    -15.4598E-03     9.60152E-03
             922     3.54481E-03     89.6939E-03    -26.3137E+06    -54.9692E+06    -18.2015E+06    -4.40204E+06    -15.4079E-03     30.8818E-03    -15.4739E-03     12.8879E-03    -15.4337E-03     30.6718E-03    -15.4470E-03     12.8288E-03
             923     4.43107E-03     89.7072E-03    -24.1601E+06    -52.3111E+06    -13.2679E+06    -5.27868E+06    -15.3949E-03     30.8715E-03    -15.4766E-03     16.1925E-03    -15.4212E-03     30.6648E-03    -15.4321E-03     16.1213E-03
             924     5.31738E-03     89.7235E-03    -21.8584E+06    -49.9999E+06    -8.53919E+06    -5.97054E+06    -15.3905E-03     30.8680E-03    -15.4775E-03     19.5610E-03    -15.4159E-03     30.6631E-03    -15.4160E-03     19.4800E-03
             925     6.20369E-03     89.7430E-03    -19.5593E+06    -48.6198E+06    -4.55643E+06    -6.53841E+06    -15.3976E-03     30.8732E-03    -15.4756E-03     23.0010E-03    -15.4198E-03     30.6666E-03    -15.3995E-03     22.9116E-03
             926     7.09008E-03     89.7656E-03    -17.3205E+06    -47.0540E+06    -1.51802E+06    -6.97586E+06    -15.4192E-03     30.8883E-03    -15.4691E-03     26.5089E-03    -15.4376E-03     30.6826E-03    -15.3833E-03     26.4125E-03
             927     7.97643E-03     89.7915E-03    -15.3509E+06    -46.8025E+06     476.922E+03    -7.40188E+06    -15.4614E-03     30.9223E-03    -15.4609E-03     30.0648E-03    -15.4743E-03     30.7132E-03    -15.3684E-03     29.9613E-03
             928     8.86285E-03     89.8206E-03    -13.5466E+06    -45.9284E+06     1.07066E+06    -7.73631E+06    -15.5190E-03     30.9660E-03    -15.4470E-03     33.6650E-03    -15.5266E-03     30.7593E-03    -15.3554E-03     33.5550E-03
             929     9.74920E-03     89.8531E-03    -11.9479E+06    -43.4875E+06     1.37148E+06    -7.92316E+06    -15.5864E-03     31.0181E-03    -15.4317E-03     37.2843E-03    -15.5923E-03     30.8232E-03    -15.3445E-03     37.1692E-03
             930     10.6356E-03     89.8889E-03    -10.5089E+06    -44.2216E+06     842.272E+03    -8.05400E+06    -15.6852E-03     31.1049E-03    -15.4197E-03     40.8680E-03    -15.6855E-03     30.9085E-03    -15.3362E-03     40.7478E-03
             931     11.5220E-03     89.9279E-03    -9.38552E+06    -41.0959E+06    -1.82790E+06    -7.95404E+06    -15.7976E-03     31.1930E-03    -15.3954E-03     44.3545E-03    -15.7980E-03     31.0195E-03    -15.3314E-03     44.2315E-03
             932     12.4083E-03     89.9701E-03    -8.42494E+06    -30.2882E+06    -772.383E+03    -7.54726E+06    -15.9012E-03     31.2834E-03    -15.3822E-03     47.9616E-03    -15.9218E-03     31.1688E-03    -15.3299E-03     47.8390E-03
             933     13.2945E-03     90.0158E-03    -7.69626E+06    -24.0561E+06    -2.25373E+06    -6.86034E+06    -16.0214E-03     31.3873E-03    -15.3659E-03     51.8873E-03    -16.0583E-03     31.3180E-03    -15.3311E-03     51.7685E-03
             934     14.1809E-03     90.0652E-03    -6.60179E+06    -11.9690E+06    -7.00186E+06    -5.43268E+06    -16.1863E-03     31.5128E-03    -15.3266E-03     57.1849E-03    -16.2542E-03     31.5352E-03    -15.3347E-03     57.0799E-03
             935     15.0668E-03     90.1209E-03    -5.43078E+06     22.7574E+06    -6.32783E+06    -2.98545E+06    -16.2156E-03     31.4936E-03    -15.2780E-03     65.8611E-03    -16.3822E-03     31.7400E-03    -15.3348E-03     65.7943E-03
             936     15.9542E-03     90.1870E-03    -5.48156E+06     83.5914E+06     16.0466E+06    -1.56343E+06    -16.2508E-03     31.5490E-03    -15.2982E-03     71.7719E-03    -16.6161E-03     32.1451E-03    -15.3313E-03     71.7667E-03
             937     16.8393E-03     90.2533E-03    -4.17878E+06     119.004E+06     55.9006E+06    -769.047E+03    -15.7048E-03     31.1484E-03    -15.4436E-03     49.4242E-03    -16.1185E-03     31.8077E-03    -15.3306E-03     49.4560E-03
             938     886.224E-06     90.6495E-03    -29.4349E+06    -60.2981E+06    -28.7032E+06    -1.08848E+06    -15.4221E-03     30.8417E-03    -15.4196E-03     3.49409E-03    -15.4403E-03     30.6246E-03    -15.4330E-03     3.47950E-03
             939     1.77242E-03     90.6540E-03    -28.5104E+06    -58.4170E+06    -25.8003E+06    -2.00927E+06    -15.4092E-03     30.8378E-03    -15.4286E-03     6.47641E-03    -15.4297E-03     30.6245E-03    -15.4315E-03     6.44945E-03
             940     2.65866E-03     90.6613E-03    -27.0778E+06    -55.5916E+06    -21.6642E+06    -3.13466E+06    -15.3857E-03     30.8193E-03    -15.4336E-03     9.65443E-03    -15.4093E-03     30.6122E-03    -15.4220E-03     9.61239E-03
             941     3.54493E-03     90.6716E-03    -25.3562E+06    -52.6239E+06    -17.0178E+06    -4.27295E+06    -15.3643E-03     30.8005E-03    -15.4362E-03     12.9033E-03    -15.3904E-03     30.5992E-03    -15.4082E-03     12.8460E-03
             942     4.43125E-03     90.6849E-03    -23.3797E+06    -50.2300E+06    -12.2516E+06    -5.22856E+06    -15.3484E-03     30.7860E-03    -15.4376E-03     16.2171E-03    -15.3753E-03     30.5871E-03    -15.3921E-03     16.1466E-03
             943     5.31758E-03     90.7012E-03    -21.2221E+06    -48.1579E+06    -7.77633E+06    -6.01559E+06    -15.3403E-03     30.7767E-03    -15.4364E-03     19.6003E-03    -15.3662E-03     30.5789E-03    -15.3747E-03     19.5188E-03
             944     6.20398E-03     90.7206E-03    -18.9909E+06    -46.9870E+06    -3.91990E+06    -6.62619E+06    -15.3464E-03     30.7793E-03    -15.4329E-03     23.0563E-03    -15.3690E-03     30.5791E-03    -15.3568E-03     22.9658E-03
             945     7.09035E-03     90.7432E-03    -16.8213E+06    -45.5797E+06    -1.02099E+06    -7.15820E+06    -15.3651E-03     30.7898E-03    -15.4248E-03     26.5902E-03    -15.3839E-03     30.5901E-03    -15.3394E-03     26.4916E-03
             946     7.97682E-03     90.7691E-03    -14.7548E+06    -45.4730E+06     982.575E+03    -7.52997E+06    -15.4059E-03     30.8213E-03    -15.4154E-03     30.1724E-03    -15.4185E-03     30.6172E-03    -15.3231E-03     30.0673E-03
             947     8.86322E-03     90.7982E-03    -13.0321E+06    -44.6984E+06     1.66066E+06    -7.90358E+06    -15.4629E-03     30.8638E-03    -15.4009E-03     33.8023E-03    -15.4705E-03     30.6616E-03    -15.3088E-03     33.6903E-03
             948     9.74969E-03     90.8307E-03    -11.5550E+06    -42.5869E+06     1.84017E+06    -8.14399E+06    -15.5342E-03     30.9188E-03    -15.3846E-03     37.4493E-03    -15.5401E-03     30.7272E-03    -15.2969E-03     37.3316E-03
             949     10.6361E-03     90.8664E-03    -10.3663E+06    -43.2546E+06     1.36564E+06    -8.30267E+06    -15.6448E-03     31.0179E-03    -15.3731E-03     41.0666E-03    -15.6465E-03     30.8253E-03    -15.2885E-03     40.9433E-03
             950     11.5225E-03     90.9056E-03    -9.41697E+06    -40.7459E+06    -1.40076E+06    -8.27520E+06    -15.7777E-03     31.1282E-03    -15.3505E-03     44.5757E-03    -15.7794E-03     30.9559E-03    -15.2848E-03     44.4487E-03
             951     12.4088E-03     90.9477E-03    -8.61841E+06    -30.1385E+06    -506.648E+03    -7.95156E+06    -15.8734E-03     31.2117E-03    -15.3384E-03     48.1975E-03    -15.8955E-03     31.0978E-03    -15.2847E-03     48.0699E-03
             952     13.2952E-03     90.9936E-03    -7.54067E+06    -24.5547E+06    -1.84715E+06    -7.39431E+06    -16.0271E-03     31.3522E-03    -15.3251E-03     52.1563E-03    -16.0631E-03     31.2796E-03    -15.2877E-03     52.0306E-03
             953     14.1813E-03     91.0430E-03    -6.70623E+06    -13.5757E+06    -7.17561E+06    -6.42881E+06    -16.2702E-03     31.5597E-03    -15.2896E-03     57.6066E-03    -16.3364E-03     31.5748E-03    -15.2961E-03     57.4888E-03
             954     15.0677E-03     91.0991E-03    -5.98795E+06     20.2419E+06    -6.38444E+06    -4.08331E+06    -16.4238E-03     31.6778E-03    -15.2540E-03     65.8005E-03    -16.5898E-03     31.9129E-03    -15.3066E-03     65.7186E-03
             955     15.9535E-03     91.1638E-03    -4.73192E+06     81.8467E+06     15.0221E+06    -880.187E+03    -16.2888E-03     31.5635E-03    -15.2747E-03     71.9363E-03    -16.6472E-03     32.1521E-03    -15.3114E-03     71.9396E-03
             956     16.8406E-03     91.2332E-03    -3.28161E+06     118.697E+06     54.4932E+06    -92.2094E+03    -15.7229E-03     31.1404E-03    -15.4175E-03     49.3391E-03    -16.1297E-03     31.7989E-03    -15.3124E-03     49.3797E-03
             957     886.241E-06     91.6273E-03    -29.2497E+06    -58.2920E+06    -28.4745E+06    -884.866E+03    -15.3691E-03     30.7377E-03    -15.3685E-03     3.50720E-03    -15.3896E-03     30.5300E-03    -15.3839E-03     3.49526E-03
             958     1.77251E-03     91.6317E-03    -28.3555E+06    -56.1578E+06    -25.6910E+06    -1.88513E+06    -15.3501E-03     30.7245E-03    -15.3744E-03     6.48671E-03    -15.3733E-03     30.5222E-03    -15.3803E-03     6.46138E-03
             959     2.65880E-03     91.6390E-03    -26.8200E+06    -53.1573E+06    -21.3310E+06    -3.02171E+06    -15.3276E-03     30.7060E-03    -15.3784E-03     9.67506E-03    -15.3539E-03     30.5102E-03    -15.3691E-03     9.63451E-03
             960     3.54513E-03     91.6493E-03    -24.8331E+06    -50.2720E+06    -16.0753E+06    -4.10148E+06    -15.3053E-03     30.6883E-03    -15.3830E-03     12.9303E-03    -15.3337E-03     30.4966E-03    -15.3544E-03     12.8752E-03
             961     4.43147E-03     91.6625E-03    -22.6663E+06    -48.1089E+06    -11.0984E+06    -5.08065E+06    -15.2860E-03     30.6704E-03    -15.3844E-03     16.2551E-03    -15.3141E-03     30.4795E-03    -15.3373E-03     16.1867E-03
             962     5.31789E-03     91.6788E-03    -20.4804E+06    -46.1964E+06    -6.83643E+06    -5.93013E+06    -15.2744E-03     30.6552E-03    -15.3809E-03     19.6565E-03    -15.3008E-03     30.4648E-03    -15.3184E-03     19.5762E-03
             963     6.20430E-03     91.6981E-03    -18.3082E+06    -45.2767E+06    -3.19308E+06    -6.66734E+06    -15.2767E-03     30.6518E-03    -15.3751E-03     23.1373E-03    -15.2994E-03     30.4580E-03    -15.2988E-03     23.0464E-03
             964     7.09080E-03     91.7207E-03    -16.2480E+06    -44.0580E+06    -386.732E+03    -7.18440E+06    -15.2922E-03     30.6573E-03    -15.3651E-03     26.6993E-03    -15.3112E-03     30.4634E-03    -15.2796E-03     26.6005E-03
             965     7.97726E-03     91.7465E-03    -14.4210E+06    -44.1475E+06     1.47019E+06    -7.64207E+06    -15.3309E-03     30.6847E-03    -15.3539E-03     30.3166E-03    -15.3443E-03     30.4861E-03    -15.2616E-03     30.2102E-03
             966     8.86380E-03     91.7757E-03    -12.7284E+06    -43.4328E+06     2.20385E+06    -7.95999E+06    -15.3922E-03     30.7307E-03    -15.3385E-03     33.9746E-03    -15.4009E-03     30.5336E-03    -15.2460E-03     33.8621E-03
             967     9.75028E-03     91.8081E-03    -11.2863E+06    -41.4983E+06     2.40432E+06    -8.30430E+06    -15.4769E-03     30.7993E-03    -15.3223E-03     37.6546E-03    -15.4838E-03     30.6118E-03    -15.2338E-03     37.5349E-03
             968     10.6368E-03     91.8440E-03    -10.0678E+06    -42.5295E+06     1.92839E+06    -8.33621E+06    -15.6004E-03     30.9123E-03    -15.3120E-03     41.3053E-03    -15.6024E-03     30.7220E-03    -15.2261E-03     41.1818E-03
             969     11.5232E-03     91.8831E-03    -9.29790E+06    -39.9835E+06    -714.529E+03    -8.36241E+06    -15.7511E-03     31.0430E-03    -15.2919E-03     44.8666E-03    -15.7543E-03     30.8734E-03    -15.2240E-03     44.7386E-03
             970     12.4095E-03     91.9255E-03    -8.45042E+06    -29.7959E+06    -38.2411E+03    -8.35221E+06    -15.8651E-03     31.1470E-03    -15.2819E-03     48.4444E-03    -15.8875E-03     31.0337E-03    -15.2266E-03     48.3118E-03
             971     13.2959E-03     91.9711E-03    -7.73571E+06    -24.8833E+06    -1.59896E+06    -7.88599E+06    -16.0512E-03     31.3241E-03    -15.2730E-03     52.4299E-03    -16.0881E-03     31.2499E-03    -15.2337E-03     52.2979E-03
             972     14.1822E-03     92.0211E-03    -7.51563E+06    -14.5594E+06    -7.17888E+06    -6.70754E+06    -16.3409E-03     31.5849E-03    -15.2441E-03     57.8332E-03    -16.4096E-03     31.5961E-03    -15.2480E-03     57.7117E-03
             973     15.0681E-03     92.0769E-03    -7.64954E+06     17.3251E+06    -6.97819E+06    -4.62136E+06    -16.6843E-03     31.9060E-03    -15.2217E-03     66.1000E-03    -16.8547E-03     32.1310E-03    -15.2706E-03     66.0100E-03
             974     15.9540E-03     92.1427E-03    -6.27884E+06     78.9790E+06     13.3681E+06    -2.01289E+06    -16.6155E-03     31.8704E-03    -15.2549E-03     72.0193E-03    -16.9765E-03     32.4508E-03    -15.2935E-03     72.0063E-03
             975     16.8403E-03     92.2095E-03    -3.16042E+06     118.173E+06     53.6102E+06    -127.513E+03    -15.6766E-03     31.0811E-03    -15.4045E-03     49.2308E-03    -16.0810E-03     31.7383E-03    -15.3032E-03     49.2709E-03
             976     886.317E-06     92.6049E-03    -28.7206E+06    -56.4998E+06    -28.0754E+06    -850.566E+03    -15.2836E-03     30.5974E-03    -15.3138E-03     3.50801E-03    -15.3046E-03     30.3974E-03    -15.3306E-03     3.49653E-03
             977     1.77264E-03     92.6093E-03    -27.7552E+06    -53.9562E+06    -25.0088E+06    -1.74849E+06    -15.2740E-03     30.5774E-03    -15.3034E-03     6.50569E-03    -15.2984E-03     30.3842E-03    -15.3100E-03     6.48215E-03
             978     2.65899E-03     92.6166E-03    -26.3126E+06    -50.7656E+06    -20.6037E+06    -2.88086E+06    -15.2519E-03     30.5579E-03    -15.3060E-03     9.70185E-03    -15.2802E-03     30.3723E-03    -15.2973E-03     9.66317E-03
             979     3.54537E-03     92.6268E-03    -24.4097E+06    -47.9859E+06    -15.4470E+06    -3.99577E+06    -15.2252E-03     30.5345E-03    -15.3093E-03     12.9717E-03    -15.2556E-03     30.3527E-03    -15.2816E-03     12.9180E-03
             980     4.43181E-03     92.6400E-03    -22.1546E+06    -45.9418E+06    -10.2532E+06    -4.99839E+06    -15.2028E-03     30.5132E-03    -15.3105E-03     16.3116E-03    -15.2327E-03     30.3311E-03    -15.2630E-03     16.2443E-03
             981     5.31826E-03     92.6562E-03    -19.7934E+06    -44.2245E+06    -5.82312E+06    -5.87414E+06    -15.1865E-03     30.4925E-03    -15.3061E-03     19.7361E-03    -15.2138E-03     30.3095E-03    -15.2424E-03     19.6566E-03
             982     6.20481E-03     92.6756E-03    -17.5918E+06    -43.4935E+06    -2.32135E+06    -6.58475E+06    -15.1845E-03     30.4823E-03    -15.2977E-03     23.2440E-03    -15.2075E-03     30.2951E-03    -15.2208E-03     23.1544E-03
             983     7.09133E-03     92.6981E-03    -15.6079E+06    -42.6360E+06     322.695E+03    -7.10441E+06    -15.1987E-03     30.4842E-03    -15.2855E-03     26.8375E-03    -15.2175E-03     30.2954E-03    -15.1995E-03     26.7399E-03
             984     7.97794E-03     92.7239E-03    -13.8506E+06    -42.7095E+06     2.11701E+06    -7.48773E+06    -15.2375E-03     30.5099E-03    -15.2724E-03     30.4903E-03    -15.2511E-03     30.3165E-03    -15.1798E-03     30.3861E-03
             985     8.86450E-03     92.7530E-03    -12.4131E+06    -42.2129E+06     2.72746E+06    -7.91659E+06    -15.3066E-03     30.5626E-03    -15.2560E-03     34.2000E-03    -15.3162E-03     30.3703E-03    -15.1631E-03     34.0883E-03
             986     9.75109E-03     92.7856E-03    -11.1680E+06    -40.2107E+06     2.89270E+06    -8.25733E+06    -15.4050E-03     30.6449E-03    -15.2399E-03     37.9312E-03    -15.4137E-03     30.4628E-03    -15.1509E-03     37.8124E-03
             987     10.6376E-03     92.8213E-03    -10.0039E+06    -41.9126E+06     2.30931E+06    -8.48908E+06    -15.5488E-03     30.7802E-03    -15.2314E-03     41.6313E-03    -15.5518E-03     30.5922E-03    -15.1446E-03     41.5061E-03
             988     11.5241E-03     92.8606E-03    -8.83013E+06    -39.1213E+06    -133.571E+03    -8.46537E+06    -15.7136E-03     30.9273E-03    -15.2137E-03     45.2417E-03    -15.7165E-03     30.7603E-03    -15.1448E-03     45.1126E-03
             989     12.4105E-03     92.9030E-03    -8.06260E+06    -29.0811E+06     576.494E+03    -8.57803E+06    -15.8983E-03     31.1073E-03    -15.2090E-03     48.8301E-03    -15.9208E-03     30.9962E-03    -15.1522E-03     48.6947E-03
             990     13.2967E-03     92.9489E-03    -7.42457E+06    -25.3445E+06    -1.15387E+06    -8.05006E+06    -16.1618E-03     31.3717E-03    -15.2100E-03     52.8252E-03    -16.1973E-03     31.2943E-03    -15.1682E-03     52.6910E-03
             991     14.1828E-03     92.9989E-03    -7.21441E+06    -16.0595E+06    -6.78325E+06    -6.56723E+06    -16.4365E-03     31.6286E-03    -15.1921E-03     58.2353E-03    -16.5022E-03     31.6313E-03    -15.1922E-03     58.1154E-03
             992     15.0688E-03     93.0553E-03    -7.21415E+06     14.7019E+06    -6.66752E+06    -4.74471E+06    -16.7593E-03     31.9372E-03    -15.1779E-03     66.6923E-03    -16.9246E-03     32.1484E-03    -15.2221E-03     66.6008E-03
             993     15.9547E-03     93.1209E-03    -6.61464E+06     76.8437E+06     12.4903E+06    -2.51764E+06    -16.7835E-03     31.9970E-03    -15.2135E-03     72.6759E-03    -17.1428E-03     32.5693E-03    -15.2529E-03     72.6559E-03
             994     16.8398E-03     93.1888E-03    -3.63867E+06     117.120E+06     52.7773E+06    -790.817E+03    -15.8225E-03     31.1938E-03    -15.3713E-03     49.8496E-03    -16.2276E-03     31.8487E-03    -15.2720E-03     49.8806E-03
             995     886.378E-06     93.5823E-03    -27.5984E+06    -54.8650E+06    -26.8276E+06    -789.432E+03    -15.1889E-03     30.4166E-03    -15.2277E-03     3.50974E-03    -15.2084E-03     30.2212E-03    -15.2423E-03     3.49907E-03
             996     1.77280E-03     93.5868E-03    -26.8256E+06    -52.0293E+06    -24.1321E+06    -1.48638E+06    -15.1796E-03     30.3904E-03    -15.2108E-03     6.52909E-03    -15.2034E-03     30.2043E-03    -15.2172E-03     6.50898E-03
             997     2.65924E-03     93.5940E-03    -25.6130E+06    -48.5011E+06    -19.9423E+06    -2.48140E+06    -15.1499E-03     30.3603E-03    -15.2105E-03     9.73450E-03    -15.1789E-03     30.1841E-03    -15.2027E-03     9.70104E-03
             998     3.54572E-03     93.6042E-03    -24.0277E+06    -45.6685E+06    -14.9073E+06    -3.63446E+06    -15.1182E-03     30.3296E-03    -15.2114E-03     13.0244E-03    -15.1509E-03     30.1580E-03    -15.1848E-03     12.9754E-03
             999     4.43223E-03     93.6173E-03    -22.0684E+06    -43.6601E+06    -9.85957E+06    -4.82829E+06    -15.0895E-03     30.2996E-03    -15.2101E-03     16.3892E-03    -15.1229E-03     30.1282E-03    -15.1640E-03     16.3242E-03
            1000     5.31881E-03     93.6335E-03    -19.8403E+06    -42.2346E+06    -5.34393E+06    -5.81710E+06    -15.0686E-03     30.2730E-03    -15.2044E-03     19.8415E-03    -15.0998E-03     30.0993E-03    -15.1411E-03     19.7630E-03
            1001     6.20541E-03     93.6528E-03    -17.5798E+06    -41.8034E+06    -1.83885E+06    -6.50164E+06    -15.0635E-03     30.2576E-03    -15.1941E-03     23.3839E-03    -15.0895E-03     30.0782E-03    -15.1172E-03     23.2955E-03
            1002     7.09209E-03     93.6753E-03    -15.5751E+06    -41.2499E+06     638.142E+03    -6.92919E+06    -15.0761E-03     30.2554E-03    -15.1793E-03     27.0192E-03    -15.0972E-03     30.0729E-03    -15.0937E-03     26.9241E-03
            1003     7.97875E-03     93.7010E-03    -13.8198E+06    -41.3152E+06     2.34373E+06    -7.34521E+06    -15.1190E-03     30.2830E-03    -15.1639E-03     30.7272E-03    -15.1348E-03     30.0962E-03    -15.0723E-03     30.6251E-03
            1004     8.86547E-03     93.7302E-03    -12.2615E+06    -40.9335E+06     3.09878E+06    -7.70554E+06    -15.1949E-03     30.3422E-03    -15.1473E-03     34.4957E-03    -15.2060E-03     30.1555E-03    -15.0546E-03     34.3870E-03
            1005     9.75213E-03     93.7627E-03    -11.0222E+06    -38.9783E+06     3.27778E+06    -8.08251E+06    -15.3078E-03     30.4391E-03    -15.1313E-03     38.3008E-03    -15.3180E-03     30.2623E-03    -15.0424E-03     38.1846E-03
            1006     10.6388E-03     93.7987E-03    -9.90183E+06    -40.7013E+06     2.86348E+06    -8.57880E+06    -15.4777E-03     30.6029E-03    -15.1252E-03     42.0668E-03    -15.4827E-03     30.4199E-03    -15.0375E-03     41.9408E-03
            1007     11.5253E-03     93.8379E-03    -8.87018E+06    -38.5035E+06     312.823E+03    -8.86371E+06    -15.6917E-03     30.8037E-03    -15.1120E-03     45.7365E-03    -15.6962E-03     30.6391E-03    -15.0417E-03     45.6026E-03
            1008     12.4117E-03     93.8806E-03     -7.7776E+06    -28.3281E+06     1.33398E+06    -8.75188E+06    -15.9313E-03     31.0464E-03    -15.1150E-03     49.3962E-03    -15.9546E-03     30.9376E-03    -15.0560E-03     49.2587E-03
            1009     13.2979E-03     93.9267E-03    -6.97164E+06    -25.9641E+06    -446.875E+03    -8.22031E+06    -16.2289E-03     31.3552E-03    -15.1262E-03     53.4719E-03    -16.2624E-03     31.2730E-03    -15.0807E-03     53.3356E-03
            1010     14.1839E-03     93.9770E-03    -6.54229E+06    -17.9379E+06    -6.42071E+06    -6.64019E+06    -16.5403E-03     31.6578E-03    -15.1175E-03     58.9184E-03    -16.6009E-03     31.6501E-03    -15.1141E-03     58.7975E-03
            1011     15.0699E-03     94.0331E-03    -6.69197E+06     12.8069E+06    -5.65455E+06    -4.34723E+06    -16.9124E-03     32.0298E-03    -15.1174E-03     67.3986E-03    -17.0744E-03     32.2299E-03    -15.1545E-03     67.3118E-03
            1012     15.9555E-03     94.0998E-03    -6.36550E+06     75.2263E+06     12.8356E+06    -2.64459E+06    -16.8417E-03     32.0002E-03    -15.1585E-03     72.6611E-03    -17.1969E-03     32.5626E-03    -15.1941E-03     72.6394E-03
            1013     16.8430E-03     94.1663E-03    -3.77722E+06     116.034E+06     52.1561E+06    -1.46920E+06    -16.0993E-03     31.4226E-03    -15.3233E-03     49.3280E-03    -16.5012E-03     32.0717E-03    -15.2253E-03     49.3494E-03
            1014     886.511E-06     94.5596E-03    -27.6272E+06    -53.4319E+06    -26.9805E+06    -668.246E+03    -15.0812E-03     30.1702E-03    -15.0890E-03     3.53190E-03    -15.1027E-03     29.9822E-03    -15.1064E-03     3.52281E-03
            1015     1.77301E-03     94.5640E-03    -26.7367E+06    -50.4740E+06    -24.2552E+06    -1.24778E+06    -15.0542E-03     30.1406E-03    -15.0864E-03     6.55493E-03    -15.0796E-03     29.9622E-03    -15.0957E-03     6.53795E-03
            1016     2.65956E-03     94.5713E-03    -25.4641E+06    -46.5699E+06    -19.9564E+06    -1.99303E+06    -15.0147E-03     30.0984E-03    -15.0837E-03     9.78303E-03    -15.0457E-03     29.9316E-03    -15.0790E-03     9.75595E-03
            1017     3.54615E-03     94.5814E-03    -23.8615E+06    -43.4040E+06    -14.6380E+06    -3.06346E+06    -14.9766E-03     30.0589E-03    -15.0823E-03     13.0936E-03    -15.0121E-03     29.8981E-03    -15.0580E-03     13.0522E-03
            1018     4.43281E-03     94.5945E-03    -22.0559E+06    -41.2929E+06    -9.49032E+06    -4.28639E+06    -14.9414E-03     30.0199E-03    -15.0785E-03     16.4879E-03    -14.9785E-03     29.8597E-03    -15.0341E-03     16.4300E-03
            1019     5.31949E-03     94.6105E-03    -20.1775E+06    -40.1446E+06    -5.14981E+06    -5.43563E+06    -14.9164E-03     29.9865E-03    -15.0701E-03     19.9771E-03    -14.9525E-03     29.8234E-03    -15.0084E-03     19.9036E-03
            1020     6.20626E-03     94.6298E-03    -18.2348E+06    -40.1029E+06    -1.81022E+06    -6.27918E+06    -14.9065E-03     29.9639E-03    -15.0574E-03     23.5619E-03    -14.9383E-03     29.7938E-03    -14.9819E-03     23.4767E-03
            1021     7.09304E-03     94.6522E-03    -16.2437E+06    -39.9396E+06     553.286E+03    -6.77349E+06    -14.9183E-03     29.9585E-03    -15.0402E-03     27.2512E-03    -14.9444E-03     29.7836E-03    -14.9560E-03     27.1584E-03
            1022     7.97989E-03     94.6780E-03    -14.3570E+06    -39.7770E+06     2.25559E+06    -7.26005E+06    -14.9637E-03     29.9860E-03    -15.0223E-03     31.0297E-03    -14.9841E-03     29.8077E-03    -14.9326E-03     30.9291E-03
            1023     8.86668E-03     94.7071E-03    -12.6902E+06    -39.8731E+06     3.12249E+06    -7.64764E+06    -15.0527E-03     30.0583E-03    -15.0057E-03     34.8713E-03    -15.0674E-03     29.8774E-03    -14.9138E-03     34.7637E-03
            1024     9.75350E-03     94.7397E-03    -11.2705E+06    -37.6705E+06     3.61211E+06    -7.90153E+06    -15.1821E-03     30.1729E-03    -14.9909E-03     38.7557E-03    -15.1958E-03     30.0025E-03    -14.9019E-03     38.6422E-03
            1025     10.6402E-03     94.7757E-03    -10.0798E+06    -39.0848E+06     3.54504E+06    -8.63064E+06    -15.3896E-03     30.3778E-03    -14.9882E-03     42.6013E-03    -15.3987E-03     30.2021E-03    -14.8992E-03     42.4749E-03
            1026     11.5268E-03     94.8152E-03    -9.06856E+06    -37.6803E+06     1.02734E+06    -9.06809E+06    -15.6568E-03     30.6384E-03    -14.9815E-03     46.3699E-03    -15.6645E-03     30.4771E-03    -14.9086E-03     46.2337E-03
            1027     12.4132E-03     94.8581E-03    -8.16818E+06    -27.7649E+06     1.89655E+06    -9.16231E+06    -15.9374E-03     30.9294E-03    -14.9920E-03     50.1465E-03    -15.9642E-03     30.8231E-03    -14.9304E-03     50.0040E-03
            1028     13.2994E-03     94.9045E-03    -7.11194E+06    -26.4201E+06     254.698E+03    -8.58616E+06    -16.2905E-03     31.3050E-03    -15.0145E-03     54.1347E-03    -16.3251E-03     31.2199E-03    -14.9646E-03     53.9938E-03
            1029     14.1856E-03     94.9548E-03    -6.36762E+06    -19.0989E+06    -5.58654E+06    -7.07104E+06    -16.7387E-03     31.7599E-03    -15.0212E-03     59.5104E-03    -16.7986E-03     31.7456E-03    -15.0122E-03     59.3835E-03
            1030     15.0711E-03     95.0117E-03    -5.32728E+06     10.1797E+06    -4.15348E+06    -4.57751E+06    -17.0674E-03     32.1074E-03    -15.0400E-03     67.9126E-03    -17.2216E-03     32.2909E-03    -15.0678E-03     67.8223E-03
            1031     15.9567E-03     95.0783E-03    -4.78191E+06     73.3000E+06     14.0701E+06    -2.32438E+06    -17.1013E-03     32.1945E-03    -15.0931E-03     73.3010E-03    -17.4492E-03     32.7448E-03    -15.1221E-03     73.2819E-03
            1032     16.8408E-03     95.1448E-03    -3.70235E+06     115.160E+06     51.8840E+06    -1.51714E+06    -16.6161E-03     31.8899E-03    -15.2737E-03     50.0654E-03    -17.0183E-03     32.5372E-03    -15.1759E-03     50.0842E-03
            1033     886.619E-06     95.5366E-03    -28.6198E+06    -51.9300E+06    -28.0779E+06    -833.863E+03    -14.9270E-03     29.8469E-03    -14.9199E-03     3.54644E-03    -14.9541E-03     29.6695E-03    -14.9435E-03     3.53525E-03
            1034     1.77329E-03     95.5410E-03    -27.4618E+06    -49.1520E+06    -25.2095E+06    -1.36425E+06    -14.8867E-03     29.8102E-03    -14.9235E-03     6.59079E-03    -14.9162E-03     29.6408E-03    -14.9384E-03     6.57236E-03
            1035     2.65998E-03     95.5482E-03    -25.8429E+06    -45.0938E+06    -20.6637E+06    -1.83638E+06    -14.8428E-03     29.7611E-03    -14.9183E-03     9.84733E-03    -14.8768E-03     29.6032E-03    -14.9187E-03     9.82236E-03
            1036     3.54673E-03     95.5583E-03    -24.0159E+06    -41.4439E+06    -14.9991E+06    -2.55271E+06    -14.7944E-03     29.7085E-03    -14.9141E-03     13.1806E-03    -14.8329E-03     29.5582E-03    -14.8942E-03     13.1459E-03
            1037     4.43354E-03     95.5712E-03    -22.0912E+06    -39.0648E+06    -9.34305E+06    -3.61374E+06    -14.7535E-03     29.6620E-03    -14.9086E-03     16.6102E-03    -14.7942E-03     29.5128E-03    -14.8666E-03     16.5612E-03
            1038     5.32041E-03     95.5873E-03    -20.1515E+06    -38.0219E+06    -4.75284E+06    -4.73135E+06    -14.7249E-03     29.6230E-03    -14.8981E-03     20.1390E-03    -14.7645E-03     29.4698E-03    -14.8375E-03     20.0748E-03
            1039     6.20732E-03     95.6064E-03    -18.3499E+06    -38.2953E+06    -1.46985E+06    -5.68756E+06    -14.7140E-03     29.5971E-03    -14.8830E-03     23.7718E-03    -14.7494E-03     29.4356E-03    -14.8082E-03     23.6944E-03
            1040     7.09429E-03     95.6289E-03    -16.6310E+06    -38.4339E+06     692.493E+03    -6.46367E+06    -14.7246E-03     29.5879E-03    -14.8633E-03     27.5242E-03    -14.7549E-03     29.4208E-03    -14.7800E-03     27.4357E-03
            1041     7.98127E-03     95.6545E-03    -14.9453E+06    -38.2206E+06     2.20023E+06    -7.11162E+06    -14.7720E-03     29.6149E-03    -14.8428E-03     31.3819E-03    -14.7974E-03     29.4452E-03    -14.7548E-03     31.2835E-03
            1042     8.86829E-03     95.6837E-03    -13.4416E+06    -38.8245E+06     3.10246E+06    -7.49746E+06    -14.8759E-03     29.7024E-03    -14.8266E-03     35.3087E-03    -14.8957E-03     29.5277E-03    -14.7353E-03     35.2034E-03
            1043     9.75521E-03     95.7163E-03    -12.1134E+06    -36.4412E+06     3.67447E+06    -7.82117E+06    -15.0348E-03     29.8480E-03    -14.8132E-03     39.2879E-03    -15.0545E-03     29.6847E-03    -14.7244E-03     39.1759E-03
            1044     10.6421E-03     95.7526E-03    -10.9052E+06    -37.1229E+06     3.98481E+06    -8.56360E+06    -15.2810E-03     30.0961E-03    -14.8150E-03     43.2455E-03    -15.2976E-03     29.9306E-03    -14.7255E-03     43.1205E-03
            1045     11.5287E-03     95.7922E-03    -9.86136E+06    -36.8216E+06     1.53409E+06    -9.25325E+06    -15.5996E-03     30.4161E-03    -14.8165E-03     47.0886E-03    -15.6131E-03     30.2595E-03    -14.7412E-03     46.9503E-03
            1046     12.4153E-03     95.8354E-03    -8.91444E+06    -26.7908E+06     2.42199E+06    -9.34952E+06    -15.9541E-03     30.7905E-03    -14.8365E-03     50.9235E-03    -15.9868E-03     30.6895E-03    -14.7726E-03     50.7788E-03
            1047     13.3014E-03     95.8822E-03    -8.08288E+06    -26.5489E+06     707.172E+03    -9.13497E+06    -16.4435E-03     31.3191E-03    -14.8756E-03     54.9197E-03    -16.4838E-03     31.2344E-03    -14.8219E-03     54.7716E-03
            1048     14.1870E-03     95.9329E-03     -7.0678E+06    -20.7411E+06    -5.48328E+06    -7.81666E+06    -16.9546E-03     31.8561E-03    -14.9016E-03     60.3726E-03    -17.0165E-03     31.8353E-03    -14.8887E-03     60.2356E-03
            1049     15.0726E-03     95.9903E-03    -6.29297E+06     7.14062E+06    -4.16414E+06    -5.55195E+06    -17.3049E-03     32.2465E-03    -14.9417E-03     68.3829E-03    -17.4603E-03     32.4170E-03    -14.9637E-03     68.2792E-03
            1050     15.9585E-03     96.0561E-03    -4.55613E+06     71.0250E+06     13.9946E+06    -2.71163E+06    -17.4332E-03     32.4456E-03    -15.0124E-03     73.6725E-03    -17.7787E-03     32.9864E-03    -15.0388E-03     73.6469E-03
            1051     16.8453E-03     96.1251E-03    -2.91772E+06     114.558E+06     51.7121E+06    -873.910E+03    -17.1780E-03     32.3942E-03    -15.2161E-03     50.3127E-03    -17.5767E-03     33.0392E-03    -15.1195E-03     50.3376E-03
            1052     886.805E-06     96.5133E-03    -27.8207E+06    -50.2699E+06    -27.2600E+06    -838.484E+03    -14.7218E-03     29.4451E-03    -14.7233E-03     3.57269E-03    -14.7485E-03     29.2737E-03    -14.7464E-03     3.56148E-03
            1053     1.77364E-03     96.5176E-03    -27.2827E+06    -47.8034E+06    -25.2507E+06    -1.42174E+06    -14.6812E-03     29.4003E-03    -14.7190E-03     6.64025E-03    -14.7118E-03     29.2375E-03    -14.7364E-03     6.62115E-03
            1054     2.66051E-03     96.5248E-03    -26.1959E+06    -44.0276E+06    -21.6020E+06    -1.77942E+06    -14.6280E-03     29.3364E-03    -14.7084E-03     9.91928E-03    -14.6640E-03     29.1857E-03    -14.7146E-03     9.89516E-03
            1055     3.54746E-03     96.5347E-03    -24.7083E+06    -40.0617E+06    -16.2047E+06    -2.08851E+06    -14.5691E-03     29.2688E-03    -14.6996E-03     13.2862E-03    -14.6114E-03     29.1281E-03    -14.6867E-03     13.2576E-03
            1056     4.43447E-03     96.5477E-03    -23.0046E+06    -37.0367E+06    -10.2215E+06    -2.89169E+06    -14.5177E-03     29.2090E-03    -14.6913E-03     16.7536E-03    -14.5647E-03     29.0725E-03    -14.6553E-03     16.7141E-03
            1057     5.32154E-03     96.5636E-03    -21.2063E+06    -36.1234E+06    -5.17398E+06    -3.91427E+06    -14.4835E-03     29.1633E-03    -14.6798E-03     20.3270E-03    -14.5304E-03     29.0217E-03    -14.6226E-03     20.2737E-03
            1058     6.20867E-03     96.5828E-03    -19.4132E+06    -36.3761E+06    -1.71987E+06    -4.90084E+06    -14.4710E-03     29.1334E-03    -14.6624E-03     24.0211E-03    -14.5140E-03     28.9834E-03    -14.5901E-03     23.9542E-03
            1059     7.09583E-03     96.6051E-03    -17.7658E+06    -36.7186E+06     453.666E+03    -5.84348E+06    -14.4874E-03     29.1283E-03    -14.6410E-03     27.8457E-03    -14.5255E-03     28.9717E-03    -14.5597E-03     27.7655E-03
            1060     7.98305E-03     96.6308E-03    -16.3444E+06    -36.6312E+06     1.86429E+06    -6.60973E+06    -14.5468E-03     29.1664E-03    -14.6197E-03     31.7907E-03    -14.5809E-03     29.0071E-03    -14.5335E-03     31.6992E-03
            1061     8.87021E-03     96.6599E-03    -14.9526E+06    -37.5990E+06     2.73572E+06    -7.23308E+06    -14.6701E-03     29.2747E-03    -14.6046E-03     35.8066E-03    -14.6986E-03     29.1087E-03    -14.5147E-03     35.7052E-03
            1062     9.75737E-03     96.6927E-03    -13.5074E+06    -35.1326E+06     3.39667E+06    -7.72339E+06    -14.8641E-03     29.4583E-03    -14.5942E-03     39.9037E-03    -14.8921E-03     29.3037E-03    -14.5067E-03     39.7935E-03
            1063     10.6443E-03     96.7291E-03    -12.2562E+06    -35.2767E+06     3.97955E+06    -8.43161E+06    -15.1586E-03     29.7606E-03    -14.6020E-03     43.9666E-03    -15.1844E-03     29.6061E-03    -14.5132E-03     43.8437E-03
            1064     11.5312E-03     96.7691E-03    -11.1951E+06    -35.3263E+06     1.96799E+06    -9.35010E+06    -15.5697E-03     30.1857E-03    -14.6159E-03     47.8994E-03    -15.5926E-03     30.0377E-03    -14.5386E-03     47.7602E-03
            1065     12.4175E-03     96.8126E-03    -10.1141E+06    -26.1633E+06     2.57868E+06    -9.66428E+06    -16.0116E-03     30.6617E-03    -14.6501E-03     51.7767E-03    -16.0515E-03     30.5653E-03    -14.5846E-03     51.6282E-03
            1066     13.3037E-03     96.8599E-03    -9.09220E+06    -26.3331E+06     940.248E+03    -9.40077E+06    -16.5610E-03     31.2681E-03    -14.7071E-03     55.9129E-03    -16.6072E-03     31.1859E-03    -14.6510E-03     55.7614E-03
            1067     14.1893E-03     96.9112E-03    -8.49199E+06    -22.0915E+06    -5.79190E+06    -8.68209E+06    -17.2053E-03     31.9592E-03    -14.7539E-03     61.2946E-03    -17.2726E-03     31.9347E-03    -14.7385E-03     61.1460E-03
            1068     15.0748E-03     96.9687E-03    -7.65467E+06     4.62741E+06    -4.45580E+06    -6.39422E+06    -17.8848E-03     32.7123E-03    -14.8275E-03     69.0153E-03    -18.0450E-03     32.8747E-03    -14.8454E-03     68.8985E-03
            1069     15.9591E-03     97.0356E-03    -6.49105E+06     68.4846E+06     13.3146E+06    -3.64031E+06    -18.2167E-03     33.1575E-03    -14.9408E-03     73.9194E-03    -18.5700E-03     33.6923E-03    -14.9641E-03     73.8774E-03
            1070     16.8426E-03     97.1037E-03    -3.43351E+06     112.547E+06     51.0462E+06    -1.28822E+06    -17.5398E-03     32.7159E-03    -15.1761E-03     50.3239E-03    -17.9385E-03     33.3539E-03    -15.0791E-03     50.3408E-03
            1071     887.041E-06     97.4895E-03    -28.3132E+06    -48.8583E+06    -27.7366E+06    -574.771E+03    -14.4486E-03     28.9224E-03    -14.4738E-03     3.58896E-03    -14.4791E-03     28.7594E-03    -14.5005E-03     3.58120E-03
            1072     1.77408E-03     97.4938E-03    -27.8773E+06    -46.5310E+06    -25.8603E+06    -1.04614E+06    -14.4201E-03     28.8775E-03    -14.4574E-03     6.70095E-03    -14.4546E-03     28.7228E-03    -14.4789E-03     6.68677E-03
            1073     2.66120E-03     97.5008E-03    -27.1886E+06    -43.2238E+06    -22.6639E+06    -1.34383E+06    -14.3649E-03     28.8105E-03    -14.4456E-03     10.0095E-03    -14.4054E-03     28.6668E-03    -14.4569E-03     9.99115E-03
            1074     3.54837E-03     97.5108E-03    -26.0093E+06    -39.1940E+06    -17.9281E+06    -1.53802E+06    -14.2982E-03     28.7310E-03    -14.4328E-03     13.4112E-03    -14.3457E-03     28.5990E-03    -14.4279E-03     13.3899E-03
            1075     4.43562E-03     97.5236E-03    -24.5425E+06    -35.5501E+06    -11.9693E+06    -1.92631E+06    -14.2328E-03     28.6540E-03    -14.4211E-03     16.9175E-03    -14.2871E-03     28.5296E-03    -14.3938E-03     16.8907E-03
            1076     5.32294E-03     97.5396E-03    -23.0456E+06    -34.3651E+06    -6.39482E+06    -2.77424E+06    -14.1884E-03     28.5972E-03    -14.4088E-03     20.5451E-03    -14.2453E-03     28.4688E-03    -14.3575E-03     20.5067E-03
            1077     6.21032E-03     97.5585E-03    -21.4879E+06    -34.4413E+06    -2.57603E+06    -3.92138E+06    -14.1761E-03     28.5663E-03    -14.3902E-03     24.3061E-03    -14.2310E-03     28.4301E-03    -14.3219E-03     24.2522E-03
            1078     7.09777E-03     97.5809E-03    -19.9545E+06    -34.9813E+06    -265.652E+03    -4.94919E+06    -14.2063E-03     28.5746E-03    -14.3683E-03     28.2080E-03    -14.2567E-03     28.4308E-03    -14.2900E-03     28.1397E-03
            1079     7.98518E-03     97.6065E-03    -18.5410E+06    -34.9816E+06     1.19397E+06    -5.81956E+06    -14.2864E-03     28.6344E-03    -14.3480E-03     32.2454E-03    -14.3327E-03     28.4872E-03    -14.2644E-03     32.1646E-03
            1080     8.87261E-03     97.6358E-03    -17.1642E+06    -35.8706E+06     2.09769E+06    -6.83291E+06    -14.4412E-03     28.7770E-03    -14.3358E-03     36.3769E-03    -14.4821E-03     28.6235E-03    -14.2484E-03     36.2812E-03
            1081     9.75987E-03     97.6686E-03    -15.6863E+06    -33.7796E+06     2.77132E+06    -7.69225E+06    -14.6761E-03     29.0073E-03    -14.3312E-03     40.5986E-03    -14.7158E-03     28.8634E-03    -14.2456E-03     40.4893E-03
            1082     10.6471E-03     97.7053E-03    -14.0783E+06    -33.4420E+06     3.65805E+06    -8.46214E+06    -15.0444E-03     29.3925E-03    -14.3481E-03     44.8003E-03    -15.0814E-03     29.2502E-03    -14.2609E-03     44.6776E-03
            1083     11.5338E-03     97.7456E-03    -12.6124E+06    -33.3997E+06     2.39049E+06    -9.49764E+06    -15.5461E-03     29.9244E-03    -14.3783E-03     48.8785E-03    -15.5794E-03     29.7875E-03    -14.2997E-03     48.7378E-03
            1084     12.4203E-03     97.7898E-03    -11.2892E+06    -25.4643E+06     2.81496E+06    -10.0902E+06    -16.0671E-03     30.4971E-03    -14.4300E-03     52.8242E-03    -16.1143E-03     30.4057E-03    -14.3626E-03     52.6704E-03
            1085     13.3063E-03     97.8373E-03    -9.82208E+06    -26.0549E+06     1.24361E+06    -10.0848E+06    -16.7355E-03     31.2436E-03    -14.5081E-03     57.0474E-03    -16.7866E-03     31.1637E-03    -14.4499E-03     56.8870E-03
            1086     14.1919E-03     97.8896E-03    -8.41256E+06    -22.7173E+06    -5.09400E+06    -9.40280E+06    -17.5618E-03     32.1460E-03    -14.5842E-03     62.3839E-03    -17.6296E-03     32.1181E-03    -14.5645E-03     62.2251E-03
            1087     15.0763E-03     97.9478E-03    -7.64687E+06     1.77942E+06    -3.91884E+06    -7.22918E+06    -18.4419E-03     33.1367E-03    -14.6947E-03     70.4109E-03    -18.6012E-03     33.2865E-03    -14.7058E-03     70.2811E-03
            1088     15.9609E-03     98.0156E-03    -6.20767E+06     65.7859E+06     12.8082E+06    -4.05415E+06    -18.7851E-03     33.6230E-03    -14.8380E-03     75.5799E-03    -19.1361E-03     34.1484E-03    -14.8603E-03     75.5292E-03
            1089     16.8455E-03     98.0844E-03    -3.49437E+06     110.783E+06     49.9532E+06    -1.66219E+06    -18.2111E-03     33.3157E-03    -15.1047E-03     51.8083E-03    -18.6088E-03     33.9495E-03    -15.0105E-03     51.8176E-03
            1090     887.299E-06     98.4652E-03    -30.0642E+06    -47.9448E+06    -29.4963E+06    -311.277E+03    -14.1048E-03     28.2671E-03    -14.1623E-03     3.62471E-03    -14.1428E-03     28.1138E-03    -14.1966E-03     3.62039E-03
            1091     1.77468E-03     98.4694E-03    -29.6379E+06    -45.7865E+06    -27.3418E+06    -485.287E+03    -14.0924E-03     28.2238E-03    -14.1314E-03     6.76741E-03    -14.1346E-03     28.0775E-03    -14.1587E-03     6.76057E-03
            1092     2.66204E-03     98.4765E-03    -28.8969E+06    -42.6386E+06    -23.9829E+06    -624.198E+03    -14.0424E-03     28.1636E-03    -14.1212E-03     10.1120E-03    -14.0904E-03     28.0272E-03    -14.1374E-03     10.1030E-03
            1093     3.54949E-03     98.4863E-03    -27.9121E+06    -38.7250E+06    -19.6843E+06    -720.193E+03    -13.9742E-03     28.0816E-03    -14.1075E-03     13.5557E-03    -14.0293E-03     27.9573E-03    -14.1093E-03     13.5451E-03
            1094     4.43702E-03     98.4991E-03    -26.6271E+06    -34.7869E+06    -14.1775E+06    -842.724E+03    -13.9003E-03     27.9932E-03    -14.0929E-03     17.1051E-03    -13.9628E-03     27.8788E-03    -14.0747E-03     17.0925E-03
            1095     5.32465E-03     98.5148E-03    -25.0882E+06    -32.8389E+06    -8.10281E+06    -1.43025E+06    -13.8488E-03     27.9292E-03    -14.0803E-03     20.7835E-03    -13.9156E-03     27.8137E-03    -14.0368E-03     20.7628E-03
            1096     6.21233E-03     98.5338E-03    -23.6042E+06    -32.5434E+06    -3.49882E+06    -2.53911E+06    -13.8411E-03     27.9051E-03    -14.0640E-03     24.6133E-03    -13.9079E-03     27.7827E-03    -14.0000E-03     24.5776E-03
            1097     7.10003E-03     98.5560E-03    -22.2156E+06    -33.2044E+06    -1.00975E+06    -3.76622E+06    -13.8869E-03     27.9306E-03    -14.0437E-03     28.6016E-03    -13.9499E-03     27.7998E-03    -13.9684E-03     28.5491E-03
            1098     7.98776E-03     98.5818E-03    -20.7566E+06    -33.1435E+06     494.426E+03    -4.96499E+06    -13.9946E-03     28.0205E-03    -14.0259E-03     32.7455E-03    -14.0536E-03     27.8866E-03    -13.9452E-03     32.6762E-03
            1099     8.87537E-03     98.6110E-03    -19.2095E+06    -33.6706E+06     1.60233E+06    -6.32953E+06    -14.1892E-03     28.2082E-03    -14.0190E-03     37.0034E-03    -14.2426E-03     28.0692E-03    -13.9343E-03     36.9147E-03
            1100     9.76292E-03     98.6442E-03    -17.6096E+06    -32.0634E+06     2.40425E+06    -7.60319E+06    -14.4840E-03     28.5078E-03    -14.0238E-03     41.3658E-03    -14.5351E-03     28.3756E-03    -13.9397E-03     41.2582E-03
            1101     10.6501E-03     98.6810E-03    -15.8846E+06    -31.4168E+06     3.35879E+06    -8.76512E+06    -14.9203E-03     28.9724E-03    -14.0521E-03     45.7749E-03    -14.9686E-03     28.8430E-03    -13.9667E-03     45.6488E-03
            1102     11.5371E-03     98.7221E-03    -14.1180E+06    -31.4336E+06     2.66754E+06    -9.88106E+06    -15.4874E-03     29.5868E-03    -14.0994E-03     50.0103E-03    -15.5314E-03     29.4614E-03    -14.0200E-03     49.8652E-03
            1103     12.4235E-03     98.7665E-03    -12.4247E+06    -24.2476E+06     3.25922E+06    -10.6530E+06    -16.1496E-03     30.3213E-03    -14.1717E-03     54.0443E-03    -16.2049E-03     30.2371E-03    -14.1023E-03     53.8834E-03
            1104     13.3096E-03     98.8150E-03    -10.8389E+06    -25.2853E+06     1.56731E+06    -11.0188E+06    -16.9825E-03     31.2586E-03    -14.2761E-03     58.4188E-03    -17.0407E-03     31.1840E-03    -14.2159E-03     58.2461E-03
            1105     14.1945E-03     98.8681E-03    -9.41005E+06    -23.2718E+06    -4.73485E+06    -10.6079E+06    -17.9427E-03     32.3287E-03    -14.3861E-03     63.8817E-03    -18.0164E-03     32.3002E-03    -14.3623E-03     63.7063E-03
            1106     15.0796E-03     98.9271E-03    -7.49473E+06    -1.52185E+06    -3.70228E+06    -8.31717E+06    -18.8560E-03     33.3866E-03    -14.5307E-03     71.8131E-03    -19.0121E-03     33.5215E-03    -14.5361E-03     71.6673E-03
            1107     15.9632E-03     98.9961E-03    -5.73724E+06     62.7633E+06     13.5203E+06    -5.09668E+06    -19.4291E-03     34.1411E-03    -14.7119E-03     76.0666E-03    -19.7766E-03     34.6518E-03    -14.7270E-03     75.9985E-03
            1108     16.8474E-03     99.0637E-03    -3.34555E+06     109.035E+06     50.2902E+06    -2.13425E+06    -19.2600E-03     34.2861E-03    -15.0261E-03     51.4434E-03    -19.6562E-03     34.9116E-03    -14.9279E-03     51.4415E-03
            1109     887.676E-06     99.4401E-03    -32.0632E+06    -47.7729E+06    -31.3424E+06     84.6991E+03    -13.7288E-03     27.4801E-03    -13.7513E-03     3.67139E-03    -13.7744E-03     27.3332E-03    -13.7922E-03     3.67223E-03
            1110     1.77532E-03     99.4444E-03    -31.7719E+06    -45.6917E+06    -29.2799E+06     256.288E+03    -13.7010E-03     27.4398E-03    -13.7388E-03     6.84287E-03    -13.7512E-03     27.2999E-03    -13.7728E-03     6.84569E-03
            1111     2.66307E-03     99.4513E-03    -31.2631E+06    -42.5651E+06    -26.0295E+06     387.002E+03    -13.6514E-03     27.3808E-03    -13.7294E-03     10.2252E-03    -13.7084E-03     27.2512E-03    -13.7525E-03     10.2294E-03
            1112     3.55085E-03     99.4611E-03    -30.4796E+06    -38.6294E+06    -21.7090E+06     450.698E+03    -13.5888E-03     27.3061E-03    -13.7174E-03     13.7073E-03    -13.6539E-03     27.1888E-03    -13.7257E-03     13.7120E-03
            1113     4.43872E-03     99.4737E-03    -29.3533E+06    -34.5382E+06    -16.4487E+06     385.242E+03    -13.5218E-03     27.2256E-03    -13.7037E-03     17.3016E-03    -13.5950E-03     27.1196E-03    -13.6933E-03     17.3051E-03
            1114     5.32666E-03     99.4895E-03    -27.9744E+06    -31.7739E+06    -10.4636E+06    -29.5638E+03    -13.4726E-03     27.1647E-03    -13.6921E-03     21.0363E-03    -13.5518E-03     27.0621E-03    -13.6578E-03     21.0340E-03
            1115     6.21467E-03     99.5083E-03    -26.3954E+06    -30.8197E+06    -5.15883E+06    -1.02218E+06    -13.4694E-03     27.1497E-03    -13.6803E-03     24.9385E-03    -13.5501E-03     27.0423E-03    -13.6232E-03     24.9227E-03
            1116     7.10271E-03     99.5306E-03    -24.7053E+06    -31.1372E+06    -1.96038E+06    -2.52332E+06    -13.5344E-03     27.2001E-03    -13.6657E-03     29.0183E-03    -13.6114E-03     27.0846E-03    -13.5945E-03     28.9822E-03
            1117     7.99069E-03     99.5563E-03    -22.8966E+06    -30.9615E+06    -201.669E+03    -4.22422E+06    -13.6757E-03     27.3291E-03    -13.6534E-03     33.2787E-03    -13.7473E-03     27.2101E-03    -13.5763E-03     33.2194E-03
            1118     8.87863E-03     99.5858E-03    -21.0486E+06    -31.2196E+06     1.09344E+06    -5.89236E+06    -13.9156E-03     27.5697E-03    -13.6541E-03     37.6788E-03    -13.9809E-03     27.4462E-03    -13.5728E-03     37.5963E-03
            1119     9.76631E-03     99.6191E-03    -19.1941E+06    -29.7974E+06     2.19178E+06     -7.5369E+06    -14.2757E-03     27.9467E-03    -13.6709E-03     42.2176E-03    -14.3375E-03     27.8282E-03    -13.5889E-03     42.1114E-03
            1120     10.6538E-03     99.6565E-03    -17.1913E+06    -29.0148E+06     3.19496E+06    -9.16813E+06    -14.7664E-03     28.4786E-03    -13.7122E-03     46.8210E-03    -14.8243E-03     28.3632E-03    -13.6292E-03     46.6903E-03
            1121     11.5408E-03     99.6979E-03    -15.1845E+06    -29.4976E+06     2.80001E+06    -10.4960E+06    -15.4222E-03     29.1996E-03    -13.7774E-03     51.2411E-03    -15.4744E-03     29.0850E-03    -13.6986E-03     51.0887E-03
            1122     12.4274E-03     99.7433E-03    -13.4135E+06    -22.8184E+06     3.47952E+06    -11.1812E+06    -16.2478E-03     30.1207E-03    -13.8729E-03     55.5061E-03    -16.3107E-03     30.0448E-03    -13.8029E-03     55.3387E-03
            1123     13.3129E-03     99.7927E-03    -11.6825E+06    -23.6819E+06     2.01789E+06    -12.0490E+06    -17.2224E-03     31.2291E-03    -14.0067E-03     59.9766E-03    -17.2884E-03     31.1637E-03    -13.9453E-03     59.7904E-03
            1124     14.1983E-03     99.8466E-03    -9.69436E+06    -23.6195E+06    -4.33868E+06    -12.1331E+06    -18.3641E-03     32.5171E-03    -14.1530E-03     65.5949E-03    -18.4408E-03     32.4882E-03    -14.1264E-03     65.3987E-03
            1125     15.0817E-03     99.9071E-03    -8.10909E+06    -4.84752E+06    -4.24113E+06    -9.99972E+06    -19.4965E-03     33.8360E-03    -14.3396E-03     73.1821E-03    -19.6528E-03     33.9587E-03    -14.3420E-03     73.0117E-03
            1126     15.9658E-03     99.9760E-03    -6.56537E+06     58.7807E+06     11.5878E+06    -5.97409E+06    -20.4117E-03     34.9791E-03    -14.5674E-03     77.8426E-03    -20.7608E-03     35.4800E-03    -14.5851E-03     77.7567E-03
            1127     16.8464E-03     100.048E-03    -4.03441E+06     106.465E+06     48.6285E+06    -2.42252E+06    -20.3717E-03     35.3114E-03    -14.9397E-03     52.9203E-03    -20.7702E-03     35.9325E-03    -14.8451E-03     52.9085E-03
            1128     888.042E-06     100.414E-03    -35.8017E+06    -48.4602E+06    -35.0902E+06     598.306E+03    -13.2731E-03     26.5440E-03    -13.2710E-03     3.71170E-03    -13.3309E-03     26.4046E-03    -13.3243E-03     3.71922E-03
            1129     1.77617E-03     100.418E-03    -35.4014E+06    -46.3915E+06    -32.8469E+06     1.05717E+06    -13.2431E-03     26.5164E-03    -13.2734E-03     6.91970E-03    -13.3052E-03     26.3834E-03    -13.3190E-03     6.93296E-03
            1130     2.66427E-03     100.425E-03    -34.6800E+06    -43.1603E+06    -29.1781E+06     1.49656E+06    -13.1968E-03     26.4655E-03    -13.2687E-03     10.3411E-03    -13.2654E-03     26.3424E-03    -13.3018E-03     10.3598E-03
            1131     3.55245E-03     100.435E-03    -33.6672E+06    -38.9841E+06    -24.3817E+06     1.74238E+06    -13.1460E-03     26.4076E-03    -13.2616E-03     13.8611E-03    -13.2227E-03     26.2970E-03    -13.2781E-03     13.8827E-03
            1132     4.44069E-03     100.448E-03    -32.3595E+06    -34.5636E+06    -18.7917E+06     1.71940E+06    -13.0974E-03     26.3510E-03    -13.2536E-03     17.5006E-03    -13.1821E-03     26.2527E-03    -13.2506E-03     17.5215E-03
            1133     5.32900E-03     100.463E-03    -30.6801E+06    -31.1642E+06    -12.6890E+06     1.31808E+06    -13.0660E-03     26.3133E-03    -13.2473E-03     21.2904E-03    -13.1563E-03     26.2209E-03    -13.2211E-03     21.3057E-03
            1134     6.21736E-03     100.482E-03    -28.7277E+06    -29.2064E+06    -6.91308E+06     262.274E+03    -13.0762E-03     26.3187E-03    -13.2424E-03     25.2659E-03    -13.1683E-03     26.2251E-03    -13.1930E-03     25.2670E-03
            1135     7.10572E-03     100.504E-03    -26.6224E+06    -28.7709E+06    -2.97717E+06    -1.51375E+06    -13.1611E-03     26.3976E-03    -13.2365E-03     29.4439E-03    -13.2495E-03     26.2980E-03    -13.1711E-03     29.4213E-03
            1136     7.99405E-03     100.530E-03    -24.5655E+06    -28.3831E+06    -843.898E+03    -3.56874E+06    -13.3354E-03     26.5687E-03    -13.2333E-03     33.8249E-03    -13.4180E-03     26.4657E-03    -13.1607E-03     33.7746E-03
            1137     8.88222E-03     100.560E-03    -22.4050E+06    -28.4104E+06     645.692E+03    -5.74721E+06    -13.6210E-03     26.8650E-03    -13.2439E-03     38.3847E-03    -13.6962E-03     26.7579E-03    -13.1670E-03     38.3046E-03
            1138     9.77023E-03     100.594E-03    -20.1095E+06    -27.2739E+06     2.01494E+06    -7.65309E+06    -14.0344E-03     27.3082E-03    -13.2738E-03     43.1194E-03    -14.1040E-03     27.2037E-03    -13.1950E-03     43.0124E-03
            1139     10.6578E-03     100.631E-03    -17.9505E+06    -25.9642E+06     3.25020E+06    -9.63523E+06    -14.5966E-03     27.9264E-03    -13.3298E-03     47.9162E-03    -14.6626E-03     27.8270E-03    -13.2499E-03     47.7801E-03
            1140     11.5451E-03     100.674E-03    -15.6806E+06    -27.4631E+06     2.98629E+06    -11.3185E+06    -15.3741E-03     28.7898E-03    -13.4157E-03     52.5977E-03    -15.4318E-03     28.6857E-03    -13.3382E-03     52.4352E-03
            1141     12.4314E-03     100.720E-03    -13.3308E+06    -21.3655E+06     3.84693E+06    -12.0731E+06    -16.3082E-03     29.8439E-03    -13.5357E-03     57.0846E-03    -16.3734E-03     29.7748E-03    -13.4662E-03     56.9061E-03
            1142     13.3174E-03     100.770E-03    -11.1967E+06    -21.4108E+06     2.89525E+06    -13.0736E+06    -17.4564E-03     31.1558E-03    -13.6993E-03     61.7535E-03    -17.5251E-03     31.1003E-03    -13.6376E-03     61.5540E-03
            1143     14.2016E-03     100.825E-03    -9.57620E+06    -23.8923E+06    -3.77482E+06    -13.5750E+06    -18.8606E-03     32.7470E-03    -13.8864E-03     67.5929E-03    -18.9387E-03     32.7173E-03    -13.8568E-03     67.3768E-03
            1144     15.0860E-03     100.887E-03    -8.19558E+06    -8.52335E+06    -4.72841E+06    -11.1195E+06    -20.3065E-03     34.4294E-03    -14.1229E-03     75.0409E-03    -20.4607E-03     34.5380E-03    -14.1223E-03     74.8521E-03
            1145     15.9677E-03     100.958E-03    -6.79649E+06     54.8498E+06     10.6027E+06    -6.83094E+06    -21.2532E-03     35.6559E-03    -14.4027E-03     79.5696E-03    -21.6011E-03     36.1437E-03    -14.4194E-03     79.4666E-03
            1146     16.8519E-03     101.030E-03    -3.99820E+06     103.516E+06     47.9555E+06    -3.43785E+06    -21.6384E-03     36.4738E-03    -14.8354E-03     54.0921E-03    -22.0344E-03     37.0841E-03    -14.7399E-03     54.0605E-03
            1147     888.572E-06     101.387E-03    -42.0167E+06    -49.8201E+06    -41.3442E+06     844.919E+03    -12.7395E-03     25.4726E-03    -12.7331E-03     3.78046E-03    -12.8174E-03     25.3444E-03    -12.8066E-03     3.79121E-03
            1148     1.77705E-03     101.392E-03    -41.0670E+06    -47.6632E+06    -38.4246E+06     1.41690E+06    -12.7190E-03     25.4609E-03    -12.7419E-03     6.98556E-03    -12.7996E-03     25.3379E-03    -12.8054E-03     7.00354E-03
            1149     2.66565E-03     101.398E-03    -39.5217E+06    -44.3335E+06    -33.9362E+06     2.01801E+06    -12.6866E-03     25.4310E-03    -12.7444E-03     10.4472E-03    -12.7708E-03     25.3159E-03    -12.7925E-03     10.4727E-03
            1150     3.55426E-03     101.408E-03    -37.6166E+06    -39.8040E+06    -28.2522E+06     2.49634E+06    -12.6539E-03     25.3991E-03    -12.7452E-03     14.0089E-03    -12.7434E-03     25.2957E-03    -12.7742E-03     14.0404E-03
            1151     4.44293E-03     101.421E-03    -35.4557E+06    -34.8574E+06    -21.7407E+06     2.60784E+06    -12.6317E-03     25.3787E-03    -12.7470E-03     17.6935E-03    -12.7272E-03     25.2876E-03    -12.7537E-03     17.7261E-03
            1152     5.33162E-03     101.436E-03    -33.0423E+06    -30.6657E+06    -14.9804E+06     2.13020E+06    -12.6318E-03     25.3826E-03    -12.7509E-03     21.5347E-03    -12.7312E-03     25.2994E-03    -12.7334E-03     21.5608E-03
            1153     6.22034E-03     101.455E-03    -30.4077E+06    -27.7313E+06    -8.70348E+06     1.02157E+06    -12.6694E-03     25.4259E-03    -12.7565E-03     25.5755E-03    -12.7694E-03     25.3447E-03    -12.7157E-03     25.5867E-03
            1154     7.10907E-03     101.477E-03    -27.7495E+06    -26.0911E+06    -4.04614E+06    -928.423E+03    -12.7741E-03     25.5363E-03    -12.7622E-03     29.8518E-03    -12.8703E-03     25.4531E-03    -12.7043E-03     29.8372E-03
            1155     7.99771E-03     101.503E-03    -25.0359E+06    -25.5978E+06    -1.29437E+06    -3.29342E+06    -12.9800E-03     25.7516E-03    -12.7715E-03     34.3622E-03    -13.0682E-03     25.6637E-03    -12.7046E-03     34.3160E-03
            1156     8.88622E-03     101.533E-03    -22.5181E+06    -25.0320E+06     580.512E+03    -5.74620E+06    -13.3053E-03     26.0996E-03    -12.7943E-03     39.0934E-03    -13.3857E-03     26.0095E-03    -12.7224E-03     39.0139E-03
            1157     9.77442E-03     101.567E-03    -20.0581E+06    -24.4501E+06     2.06249E+06    -8.16795E+06    -13.7656E-03     26.6037E-03    -12.8381E-03     44.0169E-03    -13.8388E-03     26.5129E-03    -12.7633E-03     43.9038E-03
            1158     10.6624E-03     101.606E-03    -17.6723E+06    -22.9444E+06     3.50770E+06    -9.97293E+06    -14.4172E-03     27.3273E-03    -12.9101E-03     49.0675E-03    -14.4862E-03     27.2420E-03    -12.8337E-03     48.9278E-03
            1159     11.5496E-03     101.649E-03    -15.5187E+06    -24.1756E+06     3.71535E+06    -12.3014E+06    -15.3046E-03     28.3230E-03    -13.0184E-03     54.0548E-03    -15.3672E-03     28.2339E-03    -12.9422E-03     53.8802E-03
            1160     12.4362E-03     101.696E-03    -12.9493E+06    -20.4107E+06     4.02992E+06    -13.5761E+06    -16.3598E-03     29.5231E-03    -13.1633E-03     58.7752E-03    -16.4247E-03     29.4579E-03    -13.0948E-03     58.5777E-03
            1161     13.3217E-03     101.747E-03    -10.7115E+06    -18.8697E+06     3.91917E+06    -14.0107E+06    -17.6994E-03     31.0589E-03    -13.3595E-03     63.7320E-03    -17.7713E-03     31.0144E-03    -13.2970E-03     63.5202E-03
            1162     14.2067E-03     101.804E-03    -8.87411E+06    -22.8968E+06    -2.12453E+06    -14.8687E+06    -19.4484E-03     33.0428E-03    -13.5944E-03     69.7810E-03    -19.5285E-03     33.0163E-03    -13.5589E-03     69.5466E-03
            1163     15.0888E-03     101.868E-03    -6.97118E+06    -12.7705E+06    -4.61953E+06    -12.7651E+06    -21.2913E-03     35.1799E-03    -13.8885E-03     76.9775E-03    -21.4369E-03     35.2688E-03    -13.8830E-03     76.7623E-03
            1164     15.9716E-03     101.940E-03    -4.46588E+06     50.5807E+06     11.6004E+06    -8.05313E+06    -22.6326E-03     36.8780E-03    -14.2455E-03     80.7086E-03    -22.9697E-03     37.3453E-03    -14.2543E-03     80.5791E-03
            1165     16.8501E-03     102.013E-03    -2.49618E+06     99.8840E+06     48.3050E+06    -3.58021E+06    -23.0119E-03     37.7653E-03    -14.7534E-03     55.1717E-03    -23.4003E-03     38.3594E-03    -14.6531E-03     55.1290E-03
            1166     888.985E-06     102.360E-03    -51.4793E+06    -50.9178E+06    -50.9937E+06     305.535E+03    -12.1485E-03     24.2986E-03    -12.1501E-03     3.80233E-03    -12.2581E-03     24.1926E-03    -12.2566E-03     3.80616E-03
            1167     1.77810E-03     102.364E-03    -49.4347E+06    -48.7562E+06    -47.0396E+06     663.219E+03    -12.1411E-03     24.2998E-03    -12.1587E-03     7.04939E-03    -12.2494E-03     24.1959E-03    -12.2515E-03     7.05773E-03
            1168     2.66712E-03     102.371E-03    -46.4172E+06    -45.4218E+06    -41.2699E+06     1.02670E+06    -12.1331E-03     24.3025E-03    -12.1694E-03     10.5311E-03    -12.2396E-03     24.2026E-03    -12.2426E-03     10.5440E-03
            1169     3.55623E-03     102.380E-03    -42.6174E+06    -40.9002E+06    -34.0921E+06     1.54557E+06    -12.1252E-03     24.3069E-03    -12.1817E-03     14.1289E-03    -12.2297E-03     24.2137E-03    -12.2310E-03     14.1483E-03
            1170     4.44533E-03     102.393E-03    -38.6830E+06    -35.5177E+06    -26.1008E+06     2.06980E+06    -12.1360E-03     24.3319E-03    -12.1959E-03     17.8533E-03    -12.2403E-03     24.2484E-03    -12.2188E-03     17.8792E-03
            1171     5.33446E-03     102.408E-03    -34.9901E+06    -30.2427E+06    -18.1294E+06     1.94088E+06    -12.1737E-03     24.3867E-03    -12.2130E-03     21.7394E-03    -12.2789E-03     24.3129E-03    -12.2091E-03     21.7633E-03
            1172     6.22356E-03     102.427E-03    -31.4122E+06    -26.2395E+06    -10.8959E+06     821.088E+03    -12.2478E-03     24.4807E-03    -12.2329E-03     25.8392E-03    -12.3517E-03     24.4115E-03    -12.2038E-03     25.8482E-03
            1173     7.11264E-03     102.449E-03    -27.9143E+06    -23.4360E+06    -5.20932E+06    -1.04554E+06    -12.3792E-03     24.6329E-03    -12.2537E-03     30.2026E-03    -12.4783E-03     24.5648E-03    -12.2053E-03     30.1868E-03
            1174     8.00165E-03     102.476E-03    -24.7966E+06    -22.3712E+06    -1.78093E+06    -3.56176E+06    -12.6093E-03     24.8869E-03    -12.2776E-03     34.8473E-03    -12.7000E-03     24.8153E-03    -12.2181E-03     34.7980E-03
            1175     8.89045E-03     102.506E-03    -21.7843E+06    -21.6284E+06     458.019E+03    -6.18631E+06    -12.9636E-03     25.2770E-03    -12.3134E-03     39.7492E-03    -13.0448E-03     25.2027E-03    -12.2482E-03     39.6646E-03
            1176     9.77903E-03     102.540E-03    -19.2484E+06    -21.1240E+06     2.32355E+06    -8.52562E+06    -13.4805E-03     25.8530E-03    -12.3725E-03     44.8856E-03    -13.5545E-03     25.7769E-03    -12.3023E-03     44.7686E-03
            1177     10.6671E-03     102.579E-03    -16.8271E+06    -20.0384E+06     3.82458E+06    -10.7539E+06    -14.2053E-03     26.6663E-03    -12.4610E-03     50.2443E-03    -14.2744E-03     26.5935E-03    -12.3885E-03     50.0953E-03
            1178     11.5546E-03     102.623E-03    -14.4028E+06    -20.1525E+06     4.82814E+06    -12.9519E+06    -15.1779E-03     27.7678E-03    -12.5898E-03     55.5653E-03    -15.2420E-03     27.6952E-03    -12.5156E-03     55.3831E-03
            1179     12.4411E-03     102.672E-03    -12.5383E+06    -18.7915E+06     4.70405E+06    -14.7954E+06    -16.4221E-03     29.1839E-03    -12.7618E-03     60.5973E-03    -16.4882E-03     29.1251E-03    -12.6929E-03     60.3846E-03
            1180     13.3270E-03     102.725E-03    -10.0051E+06    -17.1158E+06     4.76970E+06    -15.4536E+06    -18.0104E-03     31.0035E-03    -12.9931E-03     65.9473E-03    -18.0830E-03     30.9660E-03    -12.9299E-03     65.7167E-03
            1181     14.2106E-03     102.783E-03    -7.53213E+06    -20.2864E+06     312.274E+03    -16.6978E+06    -20.0392E-03     33.3185E-03    -13.2793E-03     72.4409E-03    -20.1215E-03     33.3012E-03    -13.2374E-03     72.1811E-03
            1182     15.0937E-03     102.850E-03    -5.28753E+06    -17.3752E+06    -4.41114E+06    -14.8498E+06    -22.2758E-03     35.9062E-03    -13.6304E-03     79.8925E-03    -22.4110E-03     35.9738E-03    -13.6196E-03     79.6450E-03
            1183     15.9728E-03     102.923E-03    -4.20319E+06     44.1946E+06     10.3780E+06    -8.45292E+06    -24.1707E-03     38.2320E-03    -14.0613E-03     83.9974E-03    -24.5078E-03     38.6811E-03    -14.0674E-03     83.8508E-03
            1184     16.8536E-03     102.999E-03    -2.91102E+06     96.1510E+06     47.8377E+06    -3.09479E+06    -24.6711E-03     39.3287E-03    -14.6576E-03     57.5569E-03    -25.0659E-03     39.9158E-03    -14.5536E-03     57.5095E-03
            1185     889.589E-06     103.330E-03    -64.6243E+06    -49.9925E+06    -64.4805E+06    -1.32181E+06    -11.5206E-03     23.0769E-03    -11.5563E-03     3.81363E-03    -11.6777E-03     23.0142E-03    -11.7125E-03     3.79650E-03
            1186     1.77907E-03     103.335E-03    -61.2346E+06    -48.1880E+06    -59.5205E+06    -2.07358E+06    -11.5409E-03     23.0920E-03    -11.5511E-03     7.07483E-03    -11.6909E-03     23.0261E-03    -11.6901E-03     7.04791E-03
            1187     2.66868E-03     103.341E-03    -55.9821E+06    -45.1899E+06    -52.1239E+06    -2.54290E+06    -11.5549E-03     23.1250E-03    -11.5701E-03     10.5696E-03    -11.6937E-03     23.0558E-03    -11.6840E-03     10.5365E-03
            1188     3.55822E-03     103.351E-03    -49.5742E+06    -41.3813E+06    -43.0699E+06    -2.46119E+06    -11.5820E-03     23.1770E-03    -11.5949E-03     14.1860E-03    -11.7076E-03     23.1045E-03    -11.6784E-03     14.1538E-03
            1189     4.44782E-03     103.364E-03    -42.6916E+06    -36.6510E+06    -33.1785E+06    -1.45648E+06    -11.6254E-03     23.2488E-03    -11.6233E-03     17.9313E-03    -11.7378E-03     23.1757E-03    -11.6742E-03     17.9118E-03
            1190     5.33736E-03     103.379E-03    -36.5409E+06    -30.5176E+06    -23.1739E+06    -300.214E+03    -11.6955E-03     23.3502E-03    -11.6547E-03     21.8505E-03    -11.8007E-03     23.2845E-03    -11.6733E-03     21.8456E-03
            1191     6.22690E-03     103.398E-03    -31.7107E+06    -24.8189E+06    -14.0914E+06    -482.691E+03    -11.8066E-03     23.4966E-03    -11.6900E-03     26.0014E-03    -11.9093E-03     23.4395E-03    -11.6785E-03     25.9938E-03
            1192     7.11634E-03     103.421E-03    -27.5916E+06    -20.8486E+06    -7.00241E+06    -2.16159E+06    -11.9719E-03     23.6994E-03    -11.7275E-03     30.4425E-03    -12.0704E-03     23.6463E-03    -11.6922E-03     30.4126E-03
            1193     8.00570E-03     103.447E-03    -23.7897E+06    -19.1436E+06    -2.55096E+06    -4.36417E+06    -12.2239E-03     23.9908E-03    -11.7669E-03     35.2111E-03    -12.3130E-03     23.9349E-03    -11.7174E-03     35.1520E-03
            1194     8.89486E-03     103.478E-03    -20.8530E+06    -18.1431E+06     183.626E+03    -6.81998E+06    -12.6029E-03     24.4197E-03    -11.8168E-03     40.2800E-03    -12.6839E-03     24.3617E-03    -11.7593E-03     40.1878E-03
            1195     9.78371E-03     103.513E-03    -18.0211E+06    -17.8299E+06     2.48586E+06    -9.23005E+06    -13.1617E-03     25.0518E-03    -11.8901E-03     45.6675E-03    -13.2343E-03     24.9899E-03    -11.8256E-03     45.5421E-03
            1196     10.6721E-03     103.553E-03    -15.3537E+06    -16.4109E+06     4.53695E+06    -11.5745E+06    -13.9383E-03     25.9322E-03    -11.9938E-03     51.3486E-03    -14.0060E-03     25.8739E-03    -11.9251E-03     51.1898E-03
            1197     11.5598E-03     103.597E-03    -13.1113E+06    -16.9209E+06     5.72390E+06    -13.7190E+06    -15.0057E-03     27.1460E-03    -12.1403E-03     57.0573E-03    -15.0689E-03     27.0859E-03    -12.0681E-03     56.8661E-03
            1198     12.4467E-03     103.647E-03    -11.2314E+06    -16.2240E+06     5.96203E+06    -15.0038E+06    -16.4424E-03     28.7799E-03    -12.3376E-03     62.5674E-03    -16.5071E-03     28.7300E-03    -12.2679E-03     62.3527E-03
            1199     13.3318E-03     103.702E-03    -9.70443E+06    -14.3983E+06     5.66986E+06    -17.1116E+06    -18.2745E-03     30.8755E-03    -12.6010E-03     68.4846E-03    -18.3511E-03     30.8502E-03    -12.5377E-03     68.2325E-03
            1200     14.2162E-03     103.763E-03    -7.09460E+06    -17.6316E+06     2.28953E+06    -18.8908E+06    -20.5627E-03     33.4979E-03    -12.9352E-03     75.5507E-03    -20.6508E-03     33.4917E-03    -12.8879E-03     75.2611E-03
            1201     15.0974E-03     103.831E-03    -5.56670E+06    -22.9974E+06    -4.99741E+06    -16.2334E+06    -23.0735E-03     36.4119E-03    -13.3384E-03     83.0368E-03    -23.2049E-03     36.4565E-03    -13.3219E-03     82.7669E-03
            1202     15.9789E-03     103.908E-03    -5.05225E+06     35.7309E+06     7.87724E+06    -8.29042E+06    -25.3669E-03     39.1946E-03    -13.8277E-03     87.4709E-03    -25.7021E-03     39.6161E-03    -13.8328E-03     87.3157E-03
            1203     16.8547E-03     103.987E-03    -4.14606E+06     93.2278E+06     47.5651E+06    -2.55334E+06    -26.7704E-03     41.2892E-03    -14.5187E-03     60.0561E-03    -27.1750E-03     41.8722E-03    -14.4101E-03     60.0022E-03
            1204     889.974E-06     104.300E-03    -72.9409E+06    -45.6616E+06    -72.6663E+06    -3.12770E+06    -10.9687E-03     21.9503E-03    -10.9816E-03     3.79589E-03    -11.1618E-03     21.9332E-03    -11.1729E-03     3.75546E-03
            1205     1.78007E-03     104.304E-03    -70.3359E+06    -44.4770E+06    -69.2595E+06    -5.50125E+06    -10.9782E-03     21.9611E-03    -10.9830E-03     7.03071E-03    -11.1650E-03     21.9412E-03    -11.1628E-03     6.95958E-03
            1206     2.67008E-03     104.311E-03    -66.1163E+06    -42.2348E+06    -63.6734E+06    -7.50789E+06    -10.9994E-03     21.9968E-03    -10.9973E-03     10.5231E-03    -11.1765E-03     21.9738E-03    -11.1586E-03     10.4260E-03
            1207     3.56014E-03     104.321E-03    -59.9051E+06    -39.7257E+06    -55.3412E+06    -8.72044E+06    -11.0448E-03     22.0696E-03    -11.0248E-03     14.1341E-03    -11.2066E-03     22.0381E-03    -11.1570E-03     14.0212E-03
            1208     4.45013E-03     104.334E-03    -51.6501E+06    -36.8963E+06    -44.7553E+06    -8.62342E+06    -11.1121E-03     22.1752E-03    -11.0631E-03     17.8837E-03    -11.2521E-03     22.1307E-03    -11.1585E-03     17.7719E-03
            1209     5.34017E-03     104.349E-03    -41.8930E+06    -31.7647E+06    -32.7393E+06    -6.90441E+06    -11.2067E-03     22.3132E-03    -11.1066E-03     21.8114E-03    -11.3229E-03     22.2629E-03    -11.1634E-03     21.7215E-03
            1210     6.23011E-03     104.368E-03    -32.9340E+06    -24.8560E+06    -20.5741E+06    -4.76572E+06    -11.3436E-03     22.4987E-03    -11.1551E-03     25.9806E-03    -11.4429E-03     22.4525E-03    -11.1741E-03     25.9179E-03
            1211     7.11998E-03     104.391E-03    -26.9240E+06    -18.9458E+06    -10.4787E+06    -4.18641E+06    -11.5397E-03     22.7481E-03    -11.2084E-03     30.4761E-03    -11.6325E-03     22.7085E-03    -11.1943E-03     30.4204E-03
            1212     8.00969E-03     104.418E-03    -23.1723E+06    -16.1145E+06    -4.09394E+06    -5.64480E+06    -11.8210E-03     23.0853E-03    -11.2642E-03     35.3504E-03    -11.9090E-03     23.0457E-03    -11.2277E-03     35.2751E-03
            1213     8.89922E-03     104.449E-03    -19.6001E+06    -14.6334E+06    -187.193E+03    -7.95072E+06    -12.2247E-03     23.5524E-03    -11.3276E-03     40.5945E-03    -12.3037E-03     23.5103E-03    -11.2789E-03     40.4882E-03
            1214     9.78840E-03     104.484E-03    -16.4299E+06    -14.3140E+06     2.70017E+06    -10.3884E+06    -12.8007E-03     24.2129E-03    -11.4122E-03     46.2303E-03    -12.8703E-03     24.1655E-03    -11.3542E-03     46.0907E-03
            1215     10.6771E-03     104.525E-03    -13.8013E+06    -13.1939E+06     5.15216E+06    -12.3600E+06    -13.6195E-03     25.1471E-03    -11.5276E-03     52.2436E-03    -13.6843E-03     25.1012E-03    -11.4627E-03     52.0756E-03
            1216     11.5652E-03     104.571E-03    -11.5918E+06    -13.4065E+06     6.87138E+06    -14.3279E+06    -14.7791E-03     26.4673E-03    -11.6882E-03     58.4093E-03    -14.8407E-03     26.4202E-03    -11.6176E-03     58.2113E-03
            1217     12.4520E-03     104.622E-03    -9.42319E+06    -14.3615E+06     7.18532E+06    -15.7746E+06    -16.3492E-03     28.2537E-03    -11.9045E-03     64.5186E-03    -16.4086E-03     28.2079E-03    -11.8341E-03     64.2950E-03
            1218     13.3379E-03     104.679E-03    -8.15119E+06    -10.3094E+06     7.73193E+06    -16.7899E+06    -18.4108E-03     30.6048E-03    -12.1940E-03     71.0697E-03    -18.4881E-03     30.5942E-03    -12.1286E-03     70.8223E-03
            1219     14.2210E-03     104.742E-03    -8.66512E+06    -13.8394E+06     4.36279E+06    -19.5750E+06    -21.0154E-03     33.5859E-03    -12.5705E-03     78.7234E-03    -21.1200E-03     33.5981E-03    -12.5160E-03     78.4242E-03
            1220     15.1032E-03     104.814E-03    -7.88556E+06    -29.7778E+06    -6.53510E+06    -17.5715E+06    -24.0502E-03     37.0780E-03    -13.0277E-03     86.2990E-03    -24.1836E-03     37.0967E-03    -13.0058E-03     86.0062E-03
            1221     15.9808E-03     104.893E-03    -5.71900E+06     26.9727E+06     2.74339E+06    -9.53962E+06    -26.9051E-03     40.4827E-03    -13.5777E-03     90.5259E-03    -27.2314E-03     40.8768E-03    -13.5948E-03     90.3396E-03
            1222     16.8598E-03     104.976E-03    -2.29849E+06     89.3595E+06     45.4981E+06    -3.12217E+06    -28.8534E-03     43.2263E-03    -14.3729E-03     62.6041E-03    -29.2477E-03     43.7980E-03    -14.2717E-03     62.5266E-03
            1223     890.478E-06     105.269E-03    -64.9323E+06    -38.6706E+06    -64.7243E+06    -3.93815E+06    -10.5435E-03     21.0811E-03    -10.5376E-03     3.69858E-03    -10.7182E-03     21.0757E-03    -10.7110E-03     3.64768E-03
            1224     1.78085E-03     105.273E-03    -64.1804E+06    -37.9319E+06    -63.0684E+06    -7.22776E+06    -10.5506E-03     21.0960E-03    -10.5454E-03     6.87438E-03    -10.7250E-03     21.0909E-03    -10.7127E-03     6.78095E-03
            1225     2.67134E-03     105.280E-03    -62.5971E+06    -36.2909E+06    -60.2110E+06    -10.4355E+06    -10.5725E-03     21.1285E-03    -10.5560E-03     10.3009E-03    -10.7456E-03     21.1252E-03    -10.7137E-03     10.1660E-03
            1226     3.56174E-03     105.290E-03    -60.0360E+06    -35.0905E+06    -55.7590E+06    -13.1518E+06    -10.6098E-03     21.1853E-03    -10.5755E-03     13.8477E-03    -10.7783E-03     21.1779E-03    -10.7164E-03     13.6776E-03
            1227     4.45220E-03     105.303E-03    -55.9429E+06    -34.0941E+06    -49.9338E+06    -14.9738E+06    -10.6690E-03     21.2710E-03    -10.6021E-03     17.5562E-03    -10.8270E-03     21.2542E-03    -10.7212E-03     17.3624E-03
            1228     5.34254E-03     105.318E-03    -49.4766E+06    -31.4037E+06    -42.7771E+06    -15.4671E+06    -10.7526E-03     21.3843E-03    -10.6317E-03     21.4783E-03    -10.8927E-03     21.3613E-03    -10.7283E-03     21.2779E-03
            1229     6.23293E-03     105.338E-03    -40.0956E+06    -26.4648E+06    -32.4729E+06    -13.4846E+06    -10.8799E-03     21.5531E-03    -10.6732E-03     25.6581E-03    -10.9954E-03     21.5265E-03    -10.7391E-03     25.4830E-03
            1230     7.12321E-03     105.361E-03    -29.9964E+06    -19.7533E+06    -19.0478E+06    -9.94444E+06    -11.0844E-03     21.8191E-03    -10.7347E-03     30.1701E-03    -11.1789E-03     21.7922E-03    -10.7578E-03     30.0403E-03
            1231     8.01336E-03     105.387E-03    -22.5190E+06    -13.9406E+06    -7.42693E+06    -8.35112E+06    -11.3895E-03     22.1958E-03    -10.8063E-03     35.1133E-03    -11.4724E-03     22.1708E-03    -10.7906E-03     35.0034E-03
            1232     8.90319E-03     105.419E-03    -18.4094E+06    -11.3435E+06    -1.03683E+06    -9.56142E+06    -11.8115E-03     22.6924E-03    -10.8809E-03     40.5161E-03    -11.8877E-03     22.6660E-03    -10.8429E-03     40.3896E-03
            1233     9.79279E-03     105.455E-03    -15.4164E+06    -10.7612E+06     2.67689E+06    -11.6116E+06    -12.4057E-03     23.3777E-03    -10.9720E-03     46.3944E-03    -12.4749E-03     23.3462E-03    -10.9206E-03     46.2398E-03
            1234     10.6819E-03     105.496E-03    -12.5951E+06    -10.3483E+06     5.70223E+06    -13.4729E+06    -13.2539E-03     24.3482E-03    -11.0944E-03     52.7636E-03    -13.3168E-03     24.3132E-03    -11.0326E-03     52.5823E-03
            1235     11.5702E-03     105.543E-03    -10.0760E+06    -10.0205E+06     8.10574E+06    -15.0176E+06    -14.4570E-03     25.7187E-03    -11.2617E-03     59.4444E-03    -14.5166E-03     25.6835E-03    -11.1920E-03     59.2389E-03
            1236     12.4575E-03     105.596E-03    -8.27315E+06    -12.0520E+06     8.77135E+06    -16.4840E+06    -16.1428E-03     27.6326E-03    -11.4898E-03     66.2023E-03    -16.2007E-03     27.5930E-03    -11.4165E-03     65.9710E-03
            1237     13.3430E-03     105.655E-03    -7.17912E+06    -9.32695E+06     9.16946E+06    -16.0909E+06    -18.4012E-03     30.1971E-03    -11.7959E-03     73.5447E-03    -18.4757E-03     30.1865E-03    -11.7261E-03     73.3075E-03
            1238     14.2271E-03     105.722E-03    -7.78524E+06    -8.16342E+06     8.27576E+06    -16.8045E+06    -21.3234E-03     33.5285E-03    -12.2051E-03     81.9643E-03    -21.4362E-03     33.5608E-03    -12.1406E-03     81.7006E-03
            1239     15.1074E-03     105.796E-03    -9.26890E+06    -33.2759E+06    -6.47708E+06    -18.6924E+06    -25.0068E-03     37.7155E-03    -12.7087E-03     90.4475E-03    -25.1427E-03     37.7194E-03    -12.6794E-03     90.1347E-03
            1240     15.9863E-03     105.880E-03    -7.10638E+06     16.5390E+06    -2.47617E+06    -12.2771E+06    -28.9376E-03     42.2674E-03    -13.3298E-03     95.4194E-03    -29.2621E-03     42.6329E-03    -13.3558E-03     95.1772E-03
            1241     16.8584E-03     105.966E-03    -4.63242E+06     84.6606E+06     42.6651E+06    -3.90268E+06    -31.0603E-03     45.3029E-03    -14.2427E-03     66.2807E-03    -31.4712E-03     45.8745E-03    -14.1454E-03     66.1725E-03
            1242     890.706E-06     106.237E-03    -47.9697E+06    -30.8946E+06    -47.4601E+06    -4.02046E+06    -10.2788E-03     20.5521E-03    -10.2733E-03     3.51611E-03    -10.4051E-03     20.5361E-03    -10.3962E-03     3.46411E-03
            1243     1.78150E-03     106.241E-03    -47.3603E+06    -30.1834E+06    -45.6593E+06    -7.32649E+06    -10.2990E-03     20.5852E-03    -10.2862E-03     6.56633E-03    -10.4258E-03     20.5691E-03    -10.4020E-03     6.47157E-03
            1244     2.67216E-03     106.248E-03    -46.8826E+06    -29.1418E+06    -43.5080E+06    -10.5672E+06    -10.3265E-03     20.6280E-03    -10.3016E-03     9.84036E-03    -10.4556E-03     20.6134E-03    -10.4089E-03     9.70365E-03
            1245     3.56290E-03     106.258E-03    -46.5487E+06    -28.4691E+06    -41.6781E+06    -13.5783E+06    -10.3572E-03     20.6737E-03    -10.3165E-03     13.2433E-03    -10.4883E-03     20.6594E-03    -10.4161E-03     13.0676E-03
            1246     4.45353E-03     106.271E-03    -46.0750E+06    -28.3552E+06    -40.0347E+06    -16.5914E+06    -10.3963E-03     20.7271E-03    -10.3308E-03     16.8188E-03    -10.5278E-03     20.7104E-03    -10.4230E-03     16.6041E-03
            1247     5.34428E-03     106.287E-03    -44.9808E+06    -27.1804E+06    -38.0785E+06    -19.1978E+06    -10.4492E-03     20.7935E-03    -10.3443E-03     20.6345E-03    -10.5798E-03     20.7783E-03    -10.4301E-03     20.3860E-03
            1248     6.23491E-03     106.306E-03    -42.2458E+06    -25.8629E+06    -34.7911E+06    -20.3624E+06    -10.5317E-03     20.8948E-03    -10.3631E-03     24.7496E-03    -10.6555E-03     20.8776E-03    -10.4383E-03     24.4858E-03
            1249     7.12556E-03     106.329E-03    -35.7405E+06    -21.5780E+06    -28.0604E+06    -18.7997E+06    -10.6706E-03     21.0634E-03    -10.3927E-03     29.2705E-03    -10.7781E-03     21.0487E-03    -10.4499E-03     29.0265E-03
            1250     8.01606E-03     106.356E-03    -26.3204E+06    -14.5818E+06    -16.3382E+06    -15.4156E+06    -10.9256E-03     21.3739E-03    -10.4483E-03     34.2715E-03    -11.0135E-03     21.3640E-03    -10.4707E-03     34.0707E-03
            1251     8.90643E-03     106.388E-03    -18.2108E+06    -9.91872E+06    -4.43517E+06    -12.8137E+06    -11.3517E-03     21.8805E-03    -10.5287E-03     39.7856E-03    -11.4238E-03     21.8656E-03    -10.5101E-03     39.6176E-03
            1252     9.79631E-03     106.425E-03    -13.9243E+06    -7.65006E+06     2.59484E+06    -12.9092E+06    -11.9663E-03     22.5883E-03    -10.6219E-03     45.8969E-03    -12.0319E-03     22.5697E-03    -10.5777E-03     45.7263E-03
            1253     10.6858E-03     106.467E-03    -11.7670E+06    -7.59635E+06     6.38186E+06    -14.1909E+06    -12.8201E-03     23.5621E-03    -10.7420E-03     52.6248E-03    -12.8830E-03     23.5377E-03    -10.6820E-03     52.4353E-03
            1254     11.5745E-03     106.515E-03    -10.1708E+06    -7.02046E+06     9.02757E+06    -15.5781E+06    -14.0305E-03     24.9353E-03    -10.9048E-03     59.8499E-03    -14.0947E-03     24.9124E-03    -10.8348E-03     59.6387E-03
            1255     12.4621E-03     106.570E-03    -8.47005E+06    -9.56284E+06     10.4345E+06    -16.7831E+06    -15.7741E-03     26.9069E-03    -11.1328E-03     67.3753E-03    -15.8369E-03     26.8754E-03    -11.0545E-03     67.1421E-03
            1256     13.3483E-03     106.631E-03    -7.20399E+06    -10.7521E+06     10.2509E+06    -15.7807E+06    -18.1934E-03     29.6353E-03    -11.4419E-03     75.6737E-03    -18.2648E-03     29.6132E-03    -11.3646E-03     75.4425E-03
            1257     14.2318E-03     106.701E-03    -5.97861E+06     -3.9562E+06     12.4735E+06    -15.3849E+06    -21.3751E-03     33.2411E-03    -11.8660E-03     85.1446E-03    -21.4876E-03     33.2823E-03    -11.7892E-03     84.9004E-03
            1258     15.1135E-03     106.780E-03    -6.21850E+06    -31.8370E+06    -1.49680E+06    -16.7197E+06    -25.5918E-03     37.9954E-03    -12.4037E-03     94.8165E-03    -25.7191E-03     37.9922E-03    -12.3560E-03     94.5260E-03
            1259     15.9897E-03     106.867E-03    -8.13828E+06     7.09612E+06    -2.46615E+06    -13.7659E+06    -30.3876E-03     43.4673E-03    -13.0797E-03     101.674E-03    -30.7161E-03     43.7997E-03    -13.0905E-03     101.396E-03
            1260     16.8639E-03     106.962E-03    -3.37788E+06     77.7351E+06     42.2340E+06    -6.32362E+06    -33.4769E-03     47.5596E-03    -14.0828E-03     71.2761E-03    -33.8879E-03     48.1125E-03    -13.9794E-03     71.1148E-03
            1261     890.877E-06     107.205E-03    -31.9783E+06    -23.2929E+06    -31.3547E+06    -3.72460E+06    -10.2313E-03     20.4502E-03    -10.2189E-03     3.25605E-03    -10.3120E-03     20.4257E-03    -10.2955E-03     3.20782E-03
            1262     1.78165E-03     107.209E-03    -32.0200E+06    -22.9217E+06    -30.0967E+06    -6.62715E+06    -10.2466E-03     20.4815E-03    -10.2350E-03     6.11179E-03    -10.3298E-03     20.4570E-03    -10.3058E-03     6.02595E-03
            1263     2.67251E-03     107.216E-03    -31.9678E+06    -22.2300E+06    -28.5552E+06    -9.48360E+06    -10.2805E-03     20.5308E-03    -10.2503E-03     9.15828E-03    -10.3667E-03     20.5074E-03    -10.3145E-03     9.03542E-03
            1264     3.56326E-03     107.226E-03    -31.7830E+06    -21.7127E+06    -26.7444E+06    -12.3706E+06    -10.3163E-03     20.5850E-03    -10.2687E-03     12.3245E-03    -10.4051E-03     20.5615E-03    -10.3249E-03     12.1642E-03
            1265     4.45409E-03     107.239E-03    -31.5837E+06    -21.5021E+06    -24.6335E+06    -15.3817E+06    -10.3517E-03     20.6403E-03    -10.2886E-03     15.6538E-03    -10.4430E-03     20.6145E-03    -10.3348E-03     15.4544E-03
            1266     5.34479E-03     107.255E-03    -31.7336E+06    -21.2430E+06    -23.0802E+06    -18.1505E+06    -10.3848E-03     20.6893E-03    -10.3045E-03     19.2209E-03    -10.4796E-03     20.6630E-03    -10.3431E-03     18.9856E-03
            1267     6.23560E-03     107.274E-03    -32.0774E+06    -21.0613E+06    -22.4913E+06    -20.7381E+06    -10.4199E-03     20.7337E-03    -10.3138E-03     23.1195E-03    -10.5177E-03     20.7081E-03    -10.3492E-03     22.8506E-03
            1268     7.12634E-03     107.297E-03    -31.7648E+06    -19.7172E+06    -22.5816E+06    -22.9102E+06    -10.4668E-03     20.7816E-03    -10.3148E-03     27.4820E-03    -10.5651E-03     20.7626E-03    -10.3531E-03     27.1849E-03
            1269     8.01722E-03     107.324E-03    -28.9275E+06    -15.9702E+06    -19.6036E+06    -22.2133E+06    -10.5761E-03     20.9003E-03    -10.3242E-03     32.4186E-03    -10.6702E-03     20.8919E-03    -10.3571E-03     32.1302E-03
            1270     8.90787E-03     107.357E-03    -22.4905E+06    -10.6953E+06    -11.4186E+06    -19.5226E+06    -10.8700E-03     21.2316E-03    -10.3616E-03     38.0223E-03    -10.9520E-03     21.2289E-03    -10.3706E-03     37.7680E-03
            1271     9.79833E-03     107.394E-03    -15.0362E+06    -7.32789E+06    -1.26332E+06    -16.3900E+06    -11.4416E-03     21.8762E-03    -10.4347E-03     44.3496E-03    -11.5069E-03     21.8659E-03    -10.4086E-03     44.1348E-03
            1272     10.6882E-03     107.437E-03    -10.4900E+06    -5.46132E+06     6.73573E+06    -14.9956E+06    -12.2996E-03     22.8421E-03    -10.5425E-03     51.4077E-03    -12.3586E-03     22.8250E-03    -10.4857E-03     51.2090E-03
            1273     11.5773E-03     107.486E-03    -8.76388E+06    -4.99511E+06     10.8611E+06    -15.0533E+06    -13.5028E-03     24.1917E-03    -10.6889E-03     59.1532E-03    -13.5637E-03     24.1723E-03    -10.6147E-03     58.9505E-03
            1274     12.4655E-03     107.542E-03    -8.77103E+06    -6.74394E+06     12.8332E+06    -15.8886E+06    -15.2305E-03     26.1293E-03    -10.8989E-03     67.4579E-03    -15.2993E-03     26.1059E-03    -10.8122E-03     67.2387E-03
            1275     13.3520E-03     107.606E-03    -7.50054E+06    -11.3372E+06     12.4663E+06    -16.6109E+06    -17.7516E-03     28.9449E-03    -11.1934E-03     76.8068E-03    -17.8223E-03     28.9128E-03    -11.1038E-03     76.5679E-03
            1276     14.2366E-03     107.679E-03    -5.84677E+06    -3.29438E+06     15.5217E+06    -14.9611E+06    -21.1431E-03     32.7524E-03    -11.6093E-03     87.4392E-03    -21.2540E-03     32.7860E-03    -11.5184E-03     87.2033E-03
            1277     15.1173E-03     107.762E-03    -4.70338E+06    -27.8003E+06     4.87605E+06    -16.1239E+06    -25.7194E-03     37.8796E-03    -12.1601E-03     98.6021E-03    -25.8458E-03     37.8767E-03    -12.0886E-03     98.3197E-03
            1278     15.9952E-03     107.856E-03    -1.35713E+06     424.254E+03    -2.00366E+06    -14.4751E+06    -31.0075E-03     43.8419E-03    -12.8345E-03     107.158E-03    -31.2945E-03     44.1319E-03    -12.8431E-03     106.862E-03
            1279     16.8665E-03     107.956E-03    -1.41558E+06     68.4473E+06     37.1233E+06    -6.37617E+06    -35.7037E-03     49.5939E-03    -13.8903E-03     76.7388E-03    -36.0983E-03     50.1196E-03    -13.8018E-03     76.5531E-03
            1280     890.654E-06     108.173E-03    -18.3969E+06    -16.6590E+06    -17.8111E+06    -3.06630E+06    -10.4535E-03     20.8986E-03    -10.4451E-03     2.95774E-03    -10.4955E-03     20.8678E-03    -10.4833E-03     2.91794E-03
            1281     1.78140E-03     108.177E-03    -18.5050E+06    -16.4569E+06    -17.1158E+06    -5.62365E+06    -10.4844E-03     20.9442E-03    -10.4598E-03     5.50549E-03    -10.5283E-03     20.9136E-03    -10.4947E-03     5.43248E-03
            1282     2.67202E-03     108.184E-03    -18.5321E+06    -16.0356E+06    -15.6417E+06    -8.30992E+06    -10.5204E-03     21.0006E-03    -10.4801E-03     8.24050E-03    -10.5673E-03     20.9700E-03    -10.5082E-03     8.13260E-03
            1283     3.56268E-03     108.194E-03    -18.6720E+06    -15.5383E+06    -13.6605E+06    -10.8556E+06    -10.5637E-03     21.0681E-03    -10.5043E-03     11.0651E-03    -10.6150E-03     21.0374E-03    -10.5230E-03     10.9241E-03
            1284     4.45322E-03     108.207E-03    -19.2397E+06    -15.3874E+06    -11.9651E+06    -13.2935E+06    -10.5977E-03     21.1258E-03    -10.5281E-03     14.0490E-03    -10.6546E-03     21.0944E-03    -10.5377E-03     13.8763E-03
            1285     5.34386E-03     108.223E-03    -19.9144E+06    -15.3051E+06    -10.7409E+06    -15.8016E+06    -10.6180E-03     21.1648E-03    -10.5468E-03     17.2596E-03    -10.6802E-03     21.1331E-03    -10.5494E-03     17.0542E-03
            1286     6.23442E-03     108.242E-03    -20.4397E+06    -15.0636E+06    -9.44391E+06    -18.4565E+06    -10.6235E-03     21.1842E-03    -10.5607E-03     20.7884E-03    -10.6909E-03     21.1528E-03    -10.5564E-03     20.5485E-03
            1287     7.12511E-03     108.265E-03    -21.4483E+06    -14.6291E+06    -8.60224E+06    -20.8045E+06    -10.6119E-03     21.1784E-03    -10.5665E-03     24.7530E-03    -10.6863E-03     21.1497E-03    -10.5572E-03     24.4826E-03
            1288     8.01572E-03     108.292E-03    -22.6249E+06    -13.9360E+06    -9.40840E+06    -22.7318E+06    -10.5858E-03     21.1424E-03    -10.5566E-03     29.3433E-03    -10.6662E-03     21.1203E-03    -10.5506E-03     29.0479E-03
            1289     8.90665E-03     108.324E-03    -22.5944E+06    -10.3752E+06    -9.09189E+06    -23.0700E+06    -10.6303E-03     21.1719E-03    -10.5416E-03     34.7595E-03    -10.7165E-03     21.1674E-03    -10.5392E-03     34.4595E-03
            1290     9.79742E-03     108.362E-03    -19.8539E+06    -9.03832E+06    -4.98803E+06    -21.3163E+06    -10.9460E-03     21.4993E-03    -10.5532E-03     41.1195E-03    -11.0271E-03     21.4922E-03    -10.5363E-03     40.8416E-03
            1291     10.6879E-03     108.406E-03    -15.0214E+06    -6.14751E+06     2.69363E+06    -17.7167E+06    -11.6560E-03     22.2634E-03    -10.6074E-03     48.4602E-03    -11.7295E-03     22.2540E-03    -10.5633E-03     48.2275E-03
            1292     11.5775E-03     108.456E-03    -11.3637E+06    -4.23869E+06     10.0707E+06    -15.3513E+06    -12.8180E-03     23.5331E-03    -10.7151E-03     56.6997E-03    -12.8897E-03     23.5202E-03    -10.6421E-03     56.4951E-03
            1293     12.4662E-03     108.514E-03    -9.08712E+06    -4.57813E+06     14.7846E+06    -14.8290E+06    -14.5617E-03     25.4501E-03    -10.8883E-03     65.7735E-03    -14.6344E-03     25.4314E-03    -10.7946E-03     65.5707E-03
            1294     13.3534E-03     108.580E-03    -9.54810E+06    -9.55373E+06     15.6594E+06    -15.3119E+06    -17.1119E-03     28.2649E-03    -11.1530E-03     76.1148E-03    -17.1941E-03     28.2339E-03    -11.0470E-03     75.8965E-03
            1295     14.2379E-03     108.657E-03    -9.44239E+06    -4.55277E+06     17.2954E+06    -15.3165E+06    -20.5792E-03     32.1142E-03    -11.5350E-03     87.9968E-03    -20.6989E-03     32.1342E-03    -11.4282E-03     87.7611E-03
            1296     15.1202E-03     108.745E-03    -6.43633E+06    -20.0189E+06     11.9199E+06    -18.1449E+06    -24.9999E-03     37.0605E-03    -12.0605E-03     100.919E-03    -25.1382E-03     37.0705E-03    -11.9626E-03     100.617E-03
            1297     15.9969E-03     108.844E-03    -4.50798E+06    -6.86719E+06    -1.08894E+06    -18.4051E+06    -30.7400E-03     43.4358E-03    -12.6957E-03     112.521E-03    -31.0179E-03     43.6769E-03    -12.6847E-03     112.172E-03
            1298     16.8704E-03     108.952E-03    -379.949E+03     53.5278E+06     32.4654E+06    -5.95460E+06    -37.3088E-03     51.0606E-03    -13.7518E-03     85.4462E-03    -37.6825E-03     51.5298E-03    -13.6665E-03     85.2426E-03
            1299     890.293E-06     109.142E-03    -7.27063E+06    -11.0768E+06    -7.07003E+06    -2.54495E+06    -11.0325E-03     22.0644E-03    -11.0319E-03     2.56743E-03    -11.0426E-03     22.0299E-03    -11.0406E-03     2.53428E-03
            1300     1.78040E-03     109.146E-03    -7.50474E+06    -10.9335E+06    -6.38887E+06    -4.74504E+06    -11.0846E-03     22.1306E-03    -11.0460E-03     4.73092E-03    -11.0971E-03     22.0961E-03    -11.0512E-03     4.66911E-03
            1301     2.67059E-03     109.153E-03    -7.97460E+06    -10.6291E+06    -5.14511E+06    -6.89597E+06    -11.1302E-03     22.2037E-03    -11.0735E-03     7.08646E-03    -11.1473E-03     22.1697E-03    -11.0723E-03     6.99660E-03
            1302     3.56066E-03     109.163E-03    -8.61579E+06    -10.4391E+06    -3.89704E+06    -8.91770E+06    -11.1786E-03     22.2810E-03    -11.1023E-03     9.49770E-03    -11.2012E-03     22.2471E-03    -11.0942E-03     9.38145E-03
            1303     4.45079E-03     109.176E-03    -9.17123E+06    -10.1645E+06    -2.48217E+06    -10.9553E+06    -11.2227E-03     22.3541E-03    -11.1315E-03     12.0427E-03    -11.2506E-03     22.3205E-03    -11.1158E-03     11.8998E-03
            1304     5.34080E-03     109.191E-03    -9.86543E+06    -10.0002E+06    -801.620E+03    -13.1628E+06    -11.2502E-03     22.4102E-03    -11.1599E-03     14.7750E-03    -11.2844E-03     22.3761E-03    -11.1351E-03     14.6033E-03
            1305     6.23089E-03     109.211E-03    -11.2479E+06    -9.81156E+06     474.147E+03    -15.2446E+06    -11.2483E-03     22.4306E-03    -11.1824E-03     17.7880E-03    -11.2917E-03     22.3979E-03    -11.1495E-03     17.5891E-03
            1306     7.12093E-03     109.234E-03    -12.8459E+06    -9.80880E+06     1.41380E+06    -17.1715E+06    -11.2102E-03     22.4060E-03    -11.1958E-03     21.1946E-03    -11.2633E-03     22.3745E-03    -11.1559E-03     20.9706E-03
            1307     8.01122E-03     109.261E-03    -14.5511E+06    -9.20300E+06     2.34269E+06    -19.1057E+06    -11.1277E-03     22.3255E-03    -11.1978E-03     25.1557E-03    -11.1918E-03     22.2984E-03    -11.1516E-03     24.9065E-03
            1308     8.90144E-03     109.293E-03    -16.7977E+06    -8.34231E+06     2.02794E+06    -20.2910E+06    -11.0043E-03     22.1850E-03    -11.1807E-03     29.9320E-03    -11.0807E-03     22.1661E-03    -11.1341E-03     29.6673E-03
            1309     9.79208E-03     109.330E-03    -19.4567E+06    -8.23096E+06     988.156E+03    -20.4795E+06    -10.9617E-03     22.1130E-03    -11.1513E-03     35.7869E-03    -11.0504E-03     22.1005E-03    -11.1062E-03     35.5197E-03
            1310     10.6827E-03     109.374E-03    -20.3025E+06    -8.19383E+06     1.95152E+06    -19.5091E+06    -11.2272E-03     22.3612E-03    -11.1340E-03     42.9048E-03    -11.3222E-03     22.3494E-03    -11.0829E-03     42.6497E-03
            1311     11.5731E-03     109.426E-03    -18.1639E+06    -4.88549E+06     7.60329E+06    -16.6972E+06    -12.0562E-03     23.2194E-03    -11.1632E-03     51.3967E-03    -12.1552E-03     23.2145E-03    -11.0917E-03     51.1765E-03
            1312     12.4624E-03     109.485E-03    -15.2924E+06    -3.06458E+06     14.6866E+06    -15.8268E+06    -13.6670E-03     24.9352E-03    -11.2682E-03     61.2610E-03    -13.7686E-03     24.9291E-03    -11.1682E-03     61.0485E-03
            1313     13.3500E-03     109.554E-03    -11.1063E+06    -9.28295E+06     19.0786E+06    -14.7330E+06    -16.2503E-03     27.7250E-03    -11.4747E-03     72.7166E-03    -16.3382E-03     27.6853E-03    -11.3497E-03     72.5105E-03
            1314     14.2356E-03     109.633E-03    -9.52497E+06    -3.57309E+06     22.0426E+06    -13.7629E+06    -19.4593E-03     31.2481E-03    -11.7888E-03     85.7103E-03    -19.5738E-03     31.2524E-03    -11.6596E-03     85.5023E-03
            1315     15.1178E-03     109.725E-03    -9.93503E+06    -9.16335E+06     21.1527E+06    -19.3712E+06    -23.1080E-03     35.3404E-03    -12.2324E-03     100.203E-03    -23.2653E-03     35.3687E-03    -12.0989E-03     99.8985E-03
            1316     15.9990E-03     109.829E-03    -9.05016E+06    -14.1862E+06     7.62199E+06    -19.8057E+06    -28.7456E-03     41.5196E-03    -12.7740E-03     116.465E-03    -29.0084E-03     41.6783E-03    -12.7022E-03     116.110E-03
            1317     16.8713E-03     109.948E-03    -9.03762E+06     35.2151E+06     29.1735E+06    -8.42044E+06    -37.2061E-03     50.9229E-03    -13.7168E-03     96.4869E-03    -37.5912E-03     51.3178E-03    -13.6089E-03     96.2417E-03
            1318     889.286E-06     110.112E-03     272.908E+03    -6.53756E+06     760.421E+03    -2.05725E+06    -12.0690E-03     24.1194E-03    -12.0504E-03     2.08943E-03    -12.0593E-03     24.0852E-03    -12.0375E-03     2.06250E-03
            1319     1.77869E-03     110.116E-03    -184.055E+03    -6.48004E+06     1.13269E+06    -3.64974E+06    -12.1186E-03     24.1948E-03    -12.0762E-03     3.83245E-03    -12.1119E-03     24.1610E-03    -12.0609E-03     3.78464E-03
            1320     2.66791E-03     110.123E-03    -745.775E+03    -6.39535E+06     1.83397E+06    -5.24222E+06    -12.1897E-03     24.2988E-03    -12.1090E-03     5.69196E-03    -12.1870E-03     24.2653E-03    -12.0895E-03     5.62324E-03
            1321     3.55714E-03     110.133E-03    -1.36331E+06    -6.16073E+06     2.92153E+06    -6.92744E+06    -12.2535E-03     24.4010E-03    -12.1475E-03     7.59877E-03    -12.2559E-03     24.3680E-03    -12.1220E-03     7.50793E-03
            1322     4.44624E-03     110.146E-03    -2.21741E+06    -5.98820E+06     4.37100E+06    -8.58579E+06    -12.3160E-03     24.5048E-03    -12.1888E-03     9.61443E-03    -12.3251E-03     24.4720E-03    -12.1551E-03     9.50179E-03
            1323     5.33535E-03     110.162E-03    -3.56367E+06    -5.78937E+06     5.79127E+06    -10.0309E+06    -12.3696E-03     24.6000E-03    -12.2304E-03     11.7877E-03    -12.3880E-03     24.5682E-03    -12.1878E-03     11.6560E-03
            1324     6.22435E-03     110.181E-03    -5.08431E+06    -5.76847E+06     7.15784E+06    -11.4770E+06    -12.4038E-03     24.6738E-03    -12.2700E-03     14.1780E-03    -12.4319E-03     24.6425E-03    -12.2185E-03     14.0272E-03
            1325     7.11344E-03     110.204E-03    -6.89825E+06    -5.61549E+06     8.56003E+06    -13.0764E+06    -12.4046E-03     24.7100E-03    -12.3054E-03     16.8715E-03    -12.4443E-03     24.6803E-03    -12.2444E-03     16.6997E-03
            1326     8.00243E-03     110.231E-03    -9.27545E+06    -5.55012E+06     9.64292E+06    -14.3001E+06    -12.3549E-03     24.6870E-03    -12.3321E-03     19.9922E-03    -12.4085E-03     24.6598E-03    -12.2624E-03     19.8043E-03
            1327     8.89172E-03     110.263E-03    -11.9173E+06    -5.45884E+06     10.5623E+06    -15.1215E+06    -12.2401E-03     24.5866E-03    -12.3465E-03     23.7714E-03    -12.3087E-03     24.5626E-03    -12.2685E-03     23.5726E-03
            1328     9.78103E-03     110.299E-03    -14.0499E+06    -6.26979E+06     10.9748E+06    -15.6491E+06    -12.0516E-03     24.3944E-03    -12.3428E-03     28.4786E-03    -12.1306E-03     24.3692E-03    -12.2585E-03     28.2729E-03
            1329     10.6708E-03     110.343E-03    -16.0880E+06    -6.70023E+06     10.8952E+06    -16.3724E+06    -11.8929E-03     24.2126E-03    -12.3197E-03     34.4155E-03    -11.9818E-03     24.1887E-03    -12.2322E-03     34.2003E-03
            1330     11.5608E-03     110.394E-03    -16.7784E+06    -6.15966E+06     12.4164E+06    -16.5262E+06    -12.0236E-03     24.3209E-03    -12.2973E-03     42.0079E-03    -12.1196E-03     24.2993E-03    -12.2019E-03     41.7904E-03
            1331     12.4507E-03     110.455E-03    -15.7336E+06    -1.64272E+06     18.1275E+06    -15.1950E+06    -12.8988E-03     25.2141E-03    -12.3153E-03     51.7734E-03    -13.0063E-03     25.2074E-03    -12.1995E-03     51.5714E-03
            1332     13.3394E-03     110.526E-03    -14.0812E+06    -7.72471E+06     20.9570E+06    -16.7843E+06    -14.8629E-03     27.2706E-03    -12.4077E-03     64.1276E-03    -14.9629E-03     27.2325E-03    -12.2713E-03     63.9004E-03
            1333     14.2252E-03     110.609E-03    -8.97105E+06    -6.78214E+06     25.9304E+06    -14.2959E+06    -17.3882E-03     29.9858E-03    -12.5976E-03     77.9936E-03    -17.4844E-03     29.9511E-03    -12.4451E-03     77.7889E-03
            1334     15.1107E-03     110.702E-03    -8.28358E+06     2.49088E+06     30.6382E+06    -14.2531E+06    -20.1975E-03     33.0782E-03    -12.8806E-03     93.5404E-03    -20.3441E-03     33.1156E-03    -12.7190E-03     93.3184E-03
            1335     15.9922E-03     110.811E-03    -11.8887E+06    -15.7571E+06     14.0220E+06    -19.6546E+06    -24.7036E-03     37.9282E-03    -13.2246E-03     114.022E-03    -24.9197E-03     38.0060E-03    -13.1144E-03     113.695E-03
            1336     16.8723E-03     110.939E-03    -5.10880E+06     17.5475E+06     21.6002E+06    -12.5293E+06    -33.1940E-03     47.0679E-03    -13.8739E-03     106.114E-03    -33.4935E-03     47.3504E-03    -13.7839E-03     105.832E-03
            1337     888.061E-06     111.084E-03     3.45300E+06    -3.28281E+06     4.00628E+06    -1.24865E+06    -13.6120E-03     27.2290E-03    -13.6169E-03     1.52267E-03    -13.5959E-03     27.2016E-03    -13.5971E-03     1.50615E-03
            1338     1.77595E-03     111.089E-03     2.94479E+06    -3.21833E+06     4.33415E+06    -2.37816E+06    -13.7299E-03     27.3743E-03    -13.6444E-03     2.71096E-03    -13.7170E-03     27.3476E-03    -13.6223E-03     2.67949E-03
            1339     2.66385E-03     111.096E-03     2.39822E+06    -3.11155E+06     5.03335E+06    -3.68917E+06    -13.8047E-03     27.5011E-03    -13.6964E-03     3.91501E-03    -13.7957E-03     27.4747E-03    -13.6702E-03     3.86623E-03
            1340     3.55158E-03     111.106E-03     1.62374E+06    -2.99584E+06     6.16678E+06    -4.82468E+06    -13.8806E-03     27.6292E-03    -13.7486E-03     5.21356E-03    -13.8773E-03     27.6029E-03    -13.7158E-03     5.14973E-03
            1341     4.43930E-03     111.119E-03     478.249E+03    -2.90219E+06     7.57375E+06    -5.82153E+06    -13.9746E-03     27.7794E-03    -13.8048E-03     6.60845E-03    -13.9794E-03     27.7532E-03    -13.7634E-03     6.53133E-03
            1342     5.32687E-03     111.135E-03    -657.515E+03    -2.92572E+06     9.40007E+06    -6.78979E+06    -14.0905E-03     27.9587E-03    -13.8683E-03     8.11069E-03    -14.1037E-03     27.9316E-03    -13.8161E-03     8.02062E-03
            1343     6.21438E-03     111.154E-03    -1.95778E+06    -2.69579E+06     11.6766E+06    -7.78125E+06    -14.2195E-03     28.1595E-03    -13.9400E-03     9.74904E-03    -14.2430E-03     28.1322E-03    -13.8749E-03     9.64571E-03
            1344     7.10166E-03     111.177E-03    -3.65744E+06    -2.78991E+06     13.7435E+06    -8.57448E+06    -14.3478E-03     28.3649E-03    -14.0172E-03     11.5844E-03    -14.3828E-03     28.3368E-03    -13.9391E-03     11.4703E-03
            1345     7.98897E-03     111.204E-03    -5.42667E+06    -2.78073E+06     15.8174E+06    -9.46531E+06    -14.4713E-03     28.5695E-03    -14.0982E-03     13.6880E-03    -14.5184E-03     28.5412E-03    -14.0073E-03     13.5619E-03
            1346     8.87603E-03     111.235E-03    -6.90961E+06    -3.27521E+06     17.7957E+06    -10.1976E+06    -14.5608E-03     28.7415E-03    -14.1807E-03     16.1924E-03    -14.6179E-03     28.7102E-03    -14.0769E-03     16.0563E-03
            1347     9.76317E-03     111.272E-03    -8.47807E+06    -3.82942E+06     19.2094E+06    -11.0182E+06    -14.5467E-03     28.8027E-03    -14.2560E-03     19.2904E-03    -14.6132E-03     28.7691E-03    -14.1421E-03     19.1432E-03
            1348     10.6504E-03     111.315E-03    -9.63376E+06    -4.44004E+06     20.5682E+06    -11.8906E+06    -14.3537E-03     28.6697E-03    -14.3159E-03     23.2704E-03    -14.4275E-03     28.6330E-03    -14.1927E-03     23.1116E-03
            1349     11.5379E-03     111.366E-03    -10.7353E+06    -3.90080E+06     22.2014E+06    -13.3612E+06    -14.0391E-03     28.3916E-03    -14.3525E-03     28.5766E-03    -14.1221E-03     28.3573E-03    -14.2202E-03     28.3986E-03
            1350     12.4261E-03     111.425E-03    -11.1701E+06    -3.09325E+06     23.7529E+06    -13.2163E+06    -13.8950E-03     28.2636E-03    -14.3687E-03     36.0499E-03    -13.9843E-03     28.2326E-03    -14.2292E-03     35.8733E-03
            1351     13.3144E-03     111.498E-03    -12.7600E+06    -2.42634E+06     25.8674E+06    -12.9334E+06    -14.1382E-03     28.5261E-03    -14.3879E-03     46.2964E-03    -14.2414E-03     28.4998E-03    -14.2366E-03     46.1220E-03
            1352     14.2031E-03     111.581E-03    -13.9180E+06    -8.19116E+06     25.7962E+06    -16.6501E+06    -14.6877E-03     29.1033E-03    -14.4155E-03     58.8893E-03    -14.7930E-03     29.0553E-03    -14.2545E-03     58.6634E-03
            1353     15.0892E-03     111.678E-03    -10.8277E+06     445.758E+03     28.7930E+06    -11.6199E+06    -16.3439E-03     30.8105E-03    -14.4666E-03     75.0772E-03    -16.4663E-03     30.8129E-03    -14.3076E-03     74.9062E-03
            1354     15.9759E-03     111.787E-03    -12.0612E+06    -3.47613E+06     22.0204E+06    -13.0011E+06    -18.7847E-03     33.3402E-03    -14.5555E-03     96.5901E-03    -18.9493E-03     33.3865E-03    -14.4229E-03     96.3831E-03
            1355     16.8585E-03     111.920E-03    -13.8349E+06     7.18611E+06     8.34633E+06    -21.0958E+06    -20.6141E-03     35.2632E-03    -14.6491E-03     101.796E-03    -20.8287E-03     35.4322E-03    -14.5977E-03     101.463E-03
            1356     886.117E-06     112.060E-03     5.52935E+06    -1.24431E+06     5.51150E+06    -718.122E+03    -15.9048E-03     31.8998E-03    -15.9950E-03     550.254E-06    -15.8836E-03     31.8773E-03    -15.9737E-03     540.692E-06
            1357     1.77202E-03     112.065E-03     5.05332E+06    -1.11394E+06     6.28289E+06    -1.33511E+06    -16.0143E-03     31.9874E-03    -15.9731E-03     1.05865E-03    -15.9968E-03     31.9651E-03    -15.9474E-03     1.04080E-03
            1358     2.65780E-03     112.072E-03     4.49663E+06    -1.00827E+06     7.47785E+06    -1.94244E+06    -16.1059E-03     32.1248E-03    -16.0189E-03     1.55467E-03    -16.0931E-03     32.1021E-03    -15.9866E-03     1.52868E-03
            1359     3.54358E-03     112.083E-03     3.62923E+06    -1.04814E+06     8.77093E+06    -2.50159E+06    -16.2212E-03     32.2998E-03    -16.0786E-03     2.11036E-03    -16.2146E-03     32.2763E-03    -16.0385E-03     2.07684E-03
            1360     4.42919E-03     112.096E-03     2.74785E+06    -1.07061E+06     10.7431E+06    -2.98406E+06    -16.3925E-03     32.5487E-03    -16.1562E-03     2.70136E-03    -16.3932E-03     32.5235E-03    -16.1049E-03     2.66127E-03
            1361     5.31464E-03     112.112E-03     1.71144E+06    -918.639E+03     13.4037E+06    -3.58992E+06    -16.6210E-03     32.8768E-03    -16.2558E-03     3.32903E-03    -16.6311E-03     32.8500E-03    -16.1899E-03     3.28074E-03
            1362     6.19976E-03     112.131E-03     550.374E+03    -1.05897E+06     16.1166E+06    -3.97546E+06    -16.9125E-03     33.2896E-03    -16.3771E-03     4.00349E-03    -16.9322E-03     33.2599E-03    -16.2958E-03     3.94981E-03
            1363     7.08467E-03     112.155E-03    -530.244E+03    -925.368E+03     19.3249E+06    -4.42744E+06    -17.2808E-03     33.8047E-03    -16.5239E-03     4.73936E-03    -17.3108E-03     33.7726E-03    -16.4252E-03     4.67934E-03
            1364     7.96905E-03     112.182E-03    -1.75192E+06    -1.05663E+06     22.2365E+06    -4.86719E+06    -17.7221E-03     34.4182E-03    -16.6961E-03     5.57067E-03    -17.7625E-03     34.3830E-03    -16.5808E-03     5.50439E-03
            1365     8.85305E-03     112.213E-03    -3.40714E+06    -1.29064E+06     24.1858E+06    -5.51667E+06    -18.2006E-03     35.0911E-03    -16.8905E-03     6.53911E-03    -18.2520E-03     35.0544E-03    -16.7628E-03     6.46378E-03
            1366     9.73650E-03     112.250E-03    -5.05698E+06    -1.99078E+06     26.0124E+06    -6.13096E+06    -18.6171E-03     35.7234E-03    -17.1063E-03     7.71772E-03    -18.6786E-03     35.6829E-03    -16.9660E-03     7.63372E-03
            1367     10.6195E-03     112.293E-03    -7.00191E+06    -1.85911E+06     27.6080E+06    -7.26554E+06    -18.8470E-03     36.1766E-03    -17.3296E-03     9.27286E-03    -18.9212E-03     36.1373E-03    -17.1787E-03     9.17348E-03
            1368     11.5024E-03     112.342E-03    -9.66924E+06    -1.79990E+06     27.9707E+06    -7.97417E+06    -18.8299E-03     36.3730E-03    -17.5430E-03     11.5201E-03    -18.9185E-03     36.3374E-03    -17.3866E-03     11.4109E-03
            1369     12.3851E-03     112.402E-03    -13.1042E+06    -2.20852E+06     28.1427E+06    -8.87116E+06    -18.3444E-03     36.0777E-03    -17.7332E-03     14.9696E-03    -18.4505E-03     36.0449E-03    -17.5703E-03     14.8484E-03
            1370     13.2688E-03     112.471E-03    -14.8839E+06    -2.74761E+06     28.3170E+06    -8.17569E+06    -16.7857E-03     34.6393E-03    -17.8536E-03     20.0820E-03    -16.9005E-03     34.6068E-03    -17.6864E-03     19.9697E-03
            1371     14.1536E-03     112.554E-03    -19.1750E+06     595.673E+03     27.0845E+06    -10.3368E+06    -14.7753E-03     32.6358E-03    -17.8605E-03     27.6148E-03    -14.9156E-03     32.6289E-03    -17.6981E-03     27.4749E-03
            1372     15.0432E-03     112.647E-03    -23.8900E+06    -8.75201E+06     19.3964E+06    -11.2669E+06    -14.5466E-03     32.3468E-03    -17.8002E-03     39.7484E-03    -14.6895E-03     32.3151E-03    -17.6559E-03     39.5939E-03
            1373     15.9288E-03     112.763E-03    -21.6712E+06     1.73162E+06     18.0039E+06    -8.54600E+06    -12.6520E-03     30.3327E-03    -17.6807E-03     53.3319E-03    -12.8089E-03     30.3657E-03    -17.5617E-03     53.2080E-03
            1374     16.8208E-03     112.887E-03    -37.0437E+06     13.0436E+06     948.003E+03    -9.85528E+06    -4.44760E-03     21.6946E-03    -17.2470E-03     53.5348E-03    -4.68110E-03     21.8397E-03    -17.2075E-03     53.3978E-03
            1375     16.8391E-03     56.0277E-03    -3.80133E+06     115.965E+06     59.5338E+06    -123.840E+03    -15.5500E-03     31.0550E-03    -15.5050E-03     48.5723E-03    -15.9592E-03     31.6897E-03    -15.3699E-03     48.6135E-03
            1376     15.9526E-03     55.9616E-03    -5.89415E+06     95.8635E+06     24.0507E+06     3.84972E+03    -15.7949E-03     31.1725E-03    -15.3776E-03     70.9775E-03    -16.1884E-03     31.8156E-03    -15.3878E-03     70.9941E-03
            1377     15.0661E-03     55.8955E-03    -6.80629E+06     45.8562E+06     109.620E+03     211.327E+03    -15.9376E-03     31.2941E-03    -15.3565E-03     65.5061E-03    -16.1536E-03     31.6485E-03    -15.4126E-03     65.4813E-03
            1378     14.1795E-03     55.8399E-03    -7.19698E+06     4.02537E+06    -1.12935E+06     157.630E+03    -15.9588E-03     31.3875E-03    -15.4288E-03     56.6570E-03    -16.0610E-03     31.4818E-03    -15.4298E-03     56.6247E-03
            1379     13.2931E-03     55.7906E-03    -7.66227E+06    -14.3368E+06     2.74680E+06     160.607E+03    -15.9251E-03     31.4112E-03    -15.4861E-03     51.1861E-03    -15.9831E-03     31.3831E-03    -15.4405E-03     51.1578E-03
            1380     12.4069E-03     55.7448E-03    -8.65036E+06    -26.5286E+06     3.20313E+06     52.5160E+03    -15.9019E-03     31.4170E-03    -15.5151E-03     47.1846E-03    -15.9350E-03     31.3159E-03    -15.4481E-03     47.1598E-03
            1381     11.5206E-03     55.7028E-03    -9.59004E+06    -40.9596E+06     1.81863E+06     15.4951E+03    -15.8715E-03     31.4077E-03    -15.5362E-03     43.6808E-03    -15.8786E-03     31.2300E-03    -15.4538E-03     43.6601E-03
            1382     10.6343E-03     55.6637E-03    -10.6002E+06    -47.5877E+06     3.92350E+06     48.6106E+03    -15.8266E-03     31.3892E-03    -15.5625E-03     40.3142E-03    -15.8271E-03     31.1717E-03    -15.4585E-03     40.2981E-03
            1383     9.74811E-03     55.6278E-03    -11.9478E+06    -49.9818E+06     4.18894E+06     89.8037E+03    -15.7630E-03     31.3366E-03    -15.5737E-03     36.8284E-03    -15.7636E-03     31.1053E-03    -15.4629E-03     36.8163E-03
            1384     8.86185E-03     55.5952E-03    -13.6263E+06    -54.4536E+06     3.56242E+06     90.3673E+03    -15.7035E-03     31.2878E-03    -15.5843E-03     33.3035E-03    -15.7028E-03     31.0351E-03    -15.4678E-03     33.2942E-03
            1385     7.97564E-03     55.5659E-03    -15.5570E+06    -58.2424E+06     2.53384E+06     56.4758E+03    -15.6523E-03     31.2451E-03    -15.5928E-03     29.7954E-03    -15.6528E-03     30.9762E-03    -15.4731E-03     29.7878E-03
            1386     7.08940E-03     55.5398E-03    -17.6930E+06    -60.8672E+06    -22.0591E+03     79.8171E+03    -15.6054E-03     31.1983E-03    -15.5929E-03     26.3082E-03    -15.6079E-03     30.9220E-03    -15.4791E-03     26.3027E-03
            1387     6.20320E-03     55.5170E-03    -19.9748E+06    -65.2583E+06    -3.42337E+06     161.528E+03    -15.5731E-03     31.1650E-03    -15.5920E-03     22.8481E-03    -15.5749E-03     30.8742E-03    -15.4855E-03     22.8450E-03
            1388     5.31698E-03     55.4973E-03    -22.2578E+06    -69.2542E+06    -7.79136E+06     78.4234E+03    -15.5495E-03     31.1354E-03    -15.5859E-03     19.4506E-03    -15.5501E-03     30.8337E-03    -15.4921E-03     19.4476E-03
            1389     4.43079E-03     55.4808E-03    -24.6092E+06    -73.2433E+06    -12.9661E+06    -24.1699E+03    -15.5337E-03     31.1097E-03    -15.5760E-03     16.1163E-03    -15.5324E-03     30.7986E-03    -15.4989E-03     16.1129E-03
            1390     3.54460E-03     55.4674E-03    -26.8731E+06    -77.8444E+06    -18.3613E+06     39.2872E+03    -15.5280E-03     31.0935E-03    -15.5655E-03     12.8367E-03    -15.5232E-03     30.7702E-03    -15.5055E-03     12.8348E-03
            1391     2.65845E-03     55.4569E-03    -28.7096E+06    -82.0264E+06    -23.6081E+06     42.1805E+03    -15.5268E-03     31.0812E-03    -15.5544E-03     9.61698E-03    -15.5174E-03     30.7471E-03    -15.5118E-03     9.61587E-03
            1392     1.77227E-03     55.4495E-03    -30.1281E+06    -87.2614E+06    -27.7303E+06    -27.2502E+03    -15.5341E-03     31.0834E-03    -15.5493E-03     6.45894E-03    -15.5180E-03     30.7311E-03    -15.5178E-03     6.45752E-03
            1393     886.137E-06     55.4449E-03    -31.0990E+06    -91.2728E+06    -30.4360E+06    -36.3129E+03    -15.5402E-03     31.0910E-03    -15.5508E-03     3.48593E-03    -15.5192E-03     30.7239E-03    -15.5255E-03     3.48489E-03
            1394     16.8402E-03     55.0501E-03    -3.65331E+06     116.162E+06     59.5769E+06    -2.52357E+03    -15.3797E-03     30.8993E-03    -15.5196E-03     49.4648E-03    -15.7915E-03     31.5378E-03    -15.3849E-03     49.5088E-03
            1395     15.9529E-03     54.9843E-03    -6.18936E+06     95.6779E+06     23.4646E+06    -166.997E+03    -16.0285E-03     31.4191E-03    -15.3906E-03     71.9493E-03    -16.4263E-03     32.0665E-03    -15.4030E-03     71.9633E-03
            1396     15.0658E-03     54.9178E-03     -6.9405E+06     45.4184E+06    -322.675E+03    -148.269E+03    -16.0984E-03     31.4594E-03    -15.3610E-03     65.7808E-03    -16.3149E-03     31.8134E-03    -15.4184E-03     65.7506E-03
            1397     14.1793E-03     54.8622E-03    -6.98415E+06     4.19135E+06    -894.504E+03     72.4578E+03    -15.9963E-03     31.4260E-03    -15.4297E-03     56.5904E-03    -16.0979E-03     31.5203E-03    -15.4301E-03     56.5568E-03
            1398     13.2932E-03     54.8125E-03    -7.69497E+06    -14.1822E+06     2.70684E+06     254.355E+03    -15.9664E-03     31.4498E-03    -15.4833E-03     51.1608E-03    -16.0249E-03     31.4227E-03    -15.4381E-03     51.1335E-03
            1399     12.4069E-03     54.7671E-03    -8.46142E+06    -26.3965E+06     3.26782E+06     216.834E+03    -15.8959E-03     31.4071E-03    -15.5112E-03     47.1930E-03    -15.9283E-03     31.3062E-03    -15.4443E-03     47.1703E-03
            1400     11.5206E-03     54.7249E-03    -9.47211E+06    -40.8850E+06     1.83930E+06     84.4529E+03    -15.8697E-03     31.4020E-03    -15.5323E-03     43.7217E-03    -15.8763E-03     31.2245E-03    -15.4501E-03     43.7020E-03
            1401     10.6344E-03     54.6858E-03    -10.6080E+06    -47.6711E+06     3.85161E+06     38.4415E+03    -15.8322E-03     31.3904E-03    -15.5582E-03     40.3236E-03    -15.8325E-03     31.1727E-03    -15.4544E-03     40.3074E-03
            1402     9.74814E-03     54.6499E-03    -11.9235E+06    -50.0230E+06     4.21365E+06     104.109E+03    -15.7580E-03     31.3273E-03    -15.5693E-03     36.8180E-03    -15.7585E-03     31.0957E-03    -15.4585E-03     36.8061E-03
            1403     8.86191E-03     54.6173E-03    -13.4310E+06    -54.4105E+06     3.62810E+06     94.5942E+03    -15.6988E-03     31.2787E-03    -15.5799E-03     33.3099E-03    -15.6973E-03     31.0258E-03    -15.4634E-03     33.3006E-03
            1404     7.97565E-03     54.5880E-03    -15.3043E+06    -58.2892E+06     2.72384E+06     147.049E+03    -15.6540E-03     31.2428E-03    -15.5888E-03     29.7855E-03    -15.6534E-03     30.9731E-03    -15.4685E-03     29.7791E-03
            1405     7.08945E-03     54.5620E-03    -17.5910E+06    -60.8813E+06     213.525E+03     205.587E+03    -15.6049E-03     31.1936E-03    -15.5887E-03     26.2897E-03    -15.6072E-03     30.9167E-03    -15.4738E-03     26.2858E-03
            1406     6.20322E-03     54.5391E-03    -19.9146E+06    -65.1053E+06    -3.42219E+06     43.9180E+03    -15.5700E-03     31.1559E-03    -15.5860E-03     22.8377E-03    -15.5717E-03     30.8658E-03    -15.4798E-03     22.8331E-03
            1407     5.31702E-03     54.5195E-03    -22.1962E+06    -69.2221E+06    -7.82710E+06    -24.9813E+03    -15.5459E-03     31.1253E-03    -15.5795E-03     19.4386E-03    -15.5461E-03     30.8238E-03    -15.4860E-03     19.4342E-03
            1408     4.43081E-03     54.5029E-03    -24.5614E+06    -73.2475E+06    -12.9124E+06     66.5540E+03    -15.5294E-03     31.0991E-03    -15.5697E-03     16.1037E-03    -15.5279E-03     30.7879E-03    -15.4924E-03     16.1015E-03
            1409     3.54464E-03     54.4895E-03    -26.8220E+06    -77.8221E+06    -18.3424E+06     16.1045E+03    -15.5221E-03     31.0808E-03    -15.5587E-03     12.8254E-03    -15.5172E-03     30.7576E-03    -15.4987E-03     12.8232E-03
            1410     2.65845E-03     54.4791E-03    -28.7320E+06    -81.9649E+06    -23.6257E+06    -30.0186E+03    -15.5205E-03     31.0676E-03    -15.5472E-03     9.60898E-03    -15.5112E-03     30.7339E-03    -15.5048E-03     9.60694E-03
            1411     1.77230E-03     54.4716E-03    -30.1458E+06    -87.2394E+06    -27.7265E+06    -43.3825E+03    -15.5275E-03     31.0693E-03    -15.5419E-03     6.45074E-03    -15.5116E-03     30.7171E-03    -15.5103E-03     6.44911E-03
            1412     886.139E-06     54.4671E-03    -31.0779E+06    -91.3553E+06    -30.3129E+06    -46.0893E+03    -15.5417E-03     31.0762E-03    -15.5345E-03     3.48735E-03    -15.5207E-03     30.7085E-03    -15.5085E-03     3.48619E-03
            1413     16.8363E-03     54.0721E-03    -4.03304E+06     115.776E+06     59.2497E+06     61.7085E+03    -15.2225E-03     30.7635E-03    -15.5409E-03     48.8435E-03    -15.6351E-03     31.4009E-03    -15.4067E-03     48.8878E-03
            1414     15.9510E-03     54.0054E-03    -6.61331E+06     95.3777E+06     23.3063E+06    -675.788E+03    -16.3183E-03     31.7264E-03    -15.4081E-03     70.8978E-03    -16.7175E-03     32.3731E-03    -15.4203E-03     70.9028E-03
            1415     15.0660E-03     53.9400E-03    -6.97091E+06     45.8754E+06    -101.973E+03    -291.738E+03    -16.2772E-03     31.6414E-03    -15.3642E-03     65.1923E-03    -16.4945E-03     31.9971E-03    -15.4211E-03     65.1593E-03
            1416     14.1797E-03     53.8842E-03    -7.64711E+06     3.97268E+06    -1.39104E+06     74.4763E+03    -16.0064E-03     31.4313E-03    -15.4249E-03     56.6359E-03    -16.1104E-03     31.5263E-03    -15.4265E-03     56.6023E-03
            1417     13.2932E-03     53.8347E-03    -8.22930E+06    -14.3144E+06     2.37185E+06     156.042E+03    -15.9145E-03     31.3948E-03    -15.4802E-03     51.2491E-03    -15.9749E-03     31.3683E-03    -15.4357E-03     51.2206E-03
            1418     12.4069E-03     53.7891E-03    -8.89594E+06    -26.4104E+06     3.09407E+06     189.019E+03    -15.8993E-03     31.4094E-03    -15.5101E-03     47.2443E-03    -15.9336E-03     31.3093E-03    -15.4434E-03     47.2212E-03
            1419     11.5207E-03     53.7471E-03    -9.64139E+06    -40.7788E+06     1.91698E+06     174.865E+03    -15.8992E-03     31.4297E-03    -15.5305E-03     43.7528E-03    -15.9070E-03     31.2529E-03    -15.4478E-03     43.7341E-03
            1420     10.6344E-03     53.7078E-03    -10.6826E+06    -47.6401E+06     3.84337E+06     55.3061E+03    -15.8294E-03     31.3840E-03    -15.5546E-03     40.3326E-03    -15.8300E-03     31.1665E-03    -15.4508E-03     40.3166E-03
            1421     9.74819E-03     53.6721E-03    -11.9907E+06    -50.0891E+06     4.19689E+06     11.2541E+03    -15.7566E-03     31.3223E-03    -15.5657E-03     36.8198E-03    -15.7573E-03     31.0905E-03    -15.4547E-03     36.8068E-03
            1422     8.86192E-03     53.6394E-03    -13.5887E+06    -54.3919E+06     3.59971E+06     71.6687E+03    -15.7064E-03     31.2818E-03    -15.5755E-03     33.3112E-03    -15.7057E-03     31.0294E-03    -15.4589E-03     33.3017E-03
            1423     7.97573E-03     53.6101E-03    -15.4605E+06    -58.4682E+06     2.60523E+06     183.111E+03    -15.6541E-03     31.2374E-03    -15.5832E-03     29.7736E-03    -15.6539E-03     30.9671E-03    -15.4630E-03     29.7676E-03
            1424     7.08948E-03     53.5841E-03    -17.4364E+06    -60.7100E+06     323.536E+03     184.083E+03    -15.6044E-03     31.1870E-03    -15.5826E-03     26.2764E-03    -15.6064E-03     30.9106E-03    -15.4677E-03     26.2722E-03
            1425     6.20328E-03     53.5613E-03    -19.6760E+06    -64.9109E+06    -3.27378E+06     47.1910E+03    -15.5683E-03     31.1475E-03    -15.5792E-03     22.8231E-03    -15.5693E-03     30.8578E-03    -15.4729E-03     22.8186E-03
            1426     5.31705E-03     53.5416E-03    -22.2086E+06    -69.3279E+06    -7.85956E+06     44.2785E+03    -15.5413E-03     31.1133E-03    -15.5721E-03     19.4249E-03    -15.5414E-03     30.8113E-03    -15.4786E-03     19.4214E-03
            1427     4.43086E-03     53.5251E-03    -24.6311E+06    -73.2012E+06    -12.9238E+06     41.3156E+03    -15.5232E-03     31.0850E-03    -15.5618E-03     16.0918E-03    -15.5221E-03     30.7741E-03    -15.4846E-03     16.0892E-03
            1428     3.54466E-03     53.5117E-03    -26.8106E+06    -77.7423E+06    -18.3205E+06     8.38254E+03    -15.5150E-03     31.0654E-03    -15.5505E-03     12.8144E-03    -15.5101E-03     30.7425E-03    -15.4905E-03     12.8122E-03
            1429     2.65849E-03     53.5013E-03    -28.7245E+06    -81.9482E+06    -23.6667E+06    -26.8892E+03    -15.5124E-03     31.0509E-03    -15.5385E-03     9.60071E-03    -15.5031E-03     30.7173E-03    -15.4963E-03     9.59871E-03
            1430     1.77230E-03     53.4938E-03    -30.2000E+06    -87.2394E+06    -27.8427E+06    -54.2285E+03    -15.5202E-03     31.0527E-03    -15.5324E-03     6.44949E-03    -15.5045E-03     30.7007E-03    -15.5013E-03     6.44772E-03
            1431     886.159E-06     53.4893E-03    -31.1931E+06    -91.4506E+06    -30.5152E+06    -44.5076E+03    -15.5358E-03     31.0566E-03    -15.5208E-03     3.48584E-03    -15.5149E-03     30.6889E-03    -15.4955E-03     3.48470E-03
            1432     16.8407E-03     53.0943E-03    -2.87352E+06     116.473E+06     59.4922E+06     73.6928E+03    -15.4007E-03     30.9182E-03    -15.5175E-03     48.6803E-03    -15.8071E-03     31.5553E-03    -15.3847E-03     48.7242E-03
            1433     15.9533E-03     53.0274E-03    -5.26288E+06     96.1735E+06     23.7685E+06    -149.707E+03    -15.9424E-03     31.3324E-03    -15.3900E-03     70.6699E-03    -16.3339E-03     31.9776E-03    -15.4029E-03     70.6836E-03
            1434     15.0659E-03     52.9620E-03    -7.54890E+06     45.3076E+06    -565.740E+03    -24.8195E+03    -16.0692E-03     31.4314E-03    -15.3623E-03     65.2813E-03    -16.2872E-03     31.7852E-03    -15.4199E-03     65.2528E-03
            1435     14.1795E-03     52.9066E-03    -7.95949E+06     3.45740E+06    -1.78182E+06     57.0990E+03    -16.0354E-03     31.4638E-03    -15.4284E-03     56.8191E-03    -16.1399E-03     31.5575E-03    -15.4308E-03     56.7851E-03
            1436     13.2932E-03     52.8569E-03    -8.27333E+06    -14.3527E+06     2.47168E+06     67.4444E+03    -15.9512E-03     31.4347E-03    -15.4835E-03     51.3636E-03    -16.0119E-03     31.4079E-03    -15.4383E-03     51.3339E-03
            1437     12.4069E-03     52.8113E-03    -9.03060E+06    -26.3059E+06     3.04988E+06     60.4436E+03    -15.9309E-03     31.4412E-03    -15.5103E-03     47.2893E-03    -15.9659E-03     31.3420E-03    -15.4438E-03     47.2646E-03
            1438     11.5206E-03     52.7691E-03    -9.82929E+06    -40.9133E+06     1.72579E+06     55.9516E+03    -15.9166E-03     31.4453E-03    -15.5286E-03     43.7429E-03    -15.9249E-03     31.2684E-03    -15.4464E-03     43.7227E-03
            1439     10.6345E-03     52.7300E-03    -10.7723E+06    -47.4273E+06     3.87635E+06     73.1854E+03    -15.8364E-03     31.3884E-03    -15.5520E-03     40.3165E-03    -15.8379E-03     31.1720E-03    -15.4483E-03     40.3008E-03
            1440     9.74818E-03     52.6942E-03    -12.1797E+06    -50.1205E+06     4.01857E+06    -27.1436E+03    -15.7672E-03     31.3286E-03    -15.5614E-03     36.8250E-03    -15.7685E-03     31.0971E-03    -15.4510E-03     36.8114E-03
            1441     8.86200E-03     52.6616E-03    -13.8059E+06    -54.5745E+06     3.49361E+06     112.692E+03    -15.7149E-03     31.2853E-03    -15.5704E-03     33.2902E-03    -15.7149E-03     31.0324E-03    -15.4538E-03     33.2811E-03
            1442     7.97575E-03     52.6323E-03    -15.6804E+06    -58.3781E+06     2.38628E+06     116.729E+03    -15.6541E-03     31.2302E-03    -15.5761E-03     29.7607E-03    -15.6548E-03     30.9610E-03    -15.4568E-03     29.7540E-03
            1443     7.08955E-03     52.6062E-03    -17.7022E+06    -60.6033E+06     53.7701E+03    -40.3403E+03    -15.6019E-03     31.1763E-03    -15.5744E-03     26.2649E-03    -15.6049E-03     30.9012E-03    -15.4606E-03     26.2578E-03
            1444     6.20331E-03     52.5834E-03    -19.8895E+06    -64.9991E+06    -3.28044E+06     86.6338E+03    -15.5656E-03     31.1374E-03    -15.5718E-03     22.8034E-03    -15.5676E-03     30.8475E-03    -15.4651E-03     22.7994E-03
            1445     5.31711E-03     52.5638E-03    -22.2635E+06    -69.2540E+06    -7.79546E+06     140.924E+03    -15.5361E-03     31.0998E-03    -15.5637E-03     19.4071E-03    -15.5367E-03     30.7981E-03    -15.4700E-03     19.4049E-03
            1446     4.43089E-03     52.5473E-03    -24.6614E+06    -73.0910E+06    -12.9893E+06     6.76505E+03    -15.5148E-03     31.0670E-03    -15.5523E-03     16.0790E-03    -15.5139E-03     30.7568E-03    -15.4755E-03     16.0760E-03
            1447     3.54470E-03     52.5338E-03    -26.8813E+06    -77.7591E+06    -18.4161E+06    -42.4981E+03    -15.5064E-03     31.0472E-03    -15.5408E-03     12.8040E-03    -15.5017E-03     30.7244E-03    -15.4812E-03     12.8011E-03
            1448     2.65850E-03     52.5234E-03    -28.7343E+06    -81.9242E+06    -23.7561E+06    -14.8449E+03    -15.5035E-03     31.0319E-03    -15.5285E-03     9.59099E-03    -15.4941E-03     30.6986E-03    -15.4868E-03     9.58915E-03
            1449     1.77233E-03     52.5160E-03    -30.1373E+06    -87.2613E+06    -27.8649E+06    -14.9954E+03    -15.5120E-03     31.0343E-03    -15.5223E-03     6.44473E-03    -15.4958E-03     30.6822E-03    -15.4914E-03     6.44347E-03
            1450     886.158E-06     52.5114E-03    -31.0863E+06    -91.4900E+06    -30.3861E+06     16.7661E+03    -15.5156E-03     31.0369E-03    -15.5213E-03     3.47155E-03    -15.4943E-03     30.6686E-03    -15.4955E-03     3.47121E-03
            1451     16.8382E-03     52.1159E-03    -3.24275E+06     116.096E+06     59.1263E+06    -231.947E+03    -15.1756E-03     30.6935E-03    -15.5179E-03     49.8021E-03    -15.5851E-03     31.3321E-03    -15.3859E-03     49.8444E-03
            1452     15.9518E-03     52.0503E-03    -6.00913E+06     95.3543E+06     22.7049E+06     588.242E+03    -15.8546E-03     31.2537E-03    -15.3991E-03     72.0097E-03    -16.2496E-03     31.9000E-03    -15.4151E-03     72.0346E-03
            1453     15.0655E-03     51.9841E-03    -7.23722E+06     45.4710E+06    -569.270E+03     469.009E+03    -16.1701E-03     31.5458E-03    -15.3757E-03     65.6727E-03    -16.3873E-03     31.9004E-03    -15.4340E-03     65.6500E-03
            1454     14.1793E-03     51.9286E-03    -7.90071E+06     3.86289E+06    -1.60388E+06    -122.092E+03    -16.1356E-03     31.5733E-03    -15.4377E-03     56.7440E-03    -16.2408E-03     31.6688E-03    -15.4399E-03     56.7074E-03
            1455     13.2931E-03     51.8790E-03    -8.31807E+06    -14.4271E+06     2.25425E+06    -30.3408E+03    -16.0476E-03     31.5331E-03    -15.4855E-03     51.2725E-03    -16.1081E-03     31.5064E-03    -15.4413E-03     51.2414E-03
            1456     12.4069E-03     51.8334E-03    -8.99472E+06    -26.3210E+06     2.99474E+06     13.9200E+03    -15.9599E-03     31.4686E-03    -15.5087E-03     47.2621E-03    -15.9946E-03     31.3693E-03    -15.4426E-03     47.2367E-03
            1457     11.5207E-03     51.7911E-03    -9.85791E+06    -40.8177E+06     1.64809E+06    -9.58120E+03    -15.9168E-03     31.4424E-03    -15.5256E-03     43.6830E-03    -15.9252E-03     31.2661E-03    -15.4439E-03     43.6620E-03
            1458     10.6344E-03     51.7522E-03    -10.9197E+06    -47.5068E+06     3.77754E+06        -508.421    -15.8491E-03     31.3975E-03    -15.5484E-03     40.2836E-03    -15.8510E-03     31.1811E-03    -15.4448E-03     40.2669E-03
            1459     9.74828E-03     51.7163E-03    -12.2622E+06    -50.0191E+06     4.01333E+06     75.2352E+03    -15.7814E-03     31.3377E-03    -15.5563E-03     36.7968E-03    -15.7833E-03     31.1069E-03    -15.4459E-03     36.7845E-03
            1460     8.86202E-03     51.6837E-03    -13.8777E+06    -54.7782E+06     3.34166E+06     31.5855E+03    -15.7174E-03     31.2810E-03    -15.5636E-03     33.2622E-03    -15.7172E-03     31.0274E-03    -15.4473E-03     33.2521E-03
            1461     7.97583E-03     51.6544E-03    -15.5864E+06    -58.1582E+06     2.51247E+06     19.6632E+03    -15.6562E-03     31.2249E-03    -15.5688E-03     29.7308E-03    -15.6568E-03     30.9565E-03    -15.4493E-03     29.7227E-03
            1462     7.08959E-03     51.6284E-03    -17.7110E+06    -60.5870E+06     34.4545E+03    -46.3475E+03    -15.5983E-03     31.1643E-03    -15.5660E-03     26.2417E-03    -15.6014E-03     30.8893E-03    -15.4523E-03     26.2346E-03
            1463     6.20338E-03     51.6055E-03    -20.0566E+06    -65.2061E+06    -3.38187E+06    -8.57122E+03    -15.5606E-03     31.1234E-03    -15.5628E-03     22.7837E-03    -15.5629E-03     30.8329E-03    -15.4561E-03     22.7784E-03
            1464     5.31715E-03     51.5859E-03    -22.3454E+06    -69.1468E+06    -7.79544E+06     63.2235E+03    -15.5294E-03     31.0834E-03    -15.5540E-03     19.3894E-03    -15.5305E-03     30.7824E-03    -15.4603E-03     19.3862E-03
            1465     4.43094E-03     51.5695E-03    -24.6424E+06    -72.9741E+06    -12.9976E+06     10.8566E+03    -15.5063E-03     31.0482E-03    -15.5419E-03     16.0643E-03    -15.5055E-03     30.7385E-03    -15.4653E-03     16.0613E-03
            1466     3.54473E-03     51.5560E-03    -26.8827E+06    -77.7842E+06    -18.4910E+06    -40.7600E+03    -15.4969E-03     31.0269E-03    -15.5300E-03     12.7917E-03    -15.4921E-03     30.7041E-03    -15.4707E-03     12.7889E-03
            1467     2.65854E-03     51.5456E-03    -28.7897E+06    -81.9555E+06    -23.8083E+06    -34.9688E+03    -15.4949E-03     31.0123E-03    -15.5174E-03     9.57998E-03    -15.4857E-03     30.6790E-03    -15.4758E-03     9.57789E-03
            1468     1.77235E-03     51.5382E-03    -30.1887E+06    -87.2780E+06    -27.8873E+06     5.24783E+03    -15.5012E-03     31.0118E-03    -15.5105E-03     6.43909E-03    -15.4852E-03     30.6597E-03    -15.4797E-03     6.43809E-03
            1469     886.180E-06     51.5336E-03    -31.0699E+06    -91.4822E+06    -30.4116E+06    -13.1949E+03    -15.4916E-03     31.0128E-03    -15.5213E-03     3.45125E-03    -15.4702E-03     30.6446E-03    -15.4956E-03     3.45052E-03
            1470     16.8389E-03     51.1401E-03    -3.53800E+06     115.729E+06     58.8845E+06     349.949E+03    -15.0522E-03     30.5917E-03    -15.5395E-03     49.3287E-03    -15.4614E-03     31.2284E-03    -15.4078E-03     49.3778E-03
            1471     15.9514E-03     51.0712E-03    -7.52644E+06     94.5049E+06     22.0775E+06     226.916E+03    -16.1218E-03     31.5389E-03    -15.4171E-03     71.3034E-03    -16.5218E-03     32.1837E-03    -15.4328E-03     71.3212E-03
            1472     15.0656E-03     51.0065E-03    -7.68344E+06     46.1710E+06    -262.971E+03     29.0859E+03    -16.3172E-03     31.6991E-03    -15.3819E-03     65.0337E-03    -16.5379E-03     32.0572E-03    -15.4390E-03     65.0046E-03
            1473     14.1792E-03     50.9503E-03    -7.70800E+06     4.04934E+06    -1.48084E+06    -37.8091E+03    -16.1862E-03     31.6222E-03    -15.4360E-03     56.4777E-03    -16.2907E-03     31.7180E-03    -15.4381E-03     56.4420E-03
            1474     13.2932E-03     50.9012E-03    -8.45081E+06    -14.5535E+06     2.23279E+06    -81.8338E+03    -16.0550E-03     31.5366E-03    -15.4816E-03     51.0624E-03    -16.1160E-03     31.5094E-03    -15.4370E-03     51.0305E-03
            1475     12.4070E-03     50.8553E-03    -9.16563E+06    -26.3663E+06     3.00341E+06    -53.0566E+03    -15.9576E-03     31.4616E-03    -15.5041E-03     47.1860E-03    -15.9931E-03     31.3623E-03    -15.4375E-03     47.1597E-03
            1476     11.5207E-03     50.8134E-03    -9.91710E+06    -40.8006E+06     1.76276E+06    -39.8519E+03    -15.9148E-03     31.4356E-03    -15.5208E-03     43.6243E-03    -15.9236E-03     31.2592E-03    -15.4384E-03     43.6029E-03
            1477     10.6345E-03     50.7742E-03    -10.9614E+06    -47.5281E+06     3.82670E+06    -17.4391E+03    -15.8564E-03     31.3989E-03    -15.5425E-03     40.2507E-03    -15.8586E-03     31.1824E-03    -15.4386E-03     40.2338E-03
            1478     9.74831E-03     50.7384E-03    -12.2750E+06    -50.1108E+06     4.10051E+06     27.8108E+03    -15.7846E-03     31.3341E-03    -15.5495E-03     36.7500E-03    -15.7866E-03     31.1028E-03    -15.4386E-03     36.7371E-03
            1479     8.86212E-03     50.7058E-03    -13.8030E+06    -54.5782E+06     3.44764E+06    -20.2163E+03    -15.7173E-03     31.2727E-03    -15.5554E-03     33.2281E-03    -15.7172E-03     31.0198E-03    -15.4390E-03     33.2173E-03
            1480     7.97589E-03     50.6765E-03    -15.6744E+06    -58.2591E+06     2.46060E+06    -103.312E+03    -15.6518E-03     31.2115E-03    -15.5597E-03     29.7021E-03    -15.6526E-03     30.9427E-03    -15.4402E-03     29.6925E-03
            1481     7.08967E-03     50.6505E-03    -17.7226E+06    -60.5382E+06     76.6517E+03    -6.28614E+03    -15.5938E-03     31.1502E-03    -15.5564E-03     26.2171E-03    -15.5971E-03     30.8755E-03    -15.4425E-03     26.2105E-03
            1482     6.20343E-03     50.6277E-03    -19.9881E+06    -65.2580E+06    -3.45186E+06    -49.9891E+03    -15.5535E-03     31.1056E-03    -15.5521E-03     22.7621E-03    -15.5554E-03     30.8149E-03    -15.4458E-03     22.7563E-03
            1483     5.31721E-03     50.6081E-03    -22.3589E+06    -69.1695E+06    -7.87232E+06    -63.9378E+03    -15.5213E-03     31.0642E-03    -15.5429E-03     19.3682E-03    -15.5224E-03     30.7632E-03    -15.4496E-03     19.3634E-03
            1484     4.43099E-03     50.5916E-03    -24.6963E+06    -72.9592E+06    -13.0458E+06    -5.12561E+03    -15.4973E-03     31.0278E-03    -15.5304E-03     16.0451E-03    -15.4967E-03     30.7183E-03    -15.4541E-03     16.0419E-03
            1485     3.54477E-03     50.5782E-03    -26.9180E+06    -77.7637E+06    -18.5053E+06     6.32713E+03    -15.4868E-03     31.0051E-03    -15.5182E-03     12.7776E-03    -15.4822E-03     30.6825E-03    -15.4589E-03     12.7754E-03
            1486     2.65857E-03     50.5678E-03    -28.8715E+06    -82.0007E+06    -23.8235E+06         412.063    -15.4835E-03     30.9887E-03    -15.5052E-03     9.57002E-03    -15.4746E-03     30.6554E-03    -15.4636E-03     9.56839E-03
            1487     1.77237E-03     50.5604E-03    -30.3576E+06    -87.2865E+06    -27.9836E+06     12.5007E+03    -15.4847E-03     30.9837E-03    -15.4990E-03     6.43053E-03    -15.4695E-03     30.6320E-03    -15.4683E-03     6.42962E-03
            1488     886.177E-06     50.5558E-03    -31.3156E+06    -91.4626E+06    -30.6702E+06     9.79209E+03    -15.4817E-03     30.9905E-03    -15.5088E-03     3.45922E-03    -15.4612E-03     30.6231E-03    -15.4841E-03     3.45878E-03
            1489     16.8376E-03     50.1606E-03    -3.13033E+06     116.238E+06     59.9172E+06     574.604E+03    -15.4069E-03     30.9339E-03    -15.5270E-03     48.7543E-03    -15.8146E-03     31.5694E-03    -15.3914E-03     48.8050E-03
            1490     15.9527E-03     50.0940E-03    -4.46045E+06     96.0355E+06     25.0578E+06     440.512E+03    -16.0323E-03     31.4329E-03    -15.4006E-03     71.0064E-03    -16.4220E-03     32.0750E-03    -15.4081E-03     71.0271E-03
            1491     15.0657E-03     50.0279E-03    -6.43514E+06     45.7752E+06     413.426E+03    -76.3724E+03    -16.1664E-03     31.5314E-03    -15.3650E-03     64.8505E-03    -16.3809E-03     31.8843E-03    -15.4200E-03     64.8205E-03
            1492     14.1797E-03     49.9726E-03    -7.18495E+06     4.01754E+06    -1.05092E+06     279.537E+03    -16.1014E-03     31.5259E-03    -15.4245E-03     56.3678E-03    -16.2035E-03     31.6198E-03    -15.4252E-03     56.3365E-03
            1493     13.2933E-03     49.9230E-03    -7.80567E+06    -14.5596E+06     2.78192E+06     137.964E+03    -16.0139E-03     31.4876E-03    -15.4737E-03     51.0125E-03    -16.0724E-03     31.4587E-03    -15.4274E-03     50.9835E-03
            1494     12.4071E-03     49.8776E-03    -8.81623E+06    -26.2217E+06     3.29411E+06    -80.1906E+03    -15.9383E-03     31.4349E-03    -15.4966E-03     47.1234E-03    -15.9726E-03     31.3353E-03    -15.4293E-03     47.0968E-03
            1495     11.5208E-03     49.8353E-03    -9.69643E+06    -40.9211E+06     1.86149E+06    -124.161E+03    -15.9137E-03     31.4268E-03    -15.5131E-03     43.6161E-03    -15.9213E-03     31.2494E-03    -15.4304E-03     43.5936E-03
            1496     10.6346E-03     49.7964E-03    -10.7102E+06    -47.5624E+06     4.03288E+06     12.7565E+03    -15.8616E-03     31.3960E-03    -15.5344E-03     40.2121E-03    -15.8628E-03     31.1786E-03    -15.4298E-03     40.1955E-03
            1497     9.74842E-03     49.7605E-03    -12.0947E+06    -50.0753E+06     4.21662E+06    -13.3218E+03    -15.7781E-03     31.3183E-03    -15.5403E-03     36.7147E-03    -15.7794E-03     31.0867E-03    -15.4290E-03     36.7013E-03
            1498     8.86221E-03     49.7280E-03    -13.6949E+06    -54.5100E+06     3.54720E+06    -62.1819E+03    -15.7094E-03     31.2553E-03    -15.5458E-03     33.1962E-03    -15.7090E-03     31.0024E-03    -15.4292E-03     33.1849E-03
            1499     7.97597E-03     49.6987E-03    -15.5639E+06    -58.2485E+06     2.46922E+06    -67.6765E+03    -15.6456E-03     31.1951E-03    -15.5495E-03     29.6807E-03    -15.6460E-03     30.9263E-03    -15.4301E-03     29.6716E-03
            1500     7.08974E-03     49.6727E-03    -17.7239E+06    -60.6618E+06    -3.39325E+03    -71.2905E+03    -15.5891E-03     31.1346E-03    -15.5455E-03     26.1931E-03    -15.5920E-03     30.8593E-03    -15.4319E-03     26.1856E-03
            1501     6.20351E-03     49.6499E-03    -19.9998E+06    -65.1362E+06    -3.48690E+06    -34.5179E+03    -15.5469E-03     31.0873E-03    -15.5403E-03     22.7382E-03    -15.5490E-03     30.7972E-03    -15.4343E-03     22.7327E-03
            1502     5.31728E-03     49.6303E-03    -22.3978E+06    -69.2486E+06    -7.97667E+06    -95.7500E+03    -15.5127E-03     31.0432E-03    -15.5305E-03     19.3452E-03    -15.5137E-03     30.7420E-03    -15.4375E-03     19.3400E-03
            1503     4.43104E-03     49.6139E-03    -24.7607E+06    -73.0351E+06    -13.0779E+06    -35.3951E+03    -15.4878E-03     31.0055E-03    -15.5177E-03     16.0224E-03    -15.4874E-03     30.6958E-03    -15.4413E-03     16.0189E-03
            1504     3.54482E-03     49.6005E-03    -26.9742E+06    -77.7579E+06    -18.4893E+06     15.4864E+03    -15.4750E-03     30.9800E-03    -15.5050E-03     12.7594E-03    -15.4707E-03     30.6575E-03    -15.4455E-03     12.7573E-03
            1505     2.65860E-03     49.5901E-03    -28.8548E+06    -82.0038E+06    -23.7806E+06     14.4461E+03    -15.4704E-03     30.9621E-03    -15.4917E-03     9.55541E-03    -15.4615E-03     30.6286E-03    -15.4498E-03     9.55396E-03
            1506     1.77239E-03     49.5826E-03    -30.2668E+06    -87.3021E+06    -27.9019E+06     15.0348E+03    -15.4715E-03     30.9568E-03    -15.4853E-03     6.40524E-03    -15.4559E-03     30.6047E-03    -15.4543E-03     6.40437E-03
            1507     886.180E-06     49.5781E-03    -31.1754E+06    -91.4270E+06    -30.4884E+06     41.5127E+03    -15.4793E-03     30.9632E-03    -15.4839E-03     3.46567E-03    -15.4584E-03     30.5956E-03    -15.4586E-03     3.46564E-03
            1508     16.8412E-03     49.1843E-03    -3.82782E+06     115.581E+06     59.0535E+06    -400.468E+03    -15.5492E-03     31.0613E-03    -15.5120E-03     49.3627E-03    -15.9608E-03     31.6984E-03    -15.3788E-03     49.4008E-03
            1509     15.9522E-03     49.1156E-03    -5.30414E+06     95.6322E+06     23.9677E+06     145.765E+03    -16.0277E-03     31.4089E-03    -15.3812E-03     71.8043E-03    -16.4215E-03     32.0539E-03    -15.3923E-03     71.8218E-03
            1510     15.0665E-03     49.0505E-03    -5.89063E+06     46.3539E+06     715.648E+03     722.619E+03    -16.1091E-03     31.4602E-03    -15.3511E-03     65.1805E-03    -16.3219E-03     31.8145E-03    -15.4062E-03     65.1611E-03
            1511     14.1795E-03     48.9945E-03    -6.72457E+06     4.04559E+06    -868.047E+03     480.496E+03    -16.0405E-03     31.4550E-03    -15.4144E-03     56.5761E-03    -16.1407E-03     31.5482E-03    -15.4149E-03     56.5477E-03
            1512     13.2935E-03     48.9452E-03    -7.41542E+06    -14.5017E+06     2.85924E+06     265.825E+03    -15.9972E-03     31.4627E-03    -15.4655E-03     51.0704E-03    -16.0540E-03     31.4333E-03    -15.4194E-03     51.0431E-03
            1513     12.4072E-03     48.8996E-03    -8.25761E+06    -25.9261E+06     3.59451E+06     178.588E+03    -15.9469E-03     31.4357E-03    -15.4888E-03     47.1304E-03    -15.9794E-03     31.3363E-03    -15.4212E-03     47.1072E-03
            1514     11.5210E-03     48.8575E-03    -9.41784E+06    -40.8671E+06     1.88637E+06    -37.8412E+03    -15.9233E-03     31.4267E-03    -15.5034E-03     43.6182E-03    -15.9297E-03     31.2491E-03    -15.4211E-03     43.5969E-03
            1515     10.6347E-03     48.8184E-03    -10.5349E+06    -47.7460E+06     4.02150E+06    -20.7394E+03    -15.8543E-03     31.3786E-03    -15.5243E-03     40.1827E-03    -15.8544E-03     31.1601E-03    -15.4197E-03     40.1658E-03
            1516     9.74855E-03     48.7827E-03    -11.8891E+06    -49.9375E+06     4.34927E+06     50.9862E+03    -15.7687E-03     31.2989E-03    -15.5302E-03     36.6946E-03    -15.7693E-03     31.0674E-03    -15.4188E-03     36.6821E-03
            1517     8.86228E-03     48.7501E-03    -13.5440E+06    -54.5044E+06     3.59942E+06    -41.5897E+03    -15.7033E-03     31.2387E-03    -15.5354E-03     33.1773E-03    -15.7022E-03     30.9856E-03    -15.4187E-03     33.1664E-03
            1518     7.97607E-03     48.7209E-03    -15.4229E+06    -58.2492E+06     2.57562E+06    -51.3322E+03    -15.6429E-03     31.1816E-03    -15.5387E-03     29.6490E-03    -15.6427E-03     30.9124E-03    -15.4190E-03     29.6401E-03
            1519     7.08982E-03     48.6949E-03    -17.5183E+06    -60.6906E+06     47.7919E+03    -28.7419E+03    -15.5836E-03     31.1172E-03    -15.5336E-03     26.1621E-03    -15.5856E-03     30.8414E-03    -15.4199E-03     26.1552E-03
            1520     6.20359E-03     48.6721E-03    -19.8199E+06    -65.1333E+06    -3.39226E+06    -46.0657E+03    -15.5407E-03     31.0685E-03    -15.5278E-03     22.7065E-03    -15.5420E-03     30.7781E-03    -15.4216E-03     22.7008E-03
            1521     5.31734E-03     48.6526E-03    -22.2113E+06    -69.2157E+06    -7.78648E+06    -38.4137E+03    -15.5054E-03     31.0228E-03    -15.5174E-03     19.3163E-03    -15.5058E-03     30.7212E-03    -15.4238E-03     19.3119E-03
            1522     4.43112E-03     48.6361E-03    -24.6341E+06    -73.1560E+06    -12.9506E+06    -45.3512E+03    -15.4782E-03     30.9819E-03    -15.5037E-03     15.9952E-03    -15.4772E-03     30.6712E-03    -15.4266E-03     15.9915E-03
            1523     3.54487E-03     48.6227E-03    -26.8557E+06    -77.7342E+06    -18.3683E+06    -13.1808E+03    -15.4621E-03     30.9520E-03    -15.4899E-03     12.7376E-03    -15.4574E-03     30.6293E-03    -15.4301E-03     12.7351E-03
            1524     2.65865E-03     48.6123E-03    -28.7382E+06    -82.0362E+06    -23.6539E+06    -17.9409E+03    -15.4558E-03     30.9321E-03    -15.4763E-03     9.54133E-03    -15.4464E-03     30.5981E-03    -15.4340E-03     9.53947E-03
            1525     1.77243E-03     48.6049E-03    -30.1579E+06    -87.2965E+06    -27.7760E+06    -5.06690E+03    -15.4621E-03     30.9298E-03    -15.4677E-03     6.39311E-03    -15.4462E-03     30.5774E-03    -15.4362E-03     6.39199E-03
            1526     886.230E-06     48.6004E-03    -31.1184E+06    -91.4456E+06    -30.3833E+06     2.55951E+03    -15.4628E-03     30.9235E-03    -15.4607E-03     3.46809E-03    -15.4418E-03     30.5555E-03    -15.4349E-03     3.46756E-03
            1527     16.8365E-03     48.2052E-03    -3.66279E+06     115.475E+06     58.6891E+06    -212.890E+03    -15.5135E-03     31.0286E-03    -15.5150E-03     49.1235E-03    -15.9238E-03     31.6656E-03    -15.3837E-03     49.1629E-03
            1528     15.9529E-03     48.1380E-03    -6.81859E+06     95.0135E+06     22.5439E+06    -260.970E+03    -16.1874E-03     31.5652E-03    -15.3778E-03     71.3363E-03    -16.5854E-03     32.2108E-03    -15.3929E-03     71.3472E-03
            1529     15.0657E-03     48.0724E-03    -7.64674E+06     46.0172E+06    -232.780E+03     144.130E+03    -16.0893E-03     31.4345E-03    -15.3453E-03     65.1822E-03    -16.3087E-03     31.7909E-03    -15.4021E-03     65.1556E-03
            1530     14.1800E-03     48.0168E-03    -7.24295E+06     4.11644E+06    -1.11682E+06     243.399E+03    -16.0594E-03     31.4686E-03    -15.4092E-03     56.6128E-03    -16.1621E-03     31.5635E-03    -15.4102E-03     56.5811E-03
            1531     13.2934E-03     47.9672E-03    -7.54328E+06    -14.2878E+06     2.81274E+06     191.183E+03    -16.0014E-03     31.4608E-03    -15.4593E-03     51.1122E-03    -16.0590E-03     31.4327E-03    -15.4136E-03     51.0840E-03
            1532     12.4073E-03     47.9218E-03    -8.30369E+06    -25.8812E+06     3.66977E+06     270.749E+03    -15.9756E-03     31.4573E-03    -15.4817E-03     47.1122E-03    -16.0085E-03     31.3582E-03    -15.4138E-03     47.0901E-03
            1533     11.5211E-03     47.8795E-03    -9.20950E+06    -40.5753E+06     2.15242E+06     226.443E+03    -15.9259E-03     31.4208E-03    -15.4948E-03     43.5920E-03    -15.9321E-03     31.2439E-03    -15.4119E-03     43.5740E-03
            1534     10.6349E-03     47.8406E-03    -10.4608E+06    -47.8214E+06     3.98482E+06     30.5058E+03    -15.8435E-03     31.3580E-03    -15.5145E-03     40.1875E-03    -15.8430E-03     31.1390E-03    -15.4101E-03     40.1712E-03
            1535     9.74860E-03     47.8048E-03    -11.7974E+06    -49.9777E+06     4.43129E+06     36.9008E+03    -15.7709E-03     31.2913E-03    -15.5205E-03     36.6750E-03    -15.7711E-03     31.0594E-03    -15.4087E-03     36.6622E-03
            1536     8.86241E-03     47.7723E-03    -13.3884E+06    -54.3588E+06     3.73359E+06     47.1735E+03    -15.7062E-03     31.2305E-03    -15.5243E-03     33.1452E-03    -15.7047E-03     30.9777E-03    -15.4074E-03     33.1354E-03
            1537     7.97615E-03     47.7430E-03    -15.3116E+06    -58.2924E+06     2.64708E+06    -23.3493E+03    -15.6407E-03     31.1670E-03    -15.5263E-03     29.6121E-03    -15.6400E-03     30.8973E-03    -15.4064E-03     29.6036E-03
            1538     7.08993E-03     47.7171E-03    -17.4370E+06    -60.6772E+06     185.664E+03    -21.8058E+03    -15.5786E-03     31.0989E-03    -15.5203E-03     26.1228E-03    -15.5804E-03     30.8229E-03    -15.4061E-03     26.1160E-03
            1539     6.20367E-03     47.6943E-03    -19.6864E+06    -65.1216E+06    -3.32301E+06    -39.0854E+03    -15.5324E-03     31.0455E-03    -15.5131E-03     22.6692E-03    -15.5331E-03     30.7548E-03    -15.4068E-03     22.6636E-03
            1540     5.31744E-03     47.6748E-03    -22.0472E+06    -69.2635E+06    -7.63550E+06    -24.9879E+03    -15.4955E-03     30.9978E-03    -15.5023E-03     19.2807E-03    -15.4952E-03     30.6955E-03    -15.4080E-03     19.2764E-03
            1541     4.43118E-03     47.6584E-03    -24.4323E+06    -73.1647E+06    -12.7562E+06     25.2302E+03    -15.4664E-03     30.9541E-03    -15.4877E-03     15.9645E-03    -15.4646E-03     30.6428E-03    -15.4100E-03     15.9618E-03
            1542     3.54495E-03     47.6450E-03    -26.7373E+06    -77.7348E+06    -18.2733E+06    -4.17395E+03    -15.4484E-03     30.9212E-03    -15.4727E-03     12.7116E-03    -15.4433E-03     30.5981E-03    -15.4126E-03     12.7093E-03
            1543     2.65869E-03     47.6347E-03    -28.6863E+06    -82.0484E+06    -23.5935E+06    -2.75560E+03    -15.4385E-03     30.8970E-03    -15.4585E-03     9.52217E-03    -15.4289E-03     30.5627E-03    -15.4159E-03     9.52051E-03
            1544     1.77246E-03     47.6272E-03    -30.1808E+06    -87.3244E+06    -27.7628E+06    -6.94345E+03    -15.4437E-03     30.8934E-03    -15.4497E-03     6.38783E-03    -15.4278E-03     30.5408E-03    -15.4181E-03     6.38669E-03
            1545     886.227E-06     47.6227E-03    -31.1007E+06    -91.4459E+06    -30.4405E+06    -6.41865E+03    -15.4399E-03     30.8872E-03    -15.4472E-03     3.43580E-03    -15.4187E-03     30.5192E-03    -15.4218E-03     3.43516E-03
            1546     16.8411E-03     47.2264E-03    -3.40812E+06     115.692E+06     59.6177E+06     147.601E+03    -15.5214E-03     31.0221E-03    -15.5007E-03     48.3773E-03    -15.9287E-03     31.6551E-03    -15.3654E-03     48.4217E-03
            1547     15.9525E-03     47.1603E-03    -5.60685E+06     95.7625E+06     24.2304E+06     229.392E+03    -15.8449E-03     31.2178E-03    -15.3728E-03     70.9716E-03    -16.2380E-03     31.8606E-03    -15.3824E-03     70.9909E-03
            1548     15.0666E-03     47.0947E-03    -7.15540E+06     45.6711E+06    -125.648E+03    -205.886E+03    -16.0897E-03     31.4340E-03    -15.3443E-03     65.4226E-03    -16.3069E-03     31.7883E-03    -15.4008E-03     65.3915E-03
            1549     14.1797E-03     47.0389E-03    -7.57808E+06     3.98112E+06    -1.30072E+06    -170.587E+03    -16.0977E-03     31.5044E-03    -15.4067E-03     56.7193E-03    -16.2018E-03     31.5995E-03    -15.4080E-03     56.6821E-03
            1550     13.2936E-03     46.9894E-03    -8.02902E+06    -14.2091E+06     2.66428E+06     112.505E+03    -16.0504E-03     31.5043E-03    -15.4539E-03     51.1455E-03    -16.1103E-03     31.4775E-03    -15.4083E-03     51.1162E-03
            1551     12.4074E-03     46.9437E-03    -8.66472E+06    -26.0840E+06     3.47278E+06     118.429E+03    -15.9715E-03     31.4457E-03    -15.4742E-03     47.0972E-03    -16.0056E-03     31.3463E-03    -15.4065E-03     47.0731E-03
            1552     11.5212E-03     46.9018E-03    -9.37645E+06    -40.4959E+06     2.16093E+06     253.983E+03    -15.9241E-03     31.4113E-03    -15.4872E-03     43.5809E-03    -15.9312E-03     31.2351E-03    -15.4041E-03     43.5633E-03
            1553     10.6349E-03     46.8627E-03    -10.3713E+06    -47.5893E+06     4.04455E+06     152.768E+03    -15.8601E-03     31.3653E-03    -15.5052E-03     40.1662E-03    -15.8595E-03     31.1473E-03    -15.4009E-03     40.1515E-03
            1554     9.74875E-03     46.8270E-03    -11.7957E+06    -50.0717E+06     4.34260E+06     30.8712E+03    -15.7812E-03     31.2901E-03    -15.5089E-03     36.6319E-03    -15.7811E-03     31.0578E-03    -15.3975E-03     36.6191E-03
            1555     8.86249E-03     46.7944E-03    -13.4377E+06    -54.3156E+06     3.74869E+06     92.6869E+03    -15.7071E-03     31.2185E-03    -15.5114E-03     33.0972E-03    -15.7059E-03     30.9659E-03    -15.3944E-03     33.0880E-03
            1556     7.97629E-03     46.7653E-03    -15.3358E+06    -58.2059E+06     2.66815E+06     59.7160E+03    -15.6363E-03     31.1483E-03    -15.5120E-03     29.5715E-03    -15.6358E-03     30.8790E-03    -15.3920E-03     29.5640E-03
            1557     7.09003E-03     46.7393E-03    -17.5114E+06    -60.7030E+06     198.133E+03     2.38144E+03    -15.5717E-03     31.0767E-03    -15.5050E-03     26.0831E-03    -15.5738E-03     30.8006E-03    -15.3906E-03     26.0766E-03
            1558     6.20380E-03     46.7166E-03    -19.8577E+06    -65.0686E+06    -3.39318E+06    -14.0754E+03    -15.5214E-03     31.0177E-03    -15.4963E-03     22.6348E-03    -15.5229E-03     30.7276E-03    -15.3901E-03     22.6295E-03
            1559     5.31752E-03     46.6971E-03    -22.2656E+06    -69.3397E+06    -7.86043E+06    -20.6337E+03    -15.4819E-03     30.9659E-03    -15.4840E-03     19.2499E-03    -15.4822E-03     30.6639E-03    -15.3905E-03     19.2457E-03
            1560     4.43128E-03     46.6807E-03    -24.6076E+06      -73.18E+06    -12.8913E+06     15.0904E+03    -15.4530E-03     30.9218E-03    -15.4688E-03     15.9341E-03    -15.4518E-03     30.6109E-03    -15.3915E-03     15.9312E-03
            1561     3.54499E-03     46.6673E-03    -26.8015E+06    -77.7166E+06    -18.3089E+06     52.2529E+03    -15.4343E-03     30.8870E-03    -15.4527E-03     12.6786E-03    -15.4295E-03     30.5642E-03    -15.3927E-03     12.6770E-03
            1562     2.65876E-03     46.6570E-03    -28.7466E+06    -82.0383E+06    -23.6599E+06     32.6017E+03    -15.4219E-03     30.8586E-03    -15.4366E-03     9.49284E-03    -15.4126E-03     30.5246E-03    -15.3943E-03     9.49164E-03
            1563     1.77249E-03     46.6496E-03    -30.1920E+06    -87.3114E+06    -27.8250E+06     7.82859E+03    -15.4185E-03     30.8462E-03    -15.4277E-03     6.36324E-03    -15.4026E-03     30.4939E-03    -15.3965E-03     6.36230E-03
            1564     886.249E-06     46.6451E-03    -31.1257E+06    -91.4653E+06    -30.4443E+06    -12.9002E+03    -15.4190E-03     30.8456E-03    -15.4266E-03     3.40998E-03    -15.3979E-03     30.4776E-03    -15.4011E-03     3.40926E-03
            1565     16.8390E-03     46.2503E-03    -3.84681E+06     115.166E+06     59.0961E+06    -166.122E+03    -15.3949E-03     30.9168E-03    -15.5219E-03     50.1172E-03    -15.8066E-03     31.5524E-03    -15.3878E-03     50.1583E-03
            1566     15.9527E-03     46.1825E-03    -6.17331E+06     95.3808E+06     23.4294E+06     320.349E+03    -16.1696E-03     31.5600E-03    -15.3904E-03     72.2336E-03    -16.5671E-03     32.2063E-03    -15.4026E-03     72.2525E-03
            1567     15.0656E-03     46.1168E-03    -6.71372E+06     46.2596E+06    -41.3866E+03     262.450E+03    -16.2822E-03     31.6332E-03    -15.3510E-03     65.6662E-03    -16.4988E-03     31.9904E-03    -15.4086E-03     65.6403E-03
            1568     14.1799E-03     46.0609E-03    -7.34307E+06     4.27242E+06    -1.24887E+06     50.4893E+03    -16.2200E-03     31.6250E-03    -15.4050E-03     56.6788E-03    -16.3232E-03     31.7210E-03    -15.4068E-03     56.6442E-03
            1569     13.2937E-03     46.0113E-03    -8.10146E+06    -14.2504E+06     2.41165E+06    -18.5713E+03    -16.0672E-03     31.5141E-03    -15.4469E-03     51.0633E-03    -16.1270E-03     31.4875E-03    -15.4024E-03     51.0323E-03
            1570     12.4074E-03     45.9660E-03    -8.87242E+06    -26.2480E+06     3.06160E+06     37.0808E+03    -15.9699E-03     31.4356E-03    -15.4658E-03     47.0721E-03    -16.0041E-03     31.3363E-03    -15.3995E-03     47.0470E-03
            1571     11.5212E-03     45.9238E-03    -9.69760E+06    -40.6053E+06     1.81161E+06     100.073E+03    -15.9490E-03     31.4266E-03    -15.4776E-03     43.5352E-03    -15.9571E-03     31.2508E-03    -15.3956E-03     43.5156E-03
            1572     10.6351E-03     45.8849E-03    -10.6642E+06    -47.4213E+06     3.90663E+06     153.602E+03    -15.8784E-03     31.3719E-03    -15.4935E-03     40.0928E-03    -15.8794E-03     31.1553E-03    -15.3897E-03     40.0781E-03
            1573     9.74884E-03     45.8491E-03    -11.9930E+06    -50.0210E+06     4.20401E+06     89.4017E+03    -15.7817E-03     31.2768E-03    -15.4951E-03     36.5821E-03    -15.7825E-03     31.0453E-03    -15.3842E-03     36.5701E-03
            1574     8.86266E-03     45.8167E-03    -13.5659E+06    -54.3925E+06     3.70706E+06     58.8758E+03    -15.7048E-03     31.2016E-03    -15.4968E-03     33.0505E-03    -15.7041E-03     30.9489E-03    -15.3797E-03     33.0409E-03
            1575     7.97639E-03     45.7875E-03    -15.4008E+06    -58.1270E+06     2.67848E+06     96.8676E+03    -15.6312E-03     31.1272E-03    -15.4960E-03     29.5255E-03    -15.6312E-03     30.8584E-03    -15.3760E-03     29.5186E-03
            1576     7.09017E-03     45.7616E-03    -17.4946E+06    -60.6477E+06     207.339E+03     36.1118E+03    -15.5628E-03     31.0505E-03    -15.4876E-03     26.0356E-03    -15.5649E-03     30.7746E-03    -15.3733E-03     26.0296E-03
            1577     6.20388E-03     45.7389E-03    -19.7750E+06    -65.0951E+06    -3.31008E+06     37.4133E+03    -15.5104E-03     30.9887E-03    -15.4783E-03     22.5866E-03    -15.5116E-03     30.6982E-03    -15.3717E-03     22.5820E-03
            1578     5.31764E-03     45.7194E-03    -22.2191E+06    -69.3191E+06    -7.86501E+06     66.2017E+03    -15.4694E-03     30.9338E-03    -15.4644E-03     19.2072E-03    -15.4696E-03     30.6318E-03    -15.3710E-03     19.2041E-03
            1579     4.43134E-03     45.7030E-03    -24.6859E+06    -73.1724E+06    -13.0221E+06     18.6460E+03    -15.4384E-03     30.8858E-03    -15.4474E-03     15.8967E-03    -15.4375E-03     30.5752E-03    -15.3706E-03     15.8939E-03
            1580     3.54511E-03     45.6897E-03    -26.9201E+06    -77.7427E+06    -18.3932E+06     15.2959E+03    -15.4168E-03     30.8472E-03    -15.4303E-03     12.6459E-03    -15.4124E-03     30.5245E-03    -15.3705E-03     12.6438E-03
            1581     2.65881E-03     45.6794E-03    -28.7561E+06    -81.9797E+06    -23.6843E+06     29.9175E+03    -15.4019E-03     30.8149E-03    -15.4130E-03     9.47255E-03    -15.3927E-03     30.4813E-03    -15.3709E-03     9.47132E-03
            1582     1.77256E-03     45.6720E-03    -30.1438E+06    -87.3018E+06    -27.7845E+06    -14.2552E+03    -15.3961E-03     30.7994E-03    -15.4033E-03     6.34869E-03    -15.3800E-03     30.4469E-03    -15.3719E-03     6.34746E-03
            1583     886.261E-06     45.6675E-03    -31.0273E+06    -91.4952E+06    -30.3677E+06    -13.9508E+03    -15.3883E-03     30.7962E-03    -15.4079E-03     3.41880E-03    -15.3668E-03     30.4278E-03    -15.3820E-03     3.41807E-03
            1584     16.8361E-03     45.2696E-03    -4.01369E+06     114.896E+06     58.4619E+06     224.035E+03    -15.2343E-03     30.7765E-03    -15.5422E-03     48.8603E-03    -15.6441E-03     31.4104E-03    -15.4107E-03     48.9058E-03
            1585     15.9516E-03     45.2046E-03    -7.89203E+06     94.5595E+06     21.9420E+06    -489.538E+03    -16.4949E-03     31.8979E-03    -15.4030E-03     70.7706E-03    -16.8966E-03     32.5436E-03    -15.4190E-03     70.7760E-03
            1586     15.0661E-03     45.1385E-03    -8.32794E+06     46.7179E+06    -546.025E+03    -117.989E+03    -16.5004E-03     31.8494E-03    -15.3490E-03     65.0659E-03    -16.7251E-03     32.2120E-03    -15.4074E-03     65.0339E-03
            1587     14.1800E-03     45.0828E-03    -8.14346E+06     4.43786E+06    -1.54467E+06    -70.5187E+03    -16.2054E-03     31.6012E-03    -15.3958E-03     56.3719E-03    -16.3123E-03     31.6994E-03    -15.3981E-03     56.3357E-03
            1588     13.2938E-03     45.0335E-03    -8.33606E+06    -14.4752E+06     2.29853E+06    -88.3432E+03    -16.0489E-03     31.4872E-03    -15.4383E-03     50.9549E-03    -16.1093E-03     31.4599E-03    -15.3937E-03     50.9231E-03
            1589     12.4075E-03     44.9880E-03    -9.04451E+06    -26.1851E+06     3.10313E+06    -22.8314E+03    -15.9939E-03     31.4502E-03    -15.4563E-03     46.9927E-03    -16.0291E-03     31.3514E-03    -15.3897E-03     46.9668E-03
            1590     11.5214E-03     44.9459E-03    -9.87508E+06    -40.7047E+06     1.79571E+06     9.85795E+03    -15.9591E-03     31.4249E-03    -15.4658E-03     43.4665E-03    -15.9678E-03     31.2489E-03    -15.3835E-03     43.4457E-03
            1591     10.6352E-03     44.9070E-03    -10.8149E+06    -47.4865E+06     3.86663E+06     64.0163E+03    -15.8734E-03     31.3536E-03    -15.4801E-03     40.0427E-03    -15.8749E-03     31.1369E-03    -15.3763E-03     40.0269E-03
            1592     9.74903E-03     44.8713E-03    -12.0831E+06    -49.9023E+06     4.22998E+06     83.8173E+03    -15.7825E-03     31.2631E-03    -15.4806E-03     36.5357E-03    -15.7840E-03     31.0323E-03    -15.3696E-03     36.5237E-03
            1593     8.86276E-03     44.8388E-03    -13.6594E+06    -54.3976E+06     3.61455E+06     18.8541E+03    -15.7038E-03     31.1841E-03    -15.4803E-03     33.0019E-03    -15.7034E-03     30.9316E-03    -15.3635E-03     32.9918E-03
            1594     7.97657E-03     44.8097E-03    -15.4283E+06    -58.1404E+06     2.66891E+06    -3.94480E+03    -15.6286E-03     31.1066E-03    -15.4781E-03     29.4707E-03    -15.6286E-03     30.8378E-03    -15.3580E-03     29.4625E-03
            1595     7.09028E-03     44.7838E-03    -17.4424E+06    -60.6026E+06     188.065E+03     38.9132E+03    -15.5557E-03     31.0234E-03    -15.4678E-03     25.9780E-03    -15.5576E-03     30.7477E-03    -15.3537E-03     25.9721E-03
            1596     6.20404E-03     44.7612E-03    -19.7742E+06    -65.1999E+06    -3.34317E+06     115.070E+03    -15.5009E-03     30.9578E-03    -15.4569E-03     22.5276E-03    -15.5019E-03     30.6669E-03    -15.3504E-03     22.5241E-03
            1597     5.31774E-03     44.7417E-03    -22.2279E+06    -69.2459E+06    -7.82148E+06     169.675E+03    -15.4554E-03     30.8969E-03    -15.4415E-03     19.1506E-03    -15.4558E-03     30.5952E-03    -15.3479E-03     19.1488E-03
            1598     4.43148E-03     44.7254E-03    -24.6238E+06    -73.0472E+06    -12.9712E+06     76.4139E+03    -15.4182E-03     30.8413E-03    -15.4231E-03     15.8458E-03    -15.4172E-03     30.5312E-03    -15.3463E-03     15.8438E-03
            1599     3.54515E-03     44.7121E-03      -26.87E+06    -77.7618E+06    -18.3904E+06    -3.52748E+03    -15.3946E-03     30.7998E-03    -15.4052E-03     12.6026E-03    -15.3899E-03     30.4770E-03    -15.3454E-03     12.6003E-03
            1600     2.65889E-03     44.7018E-03    -28.7863E+06    -81.9435E+06    -23.6966E+06    -19.4533E+03    -15.3760E-03     30.7635E-03    -15.3875E-03     9.43247E-03    -15.3670E-03     30.4301E-03    -15.3454E-03     9.43061E-03
            1601     1.77256E-03     44.6944E-03    -30.2227E+06    -87.2973E+06    -27.8503E+06    -28.0293E+03    -15.3710E-03     30.7483E-03    -15.3773E-03     6.32371E-03    -15.3552E-03     30.3961E-03    -15.3462E-03     6.32231E-03
            1602     886.305E-06     44.6900E-03    -31.1954E+06    -91.5478E+06    -30.4421E+06    -21.7939E+03    -15.3627E-03     30.7435E-03    -15.3808E-03     3.39520E-03    -15.3418E-03     30.3752E-03    -15.3550E-03     3.39438E-03
            1603     16.8417E-03     44.2943E-03    -2.77278E+06     115.966E+06     59.6798E+06     1.01999E+06    -15.6116E-03     31.1144E-03    -15.5028E-03     48.5656E-03    -16.0151E-03     31.7467E-03    -15.3685E-03     48.6205E-03
            1604     15.9525E-03     44.2252E-03    -4.98747E+06     95.7655E+06     24.1977E+06     483.910E+03    -15.9676E-03     31.3365E-03    -15.3689E-03     70.5086E-03    -16.3562E-03     31.9771E-03    -15.3795E-03     70.5293E-03
            1605     15.0665E-03     44.1606E-03    -7.19771E+06     45.8386E+06     90.1890E+03    -652.812E+03    -16.2580E-03     31.5904E-03    -15.3324E-03     64.7799E-03    -16.4759E-03     31.9453E-03    -15.3880E-03     64.7420E-03
            1606     14.1801E-03     44.1049E-03    -7.54665E+06     3.93821E+06    -1.11827E+06    -342.485E+03    -16.1437E-03     31.5302E-03    -15.3865E-03     56.3809E-03    -16.2475E-03     31.6244E-03    -15.3868E-03     56.3413E-03
            1607     13.2939E-03     44.0556E-03    -8.05670E+06    -14.4863E+06     2.65336E+06    -57.2111E+03    -16.0524E-03     31.4821E-03    -15.4296E-03     50.9809E-03    -16.1119E-03     31.4538E-03    -15.3837E-03     50.9495E-03
            1608     12.4078E-03     44.0100E-03    -8.80738E+06    -26.0994E+06     3.43063E+06    -82.4855E+03    -16.0122E-03     31.4582E-03    -15.4460E-03     47.0144E-03    -16.0468E-03     31.3589E-03    -15.3783E-03     46.9878E-03
            1609     11.5215E-03     43.9681E-03    -9.56922E+06    -40.7764E+06     1.98570E+06    -56.3442E+03    -15.9598E-03     31.4133E-03    -15.4535E-03     43.4432E-03    -15.9671E-03     31.2361E-03    -15.3706E-03     43.4216E-03
            1610     10.6354E-03     43.9291E-03    -10.5687E+06    -47.5363E+06     3.99289E+06    -14.8560E+03    -15.8760E-03     31.3424E-03    -15.4664E-03     40.0128E-03    -15.8763E-03     31.1248E-03    -15.3622E-03     39.9960E-03
            1611     9.74913E-03     43.8935E-03    -11.8529E+06    -49.9495E+06     4.28735E+06     54.3473E+03    -15.7905E-03     31.2553E-03    -15.4648E-03     36.4781E-03    -15.7907E-03     31.0237E-03    -15.3537E-03     36.4657E-03
            1612     8.86296E-03     43.8611E-03    -13.4529E+06    -54.2612E+06     3.64807E+06     64.2718E+03    -15.7098E-03     31.1716E-03    -15.4618E-03     32.9405E-03    -15.7086E-03     30.9194E-03    -15.3454E-03     32.9309E-03
            1613     7.97669E-03     43.8320E-03    -15.4206E+06    -58.1736E+06     2.54849E+06     3.48330E+03    -15.6288E-03     31.0857E-03    -15.4569E-03     29.3988E-03    -15.6286E-03     30.8168E-03    -15.3375E-03     29.3906E-03
            1614     7.09047E-03     43.8062E-03    -17.6631E+06    -60.6991E+06         312.656     92.0020E+03    -15.5508E-03     30.9951E-03    -15.4443E-03     25.9028E-03    -15.5534E-03     30.7195E-03    -15.3307E-03     25.8976E-03
            1615     6.20416E-03     43.7835E-03    -19.9997E+06    -65.2456E+06    -3.47965E+06     187.378E+03    -15.4902E-03     30.9214E-03    -15.4312E-03     22.4560E-03    -15.4921E-03     30.6307E-03    -15.3250E-03     22.4534E-03
            1616     5.31791E-03     43.7641E-03    -22.3458E+06    -69.1335E+06    -7.83794E+06     135.950E+03    -15.4374E-03     30.8513E-03    -15.4139E-03     19.0841E-03    -15.4385E-03     30.5504E-03    -15.3204E-03     19.0819E-03
            1617     4.43158E-03     43.7478E-03    -24.6439E+06    -72.9249E+06    -12.9473E+06     67.9385E+03    -15.3961E-03     30.7900E-03    -15.3939E-03     15.7854E-03    -15.3954E-03     30.4805E-03    -15.3171E-03     15.7833E-03
            1618     3.54530E-03     43.7345E-03    -26.8519E+06    -77.7210E+06    -18.3927E+06     24.1222E+03    -15.3692E-03     30.7436E-03    -15.3744E-03     12.5438E-03    -15.3645E-03     30.4210E-03    -15.3147E-03     12.5419E-03
            1619     2.65895E-03     43.7243E-03    -28.7723E+06    -81.9308E+06    -23.7248E+06     1.70118E+03    -15.3482E-03     30.7033E-03    -15.3551E-03     9.37722E-03    -15.3390E-03     30.3700E-03    -15.3132E-03     9.37565E-03
            1620     1.77266E-03     43.7169E-03    -30.2467E+06    -87.2954E+06    -27.8850E+06    -9.66138E+03    -15.3387E-03     30.6827E-03    -15.3441E-03     6.28676E-03    -15.3230E-03     30.3306E-03    -15.3131E-03     6.28561E-03
            1621     886.309E-06     43.7124E-03    -31.2187E+06    -91.5835E+06    -30.5355E+06    -25.0497E+03    -15.3422E-03     30.6763E-03    -15.3341E-03     3.36918E-03    -15.3212E-03     30.3080E-03    -15.3087E-03     3.36831E-03
            1622     16.8382E-03     43.3150E-03    -3.55680E+06     115.343E+06     60.2937E+06    -320.886E+03    -15.8247E-03     31.3186E-03    -15.4939E-03     48.9409E-03    -16.2346E-03     31.9505E-03    -15.3545E-03     48.9786E-03
            1623     15.9541E-03     43.2489E-03    -3.90806E+06     96.8077E+06     26.0407E+06     786.058E+03    -15.9230E-03     31.2805E-03    -15.3575E-03     71.8054E-03    -16.3127E-03     31.9244E-03    -15.3620E-03     71.8317E-03
            1624     15.0662E-03     43.1823E-03    -4.83764E+06     46.1347E+06     806.177E+03     697.355E+03    -16.0442E-03     31.3681E-03    -15.3239E-03     65.4910E-03    -16.2515E-03     31.7197E-03    -15.3797E-03     65.4717E-03
            1625     14.1803E-03     43.1271E-03    -6.55825E+06     3.59800E+06    -964.005E+03     118.346E+03    -16.1834E-03     31.5675E-03    -15.3841E-03     56.5222E-03    -16.2819E-03     31.6583E-03    -15.3846E-03     56.4885E-03
            1626     13.2940E-03     43.0777E-03    -7.42771E+06    -14.2180E+06     2.80773E+06     108.578E+03    -16.1203E-03     31.5440E-03    -15.4237E-03     51.0915E-03    -16.1773E-03     31.5159E-03    -15.3782E-03     51.0621E-03
            1627     12.4078E-03     43.0321E-03    -8.34894E+06    -26.1436E+06     3.41172E+06     23.8186E+03    -16.0409E-03     31.4773E-03    -15.4364E-03     47.0083E-03    -16.0731E-03     31.3771E-03    -15.3693E-03     46.9830E-03
            1628     11.5217E-03     42.9902E-03    -9.43349E+06    -40.7309E+06     1.92371E+06    -20.0357E+03    -15.9920E-03     31.4330E-03    -15.4410E-03     43.3961E-03    -15.9985E-03     31.2559E-03    -15.3586E-03     43.3750E-03
            1629     10.6355E-03     42.9513E-03    -10.5500E+06    -47.5683E+06     3.89206E+06    -31.4702E+03    -15.9020E-03     31.3525E-03    -15.4505E-03     39.9427E-03    -15.9020E-03     31.1349E-03    -15.3468E-03     39.9257E-03
            1630     9.74935E-03     42.9157E-03    -11.8604E+06    -49.9985E+06     4.16880E+06         926.891    -15.8017E-03     31.2473E-03    -15.4457E-03     36.3978E-03    -15.8017E-03     31.0157E-03    -15.3351E-03     36.3847E-03
            1631     8.86311E-03     42.8833E-03    -13.3645E+06    -54.2820E+06     3.58937E+06     67.8257E+03    -15.7195E-03     31.1592E-03    -15.4398E-03     32.8468E-03    -15.7177E-03     30.9069E-03    -15.3237E-03     32.8374E-03
            1632     7.97692E-03     42.8543E-03    -15.2415E+06    -58.1924E+06     2.62530E+06     199.976E+03    -15.6331E-03     31.0653E-03    -15.4322E-03     29.2952E-03    -15.6321E-03     30.7960E-03    -15.3126E-03     29.2896E-03
            1633     7.09064E-03     42.8285E-03    -17.5183E+06    -60.7949E+06     167.895E+03      271.11E+03    -15.5480E-03     30.9648E-03    -15.4168E-03     25.7978E-03    -15.5499E-03     30.6883E-03    -15.3025E-03     25.7949E-03
            1634     6.20439E-03     42.8059E-03    -19.9021E+06    -65.0772E+06    -3.34894E+06     176.618E+03    -15.4769E-03     30.8772E-03    -15.4003E-03     22.3578E-03    -15.4787E-03     30.5870E-03    -15.2938E-03     22.3551E-03
            1635     5.31805E-03     42.7865E-03    -22.2507E+06    -69.0687E+06    -7.78443E+06     62.9886E+03    -15.4168E-03     30.7971E-03    -15.3803E-03     18.9932E-03    -15.4176E-03     30.4963E-03    -15.2868E-03     18.9901E-03
            1636     4.43176E-03     42.7703E-03    -24.6162E+06    -72.8626E+06    -12.9288E+06     55.6092E+03    -15.3695E-03     30.7275E-03    -15.3580E-03     15.7071E-03    -15.3688E-03     30.4183E-03    -15.2813E-03     15.7048E-03
            1637     3.54540E-03     42.7570E-03    -26.8493E+06    -77.6816E+06    -18.3843E+06     39.9870E+03    -15.3367E-03     30.6736E-03    -15.3369E-03     12.4797E-03    -15.3320E-03     30.3512E-03    -15.2773E-03     12.4780E-03
            1638     2.65908E-03     42.7468E-03    -28.7397E+06    -81.9023E+06    -23.7309E+06     30.4518E+03    -15.3129E-03     30.6292E-03    -15.3163E-03     9.33011E-03    -15.3037E-03     30.2960E-03    -15.2745E-03     9.32892E-03
            1639     1.77271E-03     42.7395E-03    -30.1415E+06    -87.2746E+06    -27.8395E+06     16.0193E+03    -15.3022E-03     30.6061E-03    -15.3039E-03     6.25453E-03    -15.2861E-03     30.2539E-03    -15.2729E-03     6.25371E-03
            1640     886.367E-06     42.7351E-03    -31.0343E+06    -91.5709E+06    -30.3801E+06          1.5625    -15.3031E-03     30.5954E-03    -15.2923E-03     3.36103E-03    -15.2814E-03     30.2266E-03    -15.2665E-03     3.36049E-03
            1641     16.8405E-03     42.3370E-03    -3.92978E+06     114.705E+06     58.4711E+06    -769.431E+03    -15.4741E-03     30.9927E-03    -15.5186E-03     49.2155E-03    -15.8839E-03     31.6262E-03    -15.3868E-03     49.2477E-03
            1642     15.9518E-03     42.2707E-03    -6.89786E+06     95.3374E+06     22.8702E+06    -322.348E+03    -16.3978E-03     31.7757E-03    -15.3779E-03     71.7869E-03    -16.7978E-03     32.4233E-03    -15.3918E-03     71.7957E-03
            1643     15.0666E-03     42.2048E-03    -6.96738E+06     46.9263E+06     97.7987E+03     777.983E+03    -16.3278E-03     31.6589E-03    -15.3311E-03     65.6274E-03    -16.5462E-03     32.0188E-03    -15.3885E-03     65.6077E-03
            1644     14.1799E-03     42.1489E-03    -6.73021E+06     4.31642E+06    -1.06903E+06     743.420E+03    -16.2334E-03     31.6151E-03    -15.3817E-03     56.4891E-03    -16.3335E-03     31.7097E-03    -15.3835E-03     56.4634E-03
            1645     13.2940E-03     42.0996E-03    -7.73105E+06    -14.2899E+06     2.61208E+06     204.904E+03    -16.1945E-03     31.6121E-03    -15.4176E-03     50.8939E-03    -16.2526E-03     31.5844E-03    -15.3726E-03     50.8656E-03
            1646     12.4080E-03     42.0542E-03    -8.61520E+06    -26.0087E+06     3.21451E+06     182.728E+03    -16.0837E-03     31.5088E-03    -15.4250E-03     46.8844E-03    -16.1171E-03     31.4099E-03    -15.3588E-03     46.8612E-03
            1647     11.5218E-03     42.0122E-03    -9.49864E+06    -40.7440E+06     1.76525E+06     102.819E+03    -16.0296E-03     31.4552E-03    -15.4256E-03     43.2800E-03    -16.0362E-03     31.2783E-03    -15.3439E-03     43.2604E-03
            1648     10.6357E-03     41.9734E-03    -10.6585E+06    -47.4503E+06     3.82141E+06     75.4549E+03    -15.9320E-03     31.3631E-03    -15.4311E-03     39.8173E-03    -15.9326E-03     31.1463E-03    -15.3277E-03     39.8017E-03
            1649     9.74954E-03     41.9379E-03    -12.1133E+06    -49.9922E+06     4.01919E+06    -20.9524E+03    -15.8229E-03     31.2448E-03    -15.4219E-03     36.2883E-03    -15.8240E-03     31.0138E-03    -15.3118E-03     36.2750E-03
            1650     8.86338E-03     41.9055E-03    -13.7394E+06    -54.4229E+06     3.42909E+06     36.1522E+03    -15.7275E-03     31.1397E-03    -15.4122E-03     32.7196E-03    -15.7271E-03     30.8874E-03    -15.2963E-03     32.7097E-03
            1651     7.97714E-03     41.8766E-03    -15.5744E+06    -58.3606E+06     2.52203E+06     218.976E+03    -15.6310E-03     31.0322E-03    -15.4012E-03     29.1697E-03    -15.6312E-03     30.7626E-03    -15.2814E-03     29.1644E-03
            1652     7.09092E-03     41.8508E-03    -17.5293E+06    -60.6767E+06     238.030E+03     267.666E+03    -15.5387E-03     30.9210E-03    -15.3823E-03     25.6826E-03    -15.5409E-03     30.6449E-03    -15.2677E-03     25.6797E-03
            1653     6.20460E-03     41.8283E-03    -19.7116E+06    -64.9052E+06    -3.21278E+06     174.872E+03    -15.4609E-03     30.8233E-03    -15.3624E-03     22.2481E-03    -15.4622E-03     30.5335E-03    -15.2558E-03     22.2453E-03
            1654     5.31831E-03     41.8090E-03    -22.1642E+06    -69.0000E+06    -7.73423E+06     118.212E+03    -15.3929E-03     30.7320E-03    -15.3391E-03     18.8930E-03    -15.3934E-03     30.4313E-03    -15.2456E-03     18.8907E-03
            1655     4.43194E-03     41.7928E-03    -24.6004E+06    -72.8306E+06    -12.9061E+06     70.2665E+03    -15.3346E-03     30.6491E-03    -15.3145E-03     15.6155E-03    -15.3339E-03     30.3399E-03    -15.2377E-03     15.6134E-03
            1656     3.54558E-03     41.7796E-03    -26.8389E+06    -77.6433E+06    -18.3616E+06     52.3422E+03    -15.2949E-03     30.5868E-03    -15.2919E-03     12.4043E-03    -15.2902E-03     30.2645E-03    -15.2322E-03     12.4028E-03
            1657     2.65918E-03     41.7694E-03    -28.7481E+06    -81.8694E+06    -23.7208E+06     39.4743E+03    -15.2681E-03     30.5387E-03    -15.2706E-03     9.26616E-03    -15.2589E-03     30.2056E-03    -15.2288E-03     9.26509E-03
            1658     1.77280E-03     41.7622E-03    -30.1736E+06    -87.2154E+06    -27.8863E+06     27.4300E+03    -15.2542E-03     30.5125E-03    -15.2583E-03     6.21423E-03    -15.2383E-03     30.1607E-03    -15.2275E-03     6.21357E-03
            1659     886.400E-06     41.7577E-03    -31.1162E+06    -91.5466E+06    -30.4467E+06     18.3029E+03    -15.2481E-03     30.5052E-03    -15.2571E-03     3.34617E-03    -15.2268E-03     30.1368E-03    -15.2315E-03     3.34586E-03
            1660     16.8359E-03     41.3585E-03    -3.45915E+06     114.871E+06     58.3108E+06    -49.3646E+03    -15.3447E-03     30.8676E-03    -15.5229E-03     48.6372E-03    -15.7497E-03     31.4990E-03    -15.3929E-03     48.6781E-03
            1661     15.9527E-03     41.2918E-03    -7.03818E+06     94.6012E+06     22.0759E+06    -317.614E+03    -16.3996E-03     31.7831E-03    -15.3835E-03     70.6768E-03    -16.7958E-03     32.4261E-03    -15.4001E-03     70.6846E-03
            1662     15.0661E-03     41.2268E-03    -8.42984E+06     46.3706E+06    -411.752E+03    -175.866E+03    -16.5213E-03     31.8538E-03    -15.3325E-03     65.0927E-03    -16.7457E-03     32.2140E-03    -15.3896E-03     65.0599E-03
            1663     14.1805E-03     41.1708E-03    -8.33176E+06     4.65738E+06    -1.38580E+06     183.088E+03    -16.3392E-03     31.7118E-03    -15.3726E-03     56.4190E-03    -16.4474E-03     31.8110E-03    -15.3742E-03     56.3858E-03
            1664     13.2942E-03     41.1216E-03    -8.10640E+06    -14.1804E+06     2.49273E+06     229.462E+03    -16.2085E-03     31.6115E-03    -15.4030E-03     50.6750E-03    -16.2683E-03     31.5849E-03    -15.3582E-03     50.6469E-03
            1665     12.4081E-03     41.0762E-03    -8.78529E+06    -25.9862E+06     3.19416E+06     138.801E+03    -16.1159E-03     31.5235E-03    -15.4076E-03     46.7164E-03    -16.1500E-03     31.4249E-03    -15.3412E-03     46.6925E-03
            1666     11.5221E-03     41.0343E-03    -9.59564E+06    -40.5941E+06     1.81022E+06     153.399E+03    -16.0481E-03     31.4526E-03    -15.4046E-03     43.1231E-03    -16.0554E-03     31.2765E-03    -15.3227E-03     43.1043E-03
            1667     10.6359E-03     40.9956E-03    -10.6488E+06    -47.5168E+06     3.86107E+06     166.141E+03    -15.9517E-03     31.3583E-03    -15.4065E-03     39.6773E-03    -15.9522E-03     31.1410E-03    -15.3029E-03     39.6628E-03
            1668     9.74986E-03     40.9600E-03    -12.1253E+06    -49.8433E+06     4.15277E+06     194.735E+03    -15.8446E-03     31.2378E-03    -15.3931E-03     36.1472E-03    -15.8461E-03     31.0072E-03    -15.2825E-03     36.1366E-03
            1669     8.86367E-03     40.9278E-03    -13.9614E+06    -54.4947E+06     3.36729E+06     107.715E+03    -15.7340E-03     31.1125E-03    -15.3785E-03     32.5831E-03    -15.7346E-03     30.8602E-03    -15.2624E-03     32.5742E-03
            1670     7.97748E-03     40.8989E-03    -15.8064E+06    -58.3994E+06     2.38282E+06     56.8055E+03    -15.6246E-03     30.9874E-03    -15.3629E-03     29.0383E-03    -15.6257E-03     30.7182E-03    -15.2433E-03     29.0309E-03
            1671     7.09118E-03     40.8733E-03    -17.7561E+06    -60.6442E+06     21.4621E+03     49.9398E+03    -15.5215E-03     30.8614E-03    -15.3399E-03     25.5553E-03    -15.5245E-03     30.5861E-03    -15.2261E-03     25.5496E-03
            1672     6.20490E-03     40.8508E-03    -19.9470E+06    -64.8945E+06    -3.35411E+06     157.319E+03    -15.4379E-03     30.7548E-03    -15.3170E-03     22.1265E-03    -15.4401E-03     30.4656E-03    -15.2107E-03     22.1236E-03
            1673     5.31854E-03     40.8316E-03    -22.2850E+06    -68.8712E+06    -7.74379E+06     155.621E+03    -15.3628E-03     30.6534E-03    -15.2906E-03     18.7794E-03    -15.3641E-03     30.3535E-03    -15.1971E-03     18.7776E-03
            1674     4.43218E-03     40.8154E-03    -24.6418E+06    -72.7665E+06    -12.8888E+06     73.7995E+03    -15.2965E-03     30.5593E-03    -15.2629E-03     15.5111E-03    -15.2961E-03     30.2505E-03    -15.1861E-03     15.5091E-03
            1675     3.54576E-03     40.8023E-03    -26.8757E+06    -77.6172E+06    -18.3665E+06     52.4851E+03    -15.2476E-03     30.4855E-03    -15.2379E-03     12.3185E-03    -15.2432E-03     30.1634E-03    -15.1782E-03     12.3170E-03
            1676     2.65934E-03     40.7921E-03    -28.7822E+06    -81.8372E+06    -23.7366E+06     56.2245E+03    -15.2159E-03     30.4308E-03    -15.2149E-03     9.19701E-03    -15.2069E-03     30.0979E-03    -15.1732E-03     9.19617E-03
            1677     1.77289E-03     40.7849E-03    -30.2252E+06    -87.1659E+06    -27.8871E+06     66.9500E+03    -15.1972E-03     30.3992E-03    -15.2021E-03     6.15468E-03    -15.1816E-03     30.0478E-03    -15.1713E-03     6.15454E-03
            1678     886.427E-06     40.7805E-03    -31.1737E+06    -91.4632E+06    -30.5355E+06     48.3521E+03    -15.1916E-03     30.3921E-03    -15.2005E-03     3.32490E-03    -15.1705E-03     30.0243E-03    -15.1754E-03     3.32499E-03
            1679     16.8423E-03     40.3815E-03    -3.45417E+06     114.987E+06     58.8452E+06     656.443E+03    -15.5827E-03     31.0924E-03    -15.5097E-03     49.1828E-03    -15.9892E-03     31.7241E-03    -15.3772E-03     49.2325E-03
            1680     15.9523E-03     40.3137E-03    -6.43231E+06     95.2842E+06     23.4783E+06     288.503E+03    -16.2837E-03     31.6538E-03    -15.3701E-03     71.1819E-03    -16.6803E-03     32.2976E-03    -15.3815E-03     71.1981E-03
            1681     15.0666E-03     40.2485E-03    -7.31937E+06     46.6015E+06     360.537E+03    -547.150E+03    -16.5443E-03     31.8619E-03    -15.3176E-03     64.6248E-03    -16.7641E-03     32.2201E-03    -15.3727E-03     64.5868E-03
            1682     14.1803E-03     40.1926E-03    -7.41271E+06     3.97950E+06    -1.22968E+06    -420.095E+03    -16.3435E-03     31.6974E-03    -15.3539E-03     56.1509E-03    -16.4460E-03     31.7913E-03    -15.3551E-03     56.1099E-03
            1683     13.2945E-03     40.1436E-03    -8.04954E+06    -14.3623E+06     2.56755E+06     68.1016E+03    -16.2203E-03     31.6027E-03    -15.3824E-03     50.5776E-03    -16.2796E-03     31.5750E-03    -15.3371E-03     50.5475E-03
            1684     12.4085E-03     40.0981E-03    -8.77200E+06    -25.7675E+06     3.29632E+06     177.686E+03    -16.1317E-03     31.5156E-03    -15.3839E-03     46.5782E-03    -16.1661E-03     31.4179E-03    -15.3173E-03     46.5549E-03
            1685     11.5224E-03     40.0565E-03    -9.72904E+06    -40.6544E+06     1.76200E+06     100.997E+03    -16.0591E-03     31.4367E-03    -15.3776E-03     43.0100E-03    -16.0668E-03     31.2605E-03    -15.2958E-03     42.9905E-03
            1686     10.6363E-03     40.0177E-03    -10.7577E+06    -47.5400E+06     3.81446E+06     199.690E+03    -15.9718E-03     31.3475E-03    -15.3757E-03     39.5587E-03    -15.9727E-03     31.1304E-03    -15.2721E-03     39.5447E-03
            1687     9.75018E-03     39.9823E-03    -12.0732E+06    -49.8851E+06     4.20440E+06     286.229E+03    -15.8547E-03     31.2129E-03    -15.3582E-03     35.9985E-03    -15.8559E-03     30.9820E-03    -15.2473E-03     35.9892E-03
            1688     8.86403E-03     39.9501E-03    -13.6176E+06    -54.2423E+06     3.58592E+06     234.812E+03    -15.7382E-03     31.0772E-03    -15.3391E-03     32.4349E-03    -15.7376E-03     30.8254E-03    -15.2227E-03     32.4277E-03
            1689     7.97781E-03     39.9213E-03    -15.5703E+06    -58.3085E+06     2.44938E+06     16.5813E+03    -15.6216E-03     30.9400E-03    -15.3185E-03     28.8933E-03    -15.6217E-03     30.6708E-03    -15.1991E-03     28.8855E-03
            1690     7.09156E-03     39.8957E-03    -17.7915E+06    -60.7334E+06    -18.8891E+03     39.5908E+03    -15.5070E-03     30.7980E-03    -15.2910E-03     25.4089E-03    -15.5100E-03     30.5224E-03    -15.1773E-03     25.4031E-03
            1691     6.20521E-03     39.8734E-03    -20.1083E+06    -64.9168E+06    -3.45770E+06     71.1051E+03    -15.4098E-03     30.6735E-03    -15.2636E-03     21.9839E-03    -15.4127E-03     30.3845E-03    -15.1576E-03     21.9799E-03
            1692     5.31886E-03     39.8542E-03    -22.3978E+06    -68.7735E+06    -7.78732E+06     47.2638E+03    -15.3246E-03     30.5582E-03    -15.2336E-03     18.6438E-03    -15.3265E-03     30.2591E-03    -15.1404E-03     18.6406E-03
            1693     4.43244E-03     39.8381E-03    -24.7029E+06    -72.7296E+06    -12.8879E+06     53.7455E+03    -15.2517E-03     30.4545E-03    -15.2028E-03     15.3923E-03    -15.2517E-03     30.1460E-03    -15.1260E-03     15.3900E-03
            1694     3.54600E-03     39.8251E-03    -26.9403E+06    -77.5583E+06    -18.3512E+06     31.5968E+03    -15.1964E-03     30.3709E-03    -15.1745E-03     12.2192E-03    -15.1923E-03     30.0491E-03    -15.1147E-03     12.2174E-03
            1695     2.65951E-03     39.8150E-03    -28.8435E+06    -81.8553E+06    -23.7449E+06     36.0207E+03    -15.1559E-03     30.3046E-03    -15.1487E-03     9.12110E-03    -15.1472E-03     29.9717E-03    -15.1069E-03     9.12001E-03
            1696     1.77302E-03     39.8078E-03    -30.2688E+06    -87.1217E+06    -27.9596E+06     106.294E+03    -15.1377E-03     30.2692E-03    -15.1315E-03     6.09475E-03    -15.1222E-03     29.9181E-03    -15.1011E-03     6.09512E-03
            1697     886.530E-06     39.8034E-03    -31.2674E+06    -91.3156E+06    -30.5447E+06     110.944E+03    -15.1190E-03     30.2452E-03    -15.1262E-03     3.30448E-03    -15.0987E-03     29.8783E-03    -15.1012E-03     3.30538E-03
            1698     16.8360E-03     39.4038E-03    -3.86203E+06     114.816E+06     59.4940E+06     367.212E+03    -15.9868E-03     31.4927E-03    -15.5059E-03     48.8146E-03    -16.3960E-03     32.1233E-03    -15.3693E-03     48.8578E-03
            1699     15.9530E-03     39.3351E-03    -4.61873E+06     96.6658E+06     25.5642E+06     160.775E+03    -16.5127E-03     31.8621E-03    -15.3494E-03     70.7449E-03    -16.9041E-03     32.5061E-03    -15.3550E-03     70.7577E-03
            1700     15.0671E-03     39.2702E-03    -5.73575E+06     46.8645E+06     1.00233E+06    -235.283E+03    -16.3697E-03     31.6581E-03    -15.2884E-03     64.3486E-03    -16.5815E-03     32.0131E-03    -15.3431E-03     64.3155E-03
            1701     14.1811E-03     39.2149E-03    -7.01606E+06     3.47489E+06    -1.21992E+06    -57.9002E+03    -16.2861E-03     31.6159E-03    -15.3297E-03     56.1080E-03    -16.3858E-03     31.7065E-03    -15.3307E-03     56.0718E-03
            1702     13.2948E-03     39.1653E-03    -7.76126E+06    -14.6534E+06     2.54672E+06     42.0447E+03    -16.2101E-03     31.5687E-03    -15.3586E-03     50.5662E-03    -16.2674E-03     31.5391E-03    -15.3134E-03     50.5358E-03
            1703     12.4088E-03     39.1204E-03    -8.62595E+06    -25.7430E+06     3.42828E+06     188.498E+03    -16.1478E-03     31.5065E-03    -15.3587E-03     46.4990E-03    -16.1816E-03     31.4084E-03    -15.2917E-03     46.4758E-03
            1704     11.5227E-03     39.0784E-03    -9.55411E+06    -40.6060E+06     1.84611E+06     238.791E+03    -16.0977E-03     31.4456E-03    -15.3479E-03     42.9405E-03    -16.1047E-03     31.2692E-03    -15.2660E-03     42.9227E-03
            1705     10.6367E-03     39.0399E-03    -10.6629E+06    -47.6017E+06     3.83154E+06     164.476E+03    -16.0004E-03     31.3410E-03    -15.3406E-03     39.4314E-03    -16.0007E-03     31.1233E-03    -15.2369E-03     39.4170E-03
            1706     9.75059E-03     39.0045E-03    -11.9055E+06    -49.8551E+06     4.23633E+06     173.722E+03    -15.8671E-03     31.1848E-03    -15.3176E-03     35.8480E-03    -15.8676E-03     30.9536E-03    -15.2069E-03     35.8373E-03
            1707     8.86443E-03     38.9725E-03    -13.3604E+06    -54.1577E+06     3.68250E+06     172.840E+03    -15.7428E-03     31.0363E-03    -15.2935E-03     32.2712E-03    -15.7412E-03     30.7843E-03    -15.1772E-03     32.2632E-03
            1708     7.97822E-03     38.9437E-03    -15.2358E+06    -58.1857E+06     2.71032E+06     248.872E+03    -15.6185E-03     30.8868E-03    -15.2683E-03     28.7180E-03    -15.6175E-03     30.6173E-03    -15.1483E-03     28.7132E-03
            1709     7.09193E-03     38.9183E-03    -17.5399E+06    -60.7253E+06     184.855E+03     169.574E+03    -15.4929E-03     30.7283E-03    -15.2354E-03     25.2383E-03    -15.4950E-03     30.4520E-03    -15.1210E-03     25.2342E-03
            1710     6.20562E-03     38.8960E-03    -19.8902E+06    -64.7615E+06    -3.31719E+06     33.5410E+03    -15.3796E-03     30.5821E-03    -15.2025E-03     21.8278E-03    -15.3818E-03     30.2934E-03    -15.0963E-03     21.8233E-03
            1711     5.31920E-03     38.8770E-03    -22.2870E+06    -68.8117E+06    -7.74403E+06    -29.6174E+03    -15.2801E-03     30.4484E-03    -15.1683E-03     18.5015E-03    -15.2814E-03     30.1488E-03    -15.0749E-03     18.4973E-03
            1712     4.43275E-03     38.8610E-03    -24.6824E+06    -72.7274E+06    -12.8394E+06     30.2877E+03    -15.1991E-03     30.3331E-03    -15.1340E-03     15.2657E-03    -15.1991E-03     30.0245E-03    -15.0570E-03     15.2631E-03
            1713     3.54625E-03     38.8480E-03    -26.9588E+06    -77.4936E+06    -18.2826E+06     35.2703E+03    -15.1364E-03     30.2387E-03    -15.1024E-03     12.1113E-03    -15.1326E-03     29.9172E-03    -15.0423E-03     12.1096E-03
            1714     2.65973E-03     38.8380E-03    -28.9282E+06    -81.8605E+06    -23.6671E+06     4.79850E+03    -15.0882E-03     30.1618E-03    -15.0736E-03     9.04226E-03    -15.0800E-03     29.8290E-03    -15.0313E-03     9.04080E-03
            1715     1.77316E-03     38.8308E-03    -30.3342E+06    -87.1263E+06    -27.9024E+06     33.2754E+03    -15.0670E-03     30.1196E-03    -15.0525E-03     6.04999E-03    -15.0520E-03     29.7685E-03    -15.0217E-03     6.04943E-03
            1716     886.589E-06     38.8264E-03    -31.1335E+06    -91.1497E+06    -30.5070E+06     105.939E+03    -15.0468E-03     30.0820E-03    -15.0351E-03     3.23088E-03    -15.0261E-03     29.7157E-03    -15.0103E-03     3.23174E-03
            1717     16.8422E-03     38.4233E-03    -3.52471E+06     115.067E+06     59.3386E+06    -694.805E+03    -16.1682E-03     31.6520E-03    -15.4838E-03     48.3978E-03    -16.5754E-03     32.2831E-03    -15.3489E-03     48.4268E-03
            1718     15.9545E-03     38.3577E-03    -4.84781E+06     96.2991E+06     24.7276E+06    -522.842E+03    -16.3280E-03     31.6523E-03    -15.3243E-03     70.7332E-03    -16.7183E-03     32.2955E-03    -15.3333E-03     70.7387E-03
            1719     15.0673E-03     38.2923E-03    -6.25098E+06     46.5716E+06     562.168E+03     959.717E+03    -16.2918E-03     31.5645E-03    -15.2727E-03     65.1185E-03    -16.5056E-03     31.9198E-03    -15.3284E-03     65.1013E-03
            1720     14.1810E-03     38.2367E-03    -7.27157E+06     4.13574E+06    -1.12018E+06     611.386E+03    -16.3596E-03     31.6745E-03    -15.3149E-03     56.3240E-03    -16.4620E-03     31.7690E-03    -15.3160E-03     56.2962E-03
            1721     13.2952E-03     38.1876E-03    -8.14278E+06    -14.7737E+06     2.20627E+06    -47.8986E+03    -16.2659E-03     31.6037E-03    -15.3378E-03     50.6774E-03    -16.3243E-03     31.5744E-03    -15.2936E-03     50.6458E-03
            1722     12.4090E-03     38.1422E-03    -8.75469E+06    -26.0405E+06     3.29506E+06     144.756E+03    -16.2115E-03     31.5447E-03    -15.3332E-03     46.4506E-03    -16.2453E-03     31.4454E-03    -15.2663E-03     46.4268E-03
            1723     11.5231E-03     38.1006E-03    -9.54794E+06    -40.4488E+06     1.90467E+06     271.790E+03    -16.1607E-03     31.4761E-03    -15.3155E-03     42.8057E-03    -16.1679E-03     31.3004E-03    -15.2334E-03     42.7883E-03
            1724     10.6371E-03     38.0619E-03    -10.5321E+06    -47.5332E+06     3.80816E+06     157.086E+03    -16.0344E-03     31.3351E-03    -15.3007E-03     39.2711E-03    -16.0340E-03     31.1175E-03    -15.1974E-03     39.2566E-03
            1725     9.75103E-03     38.0268E-03    -11.8485E+06    -49.8102E+06     4.22417E+06     77.0499E+03    -15.8910E-03     31.1625E-03    -15.2715E-03     35.6653E-03    -15.8911E-03     30.9314E-03    -15.1609E-03     35.6533E-03
            1726     8.86489E-03     37.9948E-03    -13.4732E+06    -54.2522E+06     3.61023E+06     159.716E+03    -15.7499E-03     30.9910E-03    -15.2410E-03     32.0761E-03    -15.7486E-03     30.7387E-03    -15.1248E-03     32.0680E-03
            1727     7.97869E-03     37.9662E-03    -15.3064E+06    -58.2311E+06     2.71528E+06     277.321E+03    -15.6087E-03     30.8187E-03    -15.2100E-03     28.5226E-03    -15.6079E-03     30.5490E-03    -15.0898E-03     28.5182E-03
            1728     7.09241E-03     37.9409E-03    -17.2989E+06    -60.4615E+06     393.160E+03     235.960E+03    -15.4690E-03     30.6407E-03    -15.1717E-03     25.0482E-03    -15.4705E-03     30.3651E-03    -15.0570E-03     25.0450E-03
            1729     6.20603E-03     37.9188E-03    -19.6029E+06    -64.6484E+06    -3.11702E+06     80.5461E+03    -15.3428E-03     30.4767E-03    -15.1339E-03     21.6495E-03    -15.3440E-03     30.1879E-03    -15.0274E-03     21.6457E-03
            1730     5.31960E-03     37.8998E-03    -22.1263E+06    -68.8190E+06    -7.61115E+06     90.0504E+03    -15.2311E-03     30.3264E-03    -15.0953E-03     18.3422E-03    -15.2318E-03     30.0264E-03    -15.0015E-03     18.3396E-03
            1731     4.43309E-03     37.8839E-03    -24.6778E+06    -72.7148E+06    -12.8022E+06     71.5148E+03    -15.1374E-03     30.1944E-03    -15.0570E-03     15.1308E-03    -15.1374E-03     29.8858E-03    -14.9798E-03     15.1289E-03
            1732     3.54654E-03     37.8710E-03    -27.0066E+06    -77.4523E+06    -18.2644E+06     60.9564E+03    -15.0657E-03     30.0880E-03    -15.0223E-03     11.9972E-03    -15.0623E-03     29.7667E-03    -14.9622E-03     11.9959E-03
            1733     2.65993E-03     37.8611E-03    -29.0278E+06    -81.7749E+06    -23.6349E+06     19.4538E+03    -15.0116E-03     30.0027E-03    -14.9911E-03     8.95632E-03    -15.0041E-03     29.6704E-03    -14.9486E-03     8.95506E-03
            1734     1.77331E-03     37.8540E-03    -30.6817E+06    -87.2167E+06    -27.9539E+06    -1.88015E+03    -14.9782E-03     29.9484E-03    -14.9701E-03     5.99958E-03    -14.9647E-03     29.5974E-03    -14.9389E-03     5.99858E-03
            1735     886.678E-06     37.8496E-03    -31.8221E+06    -90.9914E+06    -30.9412E+06     41.9631E+03    -14.9766E-03     29.9140E-03    -14.9374E-03     3.19096E-03    -14.9589E-03     29.5501E-03    -14.9140E-03     3.19100E-03
            1736     16.8381E-03     37.4452E-03    -3.28389E+06     115.007E+06     57.8122E+06    -518.211E+03    -15.7180E-03     31.2096E-03    -15.4916E-03     49.6587E-03    -16.1239E-03     31.8445E-03    -15.3645E-03     49.6918E-03
            1737     15.9524E-03     37.3799E-03    -7.73175E+06     93.9083E+06     20.9102E+06    -51.1852E+03    -16.4899E-03     31.8285E-03    -15.3387E-03     71.6311E-03    -16.8884E-03     32.4723E-03    -15.3591E-03     71.6419E-03
            1738     15.0670E-03     37.3140E-03    -8.66387E+06     46.2657E+06    -393.740E+03     553.115E+03    -16.6999E-03     31.9828E-03    -15.2829E-03     65.3227E-03    -16.9248E-03     32.3424E-03    -15.3394E-03     65.2982E-03
            1739     14.1813E-03     37.2587E-03    -7.99930E+06     5.01919E+06    -1.16996E+06     389.984E+03    -16.5258E-03     31.8339E-03    -15.3081E-03     56.2560E-03    -16.6330E-03     31.9339E-03    -15.3096E-03     56.2248E-03
            1740     13.2952E-03     37.2093E-03    -8.14825E+06    -14.4491E+06     2.23390E+06     44.1591E+03    -16.4234E-03     31.7430E-03    -15.3196E-03     50.5334E-03    -16.4823E-03     31.7152E-03    -15.2756E-03     50.5027E-03
            1741     12.4095E-03     37.1643E-03    -9.03319E+06    -26.3952E+06     2.93817E+06    -25.9570E+03    -16.3170E-03     31.6205E-03    -15.3035E-03     46.3056E-03    -16.3511E-03     31.5203E-03    -15.2374E-03     46.2794E-03
            1742     11.5235E-03     37.1225E-03    -9.68979E+06    -40.4383E+06     1.77766E+06     143.986E+03    -16.2215E-03     31.4988E-03    -15.2773E-03     42.5982E-03    -16.2292E-03     31.3234E-03    -15.1957E-03     42.5792E-03
            1743     10.6376E-03     37.0842E-03    -10.6859E+06    -47.3477E+06     3.67549E+06     154.589E+03    -16.0754E-03     31.3298E-03    -15.2544E-03     39.0572E-03    -16.0758E-03     31.1135E-03    -15.1519E-03     39.0427E-03
            1744     9.75153E-03     37.0490E-03    -12.1184E+06    -49.8894E+06     4.03984E+06     154.441E+03    -15.9113E-03     31.1295E-03    -15.2181E-03     35.4391E-03    -15.9124E-03     30.8986E-03    -15.1080E-03     35.4282E-03
            1745     8.86545E-03     37.0173E-03    -13.7872E+06    -54.2653E+06     3.47671E+06     192.750E+03    -15.7516E-03     30.9327E-03    -15.1810E-03     31.8543E-03    -15.7516E-03     30.6810E-03    -15.0650E-03     31.8467E-03
            1746     7.97921E-03     36.9888E-03    -15.5945E+06    -58.1986E+06     2.48684E+06     125.364E+03    -15.5912E-03     30.7344E-03    -15.1432E-03     28.3118E-03    -15.5916E-03     30.4656E-03    -15.0237E-03     28.3055E-03
            1747     7.09291E-03     36.9636E-03    -17.5850E+06    -60.3586E+06     212.990E+03     110.123E+03    -15.4344E-03     30.5340E-03    -15.0995E-03     24.8423E-03    -15.4373E-03     30.2595E-03    -14.9854E-03     24.8375E-03
            1748     6.20652E-03     36.9416E-03    -19.8675E+06    -64.6341E+06    -3.22766E+06     213.617E+03    -15.2961E-03     30.3534E-03    -15.0572E-03     21.4523E-03    -15.2984E-03     30.0651E-03    -14.9509E-03     21.4502E-03
            1749     5.32003E-03     36.9228E-03    -22.3787E+06    -68.7503E+06    -7.69943E+06     205.302E+03    -15.1724E-03     30.1865E-03    -15.0142E-03     18.1682E-03    -15.1743E-03     29.8873E-03    -14.9205E-03     18.1672E-03
            1750     4.43347E-03     36.9070E-03    -24.8144E+06    -72.6076E+06    -12.8203E+06     129.481E+03    -15.0677E-03     30.0399E-03    -14.9722E-03     14.9809E-03    -15.0685E-03     29.7320E-03    -14.8950E-03     14.9798E-03
            1751     3.54685E-03     36.8942E-03    -27.1189E+06    -77.4139E+06    -18.3427E+06     65.9012E+03    -14.9888E-03     29.9228E-03    -14.9340E-03     11.8706E-03    -14.9859E-03     29.6020E-03    -14.8741E-03     11.8694E-03
            1752     2.66019E-03     36.8843E-03    -29.1143E+06    -81.6849E+06    -23.7826E+06     56.0672E+03    -14.9271E-03     29.8268E-03    -14.8996E-03     8.84996E-03    -14.9200E-03     29.4952E-03    -14.8579E-03     8.84920E-03
            1753     1.77347E-03     36.8773E-03    -30.6807E+06    -87.2259E+06    -28.0002E+06     17.3072E+03    -14.8813E-03     29.7608E-03    -14.8795E-03     5.91587E-03    -14.8677E-03     29.4099E-03    -14.8486E-03     5.91514E-03
            1754     886.704E-06     36.8730E-03    -31.7564E+06    -90.9473E+06    -30.8579E+06    -34.4278E+03    -14.8771E-03     29.7368E-03    -14.8598E-03     3.17840E-03    -14.8592E-03     29.3730E-03    -14.8361E-03     3.17746E-03
            1755     16.8389E-03     36.4681E-03    -3.38163E+06     114.959E+06     58.8330E+06     592.630E+03    -15.6014E-03     31.1209E-03    -15.5195E-03     48.7506E-03    -16.0069E-03     31.7519E-03    -15.3872E-03     48.7968E-03
            1756     15.9526E-03     36.4002E-03    -7.52705E+06     94.2653E+06     21.9570E+06     596.074E+03    -16.8466E-03     32.2049E-03    -15.3583E-03     70.4320E-03    -17.2438E-03     32.8463E-03    -15.3743E-03     70.4479E-03
            1757     15.0671E-03     36.3359E-03    -8.20158E+06     45.8793E+06    -629.654E+03    -445.074E+03    -16.9374E-03     32.2156E-03    -15.2782E-03     64.3503E-03    -17.1583E-03     32.5721E-03    -15.3360E-03     64.3116E-03
            1758     14.1812E-03     36.2801E-03    -8.14982E+06     4.72682E+06    -1.29463E+06    -484.077E+03    -16.7038E-03     31.9941E-03    -15.2903E-03     55.8465E-03    -16.8109E-03     32.0928E-03    -15.2918E-03     55.8034E-03
            1759     13.2958E-03     36.2313E-03    -8.12209E+06    -13.9225E+06     2.40228E+06     75.9329E+03    -16.5330E-03     31.8233E-03    -15.2903E-03     50.1255E-03    -16.5926E-03     31.7977E-03    -15.2463E-03     50.0950E-03
            1760     12.4099E-03     36.1860E-03    -8.83910E+06    -26.5690E+06     2.89716E+06    -58.4162E+03    -16.3808E-03     31.6459E-03    -15.2651E-03     46.0240E-03    -16.4135E-03     31.5445E-03    -15.1992E-03     45.9974E-03
            1761     11.5241E-03     36.1447E-03    -9.78572E+06    -40.5926E+06     1.72908E+06     36.4955E+03    -16.2707E-03     31.5022E-03    -15.2315E-03     42.3321E-03    -16.2785E-03     31.3261E-03    -15.1498E-03     42.3117E-03
            1762     10.6381E-03     36.1062E-03    -10.8082E+06    -47.3335E+06     3.68851E+06     172.867E+03    -16.1050E-03     31.3062E-03    -15.2011E-03     38.7939E-03    -16.1060E-03     31.0900E-03    -15.0984E-03     38.7797E-03
            1763     9.75217E-03     36.0714E-03    -12.1096E+06    -49.9082E+06     4.01653E+06     203.440E+03    -15.9186E-03     31.0761E-03    -15.1575E-03     35.1947E-03    -15.9194E-03     30.8451E-03    -15.0475E-03     35.1845E-03
            1764     8.86600E-03     36.0397E-03    -13.6603E+06    -54.2163E+06     3.50087E+06     200.257E+03    -15.7456E-03     30.8596E-03    -15.1139E-03     31.6151E-03    -15.7450E-03     30.6078E-03    -14.9980E-03     31.6077E-03
            1765     7.97982E-03     36.0115E-03    -15.5668E+06    -58.0275E+06     2.49419E+06     112.939E+03    -15.5704E-03     30.6400E-03    -15.0696E-03     28.0742E-03    -15.5708E-03     30.3719E-03    -14.9505E-03     28.0678E-03
            1766     7.09347E-03     35.9864E-03    -17.8005E+06    -60.4668E+06     22.1372E+03     108.160E+03    -15.3962E-03     30.4161E-03    -15.0199E-03     24.6130E-03    -15.3996E-03     30.1416E-03    -14.9063E-03     24.6083E-03
            1767     6.20704E-03     35.9646E-03    -20.1402E+06    -64.6761E+06    -3.32792E+06     214.585E+03    -15.2430E-03     30.2157E-03    -14.9728E-03     21.2354E-03    -15.2464E-03     29.9278E-03    -14.8664E-03     21.2334E-03
            1768     5.32050E-03     35.9459E-03    -22.4745E+06    -68.5849E+06    -7.67323E+06     197.993E+03    -15.1080E-03     30.0330E-03    -14.9250E-03     17.9693E-03    -15.1107E-03     29.7346E-03    -14.8313E-03     17.9682E-03
            1769     4.43389E-03     35.9303E-03    -24.8743E+06    -72.4985E+06    -12.8388E+06     105.077E+03    -14.9919E-03     29.8705E-03    -14.8785E-03     14.8050E-03    -14.9931E-03     29.5632E-03    -14.8016E-03     14.8036E-03
            1770     3.54719E-03     35.9176E-03    -27.1518E+06    -77.3458E+06    -18.3729E+06     74.8434E+03    -14.9022E-03     29.7392E-03    -14.8370E-03     11.7302E-03    -14.8995E-03     29.4188E-03    -14.7773E-03     11.7291E-03
            1771     2.66045E-03     35.9078E-03    -29.1008E+06    -81.6352E+06    -23.8735E+06     39.2397E+03    -14.8344E-03     29.6341E-03    -14.7996E-03     8.73937E-03    -14.8271E-03     29.3029E-03    -14.7584E-03     8.73843E-03
            1772     1.77366E-03     35.9008E-03    -30.5000E+06    -87.0751E+06    -28.0851E+06    -54.1217E+03    -14.7929E-03     29.5670E-03    -14.7741E-03     5.82988E-03    -14.7785E-03     29.2167E-03    -14.7441E-03     5.82824E-03
            1773     886.852E-06     35.8966E-03    -31.3924E+06    -91.1239E+06    -30.6456E+06    -115.799E+03    -14.7495E-03     29.5225E-03    -14.7731E-03     3.13383E-03    -14.7298E-03     29.1569E-03    -14.7487E-03     3.13184E-03
            1774     16.8388E-03     35.4891E-03    -3.22062E+06     115.373E+06     60.3790E+06     897.614E+03    -16.1617E-03     31.6585E-03    -15.4968E-03     48.4472E-03    -16.5669E-03     32.2867E-03    -15.3575E-03     48.4953E-03
            1775     15.9535E-03     35.4218E-03    -4.42404E+06     95.8803E+06     25.5985E+06     441.623E+03    -16.6680E-03     31.9960E-03    -15.3280E-03     69.9954E-03    -17.0541E-03     32.6325E-03    -15.3326E-03     70.0094E-03
            1776     15.0675E-03     35.3572E-03    -5.84516E+06     46.2118E+06     436.949E+03    -346.645E+03    -16.8094E-03     32.0535E-03    -15.2442E-03     63.8493E-03    -17.0196E-03     32.4058E-03    -15.3005E-03     63.8124E-03
            1777     14.1822E-03     35.3018E-03    -6.90743E+06     4.39973E+06    -950.884E+03    -282.678E+03    -16.7587E-03     32.0134E-03    -15.2548E-03     55.5129E-03    -16.8592E-03     32.1078E-03    -15.2559E-03     55.4724E-03
            1778     13.2963E-03     35.2529E-03    -7.93694E+06    -14.3803E+06     2.48302E+06    -63.5074E+03    -16.5824E-03     31.8313E-03    -15.2490E-03     49.8331E-03    -16.6404E-03     31.8029E-03    -15.2042E-03     49.8007E-03
            1779     12.4106E-03     35.2081E-03    -8.65738E+06    -26.2305E+06     3.15674E+06     115.335E+03    -16.4170E-03     31.6340E-03    -15.2170E-03     45.7631E-03    -16.4494E-03     31.5334E-03    -15.1507E-03     45.7388E-03
            1780     11.5247E-03     35.1666E-03    -9.62573E+06    -40.8505E+06     1.73935E+06     45.5858E+03    -16.2871E-03     31.4640E-03    -15.1770E-03     42.0727E-03    -16.2935E-03     31.2863E-03    -15.0951E-03     42.0525E-03
            1781     10.6388E-03     35.1286E-03    -10.6498E+06    -47.3483E+06     3.79885E+06     138.400E+03    -16.1147E-03     31.2554E-03    -15.1408E-03     38.5397E-03    -16.1148E-03     31.0387E-03    -15.0377E-03     38.5251E-03
            1782     9.75277E-03     35.0937E-03    -11.8978E+06    -49.8923E+06     4.09530E+06     150.913E+03    -15.9234E-03     31.0138E-03    -15.0903E-03     34.9406E-03    -15.9232E-03     30.7824E-03    -14.9803E-03     34.9299E-03
            1783     8.86672E-03     35.0623E-03    -13.4271E+06    -54.1855E+06     3.54895E+06     171.109E+03    -15.7360E-03     30.7758E-03    -15.0397E-03     31.3520E-03    -15.7343E-03     30.5237E-03    -14.9239E-03     31.3443E-03
            1784     7.98042E-03     35.0342E-03    -15.3207E+06    -58.0295E+06     2.64940E+06     273.253E+03    -15.5457E-03     30.5350E-03    -14.9893E-03     27.8053E-03    -15.5451E-03     30.2663E-03    -14.8697E-03     27.8011E-03
            1785     7.09411E-03     35.0094E-03    -17.6055E+06    -60.4159E+06     232.212E+03     289.994E+03    -15.3574E-03     30.2908E-03    -14.9333E-03     24.3504E-03    -15.3602E-03     30.0159E-03    -14.8191E-03     24.3481E-03
            1786     6.20761E-03     34.9877E-03    -19.9956E+06    -64.6071E+06    -3.25483E+06     148.926E+03    -15.1902E-03     30.0695E-03    -14.8793E-03     20.9917E-03    -15.1931E-03     29.7816E-03    -14.7729E-03     20.9889E-03
            1787     5.32104E-03     34.9692E-03    -22.3952E+06    -68.5289E+06    -7.65086E+06     130.984E+03    -15.0391E-03     29.8648E-03    -14.8257E-03     17.7398E-03    -15.0415E-03     29.5666E-03    -14.7321E-03     17.7379E-03
            1788     4.43434E-03     34.9537E-03    -24.8274E+06    -72.3768E+06    -12.8197E+06     141.697E+03    -14.9075E-03     29.6819E-03    -14.7744E-03     14.6049E-03    -14.9086E-03     29.3751E-03    -14.6975E-03     14.6040E-03
            1789     3.54758E-03     34.9411E-03    -27.1733E+06    -77.2795E+06    -18.3905E+06     65.8372E+03    -14.8044E-03     29.5338E-03    -14.7293E-03     11.5624E-03    -14.8019E-03     29.2137E-03    -14.6698E-03     11.5612E-03
            1790     2.66073E-03     34.9315E-03    -29.1097E+06    -81.5288E+06    -23.8932E+06    -1.13962E+03    -14.7290E-03     29.4188E-03    -14.6897E-03     8.61201E-03    -14.7219E-03     29.0882E-03    -14.6488E-03     8.61057E-03
            1791     1.77385E-03     34.9246E-03    -30.5779E+06    -86.9963E+06    -28.1965E+06    -85.0380E+03    -14.6864E-03     29.3479E-03    -14.6615E-03     5.75535E-03    -14.6723E-03     28.9983E-03    -14.6320E-03     5.75333E-03
            1792     886.957E-06     34.9204E-03    -31.4915E+06    -91.3122E+06    -30.8661E+06    -116.995E+03    -14.6370E-03     29.2947E-03    -14.6578E-03     3.07830E-03    -14.6172E-03     28.9287E-03    -14.6340E-03     3.07631E-03
            1793     16.8412E-03     34.5109E-03    -3.77145E+06     114.868E+06     59.2418E+06    -58.5149E+03    -16.5016E-03     31.9734E-03    -15.4718E-03     48.8563E-03    -16.9091E-03     32.6035E-03    -15.3367E-03     48.8908E-03
            1794     15.9544E-03     34.4436E-03    -5.22952E+06     95.5576E+06     24.3771E+06    -81.3001E+03    -16.7726E-03     32.0627E-03    -15.2901E-03     70.6104E-03    -17.1619E-03     32.7020E-03    -15.2991E-03     70.6172E-03
            1795     15.0684E-03     34.3789E-03    -5.96428E+06     46.9189E+06     550.584E+03     246.778E+03    -16.8231E-03     32.0291E-03    -15.2059E-03     64.2284E-03    -17.0352E-03     32.3849E-03    -15.2626E-03     64.1991E-03
            1796     14.1824E-03     34.3233E-03    -6.64493E+06     4.35550E+06    -960.500E+03     246.839E+03    -16.7832E-03     31.9964E-03    -15.2132E-03     55.4261E-03    -16.8821E-03     32.0900E-03    -15.2147E-03     55.3924E-03
            1797     13.2970E-03     34.2747E-03    -7.47782E+06    -14.7664E+06     2.53150E+06     198.267E+03    -16.6230E-03     31.8260E-03    -15.2030E-03     49.6604E-03    -16.6780E-03     31.7946E-03    -15.1581E-03     49.6314E-03
            1798     12.4112E-03     34.2298E-03    -8.44178E+06    -26.0870E+06     3.28296E+06     252.355E+03    -16.4593E-03     31.6239E-03    -15.1645E-03     45.5672E-03    -16.4909E-03     31.5234E-03    -15.0980E-03     45.5447E-03
            1799     11.5254E-03     34.1888E-03    -9.36778E+06    -40.7388E+06     1.76991E+06     165.401E+03    -16.3064E-03     31.4238E-03    -15.1173E-03     41.8815E-03    -16.3116E-03     31.2460E-03    -15.0358E-03     41.8631E-03
            1800     10.6395E-03     34.1507E-03    -10.4929E+06    -47.4695E+06     3.75895E+06     149.448E+03    -16.1311E-03     31.2057E-03    -15.0745E-03     38.2924E-03    -16.1301E-03     30.9880E-03    -14.9717E-03     38.2782E-03
            1801     9.75356E-03     34.1162E-03    -11.9202E+06    -49.7940E+06     4.06844E+06     197.777E+03    -15.9302E-03     30.9468E-03    -15.0166E-03     34.6673E-03    -15.9301E-03     30.7159E-03    -14.9068E-03     34.6573E-03
            1802     8.86737E-03     34.0849E-03    -13.6172E+06    -54.2493E+06     3.39228E+06     195.457E+03    -15.7292E-03     30.6872E-03    -14.9580E-03     31.0644E-03    -15.7280E-03     30.4352E-03    -14.8426E-03     31.0571E-03
            1803     7.98119E-03     34.0571E-03    -15.4863E+06    -58.1332E+06     2.56321E+06     317.833E+03    -15.5209E-03     30.4210E-03    -14.9001E-03     27.5049E-03    -15.5207E-03     30.1521E-03    -14.7806E-03     27.5014E-03
            1804     7.09475E-03     34.0324E-03    -17.4877E+06    -60.2274E+06     298.124E+03     316.509E+03    -15.3175E-03     30.1540E-03    -14.8365E-03     24.0541E-03    -15.3201E-03     29.8798E-03    -14.7223E-03     24.0523E-03
            1805     6.20827E-03     34.0110E-03    -19.7923E+06    -64.4553E+06    -3.16399E+06     224.727E+03    -15.1334E-03     29.9086E-03    -14.7752E-03     20.7069E-03    -15.1356E-03     29.6209E-03    -14.6689E-03     20.7052E-03
            1806     5.32161E-03     33.9926E-03    -22.3401E+06    -68.5355E+06    -7.68610E+06     183.018E+03    -14.9644E-03     29.6790E-03    -14.7146E-03     17.4791E-03    -14.9664E-03     29.3807E-03    -14.6213E-03     17.4779E-03
            1807     4.43487E-03     33.9773E-03    -24.8187E+06    -72.2816E+06    -12.8289E+06     170.801E+03    -14.8168E-03     29.4742E-03    -14.6574E-03     14.3691E-03    -14.8180E-03     29.1679E-03    -14.5808E-03     14.3686E-03
            1808     3.54800E-03     33.9649E-03    -27.1287E+06    -77.1412E+06    -18.3832E+06     116.208E+03    -14.6981E-03     29.3056E-03    -14.6075E-03     11.3619E-03    -14.6956E-03     28.9862E-03    -14.5482E-03     11.3614E-03
            1809     2.66108E-03     33.9553E-03    -29.1634E+06    -81.4179E+06    -23.9477E+06    -3.13994E+03    -14.6090E-03     29.1737E-03    -14.5648E-03     8.46125E-03    -14.6022E-03     28.8438E-03    -14.5241E-03     8.45981E-03
            1810     1.77407E-03     33.9485E-03    -30.6382E+06    -86.9846E+06    -28.2695E+06    -61.5353E+03    -14.5528E-03     29.0910E-03    -14.5382E-03     5.64363E-03    -14.5390E-03     28.7415E-03    -14.5090E-03     5.64193E-03
            1811     887.015E-06     33.9444E-03    -31.5629E+06    -91.4336E+06    -30.8991E+06    -95.9341E+03    -14.5476E-03     29.0534E-03    -14.5057E-03     2.99879E-03    -14.5280E-03     28.6868E-03    -14.4819E-03     2.99708E-03
            1812     16.8381E-03     33.5306E-03    -3.71087E+06     114.662E+06     58.6512E+06    -115.093E+03    -16.4451E-03     31.9082E-03    -15.4630E-03     48.0955E-03    -16.8502E-03     32.5370E-03    -15.3307E-03     48.1285E-03
            1813     15.9540E-03     33.4655E-03    -6.60015E+06     95.3357E+06     23.0051E+06    -354.568E+03    -17.0135E-03     32.2863E-03    -15.2728E-03     70.2525E-03    -17.4072E-03     32.9283E-03    -15.2864E-03     70.2543E-03
            1814     15.0684E-03     33.4000E-03    -7.39900E+06     46.7103E+06    -54.6133E+03    -40.5097E+03    -17.0574E-03     32.2346E-03    -15.1772E-03     64.2144E-03    -17.2754E-03     32.5923E-03    -15.2344E-03     64.1802E-03
            1815     14.1833E-03     33.3451E-03    -7.39565E+06     4.22207E+06    -1.32949E+06     321.146E+03    -16.8595E-03     32.0323E-03    -15.1728E-03     55.2103E-03    -16.9609E-03     32.1263E-03    -15.1748E-03     55.1773E-03
            1816     13.2975E-03     33.2963E-03    -7.74646E+06    -14.5115E+06     2.34945E+06     305.508E+03    -16.6470E-03     31.8028E-03    -15.1558E-03     49.5136E-03    -16.7031E-03     31.7730E-03    -15.1118E-03     49.4861E-03
            1817     12.4119E-03     33.2519E-03    -8.48429E+06    -26.2316E+06     3.15972E+06     298.861E+03    -16.5063E-03     31.6180E-03    -15.1117E-03     45.3797E-03    -16.5375E-03     31.5168E-03    -15.0456E-03     45.3579E-03
            1818     11.5260E-03     33.2108E-03    -9.42455E+06    -40.5151E+06     1.77462E+06     329.158E+03    -16.3668E-03     31.4228E-03    -15.0561E-03     41.6397E-03    -16.3724E-03     31.2460E-03    -14.9748E-03     41.6234E-03
            1819     10.6403E-03     33.1731E-03    -10.6070E+06    -47.4968E+06     3.64588E+06     279.069E+03    -16.1643E-03     31.1680E-03    -15.0037E-03     38.0303E-03    -16.1635E-03     30.9504E-03    -14.9012E-03     38.0179E-03
            1820     9.75424E-03     33.1387E-03    -12.0090E+06    -49.8103E+06     4.02291E+06     301.872E+03    -15.9517E-03     30.8884E-03    -14.9367E-03     34.3639E-03    -15.9518E-03     30.6574E-03    -14.8270E-03     34.3553E-03
            1821     8.86824E-03     33.1077E-03    -13.7022E+06    -54.2215E+06     3.34326E+06     363.507E+03    -15.7303E-03     30.5986E-03    -14.8683E-03     30.7229E-03    -15.7294E-03     30.3469E-03    -14.7531E-03     30.7179E-03
            1822     7.98191E-03     33.0800E-03    -15.6662E+06    -58.0986E+06     2.31428E+06     281.230E+03    -15.5033E-03     30.3032E-03    -14.7999E-03     27.1603E-03    -15.5037E-03     30.0350E-03    -14.6814E-03     27.1564E-03
            1823     7.09557E-03     33.0556E-03    -17.7645E+06    -60.0945E+06     36.7746E+03     206.701E+03    -15.2775E-03     30.0042E-03    -14.7267E-03     23.7088E-03    -15.2812E-03     29.7314E-03    -14.6137E-03     23.7057E-03
            1824     6.20897E-03     33.0344E-03    -19.9982E+06    -64.4429E+06    -3.29511E+06     257.675E+03    -15.0698E-03     29.7272E-03    -14.6574E-03     20.3677E-03    -15.0728E-03     29.4400E-03    -14.5514E-03     20.3665E-03
            1825     5.32229E-03     33.0163E-03    -22.3990E+06    -68.4298E+06    -7.71129E+06     285.140E+03    -14.8811E-03     29.4702E-03    -14.5891E-03     17.1653E-03    -14.8836E-03     29.1725E-03    -14.4959E-03     17.1655E-03
            1826     4.43544E-03     33.0012E-03    -24.8968E+06    -72.1978E+06    -12.9851E+06     226.830E+03    -14.7151E-03     29.2392E-03    -14.5242E-03     14.0941E-03    -14.7166E-03     28.9337E-03    -14.4483E-03     14.0944E-03
            1827     3.54851E-03     32.9889E-03    -27.2140E+06    -76.9692E+06    -18.5661E+06     145.933E+03    -14.5806E-03     29.0484E-03    -14.4678E-03     11.1340E-03    -14.5784E-03     28.7302E-03    -14.4095E-03     11.1340E-03
            1828     2.66144E-03     32.9795E-03    -29.1447E+06    -81.2800E+06    -24.0740E+06     43.4357E+03    -14.4762E-03     28.8966E-03    -14.4205E-03     8.28242E-03    -14.4693E-03     28.5676E-03    -14.3807E-03     8.28161E-03
            1829     1.77433E-03     32.9727E-03    -30.6092E+06    -86.9722E+06    -28.3084E+06    -38.3208E+03    -14.4120E-03     28.8030E-03    -14.3910E-03     5.51809E-03    -14.3980E-03     28.4537E-03    -14.3621E-03     5.51671E-03
            1830     887.190E-06     32.9687E-03    -31.6177E+06    -91.5109E+06    -30.9299E+06    -34.8121E+03    -14.4010E-03     28.7562E-03    -14.3552E-03     2.96543E-03    -14.3815E-03     28.3894E-03    -14.3313E-03     2.96452E-03
            1831     16.8420E-03     32.5531E-03    -3.26515E+06     114.993E+06     59.3666E+06    -17.9469E+03    -16.5784E-03     32.0287E-03    -15.4504E-03     47.7854E-03    -16.9809E-03     32.6557E-03    -15.3155E-03     47.8180E-03
            1832     15.9545E-03     32.4861E-03    -5.42972E+06     95.4589E+06     24.2425E+06    -68.3722E+03    -17.1054E-03     32.3601E-03    -15.2547E-03     69.9697E-03    -17.4935E-03     32.9974E-03    -15.2640E-03     69.9733E-03
            1833     15.0695E-03     32.4216E-03    -7.14837E+06     46.3444E+06     88.7126E+03     77.7489E+03    -17.1882E-03     32.3355E-03    -15.1474E-03     63.8760E-03    -17.4036E-03     32.6898E-03    -15.2037E-03     63.8425E-03
            1834     14.1835E-03     32.3664E-03    -7.83791E+06     4.38228E+06    -1.51364E+06     137.750E+03    -16.9074E-03     32.0411E-03    -15.1336E-03     54.9957E-03    -17.0103E-03     32.1360E-03    -15.1362E-03     54.9604E-03
            1835     13.2982E-03     32.3183E-03     -8.1736E+06    -14.5807E+06     2.12623E+06     154.629E+03    -16.7108E-03     31.8209E-03    -15.1100E-03     49.3963E-03    -16.7683E-03     31.7914E-03    -15.0664E-03     49.3669E-03
            1836     12.4124E-03     32.2736E-03    -8.93789E+06    -26.3201E+06     2.91308E+06     302.697E+03    -16.5889E-03     31.6459E-03    -15.0570E-03     45.1550E-03    -16.6217E-03     31.5451E-03    -14.9913E-03     45.1333E-03
            1837     11.5269E-03     32.2330E-03    -9.76597E+06    -40.4904E+06     1.68281E+06     393.466E+03    -16.4325E-03     31.4238E-03    -14.9914E-03     41.3294E-03    -16.4395E-03     31.2476E-03    -14.9101E-03     41.3140E-03
            1838     10.6410E-03     32.1954E-03    -10.7819E+06    -47.3595E+06     3.55563E+06     350.655E+03    -16.2268E-03     31.1540E-03    -14.9272E-03     37.7153E-03    -16.2268E-03     30.9373E-03    -14.8251E-03     37.7039E-03
            1839     9.75521E-03     32.1612E-03    -12.1355E+06    -49.9072E+06     3.84506E+06     356.041E+03    -15.9909E-03     30.8388E-03    -14.8479E-03     33.9867E-03    -15.9912E-03     30.6077E-03    -14.7387E-03     33.9789E-03
            1840     8.86903E-03     32.1305E-03    -13.7255E+06    -54.1739E+06     3.23490E+06     447.259E+03    -15.7423E-03     30.5098E-03    -14.7674E-03     30.3195E-03    -15.7413E-03     30.2584E-03    -14.6528E-03     30.3158E-03
            1841     7.98288E-03     32.1031E-03    -15.6020E+06    -57.8624E+06     2.25488E+06     373.190E+03    -15.4892E-03     30.1764E-03    -14.6872E-03     26.7507E-03    -15.4894E-03     29.9093E-03    -14.5694E-03     26.7482E-03
            1842     7.09639E-03     32.0790E-03    -17.8518E+06    -60.0437E+06    -67.6539E+03     277.197E+03    -15.2361E-03     29.8392E-03    -14.6031E-03     23.3028E-03    -15.2401E-03     29.5669E-03    -14.4905E-03     23.3007E-03
            1843     6.20984E-03     32.0580E-03    -20.2941E+06    -64.4238E+06    -3.54720E+06     257.276E+03    -15.0027E-03     29.5255E-03    -14.5228E-03     19.9823E-03    -15.0068E-03     29.2392E-03    -14.4177E-03     19.9812E-03
            1844     5.32304E-03     32.0401E-03    -22.7470E+06    -68.3911E+06    -7.99139E+06     286.258E+03    -14.7861E-03     29.2309E-03    -14.4449E-03     16.8079E-03    -14.7898E-03     28.9343E-03    -14.3527E-03     16.8082E-03
            1845     4.43613E-03     32.0252E-03    -25.1194E+06    -72.0174E+06    -13.2202E+06     264.840E+03    -14.5974E-03     28.9691E-03    -14.3717E-03     13.7793E-03    -14.5999E-03     28.6651E-03    -14.2970E-03     13.7802E-03
            1846     3.54905E-03     32.0132E-03    -27.3457E+06    -76.7850E+06    -18.8654E+06     125.360E+03    -14.4475E-03     28.7553E-03    -14.3078E-03     10.8707E-03    -14.4458E-03     28.4386E-03    -14.2511E-03     10.8704E-03
            1847     2.66190E-03     32.0039E-03    -29.1669E+06    -81.1571E+06    -24.2798E+06     13.9103E+03    -14.3291E-03     28.5834E-03    -14.2543E-03     8.07603E-03    -14.3222E-03     28.2552E-03    -14.2157E-03     8.07487E-03
            1848     1.77463E-03     31.9973E-03    -30.4714E+06    -86.9678E+06    -28.2757E+06    -13.0639E+03    -14.2516E-03     28.4719E-03    -14.2203E-03     5.38657E-03    -14.2369E-03     28.1223E-03    -14.1914E-03     5.38553E-03
            1849     887.321E-06     31.9933E-03    -31.3235E+06    -91.5233E+06    -30.7126E+06     26.2108E+03    -14.1895E-03     28.4116E-03    -14.2221E-03     2.89666E-03    -14.1689E-03     28.0440E-03    -14.1976E-03     2.89654E-03
            1850     16.8386E-03     31.5732E-03    -3.29861E+06     114.875E+06     58.8705E+06    -136.560E+03    -16.7514E-03     32.1981E-03    -15.4467E-03     47.9597E-03    -17.1538E-03     32.8259E-03    -15.3141E-03     47.9889E-03
            1851     15.9552E-03     31.5078E-03    -6.09772E+06     95.1649E+06     23.0112E+06     657.161E+03    -17.4376E-03     32.6726E-03    -15.2351E-03     70.4076E-03    -17.8274E-03     33.3119E-03    -15.2492E-03     70.4181E-03
            1852     15.0693E-03     31.4424E-03    -7.10629E+06     46.7877E+06     58.1342E+03     239.624E+03    -17.3191E-03     32.4367E-03    -15.1175E-03     63.6221E-03    -17.5340E-03     32.7922E-03    -15.1748E-03     63.5901E-03
            1853     14.1844E-03     31.3884E-03    -7.18868E+06     4.26008E+06    -1.28241E+06     7.08753E+03    -16.9696E-03     32.0665E-03    -15.0970E-03     54.7386E-03    -17.0686E-03     32.1589E-03    -15.0991E-03     54.7016E-03
            1854     13.2986E-03     31.3398E-03    -8.02143E+06    -14.8049E+06     2.02524E+06     303.683E+03    -16.8317E-03     31.8954E-03    -15.0637E-03     49.2527E-03    -16.8877E-03     31.8645E-03    -15.0205E-03     49.2250E-03
            1855     12.4134E-03     31.2956E-03    -8.96852E+06    -26.1752E+06     2.75599E+06     299.391E+03    -16.6946E-03     31.6931E-03    -14.9985E-03     44.8860E-03    -16.7273E-03     31.5930E-03    -14.9337E-03     44.8642E-03
            1856     11.5275E-03     31.2550E-03    -9.82315E+06    -40.6649E+06     1.32986E+06     365.819E+03    -16.5374E-03     31.4568E-03    -14.9193E-03     41.0103E-03    -16.5438E-03     31.2801E-03    -14.8395E-03     40.9946E-03
            1857     10.6420E-03     31.2177E-03    -10.9053E+06    -47.1793E+06     3.42482E+06     464.311E+03    -16.3149E-03     31.1563E-03    -14.8414E-03     37.2954E-03    -16.3155E-03     30.9407E-03    -14.7400E-03     37.2855E-03
            1858     9.75606E-03     31.1838E-03    -12.3806E+06    -49.9133E+06     3.53460E+06     414.057E+03    -16.0383E-03     30.7852E-03    -14.7469E-03     33.5377E-03    -16.0392E-03     30.5547E-03    -14.6389E-03     33.5308E-03
            1859     8.87014E-03     31.1534E-03    -13.9798E+06    -54.1576E+06     3.07419E+06     424.623E+03    -15.7615E-03     30.4146E-03    -14.6531E-03     29.8483E-03    -15.7615E-03     30.1637E-03    -14.5389E-03     29.8444E-03
            1860     7.98382E-03     31.1263E-03    -15.8134E+06    -57.6691E+06     2.10544E+06     422.759E+03    -15.4718E-03     30.0308E-03    -14.5590E-03     26.2727E-03    -15.4730E-03     29.7651E-03    -14.4419E-03     26.2709E-03
            1861     7.09743E-03     31.1025E-03    -17.8947E+06    -59.9656E+06    -234.081E+03     377.025E+03    -15.1880E-03     29.6501E-03    -14.4621E-03     22.8392E-03    -15.1920E-03     29.3784E-03    -14.3503E-03     22.8384E-03
            1862     6.21075E-03     31.0818E-03    -20.2340E+06    -64.3675E+06    -3.61522E+06     378.494E+03    -14.9259E-03     29.2962E-03    -14.3704E-03     19.5387E-03    -14.9297E-03     29.0102E-03    -14.2658E-03     19.5392E-03
            1863     5.32393E-03     31.0643E-03    -22.7505E+06    -68.2907E+06    -8.07091E+06     325.950E+03    -14.6812E-03     28.9628E-03    -14.2816E-03     16.4045E-03    -14.6850E-03     28.6668E-03    -14.1899E-03     16.4054E-03
            1864     4.43688E-03     31.0496E-03    -25.1866E+06    -71.8056E+06    -13.2818E+06     193.959E+03    -14.4652E-03     28.6642E-03    -14.1990E-03     13.4293E-03    -14.4682E-03     28.3614E-03    -14.1248E-03     13.4293E-03
            1865     3.54971E-03     31.0378E-03    -27.3282E+06    -76.5768E+06    -18.8871E+06     42.3286E+03    -14.2916E-03     28.4193E-03    -14.1277E-03     10.5861E-03    -14.2901E-03     28.1037E-03    -14.0714E-03     10.5848E-03
            1866     2.66238E-03     31.0286E-03    -29.0925E+06    -81.1056E+06    -24.3008E+06    -55.0207E+03    -14.1598E-03     28.2280E-03    -14.0683E-03     7.86160E-03    -14.1525E-03     27.9001E-03    -14.0300E-03     7.85958E-03
            1867     1.77499E-03     31.0222E-03    -30.3702E+06    -86.9925E+06    -28.2340E+06    -54.0162E+03    -14.0711E-03     28.1003E-03    -14.0292E-03     5.24357E-03    -14.0559E-03     27.7504E-03    -14.0002E-03     5.24204E-03
            1868     887.510E-06     31.0182E-03    -31.1370E+06    -91.5438E+06    -30.4933E+06    -32.5421E+03    -13.9889E-03     28.0253E-03    -14.0363E-03     2.79522E-03    -13.9676E-03     27.6570E-03    -14.0109E-03     2.79436E-03
            1869     16.8412E-03     30.5949E-03    -4.22014E+06     114.069E+06     59.2190E+06     58.5182E+03    -16.8952E-03     32.3470E-03    -15.4518E-03     47.9759E-03    -17.3027E-03     32.9727E-03    -15.3150E-03     48.0056E-03
            1870     15.9543E-03     30.5275E-03    -6.77140E+06     95.7093E+06     23.8811E+06    -349.422E+03    -17.7727E-03     32.9987E-03    -15.2260E-03     69.5978E-03    -18.1678E-03     33.6403E-03    -15.2355E-03     69.5934E-03
            1871     15.0705E-03     30.4639E-03    -6.39719E+06     46.8312E+06    -52.8099E+03     23.8424E+03    -17.3548E-03     32.4440E-03    -15.0892E-03     62.8870E-03    -17.5643E-03     32.7972E-03    -15.1481E-03     62.8519E-03
            1872     14.1844E-03     30.4098E-03    -7.46268E+06     3.83764E+06    -1.91433E+06     710.625E+03    -17.0737E-03     32.1351E-03    -15.0614E-03     54.7760E-03    -17.1724E-03     32.2266E-03    -15.0658E-03     54.7478E-03
            1873     13.2996E-03     30.3614E-03    -8.39827E+06    -14.3548E+06     1.82217E+06     358.794E+03    -17.0253E-03     32.0422E-03    -15.0169E-03     49.1280E-03    -17.0835E-03     32.0143E-03    -14.9748E-03     49.1007E-03
            1874     12.4138E-03     30.3174E-03    -8.95548E+06    -26.4219E+06     2.58370E+06     267.949E+03    -16.8664E-03     31.8019E-03    -14.9355E-03     44.5524E-03    -16.8981E-03     31.7005E-03    -14.8713E-03     44.5301E-03
            1875     11.5287E-03     30.2770E-03    -9.79793E+06    -40.6080E+06     1.26937E+06     420.190E+03    -16.6855E-03     31.5242E-03    -14.8388E-03     40.5667E-03    -16.6915E-03     31.3477E-03    -14.7593E-03     40.5516E-03
            1876     10.6429E-03     30.2400E-03    -10.8583E+06    -47.3476E+06     3.41269E+06     535.257E+03    -16.4091E-03     31.1529E-03    -14.7438E-03     36.7853E-03    -16.4089E-03     30.9363E-03    -14.6424E-03     36.7764E-03
            1877     9.75729E-03     30.2065E-03    -12.2274E+06    -49.6230E+06     3.67593E+06     605.444E+03    -16.0969E-03     30.7297E-03    -14.6327E-03     33.0008E-03    -16.0975E-03     30.5001E-03    -14.5247E-03     32.9965E-03
            1878     8.87120E-03     30.1764E-03    -13.9230E+06    -54.1286E+06     2.90209E+06     417.704E+03    -15.7786E-03     30.3004E-03    -14.5218E-03     29.2978E-03    -15.7780E-03     30.0498E-03    -14.4086E-03     29.2939E-03
            1879     7.98506E-03     30.1497E-03    -15.7689E+06    -57.6009E+06     1.95731E+06     453.534E+03    -15.4526E-03     29.8652E-03    -14.4126E-03     25.7213E-03    -15.4534E-03     29.5999E-03    -14.2965E-03     25.7200E-03
            1880     7.09852E-03     30.1262E-03    -17.9388E+06    -59.8456E+06    -461.338E+03     452.353E+03    -15.1289E-03     29.4302E-03    -14.3013E-03     22.3091E-03    -15.1329E-03     29.1594E-03    -14.1908E-03     22.3094E-03
            1881     6.21185E-03     30.1059E-03    -20.2822E+06    -64.3363E+06    -3.72266E+06     444.499E+03    -14.8306E-03     29.0284E-03    -14.1978E-03     19.0414E-03    -14.8344E-03     28.7427E-03    -14.0937E-03     19.0429E-03
            1882     5.32489E-03     30.0886E-03    -22.6676E+06    -67.9981E+06    -7.96067E+06     358.346E+03    -14.5549E-03     28.6536E-03    -14.0987E-03     15.9603E-03    -14.5588E-03     28.3587E-03    -14.0070E-03     15.9617E-03
            1883     4.43776E-03     30.0743E-03    -25.0078E+06    -71.5442E+06    -13.0779E+06     102.351E+03    -14.3115E-03     28.3188E-03    -14.0073E-03     13.0543E-03    -14.3143E-03     28.0168E-03    -13.9327E-03     13.0532E-03
            1884     3.55041E-03     30.0627E-03    -27.1716E+06    -76.4352E+06    -18.6845E+06    -74.3012E+03    -14.1154E-03     28.0445E-03    -13.9290E-03     10.2848E-03    -14.1136E-03     27.7290E-03    -13.8722E-03     10.2820E-03
            1885     2.66294E-03     30.0538E-03     -28.954E+06    -81.1190E+06    -24.1154E+06    -123.799E+03    -13.9664E-03     27.8313E-03    -13.8649E-03     7.63169E-03    -13.9588E-03     27.5028E-03    -13.8258E-03     7.62883E-03
            1886     1.77534E-03     30.0474E-03    -30.2654E+06    -87.0583E+06    -28.0951E+06    -86.2201E+03    -13.8666E-03     27.6899E-03    -13.8232E-03     5.09445E-03    -13.8510E-03     27.3393E-03    -13.7936E-03     5.09253E-03
            1887     887.699E-06     30.0436E-03    -31.1240E+06    -91.5952E+06    -30.4879E+06    -84.8393E+03    -13.8025E-03     27.6111E-03    -13.8086E-03     2.73668E-03    -13.7811E-03     27.2425E-03    -13.7831E-03     2.73515E-03
            1888     16.8385E-03     29.6145E-03    -2.05017E+06     115.560E+06     59.7954E+06    -562.776E+03    -17.3555E-03     32.7801E-03    -15.4246E-03     47.6407E-03    -17.7543E-03     33.4084E-03    -15.2902E-03     47.6601E-03
            1889     15.9565E-03     29.5476E-03    -3.95651E+06     94.7673E+06     24.2725E+06    -486.354E+03    -17.4029E-03     32.5993E-03    -15.1964E-03     68.7399E-03    -17.7796E-03     33.2279E-03    -15.2067E-03     68.7337E-03
            1890     15.0700E-03     29.4858E-03    -7.75146E+06     45.6065E+06    -817.509E+03     1.48225E+06    -17.2662E-03     32.3377E-03    -15.0716E-03     63.0844E-03    -17.4784E-03     32.6868E-03    -15.1306E-03     63.0683E-03
            1891     14.1852E-03     29.4309E-03    -8.91014E+06     5.33500E+06    -1.97119E+06     651.101E+03    -17.4163E-03     32.4502E-03    -15.0339E-03     54.8048E-03    -17.5247E-03     32.5517E-03    -15.0386E-03     54.7745E-03
            1892     13.2997E-03     29.3829E-03    -8.70410E+06    -14.5186E+06     1.85788E+06    -54.0795E+03    -17.3131E-03     32.2803E-03    -14.9672E-03     48.7463E-03    -17.3722E-03     32.2516E-03    -14.9242E-03     48.7132E-03
            1893     12.4150E-03     29.3389E-03    -9.15441E+06    -26.5053E+06     2.62253E+06     210.723E+03    -17.1021E-03     31.9646E-03    -14.8625E-03     44.0170E-03    -17.1345E-03     31.8628E-03    -14.7976E-03     43.9937E-03
            1894     11.5296E-03     29.2990E-03    -9.89324E+06    -40.7484E+06     1.21982E+06     335.609E+03    -16.8276E-03     31.5718E-03    -14.7442E-03     39.9942E-03    -16.8336E-03     31.3945E-03    -14.6646E-03     39.9782E-03
            1895     10.6443E-03     29.2623E-03    -10.8222E+06    -47.4204E+06     3.22786E+06     542.942E+03    -16.5118E-03     31.1411E-03    -14.6293E-03     36.1739E-03    -16.5109E-03     30.9240E-03    -14.5287E-03     36.1651E-03
            1896     9.75847E-03     29.2292E-03    -12.0666E+06    -49.5465E+06     3.45182E+06     614.282E+03    -16.1526E-03     30.6518E-03    -14.4991E-03     32.3602E-03    -16.1521E-03     30.4225E-03    -14.3925E-03     32.3561E-03
            1897     8.87261E-03     29.1995E-03    -13.6584E+06    -53.9235E+06     2.74341E+06     679.210E+03    -15.7864E-03     30.1573E-03    -14.3709E-03     28.6563E-03    -15.7844E-03     29.9075E-03    -14.2592E-03     28.6558E-03
            1898     7.98631E-03     29.1732E-03    -15.7575E+06    -57.5826E+06     1.74342E+06     585.231E+03    -15.4156E-03     29.6619E-03    -14.2463E-03     25.1022E-03    -15.4160E-03     29.3969E-03    -14.1313E-03     25.1027E-03
            1899     7.09986E-03     29.1501E-03    -17.9591E+06    -59.6853E+06    -475.358E+03     583.246E+03    -15.0488E-03     29.1704E-03    -14.1216E-03     21.7260E-03    -15.0531E-03     28.9004E-03    -14.0114E-03     21.7281E-03
            1900     6.21302E-03     29.1302E-03    -20.2858E+06    -64.1534E+06    -3.70932E+06     449.217E+03    -14.7102E-03     28.7163E-03    -14.0061E-03     18.5182E-03    -14.7143E-03     28.4314E-03    -13.9022E-03     18.5198E-03
            1901     5.32599E-03     29.1133E-03    -22.6179E+06     -67.702E+06    -7.86282E+06     242.968E+03    -14.4028E-03     28.3000E-03    -13.8972E-03     15.4971E-03    -14.4070E-03     28.0064E-03    -13.8055E-03     15.4971E-03
            1902     4.43868E-03     29.0993E-03    -24.9437E+06    -71.2367E+06    -12.9955E+06     36.8288E+03    -14.1352E-03     27.9329E-03    -13.7977E-03     12.6584E-03    -14.1383E-03     27.6322E-03    -13.7232E-03     12.6565E-03
            1903     3.55119E-03     29.0880E-03    -27.1260E+06    -76.3061E+06    -18.6186E+06    -187.446E+03    -13.9199E-03     27.6331E-03    -13.7131E-03     9.96597E-03    -13.9182E-03     27.3181E-03    -13.6563E-03     9.96182E-03
            1904     2.66353E-03     29.0793E-03    -28.8847E+06    -81.2424E+06    -24.0075E+06    -226.279E+03    -13.7556E-03     27.4007E-03    -13.6450E-03     7.39582E-03    -13.7476E-03     27.0713E-03    -13.6054E-03     7.39168E-03
            1905     1.77575E-03     29.0731E-03    -30.1443E+06    -87.1998E+06    -28.0776E+06    -91.6994E+03    -13.6468E-03     27.2473E-03    -13.6005E-03     4.92548E-03    -13.6304E-03     26.8958E-03    -13.5708E-03     4.92351E-03
            1906     887.866E-06     29.0693E-03    -30.9957E+06    -91.6198E+06    -30.5540E+06     80.6278E+03    -13.5882E-03     27.1643E-03    -13.5761E-03     2.65545E-03    -13.5660E-03     26.7955E-03    -13.5510E-03     2.65608E-03
            1907     16.8439E-03     28.6328E-03    -1.63499E+06     114.144E+06     57.3577E+06    -309.205E+03    -16.8989E-03     32.3117E-03    -15.4129E-03     48.1921E-03    -17.2848E-03     32.9308E-03    -15.2892E-03     48.2163E-03
            1908     15.9553E-03     28.5714E-03    -7.47750E+06     92.5900E+06     18.6154E+06     3.27709E+06    -17.3167E-03     32.5090E-03    -15.1923E-03     70.1321E-03    -17.6963E-03     33.1368E-03    -15.2226E-03     70.1752E-03
            1909     15.0699E-03     28.5056E-03    -9.27101E+06     47.1264E+06    -1.62609E+06     1.27535E+06    -17.9437E-03     33.0117E-03    -15.0680E-03     63.5381E-03    -18.1659E-03     33.3730E-03    -15.1310E-03     63.5163E-03
            1910     14.1854E-03     28.4524E-03    -7.66854E+06     6.27225E+06    -1.42007E+06    -513.434E+03    -17.9608E-03     32.9565E-03    -14.9958E-03     54.1540E-03    -18.0649E-03     33.0599E-03    -15.0009E-03     54.1071E-03
            1911     13.3010E-03     28.4037E-03    -7.90222E+06    -14.7277E+06     1.39127E+06     19.2266E+03    -17.6339E-03     32.5281E-03    -14.8942E-03     47.9998E-03    -17.6876E-03     32.4974E-03    -14.8545E-03     47.9671E-03
            1912     12.4159E-03     28.3606E-03    -8.94262E+06    -26.6444E+06     1.90737E+06     208.513E+03    -17.2782E-03     32.0436E-03    -14.7655E-03     43.2813E-03    -17.3079E-03     31.9415E-03    -14.7043E-03     43.2579E-03
            1913     11.5310E-03     28.3208E-03    -9.88016E+06    -40.8784E+06     411.814E+03     426.060E+03    -16.9762E-03     31.6024E-03    -14.6263E-03     39.2706E-03    -16.9804E-03     31.4253E-03    -14.5506E-03     39.2557E-03
            1914     10.6456E-03     28.2847E-03    -10.9976E+06    -47.5332E+06     2.60032E+06     553.590E+03    -16.5950E-03     31.0873E-03    -14.4923E-03     35.4391E-03    -16.5937E-03     30.8707E-03    -14.3945E-03     35.4306E-03
            1915     9.76006E-03     28.2519E-03    -12.4027E+06    -49.5498E+06     3.03893E+06     695.853E+03    -16.1811E-03     30.5261E-03    -14.3449E-03     31.6293E-03    -16.1815E-03     30.2977E-03    -14.2399E-03     31.6264E-03
            1916     8.87405E-03     28.2228E-03    -14.0002E+06    -53.8710E+06     2.54114E+06     760.253E+03    -15.7644E-03     29.9653E-03    -14.2009E-03     27.9598E-03    -15.7637E-03     29.7163E-03    -14.0898E-03     27.9605E-03
            1917     7.98787E-03     28.1969E-03    -15.7403E+06    -57.3463E+06     1.88220E+06     766.428E+03    -15.3463E-03     29.4086E-03    -14.0624E-03     24.4422E-03    -15.3470E-03     29.1445E-03    -13.9470E-03     24.4453E-03
            1918     7.10123E-03     28.1744E-03    -17.8682E+06    -59.5491E+06    -309.271E+03     607.301E+03    -14.9391E-03     28.8642E-03    -13.9251E-03     21.1187E-03    -14.9432E-03     28.5944E-03    -13.8144E-03     21.1213E-03
            1919     6.21435E-03     28.1549E-03    -20.0673E+06    -63.7403E+06    -3.51564E+06     404.347E+03    -14.5673E-03     28.3656E-03    -13.7983E-03     17.9689E-03    -14.5712E-03     28.0821E-03    -13.6943E-03     17.9701E-03
            1920     5.32713E-03     28.1384E-03    -22.4017E+06    -67.4879E+06    -7.86606E+06     155.010E+03    -14.2315E-03     27.9111E-03    -13.6796E-03     15.0135E-03    -14.2349E-03     27.6182E-03    -13.5886E-03     15.0125E-03
            1921     4.43969E-03     28.1247E-03    -24.7542E+06    -70.9829E+06    -13.0781E+06     3.59714E+03    -13.9429E-03     27.5150E-03    -13.5722E-03     12.2454E-03    -13.9452E-03     27.2154E-03    -13.4987E-03     12.2432E-03
            1922     3.55201E-03     28.1137E-03    -26.9819E+06    -76.1206E+06    -18.7085E+06    -191.374E+03    -13.7085E-03     27.1904E-03    -13.4819E-03     9.62821E-03    -13.7062E-03     26.8763E-03    -13.4259E-03     9.62408E-03
            1923     2.66414E-03     28.1053E-03    -28.8683E+06    -81.4448E+06    -24.1976E+06    -268.760E+03    -13.5320E-03     26.9416E-03    -13.4096E-03     7.14286E-03    -13.5233E-03     26.6114E-03    -13.3706E-03     7.13823E-03
            1924     1.77617E-03     28.0992E-03    -30.2592E+06    -87.5418E+06    -28.2517E+06     12.8973E+03    -13.4197E-03     26.7800E-03    -13.3603E-03     4.75891E-03    -13.4032E-03     26.4272E-03    -13.3307E-03     4.75833E-03
            1925     888.135E-06     28.0956E-03    -31.2253E+06    -91.3699E+06    -30.6201E+06     287.425E+03    -13.3426E-03     26.6757E-03    -13.3331E-03     2.56196E-03    -13.3218E-03     26.3086E-03    -13.3084E-03     2.56528E-03
            1926     16.8368E-03     27.6580E-03    -5.40758E+06     110.818E+06     57.5218E+06     1.75222E+06    -16.9200E-03     32.3857E-03    -15.4657E-03     47.9503E-03    -17.3219E-03     32.9949E-03    -15.3309E-03     47.9976E-03
            1927     15.9530E-03     27.5890E-03    -11.0953E+06     94.3307E+06     20.6838E+06     837.733E+03    -18.3656E-03     33.5824E-03    -15.2168E-03     69.1281E-03    -18.7727E-03     34.2250E-03    -15.2341E-03     69.1322E-03
            1928     15.0707E-03     27.5269E-03    -7.67763E+06     50.1786E+06    -1.16001E+06    -1.02560E+06    -18.6608E-03     33.6811E-03    -15.0202E-03     61.5498E-03    -18.8806E-03     34.0551E-03    -15.0877E-03     61.4938E-03
            1929     14.1864E-03     27.4717E-03    -7.54424E+06     4.50290E+06    -2.78135E+06    -575.381E+03    -18.2205E-03     33.1328E-03    -14.9123E-03     52.9417E-03    -18.3188E-03     33.2284E-03    -14.9218E-03     52.8930E-03
            1930     13.3022E-03     27.4253E-03    -8.43681E+06    -14.4704E+06     845.410E+03     266.194E+03    -17.8057E-03     32.5970E-03    -14.7913E-03     46.8577E-03    -17.8613E-03     32.5688E-03    -14.7539E-03     46.8277E-03
            1931     12.4175E-03     27.3817E-03    -9.28844E+06    -27.0359E+06     1.57766E+06     363.999E+03    -17.3830E-03     32.0286E-03    -14.6456E-03     42.4923E-03    -17.4130E-03     31.9251E-03    -14.5851E-03     42.4710E-03
            1932     11.5325E-03     27.3429E-03    -10.1768E+06    -40.8163E+06     541.411E+03     565.258E+03    -17.0598E-03     31.5500E-03    -14.4902E-03     38.4430E-03    -17.0656E-03     31.3732E-03    -14.4135E-03     38.4299E-03
            1933     10.6474E-03     27.3069E-03    -11.2020E+06    -47.6686E+06     2.59978E+06     578.399E+03    -16.6325E-03     30.9705E-03    -14.3379E-03     34.6814E-03    -16.6318E-03     30.7532E-03    -14.2396E-03     34.6734E-03
            1934     9.76169E-03     27.2750E-03    -12.3950E+06    -49.5880E+06     3.42182E+06     736.489E+03    -16.1701E-03     30.3456E-03    -14.1755E-03     30.8892E-03    -16.1707E-03     30.1162E-03    -14.0685E-03     30.8871E-03
            1935     8.87579E-03     27.2462E-03    -13.8644E+06    -53.6708E+06     2.83484E+06     676.337E+03    -15.7091E-03     29.7248E-03    -14.0157E-03     27.2552E-03    -15.7084E-03     29.4761E-03    -13.9036E-03     27.2552E-03
            1936     7.98942E-03     27.2210E-03    -15.5418E+06    -57.3368E+06     2.09142E+06     647.140E+03    -15.2514E-03     29.1150E-03    -13.8636E-03     23.7732E-03    -15.2514E-03     28.8502E-03    -13.7475E-03     23.7749E-03
            1937     7.10277E-03     27.1989E-03    -17.4010E+06    -59.1387E+06    -48.8376E+03     598.682E+03    -14.8112E-03     28.5251E-03    -13.7138E-03     20.4895E-03    -14.8140E-03     28.2562E-03    -13.6031E-03     20.4922E-03
            1938     6.21572E-03     27.1799E-03    -19.6248E+06    -63.4642E+06    -3.43186E+06     336.087E+03    -14.4086E-03     27.9846E-03    -13.5760E-03     17.3892E-03    -14.4107E-03     27.7017E-03    -13.4727E-03     17.3897E-03
            1939     5.32838E-03     27.1639E-03    -21.9573E+06    -67.2002E+06    -7.86898E+06     186.325E+03    -14.0472E-03     27.4953E-03    -13.4481E-03     14.5020E-03    -14.0488E-03     27.2032E-03    -13.3582E-03     14.5015E-03
            1940     4.44074E-03     27.1506E-03    -24.2838E+06    -70.8508E+06    -13.2337E+06     13.3936E+03    -13.7375E-03     27.0703E-03    -13.3328E-03     11.8069E-03    -13.7374E-03     26.7708E-03    -13.2611E-03     11.8049E-03
            1941     3.55287E-03     27.1399E-03    -26.3516E+06    -75.8783E+06    -18.8231E+06    -117.788E+03    -13.4896E-03     26.7257E-03    -13.2361E-03     9.26767E-03    -13.4842E-03     26.4120E-03    -13.1820E-03     9.26456E-03
            1942     2.66483E-03     27.1317E-03    -28.1534E+06    -81.7693E+06    -23.7761E+06    -95.7796E+03    -13.3016E-03     26.4630E-03    -13.1614E-03     6.86730E-03    -13.2894E-03     26.1295E-03    -13.1209E-03     6.86495E-03
            1943     1.77661E-03     27.1258E-03    -29.7283E+06    -87.8620E+06    -27.5081E+06     284.599E+03    -13.1727E-03     26.2826E-03    -13.1098E-03     4.57471E-03    -13.1541E-03     25.9263E-03    -13.0769E-03     4.57767E-03
            1944     888.325E-06     27.1222E-03    -30.8418E+06    -90.7759E+06    -30.1021E+06     322.456E+03    -13.0874E-03     26.1666E-03    -13.0792E-03     2.45394E-03    -13.0664E-03     25.8011E-03    -13.0533E-03     2.45772E-03
            1945     16.8413E-03     26.6772E-03    -3.19670E+06     113.803E+06     59.3505E+06     2.17251E+06    -18.5333E-03     33.9766E-03    -15.4433E-03     45.8499E-03    -18.9325E-03     34.5963E-03    -15.3069E-03     45.8945E-03
            1946     15.9577E-03     26.6085E-03    -1.72130E+06     97.8968E+06     28.8723E+06    -591.079E+03    -18.9635E-03     34.1142E-03    -15.1506E-03     67.2359E-03    -19.3396E-03     34.7479E-03    -15.1457E-03     67.2148E-03
            1947     15.0727E-03     26.5466E-03    -5.33255E+06     48.8074E+06     2.05485E+06    -469.575E+03    -18.5196E-03     33.4465E-03    -14.9269E-03     60.5713E-03    -18.7279E-03     33.8031E-03    -14.9796E-03     60.5225E-03
            1948     14.1886E-03     26.4927E-03    -7.39463E+06     4.25089E+06    -1.65502E+06     338.581E+03    -18.2301E-03     33.0362E-03    -14.8061E-03     52.2743E-03    -18.3278E-03     33.1275E-03    -14.8098E-03     52.2374E-03
            1949     13.3040E-03     26.4459E-03    -8.23105E+06    -15.4224E+06     1.83751E+06     385.800E+03    -17.8297E-03     32.5055E-03    -14.6758E-03     46.2461E-03    -17.8835E-03     32.4700E-03    -14.6323E-03     46.2179E-03
            1950     12.4193E-03     26.4036E-03    -9.00879E+06    -26.3663E+06     2.61117E+06     507.097E+03    -17.4895E-03     32.0028E-03    -14.5134E-03     41.8775E-03    -17.5201E-03     31.9003E-03    -14.4490E-03     41.8581E-03
            1951     11.5344E-03     26.3646E-03    -9.72447E+06    -41.3689E+06     1.02066E+06     379.290E+03    -17.0882E-03     31.4284E-03    -14.3402E-03     37.8228E-03    -17.0911E-03     31.2470E-03    -14.2610E-03     37.8077E-03
            1952     10.6491E-03     26.3297E-03    -10.5722E+06    -47.3315E+06     3.25503E+06     698.056E+03    -16.6459E-03     30.8179E-03    -14.1720E-03     33.9712E-03    -16.6431E-03     30.6002E-03    -14.0718E-03     33.9651E-03
            1953     9.76355E-03     26.2980E-03    -11.8347E+06    -49.7633E+06     3.59870E+06     520.013E+03    -16.1424E-03     30.1351E-03    -13.9927E-03     30.1927E-03    -16.1400E-03     29.9036E-03    -13.8854E-03     30.1881E-03
            1954     8.87752E-03     26.2700E-03    -13.1959E+06    -53.4665E+06     3.23054E+06     678.913E+03    -15.6444E-03     29.4632E-03    -13.8188E-03     26.5340E-03    -15.6410E-03     29.2138E-03    -13.7060E-03     26.5342E-03
            1955     7.99114E-03     26.2452E-03    -15.0088E+06    -57.2213E+06     2.08233E+06     580.203E+03    -15.1495E-03     28.8011E-03    -13.6516E-03     23.0788E-03    -15.1469E-03     28.5361E-03    -13.5365E-03     23.0799E-03
            1956     7.10434E-03     26.2238E-03    -17.0617E+06    -58.9662E+06    -139.032E+03     536.129E+03    -14.6738E-03     28.1633E-03    -13.4896E-03     19.8247E-03    -14.6748E-03     27.8949E-03    -13.3800E-03     19.8267E-03
            1957     6.21719E-03     26.2053E-03    -19.3118E+06    -63.1098E+06    -3.49839E+06     481.844E+03    -14.2406E-03     27.5816E-03    -13.3410E-03     16.7768E-03    -14.2416E-03     27.3001E-03    -13.2389E-03     16.7794E-03
            1958     5.32967E-03     26.1897E-03    -21.7068E+06    -66.9442E+06    -8.07777E+06     199.609E+03    -13.8529E-03     27.0561E-03    -13.2033E-03     13.9527E-03    -13.8532E-03     26.7652E-03    -13.1151E-03     13.9525E-03
            1959     4.44186E-03     26.1769E-03    -23.8448E+06    -70.6592E+06    -13.4706E+06     30.5071E+03    -13.5201E-03     26.6001E-03    -13.0800E-03     11.3399E-03    -13.5177E-03     26.3013E-03    -13.0103E-03     11.3383E-03
            1960     3.55380E-03     26.1665E-03    -25.7607E+06    -75.7929E+06    -18.9342E+06    -66.0230E+03    -13.2561E-03     26.2337E-03    -12.9776E-03     8.89315E-03    -13.2477E-03     25.9197E-03    -12.9250E-03     8.89078E-03
            1961     2.66551E-03     26.1586E-03    -27.4221E+06    -82.1547E+06    -23.2523E+06     153.660E+03    -13.0586E-03     25.9595E-03    -12.9009E-03     6.58599E-03    -13.0430E-03     25.6223E-03    -12.8583E-03     6.58691E-03
            1962     1.77712E-03     26.1529E-03    -28.7872E+06    -87.8675E+06    -26.5113E+06     452.720E+03    -12.9165E-03     25.7624E-03    -12.8459E-03     4.37851E-03    -12.8946E-03     25.4033E-03    -12.8093E-03     4.38367E-03
            1963     888.576E-06     26.1495E-03    -29.6327E+06    -90.0485E+06    -29.0430E+06     301.398E+03    -12.8250E-03     25.6330E-03    -12.8079E-03     2.34450E-03    -12.8005E-03     25.2679E-03    -12.7796E-03     2.34803E-03
            1964     16.8409E-03     25.6921E-03    -3.57542E+06     113.016E+06     57.7817E+06     -738.87E+03    -18.7834E-03     34.1429E-03    -15.3596E-03     46.3236E-03    -19.1767E-03     34.7572E-03    -15.2293E-03     46.3290E-03
            1965     15.9582E-03     25.6306E-03    -1.71567E+06     97.4930E+06     27.2822E+06     1.83061E+06    -18.8868E-03     33.9449E-03    -15.0580E-03     67.9356E-03    -19.2540E-03     34.5729E-03    -15.0605E-03     67.9461E-03
            1966     15.0738E-03     25.5658E-03    -3.77182E+06     48.6591E+06     3.38887E+06     1.97393E+06    -18.6333E-03     33.4756E-03    -14.8423E-03     61.3986E-03    -18.8335E-03     33.8254E-03    -14.8905E-03     61.3816E-03
            1967     14.1899E-03     25.5138E-03    -5.35537E+06     5.04055E+06     134.960E+03     1.23080E+06    -18.3562E-03     33.0662E-03    -14.7101E-03     52.1300E-03    -18.4460E-03     33.1545E-03    -14.7089E-03     52.1048E-03
            1968     13.3054E-03     25.4668E-03    -6.43368E+06    -15.2730E+06     2.45813E+06     816.558E+03    -18.0027E-03     32.5615E-03    -14.5587E-03     46.0545E-03    -18.0477E-03     32.5223E-03    -14.5150E-03     46.0322E-03
            1969     12.4210E-03     25.4250E-03    -7.52556E+06    -26.3537E+06     3.03743E+06     740.528E+03    -17.6206E-03     31.9975E-03    -14.3768E-03     41.2983E-03    -17.6439E-03     31.8916E-03    -14.3125E-03     41.2822E-03
            1970     11.5361E-03     25.3868E-03    -8.72579E+06    -41.0295E+06     973.138E+03     644.892E+03    -17.1751E-03     31.3574E-03    -14.1823E-03     37.2056E-03    -17.1730E-03     31.1759E-03    -14.1053E-03     37.1943E-03
            1971     10.6510E-03     25.3523E-03    -9.81695E+06    -47.7476E+06     3.02255E+06     598.003E+03    -16.6658E-03     30.6625E-03    -13.9967E-03     33.2545E-03    -16.6580E-03     30.4416E-03    -13.8981E-03     33.2474E-03
            1972     9.76538E-03     25.3214E-03    -11.1822E+06    -49.3416E+06     3.58358E+06     860.489E+03    -16.1241E-03     29.9249E-03    -13.8008E-03     29.4234E-03    -16.1188E-03     29.6944E-03    -13.6951E-03     29.4235E-03
            1973     8.87937E-03     25.2939E-03    -13.0269E+06    -53.6399E+06     2.78406E+06     640.004E+03    -15.5812E-03     29.1917E-03    -13.6106E-03     25.7779E-03    -15.5759E-03     28.9417E-03    -13.5000E-03     25.7779E-03
            1974     7.99291E-03     25.2699E-03    -14.7862E+06    -56.8495E+06     2.04622E+06     726.987E+03    -15.0481E-03     28.4781E-03    -13.4300E-03     22.3247E-03    -15.0448E-03     28.2145E-03    -13.3159E-03     22.3279E-03
            1975     7.10601E-03     25.2490E-03    -16.8919E+06    -58.9617E+06    -384.350E+03     594.633E+03    -14.5308E-03     27.7852E-03    -13.2544E-03     19.1165E-03    -14.5306E-03     27.5168E-03    -13.1463E-03     19.1195E-03
            1976     6.21871E-03     25.2311E-03    -19.0528E+06    -62.7933E+06    -3.56724E+06     537.765E+03    -14.0651E-03     27.1599E-03    -13.0947E-03     16.1232E-03    -14.0651E-03     26.8796E-03    -12.9939E-03     16.1266E-03
            1977     5.33104E-03     25.2161E-03    -21.2170E+06    -66.4954E+06    -8.07734E+06     265.513E+03    -13.6477E-03     26.5949E-03    -12.9472E-03     13.3770E-03    -13.6462E-03     26.3055E-03    -12.8604E-03     13.3777E-03
            1978     4.44304E-03     25.2036E-03    -23.4087E+06    -70.6423E+06    -13.5677E+06     71.0129E+03    -13.2927E-03     26.1090E-03    -12.8163E-03     10.8538E-03    -13.2880E-03     25.8098E-03    -12.7477E-03     10.8527E-03
            1979     3.55474E-03     25.1937E-03    -25.4640E+06    -75.8042E+06    -18.9644E+06     226.472E+03    -13.0090E-03     25.7171E-03    -12.7082E-03     8.49940E-03    -12.9991E-03     25.4027E-03    -12.6561E-03     8.50088E-03
            1980     2.66626E-03     25.1860E-03    -27.2381E+06    -82.3270E+06    -23.1461E+06     290.399E+03    -12.7966E-03     25.4244E-03    -12.6279E-03     6.28587E-03    -12.7799E-03     25.0860E-03    -12.5847E-03     6.28860E-03
            1981     1.77758E-03     25.1806E-03    -28.3447E+06    -87.5933E+06    -26.1336E+06     252.204E+03    -12.6479E-03     25.2171E-03    -12.5692E-03     4.18380E-03    -12.6247E-03     24.8582E-03    -12.5318E-03     4.18641E-03
            1982     888.845E-06     25.1772E-03    -28.8306E+06    -89.5800E+06    -28.1454E+06     56.1988E+03    -12.5583E-03     25.0784E-03    -12.5201E-03     2.24029E-03    -12.5317E-03     24.7132E-03    -12.4891E-03     2.24067E-03
            1983     16.8434E-03     24.7144E-03    -5.31279E+06     111.047E+06     56.6144E+06    -1.10668E+06    -18.5408E-03     33.8777E-03    -15.3369E-03     47.3065E-03    -18.9382E-03     34.4863E-03    -15.2072E-03     47.3056E-03
            1984     15.9576E-03     24.6481E-03    -9.33445E+06     93.8563E+06     21.3889E+06    -1.06970E+06    -19.2437E-03     34.2612E-03    -15.0176E-03     67.8301E-03    -19.6353E-03     34.8908E-03    -15.0332E-03     67.8000E-03
            1985     15.0750E-03     24.5869E-03    -7.46004E+06     49.5019E+06     461.302E+03     1.26975E+06    -19.1812E-03     33.9554E-03    -14.7742E-03     60.6857E-03    -19.3958E-03     34.3180E-03    -14.8329E-03     60.6568E-03
            1986     14.1906E-03     24.5335E-03    -6.64861E+06     5.96221E+06    -1.07607E+06     1.53807E+06    -18.6738E-03     33.2885E-03    -14.6147E-03     51.4606E-03    -18.7685E-03     33.3839E-03    -14.6191E-03     51.4387E-03
            1987     13.3072E-03     24.4881E-03    -7.07026E+06    -14.5067E+06     1.73789E+06     947.789E+03    -18.2417E-03     32.6809E-03    -14.4392E-03     45.2600E-03    -18.2892E-03     32.6468E-03    -14.3993E-03     45.2392E-03
            1988     12.4226E-03     24.4463E-03    -7.69338E+06    -26.8157E+06     2.71616E+06     981.315E+03    -17.7598E-03     31.9973E-03    -14.2375E-03     40.5453E-03    -17.7821E-03     31.8893E-03    -14.1739E-03     40.5325E-03
            1989     11.5380E-03     24.4091E-03    -8.59920E+06    -40.3652E+06     1.35007E+06     1.12193E+06    -17.2740E-03     31.2974E-03    -14.0234E-03     36.3443E-03    -17.2723E-03     31.1180E-03    -13.9457E-03     36.3394E-03
            1990     10.6529E-03     24.3750E-03    -9.86128E+06    -47.8221E+06     2.64068E+06     736.449E+03    -16.6973E-03     30.5127E-03    -13.8155E-03     32.4481E-03    -16.6887E-03     30.2917E-03    -13.7186E-03     32.4431E-03
            1991     9.76734E-03     24.3449E-03    -11.0203E+06    -49.5466E+06     3.45408E+06     913.611E+03    -16.1064E-03     29.7092E-03    -13.6028E-03     28.5739E-03    -16.0996E-03     29.4773E-03    -13.4977E-03     28.5749E-03
            1992     8.88126E-03     24.3182E-03    -12.4930E+06    -53.1538E+06     2.93130E+06     1.09260E+06    -15.5185E-03     28.9142E-03    -13.3957E-03     24.9486E-03    -15.5113E-03     28.6654E-03    -13.2858E-03     24.9548E-03
            1993     7.99475E-03     24.2948E-03    -14.5828E+06    -56.8445E+06     1.95265E+06     779.528E+03    -14.9407E-03     28.1406E-03    -13.1998E-03     21.5202E-03    -14.9361E-03     27.8767E-03    -13.0865E-03     21.5242E-03
            1994     7.10776E-03     24.2746E-03    -16.6520E+06    -58.6850E+06    -321.554E+03     854.718E+03    -14.3827E-03     27.3938E-03    -13.0110E-03     18.3626E-03    -14.3817E-03     27.1263E-03    -12.9034E-03     18.3691E-03
            1995     6.22031E-03     24.2573E-03    -18.9662E+06    -62.4228E+06    -3.94739E+06     544.583E+03    -13.8740E-03     26.7121E-03    -12.8381E-03     15.4544E-03    -13.8734E-03     26.4340E-03    -12.7398E-03     15.4580E-03
            1996     5.33246E-03     24.2428E-03    -21.1308E+06    -66.0826E+06    -8.33376E+06     246.362E+03    -13.4314E-03     26.1135E-03    -12.6821E-03     12.7903E-03    -13.4297E-03     25.8264E-03    -12.5973E-03     12.7909E-03
            1997     4.44424E-03     24.2309E-03    -23.2399E+06    -70.8351E+06    -13.6268E+06     313.922E+03    -13.0579E-03     25.6028E-03    -12.5449E-03     10.3530E-03    -13.0519E-03     25.3024E-03    -12.4766E-03     10.3551E-03
            1998     3.55576E-03     24.2213E-03    -25.2121E+06    -75.8214E+06    -18.8915E+06     531.141E+03    -12.7547E-03     25.1849E-03    -12.4302E-03     8.09671E-03    -12.7436E-03     24.8699E-03    -12.3782E-03     8.10219E-03
            1999     2.66700E-03     24.2139E-03    -26.8415E+06    -82.0077E+06    -22.9040E+06     487.997E+03    -12.5255E-03     24.8706E-03    -12.3451E-03     5.98164E-03    -12.5077E-03     24.5328E-03    -12.3018E-03     5.98698E-03
            2000     1.77813E-03     24.2087E-03    -28.2593E+06    -87.2315E+06    -26.1512E+06     148.415E+03    -12.3632E-03     24.6466E-03    -12.2834E-03     3.97858E-03    -12.3401E-03     24.2894E-03    -12.2467E-03     3.97988E-03
            2001     889.066E-06     24.2056E-03    -29.2290E+06    -89.4555E+06    -28.8949E+06     58.3777E+03    -12.2629E-03     24.5031E-03    -12.2402E-03     2.13492E-03    -12.2374E-03     24.1401E-03    -12.2126E-03     2.13535E-03
            2002     16.8400E-03     23.7325E-03    -2.71749E+06     113.331E+06     58.0133E+06     692.348E+03    -19.3451E-03     34.6750E-03    -15.3299E-03     46.0535E-03    -19.7342E-03     35.2886E-03    -15.2002E-03     46.0701E-03
            2003     15.9591E-03     23.6674E-03    -6.21918E+06     93.1557E+06     21.8468E+06    -744.158E+03    -19.7572E-03     34.7288E-03    -14.9716E-03     66.7051E-03    -20.1308E-03     35.3477E-03    -14.9885E-03     66.6740E-03
            2004     15.0754E-03     23.6058E-03    -8.83607E+06     47.4395E+06    -747.317E+03    -466.877E+03    -19.4812E-03     34.1816E-03    -14.7004E-03     59.5157E-03    -19.6954E-03     34.5350E-03    -14.7601E-03     59.4626E-03
            2005     14.1929E-03     23.5540E-03    -8.43618E+06     6.33635E+06    -1.78462E+06     609.292E+03    -18.9865E-03     33.5012E-03    -14.5147E-03     50.6538E-03    -19.0888E-03     33.6012E-03    -14.5206E-03     50.6191E-03
            2006     13.3085E-03     23.5087E-03    -8.12968E+06    -14.6396E+06     1.47807E+06     790.640E+03    -18.4362E-03     32.7524E-03    -14.3162E-03     44.5040E-03    -18.4877E-03     32.7187E-03    -14.2758E-03     44.4811E-03
            2007     12.4246E-03     23.4679E-03    -8.46106E+06    -26.6209E+06     2.26768E+06     823.404E+03    -17.9011E-03     31.9915E-03    -14.0904E-03     39.7282E-03    -17.9263E-03     31.8856E-03    -14.0282E-03     39.7135E-03
            2008     11.5399E-03     23.4311E-03    -8.87261E+06    -40.7737E+06     1.03117E+06     1.03794E+06    -17.3440E-03     31.2005E-03    -13.8565E-03     35.4883E-03    -17.3422E-03     31.0195E-03    -13.7794E-03     35.4827E-03
            2009     10.6549E-03     23.3981E-03    -9.72666E+06    -46.9333E+06     2.92860E+06     1.19497E+06    -16.7324E-03     30.3621E-03    -13.6296E-03     31.5402E-03    -16.7245E-03     30.1445E-03    -13.5328E-03     31.5415E-03
            2010     9.76930E-03     23.3686E-03    -11.2590E+06    -49.9559E+06     2.92014E+06     815.334E+03    -16.0821E-03     29.4788E-03    -13.3967E-03     27.6991E-03    -16.0748E-03     29.2457E-03    -13.2933E-03     27.6992E-03
            2011     8.88328E-03     23.3427E-03    -12.5749E+06    -53.0211E+06     2.88215E+06     1.14081E+06    -15.4462E-03     28.6204E-03    -13.1743E-03     24.0675E-03    -15.4393E-03     28.3723E-03    -13.0647E-03     24.0745E-03
            2012     7.99665E-03     23.3200E-03    -14.2854E+06    -56.4180E+06     1.91142E+06     1.22758E+06    -14.8171E-03     27.7799E-03    -12.9628E-03     20.6899E-03    -14.8114E-03     27.5177E-03    -12.8507E-03     20.6999E-03
            2013     7.10954E-03     23.3006E-03    -16.5885E+06    -58.6347E+06    -448.261E+03     994.026E+03    -14.2193E-03     26.9814E-03    -12.7621E-03     17.5895E-03    -14.2178E-03     26.7142E-03    -12.6553E-03     17.5980E-03
            2014     6.22193E-03     23.2840E-03    -18.7297E+06    -61.5726E+06    -4.04884E+06     745.626E+03    -13.6748E-03     26.2523E-03    -12.5776E-03     14.7701E-03    -13.6740E-03     25.9783E-03    -12.4814E-03     14.7765E-03
            2015     5.33388E-03     23.2701E-03    -21.1370E+06    -66.0995E+06    -8.84542E+06     439.440E+03    -13.2069E-03     25.6197E-03    -12.4128E-03     12.2005E-03    -13.2044E-03     25.3332E-03    -12.3305E-03     12.2037E-03
            2016     4.44549E-03     23.2586E-03    -23.4683E+06    -70.8657E+06    -13.9234E+06     599.154E+03    -12.8135E-03     25.0834E-03    -12.2699E-03     9.85946E-03    -12.8082E-03     24.7835E-03    -12.2027E-03     9.86539E-03
            2017     3.55674E-03     23.2495E-03    -25.4011E+06    -75.8465E+06    -19.1427E+06     694.639E+03    -12.4927E-03     24.6424E-03    -12.1497E-03     7.70956E-03    -12.4822E-03     24.3279E-03    -12.0986E-03     7.71721E-03
            2018     2.66780E-03     23.2424E-03    -26.8584E+06    -81.4388E+06    -23.6039E+06     682.748E+03    -12.2478E-03     24.3055E-03    -12.0577E-03     5.69603E-03    -12.2299E-03     23.9716E-03    -12.0187E-03     5.70393E-03
            2019     1.77861E-03     23.2375E-03    -27.9930E+06    -86.8448E+06    -26.5267E+06     470.455E+03    -12.0791E-03     24.0759E-03    -11.9967E-03     3.79813E-03    -12.0547E-03     23.7207E-03    -11.9629E-03     3.80362E-03
            2020     889.360E-06     23.2344E-03    -28.9515E+06    -89.1107E+06    -28.4824E+06     450.143E+03    -11.9714E-03     23.9374E-03    -11.9660E-03     2.02454E-03    -11.9456E-03     23.5752E-03    -11.9373E-03     2.03004E-03
            2021     16.8446E-03     22.7499E-03    -3.07197E+06     112.969E+06     59.2028E+06     200.187E+03    -19.9040E-03     35.2064E-03    -15.3025E-03     45.5980E-03    -20.2930E-03     35.8140E-03    -15.1658E-03     45.6030E-03
            2022     15.9601E-03     22.6866E-03    -4.72228E+06     94.8232E+06     23.6718E+06     1.33361E+06    -20.0652E-03     34.9801E-03    -14.9149E-03     65.9867E-03    -20.4315E-03     35.5976E-03    -14.9272E-03     65.9788E-03
            2023     15.0775E-03     22.6249E-03    -6.25308E+06     47.0500E+06    -893.412E+03     307.724E+03    -19.6583E-03     34.2755E-03    -14.6172E-03     59.2123E-03    -19.8565E-03     34.6211E-03    -14.6808E-03     59.1686E-03
            2024     14.1935E-03     22.5742E-03    -7.13769E+06     5.26789E+06    -1.93791E+06    -91.8435E+03    -19.2688E-03     33.6838E-03    -14.4150E-03     49.9594E-03    -19.3616E-03     33.7755E-03    -14.4219E-03     49.9151E-03
            2025     13.3105E-03     22.5293E-03    -7.32639E+06    -14.5978E+06     1.51294E+06     533.426E+03    -18.6842E-03     32.8758E-03    -14.1916E-03     43.7676E-03    -18.7308E-03     32.8403E-03    -14.1523E-03     43.7413E-03
            2026     12.4263E-03     22.4894E-03    -8.04583E+06    -26.7789E+06     2.06593E+06     809.280E+03    -18.0623E-03     32.0036E-03    -13.9413E-03     38.8762E-03    -18.0842E-03     31.8960E-03    -13.8805E-03     38.8616E-03
            2027     11.5419E-03     22.4534E-03    -8.90927E+06    -40.7455E+06     400.048E+03     932.119E+03    -17.4396E-03     31.1231E-03    -13.6834E-03     34.6017E-03    -17.4367E-03     30.9427E-03    -13.6094E-03     34.5951E-03
            2028     10.6569E-03     22.4211E-03    -9.73168E+06    -47.1327E+06     2.63574E+06     1.23716E+06    -16.7577E-03     30.1960E-03    -13.4382E-03     30.5922E-03    -16.7488E-03     29.9775E-03    -13.3426E-03     30.5944E-03
            2029     9.77142E-03     22.3926E-03    -11.0361E+06    -49.1972E+06     2.90864E+06     1.36011E+06    -16.0526E-03     29.2394E-03    -13.1867E-03     26.7624E-03    -16.0451E-03     29.0096E-03    -13.0849E-03     26.7699E-03
            2030     8.88525E-03     22.3674E-03    -12.9066E+06    -53.4575E+06     2.10832E+06     1.01599E+06    -15.3540E-03     28.3013E-03    -12.9472E-03     23.1726E-03    -15.3469E-03     28.0524E-03    -12.8405E-03     23.1782E-03
            2031     7.99858E-03     22.3457E-03    -14.5953E+06    -56.2147E+06     1.66857E+06     1.43966E+06    -14.6760E-03     27.4004E-03    -12.7245E-03     19.8414E-03    -14.6717E-03     27.1399E-03    -12.6135E-03     19.8545E-03
            2032     7.11131E-03     22.3269E-03    -16.4979E+06    -57.9741E+06    -581.759E+03     1.22386E+06    -14.0384E-03     26.5509E-03    -12.5125E-03     16.8206E-03    -14.0371E-03     26.2870E-03    -12.4075E-03     16.8322E-03
            2033     6.22355E-03     22.3111E-03    -18.7584E+06    -61.2508E+06    -4.19853E+06     862.450E+03    -13.4682E-03     25.7883E-03    -12.3200E-03     14.0909E-03    -13.4679E-03     25.5161E-03    -12.2250E-03     14.0989E-03
            2034     5.33532E-03     22.2978E-03    -21.0142E+06    -65.9085E+06    -9.13767E+06     959.054E+03    -12.9736E-03     25.1215E-03    -12.1479E-03     11.6284E-03    -12.9703E-03     24.8361E-03    -12.0675E-03     11.6385E-03
            2035     4.44667E-03     22.2869E-03    -23.2759E+06    -70.8129E+06    -14.2829E+06     875.274E+03    -12.5642E-03     24.5644E-03    -12.0002E-03     9.39380E-03    -12.5575E-03     24.2651E-03    -11.9351E-03     9.40338E-03
            2036     3.55774E-03     22.2781E-03    -25.1282E+06    -75.5778E+06    -19.1711E+06     854.579E+03    -12.2332E-03     24.1110E-03    -11.8778E-03     7.34146E-03    -12.2216E-03     23.7975E-03    -11.8276E-03     7.35125E-03
            2037     2.66850E-03     22.2715E-03    -26.4634E+06    -81.0931E+06    -23.5182E+06     783.744E+03    -11.9804E-03     23.7641E-03    -11.7837E-03     5.41936E-03    -11.9611E-03     23.4312E-03    -11.7453E-03     5.42861E-03
            2038     1.77911E-03     22.2667E-03    -27.3339E+06    -86.2770E+06    -26.1810E+06     752.145E+03    -11.8083E-03     23.5301E-03    -11.7218E-03     3.61229E-03    -11.7819E-03     23.1764E-03    -11.6880E-03     3.62145E-03
            2039     889.562E-06     22.2638E-03    -27.9362E+06    -88.3420E+06    -27.3420E+06     396.105E+03    -11.7107E-03     23.3918E-03    -11.6812E-03     1.93385E-03    -11.6826E-03     23.0303E-03    -11.6493E-03     1.93867E-03
            2040     16.8411E-03     21.7667E-03    -3.94639E+06     111.793E+06     58.7068E+06    -101.492E+03    -20.1604E-03     35.4356E-03    -15.2752E-03     45.3200E-03    -20.5477E-03     36.0355E-03    -15.1381E-03     45.3184E-03
            2041     15.9610E-03     21.7051E-03     -6.7946E+06     94.7217E+06     23.0858E+06     287.918E+03    -20.3371E-03     35.2075E-03    -14.8704E-03     65.4655E-03    -20.7091E-03     35.8247E-03    -14.8824E-03     65.4412E-03
            2042     15.0775E-03     21.6443E-03    -6.75547E+06     48.3627E+06    -1.25717E+06     614.537E+03    -20.0936E-03     34.6384E-03    -14.5448E-03     58.6533E-03    -20.2943E-03     34.9905E-03    -14.6114E-03     58.6113E-03
            2043     14.1955E-03     21.5935E-03    -6.91319E+06     5.13105E+06    -2.58025E+06     110.157E+03    -19.5774E-03     33.8911E-03    -14.3137E-03     49.0801E-03    -19.6663E-03     33.9811E-03    -14.3240E-03     49.0379E-03
            2044     13.3119E-03     21.5501E-03    -7.54033E+06    -15.0914E+06     877.309E+03     343.006E+03    -18.9424E-03     33.0073E-03    -14.0649E-03     42.7069E-03    -18.9877E-03     32.9697E-03    -14.0277E-03     42.6781E-03
            2045     12.4282E-03     21.5107E-03    -8.11825E+06    -27.0521E+06     1.91733E+06     894.978E+03    -18.2229E-03     32.0142E-03    -13.7913E-03     37.8723E-03    -18.2439E-03     31.9048E-03    -13.7307E-03     37.8591E-03
            2046     11.5439E-03     21.4758E-03    -8.89562E+06    -40.4994E+06     384.958E+03     1.10592E+06    -17.5286E-03     31.0393E-03    -13.5108E-03     33.5645E-03    -17.5254E-03     30.8597E-03    -13.4372E-03     33.5604E-03
            2047     10.6590E-03     21.4444E-03    -9.85653E+06    -47.5529E+06     2.15008E+06     1.12565E+06    -16.7707E-03     30.0153E-03    -13.2446E-03     29.6089E-03    -16.7607E-03     29.7953E-03    -13.1506E-03     29.6100E-03
            2048     9.77344E-03     21.4167E-03    -10.7935E+06    -49.0096E+06     3.06202E+06     1.47357E+06    -15.9985E-03     28.9767E-03    -12.9782E-03     25.7793E-03    -15.9900E-03     28.7471E-03    -12.8762E-03     25.7885E-03
            2049     8.88728E-03     21.3926E-03    -12.2392E+06    -53.0289E+06     2.40824E+06     1.56926E+06    -15.2440E-03     27.9689E-03    -12.7249E-03     22.2468E-03    -15.2344E-03     27.7206E-03    -12.6182E-03     22.2599E-03
            2050     8.00045E-03     21.3716E-03    -14.1476E+06    -56.4164E+06     1.65185E+06     1.27629E+06    -14.5193E-03     27.0105E-03    -12.4912E-03     18.9946E-03    -14.5123E-03     26.7482E-03    -12.3806E-03     19.0058E-03
            2051     7.11306E-03     21.3538E-03    -15.9081E+06    -57.2022E+06    -349.275E+03     1.33272E+06    -13.8443E-03     26.1155E-03    -12.2712E-03     16.0676E-03    -13.8415E-03     25.8542E-03    -12.1669E-03     16.0808E-03
            2052     6.22508E-03     21.3386E-03    -18.0808E+06    -61.1990E+06    -4.08351E+06     1.26717E+06    -13.2505E-03     25.3242E-03    -12.0737E-03     13.4372E-03    -13.2470E-03     25.0511E-03    -11.9792E-03     13.4506E-03
            2053     5.33666E-03     21.3260E-03    -20.4569E+06    -65.6839E+06    -9.09616E+06     1.30581E+06    -12.7407E-03     24.6382E-03    -11.8976E-03     11.0852E-03    -12.7349E-03     24.3531E-03    -11.8182E-03     11.0998E-03
            2054     4.44782E-03     21.3156E-03    -22.5159E+06    -70.4449E+06    -14.3967E+06     1.28238E+06    -12.3196E-03     24.0663E-03    -11.7467E-03     8.96291E-03    -12.3094E-03     23.7678E-03    -11.6839E-03     8.97783E-03
            2055     3.55863E-03     21.3073E-03    -24.4269E+06    -75.2266E+06    -19.0642E+06     1.15860E+06    -11.9862E-03     23.6107E-03    -11.6245E-03     7.00203E-03    -11.9717E-03     23.2978E-03    -11.5754E-03     7.01580E-03
            2056     2.66921E-03     21.3010E-03    -26.2022E+06    -80.7667E+06    -22.8150E+06     1.19453E+06    -11.7363E-03     23.2681E-03    -11.5318E-03     5.17001E-03    -11.7172E-03     22.9354E-03    -11.4908E-03     5.18460E-03
            2057     1.77959E-03     21.2965E-03    -27.7835E+06    -85.4336E+06    -26.1256E+06     1.09337E+06    -11.5561E-03     23.0185E-03    -11.4624E-03     3.43994E-03    -11.5332E-03     22.6695E-03    -11.4289E-03     3.45353E-03
            2058     889.845E-06     21.2937E-03    -28.7047E+06    -87.2683E+06    -28.5997E+06     483.380E+03    -11.4376E-03     22.8578E-03    -11.4202E-03     1.87344E-03    -11.4131E-03     22.5046E-03    -11.3950E-03     1.87940E-03
            2059     16.8459E-03     20.7862E-03    -3.20065E+06     111.905E+06     58.4368E+06     954.162E+03    -20.6415E-03     35.9082E-03    -15.2666E-03     44.7225E-03    -21.0229E-03     36.5060E-03    -15.1321E-03     44.7304E-03
            2060     15.9606E-03     20.7224E-03    -6.58551E+06     94.3769E+06     22.8544E+06     95.1089E+03    -20.9055E-03     35.7394E-03    -14.8339E-03     65.0451E-03    -21.2742E-03     36.3535E-03    -14.8469E-03     65.0131E-03
            2061     15.0798E-03     20.6631E-03    -7.85111E+06     49.0751E+06    -1.22154E+06    -360.841E+03    -20.6520E-03     35.1253E-03    -14.4734E-03     57.4481E-03    -20.8574E-03     35.4807E-03    -14.5392E-03     57.3906E-03
            2062     14.1964E-03     20.6130E-03    -7.67952E+06      5.3861E+06    -2.86053E+06     78.7394E+03    -19.8988E-03     34.1058E-03    -14.2070E-03     48.0440E-03    -19.9899E-03     34.1971E-03    -14.2180E-03     48.0008E-03
            2063     13.3139E-03     20.5704E-03    -8.06473E+06    -15.9641E+06     646.273E+03     247.271E+03    -19.1444E-03     33.0780E-03    -13.9336E-03     41.4821E-03    -19.1897E-03     33.0361E-03    -13.8955E-03     41.4520E-03
            2064     12.4302E-03     20.5322E-03    -8.49330E+06    -27.1605E+06     1.53472E+06     651.086E+03    -18.3337E-03     31.9695E-03    -13.6358E-03     36.7683E-03    -18.3552E-03     31.8599E-03    -13.5764E-03     36.7522E-03
            2065     11.5459E-03     20.4982E-03    -8.90633E+06    -40.7939E+06     155.668E+03     1.01150E+06    -17.5657E-03     30.9026E-03    -13.3368E-03     32.5131E-03    -17.5614E-03     30.7214E-03    -13.2640E-03     32.5081E-03
            2066     10.6611E-03     20.4678E-03    -9.63585E+06    -47.2593E+06     2.23420E+06     1.19722E+06    -16.7552E-03     29.8097E-03    -13.0545E-03     28.5693E-03    -16.7443E-03     29.5904E-03    -12.9608E-03     28.5717E-03
            2067     9.77548E-03     20.4412E-03    -10.8515E+06    -49.5294E+06     2.81518E+06     1.31867E+06    -15.9116E-03     28.6860E-03    -12.7744E-03     24.8102E-03    -15.9020E-03     28.4539E-03    -12.6728E-03     24.8177E-03
            2068     8.88919E-03     20.4180E-03    -12.0515E+06    -52.6399E+06     2.66273E+06     1.67807E+06    -15.1060E-03     27.6179E-03    -12.5118E-03     21.3331E-03    -15.0963E-03     27.3708E-03    -12.4047E-03     21.3478E-03
            2069     8.00226E-03     20.3980E-03    -13.6092E+06    -55.8787E+06     1.80275E+06     1.48549E+06    -14.3405E-03     26.6105E-03    -12.2701E-03     18.1800E-03    -14.3317E-03     26.3498E-03    -12.1603E-03     18.1940E-03
            2070     7.11467E-03     20.3810E-03    -15.6712E+06    -57.2655E+06    -609.034E+03     1.34029E+06    -13.6370E-03     25.6823E-03    -12.0454E-03     15.3552E-03    -13.6324E-03     25.4206E-03    -11.9427E-03     15.3688E-03
            2071     6.22652E-03     20.3666E-03    -17.6660E+06    -60.9302E+06    -4.39389E+06     1.63649E+06    -13.0274E-03     24.8727E-03    -11.8453E-03     12.8318E-03    -13.0217E-03     24.6007E-03    -11.7533E-03     12.8501E-03
            2072     5.33788E-03     20.3546E-03    -19.7140E+06    -65.5128E+06    -9.21435E+06     1.68965E+06    -12.5142E-03     24.1837E-03    -11.6696E-03     10.5848E-03    -12.5048E-03     23.8985E-03    -11.5921E-03     10.6045E-03
            2073     4.44882E-03     20.3449E-03    -21.8248E+06    -70.0551E+06    -14.3842E+06     1.79305E+06    -12.0901E-03     23.6098E-03    -11.5197E-03     8.56350E-03    -12.0770E-03     23.3123E-03    -11.4584E-03     8.58509E-03
            2074     3.55945E-03     20.3369E-03    -23.9056E+06    -74.8515E+06    -19.2114E+06     1.95512E+06    -11.7570E-03     23.1554E-03    -11.3984E-03     6.69657E-03    -11.7402E-03     22.8438E-03    -11.3513E-03     6.72069E-03
            2075     2.66980E-03     20.3310E-03    -25.8825E+06    -80.0895E+06    -22.7082E+06     1.91730E+06    -11.5098E-03     22.8181E-03    -11.3083E-03     4.95579E-03    -11.4903E-03     22.4882E-03    -11.2681E-03     4.97976E-03
            2076     1.77999E-03     20.3267E-03    -27.3711E+06    -84.1708E+06    -25.5117E+06     1.52634E+06    -11.3340E-03     22.5748E-03    -11.2408E-03     3.30410E-03    -11.3118E-03     22.2306E-03    -11.2066E-03     3.32330E-03
            2077     890.017E-06     20.3242E-03    -28.3091E+06    -85.7666E+06    -27.9520E+06     976.551E+03    -11.2159E-03     22.4120E-03    -11.1961E-03     1.79224E-03    -11.1925E-03     22.0648E-03    -11.1704E-03     1.80458E-03
            2078     16.8404E-03     19.8027E-03    -3.00232E+06     111.921E+06     58.9409E+06     761.084E+03    -21.3126E-03     36.5761E-03    -15.2636E-03     43.7062E-03    -21.6931E-03     37.1724E-03    -15.1268E-03     43.7057E-03
            2079     15.9624E-03     19.7397E-03    -4.53134E+06     95.3773E+06     24.0688E+06     868.114E+03    -21.6668E-03     36.4557E-03    -14.7889E-03     63.9158E-03    -22.0265E-03     37.0681E-03    -14.8003E-03     63.8875E-03
            2080     15.0798E-03     19.6812E-03    -6.38749E+06     49.0306E+06    -1.08355E+06     176.195E+03    -21.0635E-03     35.4504E-03    -14.3869E-03     56.0733E-03    -21.2588E-03     35.8003E-03    -14.4542E-03     56.0207E-03
            2081     14.1987E-03     19.6324E-03    -7.30934E+06     5.38577E+06    -2.73150E+06    -135.892E+03    -20.1903E-03     34.2835E-03    -14.0931E-03     46.7250E-03    -20.2779E-03     34.3722E-03    -14.1040E-03     46.6786E-03
            2082     13.3156E-03     19.5907E-03    -7.42039E+06    -16.4232E+06     714.448E+03     115.288E+03    -19.2435E-03     33.0413E-03    -13.7978E-03     40.3638E-03    -19.2838E-03     32.9949E-03    -13.7596E-03     40.3324E-03
            2083     12.4321E-03     19.5538E-03    -8.12525E+06    -27.4639E+06     1.48399E+06     601.493E+03    -18.3996E-03     31.8823E-03    -13.4827E-03     35.6814E-03    -18.4180E-03     31.7701E-03    -13.4237E-03     35.6651E-03
            2084     11.5479E-03     19.5207E-03    -8.80084E+06    -40.8287E+06    -165.079E+03     755.384E+03    -17.5659E-03     30.7330E-03    -13.1670E-03     31.5061E-03    -17.5600E-03     30.5514E-03    -13.0959E-03     31.4983E-03
            2085     10.6630E-03     19.4915E-03    -9.44614E+06    -47.5750E+06     2.08732E+06     1.16324E+06    -16.6942E-03     29.5675E-03    -12.8733E-03     27.5453E-03    -16.6814E-03     29.3462E-03    -12.7802E-03     27.5477E-03
            2086     9.77737E-03     19.4659E-03    -10.5495E+06    -49.4196E+06     2.71614E+06     1.50017E+06    -15.7980E-03     28.3813E-03    -12.5833E-03     23.8523E-03    -15.7867E-03     28.1493E-03    -12.4827E-03     23.8626E-03
            2087     8.89096E-03     19.4438E-03    -11.9839E+06    -52.7607E+06     2.20730E+06     1.46935E+06    -14.9438E-03     27.2574E-03    -12.3136E-03     20.4650E-03    -14.9327E-03     27.0102E-03    -12.2087E-03     20.4773E-03
            2088     8.00386E-03     19.4247E-03    -13.5310E+06    -55.3848E+06     1.76246E+06     1.68376E+06    -14.1481E-03     26.2183E-03    -12.0702E-03     17.3930E-03    -14.1394E-03     25.9599E-03    -11.9615E-03     17.4099E-03
            2089     7.11610E-03     19.4086E-03    -15.4502E+06    -57.1280E+06    -896.011E+03     1.62995E+06    -13.4267E-03     25.2710E-03    -11.8443E-03     14.6752E-03    -13.4207E-03     25.0100E-03    -11.7436E-03     14.6926E-03
            2090     6.22775E-03     19.3950E-03    -17.4744E+06    -60.9913E+06    -5.05406E+06     1.72079E+06    -12.8109E-03     24.4554E-03    -11.6445E-03     12.2695E-03    -12.8031E-03     24.1837E-03    -11.5560E-03     12.2890E-03
            2091     5.33892E-03     19.3838E-03    -19.3778E+06    -65.2883E+06    -9.81887E+06     2.12292E+06    -12.3005E-03     23.7718E-03    -11.4713E-03     10.1313E-03    -12.2889E-03     23.4881E-03    -11.3976E-03     10.1567E-03
            2092     4.44969E-03     19.3744E-03    -21.3936E+06    -69.9575E+06    -14.4608E+06     2.50228E+06    -11.8860E-03     23.2131E-03    -11.3271E-03     8.19707E-03    -11.8708E-03     22.9155E-03    -11.2669E-03     8.22790E-03
            2093     3.56011E-03     19.3671E-03    -23.2650E+06    -74.2482E+06    -18.9515E+06     2.78011E+06    -11.5564E-03     22.7657E-03    -11.2094E-03     6.41780E-03    -11.5377E-03     22.4558E-03    -11.1627E-03     6.45262E-03
            2094     2.67030E-03     19.3613E-03    -24.6166E+06    -78.7508E+06    -22.1794E+06     2.45521E+06    -11.3109E-03     22.4341E-03    -11.1233E-03     4.75379E-03    -11.2877E-03     22.1083E-03    -11.0843E-03     4.78474E-03
            2095     1.78028E-03     19.3574E-03    -25.6303E+06    -82.6258E+06    -24.2257E+06     1.77849E+06    -11.1459E-03     22.2114E-03    -11.0655E-03     3.17728E-03    -11.1191E-03     21.8706E-03    -11.0297E-03     3.19976E-03
            2096     890.191E-06     19.3549E-03    -26.3128E+06    -83.7891E+06    -25.8994E+06     1.20519E+06    -11.0570E-03     22.0745E-03    -11.0176E-03     1.72959E-03    -11.0295E-03     21.7314E-03    -10.9874E-03     1.74489E-03
            2097     16.8460E-03     18.8174E-03    -3.81801E+06     110.987E+06     58.5347E+06    -78.2275E+03    -21.8460E-03     37.0785E-03    -15.2324E-03     42.8813E-03    -22.2257E-03     37.6689E-03    -15.0952E-03     42.8651E-03
            2098     15.9628E-03     18.7571E-03    -5.75618E+06     95.5208E+06     23.1384E+06     797.108E+03    -22.1403E-03     36.8632E-03    -14.7229E-03     62.6651E-03    -22.5001E-03     37.4745E-03    -14.7373E-03     62.6312E-03
            2099     15.0825E-03     18.6987E-03    -6.15545E+06     50.2947E+06    -1.20522E+06     993.572E+03    -21.3916E-03     35.6835E-03    -14.2919E-03     54.6946E-03    -21.5834E-03     36.0355E-03    -14.3619E-03     54.6512E-03
            2100     14.1999E-03     18.6517E-03    -6.64967E+06     5.65680E+06    -2.38260E+06     134.166E+03    -20.2950E-03     34.2754E-03    -13.9804E-03     45.4573E-03    -20.3779E-03     34.3618E-03    -13.9909E-03     45.4148E-03
            2101     13.3174E-03     18.6112E-03    -7.33321E+06    -16.9600E+06     310.023E+03     72.3340E+03    -19.3410E-03     33.0086E-03    -13.6676E-03     39.3139E-03    -19.3783E-03     32.9588E-03    -13.6308E-03     39.2825E-03
            2102     12.4339E-03     18.5752E-03    -7.72358E+06    -27.8549E+06     1.38541E+06     557.552E+03    -18.4260E-03     31.7648E-03    -13.3387E-03     34.6096E-03    -18.4410E-03     31.6494E-03    -13.2802E-03     34.5933E-03
            2103     11.5497E-03     18.5435E-03    -8.42968E+06    -40.7335E+06    -226.827E+03     849.242E+03    -17.5336E-03     30.5443E-03    -13.0107E-03     30.4640E-03    -17.5253E-03     30.3622E-03    -12.9406E-03     30.4579E-03
            2104     10.6648E-03     18.5153E-03    -9.29935E+06    -48.1137E+06     1.65999E+06     1.03071E+06    -16.5965E-03     29.3045E-03    -12.7080E-03     26.5516E-03    -16.5812E-03     29.0806E-03    -12.6164E-03     26.5527E-03
            2105     9.77903E-03     18.4910E-03    -10.1552E+06    -49.4423E+06     2.77111E+06     1.46181E+06    -15.6622E-03     28.0763E-03    -12.4141E-03     22.9033E-03    -15.6488E-03     27.8433E-03    -12.3139E-03     22.9134E-03
            2106     8.89250E-03     18.4698E-03    -11.3657E+06    -52.5157E+06     2.29211E+06     1.61097E+06    -14.7745E-03     26.9161E-03    -12.1417E-03     19.6048E-03    -14.7607E-03     26.6689E-03    -12.0376E-03     19.6192E-03
            2107     8.00524E-03     18.4519E-03    -12.8909E+06    -55.4512E+06     1.74464E+06     1.59319E+06    -13.9568E-03     25.8556E-03    -11.8987E-03     16.6338E-03    -13.9448E-03     25.5959E-03    -11.7909E-03     16.6497E-03
            2108     7.11730E-03     18.4366E-03    -14.4827E+06    -56.8339E+06    -707.392E+03     1.86763E+06    -13.2295E-03     24.9052E-03    -11.6757E-03     14.0207E-03    -13.2194E-03     24.6440E-03    -11.5758E-03     14.0413E-03
            2109     6.22878E-03     18.4239E-03    -16.4901E+06    -61.1364E+06    -5.16374E+06     2.15599E+06    -12.6171E-03     24.0961E-03    -11.4791E-03     11.7260E-03    -12.6039E-03     23.8224E-03    -11.3923E-03     11.7512E-03
            2110     5.33976E-03     18.4131E-03    -18.7028E+06    -65.4063E+06    -10.1412E+06     2.71751E+06    -12.1145E-03     23.4245E-03    -11.3100E-03     9.69163E-03    -12.0988E-03     23.1396E-03    -11.2387E-03     9.72480E-03
            2111     4.45036E-03     18.4045E-03    -20.7390E+06    -69.7102E+06    -14.4175E+06     3.26641E+06    -11.7109E-03     22.8826E-03    -11.1717E-03     7.84583E-03    -11.6928E-03     22.5852E-03    -11.1127E-03     7.88659E-03
            2112     3.56065E-03     18.3974E-03    -22.4679E+06    -73.3580E+06    -18.3647E+06     3.36221E+06    -11.3923E-03     22.4521E-03    -11.0597E-03     6.15129E-03    -11.3718E-03     22.1446E-03    -11.0126E-03     6.19367E-03
            2113     2.67068E-03     18.3922E-03    -23.9175E+06    -76.9837E+06    -21.9868E+06     3.01150E+06    -11.1533E-03     22.1276E-03    -10.9744E-03     4.55789E-03    -11.1294E-03     21.8093E-03    -10.9380E-03     4.59606E-03
            2114     1.78054E-03     18.3883E-03    -25.1171E+06    -80.6765E+06    -24.2731E+06     2.21731E+06    -10.9935E-03     21.9134E-03    -10.9199E-03     3.05018E-03    -10.9669E-03     21.5817E-03    -10.8879E-03     3.07835E-03
            2115     890.268E-06     18.3861E-03    -25.9996E+06    -81.4821E+06    -25.6865E+06     1.33331E+06    -10.9149E-03     21.7912E-03    -10.8762E-03     1.65562E-03    -10.8895E-03     21.4587E-03    -10.8488E-03     1.67259E-03
            2116     16.8426E-03     17.8352E-03    -3.99427E+06     110.286E+06     58.5784E+06     473.436E+03    -22.5381E-03     37.7384E-03    -15.2003E-03     42.9172E-03    -22.9137E-03     38.3214E-03    -15.0615E-03     42.9018E-03
            2117     15.9640E-03     17.7718E-03    -6.88361E+06     95.1105E+06     22.6489E+06     266.913E+03    -22.5566E-03     37.2124E-03    -14.6558E-03     61.4709E-03    -22.9141E-03     37.8174E-03    -14.6705E-03     61.4254E-03
            2118     15.0832E-03     17.7171E-03    -7.36402E+06     50.7632E+06    -1.88200E+06     101.590E+03    -21.5125E-03     35.7135E-03    -14.2010E-03     53.1868E-03    -21.7060E-03     36.0666E-03    -14.2734E-03     53.1317E-03
            2119     14.2015E-03     17.6707E-03    -6.92635E+06     6.27100E+06    -2.52353E+06     277.400E+03    -20.4211E-03     34.2963E-03    -13.8752E-03     44.2241E-03    -20.5040E-03     34.3843E-03    -13.8869E-03     44.1839E-03
            2120     13.3190E-03     17.6316E-03    -7.25828E+06    -16.9416E+06    -43.0866E+03     144.632E+03    -19.4007E-03     32.9477E-03    -13.5470E-03     38.0603E-03    -19.4358E-03     32.8971E-03    -13.5122E-03     38.0303E-03
            2121     12.4355E-03     17.5970E-03    -7.95613E+06    -28.5854E+06     784.054E+03     402.739E+03    -18.4052E-03     31.6124E-03    -13.2073E-03     33.5230E-03    -18.4185E-03     31.4938E-03    -13.1504E-03     33.5053E-03
            2122     11.5514E-03     17.5662E-03    -8.41193E+06    -40.8095E+06    -232.624E+03     939.274E+03    -17.4507E-03     30.3245E-03    -12.8738E-03     29.4052E-03    -17.4418E-03     30.1415E-03    -12.8036E-03     29.4009E-03
            2123     10.6663E-03     17.5395E-03     -9.1567E+06    -48.1277E+06     1.56261E+06     997.133E+03    -16.4764E-03     29.0427E-03    -12.5663E-03     25.5587E-03    -16.4599E-03     28.8183E-03    -12.4754E-03     25.5599E-03
            2124     9.78045E-03     17.5161E-03    -10.0719E+06    -49.8865E+06     2.72085E+06     1.18201E+06    -15.5120E-03     27.7840E-03    -12.2720E-03     21.9736E-03    -15.4972E-03     27.5485E-03    -12.1715E-03     21.9804E-03
            2125     8.89378E-03     17.4963E-03    -11.0461E+06    -52.2728E+06     2.55559E+06     1.52609E+06    -14.6077E-03     26.6083E-03    -12.0006E-03     18.7533E-03    -14.5929E-03     26.3613E-03    -11.8960E-03     18.7669E-03
            2126     8.00635E-03     17.4792E-03    -12.2933E+06    -55.2753E+06     1.66926E+06     1.50185E+06    -13.7803E-03     25.5388E-03    -11.7585E-03     15.8808E-03    -13.7653E-03     25.2791E-03    -11.6522E-03     15.8957E-03
            2127     7.11825E-03     17.4650E-03    -13.8020E+06    -57.2408E+06    -1.09838E+06     1.84088E+06    -13.0580E-03     24.5969E-03    -11.5389E-03     13.3720E-03    -13.0432E-03     24.3331E-03    -11.4413E-03     13.3924E-03
            2128     6.22956E-03     17.4529E-03    -15.5495E+06    -61.4861E+06    -5.16344E+06     2.86044E+06    -12.4620E-03     23.8100E-03    -11.3480E-03     11.1690E-03    -12.4436E-03     23.5331E-03    -11.2621E-03     11.2034E-03
            2129     5.34043E-03     17.4430E-03    -17.6979E+06    -65.4888E+06    -9.85071E+06     3.63998E+06    -11.9700E-03     23.1535E-03    -11.1835E-03     9.22001E-03    -11.9496E-03     22.8663E-03    -11.1122E-03     9.26516E-03
            2130     4.45089E-03     17.4346E-03    -19.6164E+06    -69.0853E+06    -14.2231E+06     3.90846E+06    -11.5738E-03     22.6208E-03    -11.0470E-03     7.45590E-03    -11.5513E-03     22.3247E-03    -10.9895E-03     7.50501E-03
            2131     3.56104E-03     17.4282E-03    -21.1526E+06    -72.3517E+06    -17.8569E+06     4.02678E+06    -11.2636E-03     22.2026E-03    -10.9390E-03     5.83402E-03    -11.2387E-03     21.8975E-03    -10.8927E-03     5.88502E-03
            2132     2.67098E-03     17.4230E-03    -22.5796E+06    -75.0277E+06    -20.8597E+06     3.83194E+06    -11.0330E-03     21.8905E-03    -10.8575E-03     4.32409E-03    -11.0069E-03     21.5784E-03    -10.8203E-03     4.37287E-03
            2133     1.78074E-03     17.4196E-03    -23.7916E+06    -78.0703E+06    -22.9932E+06     2.94246E+06    -10.8806E-03     21.6831E-03    -10.8025E-03     2.90107E-03    -10.8530E-03     21.3606E-03    -10.7698E-03     2.93861E-03
            2134     890.420E-06     17.4172E-03    -24.6005E+06    -78.6051E+06    -24.4064E+06     1.60357E+06    -10.7858E-03     21.5538E-03    -10.7680E-03     1.59921E-03    -10.7594E-03     21.2319E-03    -10.7404E-03     1.61967E-03
            2135     16.8459E-03     16.8471E-03    -3.31397E+06     110.703E+06     59.6054E+06     545.638E+03    -23.4152E-03     38.5750E-03    -15.1597E-03     40.8059E-03    -23.7834E-03     39.1516E-03    -15.0174E-03     40.7866E-03
            2136     15.9660E-03     16.7893E-03    -4.93868E+06     95.3469E+06     24.2368E+06     313.663E+03    -22.5594E-03     37.1472E-03    -14.5878E-03     59.5391E-03    -22.9022E-03     37.7408E-03    -14.5977E-03     59.4926E-03
            2137     15.0844E-03     16.7343E-03    -6.68170E+06     50.5006E+06    -1.71750E+06     257.830E+03    -21.5774E-03     35.6974E-03    -14.1199E-03     51.8338E-03    -21.7638E-03     36.0443E-03    -14.1921E-03     51.7805E-03
            2138     14.2031E-03     16.6899E-03    -7.59749E+06     6.75156E+06    -2.51137E+06    -56.3174E+03    -20.5265E-03     34.3084E-03    -13.7819E-03     42.8425E-03    -20.6113E-03     34.3976E-03    -13.7932E-03     42.7983E-03
            2139     13.3204E-03     16.6521E-03    -7.81615E+06    -16.9544E+06    -140.947E+03     74.0083E+03    -19.3808E-03     32.8237E-03    -13.4429E-03     36.9105E-03    -19.4174E-03     32.7728E-03    -13.4077E-03     36.8804E-03
            2140     12.4371E-03     16.6187E-03    -8.18378E+06    -29.0203E+06     548.668E+03     365.315E+03    -18.3292E-03     31.4265E-03    -13.0972E-03     32.4726E-03    -18.3420E-03     31.3056E-03    -13.0405E-03     32.4551E-03
            2141     11.5526E-03     16.5894E-03    -8.65425E+06    -41.1795E+06    -429.752E+03     653.185E+03    -17.3532E-03     30.1142E-03    -12.7609E-03     28.4193E-03    -17.3442E-03     29.9295E-03    -12.6908E-03     28.4118E-03
            2142     10.6676E-03     16.5637E-03    -9.06290E+06    -48.0037E+06     1.66109E+06     922.406E+03    -16.3641E-03     28.8161E-03    -12.4520E-03     24.5471E-03    -16.3471E-03     28.5918E-03    -12.3609E-03     24.5477E-03
            2143     9.78154E-03     16.5418E-03    -9.92960E+06    -50.0798E+06     2.62042E+06     973.503E+03    -15.3810E-03     27.5378E-03    -12.1568E-03     21.0045E-03    -15.3649E-03     27.3011E-03    -12.0567E-03     21.0089E-03
            2144     8.89474E-03     16.5228E-03    -10.8354E+06    -52.3331E+06     2.44849E+06     1.07549E+06    -14.4703E-03     26.3565E-03    -11.8862E-03     17.8294E-03    -14.4540E-03     26.1090E-03    -11.7824E-03     17.8374E-03
            2145     8.00720E-03     16.5071E-03    -11.8583E+06    -55.1436E+06     1.57242E+06     1.33304E+06    -13.6464E-03     25.2918E-03    -11.6454E-03     15.0245E-03    -13.6292E-03     25.0322E-03    -11.5404E-03     15.0374E-03
            2146     7.11897E-03     16.4935E-03    -13.3883E+06    -58.0958E+06    -1.55361E+06     2.02603E+06    -12.9347E-03     24.3619E-03    -11.4272E-03     12.6020E-03    -12.9159E-03     24.0939E-03    -11.3313E-03     12.6250E-03
            2147     6.23020E-03     16.4823E-03    -15.1480E+06    -62.3623E+06    -5.53450E+06     3.30196E+06    -12.3490E-03     23.5868E-03    -11.2378E-03     10.4947E-03    -12.3267E-03     23.3055E-03    -11.1531E-03     10.5350E-03
            2148     5.34096E-03     16.4728E-03    -16.5796E+06    -65.1842E+06    -9.45052E+06     4.22387E+06    -11.8679E-03     22.9422E-03    -11.0743E-03     8.63251E-03    -11.8428E-03     22.6543E-03    -11.0030E-03     8.68528E-03
            2149     4.45134E-03     16.4652E-03    -17.9469E+06    -68.2923E+06    -13.1939E+06     4.49704E+06    -11.4754E-03     22.4137E-03    -10.9383E-03     6.95697E-03    -11.4472E-03     22.1175E-03    -10.8792E-03     7.01373E-03
            2150     3.56143E-03     16.4589E-03    -19.1534E+06    -71.1707E+06    -16.3118E+06     4.52839E+06    -11.1672E-03     21.9967E-03    -10.8295E-03     5.42062E-03    -11.1362E-03     21.6924E-03    -10.7801E-03     5.47814E-03
            2151     2.67125E-03     16.4543E-03    -19.8699E+06    -72.9405E+06    -18.2241E+06     4.25323E+06    -10.9318E-03     21.6803E-03    -10.7484E-03     3.99791E-03    -10.8990E-03     21.3708E-03    -10.7050E-03     4.05216E-03
            2152     1.78093E-03     16.4508E-03    -20.4252E+06    -74.8695E+06    -19.4836E+06     3.38089E+06    -10.7690E-03     21.4635E-03    -10.6944E-03     2.68619E-03    -10.7344E-03     21.1470E-03    -10.6537E-03     2.72940E-03
            2153     890.475E-06     16.4489E-03    -20.8709E+06    -75.1011E+06    -20.7393E+06     1.93211E+06    -10.6672E-03     21.3388E-03    -10.6715E-03     1.49746E-03    -10.6326E-03     21.0236E-03    -10.6361E-03     1.52217E-03
            2154     16.8470E-03     15.8636E-03    -3.56720E+06     110.016E+06     58.8459E+06     148.279E+03    -23.8140E-03     38.9566E-03    -15.1426E-03     40.5943E-03    -24.1785E-03     39.5284E-03    -15.0027E-03     40.5658E-03
            2155     15.9655E-03     15.8052E-03    -5.07512E+06     95.6028E+06     23.3219E+06     1.32266E+06    -22.9775E-03     37.5228E-03    -14.5453E-03     59.3247E-03    -23.3155E-03     38.1146E-03    -14.5599E-03     59.2877E-03
            2156     15.0859E-03     15.7520E-03    -6.31386E+06     51.5173E+06    -1.82491E+06     752.229E+03    -21.8309E-03     35.8882E-03    -14.0573E-03     50.7616E-03    -22.0126E-03     36.2357E-03    -14.1319E-03     50.7142E-03
            2157     14.2039E-03     15.7091E-03    -6.63199E+06     6.85495E+06    -2.48046E+06      130.72E+03    -20.5346E-03     34.2421E-03    -13.7075E-03     41.6724E-03    -20.6124E-03     34.3279E-03    -13.7202E-03     41.6317E-03
            2158     13.3216E-03     15.6726E-03    -7.21376E+06    -17.3385E+06    -472.461E+03     83.9158E+03    -19.3862E-03     32.7477E-03    -13.3615E-03     35.8062E-03    -19.4174E-03     32.6932E-03    -13.3283E-03     35.7770E-03
            2159     12.4379E-03     15.6409E-03    -7.89168E+06    -29.1550E+06     240.785E+03     386.472E+03    -18.3130E-03     31.3227E-03    -13.0097E-03     31.3792E-03    -18.3228E-03     31.2004E-03    -12.9548E-03     31.3626E-03
            2160     11.5537E-03     15.6125E-03    -8.52424E+06    -41.3100E+06    -874.837E+03     525.887E+03    -17.3125E-03     29.9800E-03    -12.6675E-03     27.2488E-03    -17.3014E-03     29.7946E-03    -12.5996E-03     27.2403E-03
            2161     10.6685E-03     15.5884E-03    -9.18678E+06    -48.1616E+06     1.24122E+06     646.393E+03    -16.3114E-03     28.6657E-03    -12.3542E-03     23.3148E-03    -16.2938E-03     28.4409E-03    -12.2649E-03     23.3122E-03
            2162     9.78244E-03     15.5674E-03    -9.85245E+06    -49.9431E+06     2.52935E+06     736.125E+03    -15.3297E-03     27.3844E-03    -12.0547E-03     19.7372E-03    -15.3130E-03     27.1481E-03    -11.9554E-03     19.7389E-03
            2163     8.89559E-03     15.5499E-03    -10.7215E+06    -52.2596E+06     2.20572E+06     607.632E+03    -14.4073E-03     26.1852E-03    -11.7779E-03     16.5621E-03    -14.3900E-03     25.9380E-03    -11.6755E-03     16.5644E-03
            2164     8.00796E-03     15.5348E-03    -11.7309E+06    -55.7322E+06     1.33705E+06     1.01430E+06    -13.5809E-03     25.1132E-03    -11.5323E-03     13.7954E-03    -13.5618E-03     24.8507E-03    -11.4278E-03     13.8044E-03
            2165     7.11970E-03     15.5224E-03    -13.0913E+06    -59.2911E+06    -1.52977E+06     2.34363E+06    -12.8671E-03     24.1767E-03    -11.3095E-03     11.4460E-03    -12.8451E-03     23.9021E-03    -11.2122E-03     11.4732E-03
            2166     6.23085E-03     15.5118E-03    -14.5182E+06    -62.8659E+06    -5.33050E+06     3.41546E+06    -12.2683E-03     23.3812E-03    -11.1128E-03     9.45335E-03    -12.2425E-03     23.0960E-03    -11.0273E-03     9.49520E-03
            2167     5.34156E-03     15.5031E-03    -15.5348E+06    -65.0642E+06    -8.71406E+06     4.06868E+06    -11.7731E-03     22.7170E-03    -10.9440E-03     7.71928E-03    -11.7440E-03     22.4271E-03    -10.8707E-03     7.77015E-03
            2168     4.45187E-03     15.4958E-03    -16.2253E+06    -67.5019E+06    -11.1928E+06     4.62121E+06    -11.3748E-03     22.1803E-03    -10.8054E-03     6.17716E-03    -11.3420E-03     21.8827E-03    -10.7400E-03     6.23560E-03
            2169     3.56186E-03     15.4901E-03    -16.8977E+06    -69.6630E+06    -13.4616E+06     4.57308E+06    -11.0591E-03     21.7500E-03    -10.6909E-03     4.79040E-03    -11.0231E-03     21.4458E-03    -10.6327E-03     4.84855E-03
            2170     2.67165E-03     15.4856E-03    -17.4064E+06    -70.7927E+06    -15.6635E+06     4.12304E+06    -10.8083E-03     21.4061E-03    -10.5978E-03     3.50694E-03    -10.7700E-03     21.1001E-03    -10.5482E-03     3.55955E-03
            2171     1.78118E-03     15.4826E-03    -17.6025E+06    -71.5958E+06    -16.8904E+06     3.23711E+06    -10.6275E-03     21.1596E-03    -10.5321E-03     2.34473E-03    -10.5872E-03     20.8516E-03    -10.4872E-03     2.38612E-03
            2172     890.613E-06     15.4804E-03    -17.5596E+06    -71.3349E+06    -17.3502E+06     1.97772E+06    -10.5078E-03     21.0086E-03    -10.5008E-03     1.28039E-03    -10.4670E-03     20.7025E-03    -10.4586E-03     1.30571E-03
            2173     16.8426E-03     14.8762E-03    -4.06918E+06     108.939E+06     58.8536E+06    -46.3899E+03    -24.0316E-03     39.1975E-03    -15.1658E-03     38.7175E-03    -24.3925E-03     39.7599E-03    -15.0236E-03     38.6814E-03
            2174     15.9666E-03     14.8203E-03    -7.08146E+06     94.9918E+06     21.2848E+06     92.8122E+03    -23.6330E-03     38.1660E-03    -14.5330E-03     56.8096E-03    -23.9708E-03     38.7542E-03    -14.5541E-03     56.7512E-03
            2175     15.0858E-03     14.7695E-03    -6.91422E+06     52.2541E+06    -3.71501E+06     731.012E+03    -22.0491E-03     36.0620E-03    -14.0129E-03     49.0908E-03    -22.2281E-03     36.4128E-03    -14.0972E-03     49.0428E-03
            2176     14.2049E-03     14.7280E-03    -7.23777E+06     7.34491E+06    -3.36700E+06     354.349E+03    -20.6714E-03     34.3245E-03    -13.6531E-03     40.1514E-03    -20.7493E-03     34.4127E-03    -13.6701E-03     40.1140E-03
            2177     13.3220E-03     14.6935E-03    -7.61522E+06    -17.4329E+06    -1.54567E+06     233.516E+03    -19.4656E-03     32.7601E-03    -13.2945E-03     34.3549E-03    -19.4957E-03     32.7058E-03    -13.2659E-03     34.3283E-03
            2178     12.4389E-03     14.6626E-03    -8.10017E+06    -29.5852E+06    -483.863E+03     462.746E+03    -18.4215E-03     31.3533E-03    -12.9318E-03     29.8951E-03    -18.4298E-03     31.2293E-03    -12.8796E-03     29.8801E-03
            2179     11.5546E-03     14.6361E-03    -8.76076E+06    -40.9539E+06    -1.16984E+06     591.654E+03    -17.3992E-03     29.9749E-03    -12.5757E-03     25.6681E-03    -17.3887E-03     29.7914E-03    -12.5095E-03     25.6609E-03
            2180     10.6695E-03     14.6127E-03    -9.33714E+06    -48.1830E+06     855.717E+03     311.581E+03    -16.3877E-03     28.6341E-03    -12.2464E-03     21.6373E-03    -16.3698E-03     28.4095E-03    -12.1587E-03     21.6308E-03
            2181     9.78353E-03     14.5934E-03    -9.88592E+06    -49.8383E+06     2.71741E+06     222.909E+03    -15.3937E-03     27.3254E-03    -11.9317E-03     17.9602E-03    -15.3772E-03     27.0890E-03    -11.8315E-03     17.9556E-03
            2182     8.89673E-03     14.5767E-03    -10.6201E+06    -52.1198E+06     2.50768E+06     227.857E+03    -14.4462E-03     26.0822E-03    -11.6360E-03     14.7720E-03    -14.4288E-03     25.8349E-03    -11.5325E-03     14.7695E-03
            2183     8.00920E-03     14.5630E-03    -11.7818E+06    -56.8072E+06     1.41592E+06     783.937E+03    -13.5861E-03     24.9577E-03    -11.3716E-03     12.0523E-03    -13.5656E-03     24.6896E-03    -11.2650E-03     12.0585E-03
            2184     7.12091E-03     14.5512E-03    -12.7982E+06    -60.6008E+06    -883.687E+03     2.00642E+06    -12.8323E-03     23.9642E-03    -11.1319E-03     9.81207E-03    -12.8077E-03     23.6816E-03    -11.0299E-03     9.83511E-03
            2185     6.23207E-03     14.5416E-03    -13.5257E+06    -63.0100E+06    -3.73843E+06     3.05816E+06    -12.1816E-03     23.1007E-03    -10.9190E-03     7.96568E-03    -12.1528E-03     22.8110E-03    -10.8268E-03     8.00307E-03
            2186     5.34266E-03     14.5334E-03    -14.3367E+06    -65.1019E+06    -6.73629E+06     3.68096E+06    -11.6346E-03     22.3712E-03    -10.7366E-03     6.42329E-03    -11.6023E-03     22.0764E-03    -10.6551E-03     6.46928E-03
            2187     4.45284E-03     14.5268E-03    -15.0348E+06    -66.7578E+06    -9.59079E+06     4.06640E+06    -11.2007E-03     21.7837E-03    -10.5830E-03     5.10080E-03    -11.1653E-03     21.4858E-03    -10.5124E-03     5.15218E-03
            2188     3.56272E-03     14.5214E-03    -15.2803E+06    -68.1027E+06    -11.4066E+06     4.03279E+06    -10.8600E-03     21.3187E-03    -10.4587E-03     3.92882E-03    -10.8212E-03     21.0169E-03    -10.3948E-03     3.98008E-03
            2189     2.67226E-03     14.5174E-03    -15.3064E+06    -68.6700E+06    -12.8275E+06     3.51736E+06    -10.6012E-03     20.9577E-03    -10.3565E-03     2.86043E-03    -10.5596E-03     20.6552E-03    -10.2988E-03     2.90529E-03
            2190     1.78167E-03     14.5144E-03    -15.1421E+06    -68.6988E+06    -14.1415E+06     2.59579E+06    -10.4095E-03     20.6799E-03    -10.2703E-03     1.89493E-03    -10.3651E-03     20.3788E-03    -10.2195E-03     1.92810E-03
            2191     890.924E-06     14.5127E-03    -14.7679E+06    -67.9590E+06    -14.4866E+06     1.48696E+06    -10.2535E-03     20.4600E-03    -10.2065E-03     1.00018E-03    -10.2078E-03     20.1627E-03    -10.1590E-03     1.01920E-03
            2192     16.8472E-03     13.8881E-03    -2.91168E+06     109.449E+06     58.8516E+06     802.219E+03    -24.3236E-03     39.4889E-03    -15.1653E-03     37.7886E-03    -24.6740E-03     40.0470E-03    -15.0256E-03     37.7615E-03
            2193     15.9661E-03     13.8363E-03    -6.77493E+06     94.2485E+06     20.0038E+06     21.2361E+03    -23.7160E-03     38.2332E-03    -14.5172E-03     54.8123E-03    -24.0419E-03     38.8117E-03    -14.5440E-03     54.7513E-03
            2194     15.0866E-03     13.7861E-03    -8.21015E+06     52.0000E+06    -4.73394E+06     513.246E+03    -22.3633E-03     36.3480E-03    -13.9847E-03     47.0728E-03    -22.5426E-03     36.6966E-03    -14.0719E-03     47.0209E-03
            2195     14.2051E-03     13.7473E-03    -8.19293E+06     8.11116E+06    -3.41574E+06     560.318E+03    -20.8976E-03     34.5043E-03    -13.6067E-03     38.1843E-03    -20.9786E-03     34.5950E-03    -13.6236E-03     38.1499E-03
            2196     13.3232E-03     13.7137E-03    -8.83401E+06    -17.5984E+06    -2.18793E+06     159.450E+03    -19.7119E-03     32.9373E-03    -13.2254E-03     32.5841E-03    -19.7455E-03     32.8835E-03    -13.1980E-03     32.5568E-03
            2197     12.4398E-03     13.6847E-03    -9.02316E+06    -29.8005E+06    -951.026E+03     255.702E+03    -18.6698E-03     31.5083E-03    -12.8385E-03     28.0291E-03    -18.6807E-03     31.3843E-03    -12.7870E-03     28.0118E-03
            2198     11.5559E-03     13.6590E-03    -9.01513E+06    -40.7776E+06    -901.059E+03     204.245E+03    -17.6834E-03     30.1381E-03    -12.4547E-03     23.5853E-03    -17.6741E-03     29.9547E-03    -12.3870E-03     23.5733E-03
            2199     10.6710E-03     13.6375E-03    -9.20401E+06    -47.6717E+06     1.35918E+06    -84.0401E+03    -16.6390E-03     28.7299E-03    -12.0909E-03     19.3903E-03    -16.6214E-03     28.5065E-03    -12.0016E-03     19.3790E-03
            2200     9.78529E-03     13.6190E-03    -9.66886E+06    -49.8375E+06     3.45130E+06    -470.039E+03    -15.5786E-03     27.3204E-03    -11.7418E-03     15.6119E-03    -15.5617E-03     27.0824E-03    -11.6383E-03     15.5987E-03
            2201     8.89870E-03     13.6039E-03    -10.3831E+06    -52.4497E+06     3.55362E+06    -209.438E+03    -14.5593E-03     25.9714E-03    -11.4121E-03     12.4161E-03    -14.5415E-03     25.7203E-03    -11.3032E-03     12.4083E-03
            2202     8.01119E-03     13.5910E-03    -11.3916E+06    -57.8146E+06     2.48947E+06     522.153E+03    -13.6157E-03     24.7293E-03    -11.1136E-03     9.80533E-03    -13.5932E-03     24.4539E-03    -11.0008E-03     9.80837E-03
            2203     7.12299E-03     13.5806E-03    -12.6502E+06    -61.5821E+06     455.628E+03     1.43155E+06    -12.7634E-03     23.6071E-03    -10.8436E-03     7.75789E-03    -12.7385E-03     23.3173E-03    -10.7337E-03     7.77371E-03
            2204     6.23402E-03     13.5716E-03    -13.7822E+06    -63.4468E+06    -2.54569E+06     2.32794E+06    -12.0171E-03     22.6200E-03    -10.6029E-03     6.14971E-03    -11.9906E-03     22.3267E-03    -10.5036E-03     6.17785E-03
            2205     5.34450E-03     13.5643E-03    -14.5022E+06    -64.9761E+06    -5.81219E+06     2.96648E+06    -11.3950E-03     21.7916E-03    -10.3966E-03     4.87784E-03    -11.3650E-03     21.4964E-03    -10.3104E-03     4.91477E-03
            2206     4.45444E-03     13.5581E-03    -14.7880E+06    -65.9991E+06    -8.68975E+06     3.09579E+06    -10.8937E-03     21.1198E-03    -10.2261E-03     3.83949E-03    -10.8595E-03     20.8240E-03    -10.1524E-03     3.87848E-03
            2207     3.56398E-03     13.5534E-03    -14.7374E+06    -66.7604E+06    -10.4401E+06     2.84912E+06    -10.5103E-03     20.6026E-03    -10.0923E-03     2.95128E-03    -10.4721E-03     20.3054E-03    -10.0263E-03     2.98737E-03
            2208     2.67329E-03     13.5495E-03    -14.4835E+06    -66.8230E+06    -11.4527E+06     2.31169E+06    -10.2373E-03     20.2236E-03    -9.98632E-03     2.17646E-03    -10.1963E-03     19.9271E-03    -9.92569E-03     2.20584E-03
            2209     1.78236E-03     13.5470E-03    -14.1754E+06    -66.4901E+06    -12.4653E+06     1.60582E+06    -10.0377E-03     19.9353E-03    -9.89758E-03     1.43265E-03    -9.99415E-03     19.6415E-03    -9.84294E-03     1.45309E-03
            2210     891.232E-06     13.5454E-03    -14.1730E+06    -65.6649E+06    -13.5892E+06     897.448E+03    -9.89979E-03     19.7024E-03    -9.80256E-03     716.179E-06    -9.85571E-03     19.4143E-03    -9.75474E-03     727.619E-06
            2211     16.8432E-03     12.9035E-03    -2.82916E+06     108.980E+06     58.8479E+06     1.10200E+06    -24.5788E-03     39.7572E-03    -15.1784E-03     36.7923E-03    -24.9232E-03     40.3078E-03    -15.0380E-03     36.7659E-03
            2212     15.9660E-03     12.8495E-03    -5.89165E+06     94.3171E+06     20.4551E+06     1.58122E+06    -24.1518E-03     38.6627E-03    -14.5109E-03     53.0020E-03    -24.4670E-03     39.2325E-03    -14.5368E-03     52.9568E-03
            2213     15.0868E-03     12.8036E-03    -8.02640E+06     52.4108E+06    -3.80236E+06     944.530E+03    -22.8233E-03     36.7751E-03    -13.9518E-03     44.2238E-03    -22.9984E-03     37.1189E-03    -14.0352E-03     44.1758E-03
            2214     14.2062E-03     12.7656E-03    -8.74548E+06     8.62194E+06    -2.66932E+06     416.289E+03    -21.2528E-03     34.7956E-03    -13.5428E-03     35.8734E-03    -21.3355E-03     34.8858E-03    -13.5560E-03     35.8372E-03
            2215     13.3241E-03     12.7343E-03    -8.55463E+06    -17.3063E+06    -1.73653E+06    -40.4062E+03    -20.1712E-03     33.2960E-03    -13.1249E-03     30.2730E-03    -20.2029E-03     33.2410E-03    -13.0961E-03     30.2431E-03
            2216     12.4416E-03     12.7060E-03    -8.63595E+06    -29.9257E+06    -341.868E+03    -329.219E+03    -19.1740E-03     31.8691E-03    -12.6951E-03     25.5569E-03    -19.1827E-03     31.7420E-03    -12.6409E-03     25.5320E-03
            2217     11.5580E-03     12.6822E-03    -8.78883E+06    -40.6739E+06    -225.710E+03    -294.981E+03    -18.1501E-03     30.4107E-03    -12.2606E-03     20.8567E-03    -18.1400E-03     30.2258E-03    -12.1900E-03     20.8385E-03
            2218     10.6736E-03     12.6617E-03    -9.14126E+06    -47.1065E+06     2.39618E+06    -624.334E+03    -17.0202E-03     28.8641E-03    -11.8440E-03     16.4903E-03    -17.0040E-03     28.6414E-03    -11.7504E-03     16.4723E-03
            2219     9.78826E-03     12.6450E-03    -9.76968E+06    -49.6601E+06     4.55566E+06    -1.03021E+06    -15.8149E-03     27.2577E-03    -11.4428E-03     12.7148E-03    -15.8001E-03     27.0187E-03    -11.3339E-03     12.6946E-03
            2220     8.90182E-03     12.6309E-03    -10.6270E+06    -53.2632E+06     4.51553E+06    -840.365E+03    -14.6448E-03     25.7102E-03    -11.0654E-03     9.65031E-03    -14.6282E-03     25.4537E-03    -10.9502E-03     9.63460E-03
            2221     8.01448E-03     12.6197E-03    -11.7435E+06    -58.8416E+06      3.6188E+06     137.225E+03    -13.5596E-03     24.2851E-03    -10.7255E-03     7.28776E-03    -13.5388E-03     24.0033E-03    -10.6050E-03     7.28608E-03
            2222     7.12612E-03     12.6101E-03    -13.1180E+06    -62.2514E+06     1.48939E+06     1.02588E+06    -12.5813E-03     22.9998E-03    -10.4185E-03     5.53688E-03    -12.5591E-03     22.7058E-03    -10.3018E-03     5.54769E-03
            2223     6.23701E-03     12.6024E-03    -14.3710E+06    -63.8344E+06    -1.67018E+06     1.55914E+06    -11.7327E-03     21.8795E-03    -10.1469E-03     4.24022E-03    -11.7097E-03     21.5838E-03    -10.0418E-03     4.25864E-03
            2224     5.34713E-03     12.5957E-03    -15.2213E+06    -64.7767E+06    -5.15817E+06     1.82642E+06    -11.0253E-03     20.9401E-03    -9.91481E-03     3.27925E-03    -11.0001E-03     20.6458E-03    -9.82461E-03     3.30162E-03
            2225     4.45674E-03     12.5905E-03    -15.5859E+06    -65.2760E+06    -8.29860E+06     1.78682E+06    -10.4528E-03     20.1774E-03    -9.72460E-03     2.52884E-03    -10.4241E-03     19.8857E-03    -9.64884E-03     2.55106E-03
            2226     3.56586E-03     12.5860E-03    -15.6662E+06    -65.7233E+06    -10.8659E+06     1.46129E+06    -10.0112E-03     19.5876E-03    -9.57644E-03     1.92409E-03    -9.97852E-03     19.2975E-03    -9.51275E-03     1.94237E-03
            2227     2.67462E-03     12.5827E-03    -15.5967E+06    -65.5440E+06    -12.8469E+06     1.02155E+06    -9.69510E-03     19.1617E-03    -9.46658E-03     1.42362E-03    -9.65944E-03     18.8752E-03    -9.41316E-03     1.43642E-03
            2228     1.78318E-03     12.5803E-03    -15.4629E+06    -65.3217E+06    -14.0225E+06     631.201E+03    -9.49075E-03     18.8826E-03    -9.39184E-03     922.159E-06    -9.45303E-03     18.5987E-03    -9.34481E-03     930.067E-06
            2229     891.663E-06     12.5790E-03    -15.3005E+06    -64.4665E+06    -14.7970E+06     299.908E+03    -9.39460E-03     18.7153E-03    -9.32072E-03     431.809E-06    -9.35614E-03     18.4367E-03    -9.27904E-03     435.563E-06
            2230     16.8457E-03     11.9159E-03    -3.45701E+06     107.866E+06     59.4218E+06     1.21482E+06    -25.3658E-03     40.5448E-03    -15.1790E-03     34.3696E-03    -25.7062E-03     41.0836E-03    -15.0333E-03     34.3391E-03
            2231     15.9668E-03     11.8638E-03    -6.38285E+06     94.5154E+06     21.7838E+06     1.99581E+06    -24.6687E-03     39.1428E-03    -14.4741E-03     49.9762E-03    -24.9793E-03     39.7032E-03    -14.4930E-03     49.9319E-03
            2232     15.0880E-03     11.8195E-03    -6.97918E+06     53.3080E+06    -2.81806E+06     1.42304E+06    -23.1766E-03     37.0548E-03    -13.8781E-03     40.9676E-03    -23.3431E-03     37.3939E-03    -13.9594E-03     40.9252E-03
            2233     14.2076E-03     11.7845E-03    -6.91933E+06     9.63297E+06    -1.56308E+06     385.549E+03    -21.9165E-03     35.3451E-03    -13.4286E-03     33.2231E-03    -21.9904E-03     35.4333E-03    -13.4404E-03     33.1860E-03
            2234     13.3265E-03     11.7536E-03    -7.38429E+06    -16.6488E+06    -1.06400E+06    -252.905E+03    -20.9235E-03     33.8761E-03    -12.9526E-03     27.4208E-03    -20.9495E-03     33.8200E-03    -12.9231E-03     27.3878E-03
            2235     12.4444E-03     11.7275E-03    -7.99205E+06    -30.1213E+06     486.796E+03    -368.741E+03    -19.8728E-03     32.3318E-03    -12.4591E-03     22.4491E-03    -19.8779E-03     32.2003E-03    -12.4014E-03     22.4238E-03
            2236     11.5616E-03     11.7046E-03    -8.81905E+06    -40.3278E+06     920.121E+03    -535.713E+03    -18.6817E-03     30.6398E-03    -11.9580E-03     17.5928E-03    -18.6731E-03     30.4541E-03    -11.8822E-03     17.5719E-03
            2237     10.6777E-03     11.6861E-03    -9.45160E+06    -46.4970E+06     3.70682E+06    -1.10958E+06    -17.3313E-03     28.8103E-03    -11.4789E-03     13.2545E-03    -17.3189E-03     28.5886E-03    -11.3793E-03     13.2307E-03
            2238     9.79258E-03     11.6708E-03    -10.2092E+06    -49.4224E+06     5.99020E+06    -1.63517E+06    -15.9176E-03     26.9419E-03    -11.0243E-03     9.72045E-03    -15.9070E-03     26.7023E-03    -10.9079E-03     9.69280E-03
            2239     8.90627E-03     11.6587E-03    -11.3420E+06    -54.2665E+06     5.49433E+06    -1.31244E+06    -14.5564E-03     25.1581E-03    -10.6017E-03     7.02043E-03    -14.5432E-03     24.8960E-03    -10.4791E-03     6.99893E-03
            2240     8.01869E-03     11.6486E-03    -12.7711E+06    -59.9896E+06     4.38262E+06    -358.654E+03    -13.3322E-03     23.5572E-03    -10.2250E-03     5.05096E-03    -13.3159E-03     23.2699E-03    -10.0976E-03     5.04314E-03
            2241     7.13016E-03     11.6406E-03    -14.1440E+06    -62.7380E+06     2.24796E+06     393.128E+03    -12.2582E-03     22.1448E-03    -9.88655E-03     3.65191E-03    -12.2415E-03     21.8486E-03    -9.76383E-03     3.65474E-03
            2242     6.24066E-03     11.6338E-03    -15.4166E+06    -63.9521E+06    -1.26653E+06     700.135E+03    -11.3379E-03     20.9235E-03    -9.58556E-03     2.67018E-03    -11.3206E-03     20.6281E-03    -9.47681E-03     2.67764E-03
            2243     5.35046E-03     11.6283E-03    -16.4632E+06    -64.4991E+06    -5.21813E+06     694.261E+03    -10.5672E-03     19.8935E-03    -9.32629E-03     1.97257E-03    -10.5486E-03     19.6026E-03    -9.23499E-03     1.98042E-03
            2244     4.45956E-03     11.6236E-03    -17.2058E+06    -64.8237E+06    -9.38672E+06     522.303E+03    -9.93663E-03     19.0456E-03    -9.10898E-03     1.44524E-03    -9.91511E-03     18.7601E-03    -9.03697E-03     1.45120E-03
            2245     3.56821E-03     11.6200E-03    -17.6048E+06    -65.0499E+06    -12.9144E+06     286.523E+03    -9.43752E-03     18.3749E-03    -8.93740E-03     1.05030E-03    -9.41253E-03     18.0939E-03    -8.88212E-03     1.05345E-03
            2246     2.67644E-03     11.6170E-03    -17.7243E+06    -65.0244E+06    -15.3604E+06     52.5238E+03    -9.06426E-03     17.8784E-03    -8.81410E-03     741.973E-06    -9.03635E-03     17.6012E-03    -8.77092E-03     742.291E-06
            2247     1.78440E-03     11.6149E-03    -17.6849E+06    -64.8986E+06    -16.8538E+06    -96.2851E+03    -8.82038E-03     17.5606E-03    -8.74024E-03     444.824E-06    -8.79028E-03     17.2862E-03    -8.70477E-03     443.362E-06
            2248     892.157E-06     11.6136E-03    -17.6293E+06    -64.2745E+06    -17.3575E+06    -213.813E+03    -8.73167E-03     17.4282E-03    -8.69653E-03     185.494E-06    -8.70143E-03     17.1576E-03    -8.66456E-03     182.622E-06
            2249     16.8448E-03     10.9280E-03    -4.00750E+06     106.767E+06     59.8767E+06     969.294E+03    -26.3455E-03     41.4991E-03    -15.1536E-03     32.8234E-03    -26.6826E-03     42.0274E-03    -15.0032E-03     32.7842E-03
            2250     15.9687E-03     10.8771E-03    -5.02166E+06     95.0035E+06     24.1425E+06     1.53020E+06    -25.2567E-03     39.6634E-03    -14.4067E-03     47.7208E-03    -25.5567E-03     40.2129E-03    -14.4165E-03     47.6661E-03
            2251     15.0896E-03     10.8364E-03    -5.13558E+06     54.1912E+06    -1.69692E+06     1.31205E+06    -23.9400E-03     37.6966E-03    -13.7566E-03     38.2241E-03    -24.0947E-03     38.0304E-03    -13.8362E-03     38.1784E-03
            2252     14.2101E-03     10.8013E-03    -5.73635E+06     10.4814E+06    -769.651E+03     1.07393E+06    -22.9207E-03     36.1616E-03    -13.2409E-03     30.2828E-03    -22.9883E-03     36.2484E-03    -13.2517E-03     30.2532E-03
            2253     13.3300E-03     10.7731E-03    -7.27804E+06    -15.9847E+06     66.7439E+03     510.527E+03    -21.8657E-03     34.5542E-03    -12.6884E-03     24.1589E-03    -21.8921E-03     34.4979E-03    -12.6544E-03     24.1353E-03
            2254     12.4489E-03     10.7477E-03    -8.56692E+06    -29.7367E+06     1.73413E+06    -147.920E+03    -20.5431E-03     32.6606E-03    -12.1175E-03     19.1287E-03    -20.5523E-03     32.5289E-03    -12.0533E-03     19.1065E-03
            2255     11.5667E-03     10.7273E-03    -9.11915E+06    -39.7215E+06     2.46212E+06    -827.467E+03    -19.0189E-03     30.5683E-03    -11.5494E-03     14.3487E-03    -19.0141E-03     30.3831E-03    -11.4662E-03     14.3245E-03
            2256     10.6830E-03     10.7104E-03    -9.71664E+06    -45.6099E+06     5.23730E+06    -1.65634E+06    -17.3558E-03     28.3739E-03    -11.0181E-03     10.3446E-03    -17.3478E-03     28.1544E-03    -10.9117E-03     10.3143E-03
            2257     9.79781E-03     10.6973E-03    -10.7461E+06    -49.4531E+06     7.42279E+06    -2.11370E+06    -15.7171E-03     26.2458E-03    -10.5287E-03     7.23805E-03    -15.7109E-03     26.0045E-03    -10.4043E-03     7.20463E-03
            2258     8.91115E-03     10.6869E-03    -12.3104E+06    -55.4547E+06     6.63541E+06    -1.57952E+06    -14.2286E-03     24.3104E-03    -10.0818E-03     5.00957E-03    -14.2200E-03     24.0420E-03    -9.95038E-03     4.98491E-03
            2259     8.02333E-03     10.6787E-03    -14.0819E+06    -60.8699E+06     4.40829E+06    -752.333E+03    -12.9304E-03     22.6109E-03    -9.68047E-03     3.47445E-03    -12.9193E-03     22.3210E-03    -9.54975E-03     3.46173E-03
            2260     7.13434E-03     10.6719E-03    -15.8419E+06    -63.1465E+06     1.62988E+06    -316.065E+03    -11.8206E-03     21.1423E-03    -9.32165E-03     2.42551E-03    -11.8108E-03     20.8474E-03    -9.19896E-03     2.41929E-03
            2261     6.24451E-03     10.6665E-03    -17.3371E+06    -63.9207E+06    -2.31118E+06    -201.651E+03    -10.8806E-03     19.8808E-03    -9.00019E-03     1.71588E-03    -10.8714E-03     19.5898E-03    -8.89392E-03     1.71174E-03
            2262     5.35382E-03     10.6618E-03    -18.4888E+06    -64.2832E+06    -7.29860E+06    -338.233E+03    -10.0882E-03     18.8033E-03    -8.71511E-03     1.22638E-03    -10.0769E-03     18.5194E-03    -8.63158E-03     1.22091E-03
            2263     4.46256E-03     10.6581E-03    -19.3002E+06    -64.6711E+06    -11.7876E+06    -475.709E+03    -9.42594E-03     17.8991E-03    -8.47314E-03     860.515E-06    -9.41163E-03     17.6208E-03    -8.41032E-03     853.576E-06
            2264     3.57067E-03     10.6550E-03    -19.9266E+06    -64.9173E+06    -15.4741E+06    -512.871E+03    -8.88588E-03     17.1611E-03    -8.27525E-03     587.320E-06    -8.86898E-03     16.8879E-03    -8.22959E-03     580.132E-06
            2265     2.67838E-03     10.6526E-03    -20.4537E+06    -65.0080E+06    -18.2228E+06    -490.232E+03    -8.46058E-03     16.5838E-03    -8.12324E-03     380.985E-06    -8.44219E-03     16.3149E-03    -8.09043E-03     374.271E-06
            2266     1.78573E-03     10.6508E-03    -20.8311E+06    -64.9854E+06    -19.9936E+06    -454.812E+03    -8.15875E-03     16.1784E-03    -8.01961E-03     197.012E-06    -8.13970E-03     15.9126E-03    -7.99514E-03     190.897E-06
            2267     892.931E-06     10.6497E-03    -21.0658E+06    -64.7124E+06    -20.9214E+06    -310.676E+03    -8.00731E-03     15.9558E-03    -7.94851E-03     81.3195E-06    -7.98845E-03     15.6932E-03    -7.92874E-03     77.1808E-06
            2268     16.8468E-03     9.93859E-03    -3.57573E+06     106.447E+06     60.1149E+06     165.141E+03    -27.4458E-03     42.5671E-03    -15.1213E-03     30.5746E-03    -27.7758E-03     43.0881E-03    -14.9698E-03     30.5178E-03
            2269     15.9690E-03     9.89066E-03    -4.77428E+06     94.2828E+06     24.2596E+06     532.755E+03    -26.3724E-03     40.6811E-03    -14.3087E-03     44.4789E-03    -26.6631E-03     41.2193E-03    -14.3172E-03     44.4039E-03
            2270     15.0922E-03     9.85084E-03    -5.94614E+06     54.0476E+06    -1.72655E+06     1.88701E+06    -25.1673E-03     38.7480E-03    -13.5807E-03     35.3526E-03    -25.3210E-03     39.0776E-03    -13.6591E-03     35.3109E-03
            2271     14.2143E-03     9.81839E-03    -7.13281E+06     11.4384E+06    -491.647E+03     1.93983E+06    -24.1446E-03     37.1201E-03    -12.9756E-03     27.2933E-03    -24.2183E-03     37.2107E-03    -12.9843E-03     27.2734E-03
            2272     13.3350E-03     9.79101E-03    -7.53231E+06    -15.0679E+06     1.18547E+06     963.885E+03    -22.7009E-03     35.0379E-03    -12.3371E-03     20.8919E-03    -22.7297E-03     34.9832E-03    -12.2984E-03     20.8741E-03
            2273     12.4546E-03     9.76852E-03     -8.1107E+06    -28.7255E+06     3.53164E+06     56.7136E+03    -20.8953E-03     32.5941E-03    -11.6988E-03     16.0372E-03    -20.9051E-03     32.4631E-03    -11.6277E-03     16.0184E-03
            2274     11.5724E-03     9.74979E-03    -9.30439E+06    -38.6053E+06     4.25044E+06    -1.03145E+06    -18.9432E-03     30.0299E-03    -11.0867E-03     11.6590E-03    -18.9430E-03     29.8474E-03    -10.9960E-03     11.6330E-03
            2275     10.6886E-03     9.73568E-03    -10.3108E+06    -44.6209E+06     6.80301E+06    -2.23004E+06    -16.9969E-03     27.5299E-03    -10.5330E-03     8.13777E-03    -16.9953E-03     27.3137E-03    -10.4193E-03     8.10061E-03
            2276     9.80288E-03     9.72451E-03    -11.5438E+06    -49.9896E+06     8.50004E+06    -2.47067E+06    -15.2125E-03     25.2498E-03    -10.0374E-03     5.58766E-03    -15.2110E-03     25.0053E-03    -9.90565E-03     5.55004E-03
            2277     8.91586E-03     9.71622E-03    -13.3175E+06    -56.6758E+06     7.66248E+06    -1.67999E+06    -13.6854E-03     23.2789E-03    -9.59354E-03     3.83702E-03    -13.6815E-03     23.0044E-03    -9.45373E-03     3.81128E-03
            2278     8.02744E-03     9.70949E-03    -15.3923E+06    -61.4649E+06     4.75846E+06    -1.01630E+06    -12.3901E-03     21.5830E-03    -9.19290E-03     2.73890E-03    -12.3852E-03     21.2915E-03    -9.05766E-03     2.72288E-03
            2279     7.13806E-03     9.70430E-03    -17.2451E+06    -63.3006E+06     598.387E+03    -892.630E+03    -11.3087E-03     20.1391E-03    -8.83045E-03     2.03349E-03    -11.3042E-03     19.8470E-03    -8.71066E-03     2.01985E-03
            2280     6.24771E-03     9.69990E-03    -18.7606E+06    -63.8393E+06    -4.16505E+06    -1.07863E+06    -10.4075E-03     18.9122E-03    -8.50471E-03     1.56582E-03    -10.4029E-03     18.6264E-03    -8.40576E-03     1.55034E-03
            2281     5.35670E-03     9.69646E-03    -19.9575E+06    -64.3125E+06    -9.35865E+06    -1.19834E+06    -9.64209E-03     17.8556E-03    -8.21355E-03     1.22205E-03    -9.63515E-03     17.5767E-03    -8.13815E-03     1.20543E-03
            2282     4.46493E-03     9.69348E-03    -21.0489E+06    -64.9073E+06    -14.0998E+06    -1.09183E+06    -8.98983E-03     16.9496E-03    -7.95981E-03     946.660E-06    -8.98058E-03     16.6761E-03    -7.90567E-03     931.716E-06
            2283     3.57273E-03     9.69122E-03    -22.0856E+06    -65.2588E+06    -17.8879E+06    -856.684E+03    -8.44212E-03     16.1867E-03    -7.74455E-03     711.194E-06    -8.43202E-03     15.9184E-03    -7.70734E-03     699.516E-06
            2284     2.67999E-03     9.68933E-03    -22.9300E+06    -65.3304E+06    -20.6745E+06    -621.403E+03    -7.98924E-03     15.5578E-03    -7.56858E-03     500.097E-06    -7.97920E-03     15.2944E-03    -7.54398E-03     491.644E-06
            2285     1.78694E-03     9.68804E-03    -23.6390E+06    -65.3515E+06    -22.6853E+06    -416.396E+03    -7.64001E-03     15.0737E-03    -7.43371E-03     320.103E-06    -7.63057E-03     14.8141E-03    -7.41810E-03     314.451E-06
            2286     893.558E-06     9.68715E-03    -24.1276E+06    -65.1816E+06    -23.8260E+06    -237.758E+03    -7.42272E-03     14.7484E-03    -7.32572E-03     183.602E-06    -7.41427E-03     14.4921E-03    -7.31536E-03     180.385E-06
            2287     16.8457E-03     8.94693E-03    -2.90707E+06     106.176E+06     60.5761E+06    -283.575E+03    -28.6532E-03     43.7246E-03    -15.0714E-03     28.2871E-03    -28.9756E-03     44.2380E-03    -14.9183E-03     28.2169E-03
            2288     15.9729E-03     8.90308E-03    -5.81415E+06     92.8266E+06     24.9566E+06     1.50634E+06    -27.8230E-03     42.0084E-03    -14.1855E-03     41.7254E-03    -28.1113E-03     42.5335E-03    -14.1869E-03     41.6542E-03
            2289     15.0957E-03     8.86489E-03    -8.06186E+06     53.7522E+06    -1.17609E+06     2.38505E+06    -26.6534E-03     40.0137E-03    -13.3603E-03     32.9149E-03    -26.8139E-03     40.3401E-03    -13.4325E-03     32.8757E-03
            2290     14.2188E-03     8.83345E-03    -7.46615E+06     12.9059E+06    -119.409E+03     1.20040E+06    -25.2048E-03     37.8587E-03    -12.6539E-03     24.3118E-03    -25.2800E-03     37.9537E-03    -12.6623E-03     24.2820E-03
            2291     13.3408E-03     8.80927E-03    -7.26478E+06    -14.5483E+06     1.87402E+06     883.747E+03    -23.1359E-03     35.0811E-03    -11.9451E-03     17.9628E-03    -23.1635E-03     35.0259E-03    -11.9041E-03     17.9450E-03
            2292     12.4603E-03     8.78910E-03    -8.50191E+06    -27.5077E+06     5.07773E+06     490.700E+03    -20.7563E-03     32.0279E-03    -11.2716E-03     13.5146E-03    -20.7712E-03     31.9004E-03    -11.1940E-03     13.5026E-03
            2293     11.5780E-03     8.77349E-03    -9.69084E+06    -36.6561E+06     6.54649E+06    -1.10722E+06    -18.4107E-03     29.0646E-03    -10.6539E-03     9.71262E-03    -18.4182E-03     28.8887E-03    -10.5540E-03     9.68669E-03
            2294     10.6933E-03     8.76168E-03    -11.0294E+06    -43.7942E+06     8.56867E+06    -2.55221E+06    -16.2747E-03     26.3891E-03    -10.1145E-03     6.83058E-03    -16.2803E-03     26.1753E-03    -9.99212E-03     6.78993E-03
            2295     9.80713E-03     8.75302E-03    -12.7623E+06    -50.8188E+06     9.45672E+06    -2.70931E+06    -14.4542E-03     24.1002E-03    -9.64599E-03     4.91136E-03    -14.4590E-03     23.8519E-03    -9.50651E-03     4.87102E-03
            2296     8.91928E-03     8.74642E-03    -14.6653E+06    -57.8826E+06     8.19916E+06    -1.95712E+06    -12.9620E-03     22.1968E-03    -9.23473E-03     3.70667E-03    -12.9639E-03     21.9174E-03    -9.08854E-03     3.67754E-03
            2297     8.03037E-03     8.74149E-03    -16.4345E+06    -61.7408E+06     5.17006E+06    -1.50580E+06    -11.7498E-03     20.6164E-03    -8.86665E-03     3.01913E-03    -11.7503E-03     20.3245E-03    -8.72744E-03     2.99686E-03
            2298     7.14034E-03     8.73748E-03    -18.0335E+06    -63.3095E+06     31.2718E+03    -1.63588E+06    -10.7621E-03     19.2934E-03    -8.53133E-03     2.62514E-03    -10.7608E-03     19.0033E-03    -8.41323E-03     2.60192E-03
            2299     6.24961E-03     8.73435E-03    -19.4889E+06    -63.8740E+06    -5.68275E+06    -1.76609E+06    -9.95368E-03     18.1835E-03    -8.22980E-03     2.33601E-03    -9.95046E-03     17.9008E-03    -8.13734E-03     2.31164E-03
            2300     5.35812E-03     8.73175E-03    -20.9461E+06    -64.7337E+06    -11.0826E+06    -1.67423E+06    -9.27192E-03     17.2344E-03    -7.96249E-03     2.07463E-03    -9.26684E-03     16.9573E-03    -7.89367E-03     2.05183E-03
            2301     4.46618E-03     8.72975E-03    -22.2483E+06    -65.5096E+06    -15.8237E+06    -1.29479E+06    -8.68377E-03     16.4116E-03    -7.72783E-03     1.81707E-03    -8.67716E-03     16.1394E-03    -7.67970E-03     1.79947E-03
            2302     3.57361E-03     8.72809E-03    -23.3360E+06    -65.7987E+06    -19.3978E+06    -902.322E+03    -8.17884E-03     15.7066E-03    -7.52780E-03     1.54004E-03    -8.17203E-03     15.4397E-03    -7.49554E-03     1.52775E-03
            2303     2.68069E-03     8.72691E-03    -24.2497E+06    -65.8481E+06    -22.0483E+06    -590.798E+03    -7.75727E-03     15.1207E-03    -7.36348E-03     1.22515E-03    -7.75109E-03     14.8587E-03    -7.34308E-03     1.21708E-03
            2304     1.78734E-03     8.72605E-03    -24.8554E+06    -65.7687E+06    -23.9640E+06    -323.550E+03    -7.42658E-03     14.6648E-03    -7.23818E-03     879.047E-06    -7.42076E-03     14.4067E-03    -7.22660E-03     874.590E-06
            2305     893.750E-06     8.72558E-03    -25.3087E+06    -65.5261E+06    -24.9943E+06    -97.3628E+03    -7.22403E-03     14.3677E-03    -7.14365E-03     518.495E-06    -7.21928E-03     14.1130E-03    -7.13691E-03     517.092E-06
            2306     16.8491E-03     7.95608E-03    -3.57935E+06     104.285E+06     60.7706E+06     573.350E+03    -29.5969E-03     44.6410E-03    -15.0441E-03     28.5006E-03    -29.9180E-03     45.1434E-03    -14.8863E-03     28.4337E-03
            2307     15.9728E-03     7.91317E-03    -7.81508E+06     91.3685E+06     27.8031E+06     2.08093E+06    -30.0434E-03     44.1260E-03    -14.0826E-03     40.2897E-03    -30.3398E-03     44.6385E-03    -14.0648E-03     40.2134E-03
            2308     15.0999E-03     7.87699E-03    -7.29307E+06     55.7348E+06     2.89101E+06     1.28276E+06    -28.4501E-03     41.5789E-03    -13.1288E-03     29.7415E-03    -28.6116E-03     41.9044E-03    -13.1846E-03     29.6829E-03
            2309     14.2243E-03     7.84850E-03    -7.57354E+06     13.3766E+06     490.742E+03     946.422E+03    -25.6935E-03     38.0147E-03    -12.3213E-03     21.1724E-03    -25.7678E-03     38.1084E-03    -12.3272E-03     21.1411E-03
            2310     13.3458E-03     7.82741E-03    -9.12246E+06    -14.3725E+06     2.48000E+06     1.18958E+06    -22.8906E-03     34.4747E-03    -11.5840E-03     15.2917E-03    -22.9272E-03     34.4208E-03    -11.5376E-03     15.2799E-03
            2311     12.4653E-03     7.81071E-03    -9.85559E+06    -25.8757E+06     6.71834E+06     312.241E+03    -20.0458E-03     30.9656E-03    -10.9197E-03     11.6348E-03    -20.0717E-03     30.8453E-03    -10.8343E-03     11.6221E-03
            2312     11.5819E-03     7.79815E-03    -10.8553E+06    -34.6109E+06     8.88858E+06    -1.29128E+06    -17.4260E-03     27.7674E-03    -10.3414E-03     8.71116E-03    -17.4454E-03     27.5998E-03    -10.2310E-03     8.68399E-03
            2313     10.6966E-03     7.78905E-03    -12.4103E+06    -42.9087E+06     10.5539E+06    -2.71731E+06    -15.2280E-03     25.0872E-03    -9.85919E-03     6.66647E-03    -15.2446E-03     24.8769E-03    -9.72621E-03     6.62435E-03
            2314     9.80926E-03     7.78255E-03    -14.2380E+06    -51.7210E+06     10.8562E+06    -2.99183E+06    -13.4795E-03     22.9372E-03    -9.45767E-03     5.43897E-03    -13.4924E-03     22.6845E-03    -9.30775E-03     5.39535E-03
            2315     8.92071E-03     7.77780E-03    -16.0314E+06    -58.7061E+06     8.32758E+06    -2.61810E+06    -12.1239E-03     21.2340E-03    -9.11014E-03     4.76671E-03    -12.1317E-03     20.9524E-03    -8.96013E-03     4.72925E-03
            2316     8.03096E-03     7.77422E-03    -17.5123E+06    -61.9513E+06     3.99630E+06    -2.52089E+06    -11.0780E-03     19.8816E-03    -8.80351E-03     4.42606E-03    -11.0820E-03     19.5919E-03    -8.66831E-03     4.39080E-03
            2317     7.14049E-03     7.77147E-03    -18.7945E+06    -63.4732E+06    -1.13861E+06    -2.52603E+06    -10.2588E-03     18.7922E-03    -8.53347E-03     4.21319E-03    -10.2594E-03     18.5041E-03    -8.41987E-03     4.17853E-03
            2318     6.24926E-03     7.76923E-03    -20.1198E+06    -64.3479E+06    -6.77154E+06    -2.37093E+06    -9.59237E-03     17.8875E-03    -8.29517E-03     3.98279E-03    -9.59008E-03     17.6050E-03    -8.20654E-03     3.95064E-03
            2319     5.35758E-03     7.76753E-03    -21.3699E+06    -65.4805E+06    -12.0844E+06    -1.94021E+06    -9.04475E-03     17.1336E-03    -8.08889E-03     3.69142E-03    -9.03928E-03     16.8549E-03    -8.02338E-03     3.66522E-03
            2320     4.46532E-03     7.76618E-03    -22.4692E+06    -66.2715E+06    -16.3977E+06    -1.48947E+06    -8.58463E-03     16.4993E-03    -7.91466E-03     3.33627E-03    -8.57720E-03     16.2244E-03    -7.86798E-03     3.31619E-03
            2321     3.57279E-03     7.76522E-03    -23.2267E+06    -66.4375E+06    -19.4236E+06    -1.09436E+06    -8.20011E-03     15.9738E-03    -7.77365E-03     2.89525E-03    -8.19181E-03     15.7035E-03    -7.74075E-03     2.88053E-03
            2322     2.67982E-03     7.76449E-03    -23.6660E+06    -66.4106E+06    -21.6139E+06    -755.700E+03    -7.90237E-03     15.5675E-03    -7.66516E-03     2.32804E-03    -7.89310E-03     15.3011E-03    -7.64262E-03     2.31789E-03
            2323     1.78669E-03     7.76406E-03    -23.9314E+06    -66.3140E+06    -23.0831E+06    -420.583E+03    -7.69648E-03     15.2842E-03    -7.58769E-03     1.65460E-03    -7.68654E-03     15.0208E-03    -7.57225E-03     1.64893E-03
            2324     893.376E-06     7.76377E-03    -24.0505E+06    -65.8436E+06    -23.7475E+06    -46.9613E+03    -7.56505E-03     15.1085E-03    -7.54347E-03     940.916E-06    -7.55537E-03     14.8486E-03    -7.53186E-03     940.181E-06
            2325     16.8440E-03     6.96419E-03    -3.61877E+06     103.410E+06     61.8348E+06     1.19735E+06    -31.5928E-03     46.5792E-03    -14.9865E-03     26.8362E-03    -31.9117E-03     47.0731E-03    -14.8220E-03     26.7651E-03
            2326     15.9761E-03     6.91867E-03    -6.73877E+06     91.2724E+06     30.9492E+06     647.185E+03    -32.0163E-03     45.9331E-03    -13.9167E-03     35.3297E-03    -32.3050E-03     46.4323E-03    -13.8846E-03     35.2225E-03
            2327     15.1044E-03     6.88795E-03    -8.40643E+06     55.7603E+06     5.18405E+06     1.52599E+06    -29.1266E-03     41.9971E-03    -12.8705E-03     24.4595E-03    -29.2915E-03     42.3154E-03    -12.9132E-03     24.4032E-03
            2328     14.2286E-03     6.86387E-03    -10.7561E+06     14.0878E+06     2.55785E+06     1.88410E+06    -25.2531E-03     37.2899E-03    -12.0369E-03     17.7782E-03    -25.3446E-03     37.3862E-03    -12.0289E-03     17.7625E-03
            2329     13.3500E-03     6.84651E-03    -11.4832E+06    -13.2268E+06     4.47264E+06     709.054E+03    -21.7198E-03     33.0492E-03    -11.3294E-03     13.3612E-03    -21.7715E-03     33.0005E-03    -11.2712E-03     13.3463E-03
            2330     12.4679E-03     6.83364E-03    -12.1623E+06    -24.6422E+06     8.73085E+06    -335.905E+03    -18.6467E-03     29.3829E-03    -10.7362E-03     10.8952E-03    -18.6884E-03     29.2688E-03    -10.6392E-03     10.8762E-03
            2331     11.5836E-03     6.82419E-03    -13.1936E+06    -32.3970E+06     11.7892E+06    -1.91919E+06    -15.9973E-03     26.2505E-03    -10.2532E-03     9.05961E-03    -16.0357E-03     26.0930E-03    -10.1282E-03     9.02558E-03
            2332     10.6968E-03     6.81777E-03    -14.2598E+06    -42.2700E+06     12.9185E+06    -3.48486E+06    -13.9304E-03     23.8038E-03    -9.87342E-03     7.97272E-03    -13.9607E-03     23.5961E-03    -9.72686E-03     7.92144E-03
            2333     9.80849E-03     6.81317E-03    -15.5842E+06    -52.4343E+06     12.7110E+06    -3.77041E+06    -12.4231E-03     21.9995E-03    -9.57636E-03     7.34004E-03    -12.4445E-03     21.7426E-03    -9.41417E-03     7.28681E-03
            2334     8.91894E-03     6.80998E-03    -17.0143E+06    -59.0652E+06     9.46300E+06    -3.79660E+06    -11.3245E-03     20.6510E-03    -9.32646E-03     7.02351E-03    -11.3384E-03     20.3674E-03    -9.16883E-03     6.97114E-03
            2335     8.02864E-03     6.80753E-03    -18.1383E+06    -62.3454E+06     3.73585E+06    -3.90884E+06    -10.5359E-03     19.6449E-03    -9.10905E-03     6.81274E-03    -10.5421E-03     19.3547E-03    -8.97367E-03     6.75976E-03
            2336     7.13765E-03     6.80563E-03    -19.0443E+06    -64.1195E+06    -2.04917E+06    -3.71096E+06    -9.94015E-03     18.8670E-03    -8.92680E-03     6.55461E-03    -9.93980E-03     18.5773E-03    -8.81646E-03     6.50481E-03
            2337     6.24626E-03     6.80419E-03    -19.8737E+06    -65.3393E+06    -7.40107E+06    -3.15388E+06    -9.47584E-03     18.2529E-03    -8.77702E-03     6.19017E-03    -9.46999E-03     17.9660E-03    -8.69046E-03     6.14805E-03
            2338     5.35441E-03     6.80304E-03    -20.6883E+06    -66.4636E+06    -11.9538E+06    -2.52701E+06    -9.11762E-03     17.7757E-03    -8.65808E-03     5.67866E-03    -9.10753E-03     17.4909E-03    -8.59148E-03     5.64500E-03
            2339     4.46237E-03     6.80223E-03    -21.1990E+06    -67.0455E+06    -15.3132E+06    -2.08126E+06    -8.84663E-03     17.4144E-03    -8.56773E-03     5.02673E-03    -8.83333E-03     17.1322E-03    -8.51634E-03     4.99912E-03
            2340     3.56999E-03     6.80161E-03    -21.3515E+06    -67.2250E+06    -17.7062E+06    -1.76764E+06    -8.65132E-03     17.1538E-03    -8.50249E-03     4.24214E-03    -8.63501E-03     16.8743E-03    -8.46259E-03     4.21880E-03
            2341     2.67758E-03     6.80119E-03    -21.2649E+06    -67.2383E+06    -19.3380E+06    -1.33803E+06    -8.52821E-03     16.9867E-03    -8.45849E-03     3.32162E-03    -8.50906E-03     16.7094E-03    -8.42685E-03     3.30401E-03
            2342     1.78505E-03     6.80087E-03    -21.1686E+06    -67.1464E+06    -20.1909E+06    -787.083E+03    -8.46079E-03     16.8915E-03    -8.43074E-03     2.29775E-03    -8.44005E-03     16.6157E-03    -8.40364E-03     2.28737E-03
            2343     892.552E-06     6.80071E-03    -21.0372E+06    -66.3610E+06    -20.5594E+06    -424.338E+03    -8.41749E-03     16.8332E-03    -8.41576E-03     1.26665E-03    -8.39664E-03     16.5618E-03    -8.39183E-03     1.26106E-03
            2344     16.8537E-03     5.96672E-03    -2.78436E+06     103.484E+06     62.3144E+06     893.795E+03    -34.0892E-03     48.9167E-03    -14.8274E-03     25.3676E-03    -34.4006E-03     49.4050E-03    -14.6619E-03     25.2832E-03
            2345     15.9822E-03     5.92545E-03    -5.17711E+06     90.3990E+06     33.7021E+06     2.49252E+06    -32.2303E-03     45.9165E-03    -13.6862E-03     31.7166E-03    -32.5043E-03     46.3956E-03    -13.6413E-03     31.6350E-03
            2346     15.1087E-03     5.89910E-03    -10.0335E+06     55.0651E+06     9.43308E+06     3.81990E+06    -28.0623E-03     40.7229E-03    -12.6606E-03     20.6647E-03    -28.2339E-03     41.0274E-03    -12.6787E-03     20.6462E-03
            2347     14.2324E-03     5.88035E-03    -12.6016E+06     16.3914E+06     8.05437E+06     2.60784E+06    -23.4962E-03     35.3962E-03    -11.9000E-03     15.7464E-03    -23.6058E-03     35.4962E-03    -11.8652E-03     15.7462E-03
            2348     13.3512E-03     5.86791E-03    -14.7304E+06    -11.1443E+06     8.49908E+06     365.022E+03    -19.6835E-03     30.9840E-03    -11.3005E-03     13.4460E-03    -19.7595E-03     30.9437E-03    -11.2205E-03     13.4309E-03
            2349     12.4675E-03     5.85800E-03    -15.4339E+06    -22.8026E+06     12.2189E+06    -2.06614E+06    -16.6785E-03     27.5202E-03    -10.8418E-03     12.0959E-03    -16.7440E-03     27.4148E-03    -10.7252E-03     12.0571E-03
            2350     11.5811E-03     5.85205E-03    -15.0057E+06    -30.8534E+06     15.3676E+06    -3.90276E+06    -14.3168E-03     24.8187E-03    -10.5019E-03     11.2320E-03    -14.3717E-03     24.6663E-03    -10.3585E-03     11.1738E-03
            2351     10.6930E-03     5.84747E-03    -15.5284E+06    -41.8832E+06     15.8248E+06    -4.83010E+06    -12.6656E-03     22.9247E-03    -10.2591E-03     10.8044E-03    -12.7071E-03     22.7165E-03    -10.0967E-03     10.7366E-03
            2352     9.80361E-03     5.84460E-03    -16.7139E+06    -52.9494E+06     14.2902E+06    -5.32111E+06    -11.5629E-03     21.6473E-03    -10.0844E-03     10.4121E-03    -11.5915E-03     21.3872E-03    -9.91197E-03     10.3395E-03
            2353     8.91345E-03     5.84238E-03    -17.6255E+06    -59.2416E+06     10.4671E+06    -5.64475E+06    -10.8419E-03     20.7872E-03    -9.94521E-03     10.0982E-03    -10.8601E-03     20.5021E-03    -9.78142E-03     10.0224E-03
            2354     8.02277E-03     5.84072E-03    -18.2219E+06    -63.0530E+06     4.03498E+06    -5.81252E+06    -10.3686E-03     20.1953E-03    -9.82668E-03     9.67129E-03    -10.3747E-03     19.9011E-03    -9.68865E-03     9.59407E-03
            2355     7.13175E-03     5.83941E-03    -18.5045E+06    -65.3431E+06    -2.41544E+06    -5.40040E+06    -10.0440E-03     19.7771E-03    -9.73310E-03     9.07357E-03    -10.0386E-03     19.4810E-03    -9.62360E-03     9.00225E-03
            2356     6.24043E-03     5.83837E-03    -18.5414E+06    -66.8772E+06    -7.23102E+06    -4.56089E+06    -9.82375E-03     19.4916E-03    -9.66783E-03     8.29565E-03    -9.80926E-03     19.1948E-03    -9.58013E-03     8.23559E-03
            2357     5.34903E-03     5.83756E-03    -18.3321E+06    -67.6841E+06    -10.5830E+06     -3.7333E+06    -9.68201E-03     19.3075E-03    -9.62546E-03     7.34909E-03    -9.66037E-03     19.0111E-03    -9.55365E-03     7.30004E-03
            2358     4.45746E-03     5.83691E-03    -18.0840E+06    -68.0375E+06    -12.8913E+06    -3.18900E+06    -9.60332E-03     19.2036E-03    -9.60033E-03     6.27870E-03    -9.57653E-03     18.9084E-03    -9.53991E-03     6.23691E-03
            2359     3.56600E-03     5.83643E-03    -17.9221E+06    -68.2939E+06    -14.5785E+06    -2.70520E+06    -9.57126E-03     19.1578E-03    -9.58650E-03     5.12037E-03    -9.54081E-03     18.8634E-03    -9.53438E-03     5.08500E-03
            2360     2.67444E-03     5.83603E-03    -17.9261E+06    -68.6249E+06    -15.8830E+06    -2.03726E+06    -9.56359E-03     19.1427E-03    -9.57916E-03     3.90126E-03    -9.53077E-03     18.8486E-03    -9.53307E-03     3.87466E-03
            2361     1.78298E-03     5.83574E-03    -17.9851E+06    -68.2696E+06    -16.8788E+06    -1.32738E+06    -9.56444E-03     19.1385E-03    -9.57407E-03     2.64574E-03    -9.53097E-03     18.8477E-03    -9.53340E-03     2.62841E-03
            2362     891.467E-06     5.83558E-03    -18.0263E+06    -67.4887E+06    -17.6112E+06    -878.370E+03    -9.56842E-03     19.1363E-03    -9.56784E-03     1.44051E-03    -9.53518E-03     18.8505E-03    -9.53190E-03     1.42907E-03
            2363     16.8525E-03     4.96985E-03    -3.94816E+06     100.436E+06     61.7948E+06     1.10272E+06    -34.8984E-03     49.6334E-03    -14.7351E-03     26.5872E-03    -35.2061E-03     50.1047E-03    -14.5660E-03     26.5044E-03
            2364     15.9836E-03     4.93243E-03    -8.13987E+06     87.0638E+06     33.8869E+06     5.10266E+06    -31.6076E-03     45.1994E-03    -13.5918E-03     30.4028E-03    -31.8817E-03     45.6559E-03    -13.5368E-03     30.3661E-03
            2365     15.1105E-03     4.91180E-03    -11.6380E+06     55.7703E+06     13.8806E+06     6.50551E+06    -25.8035E-03     38.4614E-03    -12.6578E-03     18.8498E-03    -25.9842E-03     38.7590E-03    -12.6524E-03     18.8796E-03
            2366     14.2304E-03     4.90017E-03    -15.9132E+06     20.3103E+06     12.8053E+06     4.59247E+06    -20.6581E-03     32.7093E-03    -12.0512E-03     16.3981E-03    -20.7949E-03     32.8248E-03    -11.9935E-03     16.4319E-03
            2367     13.3475E-03     4.89061E-03    -18.1297E+06    -6.22328E+06     12.9324E+06    -819.418E+03    -17.1901E-03     28.8210E-03    -11.6309E-03     15.8626E-03    -17.2961E-03     28.8033E-03    -11.5309E-03     15.8365E-03
            2368     12.4615E-03     4.88492E-03    -17.4546E+06    -20.5543E+06     16.2150E+06    -5.40962E+06    -14.6341E-03     25.9862E-03    -11.3521E-03     15.3496E-03    -14.7186E-03     25.8888E-03    -11.2159E-03     15.2701E-03
            2369     11.5734E-03     4.88064E-03    -16.9567E+06    -30.4348E+06     18.3337E+06    -6.85663E+06    -12.9286E-03     24.1040E-03    -11.1754E-03     14.9968E-03    -12.9980E-03     23.9521E-03    -11.0150E-03     14.9019E-03
            2370     10.6843E-03     4.87795E-03    -16.8695E+06    -42.1857E+06     17.8089E+06    -7.21976E+06    -11.9192E-03     22.9871E-03    -11.0678E-03     14.4997E-03    -11.9697E-03     22.7763E-03    -10.8931E-03     14.4020E-03
            2371     9.79437E-03     4.87578E-03    -16.9278E+06    -53.0003E+06     14.8613E+06    -7.72215E+06    -11.3359E-03     22.3336E-03    -10.9977E-03     13.8008E-03    -11.3662E-03     22.0726E-03    -10.8220E-03     13.6978E-03
            2372     8.90416E-03     4.87426E-03    -16.7825E+06    -59.6368E+06     10.1003E+06    -8.47144E+06    -11.0266E-03     21.9705E-03    -10.9438E-03     12.9716E-03    -11.0394E-03     21.6826E-03    -10.7825E-03     12.8598E-03
            2373     8.01372E-03     4.87288E-03    -16.2531E+06    -64.3459E+06     3.62655E+06    -8.39809E+06    -10.8656E-03     21.7628E-03    -10.8972E-03     11.9462E-03    -10.8593E-03     21.4598E-03    -10.7622E-03     11.8361E-03
            2374     7.12322E-03     4.87183E-03    -15.7043E+06    -67.2649E+06    -2.43914E+06    -7.53995E+06    -10.7889E-03     21.6509E-03    -10.8620E-03     10.7638E-03    -10.7667E-03     21.3411E-03    -10.7539E-03     10.6652E-03
            2375     6.23275E-03     4.87088E-03    -15.1098E+06    -68.8184E+06    -6.41421E+06    -6.46798E+06    -10.7579E-03     21.6007E-03    -10.8428E-03     9.47846E-03    -10.7246E-03     21.2880E-03    -10.7532E-03     9.39398E-03
            2376     5.34224E-03     4.87013E-03    -14.4145E+06    -69.4673E+06    -8.84177E+06    -5.42633E+06    -10.7541E-03     21.5886E-03    -10.8346E-03     8.12336E-03    -10.7128E-03     21.2751E-03    -10.7572E-03     8.05256E-03
            2377     4.45186E-03     4.86948E-03    -13.8634E+06    -69.6503E+06    -10.1956E+06    -4.38633E+06    -10.7686E-03     21.6022E-03    -10.8336E-03     6.75808E-03    -10.7223E-03     21.2888E-03    -10.7635E-03     6.70090E-03
            2378     3.56140E-03     4.86896E-03    -13.8068E+06    -69.9446E+06    -11.2310E+06    -3.38109E+06    -10.7923E-03     21.6271E-03    -10.8348E-03     5.39918E-03    -10.7438E-03     21.3137E-03    -10.7695E-03     5.35512E-03
            2379     2.67107E-03     4.86854E-03    -14.1814E+06    -70.3801E+06    -12.1515E+06    -2.41767E+06    -10.8092E-03     21.6450E-03    -10.8359E-03     4.05483E-03    -10.7605E-03     21.3313E-03    -10.7740E-03     4.02333E-03
            2380     1.78067E-03     4.86825E-03    -14.6587E+06    -69.7306E+06    -13.6954E+06    -1.57878E+06    -10.8172E-03     21.6486E-03    -10.8314E-03     2.73135E-03    -10.7696E-03     21.3410E-03    -10.7775E-03     2.71079E-03
            2381     890.354E-06     4.86805E-03    -15.0854E+06    -69.1172E+06    -15.0088E+06    -913.784E+03    -10.8268E-03     21.6516E-03    -10.8247E-03     1.47131E-03    -10.7803E-03     21.3496E-03    -10.7777E-03     1.45941E-03
            2382     16.8526E-03     3.97193E-03    -5.25068E+06     96.9809E+06     62.0719E+06     2.80707E+06    -34.7909E-03     49.5889E-03    -14.7980E-03     24.7923E-03    -35.0930E-03     50.0370E-03    -14.6206E-03     24.7358E-03
            2383     15.9829E-03     3.93858E-03    -11.6587E+06     82.3924E+06     34.1738E+06     6.60015E+06    -29.0277E-03     42.7627E-03    -13.7350E-03     25.8107E-03    -29.2999E-03     43.1877E-03    -13.6667E-03     25.8113E-03
            2384     15.1056E-03     3.92931E-03    -16.6429E+06     56.1218E+06     15.6154E+06     9.79985E+06    -21.8597E-03     34.8571E-03    -12.9974E-03     18.1141E-03    -22.0628E-03     35.1556E-03    -12.9766E-03     18.2021E-03
            2385     14.2231E-03     3.92155E-03    -19.7483E+06     28.6953E+06     17.8196E+06     4.52053E+06    -17.4173E-03     30.0491E-03    -12.6318E-03     19.6598E-03    -17.5913E-03     30.2035E-03    -12.5557E-03     19.6995E-03
            2386     13.3370E-03     3.91615E-03    -19.1401E+06     817.707E+03     17.2338E+06    -4.40528E+06    -14.9422E-03     27.3621E-03    -12.4199E-03     20.0677E-03    -15.0690E-03     27.3741E-03    -12.3072E-03     19.9991E-03
            2387     12.4491E-03     3.91236E-03    -18.4957E+06    -19.1828E+06     17.4424E+06    -8.68173E+06    -13.4257E-03     25.7333E-03    -12.3076E-03     19.5763E-03    -13.5186E-03     25.6419E-03    -12.1657E-03     19.4568E-03
            2388     11.5603E-03     3.90970E-03    -18.2193E+06    -30.3123E+06     16.7036E+06    -10.1732E+06    -12.6265E-03     24.8721E-03    -12.2456E-03     18.6542E-03    -12.6997E-03     24.7245E-03    -12.0917E-03     18.5178E-03
            2389     10.6710E-03     3.90741E-03    -17.1965E+06    -43.0714E+06     12.2655E+06    -10.9580E+06    -12.2545E-03     24.4587E-03    -12.2041E-03     17.2762E-03    -12.2971E-03     24.2515E-03    -12.0554E-03     17.1312E-03
            2390     9.78174E-03     3.90579E-03    -15.3557E+06    -53.2127E+06     6.80185E+06    -11.4132E+06    -12.1148E-03     24.2866E-03    -12.1718E-03     15.7566E-03    -12.1251E-03     24.0336E-03    -12.0384E-03     15.6067E-03
            2391     8.89233E-03     3.90424E-03    -13.7087E+06    -60.7260E+06     2.02376E+06    -11.5900E+06    -12.0788E-03     24.2267E-03    -12.1479E-03     14.1598E-03    -12.0627E-03     23.9404E-03    -12.0299E-03     14.0083E-03
            2392     8.00308E-03     3.90303E-03    -12.8542E+06    -66.7075E+06    -2.52864E+06    -10.7693E+06    -12.0785E-03     24.2057E-03    -12.1273E-03     12.5293E-03    -12.0427E-03     23.8947E-03    -12.0245E-03     12.3888E-03
            2393     7.11382E-03     3.90192E-03    -12.3217E+06    -69.8154E+06    -6.34236E+06    -9.33789E+06    -12.0852E-03     24.1927E-03    -12.1075E-03     10.9297E-03    -12.0367E-03     23.8708E-03    -12.0201E-03     10.8080E-03
            2394     6.22457E-03     3.90099E-03    -11.9270E+06    -71.3218E+06    -8.48368E+06    -7.88498E+06    -12.0872E-03     24.1815E-03    -12.0943E-03     9.38203E-03    -12.0313E-03     23.8545E-03    -12.0160E-03     9.27936E-03
            2395     5.33538E-03     3.90020E-03    -11.7556E+06    -71.8378E+06    -9.81866E+06    -6.47648E+06    -12.0857E-03     24.1698E-03    -12.0841E-03     7.90233E-03    -12.0262E-03     23.8419E-03    -12.0120E-03     7.81805E-03
            2396     4.44612E-03     3.89954E-03    -11.7754E+06    -72.0542E+06    -10.3849E+06    -5.06954E+06    -12.0825E-03     24.1602E-03    -12.0777E-03     6.49250E-03    -12.0220E-03     23.8320E-03    -12.0080E-03     6.42654E-03
            2397     3.55695E-03     3.89899E-03    -11.8505E+06    -72.1424E+06    -10.7762E+06    -3.64845E+06    -12.0753E-03     24.1475E-03    -12.0721E-03     5.13625E-03    -12.0144E-03     23.8195E-03    -12.0042E-03     5.08876E-03
            2398     2.66768E-03     3.89857E-03    -11.9868E+06    -72.2164E+06    -11.2080E+06    -2.55164E+06    -12.0692E-03     24.1361E-03    -12.0669E-03     3.82907E-03    -12.0082E-03     23.8086E-03    -12.0009E-03     3.79585E-03
            2399     1.77849E-03     3.89828E-03    -12.0392E+06    -71.5103E+06    -11.6154E+06    -1.70203E+06    -12.0611E-03     24.1226E-03    -12.0615E-03     2.56749E-03    -12.0008E-03     23.7993E-03    -11.9984E-03     2.54534E-03
            2400     889.221E-06     3.89808E-03    -12.0422E+06    -70.8040E+06    -11.9909E+06    -796.640E+03    -12.0548E-03     24.1148E-03    -12.0600E-03     1.39304E-03    -11.9950E-03     23.7957E-03    -11.9999E-03     1.38267E-03
            2401     16.8514E-03     2.97127E-03    -4.91615E+06     92.6625E+06     60.6307E+06     5.61445E+06    -32.3699E-03     47.4593E-03    -15.0893E-03     24.0782E-03    -32.6511E-03     47.8771E-03    -14.9134E-03     24.0753E-03
            2402     15.9776E-03     2.95273E-03    -10.0415E+06     77.4209E+06     39.9585E+06     10.8972E+06    -23.6188E-03     37.9091E-03    -14.2903E-03     25.6492E-03    -23.8695E-03     38.2841E-03    -14.1882E-03     25.7343E-03
            2403     15.0939E-03     2.95002E-03    -14.3918E+06     60.3456E+06     23.4771E+06     10.1137E+06    -17.6215E-03     31.4756E-03    -13.8541E-03     22.8397E-03    -17.8266E-03     31.7760E-03    -13.8033E-03     22.9460E-03
            2404     14.2070E-03     2.94576E-03    -14.0412E+06     40.0658E+06     20.0852E+06     1.67548E+06    -15.4491E-03     29.1322E-03    -13.6831E-03     24.9680E-03    -15.6127E-03     29.3300E-03    -13.6204E-03     24.9762E-03
            2405     13.3195E-03     2.94199E-03    -14.3597E+06     6.65387E+06     13.9015E+06    -6.72591E+06    -14.5173E-03     28.1161E-03    -13.5989E-03     23.7943E-03    -14.6224E-03     28.1535E-03    -13.5182E-03     23.6989E-03
            2406     12.4317E-03     2.93928E-03    -14.7986E+06    -17.4742E+06     8.84475E+06    -11.2768E+06    -14.0967E-03     27.6402E-03    -13.5434E-03     21.6732E-03    -14.1603E-03     27.5633E-03    -13.4524E-03     21.5221E-03
            2407     11.5438E-03     2.93667E-03    -13.8851E+06    -30.7073E+06     4.28262E+06    -13.1962E+06    -13.8826E-03     27.3725E-03    -13.4899E-03     19.3417E-03    -13.9150E-03     27.2340E-03    -13.4038E-03     19.1675E-03
            2408     10.6562E-03     2.93482E-03    -13.0746E+06    -43.8714E+06    -2.99806E+06    -13.7373E+06    -13.7828E-03     27.2137E-03    -13.4309E-03     17.0257E-03    -13.7810E-03     27.0183E-03    -13.3634E-03     16.8455E-03
            2409     9.76837E-03     2.93305E-03    -12.6724E+06    -54.5022E+06    -10.7414E+06    -13.9022E+06    -13.7359E-03     27.1054E-03    -13.3694E-03     14.9075E-03    -13.7053E-03     26.8672E-03    -13.3257E-03     14.7260E-03
            2410     8.88072E-03     2.93166E-03    -12.4478E+06    -63.2274E+06    -15.1249E+06    -12.8866E+06    -13.6833E-03     27.0062E-03    -13.3229E-03     12.9664E-03    -13.6323E-03     26.7302E-03    -13.2888E-03     12.7984E-03
            2411     7.99288E-03     2.93042E-03    -12.6149E+06    -69.8206E+06    -16.8962E+06    -11.1810E+06    -13.6177E-03     26.9053E-03    -13.2876E-03     11.2132E-03    -13.5553E-03     26.5992E-03    -13.2526E-03     11.0676E-03
            2412     7.10504E-03     2.92939E-03    -12.9191E+06    -72.7062E+06    -17.1837E+06    -9.57966E+06    -13.5391E-03     26.7953E-03    -13.2562E-03     9.62566E-03    -13.4736E-03     26.4755E-03    -13.2180E-03     9.50100E-03
            2413     6.21712E-03     2.92851E-03    -13.0243E+06    -74.2776E+06    -16.5564E+06    -8.02502E+06    -13.4572E-03     26.6869E-03    -13.2297E-03     8.16619E-03    -13.3908E-03     26.3585E-03    -13.1859E-03     8.06182E-03
            2414     5.32909E-03     2.92778E-03    -12.9928E+06    -74.5456E+06    -15.7197E+06    -6.45620E+06    -13.3794E-03     26.5846E-03    -13.2053E-03     6.81745E-03    -13.3136E-03     26.2536E-03    -13.1569E-03     6.73351E-03
            2415     4.44106E-03     2.92717E-03    -12.9106E+06    -74.7007E+06    -14.8104E+06    -5.03636E+06    -13.3082E-03     26.4930E-03    -13.1847E-03     5.56322E-03    -13.2431E-03     26.1597E-03    -13.1318E-03     5.49774E-03
            2416     3.55288E-03     2.92667E-03    -12.7244E+06    -74.5624E+06    -14.0387E+06    -3.71768E+06    -13.2470E-03     26.4143E-03    -13.1673E-03     4.38362E-03    -13.1822E-03     26.0803E-03    -13.1109E-03     4.33528E-03
            2417     2.66474E-03     2.92630E-03    -12.3887E+06    -74.0069E+06    -13.3576E+06    -2.65693E+06    -13.2009E-03     26.3538E-03    -13.1529E-03     3.25844E-03    -13.1362E-03     26.0211E-03    -13.0944E-03     3.22390E-03
            2418     1.77649E-03     2.92599E-03    -12.0412E+06    -73.4030E+06    -12.5046E+06    -1.89042E+06    -13.1665E-03     26.3099E-03    -13.1433E-03     2.17417E-03    -13.1022E-03     25.9784E-03    -13.0820E-03     2.14961E-03
            2419     888.268E-06     2.92587E-03    -11.7006E+06    -72.6761E+06    -11.7708E+06    -1.01008E+06    -13.1326E-03     26.2807E-03    -13.1481E-03     1.18473E-03    -13.0686E-03     25.9513E-03    -13.0846E-03     1.17161E-03
            2420     16.8388E-03     1.97754E-03    -3.43887E+06     85.7445E+06     58.2280E+06     6.45608E+06    -25.9335E-03     41.8616E-03    -15.9281E-03     27.3413E-03    -26.1821E-03     42.2347E-03    -15.7563E-03     27.3779E-03
            2421     15.9563E-03     1.97294E-03    -4.62311E+06     75.3363E+06     47.2441E+06     10.1196E+06    -19.5705E-03     35.0607E-03    -15.4902E-03     30.8671E-03    -19.7895E-03     35.3940E-03    -15.3565E-03     30.9666E-03
            2422     15.0701E-03     1.97255E-03    -1.93869E+06     67.4051E+06     31.0666E+06     6.72664E+06    -17.4146E-03     32.6313E-03    -15.2167E-03     28.0681E-03    -17.5747E-03     32.9332E-03    -15.1563E-03     28.1388E-03
            2423     14.1847E-03     1.96873E-03    -1.66000E+06     48.0139E+06     12.7226E+06     1.14902E+06    -17.0548E-03     32.0636E-03    -15.0088E-03     25.9911E-03    -17.1549E-03     32.2910E-03    -15.0124E-03     25.9966E-03
            2424     13.2993E-03     1.96551E-03    -4.13466E+06     13.0650E+06    -1.33647E+06    -5.35854E+06    -16.7643E-03     31.6219E-03    -14.8576E-03     22.0060E-03    -16.8040E-03     31.6968E-03    -14.8772E-03     21.9309E-03
            2425     12.4142E-03     1.96267E-03    -6.05604E+06    -14.5901E+06    -10.3711E+06    -11.5842E+06    -16.4373E-03     31.1651E-03    -14.7278E-03     18.5705E-03    -16.4326E-03     31.1169E-03    -14.7497E-03     18.4168E-03
            2426     11.5290E-03     1.96067E-03    -7.18423E+06    -31.9647E+06    -16.6958E+06    -13.5538E+06    -16.0931E-03     30.6985E-03    -14.6054E-03     15.7406E-03    -16.0592E-03     30.5739E-03    -14.6321E-03     15.5628E-03
            2427     10.6432E-03     1.95883E-03    -8.48527E+06    -45.5328E+06    -22.3855E+06    -12.8410E+06    -15.7818E-03     30.2732E-03    -14.4914E-03     13.3906E-03    -15.7262E-03     30.0906E-03    -14.5250E-03     13.2226E-03
            2428     9.75736E-03     1.95747E-03    -10.6157E+06    -56.5345E+06    -27.6040E+06    -11.8397E+06    -15.5035E-03     29.8904E-03    -14.3868E-03     11.4459E-03    -15.4349E-03     29.6633E-03    -14.4275E-03     11.2914E-03
            2429     8.87104E-03     1.95625E-03    -13.1575E+06    -66.4927E+06    -29.5203E+06    -10.5603E+06    -15.2434E-03     29.5500E-03    -14.3066E-03     9.80002E-03    -15.1702E-03     29.2796E-03    -14.3387E-03     9.66241E-03
            2430     7.98466E-03     1.95529E-03    -15.0392E+06    -72.7126E+06    -29.8806E+06    -9.03148E+06    -15.0046E-03     29.2410E-03    -14.2364E-03     8.38015E-03    -14.9312E-03     28.9426E-03    -14.2586E-03     8.26256E-03
            2431     7.09797E-03     1.95445E-03    -16.1741E+06    -75.3357E+06    -29.4134E+06    -7.81444E+06    -14.7887E-03     28.9614E-03    -14.1727E-03     7.14025E-03    -14.7178E-03     28.6508E-03    -14.1871E-03     7.03860E-03
            2432     6.21113E-03     1.95376E-03    -16.7992E+06    -76.8793E+06    -26.9743E+06    -6.75257E+06    -14.5995E-03     28.7243E-03    -14.1248E-03     6.02232E-03    -14.5330E-03     28.4034E-03    -14.1239E-03     5.93455E-03
            2433     5.32416E-03     1.95319E-03    -16.9495E+06    -77.1608E+06    -24.5198E+06    -5.61977E+06    -14.4325E-03     28.5152E-03    -14.0828E-03     5.00860E-03    -14.3699E-03     28.1896E-03    -14.0689E-03     4.93560E-03
            2434     4.43697E-03     1.95271E-03    -16.8474E+06    -77.1343E+06    -22.3065E+06    -4.35792E+06    -14.2914E-03     28.3385E-03    -14.0471E-03     4.06973E-03    -14.2314E-03     28.0096E-03    -14.0224E-03     4.01312E-03
            2435     3.54975E-03     1.95234E-03    -16.7329E+06    -76.6912E+06    -20.4087E+06    -3.27985E+06    -14.1764E-03     28.1940E-03    -14.0176E-03     3.19593E-03    -14.1193E-03     27.8643E-03    -13.9842E-03     3.15333E-03
            2436     2.66237E-03     1.95202E-03    -16.6127E+06    -75.8091E+06    -18.8301E+06    -2.40250E+06    -14.0840E-03     28.0783E-03    -13.9942E-03     2.37126E-03    -14.0299E-03     27.7506E-03    -13.9544E-03     2.34006E-03
            2437     1.77497E-03     1.95183E-03    -16.5661E+06    -75.1356E+06    -17.6818E+06    -1.64262E+06    -14.0206E-03     27.9977E-03    -13.9770E-03     1.58375E-03    -13.9689E-03     27.6716E-03    -13.9325E-03     1.56242E-03
            2438     887.493E-06     1.95167E-03    -16.5313E+06    -74.6412E+06    -16.9741E+06    -1.02494E+06    -13.9751E-03     27.9440E-03    -13.9689E-03     851.768E-06    -13.9248E-03     27.6194E-03    -13.9216E-03     838.468E-06
            2439     16.8090E-03     994.329E-06    -545.861E+03     82.9053E+06     58.5355E+06     4.38045E+06    -23.7238E-03     41.0970E-03    -17.3732E-03     30.0842E-03    -23.9443E-03     41.4397E-03    -17.1999E-03     30.1140E-03
            2440     15.9254E-03     990.800E-06     550.602E+03     77.0084E+06     47.9367E+06     2.87093E+06    -22.5265E-03     39.5048E-03    -16.9783E-03     27.0222E-03    -22.7125E-03     39.8263E-03    -16.8511E-03     27.0435E-03
            2441     15.0457E-03     989.744E-06     3.63748E+06     69.1153E+06     24.8830E+06     2.64028E+06    -21.8909E-03     38.4315E-03    -16.5407E-03     20.4769E-03    -22.0119E-03     38.7381E-03    -16.5218E-03     20.5026E-03
            2442     14.1656E-03     986.571E-06     4.75143E+06     52.2805E+06    -549.834E+03     2.34910E+06    -20.9769E-03     37.0984E-03    -16.1215E-03     16.5944E-03    -21.0295E-03     37.3547E-03    -16.2069E-03     16.6195E-03
            2443     13.2846E-03     984.226E-06     4.18518E+06     20.5341E+06    -18.9021E+06    -2.61240E+06    -19.8001E-03     35.5963E-03    -15.7961E-03     13.0449E-03    -19.7822E-03     35.7208E-03    -15.9265E-03     13.0078E-03
            2444     12.4021E-03     982.584E-06     1.64043E+06    -11.7152E+06    -29.2759E+06    -7.37700E+06    -18.8133E-03     34.3694E-03    -15.5561E-03     10.5966E-03    -18.7461E-03     34.3512E-03    -15.6879E-03     10.4991E-03
            2445     11.5186E-03     981.223E-06    -2.65632E+06    -33.3388E+06    -34.4035E+06    -8.66929E+06    -18.0032E-03     33.3678E-03    -15.3645E-03     8.76191E-03    -17.9185E-03     33.2550E-03    -15.4844E-03     8.64834E-03
            2446     10.6347E-03     980.241E-06    -6.86178E+06    -47.8935E+06    -36.4377E+06    -7.93601E+06    -17.3320E-03     32.5388E-03    -15.2068E-03     7.34058E-03    -17.2442E-03     32.3622E-03    -15.3096E-03     7.23690E-03
            2447     9.74986E-03     979.384E-06    -10.3155E+06    -58.9149E+06    -37.1705E+06    -6.43577E+06    -16.7802E-03     31.8535E-03    -15.0733E-03     6.19279E-03    -16.6925E-03     31.6278E-03    -15.1588E-03     6.10876E-03
            2448     8.86485E-03     978.726E-06    -13.3698E+06    -68.4879E+06    -36.4329E+06    -5.46157E+06    -16.3289E-03     31.2933E-03    -14.9644E-03     5.25479E-03    -16.2436E-03     31.0231E-03    -15.0279E-03     5.18356E-03
            2449     7.97925E-03     978.176E-06    -15.9774E+06    -74.7103E+06    -35.5664E+06    -4.98214E+06    -15.9475E-03     30.8150E-03    -14.8675E-03     4.47310E-03    -15.8675E-03     30.5162E-03    -14.9138E-03     4.40822E-03
            2450     7.09342E-03     977.720E-06    -17.8768E+06    -77.0621E+06    -35.5270E+06    -4.34366E+06    -15.6244E-03     30.3990E-03    -14.7746E-03     3.79845E-03    -15.5506E-03     30.0911E-03    -14.8145E-03     3.74194E-03
            2451     6.20731E-03     977.322E-06    -19.2682E+06    -78.3839E+06    -34.0422E+06    -3.98169E+06    -15.3491E-03     30.0492E-03    -14.7001E-03     3.19694E-03    -15.2824E-03     29.7346E-03    -14.7288E-03     3.14521E-03
            2452     5.32092E-03     977.013E-06    -20.3222E+06    -79.1641E+06     -31.579E+06    -3.45657E+06    -15.1177E-03     29.7595E-03    -14.6418E-03     2.65054E-03    -15.0588E-03     29.4389E-03    -14.6554E-03     2.60566E-03
            2453     4.43442E-03     976.759E-06    -21.1090E+06    -78.9840E+06    -29.1009E+06    -2.64090E+06    -14.9259E-03     29.5190E-03    -14.5931E-03     2.15106E-03    -14.8747E-03     29.1969E-03    -14.5935E-03     2.11678E-03
            2454     3.54770E-03     976.539E-06    -21.6248E+06    -78.2217E+06    -26.7946E+06    -1.96554E+06    -14.7686E-03     29.3219E-03    -14.5533E-03     1.68574E-03    -14.7244E-03     29.0010E-03    -14.5425E-03     1.66022E-03
            2455     2.66091E-03     976.396E-06    -21.9305E+06    -77.2466E+06    -24.9475E+06    -1.40135E+06    -14.6435E-03     29.1652E-03    -14.5217E-03     1.24763E-03    -14.6049E-03     28.8469E-03    -14.5026E-03     1.22944E-03
            2456     1.77397E-03     976.254E-06    -22.1218E+06    -76.3824E+06    -23.5441E+06    -925.240E+03    -14.5543E-03     29.0534E-03    -14.4992E-03     831.966E-06    -14.5200E-03     28.7377E-03    -14.4740E-03     819.963E-06
            2457     887.013E-06     976.197E-06    -22.2552E+06    -76.0998E+06    -22.7319E+06    -544.761E+03    -14.5006E-03     28.9862E-03    -14.4856E-03     442.923E-06    -14.4684E-03     28.6709E-03    -14.4567E-03     435.883E-06


