********************************************************************************
Field Output Report, written Tue May 28 18:58:42 2024

Source 1
---------

   ODB: G:/Abaqus_calc_2019/1740/Vel_20/odb/zeides_2a_24_red_2500_cal_30_vel_20_fric_025.odb
   Step: Step-1
   Frame: Increment   9365938: Step Time =   0.8847

Loc 1 : Nodal values from source 1

Output sorted by column "Nodal Label".

Field Output reported at nodes for region: DIE_2A_24_D0_36-1.Region_1
   Computation algorithm: EXTRAPOLATE_COMPUTE_AVERAGE
   Averaged at nodes
   Averaging regions: ODB_REGIONS

      Node Label     COORD.COOR1     COORD.COOR2
                          @Loc 1          @Loc 1
-------------------------------------------------
               1     16.3068E-03     212.159E-03


Field Output reported at nodes for region: DIE_2A_24_D0_36-1.Region_2
   Computation algorithm: EXTRAPOLATE_COMPUTE_AVERAGE
   Averaged at nodes
   Averaging regions: ODB_REGIONS

      Node Label     COORD.COOR1     COORD.COOR2
                          @Loc 1          @Loc 1
-------------------------------------------------
               1     16.3068E-03     212.159E-03


Field Output reported at nodes for part: WIRE-1
   Computation algorithm: EXTRAPOLATE_COMPUTE_AVERAGE
   Averaged at nodes
   Averaging regions: ODB_REGIONS

      Node Label     COORD.COOR1     COORD.COOR2           S.S11           S.S22           S.S33           S.S12         PE.PE11         PE.PE22         PE.PE33         PE.PE12         LE.LE11         LE.LE22         LE.LE33         LE.LE12
                          @Loc 1          @Loc 1          @Loc 1          @Loc 1          @Loc 1          @Loc 1          @Loc 1          @Loc 1          @Loc 1          @Loc 1          @Loc 1          @Loc 1          @Loc 1          @Loc 1
-------------------------------------------------------------------------------------------------------------------------------------------------------------------------------------------------------------------------------------------------
               1    -11.9703E-09     96.6157E-03    -140.701E+06    -257.651E+06    -140.822E+06     34.9520E+03    -290.051E-03     580.756E-03    -290.705E-03     9.87759E-03    -290.190E-03     579.890E-03    -290.832E-03     8.21499E-03
               2     13.4693E-03     99.3409E-03    -3.64494E+06     71.9184E+06     91.7576E+06    -390.855E+03    -289.686E-03     580.045E-03    -290.358E-03     57.2059E-03    -291.097E-03     581.432E-03    -289.999E-03     37.8287E-03
               3     13.5058E-03     197.742E-03    -30.8646E+06     17.5763E+06     63.2796E+06    -13.8709E+06    -174.228E-03     464.238E-03    -290.010E-03    -42.8623E-03    -174.423E-03     464.358E-03    -289.674E-03    -43.0553E-03
               4    -10.3667E-06     194.088E-03     42.1964E+06    -17.3165E+06     26.0218E+06    -5.19971E+06    -312.282E-03     633.013E-03    -320.731E-03    -43.6969E-03    -312.350E-03     632.523E-03    -320.637E-03    -44.6033E-03
               5    -506.670E-09     7.48013E-15    -68.0235E+06    -236.005E+06    -67.0166E+06     127.298E+03    -250.341E-03     500.280E-03    -249.939E-03     914.003E-06    -250.241E-03     499.296E-03    -249.833E-03     801.203E-06
               6     13.3112E-03     7.48013E-15     7.77170E+06     89.7858E+06     104.859E+06     3.33956E+06    -542.989E-03     834.599E-03    -291.610E-03     165.086E-03    -546.116E-03     837.751E-03    -291.227E-03     131.698E-03
               7     673.132E-06     96.6313E-03    -139.563E+06    -254.196E+06    -137.227E+06     161.987E+03    -290.315E-03     580.882E-03    -290.567E-03     16.2332E-03    -290.488E-03     580.055E-03    -290.682E-03     13.5659E-03
               8     1.34608E-03     96.6670E-03    -136.272E+06    -243.349E+06    -126.925E+06     197.752E+03    -290.525E-03     580.965E-03    -290.440E-03     29.3464E-03    -290.798E-03     580.258E-03    -290.524E-03     24.5274E-03
               9     2.01959E-03     96.7219E-03    -130.790E+06    -226.594E+06    -111.190E+06     128.286E+03    -290.533E-03     580.983E-03    -290.449E-03     42.9621E-03    -290.963E-03     580.466E-03    -290.487E-03     35.9259E-03
              10     2.69256E-03     96.7979E-03    -123.460E+06    -206.018E+06    -91.9216E+06     235.990E+03    -290.801E-03     581.262E-03    -290.461E-03     56.4412E-03    -291.432E-03     580.991E-03    -290.443E-03     47.2881E-03
              11     3.36566E-03     96.8938E-03    -115.008E+06    -182.771E+06    -71.1705E+06     294.183E+03    -291.090E-03     581.582E-03    -290.492E-03     69.0923E-03    -291.954E-03     581.596E-03    -290.417E-03     57.9512E-03
              12     4.03892E-03     97.0081E-03    -105.975E+06    -160.382E+06    -50.7971E+06     250.259E+03    -291.318E-03     581.838E-03    -290.520E-03     80.5141E-03    -292.428E-03     582.150E-03    -290.388E-03     67.5380E-03
              13     4.71250E-03     97.1385E-03    -96.7720E+06    -134.558E+06    -31.6019E+06     333.641E+03    -291.639E-03     582.174E-03    -290.535E-03     90.6654E-03    -293.003E-03     582.808E-03    -290.357E-03     75.9989E-03
              14     5.38574E-03     97.2847E-03    -87.2904E+06    -105.094E+06    -13.2251E+06     447.876E+03    -291.939E-03     582.483E-03    -290.544E-03     99.6751E-03    -293.556E-03     583.456E-03    -290.331E-03     83.4871E-03
              15     6.05899E-03     97.4439E-03    -77.8015E+06    -75.5819E+06     4.12880E+06     507.747E+03    -292.200E-03     582.750E-03    -290.550E-03     107.721E-03    -294.066E-03     584.059E-03    -290.307E-03     90.1184E-03
              16     6.73252E-03     97.6143E-03    -68.3853E+06    -41.5220E+06     20.7575E+06     700.960E+03    -292.299E-03     582.838E-03    -290.539E-03     114.710E-03    -294.413E-03     584.502E-03    -290.276E-03     95.7872E-03
              17     7.40600E-03     97.7940E-03    -58.8174E+06    -4.12794E+06     36.7908E+06     988.226E+03    -292.229E-03     582.735E-03    -290.505E-03     120.692E-03    -294.590E-03     584.765E-03    -290.230E-03     100.510E-03
              18     8.08016E-03     97.9811E-03    -49.5671E+06     18.7328E+06     48.5630E+06     1.25664E+06    -292.368E-03     582.835E-03    -290.467E-03     125.628E-03    -294.948E-03     585.165E-03    -290.180E-03     104.181E-03
              19     8.75417E-03     98.1738E-03    -41.6530E+06     24.5219E+06     56.2971E+06     729.738E+03    -292.673E-03     583.125E-03    -290.452E-03     129.537E-03    -295.454E-03     585.682E-03    -290.146E-03     106.756E-03
              20     9.42633E-03     98.3720E-03    -35.1084E+06     35.9837E+06     65.5691E+06    -184.013E+03    -292.664E-03     583.118E-03    -290.454E-03     132.047E-03    -295.661E-03     585.928E-03    -290.128E-03     107.896E-03
              21     10.0997E-03     98.5695E-03    -29.0486E+06     47.8470E+06     76.6234E+06    -203.424E+03    -292.221E-03     582.686E-03    -290.465E-03     132.642E-03    -295.406E-03     585.716E-03    -290.110E-03     107.262E-03
              22     10.7736E-03     98.7638E-03    -21.7416E+06     52.6214E+06     86.0788E+06     849.236E+03    -291.531E-03     581.997E-03    -290.466E-03     130.403E-03    -294.830E-03     585.156E-03    -290.081E-03     103.937E-03
              23     11.4494E-03     98.9483E-03    -14.2863E+06     61.4375E+06     92.0524E+06     2.04391E+06    -290.666E-03     581.102E-03    -290.436E-03     122.140E-03    -293.862E-03     584.198E-03    -290.044E-03     95.4632E-03
              24     12.1216E-03     99.1118E-03    -9.25764E+06      71.518E+06     95.4397E+06     1.14210E+06    -289.999E-03     580.396E-03    -290.397E-03     116.552E-03    -293.334E-03     583.675E-03    -290.010E-03     88.3997E-03
              25     12.7956E-03     99.2726E-03    -5.49207E+06     73.6460E+06     94.3042E+06    -265.442E+03    -289.746E-03     580.116E-03    -290.370E-03     87.1726E-03    -292.258E-03     582.597E-03    -289.997E-03     62.5122E-03
              26     13.4676E-03     101.037E-03    -3.27636E+06     72.4743E+06     92.2292E+06    -177.580E+03    -288.780E-03     579.158E-03    -290.379E-03     57.3497E-03    -290.196E-03     580.552E-03    -290.018E-03     37.9751E-03
              27     13.4702E-03     102.727E-03    -826.989E+03     74.1619E+06     93.9336E+06     448.490E+03    -288.233E-03     578.589E-03    -290.356E-03     58.2902E-03    -289.649E-03     579.993E-03    -289.992E-03     38.9793E-03
              28     13.4689E-03     104.421E-03    -3.02528E+06     72.9175E+06     92.7655E+06    -420.723E+03    -289.437E-03     579.774E-03    -290.337E-03     56.9588E-03    -290.842E-03     581.159E-03    -289.975E-03     37.6151E-03
              29     13.4682E-03     106.118E-03    -3.11753E+06     73.1947E+06     92.7121E+06     511.672E+03    -288.984E-03     579.354E-03    -290.370E-03     57.5056E-03    -290.395E-03     580.745E-03    -290.008E-03     38.2197E-03
              30     13.4698E-03     107.808E-03    -1.48591E+06     74.3743E+06     94.5423E+06    -235.328E+03    -288.646E-03     579.010E-03    -290.364E-03     58.2492E-03    -290.070E-03     580.419E-03    -289.997E-03     38.8595E-03
              31     13.4683E-03     109.502E-03    -2.20440E+06     73.8601E+06     93.2535E+06    -15.1062E+03    -289.525E-03     579.853E-03    -290.328E-03     56.9638E-03    -290.928E-03     581.239E-03    -289.966E-03     37.6329E-03
              32     13.4701E-03     111.199E-03    -1.94137E+06     74.7811E+06     94.0310E+06     378.250E+03    -289.338E-03     579.685E-03    -290.347E-03     56.5196E-03    -290.735E-03     581.068E-03    -289.983E-03     37.2329E-03
              33     13.4673E-03     112.891E-03    -3.14615E+06     74.0058E+06     93.6879E+06    -339.590E+03    -288.676E-03     579.054E-03    -290.378E-03     57.1372E-03    -290.094E-03     580.452E-03    -290.012E-03     37.7672E-03
              34     13.4704E-03     114.585E-03    -2.46552E+06     74.2984E+06     92.9762E+06     227.805E+03    -288.650E-03     579.011E-03    -290.361E-03     58.3682E-03    -290.079E-03     580.426E-03    -290.001E-03     38.9857E-03
              35     13.4677E-03     116.278E-03    -2.65178E+06     74.2847E+06     92.9652E+06    -184.302E+03    -289.127E-03     579.469E-03    -290.342E-03     57.9076E-03    -290.537E-03     580.864E-03    -289.981E-03     38.6577E-03
              36     13.4704E-03     117.973E-03    -2.13004E+06     74.6526E+06     94.1183E+06     671.720E+03    -288.785E-03     579.130E-03    -290.345E-03     57.8620E-03    -290.193E-03     580.522E-03    -289.979E-03     38.6703E-03
              37     13.4683E-03     119.664E-03    -2.99414E+06     74.5807E+06     94.6609E+06    -145.291E+03    -289.229E-03     579.575E-03    -290.346E-03     57.8886E-03    -290.642E-03     580.968E-03    -289.976E-03     38.6673E-03
              38     13.4694E-03     121.362E-03    -1.20451E+06     72.3185E+06     94.8456E+06     621.948E+03    -288.863E-03     579.223E-03    -290.360E-03     57.2386E-03    -290.246E-03     580.584E-03    -289.989E-03     38.1674E-03
              39     13.4691E-03     123.050E-03    -2.23072E+06     71.2316E+06     95.0788E+06    -261.378E+03    -288.945E-03     579.303E-03    -290.358E-03     57.4295E-03    -290.351E-03     580.678E-03    -289.983E-03     38.1281E-03
              40     13.4687E-03     124.747E-03    -3.86911E+06     71.4585E+06     93.8048E+06    -279.217E+03    -289.718E-03     580.056E-03    -290.339E-03     56.5242E-03    -291.122E-03     581.429E-03    -289.968E-03     37.1799E-03
              41     13.4695E-03     126.442E-03    -1.80887E+06     72.9548E+06     94.8210E+06     579.419E+03    -289.029E-03     579.380E-03    -290.351E-03     56.8884E-03    -290.433E-03     580.762E-03    -289.980E-03     37.5600E-03
              42     13.4687E-03     128.134E-03    -2.63080E+06     75.0382E+06     94.9015E+06    -66.4455E+03    -288.861E-03     579.208E-03    -290.347E-03     57.2207E-03    -290.283E-03     580.612E-03    -289.978E-03     37.8158E-03
              43     13.4699E-03     129.828E-03    -2.26313E+06     75.6043E+06     95.0293E+06    -809.110E+03    -288.764E-03     579.101E-03    -290.337E-03     56.7008E-03    -290.191E-03     580.513E-03    -289.968E-03     37.1558E-03
              44     13.4688E-03     131.520E-03    -2.16531E+06     75.9183E+06     96.0099E+06    -400.544E+03    -288.633E-03     578.967E-03    -290.334E-03     57.7348E-03    -290.070E-03     580.387E-03    -289.961E-03     38.2423E-03
              45     13.4703E-03     133.217E-03    -1.59613E+06     76.9759E+06     96.2670E+06     881.234E+03    -288.298E-03     578.622E-03    -290.324E-03     58.0369E-03    -289.715E-03     580.028E-03    -289.952E-03     38.8233E-03
              46     13.4694E-03     134.905E-03    -2.48187E+06     76.6131E+06     96.5138E+06    -282.440E+03    -289.196E-03     579.519E-03    -290.323E-03     57.7280E-03    -290.613E-03     580.919E-03    -289.947E-03     38.4579E-03
              47     13.4688E-03     136.604E-03    -3.96853E+06     75.2434E+06     94.8887E+06     204.893E+03    -289.617E-03     579.944E-03    -290.327E-03     57.4108E-03    -291.026E-03     581.331E-03    -289.956E-03     38.2200E-03
              48     13.4699E-03     138.297E-03    -2.34189E+06     74.9234E+06     95.2277E+06     326.939E+03    -288.569E-03     578.891E-03    -290.322E-03     58.2067E-03    -289.990E-03     580.294E-03    -289.952E-03     38.9365E-03
              49     13.4699E-03     139.987E-03    -2.05395E+06     75.0076E+06     96.3490E+06    -187.928E+03    -288.819E-03     579.131E-03    -290.311E-03     57.1733E-03    -290.226E-03     580.517E-03    -289.935E-03     37.9467E-03
              50     13.4692E-03     141.686E-03    -2.47332E+06     73.6696E+06     95.4502E+06     210.655E+03    -288.101E-03     578.451E-03    -290.350E-03     56.3440E-03    -289.499E-03     579.825E-03    -289.976E-03     37.1495E-03
              51     13.4694E-03     143.370E-03    -2.73777E+06     73.4539E+06     95.4437E+06    -547.530E+03    -287.447E-03     577.792E-03    -290.346E-03     58.4572E-03    -288.888E-03     579.208E-03    -289.971E-03     39.0495E-03
              52     13.4710E-03     145.065E-03    -1.51461E+06     73.4269E+06     96.9260E+06    -76.9094E+03    -288.581E-03     578.876E-03    -290.296E-03     57.3009E-03    -289.992E-03     580.262E-03    -289.915E-03     37.9798E-03
              53     13.4690E-03     146.759E-03    -2.69463E+06     75.0626E+06     97.2472E+06     838.448E+03    -288.849E-03     579.147E-03    -290.298E-03     57.2360E-03    -290.258E-03     580.531E-03    -289.917E-03     38.0221E-03
              54     13.4709E-03     148.451E-03    -4.03504E+06     78.0002E+06     97.4676E+06     419.279E+03    -288.072E-03     578.366E-03    -290.294E-03     57.6287E-03    -289.503E-03     579.777E-03    -289.914E-03     38.3931E-03
              55     13.4703E-03     150.142E-03    -1.51630E+06     80.6638E+06     100.517E+06     368.959E+03    -288.121E-03     578.408E-03    -290.287E-03     56.8280E-03    -289.551E-03     579.827E-03    -289.899E-03     37.4591E-03
              56     13.4703E-03     151.835E-03    -2.84144E+06     84.5504E+06     100.143E+06     1.59434E+06    -287.869E-03     578.166E-03    -290.297E-03     56.5144E-03    -289.291E-03     579.587E-03    -289.915E-03     37.3747E-03
              57     13.4704E-03     153.528E-03    -3.10163E+06     88.8208E+06     100.846E+06     563.594E+03    -286.408E-03     576.741E-03    -290.334E-03     56.6006E-03    -287.848E-03     578.193E-03    -289.954E-03     37.4263E-03
              58     13.4701E-03     155.212E-03    -1.35717E+06     90.5056E+06     102.670E+06    -848.913E+03    -285.500E-03     575.841E-03    -290.342E-03     57.4705E-03    -286.965E-03     577.325E-03    -289.958E-03     38.1052E-03
              59     13.4716E-03     156.903E-03    -1.51466E+06     92.2903E+06     103.298E+06     1.02590E+06    -285.276E-03     575.595E-03    -290.319E-03     56.7246E-03    -286.728E-03     577.070E-03    -289.934E-03     37.5100E-03
              60     13.4704E-03     158.588E-03    -3.31358E+06     96.6989E+06     105.887E+06     848.313E+03    -284.574E-03     574.914E-03    -290.340E-03     56.3023E-03    -286.023E-03     576.388E-03    -289.946E-03     37.3274E-03
              61     13.4716E-03     160.277E-03    -3.23830E+06     100.469E+06     107.956E+06     1.21430E+06    -282.288E-03     572.619E-03    -290.331E-03     57.8795E-03    -283.762E-03     574.126E-03    -289.933E-03     39.0284E-03
              62     13.4743E-03     161.952E-03    -3.04459E+06     105.651E+06     111.187E+06     1.13904E+06    -280.987E-03     571.225E-03    -290.238E-03     58.5847E-03    -282.490E-03     572.771E-03    -289.831E-03     39.6808E-03
              63     13.4749E-03     163.636E-03    -3.11458E+06     110.121E+06     113.587E+06     805.320E+03    -280.483E-03     570.568E-03    -290.085E-03     58.3887E-03    -281.978E-03     572.113E-03    -289.672E-03     39.6704E-03
              64     13.4800E-03     165.311E-03    -2.86313E+06     113.791E+06     115.004E+06     788.118E+03    -279.469E-03     569.368E-03    -289.899E-03     58.9837E-03    -280.964E-03     570.923E-03    -289.485E-03     40.4537E-03
              65     13.4804E-03     166.991E-03    -3.09402E+06     117.625E+06     117.161E+06     1.58012E+06    -279.322E-03     569.035E-03    -289.713E-03     59.0090E-03    -280.823E-03     570.602E-03    -289.293E-03     40.5509E-03
              66     13.4848E-03     168.665E-03    -2.08168E+06     122.388E+06     120.583E+06     1.74152E+06    -278.483E-03     568.001E-03    -289.518E-03     59.1725E-03    -279.999E-03     569.595E-03    -289.089E-03     40.6445E-03
              67     13.4874E-03     170.339E-03    -3.76430E+06     123.053E+06     121.057E+06     -640.56E+03    -278.090E-03     567.371E-03    -289.281E-03     59.6047E-03    -279.643E-03     568.997E-03    -288.849E-03     40.7953E-03
              68     13.4909E-03     172.014E-03    -3.47504E+06     126.189E+06     123.907E+06     789.452E+03    -278.287E-03     567.326E-03    -289.040E-03     60.5152E-03    -279.857E-03     568.972E-03    -288.598E-03     41.7116E-03
              69     13.4942E-03     173.690E-03    -3.57905E+06     128.566E+06     126.879E+06     248.025E+03    -278.365E-03     567.142E-03    -288.777E-03     62.6897E-03    -279.946E-03     568.799E-03    -288.324E-03     44.0668E-03
              70     13.4985E-03     175.363E-03    -2.90500E+06     126.499E+06     130.884E+06    -152.801E+03    -280.664E-03     569.112E-03    -288.448E-03     64.5166E-03    -282.240E-03     570.748E-03    -287.973E-03     46.0151E-03
              71     13.5021E-03     177.044E-03    -3.54164E+06     125.641E+06     136.991E+06     1.64976E+06    -285.236E-03     573.346E-03    -288.110E-03     64.5683E-03    -286.796E-03     574.942E-03    -287.602E-03     46.1538E-03
              72     13.5040E-03     178.736E-03    -4.85002E+06     122.209E+06     136.689E+06    -386.617E+03    -291.090E-03     578.902E-03    -287.813E-03     64.8980E-03    -292.647E-03     580.480E-03    -287.299E-03     46.2123E-03
              73     13.5047E-03     180.431E-03    -2.86799E+06     117.709E+06     131.817E+06    -1.18303E+06    -299.316E-03     586.824E-03    -287.508E-03     66.4339E-03    -300.850E-03     588.384E-03    -287.016E-03     47.5159E-03
              74     13.5055E-03     182.152E-03    -3.35346E+06     111.075E+06     124.404E+06    -1.62325E+06    -309.566E-03     596.752E-03    -287.187E-03     68.5322E-03    -311.049E-03     598.258E-03    -286.721E-03     49.7363E-03
              75     13.5055E-03     183.887E-03    -2.88765E+06     101.056E+06     117.199E+06    -2.21026E+06    -318.628E-03     605.550E-03    -286.922E-03     70.4380E-03    -320.066E-03     606.997E-03    -286.478E-03     51.5936E-03
              76     13.5058E-03     185.633E-03    -2.95819E+06     87.8768E+06     112.146E+06    -2.44314E+06    -327.253E-03     613.944E-03    -286.690E-03     72.7722E-03    -328.674E-03     615.341E-03    -286.253E-03     53.6562E-03
              77     13.5059E-03     187.393E-03    -2.61199E+06     72.3134E+06     113.889E+06    -2.81852E+06    -335.676E-03     622.157E-03    -286.481E-03     72.2342E-03    -337.024E-03     623.423E-03    -286.013E-03     53.2423E-03
              78     13.5072E-03     189.168E-03    -4.12592E+06     50.2127E+06     118.056E+06    -5.01192E+06    -341.417E-03     627.757E-03    -286.340E-03     71.3790E-03    -342.692E-03     628.853E-03    -285.817E-03     52.6463E-03
              79     13.5076E-03     190.948E-03     1.40729E+06     45.2224E+06     131.552E+06     3.55676E+06    -343.057E-03     629.340E-03    -286.283E-03     68.9901E-03    -344.247E-03     630.313E-03    -285.693E-03     50.9330E-03
              80     13.5099E-03     192.722E-03    -6.37512E+06     44.8281E+06     136.909E+06    -2.52186E+06    -338.255E-03     624.553E-03    -286.298E-03     62.5042E-03    -339.254E-03     625.291E-03    -285.669E-03     47.4609E-03
              81     13.5123E-03     194.484E-03     7.28437E+06     33.8208E+06     143.234E+06    -2.36964E+06    -327.172E-03     613.554E-03    -286.382E-03     56.0041E-03    -327.701E-03     613.813E-03    -285.725E-03     48.5648E-03
              82     13.5173E-03     196.228E-03     2.71778E+06     24.4409E+06     109.620E+06     908.729E+03    -247.309E-03     535.536E-03    -288.227E-03     4.77540E-03    -247.492E-03     535.576E-03    -287.718E-03     3.57681E-03
              83     12.6654E-03     197.617E-03    -30.0098E+06    -5.62319E+06     86.9099E+06    -8.06874E+06    -169.425E-03     462.311E-03    -292.886E-03    -96.0386E-03    -169.453E-03     462.179E-03    -292.400E-03    -97.3841E-03
              84     11.8717E-03     197.392E-03    -16.0187E+06     423.398E+03     131.930E+06    -7.93381E+06    -157.237E-03     455.472E-03    -298.236E-03    -185.652E-03    -157.070E-03     455.097E-03    -297.554E-03    -188.139E-03
              85     11.1246E-03     197.119E-03    -2.07192E+06     4.20428E+06     143.067E+06    -12.7546E+06    -142.990E-03     446.143E-03    -303.153E-03    -240.301E-03    -142.738E-03     445.631E-03    -302.441E-03    -242.644E-03
              86     10.3888E-03     196.846E-03     489.407E+03    -11.4471E+06     139.162E+06    -11.8731E+06    -135.531E-03     443.722E-03    -308.191E-03    -274.502E-03    -135.238E-03     443.096E-03    -307.479E-03    -276.602E-03
              87     9.66249E-03     196.578E-03     1.49131E+06    -3.38197E+06     145.095E+06    -11.3052E+06    -139.141E-03     452.310E-03    -313.169E-03    -306.421E-03    -138.866E-03     451.697E-03    -312.441E-03    -308.367E-03
              88     8.95284E-03     196.307E-03     1.45344E+06    -4.29965E+06     143.886E+06    -12.2443E+06    -148.682E-03     466.231E-03    -317.549E-03    -338.128E-03    -148.346E-03     465.526E-03    -316.826E-03    -340.247E-03
              89     8.25923E-03     196.043E-03     2.44691E+06    -4.68118E+06     140.672E+06    -14.2240E+06    -161.561E-03     482.629E-03    -321.067E-03    -367.074E-03    -161.127E-03     481.796E-03    -320.361E-03    -369.534E-03
              90     7.58167E-03     195.787E-03     3.47347E+06    -6.49591E+06     134.687E+06    -15.3365E+06    -176.821E-03     500.420E-03    -323.599E-03    -388.349E-03    -176.310E-03     499.452E-03    -322.921E-03    -391.147E-03
              91     6.92247E-03     195.537E-03     4.83491E+06    -8.54603E+06     126.470E+06    -15.8308E+06    -192.376E-03     517.648E-03    -325.271E-03    -398.678E-03    -191.775E-03     516.525E-03    -324.633E-03    -401.933E-03
              92     6.27141E-03     195.307E-03     5.67626E+06    -9.10202E+06     117.357E+06    -15.8155E+06    -209.432E-03     535.709E-03    -326.276E-03    -399.747E-03    -208.771E-03     534.494E-03    -325.685E-03    -403.399E-03
              93     5.62915E-03     195.092E-03     6.64489E+06     -8.2468E+06     107.762E+06    -16.2359E+06    -227.380E-03     553.998E-03    -326.618E-03    -393.021E-03    -226.717E-03     552.745E-03    -326.077E-03    -396.972E-03
              94     4.99521E-03     194.895E-03     9.07791E+06    -7.97755E+06     97.9848E+06    -17.2675E+06    -244.608E-03     570.967E-03    -326.359E-03    -377.041E-03    -243.957E-03     569.690E-03    -325.871E-03    -381.323E-03
              95     4.36541E-03     194.718E-03     12.2176E+06    -7.90618E+06     88.5889E+06    -18.2633E+06    -260.861E-03     586.502E-03    -325.641E-03    -352.484E-03    -260.262E-03     585.252E-03    -325.204E-03    -356.968E-03
              96     3.73931E-03     194.560E-03     15.3135E+06    -8.49517E+06     78.9060E+06    -18.6880E+06    -275.516E-03     600.080E-03    -324.564E-03    -320.217E-03    -275.022E-03     598.905E-03    -324.179E-03    -324.709E-03
              97     3.11510E-03     194.425E-03     18.7709E+06    -9.42205E+06     68.7234E+06    -18.5106E+06    -288.564E-03     611.780E-03    -323.215E-03    -280.162E-03    -288.213E-03     610.711E-03    -322.885E-03    -284.460E-03
              98     2.49332E-03     194.310E-03     22.5007E+06    -11.6083E+06     57.7941E+06    -17.7143E+06    -299.460E-03     621.149E-03    -321.689E-03    -232.560E-03    -299.268E-03     620.210E-03    -321.416E-03    -236.460E-03
              99     1.87142E-03     194.219E-03     26.4998E+06    -12.9355E+06     47.5932E+06    -16.0189E+06    -307.564E-03     627.718E-03    -320.154E-03    -178.736E-03    -307.516E-03     626.910E-03    -319.935E-03    -182.126E-03
             100     1.24943E-03     194.151E-03     29.5773E+06    -15.2609E+06     39.2896E+06    -12.5905E+06    -313.231E-03     631.969E-03    -318.738E-03    -120.683E-03    -313.308E-03     631.276E-03    -318.563E-03    -123.388E-03
             101     627.372E-06     194.111E-03     36.3845E+06    -17.5947E+06     30.7671E+06    -7.78674E+06    -313.910E-03     633.309E-03    -319.398E-03    -67.2428E-03    -314.010E-03     632.741E-03    -319.272E-03    -68.8545E-03
             102     5.50431E-06     192.310E-03    -38.3843E+06    -45.0403E+06    -36.9910E+06    -7.35151E+06    -284.637E-03     569.570E-03    -284.934E-03    -27.9244E-03    -284.880E-03     569.264E-03    -284.998E-03    -28.5278E-03
             103     280.252E-09     190.732E-03    -172.485E+06    -106.190E+06    -167.914E+06    -11.1728E+06    -242.223E-03     479.806E-03    -237.583E-03    -3.15861E-03    -242.727E-03     479.728E-03    -238.019E-03    -3.29258E-03
             104     703.955E-09     189.242E-03    -282.481E+06    -170.376E+06    -282.941E+06    -9.51802E+06    -225.622E-03     450.371E-03    -224.750E-03     9.55905E-03    -226.377E-03     450.335E-03    -225.508E-03     9.74535E-03
             105    -485.049E-09     187.760E-03    -311.161E+06    -217.644E+06    -307.543E+06    -5.02422E+06    -227.961E-03     455.289E-03    -227.328E-03     13.8539E-03    -228.754E-03     455.092E-03    -228.099E-03     14.1720E-03
             106     1.10193E-06     186.255E-03    -223.906E+06    -229.985E+06    -225.688E+06     1.07740E+06    -238.696E-03     476.553E-03    -237.857E-03     15.3540E-03    -239.160E-03     476.046E-03    -238.327E-03     15.5676E-03
             107    -635.115E-09     184.710E-03    -148.558E+06    -217.094E+06    -147.870E+06     2.85696E+06    -251.576E-03     502.145E-03    -250.568E-03     14.1199E-03    -251.797E-03     501.484E-03    -250.777E-03     14.0654E-03
             108     1.51285E-06     183.123E-03    -131.384E+06    -213.188E+06    -131.461E+06    -1.65021E+06    -262.581E-03     523.763E-03    -261.182E-03     12.5549E-03    -262.745E-03     523.079E-03    -261.340E-03     12.1807E-03
             109    -514.755E-09     181.510E-03    -135.640E+06    -225.383E+06    -136.072E+06    -1.94889E+06    -270.181E-03     539.827E-03    -269.646E-03     11.2131E-03    -270.341E-03     539.096E-03    -269.803E-03     10.6456E-03
             110     202.569E-09     179.873E-03    -143.098E+06    -239.423E+06    -142.574E+06    -1.86694E+06    -276.521E-03     553.056E-03    -276.535E-03     10.3088E-03    -276.689E-03     552.276E-03    -276.693E-03     9.62228E-03
             111     53.5776E-09     178.215E-03    -147.649E+06    -252.459E+06    -148.767E+06    -1.54644E+06    -283.405E-03     566.452E-03    -283.047E-03     10.7869E-03    -283.569E-03     565.623E-03    -283.211E-03     10.0138E-03
             112     123.417E-09     176.534E-03    -153.167E+06    -261.883E+06    -156.156E+06    -963.328E+03    -289.929E-03     579.894E-03    -289.964E-03     10.8686E-03    -290.097E-03     579.038E-03    -290.143E-03     9.95547E-03
             113    -414.106E-09     174.830E-03    -163.287E+06    -269.635E+06    -161.098E+06    -1.01819E+06    -295.724E-03     591.994E-03    -296.270E-03     10.6613E-03    -295.926E-03     591.124E-03    -296.448E-03     9.52529E-03
             114    -44.1747E-09     173.108E-03    -165.234E+06    -276.531E+06    -166.723E+06    -897.542E+03    -300.845E-03     601.025E-03    -300.180E-03     9.63217E-03    -301.039E-03     600.134E-03    -300.373E-03     8.23599E-03
             115     1.34444E-06     171.372E-03    -166.412E+06    -281.146E+06    -164.763E+06    -736.387E+03    -303.453E-03     605.758E-03    -302.305E-03     9.53603E-03    -303.649E-03     604.843E-03    -302.480E-03     8.08690E-03
             116    -1.13223E-06     169.636E-03    -162.481E+06    -286.319E+06    -164.958E+06    -653.267E+03    -303.324E-03     606.133E-03    -302.809E-03     7.89270E-03    -303.492E-03     605.188E-03    -302.983E-03     6.22627E-03
             117     1.57095E-06     167.900E-03    -162.441E+06    -290.256E+06    -161.298E+06    -185.445E+03    -302.065E-03     603.822E-03    -301.757E-03     8.39174E-03    -302.234E-03     602.853E-03    -301.907E-03     6.65943E-03
             118    -1.60732E-06     166.166E-03    -155.762E+06    -290.451E+06    -156.735E+06    -142.001E+03    -300.371E-03     601.126E-03    -300.755E-03     8.92372E-03    -300.512E-03     600.139E-03    -300.892E-03     7.34089E-03
             119     1.10144E-06     164.445E-03    -151.543E+06    -291.285E+06    -153.712E+06    -226.518E+03    -298.987E-03     597.657E-03    -298.670E-03     7.83375E-03    -299.112E-03     596.656E-03    -298.796E-03     6.08202E-03
             120    -194.910E-09     162.723E-03    -152.699E+06    -294.530E+06    -151.085E+06    -1.20902E+06    -296.970E-03     593.254E-03    -296.284E-03     8.54795E-03    -297.100E-03     592.234E-03    -296.391E-03     6.84840E-03
             121     206.494E-09     161.014E-03    -148.829E+06    -299.548E+06    -149.976E+06    -421.132E+03    -294.497E-03     589.755E-03    -295.258E-03     9.44130E-03    -294.603E-03     588.704E-03    -295.357E-03     7.75129E-03
             122    -1.26838E-06     159.307E-03    -148.599E+06    -302.058E+06    -144.183E+06     338.381E+03    -293.495E-03     587.804E-03    -294.309E-03     9.05902E-03    -293.604E-03     586.732E-03    -294.376E-03     7.39524E-03
             123     1.25855E-06     157.603E-03    -143.270E+06    -302.432E+06    -147.248E+06    -212.631E+03    -293.792E-03     586.235E-03    -292.443E-03     8.96592E-03    -293.869E-03     585.158E-03    -292.533E-03     7.28242E-03
             124     511.433E-09     155.903E-03    -143.307E+06    -299.635E+06    -143.369E+06     1.42764E+06    -292.927E-03     584.647E-03    -291.721E-03     9.78090E-03    -293.014E-03     583.579E-03    -291.795E-03     8.16039E-03
             125    -687.954E-09     154.203E-03    -141.432E+06    -292.173E+06    -141.161E+06     802.108E+03    -291.058E-03     582.978E-03    -291.920E-03     9.33995E-03    -291.150E-03     581.940E-03    -291.997E-03     7.76052E-03
             126    -314.624E-09     152.510E-03    -143.576E+06    -289.437E+06    -142.830E+06    -128.527E+03    -290.736E-03     582.378E-03    -291.642E-03     9.75824E-03    -290.842E-03     581.361E-03    -291.728E-03     8.02944E-03
             127     82.0113E-09     150.811E-03    -143.374E+06    -286.760E+06    -142.970E+06     439.859E+03    -291.718E-03     582.637E-03    -290.919E-03     9.71021E-03    -291.825E-03     581.632E-03    -291.010E-03     8.06965E-03
             128     1.20558E-06     149.115E-03    -140.227E+06    -281.889E+06    -142.060E+06     166.166E+03    -291.965E-03     582.197E-03    -290.231E-03     9.59554E-03    -292.064E-03     581.210E-03    -290.330E-03     8.04105E-03
             129    -201.733E-09     147.423E-03    -141.754E+06    -280.982E+06    -142.308E+06    -262.367E+03    -290.773E-03     581.663E-03    -290.890E-03     9.62015E-03    -290.881E-03     580.684E-03    -290.988E-03     8.00087E-03
             130    -988.898E-09     145.726E-03    -144.591E+06    -280.678E+06    -142.168E+06     563.901E+03    -289.652E-03     580.925E-03    -291.274E-03     9.19056E-03    -289.775E-03     579.952E-03    -291.368E-03     7.50872E-03
             131    -1.51733E-09     144.034E-03    -144.023E+06    -279.766E+06    -141.675E+06     292.882E+03    -290.283E-03     580.833E-03    -290.550E-03     9.74419E-03    -290.407E-03     579.863E-03    -290.644E-03     8.05198E-03
             132     630.095E-09     142.339E-03    -139.046E+06    -276.506E+06    -141.621E+06     879.323E+03    -291.508E-03     581.429E-03    -289.922E-03     9.76929E-03    -291.611E-03     580.468E-03    -290.027E-03     8.14395E-03
             133     828.640E-09     140.645E-03    -140.981E+06    -270.883E+06    -142.229E+06     492.113E+03    -291.396E-03     581.352E-03    -289.956E-03     10.1148E-03    -291.515E-03     580.423E-03    -290.070E-03     8.52195E-03
             134    -390.243E-09     138.951E-03    -143.039E+06    -270.820E+06    -142.696E+06    -618.098E+03    -290.675E-03     580.593E-03    -289.917E-03     9.61938E-03    -290.804E-03     579.667E-03    -290.031E-03     7.98047E-03
             135     952.038E-09     137.259E-03    -143.792E+06    -275.065E+06    -144.624E+06    -267.307E+03    -290.622E-03     580.324E-03    -289.702E-03     10.1752E-03    -290.747E-03     579.382E-03    -289.818E-03     8.50894E-03
             136    -310.289E-09     135.566E-03    -142.215E+06    -273.648E+06    -142.565E+06     789.109E+03    -290.640E-03     581.034E-03    -290.394E-03     9.97185E-03    -290.761E-03     580.092E-03    -290.504E-03     8.47224E-03
             137    -32.1090E-09     133.873E-03    -140.936E+06    -272.543E+06    -140.360E+06    -500.561E+03    -289.662E-03     580.779E-03    -291.117E-03     9.22554E-03    -289.781E-03     579.838E-03    -291.220E-03     7.59482E-03
             138    -1.60034E-06     132.179E-03    -145.875E+06    -276.489E+06    -143.279E+06    -252.043E+03    -289.225E-03     580.545E-03    -291.320E-03     9.65077E-03    -289.359E-03     579.597E-03    -291.424E-03     8.02962E-03
             139     410.891E-09     130.486E-03    -141.476E+06    -274.309E+06    -142.784E+06     399.525E+03    -289.431E-03     580.758E-03    -291.326E-03     9.48184E-03    -289.546E-03     579.812E-03    -291.437E-03     7.90107E-03
             140    -1.80804E-06     128.793E-03    -141.928E+06    -273.866E+06    -142.264E+06    -520.192E+03    -289.978E-03     580.992E-03    -291.014E-03     9.77871E-03    -290.098E-03     580.051E-03    -291.123E-03     8.06172E-03
             141     1.78279E-06     127.097E-03    -142.887E+06    -275.217E+06    -143.152E+06     85.0525E+03    -291.029E-03     581.199E-03    -290.170E-03     9.88208E-03    -291.151E-03     580.253E-03    -290.280E-03     8.20029E-03
             142    -629.265E-09     125.404E-03    -143.278E+06    -273.639E+06    -141.854E+06     255.523E+03    -291.300E-03     580.757E-03    -289.456E-03     9.89567E-03    -291.427E-03     579.816E-03    -289.561E-03     8.26387E-03
             143     1.94290E-06     123.713E-03    -141.077E+06    -273.061E+06    -143.069E+06     75.1546E+03    -291.532E-03     580.873E-03    -289.341E-03     9.53651E-03    -291.647E-03     579.934E-03    -289.456E-03     7.93308E-03
             144    -348.059E-09     122.018E-03    -140.798E+06    -272.306E+06    -140.982E+06    -118.805E+03    -290.721E-03     580.903E-03    -290.182E-03     10.0772E-03    -290.840E-03     579.965E-03    -290.287E-03     8.37781E-03
             145    -549.372E-09     120.324E-03    -146.214E+06    -271.555E+06    -142.485E+06     605.502E+03    -289.912E-03     580.663E-03    -290.751E-03     10.1398E-03    -290.057E-03     579.739E-03    -290.858E-03     8.48017E-03
             146     320.928E-09     118.630E-03    -139.554E+06    -267.827E+06    -142.919E+06     657.506E+03    -290.328E-03     580.596E-03    -290.268E-03     10.0079E-03    -290.444E-03     579.680E-03    -290.392E-03     8.43137E-03
             147    -69.0777E-09     116.939E-03    -139.562E+06    -265.344E+06    -139.884E+06     238.187E+03    -289.822E-03     580.239E-03    -290.417E-03     9.93670E-03    -289.945E-03     579.331E-03    -290.530E-03     8.34568E-03
             148    -1.01582E-06     115.247E-03    -144.240E+06    -264.173E+06    -142.368E+06     282.845E+03    -289.989E-03     580.742E-03    -290.753E-03     9.64586E-03    -290.134E-03     579.851E-03    -290.872E-03     7.97946E-03
             149     1.06530E-06     113.552E-03    -140.987E+06    -261.396E+06    -142.234E+06     14.5316E+03    -291.313E-03     581.441E-03    -290.128E-03     9.13805E-03    -291.446E-03     580.558E-03    -290.256E-03     7.50361E-03
             150     449.971E-09     111.857E-03    -143.511E+06    -260.613E+06    -141.053E+06    -36.1420E+03    -290.998E-03     580.798E-03    -289.800E-03     9.66505E-03    -291.147E-03     579.921E-03    -289.919E-03     8.01337E-03
             151    -355.362E-09     110.165E-03    -142.356E+06    -260.266E+06    -143.674E+06     73.2312E+03    -290.194E-03     580.129E-03    -289.935E-03     9.89487E-03    -290.334E-03     579.257E-03    -290.069E-03     8.26545E-03
             152     572.460E-09     108.472E-03    -142.180E+06    -259.675E+06    -143.457E+06     315.178E+03    -290.347E-03     580.505E-03    -290.159E-03     10.1935E-03    -290.486E-03     579.635E-03    -290.293E-03     8.60956E-03
             153    -577.647E-09     106.780E-03    -140.628E+06    -258.092E+06    -140.527E+06      233.53E+03    -290.563E-03     581.181E-03    -290.618E-03     9.84289E-03    -290.702E-03     580.313E-03    -290.743E-03     8.23680E-03
             154     483.261E-09     105.084E-03    -142.669E+06    -259.973E+06    -143.423E+06    -528.080E+03    -290.731E-03     581.376E-03    -290.645E-03     9.52287E-03    -290.873E-03     580.505E-03    -290.778E-03     7.85755E-03
             155    -301.326E-09     103.391E-03    -143.293E+06    -258.678E+06    -140.846E+06     769.193E+03    -290.558E-03     580.857E-03    -290.299E-03     9.18683E-03    -290.708E-03     579.989E-03    -290.420E-03     7.57539E-03
             156     469.296E-09     101.697E-03    -139.479E+06    -257.663E+06    -141.265E+06    -1.16555E+06    -290.408E-03     579.983E-03    -289.575E-03     9.05610E-03    -290.540E-03     579.115E-03    -289.706E-03     7.40444E-03
             157     451.397E-09     100.007E-03    -141.986E+06    -263.700E+06    -140.293E+06    -506.706E+03    -291.000E-03     580.677E-03    -289.677E-03     9.91767E-03    -291.138E-03     579.782E-03    -289.790E-03     8.30627E-03
             158     396.712E-09     98.3101E-03    -138.764E+06    -260.934E+06    -141.371E+06     1.21469E+06    -291.265E-03     581.577E-03    -290.312E-03     9.70757E-03    -291.388E-03     580.692E-03    -290.439E-03     8.16245E-03
             159    -1.28126E-06     94.9251E-03    -143.251E+06    -258.843E+06    -139.961E+06     70.2497E+03    -289.420E-03     580.176E-03    -290.756E-03     9.29829E-03    -289.570E-03     579.306E-03    -290.873E-03     7.71024E-03
             160     780.864E-09     93.2311E-03    -139.879E+06    -257.063E+06    -142.844E+06     360.752E+03    -290.539E-03     580.786E-03    -290.247E-03     9.46156E-03    -290.671E-03     579.924E-03    -290.386E-03     7.89980E-03
             161     61.2244E-09     91.5376E-03    -142.684E+06    -257.059E+06    -140.913E+06    -106.154E+03    -290.955E-03     581.055E-03    -290.100E-03     9.54036E-03    -291.105E-03     580.195E-03    -290.225E-03     7.87931E-03
             162     240.328E-09     89.8435E-03    -141.926E+06    -257.576E+06    -142.697E+06    -343.813E+03    -290.518E-03     580.523E-03    -290.005E-03     9.67185E-03    -290.660E-03     579.662E-03    -290.139E-03     8.06297E-03
             163     116.634E-09     88.1498E-03    -140.316E+06    -257.145E+06    -141.203E+06     353.918E+03    -290.822E-03     581.136E-03    -290.314E-03     10.7303E-03    -290.961E-03     580.274E-03    -290.444E-03     9.07113E-03
             164     169.188E-09     86.4554E-03    -142.795E+06    -257.699E+06    -140.304E+06    -195.516E+03    -290.840E-03     581.537E-03    -290.696E-03     9.86185E-03    -290.991E-03     580.673E-03    -290.817E-03     8.25607E-03
             165    -266.489E-09     84.7610E-03    -139.555E+06    -257.152E+06    -142.378E+06     315.115E+03    -290.271E-03     580.666E-03    -290.395E-03     9.84363E-03    -290.404E-03     579.803E-03    -290.532E-03     8.19845E-03
             166     147.556E-09     83.0682E-03    -140.797E+06    -256.375E+06    -139.069E+06     88.7268E+03    -290.232E-03     580.371E-03    -290.138E-03     10.2801E-03    -290.378E-03     579.510E-03    -290.258E-03     8.57459E-03
             167     84.2854E-09     81.3753E-03    -139.959E+06    -257.351E+06    -141.275E+06    -517.027E+03    -290.312E-03     580.322E-03    -290.010E-03     10.0313E-03    -290.448E-03     579.457E-03    -290.140E-03     8.42330E-03
             168     52.0089E-09     79.6834E-03    -139.957E+06    -257.808E+06    -141.055E+06     6.48627E+03    -289.773E-03     580.389E-03    -290.616E-03     9.97443E-03    -289.909E-03     579.522E-03    -290.744E-03     8.30286E-03
             169    -1.35831E-06     77.9922E-03    -143.761E+06    -258.215E+06    -140.142E+06    -326.512E+03    -289.523E-03     580.764E-03    -291.241E-03     9.34440E-03    -289.678E-03     579.899E-03    -291.358E-03     7.60380E-03
             170     364.986E-09     76.2956E-03    -141.975E+06    -257.733E+06    -142.328E+06     419.034E+03    -290.864E-03     581.128E-03    -290.263E-03     9.14107E-03    -291.006E-03     580.265E-03    -290.395E-03     7.57522E-03
             171     1.41258E-06     74.6028E-03    -138.441E+06    -254.833E+06    -141.052E+06     348.157E+03    -291.984E-03     581.055E-03    -289.071E-03     9.47217E-03    -292.115E-03     580.200E-03    -289.206E-03     7.89041E-03
             172     685.014E-09     72.9085E-03    -142.492E+06    -256.102E+06    -141.830E+06    -544.174E+03    -291.246E-03     580.897E-03    -289.651E-03     10.4148E-03    -291.397E-03     580.045E-03    -289.782E-03     8.66845E-03
             173    -658.098E-09     71.2144E-03    -142.066E+06    -257.335E+06    -143.006E+06     254.358E+03    -290.355E-03     580.823E-03    -290.468E-03     9.71720E-03    -290.498E-03     579.964E-03    -290.604E-03     8.10201E-03
             174     444.626E-09     69.5224E-03    -139.796E+06    -255.513E+06    -140.095E+06     190.710E+03    -290.402E-03     580.929E-03    -290.528E-03     9.97575E-03    -290.541E-03     580.072E-03    -290.655E-03     8.33988E-03
             175    -430.862E-09     67.8258E-03    -141.817E+06    -256.089E+06    -140.990E+06    -290.848E+03    -290.649E-03     581.399E-03    -290.750E-03     10.2177E-03    -290.796E-03     580.543E-03    -290.878E-03     8.56209E-03
             176     258.478E-09     66.1336E-03    -142.328E+06    -258.091E+06    -142.049E+06     85.0064E+03    -290.268E-03     581.059E-03    -290.791E-03     9.64098E-03    -290.413E-03     580.196E-03    -290.921E-03     7.96416E-03
             177    -811.335E-09     64.4390E-03    -141.393E+06    -261.878E+06    -139.436E+06    -1.09102E+06    -290.035E-03     580.824E-03    -290.789E-03     9.90852E-03    -290.174E-03     579.936E-03    -290.902E-03     8.23453E-03
             178     339.905E-09     62.7457E-03    -139.171E+06    -266.984E+06    -140.197E+06    -187.359E+03    -290.275E-03     581.227E-03    -290.952E-03     9.65774E-03    -290.393E-03     580.311E-03    -291.064E-03     8.03369E-03
             179    -813.957E-09     61.0523E-03    -137.824E+06    -266.119E+06    -137.888E+06     386.921E+03    -290.682E-03     581.516E-03    -290.833E-03     9.47205E-03    -290.799E-03     580.599E-03    -290.937E-03     7.79743E-03
             180     1.06281E-06     59.3554E-03    -137.389E+06    -265.838E+06    -139.134E+06    -969.141E+03    -290.645E-03     581.505E-03    -290.860E-03     9.99901E-03    -290.758E-03     580.591E-03    -290.971E-03     8.32970E-03
             181    -1.64338E-06     57.6624E-03    -142.149E+06    -268.289E+06    -140.770E+06     144.397E+03    -290.667E-03     581.689E-03    -291.023E-03     9.94557E-03    -290.797E-03     580.773E-03    -291.132E-03     8.28498E-03
             182     1.72894E-06     55.9663E-03    -139.702E+06    -266.173E+06    -140.430E+06     417.925E+03    -291.477E-03     582.115E-03    -290.638E-03     9.58891E-03    -291.599E-03     581.206E-03    -290.752E-03     7.88747E-03
             183    -715.939E-09     54.2712E-03    -141.252E+06    -266.641E+06    -139.300E+06    -240.394E+03    -291.424E-03     582.430E-03    -291.006E-03     9.87523E-03    -291.555E-03     581.518E-03    -291.111E-03     8.25636E-03
             184     254.845E-09     52.5750E-03    -139.872E+06    -267.361E+06    -142.252E+06     365.737E+03    -291.787E-03     583.031E-03    -291.244E-03     9.31949E-03    -291.904E-03     582.115E-03    -291.365E-03     7.80429E-03
             185     890.950E-09     50.8751E-03    -140.358E+06    -262.538E+06    -141.002E+06     904.067E+03    -292.063E-03     583.567E-03    -291.504E-03     10.5264E-03    -292.194E-03     582.677E-03    -291.625E-03     8.85815E-03
             186    -1.32241E-06     49.1779E-03    -143.240E+06    -263.673E+06    -139.479E+06    -932.000E+03    -291.574E-03     583.874E-03    -292.300E-03     10.5744E-03    -291.721E-03     582.982E-03    -292.408E-03     8.76555E-03
             187     780.972E-09     47.4774E-03    -139.680E+06    -267.208E+06    -140.202E+06     5.26775E+03    -292.256E-03     583.824E-03    -291.567E-03     9.80289E-03    -292.378E-03     582.909E-03    -291.678E-03     8.05416E-03
             188     659.709E-09     45.7817E-03    -137.942E+06    -266.007E+06    -138.390E+06     201.804E+03    -293.157E-03     584.141E-03    -290.984E-03     9.89267E-03    -293.274E-03     583.226E-03    -291.090E-03     8.22382E-03
             189     790.224E-09     44.0815E-03    -136.206E+06    -265.649E+06    -139.737E+06    -851.835E+03    -293.162E-03     584.875E-03    -291.712E-03     9.80273E-03    -293.270E-03     583.961E-03    -291.828E-03     8.05430E-03
             190    -346.484E-09     42.3799E-03    -139.918E+06    -267.016E+06    -139.812E+06    -323.204E+03    -292.537E-03     585.248E-03    -292.711E-03     10.0666E-03    -292.661E-03     584.333E-03    -292.820E-03     8.34923E-03
             191    -357.102E-09     40.6792E-03    -141.169E+06    -267.457E+06    -140.094E+06     463.036E+03    -292.343E-03     585.560E-03    -293.218E-03     9.74505E-03    -292.471E-03     584.644E-03    -293.325E-03     8.13925E-03
             192    -131.262E-09     38.9770E-03    -138.058E+06    -264.652E+06    -138.530E+06     920.848E+03    -292.843E-03     585.319E-03    -292.476E-03     9.31838E-03    -292.962E-03     584.411E-03    -292.585E-03     7.66564E-03
             193     1.08810E-06     37.2765E-03    -138.230E+06    -264.559E+06    -138.219E+06    -475.606E+03    -293.205E-03     585.148E-03    -291.942E-03     10.5133E-03    -293.327E-03     584.241E-03    -292.049E-03     8.80530E-03
             194    -379.879E-09     35.5739E-03    -140.255E+06    -265.697E+06    -140.045E+06     150.541E+03    -292.864E-03     585.701E-03    -292.837E-03     11.3242E-03    -292.993E-03     584.795E-03    -292.949E-03     9.57297E-03
             195    -328.635E-09     33.8722E-03    -138.553E+06    -263.947E+06    -138.964E+06     213.154E+03    -292.340E-03     585.343E-03    -293.003E-03     10.0743E-03    -292.463E-03     584.441E-03    -293.114E-03     8.35229E-03
             196     116.595E-09     32.1738E-03    -137.143E+06    -263.258E+06    -137.769E+06    -361.721E+03    -292.258E-03     584.640E-03    -292.382E-03     9.87400E-03    -292.376E-03     583.737E-03    -292.491E-03     8.19677E-03
             197    -102.814E-09     30.4730E-03    -137.490E+06    -263.148E+06    -136.849E+06     444.623E+03    -292.199E-03     584.452E-03    -292.253E-03     9.96157E-03    -292.320E-03     583.548E-03    -292.356E-03     8.35025E-03
             198    -6.05442E-09     28.7731E-03    -137.177E+06    -262.222E+06    -137.011E+06     76.8744E+03    -291.812E-03     584.259E-03    -292.447E-03     10.0417E-03    -291.932E-03     583.359E-03    -292.553E-03     8.44053E-03
             199    -766.181E-09     27.0763E-03    -138.824E+06    -262.626E+06    -137.306E+06     200.434E+03    -291.134E-03     583.397E-03    -292.264E-03     9.22842E-03    -291.261E-03     582.498E-03    -292.368E-03     7.59780E-03
             200     11.8673E-09     25.3769E-03    -136.247E+06    -261.082E+06    -136.930E+06    -86.2558E+03    -290.197E-03     581.083E-03    -290.887E-03     9.45384E-03    -290.313E-03     580.187E-03    -290.995E-03     7.82240E-03
             201    -215.168E-09     23.6857E-03    -137.328E+06    -261.300E+06    -136.299E+06    -172.539E+03    -288.637E-03     577.689E-03    -289.053E-03     9.38659E-03    -288.759E-03     576.792E-03    -289.156E-03     7.81969E-03
             202    -156.569E-09     22.0032E-03    -134.579E+06    -260.288E+06    -135.634E+06     613.118E+03    -286.063E-03     572.675E-03    -286.612E-03     7.80800E-03    -286.172E-03     571.776E-03    -286.718E-03     6.38226E-03
             203    -232.820E-09     20.3272E-03    -134.856E+06    -256.466E+06    -135.044E+06     666.661E+03    -282.266E-03     565.090E-03    -282.824E-03     6.72925E-03    -282.380E-03     564.206E-03    -282.932E-03     5.48953E-03
             204    -140.145E-09     18.6691E-03    -137.059E+06    -253.611E+06    -136.929E+06     258.309E+03    -277.276E-03     555.251E-03    -277.975E-03     5.76189E-03    -277.402E-03     554.385E-03    -278.093E-03     4.62891E-03
             205    -434.724E-09     17.0279E-03    -135.981E+06    -251.182E+06    -136.648E+06     312.428E+03    -271.386E-03     543.542E-03    -272.156E-03     4.53506E-03    -271.511E-03     542.686E-03    -272.278E-03     3.43259E-03
             206    -38.8425E-09     15.4069E-03    -135.758E+06    -249.976E+06    -134.126E+06     136.553E+03    -264.480E-03     529.273E-03    -264.793E-03     2.84777E-03    -264.608E-03     528.416E-03    -264.904E-03     1.86942E-03
             207     121.330E-09     13.8128E-03    -132.877E+06    -249.491E+06    -134.220E+06    -131.453E+03    -256.336E-03     512.619E-03    -256.283E-03     1.43327E-03    -256.450E-03     511.759E-03    -256.400E-03     553.388E-06
             208    -114.014E-09     12.2458E-03    -132.769E+06    -247.398E+06    -133.306E+06     625.185E+03    -247.505E-03     495.116E-03    -247.610E-03     526.736E-06    -247.623E-03     494.265E-03    -247.726E-03    -342.898E-06
             209    -16.5815E-09     10.7051E-03    -132.040E+06    -244.228E+06    -132.464E+06     626.945E+03    -238.984E-03     478.529E-03    -239.546E-03     319.774E-06    -239.103E-03     477.693E-03    -239.662E-03    -575.043E-06
             210    -630.636E-09     9.19049E-03    -132.649E+06    -241.705E+06    -131.000E+06     519.154E+03    -232.461E-03     466.715E-03    -234.254E-03     1.70747E-03    -232.589E-03     465.893E-03    -234.366E-03     785.848E-06
             211    -1.25181E-06     7.68483E-03    -133.835E+06    -240.979E+06    -133.482E+06    -178.148E+03    -230.878E-03     463.392E-03    -232.514E-03     2.95274E-03    -231.009E-03     462.580E-03    -232.638E-03     2.04867E-03
             212     805.790E-09     6.18063E-03    -130.697E+06    -243.693E+06    -130.164E+06    -245.796E+03    -234.253E-03     468.744E-03    -234.491E-03     4.16932E-03    -234.370E-03     467.908E-03    -234.599E-03     3.38483E-03
             213    -685.974E-09     4.65919E-03    -115.204E+06    -244.522E+06    -116.024E+06     116.899E+03    -239.762E-03     479.939E-03    -240.177E-03     4.85390E-03    -239.820E-03     479.054E-03    -240.236E-03     4.19988E-03
             214    -16.5261E-09     3.11806E-03    -88.6190E+06    -242.552E+06    -88.6302E+06     268.787E+03    -245.725E-03     491.399E-03    -245.673E-03     3.42687E-03    -245.691E-03     490.445E-03    -245.636E-03     2.90612E-03
             215     792.113E-09     1.56179E-03    -69.2654E+06    -238.517E+06    -67.9785E+06     570.032E+03    -249.530E-03     498.312E-03    -248.782E-03     1.87479E-03    -249.432E-03     497.319E-03    -248.676E-03     1.60046E-03
             216     700.889E-06     7.48013E-15    -67.4926E+06    -234.266E+06    -66.6216E+06    -335.619E+03    -250.521E-03     500.655E-03    -250.134E-03     1.75725E-03    -250.423E-03     499.679E-03    -250.030E-03     1.51423E-03
             217     1.40015E-03     7.48013E-15    -66.3031E+06    -228.318E+06    -64.6671E+06    -408.542E+03    -250.875E-03     501.316E-03    -250.441E-03     2.79115E-03    -250.783E-03     500.366E-03    -250.337E-03     2.31666E-03
             218     2.10100E-03     7.48013E-15    -65.3792E+06    -217.388E+06    -61.5847E+06     83.5819E+03    -251.232E-03     501.885E-03    -250.652E-03     3.93931E-03    -251.158E-03     500.985E-03    -250.550E-03     3.28998E-03
             219     2.79933E-03     7.48013E-15    -64.0723E+06    -199.949E+06    -57.6712E+06    -540.563E+03    -251.756E-03     502.620E-03    -250.864E-03     5.87653E-03    -251.709E-03     501.803E-03    -250.769E-03     5.01425E-03
             220     3.49902E-03     7.48013E-15    -60.9754E+06    -175.774E+06    -51.9767E+06    -2.00078E+06    -252.665E-03     503.795E-03    -251.130E-03     7.14966E-03    -252.648E-03     503.089E-03    -251.047E-03     6.10463E-03
             221     4.19748E-03     7.48013E-15    -57.8938E+06    -148.135E+06    -46.1698E+06    -658.734E+03    -253.903E-03     505.387E-03    -251.484E-03     8.61235E-03    -253.924E-03     504.810E-03    -251.416E-03     7.40058E-03
             222     4.89358E-03     7.48013E-15    -55.4527E+06    -116.511E+06    -41.2274E+06    -487.185E+03    -255.465E-03     507.393E-03    -251.928E-03     11.3540E-03    -255.532E-03     506.969E-03    -251.885E-03     9.87368E-03
             223     5.58981E-03     7.48013E-15    -51.4213E+06    -78.3908E+06    -35.9968E+06    -3.59442E+06    -257.443E-03     509.914E-03    -252.471E-03     12.9821E-03    -257.558E-03     509.673E-03    -252.463E-03     11.2888E-03
             224     6.28474E-03     7.48013E-15    -44.8732E+06    -36.9209E+06    -30.7972E+06    -7.75070E+06    -260.145E-03     513.285E-03    -253.139E-03     14.7723E-03    -260.302E-03     513.240E-03    -253.175E-03     12.7829E-03
             225     6.97595E-03     7.48013E-15    -36.0810E+06    -8.03844E+06    -20.9501E+06    -8.88469E+06    -263.871E-03     517.895E-03    -254.025E-03     17.1847E-03    -264.050E-03     517.979E-03    -254.065E-03     14.8067E-03
             226     7.66602E-03     7.48013E-15    -29.2148E+06     5.90208E+06    -3.43377E+06    -2.02524E+06    -268.597E-03     523.789E-03    -255.192E-03     18.8888E-03    -268.796E-03     523.916E-03    -255.176E-03     16.3326E-03
             227     8.35123E-03     7.48013E-15    -27.2228E+06     15.5110E+06     14.8778E+06     4.37517E+06    -274.582E-03     531.217E-03    -256.635E-03     21.8847E-03    -274.828E-03     531.378E-03    -256.543E-03     19.0009E-03
             228     9.03119E-03     7.48013E-15    -27.8291E+06     21.9687E+06     30.6112E+06     5.01217E+06    -282.542E-03     540.933E-03    -258.391E-03     25.7800E-03    -282.846E-03     541.129E-03    -258.230E-03     22.2748E-03
             229     9.70707E-03     7.48013E-15    -27.4141E+06     28.7142E+06     50.0030E+06     4.80834E+06    -293.914E-03     554.512E-03    -260.598E-03     29.1574E-03    -294.288E-03     554.749E-03    -260.350E-03     24.7442E-03
             230     10.3731E-03     7.48013E-15    -23.9337E+06     38.7798E+06     69.3834E+06      994.62E+03    -308.900E-03     572.264E-03    -263.365E-03     32.1499E-03    -309.327E-03     572.548E-03    -263.039E-03     26.9015E-03
             231     11.0270E-03     7.48013E-15    -19.2016E+06     46.4244E+06     79.8780E+06    -2.20601E+06    -330.915E-03     597.767E-03    -266.852E-03     43.2862E-03    -331.449E-03     598.176E-03    -266.492E-03     36.2265E-03
             232     11.6612E-03     7.48013E-15    -17.2521E+06     50.1679E+06     81.8728E+06    -351.860E+03    -366.311E-03     637.781E-03    -271.470E-03     51.8368E-03    -366.971E-03     638.343E-03    -271.108E-03     41.9944E-03
             233     12.2823E-03     7.48013E-15    -17.7846E+06     58.8516E+06     81.1386E+06    -996.388E+03    -422.025E-03     699.867E-03    -277.842E-03     54.5462E-03    -422.889E-03     700.691E-03    -277.496E-03     40.1235E-03
             234     12.8540E-03     7.48013E-15    -5.11763E+06     77.6018E+06     93.1376E+06     488.616E+03    -499.572E-03     786.156E-03    -286.584E-03     111.694E-03    -501.654E-03     788.251E-03    -286.223E-03     86.1030E-03
             235     13.4452E-03     2.30753E-03    -4.56457E+06     78.6111E+06     89.9856E+06    -3.54420E+06    -476.719E-03     766.944E-03    -290.225E-03     146.297E-03    -479.981E-03     770.189E-03    -289.882E-03     112.659E-03
             236     13.4554E-03     4.17741E-03    -7.08498E+06     69.5126E+06     82.8136E+06    -3.29474E+06    -390.176E-03     679.081E-03    -288.904E-03     105.443E-03    -392.840E-03     681.712E-03    -288.581E-03     75.5158E-03
             237     13.4664E-03     5.98501E-03    -955.728E+03     68.9628E+06     88.7903E+06     164.574E+03    -356.476E-03     645.565E-03    -289.090E-03     82.0289E-03    -358.516E-03     647.585E-03    -288.744E-03     55.7583E-03
             238     13.4658E-03     7.76699E-03    -2.69717E+06     66.3319E+06     88.1784E+06    -776.780E+03    -336.893E-03     626.202E-03    -289.309E-03     76.8819E-03    -338.887E-03     628.167E-03    -288.960E-03     51.5730E-03
             239     13.4693E-03     9.53375E-03    -506.205E+03     64.3683E+06     89.8096E+06     190.734E+03    -324.570E-03     614.073E-03    -289.503E-03     74.4133E-03    -326.428E-03     615.898E-03    -289.147E-03     50.5522E-03
             240     13.4691E-03     11.2641E-03    -2.02925E+06     62.6254E+06     89.8112E+06    -430.649E+03    -315.682E-03     605.343E-03    -289.661E-03     70.8346E-03    -317.459E-03     607.074E-03    -289.300E-03     47.8155E-03
             241     13.4694E-03     13.0015E-03    -3.16948E+06     64.6346E+06     89.7669E+06     330.432E+03    -308.442E-03     598.258E-03    -289.816E-03     67.0536E-03    -310.104E-03     599.878E-03    -289.456E-03     45.1843E-03
             242     13.4702E-03     14.7153E-03    -1.63370E+06     64.1433E+06     89.2815E+06    -326.699E+03    -300.553E-03     590.544E-03    -289.991E-03     65.3749E-03    -302.154E-03     592.108E-03    -289.635E-03     44.2369E-03
             243     13.4693E-03     16.4194E-03    -2.39732E+06     61.1691E+06     89.3212E+06    -627.877E+03    -295.442E-03     585.613E-03    -290.170E-03     61.9128E-03    -296.975E-03     587.095E-03    -289.809E-03     41.3338E-03
             244     13.4679E-03     18.1185E-03    -2.68689E+06     62.2822E+06     89.9933E+06      527.01E+03    -291.703E-03     582.026E-03    -290.323E-03     60.4803E-03    -293.186E-03     583.460E-03    -289.960E-03     40.5347E-03
             245     13.4687E-03     19.8132E-03    -1.67230E+06     62.4073E+06     88.7584E+06    -361.849E+03    -287.661E-03     578.082E-03    -290.422E-03     59.6438E-03    -289.131E-03     579.511E-03    -290.066E-03     39.8457E-03
             246     13.4683E-03     21.4979E-03    -2.43664E+06     60.5721E+06     88.8021E+06    -1.09491E+06    -285.969E-03     576.442E-03    -290.472E-03     60.4255E-03    -287.447E-03     577.868E-03    -290.113E-03     40.7448E-03
             247     13.4682E-03     23.1920E-03    -1.15757E+06     62.1204E+06     89.7289E+06     1.15006E+06    -285.822E-03     576.312E-03    -290.490E-03     59.9206E-03    -287.264E-03     577.710E-03    -290.130E-03     40.5722E-03
             248     13.4682E-03     24.8739E-03    -3.48649E+06     61.6973E+06     88.7134E+06    -592.419E+03    -285.746E-03     576.245E-03    -290.499E-03     59.1803E-03    -287.200E-03     577.648E-03    -290.140E-03     39.6711E-03
             249     13.4678E-03     26.5642E-03    -2.26930E+06     61.9410E+06     88.6144E+06    -344.976E+03    -285.908E-03     576.390E-03    -290.482E-03     58.8295E-03    -287.345E-03     577.781E-03    -290.125E-03     39.3967E-03
             250     13.4692E-03     28.2539E-03    -1.42782E+06     62.2309E+06     89.0038E+06     53.2858E+03    -285.850E-03     576.315E-03    -290.465E-03     59.0339E-03    -287.285E-03     577.708E-03    -290.108E-03     39.5783E-03
             251     13.4678E-03     29.9399E-03    -2.83072E+06     61.2220E+06     89.4033E+06    -593.511E+03    -286.134E-03     576.604E-03    -290.470E-03     58.4006E-03    -287.558E-03     577.976E-03    -290.108E-03     39.0381E-03
             252     13.4689E-03     31.6325E-03    -2.88095E+06     61.3771E+06     88.2162E+06     792.785E+03    -286.054E-03     576.536E-03    -290.483E-03     58.2324E-03    -287.449E-03     577.883E-03    -290.126E-03     39.1717E-03
             253     13.4673E-03     33.3182E-03    -3.07576E+06     62.9869E+06     89.1982E+06     964.737E+03    -285.758E-03     576.250E-03    -290.492E-03     58.2362E-03    -287.157E-03     577.603E-03    -290.133E-03     39.1930E-03
             254     13.4694E-03     35.0061E-03    -1.33407E+06     64.0608E+06     90.5921E+06    -148.307E+03    -285.645E-03     576.103E-03    -290.458E-03     57.4320E-03    -287.033E-03     577.451E-03    -290.096E-03     38.3170E-03
             255     13.4689E-03     36.6919E-03    -1.90788E+06     62.1980E+06     89.8502E+06    -465.315E+03    -286.414E-03     576.829E-03    -290.415E-03     56.4325E-03    -287.791E-03     578.159E-03    -290.053E-03     37.2481E-03
             256     13.4690E-03     38.3861E-03    -3.00285E+06     61.5939E+06     90.2632E+06    -209.499E+03    -287.078E-03     577.521E-03    -290.442E-03     55.8992E-03    -288.444E-03     578.833E-03    -290.076E-03     36.8041E-03
             257     13.4672E-03     40.0758E-03    -3.11401E+06     62.4633E+06     89.9405E+06     321.016E+03    -286.855E-03     577.329E-03    -290.475E-03     57.1697E-03    -288.238E-03     578.662E-03    -290.111E-03     38.0765E-03
             258     13.4692E-03     41.7639E-03    -710.183E+03     65.8222E+06     91.2105E+06     1.22232E+06    -286.440E-03     576.886E-03    -290.446E-03     56.6318E-03    -287.810E-03     578.223E-03    -290.084E-03     37.5757E-03
             259     13.4689E-03     43.4526E-03    -2.16368E+06     66.1746E+06     91.0313E+06    -893.898E+03    -287.623E-03     578.032E-03    -290.408E-03     55.9752E-03    -288.996E-03     579.368E-03    -290.046E-03     36.7785E-03
             260     13.4678E-03     45.1485E-03    -3.11300E+06     65.0030E+06     89.9183E+06    -265.319E+03    -288.478E-03     578.878E-03    -290.400E-03     56.5010E-03    -289.862E-03     580.221E-03    -290.040E-03     37.2494E-03
             261     13.4695E-03     46.8405E-03    -1.97637E+06     63.3416E+06     90.0998E+06    -259.359E+03    -287.888E-03     578.300E-03    -290.412E-03     56.9607E-03    -289.276E-03     579.645E-03    -290.050E-03     37.6513E-03
             262     13.4675E-03     48.5315E-03    -3.08314E+06     60.7599E+06     89.5055E+06    -644.074E+03    -288.218E-03     578.632E-03    -290.414E-03     57.1354E-03    -289.604E-03     579.963E-03    -290.050E-03     37.8518E-03
             263     13.4694E-03     50.2257E-03    -972.216E+03     60.2466E+06     90.8067E+06     440.596E+03    -288.022E-03     578.419E-03    -290.397E-03     57.4299E-03    -289.395E-03     579.740E-03    -290.029E-03     38.2489E-03
             264     13.4690E-03     51.9154E-03    -2.59609E+06     58.0817E+06     91.0063E+06    -612.608E+03    -288.299E-03     578.692E-03    -290.393E-03     57.1201E-03    -289.683E-03     580.009E-03    -290.019E-03     37.8046E-03
             265     13.4680E-03     53.6117E-03    -3.82919E+06     59.2090E+06     89.9018E+06     336.568E+03    -289.039E-03     579.428E-03    -290.389E-03     57.9522E-03    -290.431E-03     580.756E-03    -290.020E-03     38.7036E-03
             266     13.4693E-03     55.3042E-03    -700.030E+03     62.2099E+06     90.3416E+06     859.763E+03    -288.415E-03     578.783E-03    -290.368E-03     57.5369E-03    -289.795E-03     580.119E-03    -290.005E-03     38.2772E-03
             267     13.4693E-03     56.9931E-03    -2.61827E+06     61.1377E+06     90.3697E+06    -740.404E+03    -288.938E-03     579.309E-03    -290.371E-03     56.0196E-03    -290.317E-03     580.634E-03    -290.004E-03     36.6187E-03
             268     13.4673E-03     58.6920E-03    -3.75973E+06     61.4492E+06      89.442E+06     86.4429E+03    -289.723E-03     580.106E-03    -290.383E-03     56.8154E-03    -291.099E-03     581.428E-03    -290.020E-03     37.5968E-03
             269     13.4695E-03     60.3853E-03    -560.906E+03     62.8562E+06     89.8386E+06     891.937E+03    -288.842E-03     579.215E-03    -290.373E-03     57.3160E-03    -290.217E-03     580.551E-03    -290.014E-03     38.0548E-03
             270     13.4686E-03     62.0760E-03    -2.44069E+06     61.7775E+06     90.1802E+06    -1.28110E+06    -288.923E-03     579.293E-03    -290.370E-03     56.8683E-03    -290.324E-03     580.643E-03    -290.005E-03     37.3136E-03
             271     13.4685E-03     63.7742E-03    -3.08087E+06     61.7579E+06     89.7434E+06     -48.925E+03    -289.189E-03     579.562E-03    -290.373E-03     58.1393E-03    -290.596E-03     580.917E-03    -290.009E-03     38.7183E-03
             272     13.4691E-03     65.4674E-03    -2.22174E+06     62.2009E+06     89.5497E+06     343.153E+03    -288.928E-03     579.295E-03    -290.367E-03     58.5546E-03    -290.332E-03     580.652E-03    -290.006E-03     39.1846E-03
             273     13.4685E-03     67.1585E-03    -2.12171E+06     61.8893E+06     90.3662E+06    -332.396E+03    -288.933E-03     579.294E-03    -290.361E-03     57.5131E-03    -290.319E-03     580.630E-03    -289.996E-03     38.2067E-03
             274     13.4696E-03     68.8536E-03    -1.85213E+06     61.7442E+06     90.9763E+06     649.137E+03    -289.258E-03     579.623E-03    -290.365E-03     57.2784E-03    -290.632E-03     580.945E-03    -289.997E-03     38.0921E-03
             275     13.4676E-03     70.5483E-03    -3.81488E+06     61.5304E+06     89.8444E+06     228.909E+03    -289.187E-03     579.567E-03    -290.380E-03     57.3195E-03    -290.572E-03     580.896E-03    -290.014E-03     38.0949E-03
             276     13.4697E-03     72.2405E-03    -1.49568E+06     62.3315E+06     90.6247E+06     159.367E+03    -288.495E-03     578.860E-03    -290.364E-03     57.7304E-03    -289.885E-03     580.203E-03    -289.999E-03     38.4162E-03
             277     13.4692E-03     73.9315E-03    -2.55040E+06     61.7262E+06     91.0638E+06    -868.565E+03    -289.368E-03     579.713E-03    -290.344E-03     56.8240E-03    -290.761E-03     581.051E-03    -289.975E-03     37.3672E-03
             278     13.4681E-03     75.6313E-03    -2.66523E+06     62.6554E+06     90.9883E+06     468.169E+03    -289.524E-03     579.889E-03    -290.364E-03     57.3425E-03    -290.913E-03     581.227E-03    -289.996E-03     38.0415E-03
             279     13.4694E-03     77.3227E-03    -611.612E+03     66.3232E+06     91.5504E+06     1.47864E+06    -288.624E-03     578.983E-03    -290.360E-03     58.2511E-03    -290.020E-03     580.348E-03    -289.997E-03     38.9658E-03
             280     13.4691E-03     79.0138E-03    -2.21072E+06     68.3698E+06     91.9632E+06    -470.814E+03    -289.286E-03     579.640E-03    -290.354E-03     56.8345E-03    -290.679E-03     581.001E-03    -289.990E-03     37.4884E-03
             281     13.4679E-03     80.7131E-03    -3.11948E+06     69.9156E+06     90.3898E+06     890.367E+03    -289.401E-03     579.767E-03    -290.367E-03     57.3247E-03    -290.795E-03     581.137E-03    -290.012E-03     38.1086E-03
             282     13.4694E-03     82.4024E-03    -3.03717E+06     71.1565E+06     90.6144E+06     176.054E+03    -289.030E-03     579.384E-03    -290.354E-03     57.7459E-03    -290.442E-03     580.775E-03    -290.000E-03     38.3986E-03
             283     13.4687E-03     84.0980E-03    -1.64912E+06     70.0027E+06     92.4365E+06    -1.06491E+06    -289.226E-03     579.573E-03    -290.347E-03     56.8679E-03    -290.628E-03     580.949E-03    -289.984E-03     37.4341E-03
             284     13.4690E-03     85.7933E-03    -1.58196E+06     70.1788E+06     92.1857E+06     628.412E+03    -288.646E-03     579.000E-03    -290.354E-03     57.3331E-03    -290.057E-03     580.387E-03    -289.993E-03     37.8991E-03
             285     13.4694E-03     87.4826E-03    -1.84889E+06     72.9600E+06     93.0276E+06     603.420E+03    -288.909E-03     579.257E-03    -290.348E-03     57.4556E-03    -290.317E-03     580.648E-03    -289.986E-03     38.1376E-03
             286     13.4684E-03     89.1817E-03    -4.08275E+06      70.675E+06     91.4812E+06    -585.769E+03    -289.541E-03     579.913E-03    -290.372E-03     56.9736E-03    -290.934E-03     581.277E-03    -290.011E-03     37.7857E-03
             287     13.4679E-03     90.8743E-03    -3.11873E+06     71.3287E+06     91.5181E+06     888.844E+03    -288.499E-03     578.886E-03    -290.387E-03     58.6400E-03    -289.922E-03     580.285E-03    -290.028E-03     39.3485E-03
             288     13.4704E-03     92.5644E-03    -1.82419E+06     74.7644E+06     93.3605E+06    -87.7195E+03    -288.516E-03     578.869E-03    -290.353E-03     57.7867E-03    -289.944E-03     580.286E-03    -289.992E-03     38.2995E-03
             289     13.4677E-03     94.2593E-03    -2.52377E+06     74.3684E+06     92.8529E+06    -661.062E+03    -289.247E-03     579.592E-03    -290.345E-03     56.6583E-03    -290.658E-03     580.989E-03    -289.985E-03     37.2190E-03
             290     13.4700E-03     95.9538E-03    -819.695E+03     76.0391E+06     93.3831E+06     999.333E+03    -288.836E-03     579.188E-03    -290.353E-03     57.5427E-03    -290.237E-03     580.586E-03    -289.995E-03     38.3059E-03
             291     13.4682E-03     97.6469E-03    -2.47309E+06     74.6053E+06     92.6416E+06    -560.076E+03    -289.094E-03     579.443E-03    -290.348E-03     57.5467E-03    -290.502E-03     580.838E-03    -289.990E-03     38.2567E-03
             292     672.640E-06     98.3258E-03    -138.746E+06    -255.320E+06    -137.298E+06     770.510E+03    -290.765E-03     581.219E-03    -290.454E-03     16.1952E-03    -290.933E-03     580.386E-03    -290.569E-03     13.5445E-03
             293     1.34593E-03     98.3602E-03    -136.241E+06    -243.044E+06    -126.677E+06     144.799E+03    -290.258E-03     580.778E-03    -290.519E-03     29.5717E-03    -290.533E-03     580.074E-03    -290.603E-03     24.7100E-03
             294     2.01902E-03     98.4151E-03    -130.545E+06    -226.714E+06    -111.085E+06     35.9733E+03    -290.461E-03     580.891E-03    -290.430E-03     43.3152E-03    -290.891E-03     580.375E-03    -290.468E-03     36.2693E-03
             295     2.69264E-03     98.4910E-03    -123.320E+06    -205.991E+06    -91.7954E+06     49.0012E+03    -290.798E-03     581.232E-03    -290.434E-03     56.6029E-03    -291.429E-03     580.960E-03    -290.416E-03     47.4518E-03
             296     3.36604E-03     98.5875E-03    -114.907E+06    -182.936E+06    -71.1475E+06     41.5865E+03    -291.070E-03     581.539E-03    -290.469E-03     68.8522E-03    -291.932E-03     581.550E-03    -290.393E-03     57.7160E-03
             297     4.03949E-03     98.7011E-03    -106.014E+06    -160.655E+06    -50.8476E+06     184.062E+03    -291.419E-03     581.928E-03    -290.509E-03     80.1321E-03    -292.526E-03     582.236E-03    -290.377E-03     67.1489E-03
             298     4.71235E-03     98.8330E-03    -96.7316E+06    -134.634E+06    -31.4812E+06     186.201E+03    -291.750E-03     582.294E-03    -290.544E-03     90.4560E-03    -293.113E-03     582.927E-03    -290.366E-03     75.7777E-03
             299     5.38546E-03     98.9783E-03    -87.4417E+06    -105.146E+06    -13.3195E+06     107.244E+03    -291.995E-03     582.558E-03    -290.563E-03     99.7197E-03    -293.615E-03     583.534E-03    -290.351E-03     83.5043E-03
             300     6.05900E-03     99.1376E-03    -78.2870E+06    -75.7924E+06     3.79628E+06     8.18213E+03    -292.136E-03     582.702E-03    -290.566E-03     107.847E-03    -294.007E-03     584.014E-03    -290.323E-03     90.2248E-03
             301     6.73233E-03     99.3081E-03    -69.0348E+06    -41.7812E+06     20.3122E+06    -330.458E+03    -292.166E-03     582.710E-03    -290.543E-03     114.704E-03    -294.286E-03     584.377E-03    -290.281E-03     95.7480E-03
             302     7.40620E-03     99.4868E-03    -60.4465E+06    -5.26722E+06     35.4963E+06    -216.634E+03    -292.301E-03     582.807E-03    -290.506E-03     120.504E-03    -294.665E-03     584.835E-03    -290.234E-03     100.290E-03
             303     8.07970E-03     99.6742E-03    -52.6628E+06     16.0206E+06     45.6302E+06     520.742E+03    -292.548E-03     583.025E-03    -290.477E-03     125.352E-03    -295.134E-03     585.348E-03    -290.196E-03     103.869E-03
             304     8.75249E-03     99.8683E-03    -45.4350E+06     26.1483E+06     52.9521E+06     796.451E+03    -292.560E-03     583.018E-03    -290.458E-03     129.570E-03    -295.358E-03     585.594E-03    -290.165E-03     106.792E-03
             305     9.42713E-03     100.066E-03    -38.2736E+06     38.3641E+06     63.5396E+06     470.338E+03    -292.332E-03     582.779E-03    -290.447E-03     132.575E-03    -295.348E-03     585.611E-03    -290.130E-03     108.491E-03
             306     10.1012E-03     100.263E-03    -30.8380E+06     46.8073E+06     76.1953E+06     417.134E+03    -292.084E-03     582.535E-03    -290.451E-03     132.986E-03    -295.280E-03     585.566E-03    -290.093E-03     107.633E-03
             307     10.7749E-03     100.457E-03    -24.4359E+06     51.7537E+06     85.3374E+06    -21.5999E+03    -291.752E-03     582.207E-03    -290.454E-03     130.347E-03    -295.068E-03     585.372E-03    -290.067E-03     103.810E-03
             308     11.4464E-03     100.642E-03    -17.6525E+06     60.4239E+06     90.2707E+06     66.0758E+03    -291.153E-03     581.596E-03    -290.443E-03     121.858E-03    -294.364E-03     584.697E-03    -290.054E-03     95.0670E-03
             309     12.1216E-03     100.805E-03    -10.5860E+06     72.1690E+06     94.7795E+06     1.01439E+06    -290.317E-03     580.746E-03    -290.429E-03     116.254E-03    -293.651E-03     584.024E-03    -290.044E-03     88.0859E-03
             310     12.7951E-03     100.966E-03    -5.44069E+06     74.7444E+06     94.6901E+06     551.594E+03    -289.328E-03     579.729E-03    -290.401E-03     87.2029E-03    -291.840E-03     582.212E-03    -290.028E-03     62.5731E-03
             311     672.922E-06     100.020E-03    -139.774E+06    -256.425E+06    -137.247E+06    -241.916E+03    -290.631E-03     580.611E-03    -289.980E-03     16.3897E-03    -290.802E-03     579.774E-03    -290.092E-03     13.7359E-03
             312     1.34633E-03     100.053E-03    -135.927E+06    -242.782E+06    -127.067E+06     236.705E+03    -290.376E-03     580.671E-03    -290.294E-03     29.8556E-03    -290.650E-03     579.969E-03    -290.380E-03     25.0198E-03
             313     2.02003E-03     100.108E-03    -130.707E+06    -226.687E+06    -110.837E+06     274.062E+03    -290.711E-03     581.058E-03    -290.347E-03     43.5201E-03    -291.142E-03     580.542E-03    -290.383E-03     36.4888E-03
             314     2.69268E-03     100.185E-03    -123.254E+06    -205.931E+06    -91.6827E+06     121.114E+03    -291.035E-03     581.471E-03    -290.435E-03     56.3647E-03    -291.664E-03     581.197E-03    -290.416E-03     47.2324E-03
             315     3.36572E-03     100.280E-03    -115.252E+06    -183.150E+06    -71.3612E+06     194.680E+03    -291.217E-03     581.730E-03    -290.512E-03     68.5106E-03    -292.079E-03     581.739E-03    -290.436E-03     57.3565E-03
             316     4.03855E-03     100.396E-03    -106.330E+06    -160.840E+06    -50.9782E+06     217.744E+03    -291.384E-03     581.943E-03    -290.559E-03     80.0111E-03    -292.492E-03     582.250E-03    -290.426E-03     67.0142E-03
             317     4.71210E-03     100.526E-03    -97.0897E+06    -134.578E+06    -31.6922E+06     194.456E+03    -291.629E-03     582.205E-03    -290.576E-03     90.5199E-03    -292.994E-03     582.839E-03    -290.398E-03     75.8415E-03
             318     5.38570E-03     100.672E-03    -88.0358E+06    -105.121E+06    -13.7445E+06     179.761E+03    -291.901E-03     582.477E-03    -290.577E-03     99.7650E-03    -293.526E-03     583.457E-03    -290.365E-03     83.5348E-03
             319     6.05877E-03     100.831E-03    -78.8932E+06    -75.2443E+06     3.49745E+06     46.6756E+03    -292.018E-03     582.585E-03    -290.566E-03     107.810E-03    -293.895E-03     583.904E-03    -290.325E-03     90.1674E-03
             320     6.73263E-03     101.001E-03    -70.2366E+06    -41.0966E+06     19.9228E+06    -38.9732E+03    -292.198E-03     582.738E-03    -290.540E-03     114.757E-03    -294.324E-03     584.410E-03    -290.279E-03     95.8068E-03
             321     7.40601E-03     101.181E-03    -61.7945E+06    -6.92039E+06     34.4304E+06     461.392E+03    -292.467E-03     582.979E-03    -290.511E-03     120.726E-03    -294.837E-03     585.005E-03    -290.240E-03     100.512E-03
             322     8.07921E-03     101.369E-03    -53.3747E+06     14.1548E+06     44.6740E+06     1.25108E+06    -292.504E-03     582.988E-03    -290.484E-03     125.910E-03    -295.096E-03     585.312E-03    -290.204E-03     104.437E-03
             323     8.75363E-03     101.561E-03    -45.5129E+06     27.1139E+06     53.8142E+06     1.46678E+06    -292.417E-03     582.875E-03    -290.458E-03     129.938E-03    -295.221E-03     585.457E-03    -290.162E-03     107.198E-03
             324     9.42698E-03     101.758E-03    -38.3270E+06     39.1554E+06     63.8785E+06     1.17696E+06    -292.349E-03     582.789E-03    -290.440E-03     132.256E-03    -295.362E-03     585.620E-03    -290.122E-03     108.183E-03
             325     10.1005E-03     101.957E-03    -31.5817E+06     47.0605E+06     74.9207E+06     586.054E+03    -292.130E-03     582.573E-03    -290.443E-03     132.345E-03    -295.322E-03     585.602E-03    -290.091E-03     106.970E-03
             326     10.7738E-03     102.151E-03    -23.9810E+06     53.0765E+06     85.5896E+06     345.803E+03    -291.727E-03     582.181E-03    -290.454E-03     130.216E-03    -295.041E-03     585.350E-03    -290.068E-03     103.692E-03
             327     11.4490E-03     102.337E-03    -17.4034E+06     61.0613E+06     90.4979E+06    -420.211E+03    -291.187E-03     581.630E-03    -290.443E-03     122.543E-03    -294.403E-03     584.739E-03    -290.054E-03     95.7823E-03
             328     12.1204E-03     102.499E-03    -11.7154E+06     70.5399E+06     93.3938E+06    -1.07617E+06    -290.313E-03     580.736E-03    -290.423E-03     117.546E-03    -293.672E-03     584.033E-03    -290.041E-03     89.3253E-03
             329     12.7939E-03     102.660E-03    -4.57898E+06     74.1548E+06     94.7827E+06    -177.053E+03    -288.994E-03     579.380E-03    -290.386E-03     88.4827E-03    -291.525E-03     581.883E-03    -290.013E-03     63.8355E-03
             330     674.062E-06     101.712E-03    -139.596E+06    -254.936E+06    -138.481E+06    -677.557E+03    -290.415E-03     580.261E-03    -289.846E-03     15.5297E-03    -290.584E-03     579.431E-03    -289.967E-03     12.8668E-03
             331     1.34693E-03     101.746E-03    -136.764E+06    -244.071E+06    -127.959E+06    -115.751E+03    -290.678E-03     580.901E-03    -290.223E-03     29.1754E-03    -290.949E-03     580.191E-03    -290.310E-03     24.3768E-03
             332     2.01920E-03     101.802E-03    -130.795E+06    -226.786E+06    -111.213E+06     161.162E+03    -290.944E-03     581.347E-03    -290.403E-03     42.9580E-03    -291.371E-03     580.827E-03    -290.440E-03     35.9564E-03
             333     2.69246E-03     101.879E-03    -123.947E+06    -206.505E+06    -92.0450E+06     489.656E+03    -290.985E-03     581.495E-03    -290.510E-03     56.1659E-03    -291.616E-03     581.220E-03    -290.491E-03     47.0398E-03
             334     3.36527E-03     101.975E-03    -115.584E+06    -183.190E+06    -71.4149E+06     428.216E+03    -291.120E-03     581.677E-03    -290.557E-03     68.8588E-03    -291.987E-03     581.690E-03    -290.481E-03     57.6967E-03
             335     4.03890E-03     102.089E-03    -106.615E+06    -160.894E+06    -51.2426E+06     343.404E+03    -291.356E-03     581.937E-03    -290.581E-03     80.3895E-03    -292.469E-03     582.249E-03    -290.450E-03     67.3771E-03
             336     4.71219E-03     102.220E-03    -97.4930E+06    -134.873E+06    -32.1285E+06     546.694E+03    -291.590E-03     582.177E-03    -290.587E-03     90.7437E-03    -292.959E-03     582.814E-03    -290.411E-03     76.0582E-03
             337     5.38521E-03     102.366E-03    -88.2885E+06    -105.124E+06    -13.8884E+06       666.1E+03    -291.748E-03     582.322E-03    -290.574E-03     99.9045E-03    -293.375E-03     583.303E-03    -290.363E-03     83.6872E-03
             338     6.05915E-03     102.525E-03    -79.4341E+06    -75.4429E+06     3.14428E+06     875.776E+03    -291.982E-03     582.534E-03    -290.552E-03     107.893E-03    -293.861E-03     583.854E-03    -290.312E-03     90.2735E-03
             339     6.73250E-03     102.695E-03    -70.8888E+06    -41.3647E+06     19.4327E+06     1.33772E+06    -292.253E-03     582.779E-03    -290.526E-03     114.957E-03    -294.382E-03     584.453E-03    -290.266E-03     96.0357E-03
             340     7.40595E-03     102.875E-03    -62.3599E+06    -6.97063E+06     34.2295E+06     1.04027E+06    -292.376E-03     582.873E-03    -290.496E-03     121.000E-03    -294.751E-03     584.902E-03    -290.225E-03     100.808E-03
             341     8.08013E-03     103.061E-03    -53.6454E+06     14.4336E+06     44.6834E+06     327.984E+03    -292.501E-03     582.968E-03    -290.466E-03     125.776E-03    -295.094E-03     585.292E-03    -290.186E-03     104.290E-03
             342     8.75330E-03     103.255E-03    -45.0456E+06     25.3199E+06     53.5133E+06     787.947E+03    -292.599E-03     583.050E-03    -290.450E-03     129.523E-03    -295.395E-03     585.620E-03    -290.154E-03     106.744E-03
             343     9.42691E-03     103.453E-03    -37.1543E+06     37.9261E+06     64.6034E+06     1.61845E+06    -292.457E-03     582.905E-03    -290.448E-03     132.289E-03    -295.464E-03     585.728E-03    -290.126E-03     108.213E-03
             344     10.1003E-03     103.651E-03    -29.5702E+06     50.1320E+06     77.5357E+06     1.14520E+06    -292.065E-03     582.517E-03    -290.452E-03     132.948E-03    -295.259E-03     585.559E-03    -290.094E-03     107.624E-03
             345     10.7745E-03     103.844E-03    -22.9939E+06     54.3970E+06     86.3277E+06    -392.303E+03    -291.502E-03     581.946E-03    -290.444E-03     130.808E-03    -294.814E-03     585.119E-03    -290.058E-03     104.346E-03
             346     11.4470E-03     104.030E-03    -15.8494E+06     61.0388E+06     91.1397E+06    -213.572E+03    -290.822E-03     581.236E-03    -290.414E-03     122.992E-03    -294.029E-03     584.339E-03    -290.024E-03     96.3236E-03
             347     12.1227E-03     104.194E-03    -9.06649E+06     71.6016E+06     95.7433E+06     319.539E+03    -290.077E-03     580.459E-03    -290.382E-03     117.216E-03    -293.418E-03     583.745E-03    -289.994E-03     89.0710E-03
             348     12.7974E-03     104.352E-03    -4.88908E+06     73.7350E+06     95.0808E+06    -292.477E+03    -289.565E-03     579.919E-03    -290.354E-03     87.2427E-03    -292.079E-03     582.401E-03    -289.978E-03     62.5958E-03
             349     672.408E-06     103.404E-03    -141.456E+06    -254.687E+06    -137.259E+06     327.762E+03    -290.621E-03     581.025E-03    -290.403E-03     15.7740E-03    -290.803E-03     580.199E-03    -290.515E-03     13.0795E-03
             350     1.34576E-03     103.440E-03    -137.297E+06    -244.030E+06    -127.536E+06    -44.5392E+03    -290.710E-03     581.248E-03    -290.538E-03     29.3054E-03    -290.984E-03     580.539E-03    -290.623E-03     24.4904E-03
             351     2.01906E-03     103.497E-03    -131.641E+06    -227.666E+06    -111.970E+06     159.577E+03    -290.694E-03     581.268E-03    -290.574E-03     43.0686E-03    -291.124E-03     580.747E-03    -290.613E-03     36.0687E-03
             352     2.69196E-03     103.572E-03    -124.139E+06    -206.774E+06    -92.3932E+06     177.407E+03    -290.714E-03     581.282E-03    -290.568E-03     56.4305E-03    -291.348E-03     581.010E-03    -290.551E-03     47.2598E-03
             353     3.36594E-03     103.668E-03    -115.518E+06    -183.616E+06    -71.8710E+06     216.904E+03    -290.946E-03     581.501E-03    -290.555E-03     68.9028E-03    -291.810E-03     581.512E-03    -290.480E-03     57.7526E-03
             354     4.03884E-03     103.783E-03    -106.462E+06    -161.400E+06    -51.5383E+06     515.709E+03    -291.299E-03     581.858E-03    -290.559E-03     80.4319E-03    -292.411E-03     582.168E-03    -290.428E-03     67.4282E-03
             355     4.71195E-03     103.914E-03    -97.2578E+06    -135.496E+06    -32.2811E+06     724.692E+03    -291.513E-03     582.070E-03    -290.558E-03     90.9162E-03    -292.882E-03     582.707E-03    -290.382E-03     76.2334E-03
             356     5.38593E-03     104.059E-03    -87.9850E+06    -106.177E+06    -14.1165E+06     1.12757E+06    -291.720E-03     582.260E-03    -290.540E-03     100.078E-03    -293.344E-03     583.236E-03    -290.329E-03     83.8911E-03
             357     6.05919E-03     104.218E-03    -78.7068E+06    -76.8506E+06     3.12801E+06     1.65454E+06    -292.051E-03     582.573E-03    -290.522E-03     108.085E-03    -293.924E-03     583.885E-03    -290.281E-03     90.4945E-03
             358     6.73267E-03     104.389E-03    -69.4928E+06    -42.1488E+06     19.8823E+06     1.90438E+06    -292.263E-03     582.765E-03    -290.502E-03     115.031E-03    -294.386E-03     584.433E-03    -290.240E-03     96.1167E-03
             359     7.40663E-03     104.568E-03    -60.6271E+06    -5.30576E+06     35.5689E+06     1.89089E+06    -292.433E-03     582.910E-03    -290.477E-03     120.877E-03    -294.800E-03     584.940E-03    -290.204E-03     100.709E-03
             360     8.07960E-03     104.756E-03    -52.6917E+06     15.8104E+06     45.9988E+06     986.372E+03    -292.611E-03     583.068E-03    -290.457E-03     125.766E-03    -295.201E-03     585.394E-03    -290.173E-03     104.300E-03
             361     8.75312E-03     104.949E-03    -45.3028E+06     24.4261E+06     53.4196E+06         516.656    -292.600E-03     583.043E-03    -290.443E-03     129.921E-03    -295.404E-03     585.618E-03    -290.146E-03     107.112E-03
             362     9.42683E-03     105.146E-03    -37.2579E+06     37.6958E+06     64.0091E+06    -322.134E+03    -292.299E-03     582.730E-03    -290.430E-03     132.604E-03    -295.311E-03     585.558E-03    -290.111E-03     108.507E-03
             363     10.1012E-03     105.344E-03    -28.8916E+06     51.0552E+06     77.4788E+06    -398.155E+03    -291.901E-03     582.324E-03    -290.423E-03     133.091E-03    -295.095E-03     585.372E-03    -290.068E-03     107.752E-03
             364     10.7745E-03     105.538E-03    -21.1834E+06     55.5728E+06     88.0427E+06     292.883E+03    -291.550E-03     581.970E-03    -290.420E-03     130.762E-03    -294.860E-03     585.146E-03    -290.030E-03     104.284E-03
             365     11.4498E-03     105.723E-03    -15.9636E+06     60.3627E+06     91.6873E+06     431.304E+03    -291.160E-03     581.564E-03    -290.403E-03     122.461E-03    -294.370E-03     584.665E-03    -290.009E-03     95.7015E-03
             366     12.1220E-03     105.887E-03    -11.0005E+06     71.0754E+06     94.7885E+06     449.426E+03    -290.543E-03     580.938E-03    -290.395E-03     115.618E-03    -293.878E-03     584.212E-03    -290.009E-03     87.3349E-03
             367     12.7941E-03     106.046E-03    -5.34817E+06     74.6626E+06     95.1686E+06     719.480E+03    -289.560E-03     579.945E-03    -290.385E-03     86.2770E-03    -292.063E-03     582.419E-03    -290.010E-03     61.6072E-03
             368     673.389E-06     105.099E-03    -140.894E+06    -255.211E+06    -138.863E+06    -109.620E+03    -290.723E-03     581.386E-03    -290.663E-03     16.4395E-03    -290.901E-03     580.560E-03    -290.783E-03     13.7132E-03
             369     1.34560E-03     105.135E-03    -137.294E+06    -243.794E+06    -127.631E+06     257.016E+03    -290.586E-03     581.238E-03    -290.652E-03     30.0088E-03    -290.864E-03     580.534E-03    -290.738E-03     25.1485E-03
             370     2.01881E-03     105.189E-03    -131.772E+06    -227.615E+06    -111.950E+06     18.0111E+03    -290.506E-03     581.097E-03    -290.591E-03     43.4522E-03    -290.940E-03     580.579E-03    -290.630E-03     36.4180E-03
             371     2.69263E-03     105.266E-03    -124.108E+06    -207.023E+06    -92.8559E+06    -49.5457E+03    -290.688E-03     581.234E-03    -290.546E-03     56.5653E-03    -291.321E-03     580.961E-03    -290.530E-03     47.3916E-03
             372     3.36519E-03     105.361E-03    -115.870E+06    -184.198E+06    -72.4341E+06     162.473E+03    -290.912E-03     581.442E-03    -290.530E-03     69.0441E-03    -291.777E-03     581.452E-03    -290.457E-03     57.8941E-03
             373     4.03902E-03     105.476E-03    -107.020E+06    -161.990E+06    -52.1804E+06     215.929E+03    -291.147E-03     581.668E-03    -290.521E-03     80.5843E-03    -292.258E-03     581.976E-03    -290.392E-03     67.6103E-03
             374     4.71280E-03     105.607E-03    -97.6150E+06    -136.259E+06    -32.8306E+06     264.127E+03    -291.462E-03     581.973E-03    -290.510E-03     90.7673E-03    -292.828E-03     582.603E-03    -290.335E-03     76.1026E-03
             375     5.38588E-03     105.752E-03    -87.9821E+06    -107.162E+06    -14.4889E+06     342.205E+03    -291.802E-03     582.304E-03    -290.501E-03     99.9505E-03    -293.423E-03     583.274E-03    -290.291E-03     83.7478E-03
             376     6.05945E-03     105.912E-03    -78.1616E+06    -77.9635E+06     3.04191E+06     328.658E+03    -292.085E-03     582.581E-03    -290.496E-03     107.972E-03    -293.952E-03     583.885E-03    -290.254E-03     90.3588E-03
             377     6.73312E-03     106.082E-03    -68.3864E+06    -44.5360E+06     19.8063E+06     1.08712E+06    -292.373E-03     582.860E-03    -290.487E-03     114.834E-03    -294.482E-03     584.511E-03    -290.224E-03     95.9211E-03
             378     7.40606E-03     106.262E-03    -59.2302E+06     -6.0987E+06     35.6672E+06     2.07753E+06    -292.477E-03     582.947E-03    -290.470E-03     120.744E-03    -294.835E-03     584.969E-03    -290.197E-03     100.573E-03
             379     8.08008E-03     106.449E-03    -50.7059E+06     17.8328E+06     47.2586E+06     2.44576E+06    -292.393E-03     582.837E-03    -290.444E-03     125.797E-03    -294.980E-03     585.170E-03    -290.160E-03     104.355E-03
             380     8.75397E-03     106.642E-03    -42.8693E+06     28.0122E+06     56.1239E+06     1.48825E+06    -292.413E-03     582.832E-03    -290.419E-03     129.929E-03    -295.213E-03     585.417E-03    -290.117E-03     107.153E-03
             381     9.42756E-03     106.839E-03    -36.0707E+06     39.6975E+06     65.9455E+06    -344.801E+03    -292.410E-03     582.816E-03    -290.406E-03     132.471E-03    -295.426E-03     585.654E-03    -290.082E-03     108.318E-03
             382     10.1009E-03     107.036E-03    -30.0988E+06     48.5088E+06     76.8826E+06    -103.106E+03    -292.268E-03     582.684E-03    -290.417E-03     132.606E-03    -295.461E-03     585.720E-03    -290.059E-03     107.211E-03
             383     10.7753E-03     107.231E-03    -24.3843E+06     53.2767E+06     85.9853E+06     1.26851E+06    -291.891E-03     582.327E-03    -290.436E-03     129.717E-03    -295.202E-03     585.491E-03    -290.048E-03     103.175E-03
             384     11.4471E-03     107.417E-03    -18.1378E+06     61.0416E+06     90.9362E+06     1.13419E+06    -291.158E-03     581.593E-03    -290.435E-03     122.062E-03    -294.375E-03     584.699E-03    -290.042E-03     95.2893E-03
             385     12.1205E-03     107.584E-03    -11.7800E+06     72.0337E+06     94.7287E+06     264.388E+03    -290.273E-03     580.689E-03    -290.417E-03     117.193E-03    -293.632E-03     583.988E-03    -290.030E-03     88.9863E-03
             386     12.7947E-03     107.740E-03    -5.16014E+06     75.3189E+06     95.5544E+06    -155.652E+03    -289.247E-03     579.633E-03    -290.386E-03     87.9895E-03    -291.779E-03     582.137E-03    -290.010E-03     63.2994E-03
             387     672.380E-06     106.793E-03    -140.622E+06    -254.979E+06    -138.241E+06     40.5257E+03    -290.525E-03     581.101E-03    -290.576E-03     16.4107E-03    -290.701E-03     580.274E-03    -290.693E-03     13.7384E-03
             388     1.34637E-03     106.828E-03    -137.375E+06    -244.137E+06    -128.386E+06    -176.263E+03    -290.471E-03     580.984E-03    -290.513E-03     29.6861E-03    -290.748E-03     580.279E-03    -290.602E-03     24.8100E-03
             389     2.01948E-03     106.883E-03    -131.446E+06    -227.490E+06    -112.185E+06     60.8299E+03    -290.509E-03     580.988E-03    -290.479E-03     43.3913E-03    -290.942E-03     580.472E-03    -290.519E-03     36.3333E-03
             390     2.69212E-03     106.959E-03    -124.976E+06    -207.474E+06    -93.4804E+06     258.252E+03    -290.681E-03     581.144E-03    -290.462E-03     56.7934E-03    -291.318E-03     580.871E-03    -290.448E-03     47.6465E-03
             391     3.36621E-03     107.055E-03    -116.713E+06    -184.283E+06    -72.9041E+06     142.891E+03    -290.974E-03     581.441E-03    -290.467E-03     69.1758E-03    -291.844E-03     581.454E-03    -290.395E-03     58.0293E-03
             392     4.03927E-03     107.169E-03    -107.621E+06    -161.927E+06    -52.4203E+06     49.4058E+03    -291.254E-03     581.738E-03    -290.484E-03     80.3926E-03    -292.366E-03     582.045E-03    -290.355E-03     67.4146E-03
             393     4.71241E-03     107.300E-03    -98.4765E+06    -136.195E+06    -33.2111E+06    -116.715E+03    -291.539E-03     582.033E-03    -290.494E-03     90.5619E-03    -292.907E-03     582.664E-03    -290.320E-03     75.8881E-03
             394     5.38606E-03     107.446E-03    -89.3723E+06    -107.039E+06    -15.2070E+06    -292.181E+03    -291.841E-03     582.337E-03    -290.496E-03     99.7284E-03    -293.467E-03     583.310E-03    -290.287E-03     83.5064E-03
             395     6.05947E-03     107.605E-03    -80.8306E+06    -77.9655E+06     1.57613E+06    -320.376E+03    -292.141E-03     582.638E-03    -290.497E-03     107.754E-03    -294.016E-03     583.945E-03    -290.259E-03     90.1408E-03
             396     6.73262E-03     107.776E-03    -72.4237E+06    -45.9942E+06     17.3615E+06    -685.242E+03    -292.332E-03     582.822E-03    -290.491E-03     114.768E-03    -294.455E-03     584.475E-03    -290.232E-03     95.8299E-03
             397     7.40649E-03     107.956E-03    -63.0166E+06    -9.27176E+06     32.9635E+06    -467.485E+03    -292.257E-03     582.721E-03    -290.464E-03     120.699E-03    -294.629E-03     584.741E-03    -290.194E-03     100.469E-03
             398     8.07997E-03     108.142E-03    -53.7506E+06     15.5760E+06     44.1012E+06     1.05330E+06    -292.287E-03     582.709E-03    -290.422E-03     125.750E-03    -294.883E-03     585.041E-03    -290.146E-03     104.275E-03
             399     8.75363E-03     108.336E-03    -45.9898E+06     30.7214E+06     53.0521E+06     1.46188E+06    -292.439E-03     582.830E-03    -290.390E-03     129.687E-03    -295.250E-03     585.432E-03    -290.103E-03     106.913E-03
             400     9.42754E-03     108.533E-03    -39.2873E+06     41.6494E+06     63.8400E+06     1.25808E+06    -292.599E-03     582.994E-03    -290.395E-03     132.143E-03    -295.626E-03     585.844E-03    -290.079E-03     108.007E-03
             401     10.1011E-03     108.731E-03    -33.0426E+06     45.5743E+06     75.2330E+06     1.82066E+06    -292.534E-03     582.965E-03    -290.431E-03     132.643E-03    -295.738E-03     585.995E-03    -290.073E-03     107.245E-03
             402     10.7729E-03     108.926E-03    -25.6508E+06     54.9091E+06     86.4355E+06     948.332E+03    -291.864E-03     582.321E-03    -290.457E-03     130.791E-03    -295.196E-03     585.506E-03    -290.067E-03     104.281E-03
             403     11.4477E-03     109.111E-03    -17.1543E+06     63.8813E+06     92.2442E+06    -819.970E+03    -290.719E-03     581.152E-03    -290.434E-03     123.317E-03    -293.951E-03     584.283E-03    -290.040E-03     96.5902E-03
             404     12.1230E-03     109.274E-03    -9.91227E+06     71.2655E+06     95.4671E+06    -811.686E+03    -289.752E-03     580.138E-03    -290.386E-03     117.465E-03    -293.104E-03     583.431E-03    -289.998E-03     89.2951E-03
             405     12.7969E-03     109.435E-03    -4.49467E+06     74.7206E+06     95.5472E+06    -91.0245E+03    -289.487E-03     579.834E-03    -290.347E-03     87.2822E-03    -292.000E-03     582.319E-03    -289.971E-03     62.6528E-03
             406     673.699E-06     108.488E-03    -140.915E+06    -255.411E+06    -139.211E+06     396.682E+03    -290.354E-03     580.568E-03    -290.214E-03     16.5979E-03    -290.530E-03     579.741E-03    -290.336E-03     13.9614E-03
             407     1.34587E-03     108.521E-03    -137.788E+06    -244.370E+06    -128.396E+06     366.236E+03    -290.436E-03     580.729E-03    -290.293E-03     29.8921E-03    -290.715E-03     580.024E-03    -290.381E-03     25.0543E-03
             408     2.01925E-03     108.576E-03    -132.527E+06    -228.051E+06    -112.716E+06     234.733E+03    -290.609E-03     580.952E-03    -290.343E-03     43.4282E-03    -291.045E-03     580.435E-03    -290.384E-03     36.3757E-03
             409     2.69332E-03     108.652E-03    -125.167E+06    -207.320E+06    -93.4950E+06     202.571E+03    -290.834E-03     581.230E-03    -290.396E-03     56.4490E-03    -291.470E-03     580.957E-03    -290.381E-03     47.2955E-03
             410     3.36586E-03     108.748E-03    -116.953E+06    -184.254E+06    -72.9687E+06     297.708E+03    -291.068E-03     581.512E-03    -290.444E-03     68.7290E-03    -291.936E-03     581.522E-03    -290.372E-03     57.5819E-03
             411     4.03912E-03     108.863E-03    -108.180E+06    -162.027E+06    -52.6303E+06     421.918E+03    -291.325E-03     581.807E-03    -290.482E-03     80.1620E-03    -292.439E-03     582.115E-03    -290.354E-03     67.1763E-03
             412     4.71263E-03     108.993E-03    -99.1729E+06    -136.048E+06    -33.4187E+06     557.307E+03    -291.612E-03     582.115E-03    -290.504E-03     90.5759E-03    -292.982E-03     582.748E-03    -290.330E-03     75.9130E-03
             413     5.38578E-03     109.140E-03    -90.2994E+06    -106.984E+06    -15.5191E+06     653.197E+03    -291.905E-03     582.418E-03    -290.514E-03     99.7055E-03    -293.534E-03     583.393E-03    -290.305E-03     83.4980E-03
             414     6.05912E-03     109.298E-03    -81.5848E+06    -77.9209E+06     1.28426E+06     947.917E+03    -292.106E-03     582.620E-03    -290.515E-03     107.837E-03    -293.987E-03     583.931E-03    -290.277E-03     90.2277E-03
             415     6.73276E-03     109.470E-03    -73.0939E+06    -43.6150E+06     17.7757E+06     697.125E+03    -292.087E-03     582.580E-03    -290.493E-03     114.882E-03    -294.222E-03     584.249E-03    -290.235E-03     95.9523E-03
             416     7.40625E-03     109.648E-03    -65.2513E+06    -8.97717E+06     32.2698E+06    -559.635E+03    -292.179E-03     582.630E-03    -290.451E-03     120.816E-03    -294.562E-03     584.655E-03    -290.182E-03     100.603E-03
             417     8.08034E-03     109.836E-03    -56.9919E+06     13.3762E+06     42.2663E+06    -1.54252E+06    -292.487E-03     582.900E-03    -290.414E-03     125.770E-03    -295.090E-03     585.226E-03    -290.139E-03     104.267E-03
             418     8.75399E-03     110.029E-03    -47.7276E+06     27.6853E+06     51.9787E+06    -470.982E+03    -292.675E-03     583.078E-03    -290.403E-03     129.574E-03    -295.486E-03     585.668E-03    -290.114E-03     106.765E-03
             419     9.42716E-03     110.227E-03    -38.9790E+06     39.2237E+06     63.3772E+06     1.58269E+06    -292.562E-03     582.975E-03    -290.413E-03     132.271E-03    -295.577E-03     585.807E-03    -290.096E-03     108.199E-03
             420     10.1002E-03     110.425E-03    -29.9614E+06     48.6200E+06     76.5771E+06     620.416E+03    -292.131E-03     582.559E-03    -290.428E-03     133.058E-03    -295.323E-03     585.595E-03    -290.072E-03     107.725E-03
             421     10.7758E-03     110.619E-03    -21.5598E+06     57.2181E+06     88.0072E+06    -1.01938E+06    -291.547E-03     581.977E-03    -290.429E-03     130.714E-03    -294.865E-03     585.166E-03    -290.041E-03     104.183E-03
             422     11.4490E-03     110.804E-03    -15.3988E+06     63.8019E+06     92.6305E+06    -274.039E+03    -290.858E-03     581.264E-03    -290.406E-03     122.244E-03    -294.069E-03     584.378E-03    -290.013E-03     95.4962E-03
             423     12.1213E-03     110.968E-03    -10.2562E+06     70.5432E+06     95.1921E+06     113.841E+03    -290.211E-03     580.592E-03    -290.381E-03     116.653E-03    -293.554E-03     583.872E-03    -289.992E-03     88.4445E-03
             424     12.7948E-03     111.128E-03    -4.88321E+06     74.1545E+06     95.4392E+06     72.2887E+03    -289.645E-03     580.006E-03    -290.361E-03     86.9957E-03    -292.157E-03     582.487E-03    -289.984E-03     62.3424E-03
             425     672.969E-06     110.180E-03    -141.252E+06    -256.070E+06    -139.162E+06     81.5773E+03    -290.231E-03     580.258E-03    -290.028E-03     16.2885E-03    -290.407E-03     579.428E-03    -290.147E-03     13.6020E-03
             426     1.34734E-03     110.214E-03    -137.626E+06    -244.637E+06    -128.013E+06     78.1202E+03    -290.493E-03     580.679E-03    -290.186E-03     29.4655E-03    -290.769E-03     579.969E-03    -290.272E-03     24.6296E-03
             427     2.02015E-03     110.270E-03    -131.975E+06    -228.204E+06    -112.520E+06     135.534E+03    -290.830E-03     581.150E-03    -290.320E-03     42.8910E-03    -291.261E-03     580.629E-03    -290.361E-03     35.8523E-03
             428     2.69211E-03     110.346E-03    -124.992E+06    -207.912E+06    -93.4175E+06     486.740E+03    -290.940E-03     581.368E-03    -290.428E-03     56.1346E-03    -291.574E-03     581.090E-03    -290.412E-03     46.9727E-03
             429     3.36575E-03     110.442E-03    -116.744E+06    -184.747E+06    -72.6852E+06     778.806E+03    -291.040E-03     581.520E-03    -290.481E-03     68.7111E-03    -291.905E-03     581.526E-03    -290.407E-03     57.5813E-03
             430     4.03923E-03     110.556E-03    -107.762E+06    -162.240E+06    -52.3120E+06     815.319E+03    -291.304E-03     581.812E-03    -290.508E-03     80.1346E-03    -292.415E-03     582.116E-03    -290.378E-03     67.1639E-03
             431     4.71232E-03     110.687E-03    -98.3521E+06    -136.469E+06    -32.9920E+06     870.425E+03    -291.580E-03     582.102E-03    -290.522E-03     90.5278E-03    -292.947E-03     582.731E-03    -290.347E-03     75.8660E-03
             432     5.38581E-03     110.833E-03    -88.7459E+06    -107.487E+06    -14.7105E+06     1.04239E+06    -291.824E-03     582.346E-03    -290.522E-03     99.9341E-03    -293.448E-03     583.317E-03    -290.311E-03     83.7366E-03
             433     6.05918E-03     110.993E-03    -78.7820E+06    -78.5922E+06     2.70436E+06     1.05559E+06    -291.966E-03     582.476E-03    -290.509E-03     108.064E-03    -293.838E-03     583.781E-03    -290.268E-03     90.4474E-03
             434     6.73284E-03     111.162E-03    -68.7843E+06    -44.7510E+06     19.5146E+06     1.82606E+06    -292.098E-03     582.577E-03    -290.479E-03     114.871E-03    -294.212E-03     584.232E-03    -290.217E-03     95.9595E-03
             435     7.40698E-03     111.342E-03    -59.3715E+06    -5.86172E+06     36.0708E+06     2.43091E+06    -292.396E-03     582.845E-03    -290.449E-03     120.677E-03    -294.755E-03     584.867E-03    -290.174E-03     100.522E-03
             436     8.08000E-03     111.529E-03    -51.3263E+06     18.1461E+06     47.8559E+06     597.216E+03    -292.669E-03     583.103E-03    -290.435E-03     125.626E-03    -295.255E-03     585.433E-03    -290.147E-03     104.159E-03
             437     8.75319E-03     111.723E-03    -44.2832E+06     24.8834E+06     55.7506E+06    -918.543E+03    -292.683E-03     583.118E-03    -290.435E-03     129.720E-03    -295.479E-03     585.684E-03    -290.128E-03     106.922E-03
             438     9.42689E-03     111.920E-03    -35.8756E+06     38.0661E+06     66.1359E+06    -1.56261E+06    -292.449E-03     582.880E-03    -290.431E-03     132.426E-03    -295.455E-03     585.702E-03    -290.104E-03     108.301E-03
             439     10.1017E-03     112.118E-03    -28.0060E+06     50.2193E+06     77.4699E+06    -1.25559E+06    -292.109E-03     582.539E-03    -290.430E-03     132.513E-03    -295.290E-03     585.575E-03    -290.075E-03     107.133E-03
             440     10.7738E-03     112.313E-03    -22.6483E+06     55.4896E+06     86.9592E+06     683.053E+03    -291.639E-03     582.077E-03    -290.438E-03     129.815E-03    -294.950E-03     585.253E-03    -290.051E-03     103.265E-03
             441     11.4474E-03     112.498E-03    -17.8493E+06     63.0830E+06     91.5085E+06     1.02163E+06    -291.150E-03     581.579E-03    -290.429E-03     121.739E-03    -294.364E-03     584.687E-03    -290.037E-03     94.9769E-03
             442     12.1225E-03     112.661E-03    -11.6159E+06     71.7076E+06     94.6717E+06     562.101E+03    -290.462E-03     580.881E-03    -290.419E-03     116.193E-03    -293.802E-03     584.159E-03    -290.033E-03     87.9900E-03
             443     12.7957E-03     112.823E-03    -5.51217E+06     75.0113E+06     95.5460E+06     194.879E+03    -289.328E-03     579.727E-03    -290.399E-03     86.9848E-03    -291.848E-03     582.217E-03    -290.022E-03     62.2912E-03
             444     673.613E-06     111.872E-03    -141.436E+06    -256.396E+06    -138.010E+06    -192.383E+03    -290.725E-03     580.825E-03    -290.100E-03     16.0544E-03    -290.903E-03     579.991E-03    -290.213E-03     13.3695E-03
             445     1.34563E-03     111.908E-03    -137.143E+06    -245.379E+06    -128.119E+06     146.159E+03    -290.490E-03     580.900E-03    -290.410E-03     29.2836E-03    -290.761E-03     580.185E-03    -290.496E-03     24.4802E-03
             446     2.01873E-03     111.964E-03    -131.832E+06    -229.084E+06    -112.128E+06     700.110E+03    -290.617E-03     581.052E-03    -290.435E-03     43.0386E-03    -291.047E-03     580.526E-03    -290.472E-03     36.0295E-03
             447     2.69280E-03     112.040E-03    -124.631E+06    -208.385E+06    -92.7803E+06     604.883E+03    -290.834E-03     581.302E-03    -290.468E-03     56.3559E-03    -291.467E-03     581.022E-03    -290.449E-03     47.1943E-03
             448     3.36585E-03     112.135E-03    -115.988E+06    -185.351E+06    -72.1874E+06     584.026E+03    -291.070E-03     581.572E-03    -290.501E-03     68.7950E-03    -291.933E-03     581.574E-03    -290.425E-03     57.6501E-03
             449     4.03881E-03     112.250E-03    -106.734E+06    -162.604E+06     -51.713E+06     688.532E+03    -291.276E-03     581.801E-03    -290.525E-03     80.2757E-03    -292.385E-03     582.103E-03    -290.393E-03     67.2962E-03
             450     4.71237E-03     112.380E-03    -97.2574E+06    -136.551E+06    -32.2297E+06     557.282E+03    -291.498E-03     582.026E-03    -290.528E-03     90.7283E-03    -292.863E-03     582.654E-03    -290.350E-03     76.0605E-03
             451     5.38583E-03     112.527E-03    -87.7835E+06    -107.841E+06    -13.9866E+06     351.893E+03    -291.705E-03     582.219E-03    -290.514E-03     99.9492E-03    -293.324E-03     583.184E-03    -290.300E-03     83.7526E-03
             452     6.05963E-03     112.685E-03    -78.4796E+06    -78.7416E+06     3.30993E+06     47.5096E+03    -291.964E-03     582.460E-03    -290.496E-03     107.803E-03    -293.832E-03     583.760E-03    -290.251E-03     90.1895E-03
             453     6.73324E-03     112.855E-03    -69.1853E+06    -46.4380E+06     19.6285E+06    -527.133E+03    -292.352E-03     582.834E-03    -290.482E-03     114.636E-03    -294.463E-03     584.478E-03    -290.216E-03     95.6759E-03
             454     7.40603E-03     113.035E-03    -59.4340E+06    -7.80150E+06     35.8227E+06    -174.840E+03    -292.565E-03     583.036E-03    -290.471E-03     120.553E-03    -294.921E-03     585.049E-03    -290.194E-03     100.332E-03
             455     8.07994E-03     113.223E-03    -50.0540E+06     18.5861E+06     48.2703E+06     1.94268E+06    -292.543E-03     582.999E-03    -290.456E-03     125.563E-03    -295.124E-03     585.328E-03    -290.169E-03     104.114E-03
             456     8.75377E-03     113.417E-03    -42.4877E+06     28.7164E+06     56.5345E+06     2.21297E+06    -292.538E-03     582.979E-03    -290.441E-03     129.600E-03    -295.333E-03     585.561E-03    -290.138E-03     106.832E-03
             457     9.42756E-03     113.614E-03    -37.8065E+06     41.3826E+06     65.7289E+06     15.8156E+03    -292.534E-03     582.969E-03    -290.435E-03     132.230E-03    -295.555E-03     585.812E-03    -290.112E-03     108.094E-03
             458     10.0997E-03     113.813E-03    -33.1287E+06     47.5771E+06     76.0680E+06    -160.750E+03    -292.259E-03     582.711E-03    -290.452E-03     132.665E-03    -295.466E-03     585.749E-03    -290.092E-03     107.270E-03
             459     10.7744E-03     114.006E-03    -24.9880E+06     52.9815E+06     86.3694E+06     580.284E+03    -291.810E-03     582.277E-03    -290.467E-03     130.457E-03    -295.139E-03     585.455E-03    -290.076E-03     103.888E-03
             460     11.4484E-03     114.192E-03    -16.2542E+06     64.6998E+06     93.0788E+06     461.641E+03    -291.225E-03     581.685E-03    -290.460E-03     122.549E-03    -294.453E-03     584.815E-03    -290.065E-03     95.7307E-03
             461     12.1195E-03     114.357E-03    -10.2525E+06     72.5962E+06     95.7543E+06     71.2230E+03    -290.147E-03     580.585E-03    -290.438E-03     117.047E-03    -293.496E-03     583.878E-03    -290.049E-03     88.8655E-03
             462     12.7936E-03     114.514E-03    -5.26875E+06     74.6751E+06     94.8543E+06    -65.3963E+03    -289.051E-03     579.444E-03    -290.393E-03     88.0277E-03    -291.576E-03     581.940E-03    -290.019E-03     63.3961E-03
             463     672.162E-06     113.566E-03    -140.364E+06    -257.388E+06    -138.552E+06     544.872E+03    -290.861E-03     581.225E-03    -290.364E-03     16.0355E-03    -291.033E-03     580.387E-03    -290.480E-03     13.3398E-03
             464     1.34620E-03     113.601E-03    -137.555E+06    -246.377E+06    -127.804E+06     790.889E+03    -290.365E-03     580.909E-03    -290.545E-03     29.8454E-03    -290.640E-03     580.193E-03    -290.627E-03     24.9948E-03
             465     2.01981E-03     113.656E-03    -131.536E+06    -229.411E+06    -111.524E+06     306.632E+03    -290.458E-03     580.927E-03    -290.469E-03     43.4252E-03    -290.888E-03     580.400E-03    -290.504E-03     36.3983E-03
             466     2.69244E-03     113.733E-03    -123.816E+06    -208.633E+06    -92.3494E+06     259.872E+03    -290.767E-03     581.226E-03    -290.459E-03     56.4981E-03    -291.397E-03     580.943E-03    -290.438E-03     47.3477E-03
             467     3.36552E-03     113.829E-03    -115.587E+06    -185.933E+06    -71.8940E+06     442.308E+03    -291.032E-03     581.513E-03    -290.481E-03     69.0011E-03    -291.894E-03     581.514E-03    -290.403E-03     57.8504E-03
             468     4.03923E-03     113.943E-03    -106.691E+06    -162.833E+06    -51.4644E+06     483.666E+03    -291.271E-03     581.773E-03    -290.502E-03     80.4930E-03    -292.381E-03     582.076E-03    -290.369E-03     67.5056E-03
             469     4.71255E-03     114.074E-03    -97.5852E+06    -136.660E+06    -32.1129E+06     556.916E+03    -291.551E-03     582.062E-03    -290.510E-03     90.7283E-03    -292.917E-03     582.689E-03    -290.331E-03     76.0632E-03
             470     5.38597E-03     114.220E-03    -88.5335E+06    -107.500E+06    -13.7538E+06     477.087E+03    -291.826E-03     582.337E-03    -290.512E-03     99.7453E-03    -293.448E-03     583.304E-03    -290.296E-03     83.5408E-03
             471     6.05930E-03     114.379E-03    -79.7932E+06    -78.1000E+06     3.37219E+06     338.602E+03    -292.126E-03     582.637E-03    -290.511E-03     107.662E-03    -294.000E-03     583.941E-03    -290.265E-03     90.0390E-03
             472     6.73249E-03     114.549E-03    -71.6121E+06    -43.8703E+06     19.7382E+06    -183.544E+03    -292.371E-03     582.876E-03    -290.506E-03     114.756E-03    -294.498E-03     584.537E-03    -290.239E-03     95.8032E-03
             473     7.40634E-03     114.729E-03    -64.2952E+06    -8.90370E+06     33.8013E+06    -858.238E+03    -292.504E-03     582.993E-03    -290.489E-03     120.863E-03    -294.884E-03     585.015E-03    -290.213E-03     100.630E-03
             474     8.07954E-03     114.916E-03    -56.7341E+06     12.1894E+06     42.5034E+06    -193.963E+03    -292.575E-03     583.038E-03    -290.463E-03     125.648E-03    -295.176E-03     585.358E-03    -290.186E-03     104.145E-03
             475     8.75322E-03     115.110E-03    -48.4356E+06     28.4176E+06     51.1380E+06     1.01807E+06    -292.601E-03     583.045E-03    -290.444E-03     129.495E-03    -295.417E-03     585.642E-03    -290.159E-03     106.688E-03
             476     9.42636E-03     115.308E-03    -39.4664E+06     43.6051E+06     64.0256E+06     2.27724E+06    -292.369E-03     582.813E-03    -290.444E-03     132.168E-03    -295.399E-03     585.672E-03    -290.130E-03     108.074E-03
             477     10.1014E-03     115.506E-03    -30.6677E+06     49.7045E+06     77.5758E+06     1.45258E+06    -292.078E-03     582.535E-03    -290.457E-03     132.849E-03    -295.280E-03     585.580E-03    -290.097E-03     107.492E-03
             478     10.7742E-03     115.700E-03    -23.9192E+06     55.3603E+06     87.3662E+06    -1.39289E+06    -291.767E-03     582.229E-03    -290.462E-03     130.885E-03    -295.094E-03     585.414E-03    -290.071E-03     104.340E-03
             479     11.4465E-03     115.887E-03    -16.8175E+06     62.8410E+06     92.1688E+06    -1.21069E+06    -290.897E-03     581.337E-03    -290.440E-03     123.181E-03    -294.128E-03     584.464E-03    -290.046E-03     96.4126E-03
             480     12.1231E-03     116.049E-03    -9.89787E+06     71.4865E+06     95.6279E+06     219.038E+03    -289.951E-03     580.355E-03    -290.404E-03     117.234E-03    -293.303E-03     583.648E-03    -290.015E-03     89.0464E-03
             481     12.7974E-03     116.209E-03    -4.96293E+06     75.3052E+06     95.2823E+06     61.4566E+03    -289.373E-03     579.737E-03    -290.364E-03     87.5546E-03    -291.886E-03     582.224E-03    -289.990E-03     62.9656E-03
             482     673.559E-06     115.261E-03    -141.531E+06    -258.799E+06    -138.226E+06     214.323E+03    -290.231E-03     580.803E-03    -290.571E-03     16.2632E-03    -290.407E-03     579.958E-03    -290.682E-03     13.5544E-03
             483     1.34604E-03     115.294E-03    -136.334E+06    -246.066E+06    -127.431E+06    -46.1313E+03    -290.528E-03     580.935E-03    -290.407E-03     29.7621E-03    -290.799E-03     580.217E-03    -290.489E-03     24.9041E-03
             484     2.01893E-03     115.350E-03    -130.932E+06    -229.621E+06    -111.851E+06     72.9070E+03    -290.599E-03     581.032E-03    -290.433E-03     43.3440E-03    -291.026E-03     580.504E-03    -290.470E-03     36.2965E-03
             485     2.69265E-03     115.426E-03    -124.165E+06    -209.450E+06    -92.5558E+06     476.500E+03    -290.682E-03     581.127E-03    -290.446E-03     56.4932E-03    -291.311E-03     580.841E-03    -290.425E-03     47.3414E-03
             486     3.36635E-03     115.522E-03    -115.903E+06    -186.239E+06    -71.7738E+06     504.680E+03    -290.960E-03     581.416E-03    -290.456E-03     68.8538E-03    -291.821E-03     581.413E-03    -290.377E-03     57.7211E-03
             487     4.03927E-03     115.636E-03    -106.915E+06    -163.215E+06    -51.3720E+06     598.060E+03    -291.317E-03     581.797E-03    -290.480E-03     80.2377E-03    -292.426E-03     582.096E-03    -290.345E-03     67.2575E-03
             488     4.71250E-03     115.767E-03    -97.7405E+06    -137.174E+06    -32.0196E+06     857.683E+03    -291.601E-03     582.102E-03    -290.500E-03     90.6325E-03    -292.967E-03     582.726E-03    -290.320E-03     75.9678E-03
             489     5.38585E-03     115.913E-03    -88.5719E+06    -108.128E+06    -13.8623E+06     1.32103E+06    -291.925E-03     582.435E-03    -290.511E-03     99.9174E-03    -293.548E-03     583.401E-03    -290.295E-03     83.7231E-03
             490     6.05911E-03     116.073E-03    -79.4616E+06    -78.3000E+06     3.42868E+06     1.68906E+06    -292.199E-03     582.717E-03    -290.517E-03     108.053E-03    -294.076E-03     584.023E-03    -290.271E-03     90.4381E-03
             491     6.73279E-03     116.243E-03    -70.5435E+06    -43.5255E+06     20.1214E+06     2.26632E+06    -292.352E-03     582.863E-03    -290.511E-03     115.040E-03    -294.478E-03     584.526E-03    -290.245E-03     96.1255E-03
             492     7.40616E-03     116.423E-03    -61.6871E+06    -7.81431E+06     35.1833E+06     2.72354E+06    -292.475E-03     582.966E-03    -290.490E-03     120.880E-03    -294.844E-03     584.985E-03    -290.214E-03     100.720E-03
             493     8.07995E-03     116.611E-03    -53.3196E+06     14.1574E+06     45.7473E+06     896.301E+03    -292.663E-03     583.135E-03    -290.472E-03     125.871E-03    -295.256E-03     585.456E-03    -290.186E-03     104.390E-03
             494     8.75296E-03     116.804E-03    -44.7087E+06     27.2474E+06     55.7327E+06    -643.183E+03    -292.638E-03     583.103E-03    -290.465E-03     130.027E-03    -295.448E-03     585.689E-03    -290.161E-03     107.206E-03
             495     9.42711E-03     117.001E-03    -35.9836E+06     41.2922E+06     66.7172E+06        -184.131    -292.357E-03     582.812E-03    -290.454E-03     132.535E-03    -295.379E-03     585.659E-03    -290.129E-03     108.384E-03
             496     10.1000E-03     117.198E-03    -28.3509E+06     51.9555E+06     77.6504E+06     235.637E+03    -292.090E-03     582.538E-03    -290.448E-03     133.110E-03    -295.291E-03     585.597E-03    -290.094E-03     107.707E-03
             497     10.7742E-03     117.395E-03    -21.3180E+06     58.1596E+06     88.0790E+06     716.603E+03    -291.448E-03     581.893E-03    -290.444E-03     130.750E-03    -294.767E-03     585.087E-03    -290.058E-03     104.248E-03
             498     11.4498E-03     117.578E-03    -16.3595E+06     62.2131E+06     91.9883E+06     493.826E+03    -290.767E-03     581.183E-03    -290.415E-03     122.570E-03    -293.988E-03     584.299E-03    -290.022E-03     95.8194E-03
             499     12.1211E-03     117.744E-03    -11.1973E+06     70.3264E+06     94.5421E+06    -460.727E+03    -290.279E-03     580.666E-03    -290.387E-03     116.478E-03    -293.624E-03     583.947E-03    -290.000E-03     88.2392E-03
             500     12.7936E-03     117.902E-03    -4.85804E+06     75.3217E+06     95.7475E+06     96.5819E+03    -289.376E-03     579.740E-03    -290.364E-03     87.1059E-03    -291.885E-03     582.221E-03    -289.987E-03     62.5084E-03
             501     673.155E-06     116.953E-03    -139.170E+06    -259.128E+06    -137.337E+06     143.830E+03    -290.189E-03     580.515E-03    -290.326E-03     16.3127E-03    -290.352E-03     579.663E-03    -290.435E-03     13.6595E-03
             502     1.34656E-03     116.988E-03    -137.003E+06    -246.586E+06    -128.311E+06     312.742E+03    -290.588E-03     580.884E-03    -290.296E-03     29.6379E-03    -290.858E-03     580.164E-03    -290.381E-03     24.8205E-03
             503     2.01968E-03     117.043E-03    -132.004E+06    -230.525E+06    -112.368E+06     522.685E+03    -290.646E-03     581.030E-03    -290.384E-03     43.3778E-03    -291.076E-03     580.499E-03    -290.420E-03     36.3542E-03
             504     2.69261E-03     117.119E-03    -124.543E+06    -209.659E+06    -92.5883E+06     350.282E+03    -290.806E-03     581.237E-03    -290.431E-03     56.4930E-03    -291.438E-03     580.950E-03    -290.409E-03     47.3333E-03
             505     3.36555E-03     117.215E-03    -115.995E+06    -186.533E+06    -71.9484E+06     384.589E+03    -291.019E-03     581.483E-03    -290.464E-03     68.7937E-03    -291.881E-03     581.479E-03    -290.385E-03     57.6510E-03
             506     4.03913E-03     117.330E-03    -106.994E+06    -164.043E+06    -51.6271E+06     600.113E+03    -291.255E-03     581.743E-03    -290.487E-03     80.2318E-03    -292.362E-03     582.037E-03    -290.353E-03     67.2554E-03
             507     4.71262E-03     117.460E-03    -97.5053E+06    -138.165E+06    -32.2591E+06     846.991E+03    -291.593E-03     582.094E-03    -290.501E-03     90.6527E-03    -292.956E-03     582.713E-03    -290.320E-03     75.9891E-03
             508     5.38602E-03     117.607E-03    -87.9141E+06    -109.312E+06    -14.0498E+06     1.09080E+06    -291.860E-03     582.366E-03    -290.506E-03     99.8814E-03    -293.478E-03     583.325E-03    -290.290E-03     83.6826E-03
             509     6.05957E-03     117.766E-03    -78.2757E+06    -79.7522E+06     3.23779E+06     1.49575E+06    -292.117E-03     582.621E-03    -290.504E-03     108.013E-03    -293.983E-03     583.917E-03    -290.259E-03     90.4192E-03
             510     6.73277E-03     117.937E-03    -68.4613E+06    -46.0515E+06     19.9859E+06     2.01765E+06    -292.427E-03     582.924E-03    -290.497E-03     115.068E-03    -294.538E-03     584.570E-03    -290.231E-03     96.1641E-03
             511     7.40624E-03     118.117E-03    -58.7289E+06    -7.72613E+06     36.5018E+06     1.99170E+06    -292.533E-03     583.018E-03    -290.485E-03     120.950E-03    -294.892E-03     585.035E-03    -290.206E-03     100.764E-03
             512     8.07963E-03     118.304E-03    -49.6684E+06     18.2445E+06     49.0095E+06     1.90161E+06    -292.466E-03     582.929E-03    -290.463E-03     125.969E-03    -295.054E-03     585.263E-03    -290.172E-03     104.508E-03
             513     8.75377E-03     118.498E-03    -42.8869E+06     29.1069E+06     56.9216E+06     1.58708E+06    -292.456E-03     582.894E-03    -290.437E-03     129.979E-03    -295.261E-03     585.485E-03    -290.133E-03     107.201E-03
             514     9.42703E-03     118.694E-03    -37.4995E+06     41.0514E+06     66.0689E+06     511.566E+03    -292.534E-03     582.961E-03    -290.427E-03     132.751E-03    -295.566E-03     585.813E-03    -290.101E-03     108.593E-03
             515     10.1011E-03     118.894E-03    -31.3681E+06      51.801E+06     77.8122E+06     100.932E+03    -292.196E-03     582.633E-03    -290.437E-03     133.195E-03    -295.415E-03     585.699E-03    -290.078E-03     107.779E-03
             516     10.7747E-03     119.087E-03    -24.7376E+06     55.9326E+06     86.7229E+06     585.660E+03    -291.483E-03     581.920E-03    -290.437E-03     130.526E-03    -294.818E-03     585.114E-03    -290.049E-03     103.972E-03
             517     11.4469E-03     119.273E-03    -17.4250E+06     62.5321E+06     91.7344E+06     628.894E+03    -290.929E-03     581.342E-03    -290.413E-03     122.833E-03    -294.159E-03     584.467E-03    -290.020E-03     96.0574E-03
             518     12.1223E-03     119.438E-03    -10.4135E+06     72.7898E+06     96.4870E+06     334.665E+03    -290.172E-03     580.563E-03    -290.391E-03     117.085E-03    -293.527E-03     583.860E-03    -289.999E-03     88.8798E-03
             519     12.7971E-03     119.596E-03    -5.15321E+06     75.3754E+06     96.7921E+06     49.0790E+03    -289.438E-03     579.803E-03    -290.365E-03     87.4492E-03    -291.959E-03     582.292E-03    -289.983E-03     62.8401E-03
             520     673.286E-06     118.647E-03    -140.115E+06    -260.970E+06    -139.410E+06     839.048E+03    -290.353E-03     580.635E-03    -290.282E-03     16.4299E-03    -290.516E-03     579.779E-03    -290.398E-03     13.7715E-03
             521     1.34617E-03     118.681E-03    -138.437E+06    -247.134E+06    -128.689E+06     666.665E+03    -290.428E-03     580.744E-03    -290.317E-03     29.5143E-03    -290.704E-03     580.025E-03    -290.401E-03     24.6806E-03
             522     2.01945E-03     118.737E-03    -132.277E+06    -230.449E+06    -112.252E+06     127.954E+03    -290.598E-03     580.958E-03    -290.360E-03     43.1218E-03    -291.028E-03     580.426E-03    -290.395E-03     36.1017E-03
             523     2.69273E-03     118.813E-03    -124.598E+06    -209.855E+06    -93.0745E+06     92.1283E+03    -290.832E-03     581.238E-03    -290.406E-03     56.5834E-03    -291.463E-03     580.951E-03    -290.387E-03     47.4334E-03
             524     3.36603E-03     118.909E-03    -116.348E+06    -187.053E+06    -72.6138E+06     302.556E+03    -291.054E-03     581.502E-03    -290.448E-03     69.0339E-03    -291.917E-03     581.498E-03    -290.371E-03     57.8905E-03
             525     4.03927E-03     119.023E-03    -107.245E+06    -164.399E+06    -52.1727E+06     343.505E+03    -291.338E-03     581.820E-03    -290.482E-03     80.4080E-03    -292.446E-03     582.116E-03    -290.349E-03     67.4218E-03
             526     4.71248E-03     119.154E-03    -97.9398E+06    -138.690E+06    -32.9541E+06     239.731E+03    -291.613E-03     582.116E-03    -290.503E-03     90.6881E-03    -292.977E-03     582.736E-03    -290.324E-03     76.0047E-03
             527     5.38577E-03     119.300E-03    -88.4004E+06    -110.009E+06    -14.7609E+06     145.633E+03    -291.856E-03     582.366E-03    -290.510E-03     99.8328E-03    -293.476E-03     583.324E-03    -290.296E-03     83.6043E-03
             528     6.05924E-03     119.459E-03    -79.1437E+06    -80.9423E+06     2.28720E+06     259.431E+03    -292.147E-03     582.657E-03    -290.509E-03     107.887E-03    -294.012E-03     583.947E-03    -290.266E-03     90.2758E-03
             529     6.73296E-03     119.630E-03    -70.3178E+06    -47.2963E+06     18.7370E+06     339.759E+03    -292.316E-03     582.816E-03    -290.500E-03     114.855E-03    -294.429E-03     584.458E-03    -290.236E-03     95.9356E-03
             530     7.40636E-03     119.810E-03    -61.8557E+06    -8.84449E+06     34.7034E+06     733.782E+03    -292.342E-03     582.816E-03    -290.475E-03     120.856E-03    -294.711E-03     584.834E-03    -290.199E-03     100.653E-03
             531     8.08008E-03     119.998E-03    -54.4381E+06     15.1196E+06     44.7471E+06     2.12901E+06    -292.378E-03     582.815E-03    -290.437E-03     125.827E-03    -294.976E-03     585.143E-03    -290.156E-03     104.385E-03
             532     8.75365E-03     120.190E-03    -47.0215E+06     29.8604E+06     52.8155E+06     3.13591E+06    -292.434E-03     582.838E-03    -290.404E-03     129.781E-03    -295.252E-03     585.442E-03    -290.115E-03     107.023E-03
             533     9.42766E-03     120.389E-03    -39.3687E+06     44.9941E+06     64.4187E+06     2.27602E+06    -292.363E-03     582.757E-03    -290.394E-03     132.596E-03    -295.403E-03     585.630E-03    -290.080E-03     108.482E-03
             534     10.1007E-03     120.587E-03    -32.0283E+06     52.4181E+06     77.7040E+06     1.18588E+06    -292.082E-03     582.490E-03    -290.408E-03     133.148E-03    -295.303E-03     585.558E-03    -290.049E-03     107.767E-03
             535     10.7743E-03     120.781E-03    -24.6233E+06     57.1139E+06     88.6160E+06     46.3684E+03    -291.787E-03     582.209E-03    -290.422E-03     131.052E-03    -295.134E-03     585.415E-03    -290.026E-03     104.459E-03
             536     11.4495E-03     120.966E-03    -17.8528E+06     62.1920E+06     92.6255E+06    -672.749E+03    -291.237E-03     581.652E-03    -290.415E-03     123.035E-03    -294.475E-03     584.778E-03    -290.016E-03     96.2116E-03
             537     12.1217E-03     121.131E-03    -11.1248E+06     73.0003E+06     96.3484E+06    -667.282E+03    -290.295E-03     580.696E-03    -290.401E-03     116.190E-03    -293.656E-03     583.997E-03    -290.009E-03     87.8503E-03
             538     12.7946E-03     121.289E-03    -4.35042E+06     76.2572E+06     97.2274E+06    -140.008E+03    -289.330E-03     579.709E-03    -290.379E-03     86.5010E-03    -291.842E-03     582.194E-03    -289.997E-03     61.8538E-03
             539     672.943E-06     120.340E-03    -143.232E+06    -262.832E+06    -139.406E+06     264.882E+03    -290.114E-03     580.638E-03    -290.524E-03     16.6028E-03    -290.290E-03     579.778E-03    -290.632E-03     13.9149E-03
             540     1.34641E-03     120.375E-03    -137.541E+06    -246.636E+06    -128.893E+06    -98.9666E+03    -290.425E-03     580.739E-03    -290.314E-03     29.8082E-03    -290.698E-03     580.021E-03    -290.401E-03     24.9776E-03
             541     2.01948E-03     120.430E-03    -132.157E+06    -230.300E+06    -112.792E+06     61.5348E+03    -290.626E-03     580.982E-03    -290.357E-03     43.3188E-03    -291.055E-03     580.452E-03    -290.395E-03     36.2980E-03
             542     2.69272E-03     120.506E-03    -125.354E+06    -210.231E+06    -93.8199E+06     199.202E+03    -290.801E-03     581.206E-03    -290.405E-03     56.3967E-03    -291.432E-03     580.918E-03    -290.387E-03     47.2592E-03
             543     3.36608E-03     120.602E-03    -116.993E+06    -187.243E+06    -73.2456E+06     145.840E+03    -291.053E-03     581.499E-03    -290.446E-03     68.6806E-03    -291.916E-03     581.494E-03    -290.371E-03     57.5360E-03
             544     4.03920E-03     120.717E-03    -108.202E+06    -164.573E+06    -53.0701E+06     149.792E+03    -291.344E-03     581.826E-03    -290.482E-03     80.2389E-03    -292.455E-03     582.123E-03    -290.352E-03     67.2489E-03
             545     4.71247E-03     120.848E-03    -99.0753E+06    -138.596E+06    -33.7638E+06     141.218E+03    -291.597E-03     582.100E-03    -290.504E-03     90.6959E-03    -292.965E-03     582.723E-03    -290.328E-03     76.0131E-03
             546     5.38606E-03     120.994E-03    -90.2275E+06    -110.144E+06    -15.8325E+06     139.162E+03    -291.939E-03     582.453E-03    -290.514E-03     99.9293E-03    -293.566E-03     583.415E-03    -290.302E-03     83.7045E-03
             547     6.05925E-03     121.153E-03    -81.5554E+06    -81.3427E+06     1.04688E+06     318.107E+03    -292.187E-03     582.707E-03    -290.521E-03     108.004E-03    -294.065E-03     584.004E-03    -290.279E-03     90.3723E-03
             548     6.73233E-03     121.324E-03    -73.1521E+06    -48.1220E+06     17.0515E+06     830.615E+03    -292.202E-03     582.707E-03    -290.506E-03     114.958E-03    -294.329E-03     584.355E-03    -290.245E-03     96.0315E-03
             549     7.40631E-03     121.503E-03    -64.8716E+06    -11.1243E+06     31.8941E+06     1.56323E+06    -292.217E-03     582.683E-03    -290.466E-03     120.792E-03    -294.591E-03     584.695E-03    -290.197E-03     100.633E-03
             550     8.08014E-03     121.691E-03    -55.7988E+06     13.0187E+06     42.9396E+06     1.76865E+06    -292.371E-03     582.797E-03    -290.426E-03     125.697E-03    -294.970E-03     585.119E-03    -290.149E-03     104.241E-03
             551     8.75369E-03     121.885E-03    -46.5337E+06     29.8114E+06     53.5730E+06     1.30362E+06    -292.414E-03     582.815E-03    -290.401E-03     129.874E-03    -295.235E-03     585.421E-03    -290.109E-03     107.065E-03
             552     9.42707E-03     122.081E-03    -37.6813E+06     45.4401E+06     66.0369E+06     1.21091E+06    -292.197E-03     582.583E-03    -290.386E-03     132.640E-03    -295.232E-03     585.454E-03    -290.067E-03     108.527E-03
             553     10.1018E-03     122.280E-03    -29.7062E+06     53.5649E+06     78.7675E+06     1.23382E+06    -292.085E-03     582.476E-03    -290.390E-03     133.045E-03    -295.296E-03     585.542E-03    -290.031E-03     107.663E-03
             554     10.7757E-03     122.474E-03    -22.8000E+06     59.1934E+06     89.6553E+06     967.644E+03    -291.997E-03     582.410E-03    -290.413E-03     130.544E-03    -295.326E-03     585.608E-03    -290.017E-03     103.991E-03
             555     11.4472E-03     122.661E-03    -16.2384E+06     63.8886E+06     94.2993E+06     404.637E+03    -291.237E-03     581.655E-03    -290.417E-03     122.573E-03    -294.463E-03     584.776E-03    -290.015E-03     95.7786E-03
             556     12.1213E-03     122.825E-03    -10.5878E+06     73.5814E+06     97.1906E+06    -232.061E+03    -290.257E-03     580.657E-03    -290.400E-03     117.579E-03    -293.640E-03     583.982E-03    -290.005E-03     89.2590E-03
             557     12.7949E-03     122.984E-03     -5.2043E+06     75.5396E+06     97.1825E+06    -329.880E+03    -289.432E-03     579.806E-03    -290.374E-03     87.9891E-03    -291.975E-03     582.317E-03    -289.990E-03     63.2715E-03
             558     673.392E-06     122.032E-03    -140.371E+06    -262.872E+06    -138.843E+06     27.6853E+03    -290.500E-03     580.768E-03    -290.268E-03     16.4053E-03    -290.663E-03     579.902E-03    -290.377E-03     13.7006E-03
             559     1.34640E-03     122.068E-03    -137.976E+06    -246.771E+06    -129.701E+06     228.843E+03    -290.395E-03     580.749E-03    -290.354E-03     29.5384E-03    -290.668E-03     580.032E-03    -290.444E-03     24.7252E-03
             560     2.01962E-03     122.123E-03    -132.776E+06    -230.615E+06    -113.491E+06     336.182E+03    -290.644E-03     581.024E-03    -290.381E-03     43.1240E-03    -291.073E-03     580.492E-03    -290.421E-03     36.1305E-03
             561     2.69259E-03     122.200E-03    -125.826E+06    -210.352E+06    -94.2878E+06     332.188E+03    -290.869E-03     581.303E-03    -290.434E-03     56.3600E-03    -291.501E-03     581.015E-03    -290.418E-03     47.2280E-03
             562     3.36557E-03     122.296E-03    -117.758E+06    -187.514E+06    -73.8631E+06     308.391E+03    -291.052E-03     581.528E-03    -290.476E-03     68.8424E-03    -291.919E-03     581.526E-03    -290.403E-03     57.6912E-03
             563     4.03906E-03     122.410E-03    -108.900E+06    -164.852E+06    -53.5324E+06     439.995E+03    -291.263E-03     581.764E-03    -290.501E-03     80.2536E-03    -292.376E-03     582.061E-03    -290.372E-03     67.2633E-03
             564     4.71261E-03     122.541E-03    -99.8436E+06    -139.144E+06    -34.3640E+06     713.375E+03    -291.586E-03     582.099E-03    -290.513E-03     90.6374E-03    -292.956E-03     582.720E-03    -290.338E-03     75.9718E-03
             565     5.38566E-03     122.688E-03    -90.7669E+06    -110.330E+06    -16.2647E+06     1.04317E+06    -291.874E-03     582.391E-03    -290.517E-03     99.9710E-03    -293.502E-03     583.353E-03    -290.307E-03     83.7746E-03
             566     6.05911E-03     122.847E-03    -81.7971E+06    -81.9915E+06     563.803E+03     1.29234E+06    -292.043E-03     582.554E-03    -290.511E-03     108.131E-03    -293.922E-03     583.850E-03    -290.271E-03     90.5230E-03
             567     6.73310E-03     123.017E-03    -72.6761E+06    -50.0250E+06     16.3451E+06     1.74039E+06    -292.243E-03     582.733E-03    -290.490E-03     115.062E-03    -294.366E-03     584.373E-03    -290.230E-03     96.1491E-03
             568     7.40642E-03     123.197E-03    -63.3799E+06    -11.2442E+06     32.5821E+06     1.79042E+06    -292.341E-03     582.802E-03    -290.461E-03     120.852E-03    -294.712E-03     584.814E-03    -290.190E-03     100.661E-03
             569     8.07991E-03     123.384E-03    -54.6273E+06     14.2902E+06     44.3905E+06     699.791E+03    -292.334E-03     582.761E-03    -290.427E-03     125.850E-03    -294.937E-03     585.092E-03    -290.146E-03     104.353E-03
             570     8.75382E-03     123.578E-03    -46.7688E+06     30.9316E+06     54.4411E+06    -331.894E+03    -292.334E-03     582.730E-03    -290.397E-03     129.874E-03    -295.159E-03     585.341E-03    -290.101E-03     107.045E-03
             571     9.42806E-03     123.775E-03    -39.3033E+06     45.3494E+06     65.9421E+06    -897.118E+03    -292.385E-03     582.771E-03    -290.387E-03     132.348E-03    -295.424E-03     585.641E-03    -290.066E-03     108.182E-03
             572     10.1010E-03     123.973E-03    -31.7265E+06     51.5932E+06     77.6220E+06    -488.121E+03    -292.304E-03     582.709E-03    -290.405E-03     132.825E-03    -295.514E-03     585.765E-03    -290.046E-03     107.412E-03
             573     10.7737E-03     124.170E-03    -24.1693E+06     58.2446E+06     88.4240E+06     567.116E+03    -291.804E-03     582.228E-03    -290.424E-03     130.769E-03    -295.129E-03     585.418E-03    -290.031E-03     104.297E-03
             574     11.4489E-03     124.355E-03    -17.0487E+06     65.9162E+06     93.9633E+06     480.971E+03    -290.843E-03     581.252E-03    -290.409E-03     122.606E-03    -294.074E-03     584.384E-03    -290.010E-03     95.8559E-03
             575     12.1230E-03     124.518E-03    -10.9153E+06     74.6271E+06     97.6687E+06     257.772E+03    -289.933E-03     580.311E-03    -290.378E-03     116.936E-03    -293.304E-03     583.625E-03    -289.982E-03     88.6783E-03
             576     12.7973E-03     124.679E-03    -6.02429E+06     74.6973E+06     96.7844E+06     83.7929E+03    -289.673E-03     580.025E-03    -290.352E-03     87.0908E-03    -292.197E-03     582.512E-03    -289.968E-03     62.4380E-03
             577     672.551E-06     123.726E-03    -141.011E+06    -263.594E+06    -140.273E+06     19.1793E+03    -291.030E-03     580.915E-03    -289.884E-03     16.2756E-03    -291.193E-03     580.049E-03    -289.999E-03     13.6034E-03
             578     1.34598E-03     123.761E-03    -138.657E+06    -247.306E+06    -130.179E+06     186.791E+03    -290.538E-03     580.979E-03    -290.442E-03     29.7351E-03    -290.813E-03     580.262E-03    -290.533E-03     24.8921E-03
             579     2.01916E-03     123.817E-03    -133.226E+06    -231.157E+06    -113.782E+06     509.857E+03    -290.568E-03     581.026E-03    -290.458E-03     43.1814E-03    -291.000E-03     580.494E-03    -290.498E-03     36.1587E-03
             580     2.69254E-03     123.893E-03    -126.185E+06    -210.771E+06    -94.4901E+06     594.238E+03    -290.727E-03     581.191E-03    -290.464E-03     56.4486E-03    -291.361E-03     580.903E-03    -290.448E-03     47.3141E-03
             581     3.36601E-03     123.989E-03    -117.851E+06    -187.978E+06    -73.9151E+06     637.868E+03    -291.025E-03     581.506E-03    -290.481E-03     68.9357E-03    -291.891E-03     581.501E-03    -290.407E-03     57.8014E-03
             582     4.03911E-03     124.104E-03    -108.855E+06    -165.450E+06    -53.6537E+06     783.215E+03    -291.347E-03     581.855E-03    -290.508E-03     80.3285E-03    -292.460E-03     582.150E-03    -290.379E-03     67.3342E-03
             583     4.71223E-03     124.234E-03    -99.5212E+06    -139.759E+06    -34.3993E+06     866.901E+03    -291.575E-03     582.098E-03    -290.524E-03     90.7511E-03    -292.944E-03     582.718E-03    -290.349E-03     76.0729E-03
             584     5.38590E-03     124.381E-03    -89.9166E+06    -111.595E+06    -16.2422E+06     1.09093E+06    -291.738E-03     582.255E-03    -290.518E-03     99.9755E-03    -293.360E-03     583.209E-03    -290.307E-03     83.7845E-03
             585     6.05964E-03     124.540E-03    -80.2751E+06    -83.0324E+06     1.05718E+06     1.38235E+06    -292.023E-03     582.526E-03    -290.503E-03     107.966E-03    -293.891E-03     583.811E-03    -290.261E-03     90.3715E-03
             586     6.73278E-03     124.711E-03    -70.9169E+06    -50.4674E+06     17.6556E+06     1.15563E+06    -292.246E-03     582.732E-03    -290.486E-03     114.820E-03    -294.360E-03     584.364E-03    -290.221E-03     95.8902E-03
             587     7.40637E-03     124.890E-03    -61.8197E+06    -10.9698E+06     33.9363E+06     816.286E+03    -292.275E-03     582.730E-03    -290.455E-03     120.781E-03    -294.642E-03     584.740E-03    -290.180E-03     100.568E-03
             588     8.08026E-03     125.077E-03    -53.1322E+06     15.7990E+06     45.8535E+06     1.11310E+06    -292.391E-03     582.811E-03    -290.420E-03     125.868E-03    -294.989E-03     585.144E-03    -290.137E-03     104.382E-03
             589     8.75388E-03     125.271E-03    -45.2410E+06     32.6747E+06     56.0222E+06     991.572E+03    -292.557E-03     582.958E-03    -290.401E-03     129.734E-03    -295.377E-03     585.571E-03    -290.103E-03     106.910E-03
             590     9.42702E-03     125.468E-03    -38.1674E+06     46.3071E+06     67.0158E+06     117.710E+03    -292.584E-03     582.989E-03    -290.406E-03     132.402E-03    -295.619E-03     585.859E-03    -290.082E-03     108.254E-03
             591     10.1007E-03     125.668E-03    -30.9900E+06     50.8726E+06     78.2474E+06    -312.348E+03    -292.295E-03     582.723E-03    -290.428E-03     133.075E-03    -295.498E-03     585.769E-03    -290.066E-03     107.722E-03
             592     10.7754E-03     125.862E-03    -23.5564E+06     57.5438E+06     88.8740E+06    -377.343E+03    -291.480E-03     581.915E-03    -290.434E-03     130.637E-03    -294.804E-03     585.102E-03    -290.039E-03     104.153E-03
             593     11.4482E-03     126.049E-03    -16.2679E+06     66.6548E+06     94.4652E+06     327.114E+03    -290.724E-03     581.128E-03    -290.405E-03     122.356E-03    -293.951E-03     584.261E-03    -290.006E-03     95.6032E-03
             594     12.1212E-03     126.211E-03    -10.0817E+06     74.1068E+06     97.1984E+06     630.861E+03    -290.374E-03     580.754E-03    -290.379E-03     117.005E-03    -293.737E-03     584.062E-03    -289.986E-03     88.7391E-03
             595     12.7940E-03     126.372E-03    -4.70953E+06     74.4034E+06     96.5489E+06     383.644E+03    -289.634E-03     579.998E-03    -290.363E-03     87.3765E-03    -292.158E-03     582.489E-03    -289.982E-03     62.6785E-03
             596     673.813E-06     125.420E-03    -142.022E+06    -264.312E+06    -139.575E+06     206.112E+03    -290.941E-03     580.873E-03    -289.932E-03     16.3533E-03    -291.108E-03     580.003E-03    -290.041E-03     13.7002E-03
             597     1.34619E-03     125.455E-03    -138.717E+06    -248.045E+06    -130.060E+06     241.886E+03    -290.559E-03     580.989E-03    -290.430E-03     29.8041E-03    -290.834E-03     580.269E-03    -290.519E-03     24.9849E-03
             598     2.01921E-03     125.510E-03    -133.279E+06    -231.760E+06    -113.683E+06     301.743E+03    -290.618E-03     581.078E-03    -290.460E-03     43.4750E-03    -291.052E-03     580.546E-03    -290.499E-03     36.4166E-03
             599     2.69252E-03     125.586E-03    -125.834E+06    -211.464E+06    -94.4003E+06     468.483E+03    -290.792E-03     581.271E-03    -290.479E-03     56.4885E-03    -291.424E-03     580.980E-03    -290.462E-03     47.3369E-03
             600     3.36569E-03     125.683E-03    -117.433E+06    -188.791E+06    -73.8540E+06     730.612E+03    -290.993E-03     581.490E-03    -290.498E-03     68.7647E-03    -291.854E-03     581.479E-03    -290.423E-03     57.6372E-03
             601     4.03909E-03     125.797E-03    -108.390E+06    -165.725E+06    -53.4121E+06     683.039E+03    -291.263E-03     581.776E-03    -290.513E-03     80.3331E-03    -292.374E-03     582.069E-03    -290.383E-03     67.3462E-03
             602     4.71247E-03     125.928E-03    -98.9016E+06    -139.953E+06    -33.9272E+06     528.357E+03    -291.560E-03     582.081E-03    -290.521E-03     90.7777E-03    -292.928E-03     582.699E-03    -290.344E-03     76.0909E-03
             603     5.38585E-03     126.073E-03    -89.5279E+06    -112.140E+06    -15.7114E+06     435.394E+03    -291.843E-03     582.365E-03    -290.522E-03     99.8647E-03    -293.464E-03     583.316E-03    -290.308E-03     83.6383E-03
             604     6.05910E-03     126.234E-03    -80.2577E+06    -83.7177E+06     1.44101E+06     365.717E+03    -292.038E-03     582.554E-03    -290.516E-03     107.905E-03    -293.906E-03     583.836E-03    -290.271E-03     90.2803E-03
             605     6.73279E-03     126.404E-03     -71.115E+06    -50.4601E+06     18.0836E+06     455.164E+03    -292.102E-03     582.594E-03    -290.491E-03     114.875E-03    -294.220E-03     584.227E-03    -290.224E-03     95.9289E-03
             606     7.40664E-03     126.583E-03    -62.2881E+06    -10.8767E+06     34.2183E+06     349.488E+03    -292.264E-03     582.716E-03    -290.453E-03     120.776E-03    -294.633E-03     584.727E-03    -290.176E-03     100.559E-03
             607     8.08025E-03     126.771E-03    -53.5621E+06     14.8637E+06     45.3165E+06     508.303E+03    -292.539E-03     582.960E-03    -290.421E-03     125.692E-03    -295.132E-03     585.285E-03    -290.139E-03     104.204E-03
             608     8.75365E-03     126.965E-03    -45.0535E+06     32.3857E+06     55.5463E+06     902.190E+03    -292.671E-03     583.082E-03    -290.411E-03     129.786E-03    -295.487E-03     585.693E-03    -290.115E-03     106.971E-03
             609     9.42734E-03     127.162E-03    -36.9983E+06     47.3989E+06     67.8874E+06     1.20099E+06    -292.577E-03     582.998E-03    -290.421E-03     132.533E-03    -295.611E-03     585.872E-03    -290.096E-03     108.407E-03
             610     10.1012E-03     127.361E-03    -30.2483E+06     51.9617E+06     79.1493E+06     882.904E+03    -292.164E-03     582.603E-03    -290.439E-03     132.894E-03    -295.368E-03     585.655E-03    -290.075E-03     107.535E-03
             611     10.7735E-03     127.556E-03    -23.8009E+06     58.3269E+06     89.5206E+06     326.210E+03    -291.439E-03     581.880E-03    -290.441E-03     130.391E-03    -294.766E-03     585.070E-03    -290.044E-03     103.911E-03
             612     11.4486E-03     127.740E-03    -17.5741E+06     65.9850E+06     94.0526E+06    -187.904E+03    -290.849E-03     581.261E-03    -290.412E-03     122.606E-03    -294.070E-03     584.381E-03    -290.012E-03     95.9415E-03
             613     12.1231E-03     127.907E-03    -11.6857E+06     72.6085E+06     96.1410E+06     235.049E+03    -290.365E-03     580.751E-03    -290.386E-03     117.308E-03    -293.725E-03     584.048E-03    -289.994E-03     89.1209E-03
             614     12.7966E-03     128.067E-03    -5.52670E+06     75.1421E+06     96.5203E+06     569.835E+03    -289.465E-03     579.830E-03    -290.365E-03     87.5103E-03    -291.999E-03     582.331E-03    -289.983E-03     62.7848E-03
             615     672.287E-06     127.114E-03    -141.759E+06    -264.990E+06    -139.811E+06     157.413E+03    -290.684E-03     581.010E-03    -290.326E-03     16.1734E-03    -290.849E-03     580.137E-03    -290.435E-03     13.4766E-03
             616     1.34620E-03     127.148E-03    -138.287E+06    -248.079E+06    -129.612E+06     122.668E+03    -290.425E-03     580.887E-03    -290.462E-03     29.4566E-03    -290.698E-03     580.164E-03    -290.549E-03     24.6333E-03
             617     2.01963E-03     127.204E-03    -132.814E+06    -232.245E+06    -113.722E+06     136.416E+03    -290.652E-03     581.109E-03    -290.457E-03     43.2067E-03    -291.081E-03     580.572E-03    -290.496E-03     36.1663E-03
             618     2.69239E-03     127.280E-03    -125.769E+06    -212.090E+06    -94.4276E+06     349.024E+03    -290.826E-03     581.314E-03    -290.488E-03     56.4537E-03    -291.458E-03     581.020E-03    -290.470E-03     47.2824E-03
             619     3.36562E-03     127.376E-03    -117.401E+06    -189.209E+06    -73.7063E+06     376.929E+03    -290.964E-03     581.469E-03    -290.506E-03     69.0156E-03    -291.828E-03     581.459E-03    -290.430E-03     57.8603E-03
             620     4.03901E-03     127.490E-03    -108.258E+06    -165.794E+06    -53.1095E+06     355.484E+03    -291.232E-03     581.745E-03    -290.513E-03     80.4645E-03    -292.343E-03     582.038E-03    -290.381E-03     67.4722E-03
             621     4.71257E-03     127.621E-03    -99.0710E+06    -140.043E+06    -33.6559E+06     404.213E+03    -291.572E-03     582.092E-03    -290.520E-03     90.7190E-03    -292.939E-03     582.708E-03    -290.341E-03     76.0378E-03
             622     5.38574E-03     127.768E-03    -89.8196E+06    -112.095E+06    -15.3901E+06     357.671E+03    -291.853E-03     582.376E-03    -290.523E-03     100.016E-03    -293.479E-03     583.330E-03    -290.307E-03     83.7824E-03
             623     6.05923E-03     127.927E-03    -80.7609E+06    -83.3798E+06     1.61953E+06     225.300E+03    -291.970E-03     582.482E-03    -290.512E-03     108.107E-03    -293.846E-03     583.770E-03    -290.266E-03     90.4670E-03
             624     6.73299E-03     128.097E-03    -71.8038E+06    -50.9726E+06     17.6652E+06     131.930E+03    -292.156E-03     582.640E-03    -290.484E-03     114.953E-03    -294.275E-03     584.272E-03    -290.218E-03     96.0124E-03
             625     7.40649E-03     128.277E-03    -62.7294E+06    -11.2925E+06     33.6886E+06     394.473E+03    -292.467E-03     582.923E-03    -290.456E-03     120.810E-03    -294.834E-03     584.930E-03    -290.180E-03     100.608E-03
             626     8.07986E-03     128.465E-03    -54.3349E+06     14.9484E+06     45.3760E+06     112.877E+03    -292.615E-03     583.054E-03    -290.439E-03     125.722E-03    -295.214E-03     585.382E-03    -290.155E-03     104.221E-03
             627     8.75354E-03     128.658E-03    -46.6141E+06     31.2185E+06     54.7222E+06     21.9130E+03    -292.604E-03     583.031E-03    -290.427E-03     129.817E-03    -295.427E-03     585.641E-03    -290.131E-03     106.984E-03
             628     9.42713E-03     128.856E-03    -39.2432E+06     46.3699E+06     65.6827E+06     830.808E+03    -292.432E-03     582.854E-03    -290.422E-03     132.546E-03    -295.473E-03     585.730E-03    -290.104E-03     108.414E-03
             629     10.1001E-03     129.055E-03    -31.4948E+06     53.1794E+06     78.3670E+06     1.03990E+06    -292.066E-03     582.500E-03    -290.434E-03     133.053E-03    -295.278E-03     585.562E-03    -290.074E-03     107.720E-03
             630     10.7756E-03     129.248E-03    -24.2243E+06     58.6120E+06     88.9996E+06     732.177E+03    -291.746E-03     582.190E-03    -290.444E-03     130.408E-03    -295.075E-03     585.382E-03    -290.049E-03     103.903E-03
             631     11.4481E-03     129.435E-03    -17.7292E+06     65.3437E+06     93.9148E+06     806.524E+03    -291.089E-03     581.524E-03    -290.434E-03     122.154E-03    -294.311E-03     584.642E-03    -290.034E-03     95.4257E-03
             632     12.1206E-03     129.600E-03    -11.3770E+06     73.1826E+06     97.0983E+06     398.512E+03    -289.989E-03     580.398E-03    -290.409E-03     116.878E-03    -293.338E-03     583.685E-03    -290.013E-03     88.7623E-03
             633     12.7947E-03     129.760E-03    -5.31896E+06     75.6941E+06     96.8040E+06    -533.957E+03    -289.102E-03     579.467E-03    -290.365E-03     87.1338E-03    -291.629E-03     581.963E-03    -289.983E-03     62.4157E-03
             634     673.481E-06     128.807E-03    -140.978E+06    -264.578E+06    -139.584E+06    -309.999E+03    -290.245E-03     580.985E-03    -290.740E-03     16.2766E-03    -290.407E-03     580.113E-03    -290.849E-03     13.5596E-03
             635     1.34600E-03     128.841E-03    -138.267E+06    -248.826E+06    -129.882E+06     169.884E+03    -290.554E-03     581.029E-03    -290.474E-03     29.7095E-03    -290.826E-03     580.303E-03    -290.562E-03     24.8756E-03
             636     2.01882E-03     128.898E-03    -133.137E+06    -232.622E+06    -113.558E+06     322.713E+03    -290.576E-03     581.059E-03    -290.482E-03     43.3849E-03    -291.008E-03     580.521E-03    -290.520E-03     36.3358E-03
             637     2.69250E-03     128.973E-03    -125.814E+06    -212.036E+06    -94.1483E+06     109.543E+03    -290.697E-03     581.177E-03    -290.480E-03     56.5454E-03    -291.330E-03     580.884E-03    -290.461E-03     47.3630E-03
             638     3.36598E-03     129.069E-03    -117.416E+06    -189.259E+06    -73.4908E+06     113.810E+03    -291.025E-03     581.515E-03    -290.491E-03     68.9480E-03    -291.889E-03     581.504E-03    -290.414E-03     57.7867E-03
             639     4.03923E-03     129.184E-03    -108.475E+06    -166.138E+06    -53.0775E+06     211.439E+03    -291.303E-03     581.816E-03    -290.513E-03     80.3538E-03    -292.416E-03     582.108E-03    -290.380E-03     67.3486E-03
             640     4.71224E-03     129.315E-03    -99.1807E+06    -140.360E+06    -33.7111E+06     374.389E+03    -291.492E-03     582.011E-03    -290.519E-03     90.7986E-03    -292.860E-03     582.627E-03    -290.341E-03     76.1203E-03
             641     5.38598E-03     129.461E-03    -89.7824E+06    -112.252E+06    -15.5128E+06     447.198E+03    -291.718E-03     582.225E-03    -290.508E-03     100.023E-03    -293.340E-03     583.175E-03    -290.292E-03     83.8262E-03
             642     6.05961E-03     129.620E-03    -80.3884E+06    -83.6374E+06     1.63905E+06     509.834E+03    -292.048E-03     582.543E-03    -290.495E-03     107.903E-03    -293.917E-03     583.825E-03    -290.249E-03     90.2864E-03
             643     6.73295E-03     129.790E-03    -71.2659E+06    -50.8038E+06     18.0622E+06     567.346E+03    -292.399E-03     582.885E-03    -290.487E-03     114.831E-03    -294.511E-03     584.512E-03    -290.219E-03     95.9075E-03
             644     7.40637E-03     129.971E-03    -62.6936E+06    -11.2791E+06     33.9669E+06     387.774E+03    -292.488E-03     582.959E-03    -290.471E-03     120.812E-03    -294.856E-03     584.966E-03    -290.194E-03     100.603E-03
             645     8.07997E-03     130.158E-03    -54.2019E+06     14.8990E+06     45.3823E+06     618.036E+03    -292.510E-03     582.958E-03    -290.448E-03     125.894E-03    -295.111E-03     585.288E-03    -290.164E-03     104.396E-03
             646     8.75340E-03     130.352E-03    -46.3036E+06     30.2297E+06     54.9504E+06     583.329E+03    -292.564E-03     582.993E-03    -290.429E-03     130.170E-03    -295.385E-03     585.598E-03    -290.131E-03     107.376E-03
             647     9.42687E-03     130.550E-03    -38.3626E+06     45.8179E+06     66.6178E+06     559.155E+03    -292.412E-03     582.834E-03    -290.422E-03     132.726E-03    -295.452E-03     585.707E-03    -290.100E-03     108.599E-03
             648     10.1019E-03     130.747E-03    -30.4976E+06     54.1364E+06     78.5742E+06     537.052E+03    -292.274E-03     582.709E-03    -290.434E-03     132.835E-03    -295.486E-03     585.777E-03    -290.076E-03     107.431E-03
             649     10.7735E-03     130.944E-03    -23.3540E+06     58.3316E+06     88.6973E+06     440.987E+03    -291.906E-03     582.362E-03    -290.456E-03     130.435E-03    -295.239E-03     585.562E-03    -290.063E-03     103.845E-03
             650     11.4471E-03     131.129E-03    -16.4470E+06     64.9226E+06     93.9230E+06     692.877E+03    -291.037E-03     581.487E-03    -290.450E-03     122.601E-03    -294.269E-03     584.618E-03    -290.051E-03     95.8060E-03
             651     12.1224E-03     131.292E-03    -9.73355E+06     74.0536E+06     97.7732E+06     956.972E+03    -289.847E-03     580.265E-03    -290.418E-03     117.194E-03    -293.202E-03     583.565E-03    -290.022E-03     89.0433E-03
             652     12.7963E-03     131.454E-03    -4.26083E+06     76.5202E+06     98.0762E+06     408.411E+03    -288.903E-03     579.270E-03    -290.368E-03     87.7401E-03    -291.434E-03     581.774E-03    -289.982E-03     63.0516E-03
             653     672.899E-06     130.500E-03    -141.458E+06    -265.238E+06    -140.084E+06     592.493E+03    -289.948E-03     580.798E-03    -290.850E-03     16.1240E-03    -290.110E-03     579.923E-03    -290.960E-03     13.4805E-03
             654     1.34623E-03     130.536E-03    -138.965E+06    -249.080E+06    -129.825E+06     400.819E+03    -290.484E-03     580.872E-03    -290.388E-03     29.8023E-03    -290.760E-03     580.147E-03    -290.474E-03     24.9636E-03
             655     2.01963E-03     130.590E-03    -133.067E+06    -232.568E+06    -113.287E+06    -79.7222E+03    -290.589E-03     581.003E-03    -290.413E-03     43.5392E-03    -291.022E-03     580.466E-03    -290.450E-03     36.4778E-03
             656     2.69268E-03     130.667E-03    -125.732E+06    -212.227E+06    -94.1298E+06    -20.7420E+03    -290.854E-03     581.300E-03    -290.446E-03     56.6230E-03    -291.486E-03     581.005E-03    -290.427E-03     47.4536E-03
             657     3.36565E-03     130.763E-03    -117.517E+06    -189.567E+06    -73.5705E+06     190.868E+03    -291.077E-03     581.564E-03    -290.486E-03     68.9411E-03    -291.942E-03     581.551E-03    -290.409E-03     57.7824E-03
             658     4.03879E-03     130.877E-03    -108.488E+06    -166.219E+06    -53.0501E+06     270.501E+03    -291.253E-03     581.763E-03    -290.510E-03     80.4216E-03    -292.365E-03     582.054E-03    -290.377E-03     67.4255E-03
             659     4.71269E-03     131.008E-03    -99.0667E+06    -140.542E+06    -33.7188E+06     125.452E+03    -291.515E-03     582.029E-03    -290.514E-03     90.7171E-03    -292.880E-03     582.642E-03    -290.335E-03     76.0442E-03
             660     5.38599E-03     131.154E-03    -89.6389E+06    -112.743E+06    -15.6634E+06     165.835E+03    -291.799E-03     582.309E-03    -290.510E-03     99.7430E-03    -293.417E-03     583.254E-03    -290.295E-03     83.5375E-03
             661     6.05937E-03     131.313E-03    -80.3851E+06    -84.1162E+06     1.45473E+06     257.017E+03    -292.151E-03     582.660E-03    -290.509E-03     107.751E-03    -294.016E-03     583.937E-03    -290.263E-03     90.1320E-03
             662     6.73274E-03     131.484E-03    -71.3575E+06    -51.4182E+06     17.8266E+06     517.330E+03    -292.377E-03     582.882E-03    -290.505E-03     114.809E-03    -294.491E-03     584.508E-03    -290.237E-03     95.8683E-03
             663     7.40610E-03     131.664E-03    -62.4189E+06    -11.5600E+06     34.0917E+06     989.603E+03    -292.408E-03     582.892E-03    -290.484E-03     120.824E-03    -294.776E-03     584.899E-03    -290.206E-03     100.616E-03
             664     8.07993E-03     131.851E-03    -54.2730E+06     14.9218E+06     45.2748E+06     772.072E+03    -292.489E-03     582.943E-03    -290.454E-03     125.772E-03    -295.087E-03     585.270E-03    -290.171E-03     104.291E-03
             665     8.75376E-03     132.046E-03    -46.4174E+06     30.4192E+06     54.7433E+06     871.600E+03    -292.507E-03     582.940E-03    -290.434E-03     129.634E-03    -295.321E-03     585.539E-03    -290.137E-03     106.856E-03
             666     9.42784E-03     132.243E-03    -39.1598E+06     46.4284E+06     66.3649E+06     438.349E+03    -292.466E-03     582.895E-03    -290.430E-03     132.255E-03    -295.503E-03     585.766E-03    -290.108E-03     108.120E-03
             667     10.0996E-03     132.442E-03    -32.2597E+06     53.8814E+06     78.3570E+06     63.6396E+03    -292.147E-03     582.590E-03    -290.443E-03     133.193E-03    -295.374E-03     585.666E-03    -290.082E-03     107.779E-03
             668     10.7745E-03     132.637E-03    -24.5095E+06     58.4701E+06     89.0766E+06     201.230E+03    -291.603E-03     582.053E-03    -290.449E-03     131.425E-03    -294.958E-03     585.270E-03    -290.053E-03     104.855E-03
             669     11.4489E-03     132.822E-03    -17.9084E+06     64.8301E+06     93.4069E+06    -336.329E+03    -291.080E-03     581.509E-03    -290.429E-03     123.070E-03    -294.325E-03     584.650E-03    -290.030E-03     96.2569E-03
             670     12.1207E-03     132.987E-03    -11.8441E+06     73.1220E+06     96.3928E+06    -305.174E+03    -290.030E-03     580.433E-03    -290.403E-03     116.646E-03    -293.394E-03     583.735E-03    -290.010E-03     88.3892E-03
             671     12.7951E-03     133.143E-03    -5.00637E+06     77.0492E+06     97.6156E+06     405.978E+03    -288.799E-03     579.157E-03    -290.358E-03     87.4620E-03    -291.326E-03     581.657E-03    -289.975E-03     62.8410E-03
             672     673.186E-06     132.194E-03    -142.867E+06    -266.004E+06    -140.369E+06     -358.99E+03    -289.780E-03     580.567E-03    -290.787E-03     16.3903E-03    -289.948E-03     579.692E-03    -290.896E-03     13.7202E-03
             673     1.34641E-03     132.228E-03    -137.891E+06    -248.646E+06    -130.230E+06    -305.075E+03    -290.467E-03     580.754E-03    -290.287E-03     29.7842E-03    -290.736E-03     580.028E-03    -290.378E-03     24.9554E-03
             674     2.01951E-03     132.284E-03    -133.136E+06    -232.833E+06    -113.880E+06     60.4178E+03    -290.719E-03     581.083E-03    -290.364E-03     43.1959E-03    -291.149E-03     580.544E-03    -290.403E-03     36.1626E-03
             675     2.69260E-03     132.360E-03    -126.318E+06    -212.650E+06    -94.3568E+06     263.865E+03    -290.861E-03     581.295E-03    -290.434E-03     56.4925E-03    -291.495E-03     580.999E-03    -290.414E-03     47.3391E-03
             676     3.36582E-03     132.457E-03    -117.736E+06    -189.534E+06    -73.5514E+06     72.5395E+03    -290.992E-03     581.461E-03    -290.470E-03     68.9958E-03    -291.858E-03     581.450E-03    -290.392E-03     57.8367E-03
             677     4.03955E-03     132.570E-03    -108.633E+06    -166.251E+06    -53.3338E+06    -15.4189E+03    -291.301E-03     581.791E-03    -290.490E-03     80.4615E-03    -292.414E-03     582.083E-03    -290.358E-03     67.4627E-03
             678     4.71229E-03     132.702E-03    -99.3080E+06    -140.493E+06    -33.9697E+06     56.3281E+03    -291.644E-03     582.153E-03    -290.510E-03     90.7377E-03    -293.011E-03     582.768E-03    -290.332E-03     76.0487E-03
             679     5.38567E-03     132.847E-03    -90.0767E+06    -112.909E+06    -15.8485E+06     25.5134E+03    -291.961E-03     582.486E-03    -290.525E-03     99.9242E-03    -293.585E-03     583.435E-03    -290.310E-03     83.6833E-03
             680     6.05911E-03     133.008E-03    -81.0338E+06    -84.4889E+06     1.01296E+06     188.430E+03    -292.186E-03     582.718E-03    -290.532E-03     107.992E-03    -294.058E-03     583.999E-03    -290.287E-03     90.3536E-03
             681     6.73254E-03     133.177E-03    -72.1411E+06    -52.2859E+06     17.1598E+06     354.926E+03    -292.298E-03     582.820E-03    -290.522E-03     114.836E-03    -294.415E-03     584.445E-03    -290.256E-03     95.8842E-03
             682     7.40649E-03     133.358E-03    -63.4014E+06    -12.8818E+06     33.1650E+06     480.662E+03    -292.423E-03     582.920E-03    -290.497E-03     120.714E-03    -294.790E-03     584.920E-03    -290.221E-03     100.510E-03
             683     8.07968E-03     133.545E-03    -54.6800E+06     14.3785E+06     44.9084E+06     1.22525E+06    -292.562E-03     583.033E-03    -290.471E-03     125.702E-03    -295.160E-03     585.357E-03    -290.188E-03     104.229E-03
             684     8.75299E-03     133.739E-03    -46.7571E+06     31.1904E+06     54.3272E+06     1.10566E+06    -292.596E-03     583.049E-03    -290.453E-03     129.772E-03    -295.419E-03     585.659E-03    -290.159E-03     106.953E-03
             685     9.42599E-03     133.937E-03    -39.2137E+06     47.5997E+06     66.1295E+06     696.398E+03    -292.267E-03     582.709E-03    -290.443E-03     132.567E-03    -295.310E-03     585.591E-03    -290.124E-03     108.450E-03
             686     10.1016E-03     134.136E-03    -31.2412E+06     54.2220E+06     78.9646E+06     483.354E+03    -291.733E-03     582.170E-03    -290.438E-03     133.064E-03    -294.947E-03     585.237E-03    -290.076E-03     107.740E-03
             687     10.7752E-03     134.329E-03    -23.9913E+06     57.9800E+06     89.3700E+06     53.7164E+03    -291.348E-03     581.772E-03    -290.424E-03     131.148E-03    -294.687E-03     584.972E-03    -290.026E-03     104.657E-03
             688     11.4477E-03     134.519E-03    -16.9529E+06     64.9136E+06     94.7698E+06     360.422E+03    -290.776E-03     581.167E-03    -290.392E-03     123.394E-03    -294.018E-03     584.305E-03    -289.987E-03     96.6511E-03
             689     12.1229E-03     134.679E-03    -10.4826E+06     74.0827E+06     98.1832E+06     183.243E+03    -290.160E-03     580.520E-03    -290.360E-03     117.678E-03    -293.541E-03     583.843E-03    -289.961E-03     89.4009E-03
             690     12.7958E-03     134.839E-03    -5.17213E+06     77.2690E+06     98.1295E+06    -233.645E+03    -289.586E-03     579.922E-03    -290.336E-03     88.0273E-03    -292.129E-03     582.437E-03    -289.950E-03     63.3283E-03
             691     673.466E-06     133.886E-03    -140.890E+06    -264.221E+06    -139.002E+06    -427.937E+03    -290.008E-03     580.736E-03    -290.729E-03     15.8378E-03    -290.170E-03     579.863E-03    -290.836E-03     13.1815E-03
             692     1.34649E-03     133.922E-03    -139.061E+06    -249.601E+06    -130.745E+06    -41.4354E+03    -290.428E-03     580.777E-03    -290.349E-03     29.4636E-03    -290.700E-03     580.048E-03    -290.439E-03     24.6633E-03
             693     2.01933E-03     133.977E-03    -133.738E+06    -233.440E+06    -114.140E+06     244.348E+03    -290.581E-03     580.957E-03    -290.376E-03     43.4069E-03    -291.013E-03     580.416E-03    -290.415E-03     36.3893E-03
             694     2.69250E-03     134.054E-03    -126.147E+06    -212.519E+06    -94.3049E+06     146.683E+03    -290.757E-03     581.166E-03    -290.409E-03     56.6624E-03    -291.390E-03     580.870E-03    -290.389E-03     47.5124E-03
             695     3.36613E-03     134.149E-03    -117.742E+06    -189.593E+06    -73.7637E+06     132.776E+03    -291.072E-03     581.515E-03    -290.444E-03     68.9937E-03    -291.937E-03     581.503E-03    -290.367E-03     57.8401E-03
             696     4.03886E-03     134.265E-03    -108.881E+06    -166.224E+06    -53.4355E+06     134.688E+03    -291.393E-03     581.878E-03    -290.484E-03     80.3572E-03    -292.507E-03     582.170E-03    -290.352E-03     67.3477E-03
             697     4.71271E-03     134.394E-03    -99.8321E+06    -140.756E+06    -34.2936E+06     200.164E+03    -291.663E-03     582.177E-03    -290.513E-03     90.7055E-03    -293.033E-03     582.792E-03    -290.336E-03     76.0111E-03
             698     5.38599E-03     134.542E-03    -90.5966E+06    -113.048E+06    -16.1503E+06     340.155E+03    -291.979E-03     582.509E-03    -290.531E-03     99.9806E-03    -293.605E-03     583.459E-03    -290.316E-03     83.7467E-03
             699     6.05911E-03     134.700E-03    -81.6127E+06    -84.8050E+06     727.013E+03     382.667E+03    -292.217E-03     582.757E-03    -290.540E-03     107.983E-03    -294.092E-03     584.039E-03    -290.295E-03     90.3343E-03
             700     6.73271E-03     134.871E-03    -72.7733E+06    -52.6581E+06     16.9043E+06     546.631E+03    -292.375E-03     582.911E-03    -290.536E-03     114.835E-03    -294.496E-03     584.537E-03    -290.269E-03     95.8742E-03
             701     7.40563E-03     135.051E-03    -63.9946E+06    -13.1852E+06     33.0381E+06     712.482E+03    -292.417E-03     582.931E-03    -290.513E-03     120.792E-03    -294.788E-03     584.931E-03    -290.236E-03     100.589E-03
             702     8.07966E-03     135.239E-03    -55.5796E+06     12.7166E+06     43.8534E+06     538.915E+03    -292.457E-03     582.934E-03    -290.478E-03     125.992E-03    -295.056E-03     585.254E-03    -290.196E-03     104.533E-03
             703     8.75341E-03     135.433E-03    -46.9969E+06     31.7995E+06     54.3513E+06     711.031E+03    -292.422E-03     582.869E-03    -290.447E-03     130.220E-03    -295.250E-03     585.485E-03    -290.153E-03     107.432E-03
             704     9.42768E-03     135.631E-03    -38.6651E+06     49.6861E+06     67.3382E+06     224.547E+03    -292.228E-03     582.658E-03    -290.430E-03     132.756E-03    -295.282E-03     585.556E-03    -290.110E-03     108.601E-03
             705     10.1003E-03     135.827E-03    -31.4080E+06     53.9519E+06     78.7993E+06    -413.536E+03    -292.000E-03     582.432E-03    -290.431E-03     132.999E-03    -295.223E-03     585.505E-03    -290.070E-03     107.573E-03
             706     10.7740E-03     136.024E-03    -24.2060E+06     57.7329E+06     89.4248E+06    -165.445E+03    -291.247E-03     581.674E-03    -290.427E-03     130.625E-03    -294.580E-03     584.866E-03    -290.028E-03     104.133E-03
             707     11.4501E-03     136.208E-03    -17.1615E+06     64.8053E+06     95.0861E+06    -82.5796E+03    -290.446E-03     580.833E-03    -290.387E-03     122.443E-03    -293.675E-03     583.955E-03    -289.980E-03     95.7229E-03
             708     12.1232E-03     136.374E-03    -11.0793E+06     74.6061E+06     98.5278E+06     34.5673E+03    -290.135E-03     580.485E-03    -290.351E-03     115.945E-03    -293.492E-03     583.783E-03    -289.950E-03     87.6609E-03
             709     12.7971E-03     136.532E-03    -6.06536E+06     77.4848E+06     97.8750E+06     152.056E+03    -289.811E-03     580.147E-03    -290.336E-03     86.5548E-03    -292.330E-03     582.636E-03    -289.950E-03     61.9050E-03
             710     672.323E-06     135.581E-03    -141.926E+06    -264.998E+06    -139.826E+06     711.168E+03    -290.525E-03     580.946E-03    -290.422E-03     16.3490E-03    -290.691E-03     580.074E-03    -290.531E-03     13.7138E-03
             711     1.34577E-03     135.614E-03    -139.368E+06    -249.634E+06    -129.923E+06     363.281E+03    -290.333E-03     580.752E-03    -290.419E-03     29.7615E-03    -290.610E-03     580.025E-03    -290.505E-03     24.9013E-03
             712     2.01968E-03     135.671E-03    -133.364E+06    -233.377E+06    -113.524E+06     103.864E+03    -290.444E-03     580.825E-03    -290.381E-03     43.4110E-03    -290.874E-03     580.282E-03    -290.417E-03     36.3973E-03
             713     2.69317E-03     135.746E-03    -125.954E+06    -212.889E+06    -94.3150E+06     273.629E+03    -290.853E-03     581.254E-03    -290.402E-03     56.3889E-03    -291.482E-03     580.954E-03    -290.382E-03     47.2536E-03
             714     3.36581E-03     135.844E-03    -117.904E+06    -189.984E+06    -73.8375E+06     472.252E+03    -291.152E-03     581.610E-03    -290.458E-03     68.7899E-03    -292.016E-03     581.596E-03    -290.381E-03     57.6328E-03
             715     4.03945E-03     135.957E-03    -108.959E+06    -166.476E+06    -53.3512E+06     598.274E+03    -291.394E-03     581.899E-03    -290.506E-03     80.2482E-03    -292.507E-03     582.189E-03    -290.373E-03     67.2458E-03
             716     4.71219E-03     136.089E-03    -99.7935E+06    -140.847E+06    -33.9886E+06     664.033E+03    -291.674E-03     582.208E-03    -290.534E-03     90.6230E-03    -293.043E-03     582.822E-03    -290.355E-03     75.9328E-03
             717     5.38552E-03     136.235E-03    -90.6738E+06    -113.495E+06    -16.0393E+06     711.902E+03    -291.901E-03     582.447E-03    -290.546E-03     99.9026E-03    -293.526E-03     583.393E-03    -290.330E-03     83.6829E-03
             718     6.05921E-03     136.395E-03    -81.5067E+06    -85.0165E+06     977.202E+03     834.748E+03    -292.144E-03     582.689E-03    -290.545E-03     108.020E-03    -294.018E-03     583.969E-03    -290.299E-03     90.3938E-03
             719     6.73223E-03     136.565E-03    -72.4999E+06    -52.9495E+06     17.1356E+06     789.513E+03    -292.341E-03     582.874E-03    -290.533E-03     115.097E-03    -294.462E-03     584.500E-03    -290.265E-03     96.1485E-03
             720     7.40636E-03     136.745E-03    -63.4932E+06    -13.5667E+06     33.1009E+06     757.983E+03    -292.472E-03     582.980E-03    -290.508E-03     121.051E-03    -294.843E-03     584.982E-03    -290.231E-03     100.834E-03
             721     8.07966E-03     136.932E-03    -54.5594E+06     13.5774E+06     45.0276E+06     458.203E+03    -292.506E-03     582.986E-03    -290.480E-03     125.853E-03    -295.107E-03     585.311E-03    -290.196E-03     104.347E-03
             722     8.75346E-03     137.126E-03    -46.7368E+06     32.1237E+06     54.9633E+06     102.075E+03    -292.340E-03     582.791E-03    -290.452E-03     129.472E-03    -295.162E-03     585.402E-03    -290.156E-03     106.653E-03
             723     9.42703E-03     137.323E-03    -39.4763E+06     50.3245E+06     67.0371E+06     92.8091E+03    -292.256E-03     582.690E-03    -290.434E-03     132.050E-03    -295.304E-03     585.582E-03    -290.115E-03     107.887E-03
             724     10.1013E-03     137.523E-03    -31.8011E+06     54.6526E+06     79.3150E+06    -233.097E+03    -292.122E-03     582.569E-03    -290.447E-03     132.616E-03    -295.342E-03     585.640E-03    -290.083E-03     107.188E-03
             725     10.7750E-03     137.715E-03    -24.3307E+06     57.4535E+06     89.5428E+06    -325.926E+03    -291.624E-03     582.084E-03    -290.459E-03     129.822E-03    -294.949E-03     585.266E-03    -290.060E-03     103.278E-03
             726     11.4471E-03     137.901E-03    -17.5577E+06     64.7998E+06     94.5208E+06     11.1935E+03    -290.748E-03     581.186E-03    -290.438E-03     121.880E-03    -293.968E-03     584.299E-03    -290.034E-03     95.1473E-03
             727     12.1210E-03     138.068E-03    -10.8583E+06     74.4513E+06     97.9958E+06    -222.430E+03    -289.862E-03     580.261E-03    -290.399E-03     116.705E-03    -293.219E-03     583.560E-03    -290.001E-03     88.5140E-03
             728     12.7940E-03     138.226E-03    -4.87372E+06     77.2153E+06     97.7408E+06    -126.939E+03    -289.054E-03     579.405E-03    -290.352E-03     87.7071E-03    -291.583E-03     581.908E-03    -289.968E-03     63.0690E-03
             729     673.983E-06     137.274E-03    -142.233E+06    -265.768E+06    -140.699E+06    -214.526E+03    -290.577E-03     580.556E-03    -289.979E-03     16.5198E-03    -290.743E-03     579.682E-03    -290.091E-03     13.8150E-03
             730     1.34662E-03     137.308E-03    -138.234E+06    -249.770E+06    -129.485E+06     22.7191E+03    -290.624E-03     580.945E-03    -290.322E-03     29.6709E-03    -290.895E-03     580.215E-03    -290.407E-03     24.8234E-03
             731     2.01933E-03     137.363E-03    -133.038E+06    -233.979E+06    -113.277E+06     475.398E+03    -290.749E-03     581.174E-03    -290.425E-03     43.2399E-03    -291.176E-03     580.626E-03    -290.459E-03     36.2248E-03
             732     2.69216E-03     137.441E-03    -126.093E+06    -213.507E+06    -94.0125E+06     638.258E+03    -290.850E-03     581.331E-03    -290.481E-03     56.3333E-03    -291.480E-03     581.028E-03    -290.459E-03     47.1961E-03
             733     3.36575E-03     137.536E-03    -117.604E+06    -190.563E+06    -73.4359E+06     643.613E+03    -291.056E-03     581.569E-03    -290.513E-03     68.7471E-03    -291.918E-03     581.550E-03    -290.433E-03     57.5927E-03
             734     4.03869E-03     137.651E-03    -108.679E+06    -167.123E+06    -53.0991E+06     864.348E+03    -291.325E-03     581.861E-03    -290.537E-03     80.3216E-03    -292.436E-03     582.148E-03    -290.402E-03     67.3244E-03
             735     4.71238E-03     137.782E-03    -99.4170E+06    -141.402E+06    -33.6491E+06     1.07057E+06    -291.586E-03     582.134E-03    -290.548E-03     90.7914E-03    -292.954E-03     582.745E-03    -290.367E-03     76.1111E-03
             736     5.38579E-03     137.928E-03    -90.0469E+06    -113.797E+06    -15.3848E+06     1.14939E+06    -291.852E-03     582.400E-03    -290.548E-03     100.156E-03    -293.475E-03     583.344E-03    -290.329E-03     83.9504E-03
             737     6.05898E-03     138.088E-03    -80.7922E+06    -85.4463E+06     1.59353E+06     1.14121E+06    -292.082E-03     582.621E-03    -290.539E-03     108.189E-03    -293.953E-03     583.897E-03    -290.290E-03     90.5796E-03
             738     6.73311E-03     138.258E-03    -71.7477E+06    -52.9572E+06     17.8521E+06     1.17738E+06    -292.350E-03     582.873E-03    -290.524E-03     115.017E-03    -294.466E-03     584.495E-03    -290.253E-03     96.0838E-03
             739     7.40606E-03     138.438E-03    -63.1844E+06    -13.0563E+06     34.0735E+06     939.599E+03    -292.566E-03     583.072E-03    -290.507E-03     120.851E-03    -294.938E-03     585.075E-03    -290.226E-03     100.617E-03
             740     8.07959E-03     138.626E-03    -54.8497E+06     14.8417E+06     45.6746E+06     339.807E+03    -292.643E-03     583.132E-03    -290.489E-03     125.712E-03    -295.249E-03     585.463E-03    -290.202E-03     104.185E-03
             741     8.75286E-03     138.819E-03    -46.3143E+06     31.9723E+06     55.7360E+06     15.8818E+03    -292.624E-03     583.101E-03    -290.478E-03     129.578E-03    -295.450E-03     585.715E-03    -290.178E-03     106.711E-03
             742     9.42659E-03     139.017E-03    -37.9988E+06     49.7554E+06     68.2439E+06      348.52E+03    -292.464E-03     582.941E-03    -290.477E-03     132.170E-03    -295.511E-03     585.832E-03    -290.153E-03     107.969E-03
             743     10.1000E-03     139.215E-03    -30.7678E+06     55.8434E+06     79.6947E+06     662.955E+03    -292.100E-03     582.588E-03    -290.488E-03     132.241E-03    -295.311E-03     585.657E-03    -290.126E-03     106.832E-03
             744     10.7733E-03     139.410E-03    -24.1506E+06     57.9056E+06     89.1597E+06     318.643E+03    -291.579E-03     582.073E-03    -290.494E-03     130.103E-03    -294.904E-03     585.259E-03    -290.097E-03     103.596E-03
             745     11.4476E-03     139.596E-03    -17.0712E+06     64.8183E+06     94.2072E+06    -337.768E+03    -290.669E-03     581.133E-03    -290.464E-03     122.669E-03    -293.890E-03     584.250E-03    -290.062E-03     95.9956E-03
             746     12.1223E-03     139.758E-03    -10.4829E+06     74.2375E+06     97.7729E+06    -359.282E+03    -289.445E-03     579.852E-03    -290.407E-03     117.461E-03    -292.807E-03     583.157E-03    -290.011E-03     89.3337E-03
             747     12.7977E-03     139.922E-03    -4.78477E+06     77.1376E+06     98.3405E+06    -124.758E+03    -288.844E-03     579.188E-03    -290.344E-03     87.7939E-03    -291.376E-03     581.692E-03    -289.958E-03     63.2103E-03
             748     672.747E-06     138.966E-03    -141.830E+06    -264.710E+06    -139.626E+06    -447.134E+03    -290.590E-03     580.720E-03    -290.130E-03     16.1284E-03    -290.756E-03     579.848E-03    -290.238E-03     13.4429E-03
             749     1.34626E-03     139.002E-03    -138.358E+06    -251.360E+06    -129.214E+06     160.298E+03    -290.692E-03     581.097E-03    -290.405E-03     29.4192E-03    -290.960E-03     580.356E-03    -290.486E-03     24.6083E-03
             750     2.01908E-03     139.058E-03    -132.873E+06    -234.781E+06    -112.883E+06     583.957E+03    -290.818E-03     581.321E-03    -290.504E-03     43.1689E-03    -291.243E-03     580.770E-03    -290.535E-03     36.1577E-03
             751     2.69249E-03     139.134E-03    -125.582E+06    -214.387E+06    -93.6743E+06     664.418E+03    -290.764E-03     581.303E-03    -290.539E-03     56.5582E-03    -291.393E-03     580.997E-03    -290.515E-03     47.3955E-03
             752     3.36558E-03     139.230E-03    -117.177E+06    -191.517E+06    -73.0063E+06     891.011E+03    -290.952E-03     581.490E-03    -290.538E-03     69.0805E-03    -291.813E-03     581.468E-03    -290.456E-03     57.9328E-03
             753     4.03911E-03     139.345E-03    -108.185E+06    -167.934E+06    -52.5177E+06     1.05882E+06    -291.253E-03     581.793E-03    -290.540E-03     80.5581E-03    -292.363E-03     582.076E-03    -290.402E-03     67.5636E-03
             754     4.71232E-03     139.475E-03    -98.8173E+06    -142.098E+06    -33.0924E+06     1.10800E+06    -291.567E-03     582.109E-03    -290.543E-03     90.8799E-03    -292.933E-03     582.716E-03    -290.359E-03     76.1977E-03
             755     5.38577E-03     139.622E-03    -89.3403E+06    -114.700E+06    -14.8632E+06     1.30941E+06    -291.891E-03     582.436E-03    -290.545E-03     99.9413E-03    -293.508E-03     583.371E-03    -290.323E-03     83.7470E-03
             756     6.05952E-03     139.781E-03    -80.0264E+06    -85.7386E+06     2.40971E+06     1.50575E+06    -292.218E-03     582.766E-03    -290.548E-03     107.826E-03    -294.081E-03     584.033E-03    -290.295E-03     90.2253E-03
             757     6.73231E-03     139.952E-03    -71.1015E+06    -52.8352E+06     18.8053E+06     1.41261E+06    -292.478E-03     583.026E-03    -290.548E-03     114.678E-03    -294.589E-03     584.642E-03    -290.274E-03     95.7433E-03
             758     7.40606E-03     140.133E-03    -61.9146E+06    -12.5742E+06     35.2931E+06     1.24406E+06    -292.494E-03     583.028E-03    -290.534E-03     120.529E-03    -294.855E-03     585.022E-03    -290.250E-03     100.337E-03
             759     8.07960E-03     140.320E-03    -53.2321E+06     16.7299E+06     47.5991E+06     1.09615E+06    -292.542E-03     583.051E-03    -290.509E-03     125.599E-03    -295.139E-03     585.380E-03    -290.218E-03     104.125E-03
             760     8.75330E-03     140.514E-03    -45.8007E+06     32.9629E+06     56.9300E+06     501.204E+03    -292.703E-03     583.197E-03    -290.494E-03     129.643E-03    -295.528E-03     585.811E-03    -290.191E-03     106.797E-03
             761     9.42649E-03     140.710E-03    -38.4778E+06     47.1909E+06     67.8368E+06     169.652E+03    -292.535E-03     583.029E-03    -290.495E-03     132.469E-03    -295.581E-03     585.910E-03    -290.168E-03     108.285E-03
             762     10.0998E-03     140.910E-03    -30.6660E+06     55.7672E+06     79.9821E+06     685.128E+03    -292.048E-03     582.548E-03    -290.500E-03     133.256E-03    -295.271E-03     585.628E-03    -290.137E-03     107.872E-03
             763     10.7741E-03     141.102E-03    -23.3903E+06     60.1136E+06     89.9830E+06     640.681E+03    -291.468E-03     581.962E-03    -290.494E-03     130.832E-03    -294.807E-03     585.171E-03    -290.098E-03     104.305E-03
             764     11.4482E-03     141.289E-03    -16.7796E+06     65.5693E+06     94.9776E+06     292.426E+03    -290.761E-03     581.226E-03    -290.466E-03     122.140E-03    -293.988E-03     584.352E-03    -290.062E-03     95.3646E-03
             765     12.1211E-03     141.452E-03    -10.8005E+06     75.1841E+06     98.5658E+06    -163.735E+03    -289.967E-03     580.399E-03    -290.432E-03     116.016E-03    -293.326E-03     583.700E-03    -290.032E-03     87.7473E-03
             766     12.7946E-03     141.610E-03    -5.34004E+06     76.5462E+06     97.9130E+06    -219.817E+03    -288.828E-03     579.212E-03    -290.384E-03     86.4019E-03    -291.348E-03     581.701E-03    -289.998E-03     61.7567E-03
             767     673.190E-06     140.660E-03    -140.667E+06    -265.344E+06    -138.864E+06     358.390E+03    -290.983E-03     581.270E-03    -290.287E-03     16.5008E-03    -291.144E-03     580.392E-03    -290.392E-03     13.8396E-03
             768     1.34583E-03     140.695E-03    -137.979E+06    -252.621E+06    -128.770E+06     362.005E+03    -290.520E-03     581.107E-03    -290.587E-03     29.7353E-03    -290.787E-03     580.361E-03    -290.665E-03     24.9084E-03
             769     2.01919E-03     140.752E-03    -132.293E+06    -235.926E+06    -112.837E+06     613.653E+03    -290.534E-03     581.074E-03    -290.540E-03     43.2818E-03    -290.958E-03     580.518E-03    -290.570E-03     36.2419E-03
             770     2.69217E-03     140.827E-03    -125.165E+06    -215.360E+06    -93.3653E+06     902.933E+03    -290.720E-03     581.240E-03    -290.519E-03     56.6306E-03    -291.347E-03     580.928E-03    -290.492E-03     47.4700E-03
             771     3.36575E-03     140.923E-03    -116.806E+06    -192.448E+06    -72.4345E+06     1.13127E+06    -290.984E-03     581.505E-03    -290.521E-03     69.1735E-03    -291.843E-03     581.475E-03    -290.434E-03     58.0453E-03
             772     4.03903E-03     141.038E-03    -107.583E+06    -168.662E+06    -51.7896E+06     1.10920E+06    -291.355E-03     581.891E-03    -290.537E-03     80.4287E-03    -292.461E-03     582.167E-03    -290.395E-03     67.4332E-03
             773     4.71250E-03     141.169E-03    -98.2220E+06    -142.680E+06    -32.3910E+06     1.23064E+06    -291.762E-03     582.325E-03    -290.562E-03     90.5909E-03    -293.123E-03     582.924E-03    -290.375E-03     75.9078E-03
             774     5.38570E-03     141.316E-03    -89.0455E+06    -115.260E+06    -14.2928E+06     1.34662E+06    -292.087E-03     582.677E-03    -290.589E-03     99.5144E-03    -293.699E-03     583.605E-03    -290.365E-03     83.3049E-03
             775     6.05864E-03     141.475E-03    -79.9037E+06    -86.4911E+06     2.73667E+06     1.40817E+06    -292.311E-03     582.918E-03    -290.607E-03     107.491E-03    -294.170E-03     584.178E-03    -290.352E-03     89.8826E-03
             776     6.73232E-03     141.646E-03    -70.5846E+06    -53.0758E+06     19.3742E+06     1.49698E+06    -292.396E-03     583.000E-03    -290.604E-03     114.508E-03    -294.501E-03     584.610E-03    -290.328E-03     95.5895E-03
             777     7.40550E-03     141.826E-03    -62.0711E+06    -12.4495E+06     35.7995E+06     1.49376E+06    -292.432E-03     583.012E-03    -290.580E-03     120.376E-03    -294.793E-03     585.005E-03    -290.293E-03     100.185E-03
             778     8.07925E-03     142.014E-03    -54.0036E+06     16.0698E+06     47.5687E+06     1.84647E+06    -292.469E-03     583.015E-03    -290.546E-03     125.300E-03    -295.063E-03     585.337E-03    -290.253E-03     103.852E-03
             779     8.75272E-03     142.207E-03    -46.0861E+06     34.4402E+06     57.4392E+06     1.66029E+06    -292.390E-03     582.904E-03    -290.514E-03     129.521E-03    -295.211E-03     585.517E-03    -290.210E-03     106.755E-03
             780     9.42636E-03     142.405E-03    -38.6388E+06     48.9495E+06     68.4774E+06     807.919E+03    -292.238E-03     582.730E-03    -290.492E-03     132.295E-03    -295.278E-03     585.608E-03    -290.165E-03     108.196E-03
             781     10.1010E-03     142.601E-03    -31.4236E+06     54.6667E+06     79.7044E+06     74.9486E+03    -292.055E-03     582.546E-03    -290.490E-03     132.679E-03    -295.270E-03     585.612E-03    -290.125E-03     107.293E-03
             782     10.7743E-03     142.798E-03    -24.3157E+06     59.7879E+06     90.3006E+06     499.113E+03    -291.625E-03     582.121E-03    -290.496E-03     130.185E-03    -294.967E-03     585.327E-03    -290.096E-03     103.591E-03
             783     11.4469E-03     142.981E-03    -17.7056E+06     66.9991E+06     95.5530E+06     787.511E+03    -290.987E-03     581.467E-03    -290.480E-03     122.309E-03    -294.235E-03     584.614E-03    -290.074E-03     95.4531E-03
             784     12.1214E-03     143.146E-03    -11.2270E+06     76.0478E+06     98.8179E+06     391.802E+03    -290.053E-03     580.505E-03    -290.451E-03     117.147E-03    -293.434E-03     583.829E-03    -290.051E-03     88.8731E-03
             785     12.7941E-03     143.306E-03    -5.22291E+06     76.3953E+06     98.2212E+06    -23.2939E+03    -288.446E-03     578.838E-03    -290.392E-03     88.1078E-03    -290.993E-03     581.353E-03    -290.004E-03     63.4000E-03
             786     672.536E-06     142.355E-03    -139.593E+06    -267.935E+06    -138.580E+06     916.206E+03    -290.991E-03     581.253E-03    -290.262E-03     16.3236E-03    -291.143E-03     580.360E-03    -290.364E-03     13.6650E-03
             787     1.34589E-03     142.389E-03    -137.827E+06    -253.193E+06    -128.663E+06     817.522E+03    -290.407E-03     580.961E-03    -290.554E-03     29.8457E-03    -290.673E-03     580.212E-03    -290.630E-03     25.0045E-03
             788     2.01919E-03     142.444E-03    -132.197E+06    -237.312E+06    -112.596E+06     710.073E+03    -290.503E-03     580.994E-03    -290.491E-03     43.5055E-03    -290.926E-03     580.432E-03    -290.518E-03     36.4350E-03
             789     2.69286E-03     142.521E-03    -124.729E+06    -216.198E+06    -92.9913E+06     821.729E+03    -290.869E-03     581.363E-03    -290.494E-03     56.5300E-03    -291.492E-03     581.045E-03    -290.465E-03     47.3700E-03
             790     3.36583E-03     142.617E-03    -116.252E+06    -193.296E+06    -72.0924E+06     1.04010E+06    -291.221E-03     581.762E-03    -290.541E-03     68.7869E-03    -292.074E-03     581.725E-03    -290.453E-03     57.6441E-03
             791     4.03903E-03     142.732E-03    -107.297E+06    -169.458E+06    -51.4817E+06     1.30495E+06    -291.572E-03     582.168E-03    -290.595E-03     80.0853E-03    -292.672E-03     582.434E-03    -290.451E-03     67.1015E-03
             792     4.71187E-03     142.863E-03    -98.0919E+06    -143.295E+06    -32.0324E+06     1.39723E+06    -291.899E-03     582.541E-03    -290.641E-03     90.2720E-03    -293.255E-03     583.133E-03    -290.452E-03     75.5951E-03
             793     5.38497E-03     143.010E-03    -88.7246E+06    -115.703E+06    -13.7893E+06     1.47992E+06    -292.132E-03     582.805E-03    -290.672E-03     99.4740E-03    -293.744E-03     583.731E-03    -290.445E-03     83.2461E-03
             794     6.05831E-03     143.169E-03    -79.5702E+06    -86.8316E+06     3.29342E+06     1.61341E+06    -292.272E-03     582.954E-03    -290.681E-03     107.564E-03    -294.132E-03     584.213E-03    -290.424E-03     89.9392E-03
             795     6.73158E-03     143.339E-03    -70.9352E+06    -54.1235E+06     19.3484E+06     1.85714E+06    -292.355E-03     583.022E-03    -290.667E-03     114.434E-03    -294.461E-03     584.627E-03    -290.389E-03     95.5129E-03
             796     7.40546E-03     143.520E-03    -62.1464E+06    -13.8560E+06     35.6014E+06     2.66910E+06    -292.437E-03     583.072E-03    -290.635E-03     120.257E-03    -294.793E-03     585.056E-03    -290.347E-03     100.090E-03
             797     8.07867E-03     143.707E-03    -53.7552E+06     15.4826E+06     47.5680E+06     2.77403E+06    -292.398E-03     582.992E-03    -290.594E-03     125.199E-03    -294.989E-03     585.309E-03    -290.301E-03     103.762E-03
             798     8.75253E-03     143.901E-03    -45.6563E+06     34.9675E+06     57.5222E+06     2.63103E+06    -292.246E-03     582.796E-03    -290.550E-03     129.167E-03    -295.060E-03     585.406E-03    -290.247E-03     106.430E-03
             799     9.42712E-03     144.097E-03    -38.3151E+06     52.3631E+06     69.2001E+06     1.90072E+06    -292.189E-03     582.710E-03    -290.521E-03     131.631E-03    -295.224E-03     585.594E-03    -290.195E-03     107.553E-03
             800     10.0995E-03     144.297E-03    -31.7611E+06     55.3396E+06     80.2776E+06     1.34511E+06    -291.967E-03     582.487E-03    -290.520E-03     132.243E-03    -295.176E-03     585.547E-03    -290.153E-03     106.910E-03
             801     10.7732E-03     144.490E-03    -24.3838E+06     59.0661E+06     90.8027E+06     1.12711E+06    -291.364E-03     581.878E-03    -290.515E-03     130.355E-03    -294.698E-03     585.073E-03    -290.111E-03     103.867E-03
             802     11.4483E-03     144.676E-03    -17.1688E+06     67.5883E+06     95.9639E+06     375.147E+03    -290.536E-03     581.008E-03    -290.471E-03     122.879E-03    -293.781E-03     584.153E-03    -290.065E-03     96.1283E-03
             803     12.1208E-03     144.840E-03    -10.8609E+06     76.1446E+06     99.0401E+06     222.957E+03    -289.289E-03     579.696E-03    -290.407E-03     117.282E-03    -292.668E-03     583.019E-03    -290.006E-03     89.0906E-03
             804     12.7976E-03     144.996E-03    -4.67239E+06     77.4711E+06     99.3300E+06     9.88804E+03    -288.547E-03     578.882E-03    -290.335E-03     87.3732E-03    -291.081E-03     581.387E-03    -289.944E-03     62.7321E-03
             805     673.325E-06     144.048E-03    -141.570E+06    -270.312E+06    -138.971E+06     520.897E+03    -290.342E-03     580.806E-03    -290.463E-03     16.2380E-03    -290.500E-03     579.904E-03    -290.561E-03     13.5465E-03
             806     1.34639E-03     144.082E-03    -137.433E+06    -254.061E+06    -128.759E+06     774.041E+03    -290.555E-03     580.962E-03    -290.406E-03     29.6428E-03    -290.817E-03     580.207E-03    -290.483E-03     24.8121E-03
             807     2.01963E-03     144.138E-03    -132.121E+06    -237.681E+06    -112.032E+06     682.467E+03    -290.871E-03     581.356E-03    -290.485E-03     43.1443E-03    -291.291E-03     580.788E-03    -290.509E-03     36.0964E-03
             808     2.69220E-03     144.215E-03    -124.687E+06    -217.197E+06    -92.8052E+06     745.676E+03    -291.145E-03     581.723E-03    -290.578E-03     56.0899E-03    -291.765E-03     581.399E-03    -290.547E-03     46.9142E-03
             809     3.36523E-03     144.311E-03    -116.531E+06    -194.457E+06    -72.2811E+06     1.12034E+06    -291.418E-03     582.078E-03    -290.660E-03     68.4554E-03    -292.270E-03     582.035E-03    -290.570E-03     57.2888E-03
             810     4.03816E-03     144.426E-03    -107.550E+06    -170.340E+06    -51.7053E+06     1.31238E+06    -291.653E-03     582.373E-03    -290.721E-03     79.8925E-03    -292.751E-03     582.635E-03    -290.576E-03     66.9030E-03
             811     4.71143E-03     144.558E-03    -98.1451E+06    -144.222E+06    -32.1154E+06     1.50881E+06    -291.806E-03     582.556E-03    -290.750E-03     90.2559E-03    -293.161E-03     583.144E-03    -290.559E-03     75.5704E-03
             812     5.38469E-03     144.704E-03    -88.9844E+06    -116.726E+06    -13.9509E+06     1.86909E+06    -292.005E-03     582.759E-03    -290.753E-03     99.5184E-03    -293.616E-03     583.679E-03    -290.525E-03     83.3075E-03
             813     6.05807E-03     144.863E-03    -79.8232E+06    -87.9648E+06     3.14954E+06     2.18144E+06    -292.264E-03     583.010E-03    -290.746E-03     107.496E-03    -294.122E-03     584.263E-03    -290.487E-03     89.8848E-03
             814     6.73148E-03     145.034E-03    -70.6867E+06    -55.2022E+06     19.5232E+06     2.60633E+06    -292.462E-03     583.193E-03    -290.730E-03     114.324E-03    -294.563E-03     584.789E-03    -290.450E-03     95.4171E-03
             815     7.40450E-03     145.213E-03    -61.8809E+06    -15.6962E+06     35.4319E+06     2.61676E+06    -292.402E-03     583.098E-03    -290.697E-03     120.141E-03    -294.752E-03     585.071E-03    -290.407E-03     99.9726E-03
             816     8.07855E-03     145.401E-03    -52.9141E+06     14.4058E+06     47.7526E+06     3.16481E+06    -292.366E-03     583.015E-03    -290.648E-03     124.938E-03    -294.949E-03     585.323E-03    -290.354E-03     103.502E-03
             817     8.75224E-03     145.593E-03    -44.8860E+06     35.2238E+06     57.8854E+06     3.23183E+06    -292.424E-03     583.030E-03    -290.606E-03     128.857E-03    -295.229E-03     585.633E-03    -290.303E-03     106.133E-03
             818     9.42472E-03     145.792E-03    -37.2232E+06     53.1933E+06     70.2526E+06     3.20541E+06    -292.037E-03     582.614E-03    -290.577E-03     131.679E-03    -295.065E-03     585.495E-03    -290.249E-03     107.666E-03
             819     10.1000E-03     145.989E-03    -29.1880E+06     57.2534E+06     82.2345E+06     2.88523E+06    -291.530E-03     582.081E-03    -290.551E-03     132.528E-03    -294.728E-03     585.140E-03    -290.181E-03     107.300E-03
             820     10.7745E-03     146.184E-03    -22.2977E+06     59.7460E+06     91.8131E+06     1.84228E+06    -291.106E-03     581.624E-03    -290.518E-03     130.406E-03    -294.424E-03     584.809E-03    -290.113E-03     104.008E-03
             821     11.4471E-03     146.368E-03    -16.0055E+06     68.8106E+06     97.7011E+06     1.48336E+06    -290.136E-03     580.596E-03    -290.460E-03     122.089E-03    -293.359E-03     583.722E-03    -290.048E-03     95.4559E-03
             822     12.1238E-03     146.531E-03    -10.2625E+06     77.3745E+06     100.750E+06     842.509E+03    -289.238E-03     579.626E-03    -290.388E-03     115.934E-03    -292.601E-03     582.935E-03    -289.981E-03     87.7279E-03
             823     12.7955E-03     146.689E-03    -5.24679E+06     77.8874E+06     99.6539E+06     697.046E+03    -288.942E-03     579.268E-03    -290.326E-03     86.7091E-03    -291.473E-03     581.768E-03    -289.933E-03     62.0464E-03
             824     673.190E-06     145.741E-03    -142.375E+06    -271.487E+06    -139.064E+06     471.465E+03    -290.127E-03     581.008E-03    -290.880E-03     15.6280E-03    -290.287E-03     580.102E-03    -290.976E-03     12.9086E-03
             825     1.34633E-03     145.776E-03    -137.601E+06    -255.087E+06    -128.661E+06     436.492E+03    -290.803E-03     581.347E-03    -290.544E-03     29.0935E-03    -291.061E-03     580.584E-03    -290.618E-03     24.2712E-03
             826     2.01874E-03     145.833E-03    -132.139E+06    -238.671E+06    -112.356E+06     744.780E+03    -291.079E-03     581.735E-03    -290.657E-03     42.8623E-03    -291.494E-03     581.161E-03    -290.681E-03     35.8522E-03
             827     2.69180E-03     145.909E-03    -125.367E+06    -218.446E+06    -93.1146E+06     1.12715E+06    -291.266E-03     582.017E-03    -290.751E-03     56.1129E-03    -291.886E-03     581.687E-03    -290.718E-03     46.9441E-03
             828     3.36475E-03     146.005E-03    -116.969E+06    -195.511E+06    -72.4030E+06     1.29930E+06    -291.454E-03     582.269E-03    -290.814E-03     68.6037E-03    -292.307E-03     582.222E-03    -290.723E-03     57.4372E-03
             829     4.03772E-03     146.120E-03    -107.927E+06    -171.278E+06    -51.9315E+06     1.51815E+06    -291.581E-03     582.426E-03    -290.845E-03     80.0284E-03    -292.683E-03     582.687E-03    -290.700E-03     67.0153E-03
             830     4.71086E-03     146.251E-03    -98.7711E+06    -145.521E+06    -32.5558E+06     1.74408E+06    -291.780E-03     582.629E-03    -290.849E-03     90.3091E-03    -293.136E-03     583.212E-03    -290.657E-03     75.6227E-03
             831     5.38430E-03     146.398E-03    -89.3792E+06    -118.232E+06    -14.3494E+06     2.05958E+06    -292.083E-03     582.927E-03    -290.843E-03     99.2858E-03    -293.690E-03     583.838E-03    -290.614E-03     83.0829E-03
             832     6.05751E-03     146.557E-03    -79.9435E+06    -89.4843E+06     2.78582E+06     2.29253E+06    -292.299E-03     583.133E-03    -290.834E-03     107.098E-03    -294.149E-03     584.374E-03    -290.575E-03     89.4974E-03
             833     6.73076E-03     146.728E-03    -70.7706E+06    -57.0906E+06     19.0425E+06     2.57398E+06    -292.363E-03     583.172E-03    -290.810E-03     113.979E-03    -294.455E-03     584.756E-03    -290.529E-03     95.0822E-03
             834     7.40450E-03     146.908E-03    -62.1002E+06    -17.3635E+06     35.1166E+06     3.45912E+06    -292.406E-03     583.172E-03    -290.767E-03     119.816E-03    -294.748E-03     585.131E-03    -290.476E-03     99.6784E-03
             835     8.07787E-03     147.094E-03    -54.2633E+06     13.2187E+06     47.0802E+06     3.39771E+06    -292.503E-03     583.222E-03    -290.719E-03     124.708E-03    -295.080E-03     585.517E-03    -290.424E-03     103.314E-03
             836     8.75112E-03     147.289E-03    -46.2993E+06     36.3210E+06     58.3174E+06     2.95631E+06    -292.250E-03     582.925E-03    -290.674E-03     128.635E-03    -295.060E-03     585.530E-03    -290.368E-03     105.930E-03
             837     9.42619E-03     147.484E-03    -38.2144E+06     53.1411E+06     70.3983E+06     2.64747E+06    -291.824E-03     582.453E-03    -290.629E-03     131.242E-03    -294.854E-03     585.332E-03    -290.298E-03     107.210E-03
             838     10.0995E-03     147.681E-03    -31.0027E+06     57.1572E+06     81.6654E+06     2.53491E+06    -291.432E-03     582.024E-03    -290.592E-03     131.745E-03    -294.628E-03     585.076E-03    -290.221E-03     106.501E-03
             839     10.7731E-03     147.876E-03    -24.3367E+06     61.2046E+06     92.4301E+06     2.45968E+06    -290.747E-03     581.298E-03    -290.551E-03     129.509E-03    -294.063E-03     584.476E-03    -290.142E-03     103.160E-03
             840     11.4488E-03     148.061E-03    -17.6672E+06     69.3019E+06     98.0354E+06     2.01604E+06    -289.995E-03     580.475E-03    -290.480E-03     121.337E-03    -293.217E-03     583.596E-03    -290.065E-03     94.7111E-03
             841     12.1204E-03     148.223E-03    -11.4149E+06     78.1921E+06     101.242E+06     2.14495E+06    -289.364E-03     579.771E-03    -290.408E-03     116.021E-03    -292.728E-03     583.079E-03    -289.998E-03     87.8775E-03
             842     12.7964E-03     148.383E-03    -6.32034E+06     79.5402E+06     100.243E+06     1.33824E+06    -288.571E-03     578.908E-03    -290.337E-03     87.3542E-03    -291.111E-03     581.417E-03    -289.942E-03     62.7694E-03
             843     672.542E-06     147.435E-03    -141.000E+06    -272.315E+06    -139.409E+06     51.1455E+03    -290.917E-03     581.799E-03    -290.883E-03     16.1922E-03    -291.068E-03     580.888E-03    -290.980E-03     13.4923E-03
             844     1.34524E-03     147.471E-03    -138.125E+06    -256.777E+06    -129.277E+06     759.968E+03    -291.025E-03     581.924E-03    -290.899E-03     29.3620E-03    -291.284E-03     581.156E-03    -290.973E-03     24.5126E-03
             845     2.01857E-03     147.527E-03    -132.840E+06    -240.377E+06    -112.846E+06     1.21690E+06    -291.026E-03     581.952E-03    -290.926E-03     42.8062E-03    -291.443E-03     581.371E-03    -290.949E-03     35.7843E-03
             846     2.69140E-03     147.604E-03    -125.562E+06    -219.792E+06    -93.2793E+06     1.42348E+06    -291.186E-03     582.121E-03    -290.935E-03     56.1102E-03    -291.805E-03     581.784E-03    -290.900E-03     46.9510E-03
             847     3.36416E-03     147.700E-03    -117.230E+06    -196.793E+06    -72.5026E+06     1.70972E+06    -291.362E-03     582.305E-03    -290.943E-03     68.5927E-03    -292.215E-03     582.253E-03    -290.850E-03     57.4234E-03
             848     4.03745E-03     147.814E-03    -108.407E+06    -172.494E+06    -52.0580E+06     1.96607E+06    -291.623E-03     582.570E-03    -290.948E-03     79.9665E-03    -292.724E-03     582.826E-03    -290.801E-03     66.9582E-03
             849     4.71071E-03     147.946E-03    -99.1612E+06    -146.428E+06    -32.6886E+06     2.07770E+06    -292.004E-03     582.960E-03    -290.955E-03     90.0975E-03    -293.359E-03     583.537E-03    -290.763E-03     75.4116E-03
             850     5.38351E-03     148.092E-03    -89.7495E+06    -119.529E+06    -14.6415E+06     2.01658E+06    -292.215E-03     583.177E-03    -290.961E-03     99.0548E-03    -293.820E-03     584.081E-03    -290.731E-03     82.8283E-03
             851     6.05664E-03     148.252E-03    -80.5901E+06    -91.1568E+06     2.19498E+06     2.36130E+06    -292.298E-03     583.246E-03    -290.948E-03     106.955E-03    -294.146E-03     584.478E-03    -290.688E-03     89.3580E-03
             852     6.73011E-03     148.422E-03    -71.8536E+06    -59.0486E+06     18.2063E+06     2.90488E+06    -292.417E-03     583.333E-03    -290.916E-03     113.655E-03    -294.507E-03     584.905E-03    -290.635E-03     94.7698E-03
             853     7.40364E-03     148.601E-03    -62.9880E+06    -20.5044E+06     34.1306E+06     3.37994E+06    -292.542E-03     583.418E-03    -290.876E-03     119.229E-03    -294.874E-03     585.354E-03    -290.584E-03     99.1018E-03
             854     8.07703E-03     148.789E-03    -54.0542E+06     12.8485E+06     47.6106E+06     4.34872E+06    -292.372E-03     583.198E-03    -290.826E-03     123.996E-03    -294.941E-03     585.483E-03    -290.528E-03     102.613E-03
             855     8.75101E-03     148.981E-03    -46.3058E+06     38.3473E+06     58.7745E+06     4.11535E+06    -292.001E-03     582.762E-03    -290.761E-03     127.838E-03    -294.806E-03     585.368E-03    -290.456E-03     105.141E-03
             856     9.42411E-03     149.177E-03    -39.4760E+06     53.0606E+06     69.7246E+06     3.19677E+06    -291.764E-03     582.466E-03    -290.702E-03     130.669E-03    -294.789E-03     585.337E-03    -290.373E-03     106.656E-03
             857     10.0982E-03     149.375E-03    -32.1418E+06     55.8056E+06     81.4072E+06     3.33081E+06    -291.337E-03     581.998E-03    -290.661E-03     131.458E-03    -294.528E-03     585.036E-03    -290.288E-03     106.266E-03
             858     10.7732E-03     149.567E-03    -24.3718E+06     62.3673E+06     93.0623E+06     3.52225E+06    -290.464E-03     581.068E-03    -290.604E-03     129.353E-03    -293.778E-03     584.247E-03    -290.194E-03     103.057E-03
             859     11.4464E-03     149.753E-03    -17.7222E+06     70.0067E+06     98.7293E+06     3.14536E+06    -289.527E-03     580.035E-03    -290.509E-03     121.723E-03    -292.755E-03     583.163E-03    -290.091E-03     95.1589E-03
             860     12.1231E-03     149.916E-03    -11.6626E+06     78.9720E+06     101.537E+06     2.20243E+06    -289.021E-03     579.429E-03    -290.408E-03     116.882E-03    -292.393E-03     582.745E-03    -289.998E-03     88.8247E-03
             861     12.7957E-03     150.074E-03    -4.91774E+06     82.8640E+06     102.200E+06     1.00623E+06    -288.519E-03     578.845E-03    -290.326E-03     87.3811E-03    -291.064E-03     581.371E-03    -289.928E-03     62.7624E-03
             862     673.002E-06     149.131E-03    -140.529E+06    -274.277E+06    -139.566E+06     459.820E+03    -291.593E-03     582.260E-03    -290.667E-03     16.2229E-03    -291.737E-03     581.337E-03    -290.764E-03     13.5932E-03
             863     1.34532E-03     149.167E-03    -138.579E+06    -259.365E+06    -129.754E+06     1.01378E+06    -291.164E-03     582.272E-03    -291.108E-03     29.5855E-03    -291.424E-03     581.496E-03    -291.180E-03     24.7069E-03
             864     2.01765E-03     149.221E-03    -132.974E+06    -242.437E+06    -113.075E+06     1.65606E+06    -291.110E-03     582.210E-03    -291.100E-03     43.1841E-03    -291.528E-03     581.624E-03    -291.121E-03     36.0897E-03
             865     2.69070E-03     149.299E-03    -126.005E+06    -221.695E+06    -93.5493E+06     2.16349E+06    -291.191E-03     582.266E-03    -291.075E-03     56.3812E-03    -291.811E-03     581.923E-03    -291.039E-03     47.2164E-03
             866     3.36411E-03     149.394E-03    -117.760E+06    -198.488E+06    -72.7306E+06     2.31125E+06    -291.505E-03     582.573E-03    -291.068E-03     68.5103E-03    -292.357E-03     582.513E-03    -290.973E-03     57.3467E-03
             867     4.03702E-03     149.509E-03    -108.584E+06    -173.948E+06    -52.0788E+06     2.47942E+06    -291.887E-03     582.974E-03    -291.087E-03     79.6240E-03    -292.984E-03     583.219E-03    -290.938E-03     66.6120E-03
             868     4.70962E-03     149.641E-03    -99.4494E+06    -147.936E+06    -32.7494E+06     2.84375E+06    -292.087E-03     583.191E-03    -291.104E-03     89.7886E-03    -293.438E-03     583.759E-03    -290.909E-03     75.1008E-03
             869     5.38279E-03     149.787E-03    -90.6514E+06    -120.654E+06    -14.7684E+06     3.19199E+06    -292.249E-03     583.349E-03    -291.101E-03     98.8122E-03    -293.854E-03     584.247E-03    -290.868E-03     82.6004E-03
             870     6.05618E-03     149.946E-03    -82.3535E+06    -92.3314E+06     1.81077E+06     3.40758E+06    -292.478E-03     583.564E-03    -291.087E-03     106.494E-03    -294.328E-03     584.789E-03    -290.824E-03     88.8959E-03
             871     6.72941E-03     150.116E-03    -74.0118E+06    -60.0066E+06     17.7005E+06     3.49876E+06    -292.643E-03     583.709E-03    -291.066E-03     113.069E-03    -294.734E-03     585.273E-03    -290.783E-03     94.1726E-03
             872     7.40217E-03     150.296E-03    -65.5487E+06    -21.3874E+06     33.5698E+06     3.22642E+06    -292.471E-03     583.496E-03    -291.025E-03     118.886E-03    -294.811E-03     585.430E-03    -290.731E-03     98.7339E-03
             873     8.07568E-03     150.482E-03    -56.8244E+06     10.2433E+06     45.8259E+06     2.99990E+06    -292.149E-03     583.100E-03    -290.951E-03     123.724E-03    -294.720E-03     585.373E-03    -290.654E-03     102.344E-03
             874     8.74951E-03     150.674E-03    -47.7591E+06     36.3225E+06     57.2900E+06     4.08850E+06    -291.960E-03     582.825E-03    -290.866E-03     127.633E-03    -294.758E-03     585.417E-03    -290.563E-03     104.981E-03
             875     9.42402E-03     150.871E-03    -39.3132E+06     53.6270E+06     69.8386E+06     5.08236E+06    -291.667E-03     582.464E-03    -290.797E-03     130.321E-03    -294.680E-03     585.325E-03    -290.468E-03     106.396E-03
             876     10.0985E-03     151.066E-03    -32.2806E+06     56.2260E+06     81.2604E+06     3.94722E+06    -291.048E-03     581.786E-03    -290.738E-03     130.723E-03    -294.226E-03     584.814E-03    -290.367E-03     105.581E-03
             877     10.7720E-03     151.261E-03    -24.9757E+06     61.7614E+06     92.5046E+06     3.13282E+06    -290.145E-03     580.807E-03    -290.662E-03     128.547E-03    -293.449E-03     583.974E-03    -290.253E-03     102.264E-03
             878     11.4481E-03     151.442E-03    -17.0470E+06     71.9589E+06     99.3514E+06     2.80220E+06    -289.430E-03     579.985E-03    -290.555E-03     120.817E-03    -292.638E-03     583.100E-03    -290.138E-03     94.3008E-03
             879     12.1214E-03     151.607E-03    -10.2445E+06     81.1996E+06     102.920E+06     2.06075E+06    -288.769E-03     579.218E-03    -290.449E-03     115.259E-03    -292.115E-03     582.517E-03    -290.037E-03     87.2028E-03
             880     12.7971E-03     151.768E-03    -5.02105E+06     84.8429E+06     102.519E+06     1.76075E+06    -288.100E-03     578.450E-03    -290.350E-03     86.1203E-03    -290.626E-03     580.962E-03    -289.953E-03     61.5994E-03
             881     672.025E-06     150.828E-03    -142.456E+06    -278.103E+06    -139.913E+06     937.868E+03    -291.384E-03     582.444E-03    -291.060E-03     16.1799E-03    -291.533E-03     581.506E-03    -291.150E-03     13.4920E-03
             882     1.34513E-03     150.862E-03    -139.124E+06    -262.242E+06    -129.774E+06     1.53679E+06    -291.117E-03     582.294E-03    -291.177E-03     29.5942E-03    -291.376E-03     581.504E-03    -291.244E-03     24.7070E-03
             883     2.01823E-03     150.918E-03    -133.472E+06    -245.041E+06    -113.350E+06     2.00133E+06    -291.350E-03     582.518E-03    -291.168E-03     43.1733E-03    -291.766E-03     581.919E-03    -291.186E-03     36.0717E-03
             884     2.69099E-03     150.993E-03    -125.896E+06    -223.767E+06    -93.5165E+06     2.35864E+06    -291.618E-03     582.829E-03    -291.211E-03     55.9871E-03    -292.233E-03     582.474E-03    -291.171E-03     46.7946E-03
             885     3.36341E-03     151.090E-03    -117.242E+06    -200.676E+06    -72.5942E+06     2.66345E+06    -291.812E-03     583.068E-03    -291.256E-03     68.0902E-03    -292.655E-03     582.993E-03    -291.158E-03     56.9074E-03
             886     4.03585E-03     151.205E-03    -108.459E+06    -176.623E+06    -52.0976E+06     3.46931E+06    -292.008E-03     583.292E-03    -291.284E-03     79.4154E-03    -293.100E-03     583.523E-03    -291.131E-03     66.3945E-03
             887     4.70903E-03     151.336E-03    -99.5547E+06    -150.508E+06    -32.5749E+06     4.30750E+06    -292.223E-03     583.518E-03    -291.294E-03     89.4398E-03    -293.570E-03     584.071E-03    -291.095E-03     74.7492E-03
             888     5.38216E-03     151.482E-03    -90.5846E+06    -122.846E+06    -14.3177E+06     5.01720E+06    -292.491E-03     583.787E-03    -291.296E-03     98.1265E-03    -294.086E-03     584.666E-03    -291.058E-03     81.9324E-03
             889     6.05478E-03     151.642E-03    -81.6733E+06    -93.3304E+06     2.88926E+06     5.54880E+06    -292.673E-03     583.964E-03    -291.291E-03     105.791E-03    -294.513E-03     585.174E-03    -291.023E-03     88.2041E-03
             890     6.72742E-03     151.811E-03    -73.1513E+06    -60.3955E+06     19.0408E+06     5.55918E+06    -292.543E-03     583.803E-03    -291.260E-03     112.641E-03    -294.626E-03     585.357E-03    -290.971E-03     93.7735E-03
             891     7.40126E-03     151.991E-03    -64.5382E+06    -20.6629E+06     34.8323E+06     5.08445E+06    -292.275E-03     583.464E-03    -291.189E-03     118.355E-03    -294.601E-03     585.386E-03    -290.891E-03     98.2896E-03
             892     8.07531E-03     152.176E-03    -56.3330E+06     12.0015E+06     47.8335E+06     3.63604E+06    -292.124E-03     583.222E-03    -291.098E-03     123.041E-03    -294.684E-03     585.485E-03    -290.795E-03     101.716E-03
             893     8.74895E-03     152.368E-03    -48.3784E+06     31.5171E+06     58.4582E+06     3.38609E+06    -291.954E-03     582.966E-03    -291.012E-03     126.805E-03    -294.734E-03     585.517E-03    -290.696E-03     104.185E-03
             894     9.42256E-03     152.562E-03    -40.5634E+06     50.3391E+06     70.0234E+06     4.51419E+06    -291.555E-03     582.484E-03    -290.929E-03     129.323E-03    -294.551E-03     585.312E-03    -290.593E-03     105.430E-03
             895     10.0960E-03     152.760E-03    -32.1357E+06      61.574E+06     83.3272E+06     4.01595E+06    -290.859E-03     581.713E-03    -290.853E-03     129.730E-03    -294.033E-03     584.749E-03    -290.479E-03     104.602E-03
             896     10.7717E-03     152.950E-03    -24.1803E+06     61.4985E+06     93.0374E+06     2.70516E+06    -290.257E-03     581.030E-03    -290.773E-03     127.415E-03    -293.545E-03     584.180E-03    -290.362E-03     101.083E-03
             897     11.4451E-03     153.135E-03    -18.1169E+06     71.1174E+06     98.4508E+06     3.34842E+06    -289.579E-03     580.248E-03    -290.669E-03     119.772E-03    -292.779E-03     583.351E-03    -290.254E-03     93.2082E-03
             898     12.1198E-03     153.299E-03    -12.1323E+06     84.0194E+06     102.699E+06     3.31777E+06    -288.402E-03     578.956E-03    -290.555E-03     114.679E-03    -291.752E-03     582.264E-03    -290.145E-03     86.6702E-03
             899     12.7939E-03     153.456E-03    -6.09395E+06      87.128E+06     102.341E+06     1.32216E+06    -287.069E-03     577.484E-03    -290.415E-03     86.0422E-03    -289.605E-03     580.011E-03    -290.021E-03     61.5402E-03
             900     672.924E-06     152.523E-03    -141.448E+06    -282.471E+06    -138.948E+06     668.389E+03    -291.050E-03     582.484E-03    -291.434E-03     16.2481E-03    -291.190E-03     581.522E-03    -291.514E-03     13.5123E-03
             901     1.34527E-03     152.558E-03    -137.401E+06    -265.727E+06    -128.702E+06     1.69475E+06    -291.496E-03     582.763E-03    -291.267E-03     29.3283E-03    -291.740E-03     581.949E-03    -291.326E-03     24.4708E-03
             902     2.01766E-03     152.613E-03    -132.084E+06    -246.939E+06    -113.074E+06     1.81570E+06    -291.768E-03     583.132E-03    -291.364E-03     42.6098E-03    -292.172E-03     582.518E-03    -291.379E-03     35.5232E-03
             903     2.68968E-03     152.691E-03    -124.815E+06    -226.784E+06    -93.4474E+06     2.23876E+06    -291.947E-03     583.404E-03    -291.457E-03     55.5923E-03    -292.552E-03     583.032E-03    -291.415E-03     46.3529E-03
             904     3.36215E-03     152.786E-03    -116.739E+06    -203.748E+06    -72.5331E+06     3.20808E+06    -292.056E-03     583.571E-03    -291.515E-03     67.8850E-03    -292.894E-03     583.482E-03    -291.413E-03     56.6651E-03
             905     4.03545E-03     152.901E-03    -107.840E+06    -180.545E+06    -51.7941E+06     4.12619E+06    -292.249E-03     583.795E-03    -291.546E-03     78.8911E-03    -293.330E-03     584.002E-03    -291.387E-03     65.8553E-03
             906     4.70790E-03     153.032E-03    -98.4168E+06    -154.590E+06    -32.0755E+06     5.32770E+06    -292.504E-03     584.065E-03    -291.562E-03     88.6844E-03    -293.833E-03     584.589E-03    -291.355E-03     73.9945E-03
             907     5.38012E-03     153.179E-03    -89.0710E+06    -125.828E+06    -13.5915E+06     6.24432E+06    -292.672E-03     584.235E-03    -291.562E-03     97.6827E-03    -294.252E-03     585.091E-03    -291.319E-03     81.4974E-03
             908     6.05309E-03     153.337E-03    -79.7183E+06    -96.5221E+06     3.70470E+06     6.77429E+06    -292.654E-03     584.194E-03    -291.540E-03     105.440E-03    -294.474E-03     585.378E-03    -291.265E-03     87.8902E-03
             909     6.72677E-03     153.507E-03    -70.2126E+06    -62.2671E+06     20.6634E+06     7.41777E+06    -292.576E-03     584.064E-03    -291.488E-03     111.808E-03    -294.632E-03     585.589E-03    -291.192E-03     92.9963E-03
             910     7.39998E-03     153.685E-03    -61.6699E+06    -19.9475E+06     37.6926E+06     7.49640E+06    -292.481E-03     583.897E-03    -291.416E-03     117.019E-03    -294.781E-03     585.798E-03    -291.109E-03     96.9785E-03
             911     8.07296E-03     153.871E-03    -53.7578E+06     15.5212E+06     51.4849E+06     6.96758E+06    -292.222E-03     583.552E-03    -291.330E-03     121.346E-03    -294.757E-03     585.802E-03    -291.017E-03     100.069E-03
             912     8.74688E-03     154.061E-03    -46.5374E+06     29.9283E+06     60.8686E+06     5.84502E+06    -291.814E-03     583.052E-03    -291.239E-03     125.164E-03    -294.559E-03     585.562E-03    -290.910E-03     102.617E-03
             913     9.42082E-03     154.257E-03    -39.2599E+06     49.2708E+06     72.6704E+06     5.39596E+06    -291.223E-03     582.356E-03    -291.133E-03     127.919E-03    -294.190E-03     585.148E-03    -290.784E-03     104.101E-03
             914     10.0962E-03     154.451E-03    -32.2920E+06     66.4928E+06     85.4730E+06     4.47698E+06    -290.715E-03     581.741E-03    -291.027E-03     128.507E-03    -293.877E-03     584.777E-03    -290.649E-03     103.420E-03
             915     10.7692E-03     154.644E-03    -26.4089E+06     60.3431E+06     92.0396E+06     4.07809E+06    -290.125E-03     581.053E-03    -290.928E-03     126.873E-03    -293.406E-03     584.188E-03    -290.517E-03     100.610E-03
             916     11.4437E-03     154.827E-03    -19.8908E+06     69.1599E+06     97.6295E+06     4.46531E+06    -288.940E-03     579.734E-03    -290.795E-03     120.180E-03    -292.149E-03     582.836E-03    -290.378E-03     93.6918E-03
             917     12.1191E-03     154.988E-03    -12.7144E+06     88.2308E+06     103.706E+06     2.95680E+06    -287.604E-03     578.234E-03    -290.630E-03     115.418E-03    -290.974E-03     581.571E-03    -290.220E-03     87.4767E-03
             918     12.7949E-03     155.148E-03    -5.15137E+06     91.3854E+06     104.210E+06     553.649E+03    -286.251E-03     576.695E-03    -290.444E-03     86.7334E-03    -288.804E-03     579.252E-03    -290.048E-03     62.2050E-03
             919     672.460E-06     154.219E-03    -140.740E+06    -285.547E+06    -138.261E+06     574.400E+03    -291.399E-03     583.135E-03    -291.736E-03     15.8025E-03    -291.531E-03     582.154E-03    -291.809E-03     13.1251E-03
             920     1.34474E-03     154.255E-03    -137.241E+06    -268.986E+06    -129.099E+06     775.895E+03    -291.909E-03     583.518E-03    -291.609E-03     29.1118E-03    -292.147E-03     582.687E-03    -291.665E-03     24.2297E-03
             921     2.01658E-03     154.311E-03    -131.702E+06    -250.259E+06    -113.512E+06     1.76474E+06    -292.066E-03     583.779E-03    -291.713E-03     42.6011E-03    -292.463E-03     583.149E-03    -291.727E-03     35.4909E-03
             922     2.68929E-03     154.387E-03    -125.396E+06    -230.363E+06    -93.8862E+06     2.67976E+06    -292.194E-03     583.984E-03    -291.790E-03     55.4208E-03    -292.797E-03     583.596E-03    -291.743E-03     46.1582E-03
             923     3.36191E-03     154.484E-03    -117.027E+06    -206.978E+06    -72.7026E+06     3.27943E+06    -292.496E-03     584.348E-03    -291.852E-03     67.2860E-03    -293.327E-03     584.239E-03    -291.746E-03     56.0398E-03
             924     4.03334E-03     154.599E-03    -107.561E+06    -185.166E+06    -51.7931E+06     4.14805E+06    -292.655E-03     584.560E-03    -291.906E-03     78.1713E-03    -293.723E-03     584.740E-03    -291.740E-03     65.1013E-03
             925     4.70586E-03     154.729E-03    -98.0197E+06    -159.468E+06    -32.2242E+06     5.20298E+06    -292.709E-03     584.629E-03    -291.919E-03     88.1674E-03    -294.025E-03     585.123E-03    -291.707E-03     73.4517E-03
             926     5.37905E-03     154.876E-03    -88.3433E+06    -129.578E+06    -13.7335E+06     6.12185E+06    -292.803E-03     584.703E-03    -291.900E-03     96.8158E-03    -294.364E-03     585.530E-03    -291.653E-03     80.6222E-03
             927     6.05190E-03     155.033E-03    -78.9460E+06    -100.163E+06     3.77536E+06     6.84805E+06    -292.914E-03     584.784E-03    -291.871E-03     103.957E-03    -294.708E-03     585.932E-03    -291.592E-03     86.4015E-03
             928     6.72434E-03     155.203E-03    -69.9363E+06    -66.1175E+06     20.5163E+06     7.46880E+06    -292.916E-03     584.745E-03    -291.828E-03     109.996E-03    -294.945E-03     586.231E-03    -291.528E-03     91.1554E-03
             929     7.39707E-03     155.381E-03    -60.8889E+06    -23.9700E+06     37.5024E+06     9.04634E+06    -292.606E-03     584.365E-03    -291.759E-03     115.344E-03    -294.875E-03     586.224E-03    -291.448E-03     95.3221E-03
             930     8.07066E-03     155.565E-03    -52.9234E+06     14.4716E+06     51.4412E+06     10.3069E+06    -292.181E-03     583.835E-03    -291.654E-03     120.064E-03    -294.687E-03     586.055E-03    -291.341E-03     98.8803E-03
             931     8.74393E-03     155.755E-03    -45.9883E+06     33.4623E+06     61.1399E+06     9.90172E+06    -291.719E-03     583.254E-03    -291.535E-03     123.783E-03    -294.443E-03     585.756E-03    -291.211E-03     101.339E-03
             932     9.41846E-03     155.948E-03    -39.5830E+06     50.8439E+06     71.8313E+06     8.10568E+06    -291.104E-03     582.512E-03    -291.408E-03     126.128E-03    -294.044E-03     585.283E-03    -291.065E-03     102.379E-03
             933     10.0919E-03     156.144E-03    -32.8287E+06     69.0829E+06     86.3888E+06     6.98779E+06    -290.177E-03     581.455E-03    -291.278E-03     126.912E-03    -293.314E-03     584.471E-03    -290.899E-03     101.957E-03
             934     10.7674E-03     156.335E-03    -24.8895E+06     62.0164E+06     94.3421E+06     5.73400E+06    -289.020E-03     580.145E-03    -291.125E-03     125.624E-03    -292.270E-03     583.253E-03    -290.707E-03     99.5405E-03
             935     11.4435E-03     156.516E-03    -17.2514E+06     69.5603E+06     99.4943E+06     3.92294E+06    -287.775E-03     578.691E-03    -290.916E-03     119.012E-03    -290.950E-03     581.763E-03    -290.495E-03     92.6502E-03
             936     12.1186E-03     156.680E-03    -10.3163E+06     93.3144E+06     107.442E+06     2.53693E+06    -286.408E-03     577.093E-03    -290.685E-03     114.514E-03    -289.762E-03     580.430E-03    -290.268E-03     86.6870E-03
             937     12.7946E-03     156.833E-03    -4.27071E+06     94.7734E+06     106.528E+06     1.26347E+06    -285.498E-03     575.942E-03    -290.445E-03     86.0125E-03    -288.041E-03     578.498E-03    -290.043E-03     61.6116E-03
             938     671.710E-06     155.917E-03    -142.689E+06    -288.675E+06    -140.601E+06     1.28347E+06    -292.568E-03     584.555E-03    -291.987E-03     15.8969E-03    -292.701E-03     583.565E-03    -292.064E-03     13.2207E-03
             939     1.34386E-03     155.953E-03    -140.297E+06    -271.036E+06    -130.893E+06     1.17231E+06    -292.169E-03     584.402E-03    -292.233E-03     28.7556E-03    -292.416E-03     583.568E-03    -292.291E-03     23.8764E-03
             940     2.01632E-03     156.009E-03    -134.774E+06    -254.478E+06    -114.437E+06     1.52181E+06    -292.331E-03     584.554E-03    -292.223E-03     41.9174E-03    -292.733E-03     583.906E-03    -292.231E-03     34.7896E-03
             941     2.68800E-03     156.085E-03    -126.589E+06    -233.276E+06    -94.4266E+06     2.15414E+06    -292.707E-03     584.978E-03    -292.271E-03     54.6309E-03    -293.305E-03     584.573E-03    -292.222E-03     45.3498E-03
             942     3.35930E-03     156.183E-03    -117.972E+06    -210.331E+06    -73.4876E+06     2.94040E+06    -292.881E-03     585.216E-03    -292.335E-03     66.5490E-03    -293.706E-03     585.089E-03    -292.227E-03     55.2651E-03
             943     4.03207E-03     156.296E-03    -108.969E+06    -189.357E+06    -52.9357E+06     3.71510E+06    -293.033E-03     585.411E-03    -292.379E-03     77.3768E-03    -294.095E-03     585.569E-03    -292.211E-03     64.2578E-03
             944     4.70435E-03     156.428E-03    -99.3425E+06    -163.596E+06    -33.5230E+06     4.39277E+06    -293.258E-03     585.657E-03    -292.399E-03     86.8893E-03    -294.564E-03     586.127E-03    -292.186E-03     72.0991E-03
             945     5.37610E-03     156.573E-03    -89.9061E+06    -133.592E+06    -15.4423E+06     5.13096E+06    -293.341E-03     585.742E-03    -292.401E-03     94.9559E-03    -294.887E-03     586.539E-03    -292.154E-03     78.6757E-03
             946     6.04827E-03     156.731E-03    -80.5800E+06    -104.883E+06     1.66420E+06     6.20075E+06    -293.272E-03     585.653E-03    -292.381E-03     102.104E-03    -295.048E-03     586.765E-03    -292.104E-03     84.4898E-03
             947     6.72076E-03     156.900E-03    -71.5796E+06    -71.4762E+06     18.0527E+06     7.79062E+06    -292.994E-03     585.317E-03    -292.322E-03     108.374E-03    -294.999E-03     586.761E-03    -292.025E-03     89.5454E-03
             948     7.39388E-03     157.076E-03    -63.4834E+06    -31.6092E+06     33.8343E+06     9.56974E+06    -292.557E-03     584.777E-03    -292.219E-03     113.652E-03    -294.798E-03     586.581E-03    -291.912E-03     93.6703E-03
             949     8.06717E-03     157.260E-03    -55.3932E+06     9.88296E+06     48.1543E+06     11.6389E+06    -292.042E-03     584.119E-03    -292.077E-03     118.052E-03    -294.518E-03     586.294E-03    -291.771E-03     96.9349E-03
             950     8.74135E-03     157.450E-03    -47.3421E+06     34.8384E+06     59.2085E+06     11.7786E+06    -291.533E-03     583.456E-03    -291.922E-03     121.725E-03    -294.227E-03     585.933E-03    -291.608E-03     99.3777E-03
             951     9.41440E-03     157.642E-03    -39.9515E+06     52.8272E+06     70.8035E+06     10.9527E+06    -290.620E-03     582.375E-03    -291.755E-03     124.686E-03    -293.536E-03     585.132E-03    -291.420E-03     101.050E-03
             952     10.0895E-03     157.836E-03    -32.4503E+06     72.8885E+06     86.7347E+06     9.11263E+06    -289.190E-03     580.753E-03    -291.563E-03     126.047E-03    -292.315E-03     583.770E-03    -291.188E-03     101.214E-03
             953     10.7651E-03     158.023E-03    -25.6166E+06     66.3208E+06     95.5596E+06     6.32516E+06    -288.036E-03     579.375E-03    -291.339E-03     125.035E-03    -291.288E-03     582.495E-03    -290.920E-03     99.0207E-03
             954     11.4400E-03     158.206E-03    -19.0488E+06     73.2367E+06     102.178E+06     4.32758E+06    -286.770E-03     577.842E-03    -291.072E-03     118.072E-03    -289.947E-03     580.915E-03    -290.640E-03     91.8004E-03
             955     12.1180E-03     158.363E-03    -12.1735E+06     96.2291E+06     110.114E+06     2.68992E+06    -285.322E-03     576.104E-03    -290.781E-03     113.226E-03    -288.678E-03     579.438E-03    -290.353E-03     85.4566E-03
             956     12.7951E-03     158.523E-03    -6.10351E+06     97.6634E+06     108.676E+06     1.58006E+06    -284.653E-03     575.141E-03    -290.487E-03     85.2820E-03    -287.202E-03     577.700E-03    -290.077E-03     60.9845E-03
             957     671.444E-06     157.618E-03    -143.053E+06    -291.390E+06    -143.893E+06     203.730E+03    -293.373E-03     586.108E-03    -292.735E-03     15.3331E-03    -293.499E-03     585.110E-03    -292.825E-03     12.5873E-03
             958     1.34263E-03     157.653E-03    -141.073E+06    -273.060E+06    -132.989E+06     699.504E+03    -292.920E-03     585.925E-03    -293.005E-03     28.2865E-03    -293.164E-03     585.084E-03    -293.070E-03     23.3308E-03
             959     2.01419E-03     157.709E-03    -135.811E+06    -256.776E+06    -115.936E+06     1.11038E+06    -293.010E-03     585.994E-03    -292.984E-03     41.3909E-03    -293.411E-03     585.337E-03    -292.994E-03     34.2033E-03
             960     2.68585E-03     157.787E-03    -128.480E+06    -236.783E+06    -96.2688E+06     1.81522E+06    -293.187E-03     586.183E-03    -292.996E-03     53.8779E-03    -293.784E-03     585.762E-03    -292.948E-03     44.5507E-03
             961     3.35810E-03     157.882E-03    -120.070E+06    -213.739E+06    -75.5279E+06     2.53171E+06    -293.413E-03     586.437E-03    -293.023E-03     65.3475E-03    -294.234E-03     586.292E-03    -292.917E-03     54.0070E-03
             962     4.02934E-03     157.997E-03    -110.902E+06    -192.420E+06    -55.2410E+06     3.11543E+06    -293.736E-03     586.801E-03    -293.066E-03     75.7293E-03    -294.789E-03     586.938E-03    -292.902E-03     62.5378E-03
             963     4.70047E-03     158.128E-03    -101.727E+06    -167.136E+06    -36.3011E+06     3.72907E+06    -293.884E-03     586.982E-03    -293.098E-03     85.1285E-03    -295.179E-03     587.427E-03    -292.889E-03     70.2680E-03
             964     5.37226E-03     158.273E-03    -92.5627E+06    -137.930E+06    -18.5108E+06     4.72569E+06    -293.827E-03     586.922E-03    -293.095E-03     93.5465E-03    -295.362E-03     587.693E-03    -292.854E-03     77.2155E-03
             965     6.04414E-03     158.430E-03    -83.7517E+06    -110.208E+06    -2.12053E+06     5.97818E+06    -293.531E-03     586.581E-03    -293.050E-03     100.619E-03    -295.292E-03     587.659E-03    -292.779E-03     82.9809E-03
             966     6.71683E-03     158.598E-03    -75.1713E+06    -78.2473E+06     13.4182E+06     7.47512E+06    -293.070E-03     586.023E-03    -292.952E-03     106.494E-03    -295.052E-03     587.420E-03    -292.663E-03     87.6699E-03
             967     7.38950E-03     158.774E-03    -66.3697E+06    -40.7678E+06     29.0324E+06     10.1991E+06    -292.627E-03     585.440E-03    -292.813E-03     111.507E-03    -294.829E-03     587.177E-03    -292.513E-03     91.5755E-03
             968     8.06250E-03     158.956E-03    -58.2589E+06     4.20229E+06     44.3335E+06     12.0436E+06    -291.932E-03     584.566E-03    -292.633E-03     115.895E-03    -294.373E-03     586.686E-03    -292.333E-03     94.8422E-03
             969     8.73565E-03     159.144E-03    -50.8139E+06     34.2050E+06     56.3204E+06     12.3978E+06    -290.805E-03     583.219E-03    -292.414E-03     119.902E-03    -293.477E-03     585.668E-03    -292.108E-03     97.6654E-03
             970     9.41101E-03     159.335E-03    -42.8751E+06     55.3937E+06     68.0076E+06     11.2892E+06    -289.407E-03     581.555E-03    -292.148E-03     122.819E-03    -292.301E-03     584.296E-03    -291.826E-03     99.3379E-03
             971     10.0867E-03     159.524E-03    -35.3578E+06     76.1440E+06     84.4041E+06     9.29023E+06    -288.150E-03     580.015E-03    -291.864E-03     124.220E-03    -291.255E-03     583.019E-03    -291.501E-03     99.5209E-03
             972     10.7626E-03     159.714E-03    -27.5860E+06     72.1254E+06     96.6179E+06     6.86404E+06    -287.037E-03     578.614E-03    -291.577E-03     123.500E-03    -290.271E-03     581.726E-03    -291.159E-03     97.6618E-03
             973     11.4404E-03     159.892E-03    -19.3827E+06     78.1519E+06     104.690E+06     4.29869E+06    -285.730E-03     576.979E-03    -291.249E-03     116.775E-03    -288.894E-03     580.048E-03    -290.811E-03     90.6170E-03
             974     12.1158E-03     160.052E-03    -12.1457E+06     97.6004E+06     112.261E+06     3.04281E+06    -284.330E-03     575.228E-03    -290.898E-03     112.500E-03    -287.672E-03     578.548E-03    -290.461E-03     84.8528E-03
             975     12.7929E-03     160.204E-03    -5.97157E+06     101.416E+06     111.313E+06     1.83253E+06    -282.964E-03     573.491E-03    -290.527E-03     85.8466E-03    -285.515E-03     576.059E-03    -290.109E-03     61.7296E-03
             976     670.578E-06     159.322E-03    -146.663E+06    -291.648E+06    -142.932E+06    -90.7634E+03    -293.703E-03     587.796E-03    -294.092E-03     15.2391E-03    -293.849E-03     586.800E-03    -294.171E-03     12.4507E-03
             977     1.34181E-03     159.356E-03    -142.511E+06    -274.834E+06    -134.674E+06    -9.94754E+03    -293.983E-03     587.879E-03    -293.896E-03     27.9856E-03    -294.230E-03     587.035E-03    -293.964E-03     22.9432E-03
             978     2.01246E-03     159.412E-03    -137.398E+06    -259.481E+06    -118.333E+06     961.763E+03    -294.033E-03     587.966E-03    -293.933E-03     40.8981E-03    -294.434E-03     587.301E-03    -293.949E-03     33.6351E-03
             979     2.68354E-03     159.489E-03    -130.371E+06    -239.535E+06    -98.7703E+06     1.57417E+06    -294.128E-03     588.089E-03    -293.962E-03     52.8528E-03    -294.721E-03     587.656E-03    -293.919E-03     43.4580E-03
             980     3.35410E-03     159.585E-03    -121.968E+06    -217.026E+06    -78.4695E+06     2.19077E+06    -294.373E-03     588.368E-03    -293.995E-03     63.9564E-03    -295.186E-03     588.205E-03    -293.896E-03     52.5463E-03
             981     4.02494E-03     159.700E-03    -113.160E+06    -195.367E+06    -58.5654E+06     2.90222E+06    -294.490E-03     588.520E-03    -294.030E-03     74.2994E-03    -295.536E-03     588.641E-03    -293.875E-03     61.0337E-03
             982     4.69639E-03     159.830E-03    -104.038E+06    -170.303E+06    -39.6232E+06     3.47078E+06    -294.413E-03     588.442E-03    -294.030E-03     83.4771E-03    -295.695E-03     588.865E-03    -293.830E-03     68.5712E-03
             983     5.36776E-03     159.975E-03    -94.9762E+06    -142.859E+06    -22.1122E+06     4.47126E+06    -294.169E-03     588.150E-03    -293.981E-03     91.3932E-03    -295.680E-03     588.881E-03    -293.747E-03     75.0519E-03
             984     6.03952E-03     160.131E-03    -85.7441E+06    -115.370E+06    -5.51727E+06     5.74453E+06    -293.814E-03     587.704E-03    -293.890E-03     98.1482E-03    -295.542E-03     588.734E-03    -293.626E-03     80.5131E-03
             985     6.71114E-03     160.297E-03    -76.7789E+06    -84.5896E+06     10.0429E+06     7.26654E+06    -293.316E-03     587.069E-03    -293.753E-03     104.003E-03    -295.257E-03     588.408E-03    -293.469E-03     85.2020E-03
             986     7.38374E-03     160.472E-03    -68.0946E+06    -49.9596E+06     24.9910E+06     8.89156E+06    -292.496E-03     586.059E-03    -293.563E-03     109.145E-03    -294.648E-03     587.719E-03    -293.267E-03     89.2841E-03
             987     8.05697E-03     160.653E-03    -58.5462E+06    -4.27365E+06     41.7799E+06     11.6202E+06    -291.239E-03     584.543E-03    -293.303E-03     113.756E-03    -293.628E-03     586.587E-03    -293.003E-03     92.8099E-03
             988     8.73159E-03     160.838E-03    -49.3487E+06     32.6348E+06     55.4327E+06     13.3899E+06    -289.758E-03     582.730E-03    -292.972E-03     117.841E-03    -292.377E-03     585.129E-03    -292.670E-03     95.7844E-03
             989     9.40660E-03     161.025E-03    -41.4940E+06     57.6450E+06     68.2539E+06     12.3055E+06    -288.399E-03     581.000E-03    -292.601E-03     120.870E-03    -291.239E-03     583.700E-03    -292.283E-03     97.6288E-03
             990     10.0824E-03     161.214E-03    -33.4567E+06     79.0200E+06     86.6073E+06     10.3500E+06    -287.085E-03     579.318E-03    -292.233E-03     122.494E-03    -290.138E-03     582.281E-03    -291.866E-03     98.0538E-03
             991     10.7595E-03     161.399E-03    -25.6349E+06     78.2812E+06     99.5225E+06     7.45442E+06    -285.577E-03     577.424E-03    -291.847E-03     122.168E-03    -288.767E-03     580.513E-03    -291.426E-03     96.6333E-03
             992     11.4356E-03     161.579E-03    -18.7478E+06     83.1858E+06     107.398E+06     5.52488E+06    -283.863E-03     575.271E-03    -291.409E-03     116.682E-03    -287.006E-03     578.332E-03    -290.965E-03     90.8726E-03
             993     12.1153E-03     161.734E-03    -12.4872E+06     100.087E+06     114.399E+06     3.95844E+06    -282.445E-03     573.388E-03    -290.943E-03     113.859E-03    -285.793E-03     576.715E-03    -290.498E-03     86.5526E-03
             994     12.7944E-03     161.889E-03    -6.32319E+06     105.298E+06     113.825E+06     1.84816E+06    -281.450E-03     571.924E-03    -290.474E-03     87.1294E-03    -284.025E-03     574.520E-03    -290.048E-03     63.1403E-03
             995     670.459E-06     161.028E-03    -147.759E+06    -291.323E+06    -146.226E+06     104.339E+03    -294.828E-03     589.934E-03    -295.106E-03     15.2442E-03    -294.975E-03     588.946E-03    -295.201E-03     12.4571E-03
             996     1.33995E-03     161.063E-03    -144.895E+06    -276.634E+06    -135.391E+06     644.135E+03    -295.272E-03     590.295E-03    -295.023E-03     27.4149E-03    -295.524E-03     589.443E-03    -295.089E-03     22.4001E-03
             997     2.01016E-03     161.119E-03    -139.426E+06    -261.352E+06    -119.641E+06     620.991E+03    -295.440E-03     590.583E-03    -295.142E-03     39.7477E-03    -295.841E-03     589.907E-03    -295.159E-03     32.4592E-03
             998     2.67999E-03     161.196E-03    -131.946E+06    -241.858E+06    -101.269E+06     1.05404E+06    -295.472E-03     590.693E-03    -295.221E-03     51.5514E-03    -296.061E-03     590.249E-03    -295.186E-03     42.0739E-03
             999     3.35011E-03     161.292E-03    -123.852E+06    -220.238E+06    -81.4301E+06     1.82658E+06    -295.383E-03     590.635E-03    -295.252E-03     62.6533E-03    -296.189E-03     590.456E-03    -295.161E-03     51.1552E-03
            1000     4.02059E-03     161.406E-03    -115.024E+06    -197.904E+06    -61.5510E+06     2.31718E+06    -295.291E-03     590.531E-03    -295.241E-03     72.6240E-03    -296.325E-03     590.633E-03    -295.095E-03     59.2943E-03
            1001     4.69071E-03     161.536E-03    -105.685E+06    -173.258E+06    -42.6335E+06     2.72046E+06    -295.119E-03     590.309E-03    -295.190E-03     81.4082E-03    -296.381E-03     590.704E-03    -294.999E-03     66.4548E-03
            1002     5.36130E-03     161.679E-03    -96.1328E+06    -147.296E+06    -24.8647E+06     3.39957E+06    -294.682E-03     589.774E-03    -295.092E-03     89.0721E-03    -296.164E-03     590.464E-03    -294.864E-03     72.6893E-03
            1003     6.03255E-03     161.834E-03    -86.8131E+06    -120.934E+06    -8.34453E+06     4.63978E+06    -294.061E-03     588.998E-03    -294.938E-03     95.8116E-03    -295.750E-03     589.974E-03    -294.678E-03     78.2022E-03
            1004     6.70469E-03     161.999E-03    -77.5479E+06    -91.0786E+06     7.60791E+06     6.12752E+06    -293.223E-03     587.943E-03    -294.721E-03     101.685E-03    -295.115E-03     589.215E-03    -294.438E-03     82.9660E-03
            1005     7.37701E-03     162.171E-03    -68.6260E+06    -56.3808E+06     23.4380E+06     7.82098E+06    -291.901E-03     586.330E-03    -294.429E-03     106.945E-03    -294.006E-03     587.923E-03    -294.130E-03     87.1879E-03
            1006     8.05077E-03     162.349E-03    -60.1847E+06    -14.6758E+06     38.5109E+06     9.57736E+06    -290.261E-03     584.303E-03    -294.042E-03     111.541E-03    -292.588E-03     586.252E-03    -293.740E-03     90.7932E-03
            1007     8.72574E-03     162.530E-03    -51.3454E+06     26.7755E+06     52.4145E+06     10.8843E+06    -288.650E-03     582.228E-03    -293.578E-03     115.515E-03    -291.206E-03     584.545E-03    -293.280E-03     93.7178E-03
            1008     9.40180E-03     162.717E-03    -42.2850E+06     58.8303E+06     66.0381E+06     11.1980E+06    -287.048E-03     580.123E-03    -293.075E-03     119.133E-03    -289.832E-03     582.775E-03    -292.769E-03     96.2127E-03
            1009     10.0789E-03     162.902E-03    -34.3983E+06     79.4658E+06     82.8419E+06     10.7150E+06    -285.274E-03     577.839E-03    -292.565E-03     121.656E-03    -288.273E-03     580.758E-03    -292.216E-03     97.6340E-03
            1010     10.7564E-03     163.086E-03    -27.9129E+06     84.3371E+06     98.9228E+06     9.99457E+06    -283.340E-03     575.378E-03    -292.037E-03     122.284E-03    -286.511E-03     578.462E-03    -291.625E-03     97.2336E-03
            1011     11.4375E-03     163.259E-03    -21.1120E+06     89.3438E+06     109.462E+06     6.73259E+06    -281.670E-03     573.134E-03    -291.464E-03     117.374E-03    -284.805E-03     576.194E-03    -291.015E-03     92.0460E-03
            1012     12.1169E-03     163.416E-03    -13.5910E+06     103.595E+06     117.023E+06     3.69557E+06    -280.740E-03     571.625E-03    -290.885E-03     114.259E-03    -284.078E-03     574.943E-03    -290.431E-03     87.2966E-03
            1013     12.7972E-03     163.567E-03    -6.47520E+06     110.505E+06     116.952E+06     2.13505E+06    -280.492E-03     570.837E-03    -290.345E-03     87.1243E-03    -283.063E-03     573.439E-03    -289.911E-03     63.3563E-03
            1014     668.912E-06     162.739E-03    -150.907E+06    -290.394E+06    -148.060E+06    -908.164E+03    -296.821E-03     593.283E-03    -296.462E-03     14.4010E-03    -296.981E-03     592.305E-03    -296.562E-03     11.6000E-03
            1015     1.33846E-03     162.774E-03    -146.456E+06    -278.701E+06    -138.018E+06    -174.758E+03    -296.809E-03     593.488E-03    -296.679E-03     26.3713E-03    -297.058E-03     592.628E-03    -296.753E-03     21.3186E-03
            1016     2.00683E-03     162.831E-03    -140.947E+06    -262.520E+06    -122.224E+06     480.502E+03    -296.873E-03     593.622E-03    -296.748E-03     38.5021E-03    -297.271E-03     592.942E-03    -296.775E-03     31.1493E-03
            1017     2.67560E-03     162.907E-03    -134.165E+06    -243.711E+06    -103.695E+06     672.287E+03    -296.709E-03     593.483E-03    -296.774E-03     50.3029E-03    -297.297E-03     593.030E-03    -296.744E-03     40.7456E-03
            1018     3.34491E-03     163.003E-03    -125.779E+06    -222.364E+06    -83.8203E+06     731.273E+03    -296.523E-03     593.266E-03    -296.743E-03     61.1764E-03    -297.321E-03     593.072E-03    -296.658E-03     49.6097E-03
            1019     4.01411E-03     163.116E-03    -116.655E+06    -199.624E+06    -64.0758E+06     920.312E+03    -296.264E-03     592.934E-03    -296.670E-03     70.9750E-03    -297.283E-03     593.016E-03    -296.532E-03     57.6149E-03
            1020     4.68416E-03     163.245E-03    -107.409E+06    -175.730E+06    -45.3492E+06     1.24675E+06    -295.794E-03     592.339E-03    -296.546E-03     79.6464E-03    -297.034E-03     592.706E-03    -296.362E-03     64.6895E-03
            1021     5.35465E-03     163.386E-03    -97.9985E+06    -151.115E+06    -27.5241E+06     1.83477E+06    -295.106E-03     591.467E-03    -296.361E-03     87.2073E-03    -296.558E-03     592.115E-03    -296.138E-03     70.8610E-03
            1022     6.02555E-03     163.539E-03    -88.6516E+06    -125.352E+06    -10.7699E+06     2.65710E+06    -294.074E-03     590.177E-03    -296.103E-03     93.9757E-03    -295.730E-03     591.104E-03    -295.847E-03     76.4430E-03
            1023     6.69708E-03     163.701E-03    -79.3823E+06    -97.1347E+06     4.98566E+06     3.81080E+06    -292.623E-03     588.374E-03    -295.751E-03     100.030E-03    -294.474E-03     589.584E-03    -295.470E-03     81.4676E-03
            1024     7.37039E-03     163.871E-03    -70.0211E+06    -65.1063E+06     20.2523E+06     6.05877E+06    -291.007E-03     586.310E-03    -295.303E-03     105.269E-03    -293.050E-03     587.815E-03    -295.006E-03     85.7873E-03
            1025     8.04494E-03     164.044E-03    -61.3599E+06    -23.2936E+06     35.9838E+06     8.90742E+06    -289.205E-03     583.973E-03    -294.768E-03     109.983E-03    -291.464E-03     585.827E-03    -294.465E-03     89.5962E-03
            1026     8.72024E-03     164.224E-03    -53.5447E+06     24.7262E+06     50.9540E+06     9.84402E+06    -287.134E-03     581.281E-03    -294.147E-03     114.604E-03    -289.636E-03     583.533E-03    -293.850E-03     93.2509E-03
            1027     9.39727E-03     164.404E-03    -46.1196E+06     55.6251E+06     62.7684E+06     9.46663E+06    -285.003E-03     578.470E-03    -293.467E-03     119.009E-03    -287.737E-03     581.055E-03    -293.167E-03     96.6216E-03
            1028     10.0757E-03     164.588E-03    -38.3440E+06     76.3047E+06     79.0261E+06     10.6828E+06    -282.928E-03     575.700E-03    -292.772E-03     121.920E-03    -285.878E-03     578.556E-03    -292.432E-03     98.5043E-03
            1029     10.7570E-03     164.764E-03    -29.4250E+06     90.1307E+06     98.4707E+06     10.1003E+06    -281.343E-03     573.430E-03    -292.087E-03     122.352E-03    -284.474E-03     576.492E-03    -291.683E-03     97.8279E-03
            1030     11.4366E-03     164.939E-03    -20.8364E+06     95.7289E+06     111.614E+06     6.89248E+06    -280.386E-03     571.804E-03    -291.418E-03     117.041E-03    -283.486E-03     574.847E-03    -290.969E-03     92.0752E-03
            1031     12.1180E-03     165.092E-03    -13.3655E+06     108.623E+06     119.805E+06     3.94554E+06    -279.704E-03     570.485E-03    -290.780E-03     114.198E-03    -283.020E-03     573.791E-03    -290.320E-03     87.5235E-03
            1032     12.7978E-03     165.247E-03    -6.26675E+06     115.136E+06     119.037E+06     1.58738E+06    -279.446E-03     569.632E-03    -290.186E-03     87.6580E-03    -282.011E-03     572.238E-03    -289.749E-03     64.1187E-03
            1033     667.390E-06     164.456E-03    -151.529E+06    -288.951E+06    -149.935E+06    -219.618E+03    -298.816E-03     597.538E-03    -298.722E-03     13.9312E-03    -298.977E-03     596.570E-03    -298.833E-03     11.1056E-03
            1034     1.33446E-03     164.493E-03    -149.269E+06    -279.244E+06    -140.302E+06    -281.405E+03    -298.417E-03     597.123E-03    -298.706E-03     26.0723E-03    -298.676E-03     596.267E-03    -298.786E-03     20.9794E-03
            1035     2.00269E-03     164.548E-03    -143.811E+06    -263.311E+06    -125.635E+06    -446.653E+03    -298.148E-03     596.725E-03    -298.577E-03     38.0575E-03    -298.551E-03     596.047E-03    -298.614E-03     30.6571E-03
            1036     2.67118E-03     164.624E-03    -136.533E+06    -244.145E+06    -106.700E+06    -510.082E+03    -298.047E-03     596.516E-03    -298.469E-03     49.5291E-03    -298.632E-03     596.059E-03    -298.451E-03     39.9709E-03
            1037     3.33927E-03     164.718E-03    -128.208E+06    -222.815E+06    -86.6213E+06    -605.132E+03    -297.775E-03     596.139E-03    -298.364E-03     60.1265E-03    -298.568E-03     595.936E-03    -298.288E-03     48.5707E-03
            1038     4.00819E-03     164.830E-03    -119.359E+06    -200.413E+06    -66.8403E+06    -708.710E+03    -297.177E-03     595.386E-03    -298.209E-03     69.6789E-03    -298.184E-03     595.452E-03    -298.080E-03     56.3487E-03
            1039     4.67724E-03     164.957E-03    -110.096E+06    -177.147E+06    -47.9300E+06    -571.995E+03    -296.285E-03     594.261E-03    -297.976E-03     78.1867E-03    -297.506E-03     594.600E-03    -297.799E-03     63.3197E-03
            1040     5.34705E-03     165.096E-03    -100.587E+06    -153.456E+06    -30.1056E+06    -344.597E+03    -295.105E-03     592.756E-03    -297.651E-03     85.8791E-03    -296.529E-03     593.366E-03    -297.433E-03     69.6972E-03
            1041     6.01798E-03     165.247E-03    -90.8913E+06    -128.625E+06    -13.3835E+06     81.5845E+03    -293.548E-03     590.772E-03    -297.224E-03     92.8132E-03    -295.165E-03     591.649E-03    -296.973E-03     75.5307E-03
            1042     6.69076E-03     165.404E-03    -81.5171E+06    -102.441E+06     1.99466E+06     1.30142E+06    -291.757E-03     588.447E-03    -296.690E-03     98.9577E-03    -293.553E-03     589.584E-03    -296.414E-03     80.7738E-03
            1043     7.36464E-03     165.570E-03    -72.3265E+06    -72.9301E+06     16.6786E+06     2.88325E+06    -289.757E-03     585.815E-03    -296.058E-03     104.441E-03    -291.735E-03     587.229E-03    -295.764E-03     85.4149E-03
            1044     8.03932E-03     165.741E-03    -62.3867E+06    -34.6702E+06     31.7492E+06     5.83223E+06    -287.459E-03     582.786E-03    -295.327E-03     109.692E-03    -289.635E-03     584.526E-03    -295.027E-03     89.8551E-03
            1045     8.71688E-03     165.913E-03    -53.0080E+06     19.4017E+06     49.0703E+06     9.69621E+06    -285.100E-03     579.606E-03    -294.506E-03     114.854E-03    -287.518E-03     581.762E-03    -294.211E-03     94.1880E-03
            1046     9.39592E-03     166.091E-03    -45.2362E+06     53.2745E+06     63.7907E+06     11.8579E+06    -282.984E-03     576.635E-03    -293.651E-03     119.143E-03    -285.638E-03     579.133E-03    -293.344E-03     97.4763E-03
            1047     10.0769E-03     166.267E-03    -38.2298E+06     75.3029E+06     79.8298E+06     11.1677E+06    -281.290E-03     574.100E-03    -292.810E-03     121.725E-03    -284.165E-03     576.875E-03    -292.464E-03     98.9299E-03
            1048     10.7571E-03     166.445E-03    -30.7119E+06     96.2738E+06     99.0117E+06     8.04453E+06    -280.210E-03     572.230E-03    -292.019E-03     122.393E-03    -283.298E-03     575.263E-03    -291.619E-03     98.3215E-03
            1049     11.4391E-03     166.615E-03    -21.9563E+06     100.360E+06     112.386E+06     4.95043E+06    -279.470E-03     570.760E-03    -291.290E-03     117.726E-03    -282.551E-03     573.794E-03    -290.842E-03     93.0759E-03
            1050     12.1196E-03     166.770E-03    -12.8932E+06     112.655E+06     122.048E+06     3.47695E+06    -279.049E-03     569.664E-03    -290.616E-03     115.365E-03    -282.372E-03     572.988E-03    -290.150E-03     88.8118E-03
            1051     12.8023E-03     166.921E-03    -5.75593E+06     119.718E+06     121.912E+06     2.40925E+06    -279.168E-03     569.173E-03    -290.004E-03     88.2701E-03    -281.749E-03     571.805E-03    -289.560E-03     64.7587E-03
            1052     666.070E-06     166.184E-03    -154.929E+06    -287.841E+06    -153.199E+06    -275.197E+03    -300.348E-03     600.966E-03    -300.619E-03     14.5677E-03    -300.522E-03     600.014E-03    -300.742E-03     11.7895E-03
            1053     1.33274E-03     166.216E-03    -152.205E+06    -277.902E+06    -143.476E+06    -723.942E+03    -300.177E-03     600.601E-03    -300.424E-03     26.2591E-03    -300.447E-03     599.760E-03    -300.518E-03     21.1430E-03
            1054     1.99970E-03     166.271E-03    -146.985E+06    -261.868E+06    -128.441E+06    -1.29614E+06    -299.891E-03     600.198E-03    -300.307E-03     37.7976E-03    -300.302E-03     599.529E-03    -300.356E-03     30.4370E-03
            1055     2.66627E-03     166.346E-03    -139.859E+06    -243.036E+06    -109.906E+06    -1.77541E+06    -299.433E-03     599.596E-03    -300.163E-03     48.7213E-03    -300.019E-03     599.141E-03    -300.158E-03     39.2334E-03
            1056     3.33385E-03     166.439E-03    -131.599E+06    -222.057E+06    -89.7735E+06    -2.07940E+06    -298.711E-03     598.667E-03    -299.957E-03     59.2729E-03    -299.496E-03     598.458E-03    -299.893E-03     47.8516E-03
            1057     4.00145E-03     166.549E-03    -122.385E+06    -199.892E+06    -69.4111E+06    -2.39330E+06    -297.694E-03     597.355E-03    -299.661E-03     68.9874E-03    -298.688E-03     597.407E-03    -299.541E-03     55.8452E-03
            1058     4.67054E-03     166.672E-03    -112.735E+06    -176.994E+06    -50.1224E+06    -2.72889E+06    -296.276E-03     595.531E-03    -299.255E-03     77.8605E-03    -297.475E-03     595.848E-03    -299.086E-03     63.2579E-03
            1059     5.34088E-03     166.809E-03    -103.120E+06    -154.141E+06    -32.4608E+06    -2.79061E+06    -294.532E-03     593.259E-03    -298.727E-03     85.8314E-03    -295.923E-03     593.831E-03    -298.516E-03     70.0451E-03
            1060     6.01278E-03     166.954E-03    -93.6944E+06    -130.694E+06    -16.2631E+06    -2.50584E+06    -292.642E-03     590.727E-03    -298.085E-03     92.8408E-03    -294.212E-03     591.548E-03    -297.841E-03     76.0721E-03
            1061     6.68570E-03     167.108E-03    -84.0850E+06    -106.058E+06    -869.903E+03    -1.95271E+06    -290.514E-03     587.860E-03    -297.346E-03     99.1989E-03    -292.254E-03     588.928E-03    -297.075E-03     81.5838E-03
            1062     7.36014E-03     167.268E-03    -74.4581E+06    -78.4462E+06     13.7218E+06    -783.700E+03    -288.018E-03     584.523E-03    -296.504E-03     105.007E-03    -289.929E-03     585.851E-03    -296.214E-03     86.6225E-03
            1063     8.03806E-03     167.432E-03    -65.5948E+06    -44.5799E+06     27.5983E+06     1.02093E+06    -285.616E-03     581.187E-03    -295.571E-03     110.232E-03    -287.713E-03     582.813E-03    -295.273E-03     91.0765E-03
            1064     8.71653E-03     167.601E-03    -56.2523E+06     3.78714E+06     43.6921E+06     5.72792E+06    -283.465E-03     578.048E-03    -294.584E-03     114.752E-03    -285.784E-03     580.055E-03    -294.289E-03     94.7635E-03
            1065     9.39676E-03     167.772E-03    -46.8914E+06     47.2364E+06     58.1552E+06     10.3207E+06    -281.702E-03     575.292E-03    -293.591E-03     118.575E-03    -284.255E-03     577.679E-03    -293.301E-03     97.5804E-03
            1066     10.0769E-03     167.948E-03    -37.9612E+06     79.3024E+06     74.4558E+06     10.0947E+06    -280.434E-03     573.092E-03    -292.657E-03     121.318E-03    -283.220E-03     575.809E-03    -292.345E-03     99.1098E-03
            1067     10.7594E-03     168.121E-03    -28.9128E+06     101.959E+06     96.1400E+06     8.22505E+06    -279.380E-03     571.202E-03    -291.822E-03     122.405E-03    -282.397E-03     574.200E-03    -291.448E-03     98.8188E-03
            1068     11.4407E-03     168.292E-03    -21.9411E+06     106.900E+06     113.092E+06     5.49797E+06    -278.948E-03     570.025E-03    -291.077E-03     117.833E-03    -281.990E-03     573.041E-03    -290.635E-03     93.5480E-03
            1069     12.1239E-03     168.443E-03    -15.4323E+06     114.979E+06     123.147E+06     2.74232E+06    -279.169E-03     569.581E-03    -290.412E-03     115.303E-03    -282.483E-03     572.891E-03    -289.940E-03     88.8799E-03
            1070     12.8026E-03     168.600E-03    -6.85214E+06     122.445E+06     123.679E+06     1.82139E+06    -278.911E-03     568.719E-03    -289.809E-03     88.3126E-03    -281.504E-03     571.364E-03    -289.358E-03     64.7468E-03
            1071     665.581E-06     167.912E-03    -160.399E+06    -286.296E+06    -157.455E+06    -722.792E+03    -301.940E-03     603.760E-03    -301.820E-03     13.9982E-03    -302.136E-03     602.828E-03    -301.959E-03     11.2125E-03
            1072     1.33104E-03     167.946E-03    -155.874E+06    -275.015E+06    -146.800E+06    -1.47886E+06    -301.758E-03     603.621E-03    -301.863E-03     25.6409E-03    -302.039E-03     602.797E-03    -301.972E-03     20.6854E-03
            1073     1.99576E-03     168.000E-03    -150.217E+06    -259.000E+06    -131.203E+06    -2.01383E+06    -301.271E-03     603.039E-03    -301.768E-03     37.6140E-03    -301.688E-03     602.384E-03    -301.831E-03     30.4406E-03
            1074     2.66200E-03     168.073E-03    -143.144E+06    -240.059E+06    -112.432E+06    -2.73891E+06    -300.345E-03     601.890E-03    -301.545E-03     49.1674E-03    -300.935E-03     601.445E-03    -301.551E-03     39.9049E-03
            1075     3.32873E-03     168.164E-03    -134.854E+06    -219.505E+06    -92.1469E+06    -3.51065E+06    -299.093E-03     600.275E-03    -301.182E-03     59.9119E-03    -299.874E-03     600.066E-03    -301.129E-03     48.8102E-03
            1076     3.99723E-03     168.270E-03    -125.502E+06    -197.955E+06    -71.7149E+06    -4.29382E+06    -297.478E-03     598.160E-03    -300.682E-03     69.8167E-03    -298.456E-03     598.198E-03    -300.572E-03     57.1120E-03
            1077     4.66648E-03     168.390E-03    -115.578E+06    -175.476E+06    -52.2771E+06    -4.95449E+06    -295.619E-03     595.668E-03    -300.049E-03     78.8289E-03    -296.791E-03     595.959E-03    -299.888E-03     64.7657E-03
            1078     5.33744E-03     168.521E-03    -105.928E+06    -153.211E+06    -34.5662E+06    -5.19544E+06    -293.548E-03     592.845E-03    -299.297E-03     86.8739E-03    -294.900E-03     593.377E-03    -299.094E-03     71.7235E-03
            1079     6.00988E-03     168.662E-03    -96.2365E+06    -130.460E+06    -18.1579E+06    -5.41922E+06    -291.294E-03     589.734E-03    -298.440E-03     94.2241E-03    -292.813E-03     590.502E-03    -298.203E-03     78.1701E-03
            1080     6.68422E-03     168.810E-03    -86.6097E+06    -107.382E+06    -3.13999E+06    -5.33667E+06    -288.833E-03     586.322E-03    -297.489E-03     100.737E-03    -290.513E-03     587.323E-03    -297.223E-03     83.8791E-03
            1081     7.36143E-03     168.963E-03    -77.2901E+06     -81.293E+06     10.9847E+06    -4.87729E+06    -286.546E-03     583.012E-03    -296.466E-03     106.323E-03    -288.387E-03     584.258E-03    -296.181E-03     88.7064E-03
            1082     8.03862E-03     169.123E-03    -67.6293E+06    -51.0090E+06     25.0577E+06    -3.07089E+06    -284.578E-03     579.993E-03    -295.415E-03     111.107E-03    -286.589E-03     581.510E-03    -295.117E-03     92.6856E-03
            1083     8.71812E-03     169.286E-03    -58.2908E+06    -13.0344E+06     38.7535E+06     714.198E+03    -282.826E-03     577.187E-03    -294.361E-03     115.298E-03    -285.040E-03     579.035E-03    -294.064E-03     95.9529E-03
            1084     9.39850E-03     169.454E-03    -48.7205E+06     36.1459E+06     53.0797E+06     5.38649E+06    -281.341E-03     574.666E-03    -293.325E-03     118.952E-03    -283.795E-03     576.922E-03    -293.041E-03     98.5409E-03
            1085     10.0808E-03     169.626E-03    -39.8989E+06     80.7953E+06     69.1852E+06     7.78015E+06    -280.180E-03     572.539E-03    -292.359E-03     121.546E-03    -282.895E-03     575.198E-03    -292.072E-03     99.8473E-03
            1086     10.7619E-03     169.797E-03    -32.5496E+06     104.161E+06     88.3775E+06     6.68252E+06    -279.692E-03     571.218E-03    -291.525E-03     122.083E-03    -282.652E-03     574.176E-03    -291.187E-03     98.8422E-03
            1087     11.4451E-03     169.965E-03    -23.5068E+06     112.211E+06     110.513E+06     5.28951E+06    -279.437E-03     570.273E-03    -290.836E-03     116.988E-03    -282.434E-03     573.265E-03    -290.412E-03     92.9251E-03
            1088     12.1241E-03     170.122E-03    -14.2957E+06     120.938E+06     126.345E+06     3.26257E+06    -278.751E-03     568.961E-03    -290.210E-03     115.205E-03    -282.049E-03     572.271E-03    -289.733E-03     88.9339E-03
            1089     12.8070E-03     170.273E-03    -7.08668E+06     125.070E+06     125.889E+06     518.410E+03    -278.195E-03     567.784E-03    -289.589E-03     88.8501E-03    -280.807E-03     570.450E-03    -289.131E-03     65.2041E-03
            1090     664.229E-06     169.647E-03    -162.378E+06    -282.341E+06    -160.927E+06    -997.151E+03    -303.076E-03     605.972E-03    -302.896E-03     14.1146E-03    -303.281E-03     605.065E-03    -303.056E-03     11.4307E-03
            1091     1.32849E-03     169.682E-03    -159.396E+06    -271.138E+06    -149.874E+06    -1.80380E+06    -302.382E-03     605.245E-03    -302.864E-03     26.3455E-03    -302.675E-03     604.445E-03    -302.989E-03     21.6007E-03
            1092     1.99446E-03     169.733E-03    -153.458E+06    -255.183E+06    -133.948E+06    -2.71928E+06    -301.438E-03     603.995E-03    -302.556E-03     38.5302E-03    -301.861E-03     603.355E-03    -302.633E-03     31.6953E-03
            1093     2.66043E-03     169.804E-03    -146.248E+06    -235.918E+06    -114.646E+06    -3.68862E+06    -300.226E-03     602.349E-03    -302.123E-03     50.4660E-03    -300.814E-03     601.913E-03    -302.142E-03     41.6709E-03
            1094     3.32755E-03     169.891E-03    -137.371E+06    -214.849E+06    -93.5241E+06    -4.92904E+06    -298.596E-03     600.157E-03    -301.561E-03     61.5917E-03    -299.367E-03     599.949E-03    -301.518E-03     51.0381E-03
            1095     3.99572E-03     169.992E-03    -127.860E+06    -193.581E+06    -72.8214E+06    -6.21630E+06    -296.589E-03     597.445E-03    -300.856E-03     71.8102E-03    -297.545E-03     597.472E-03    -300.754E-03     59.7623E-03
            1096     4.66619E-03     170.107E-03    -118.213E+06    -172.019E+06    -53.6358E+06    -7.17502E+06    -294.402E-03     594.419E-03    -300.017E-03     81.1002E-03    -295.539E-03     594.681E-03    -299.864E-03     67.8256E-03
            1097     5.33807E-03     170.232E-03    -108.001E+06    -150.464E+06    -35.6707E+06    -8.01031E+06    -292.181E-03     591.256E-03    -299.075E-03     89.5291E-03    -293.488E-03     591.748E-03    -298.878E-03     75.2070E-03
            1098     6.01200E-03     170.367E-03    -97.8246E+06    -128.414E+06    -19.2353E+06    -8.46681E+06    -289.817E-03     587.869E-03    -298.051E-03     96.7064E-03    -291.278E-03     588.583E-03    -297.819E-03     81.5256E-03
            1099     6.68826E-03     170.509E-03    -88.0373E+06    -106.235E+06    -4.34077E+06    -8.76963E+06    -287.645E-03     584.620E-03    -296.975E-03     102.682E-03    -289.253E-03     585.551E-03    -296.715E-03     86.6970E-03
            1100     7.36485E-03     170.658E-03    -78.1490E+06    -81.7900E+06     9.52997E+06    -8.67823E+06    -285.883E-03     581.771E-03    -295.889E-03     107.861E-03    -287.638E-03     582.932E-03    -295.609E-03     91.0665E-03
            1101     8.04402E-03     170.812E-03    -68.7426E+06    -56.2476E+06     22.6778E+06    -7.40813E+06    -284.315E-03     579.143E-03    -294.828E-03     112.248E-03    -286.229E-03     580.548E-03    -294.533E-03     94.5907E-03
            1102     8.72356E-03     170.971E-03    -59.3242E+06    -23.2925E+06     36.3241E+06    -4.93048E+06    -283.042E-03     576.848E-03    -293.806E-03     116.265E-03    -285.155E-03     578.563E-03    -293.505E-03     97.5529E-03
            1103     9.40397E-03     171.136E-03    -49.2166E+06     23.4069E+06     50.7512E+06    -945.130E+03    -282.038E-03     574.870E-03    -292.833E-03     119.411E-03    -284.394E-03     576.988E-03    -292.542E-03     99.4441E-03
            1104     10.0843E-03     171.303E-03    -38.8813E+06     72.3147E+06     66.5264E+06     3.84823E+06    -281.332E-03     573.275E-03    -291.943E-03     121.199E-03    -283.949E-03     575.818E-03    -291.659E-03     99.8343E-03
            1105     10.7664E-03     171.474E-03    -29.5416E+06     105.262E+06     85.3942E+06     5.14111E+06    -280.899E-03     572.086E-03    -291.187E-03     121.767E-03    -283.776E-03     574.984E-03    -290.870E-03     98.7961E-03
            1106     11.4445E-03     171.644E-03    -21.4720E+06     116.961E+06     107.949E+06     3.17833E+06    -279.830E-03     570.389E-03    -290.559E-03     117.147E-03    -282.798E-03     573.383E-03    -290.158E-03     93.1386E-03
            1107     12.1285E-03     171.793E-03    -13.5130E+06     124.137E+06     126.234E+06     2.41968E+06    -278.273E-03     568.233E-03    -289.960E-03     115.259E-03    -281.562E-03     571.550E-03    -289.490E-03     89.0023E-03
            1108     12.8100E-03     171.948E-03    -6.46440E+06     127.772E+06     128.119E+06     1.65642E+06    -277.936E-03     567.281E-03    -289.345E-03     89.2069E-03    -280.545E-03     569.949E-03    -288.880E-03     65.6325E-03
            1109     664.313E-06     171.387E-03    -164.631E+06    -277.069E+06    -161.712E+06    -1.14148E+06    -302.883E-03     605.370E-03    -302.487E-03     15.5149E-03    -303.104E-03     604.492E-03    -302.655E-03     13.0656E-03
            1110     1.32949E-03     171.417E-03    -160.923E+06    -266.141E+06    -151.601E+06    -1.94233E+06    -301.756E-03     604.236E-03    -302.480E-03     27.8380E-03    -302.057E-03     603.460E-03    -302.619E-03     23.3888E-03
            1111     1.99463E-03     171.466E-03    -155.328E+06    -249.835E+06    -134.895E+06    -3.04391E+06    -300.528E-03     602.556E-03    -302.027E-03     40.5861E-03    -300.954E-03     601.934E-03    -302.114E-03     34.2224E-03
            1112     2.66137E-03     171.533E-03    -147.369E+06    -229.682E+06    -114.670E+06    -4.61045E+06    -298.937E-03     600.365E-03    -301.428E-03     52.8754E-03    -299.515E-03     599.938E-03    -301.455E-03     44.7291E-03
            1113     3.32974E-03     171.615E-03    -138.411E+06    -208.749E+06    -93.3876E+06    -6.20375E+06    -297.023E-03     597.711E-03    -300.688E-03     64.4520E-03    -297.772E-03     597.499E-03    -300.652E-03     54.6907E-03
            1114     3.99984E-03     171.712E-03    -128.827E+06    -187.288E+06    -72.4545E+06    -7.66609E+06    -294.982E-03     594.808E-03    -299.826E-03     75.0876E-03    -295.904E-03     594.819E-03    -299.730E-03     63.9532E-03
            1115     4.67125E-03     171.820E-03    -118.757E+06    -166.154E+06    -52.8447E+06    -9.14387E+06    -292.898E-03     591.771E-03    -298.873E-03     84.5943E-03    -293.987E-03     592.003E-03    -298.725E-03     72.2952E-03
            1116     5.34487E-03     171.941E-03    -108.582E+06    -145.549E+06    -35.0539E+06    -10.4345E+06    -290.851E-03     588.710E-03    -297.859E-03     92.6807E-03    -292.095E-03     589.154E-03    -297.666E-03     79.3716E-03
            1117     6.01991E-03     172.069E-03    -98.5086E+06    -124.383E+06    -19.0029E+06    -11.5203E+06    -288.972E-03     585.787E-03    -296.815E-03     99.2379E-03    -290.360E-03     586.439E-03    -296.587E-03     85.0213E-03
            1118     6.69579E-03     172.206E-03    -88.5281E+06    -103.331E+06    -4.39420E+06    -12.1583E+06    -287.357E-03     583.134E-03    -295.777E-03     104.982E-03    -288.884E-03     583.992E-03    -295.521E-03     89.9079E-03
            1119     7.37385E-03     172.350E-03    -79.1712E+06    -80.9495E+06     9.13028E+06    -12.2250E+06    -286.039E-03     580.810E-03    -294.771E-03     109.837E-03    -287.709E-03     581.885E-03    -294.493E-03     93.8949E-03
            1120     8.05175E-03     172.500E-03    -69.6458E+06    -57.9431E+06     22.1932E+06    -11.8077E+06    -285.116E-03     578.941E-03    -293.825E-03     113.684E-03    -286.945E-03     580.253E-03    -293.529E-03     96.7043E-03
            1121     8.73091E-03     172.656E-03    -59.7895E+06    -27.1150E+06     35.7793E+06    -11.1483E+06    -284.372E-03     577.323E-03    -292.951E-03     116.843E-03    -286.394E-03     578.932E-03    -292.646E-03     98.6547E-03
            1122     9.41042E-03     172.818E-03    -50.3225E+06     11.1895E+06     48.5989E+06    -8.46364E+06    -283.734E-03     575.877E-03    -292.142E-03     119.468E-03    -285.987E-03     577.849E-03    -291.843E-03     99.9162E-03
            1123     10.0903E-03     172.984E-03    -40.6776E+06     58.0200E+06     62.0135E+06    -3.87475E+06    -282.986E-03     574.381E-03    -291.395E-03     121.661E-03    -285.509E-03     576.786E-03    -291.111E-03     100.611E-03
            1124     10.7683E-03     173.153E-03    -31.0157E+06     100.877E+06     77.4746E+06     1.01711E+06    -281.459E-03     572.161E-03    -290.702E-03     123.113E-03    -284.278E-03     575.003E-03    -290.416E-03     100.449E-03
            1125     11.4521E-03     173.319E-03    -23.1229E+06     118.965E+06     100.630E+06     3.25378E+06    -280.080E-03     570.188E-03    -290.108E-03     119.222E-03    -283.033E-03     573.189E-03    -289.744E-03     95.4525E-03
            1126     12.1310E-03     173.468E-03    -16.1775E+06     126.599E+06     123.707E+06     1.90067E+06    -279.338E-03     568.923E-03    -289.585E-03     116.883E-03    -282.650E-03     572.269E-03    -289.127E-03     90.5777E-03
            1127     12.8130E-03     173.618E-03    -7.98871E+06     129.711E+06     129.147E+06     638.045E+03    -278.658E-03     567.708E-03    -289.050E-03     90.7775E-03    -281.292E-03     570.399E-03    -288.580E-03     67.1662E-03
            1128     665.976E-06     173.120E-03    -163.907E+06    -271.811E+06    -161.908E+06    -1.32240E+06    -300.375E-03     600.609E-03    -300.234E-03     16.2629E-03    -300.597E-03     599.753E-03    -300.412E-03     14.0484E-03
            1129     1.33194E-03     173.149E-03    -159.862E+06    -259.958E+06    -149.725E+06    -2.37521E+06    -299.439E-03     599.541E-03    -300.102E-03     29.8262E-03    -299.737E-03     598.782E-03    -300.242E-03     25.8757E-03
            1130     1.99957E-03     173.194E-03    -153.448E+06    -243.112E+06    -132.734E+06    -3.71825E+06    -298.160E-03     597.799E-03    -299.639E-03     43.4468E-03    -298.571E-03     597.186E-03    -299.728E-03     37.7612E-03
            1131     2.66819E-03     173.257E-03    -145.512E+06    -222.613E+06    -112.357E+06    -5.18392E+06    -296.489E-03     595.493E-03    -299.004E-03     56.3931E-03    -297.042E-03     595.064E-03    -299.032E-03     49.0915E-03
            1132     3.33804E-03     173.334E-03    -136.581E+06    -201.519E+06    -90.6332E+06    -6.63355E+06    -294.762E-03     593.002E-03    -298.241E-03     68.2672E-03    -295.470E-03     592.773E-03    -298.204E-03     59.5140E-03
            1133     4.00962E-03     173.426E-03    -126.947E+06    -179.638E+06    -69.3146E+06    -8.16059E+06    -293.106E-03     590.509E-03    -297.403E-03     78.7920E-03    -293.973E-03     590.488E-03    -297.305E-03     68.7601E-03
            1134     4.68282E-03     173.529E-03    -117.001E+06    -158.274E+06    -49.4509E+06    -10.0578E+06    -291.572E-03     588.103E-03    -296.530E-03     87.9633E-03    -292.596E-03     588.293E-03    -296.379E-03     76.7576E-03
            1135     5.35678E-03     173.644E-03    -106.935E+06    -138.489E+06    -31.7064E+06    -11.9852E+06    -290.061E-03     585.705E-03    -295.645E-03     95.6892E-03    -291.229E-03     586.094E-03    -295.447E-03     83.4418E-03
            1136     6.03212E-03     173.768E-03    -97.1205E+06    -118.389E+06    -16.1065E+06    -13.2958E+06    -288.770E-03     583.531E-03    -294.761E-03     102.228E-03    -290.079E-03     584.122E-03    -294.529E-03     89.0002E-03
            1137     6.70888E-03     173.901E-03    -87.8377E+06    -98.5018E+06    -2.00765E+06    -14.3481E+06    -287.839E-03     581.753E-03    -293.915E-03     107.693E-03    -289.287E-03     582.547E-03    -293.655E-03     93.5004E-03
            1138     7.38566E-03     174.041E-03    -78.4866E+06    -77.4445E+06     11.3381E+06    -14.8382E+06    -287.155E-03     580.283E-03    -293.128E-03     112.092E-03    -288.743E-03     581.285E-03    -292.845E-03     96.9418E-03
            1139     8.06370E-03     174.189E-03    -69.4188E+06    -55.9380E+06     23.5563E+06    -15.5897E+06    -286.715E-03     579.125E-03    -292.410E-03     115.905E-03    -288.460E-03     580.357E-03    -292.110E-03     99.6582E-03
            1140     8.74090E-03     174.343E-03    -60.9565E+06    -27.9772E+06     35.9124E+06    -15.0268E+06    -286.355E-03     578.116E-03    -291.761E-03     119.312E-03    -288.300E-03     579.641E-03    -291.452E-03     101.772E-03
            1141     9.41854E-03     174.503E-03    -52.6046E+06     3.94248E+06     47.5101E+06    -13.6348E+06    -285.657E-03     576.817E-03    -291.160E-03     122.480E-03    -287.840E-03     578.690E-03    -290.852E-03     103.476E-03
            1142     10.0964E-03     174.667E-03    -44.0991E+06     48.6081E+06     60.5896E+06    -11.0053E+06    -284.141E-03     574.706E-03    -290.564E-03     124.796E-03    -286.608E-03     577.013E-03    -290.268E-03     104.234E-03
            1143     10.7785E-03     174.831E-03    -34.4853E+06     89.3241E+06     72.3964E+06    -5.99807E+06    -282.568E-03     572.529E-03    -289.961E-03     125.572E-03    -285.332E-03     575.278E-03    -289.678E-03     103.259E-03
            1144     11.4572E-03     174.993E-03    -24.2438E+06     111.084E+06     92.1097E+06    -1.18337E+06    -281.609E-03     571.057E-03    -289.448E-03     121.076E-03    -284.504E-03     573.993E-03    -289.113E-03     97.5522E-03
            1145     12.1398E-03     175.146E-03    -14.4552E+06     129.490E+06     118.976E+06     790.340E+03    -280.827E-03     569.860E-03    -289.034E-03     118.389E-03    -284.114E-03     573.211E-03    -288.606E-03     92.1541E-03
            1146     12.8184E-03     175.293E-03    -6.28433E+06     131.438E+06     130.292E+06     71.0605E+03    -280.555E-03     569.195E-03    -288.640E-03     92.3699E-03    -283.188E-03     571.894E-03    -288.170E-03     68.7613E-03
            1147     668.846E-06     174.842E-03    -161.045E+06    -265.006E+06    -157.229E+06    -1.58510E+06    -295.619E-03     591.655E-03    -296.037E-03     17.5051E-03    -295.840E-03     590.818E-03    -296.205E-03     15.6325E-03
            1148     1.33878E-03     174.869E-03    -156.065E+06    -253.053E+06    -145.820E+06    -2.96013E+06    -295.151E-03     590.800E-03    -295.648E-03     31.7750E-03    -295.434E-03     590.051E-03    -295.784E-03     28.4106E-03
            1149     2.00839E-03     174.912E-03    -149.681E+06    -236.183E+06    -128.628E+06    -4.48686E+06    -294.295E-03     589.580E-03    -295.285E-03     45.9714E-03    -294.679E-03     588.965E-03    -295.369E-03     41.0619E-03
            1150     2.67952E-03     174.970E-03    -141.451E+06    -215.734E+06    -107.857E+06    -5.75645E+06    -293.235E-03     588.056E-03    -294.821E-03     59.2099E-03    -293.745E-03     587.610E-03    -294.843E-03     52.8408E-03
            1151     3.35207E-03     175.044E-03    -131.918E+06    -193.948E+06    -85.4508E+06    -6.95591E+06    -292.180E-03     586.462E-03    -294.282E-03     71.2062E-03    -292.829E-03     586.201E-03    -294.237E-03     63.5143E-03
            1152     4.02511E-03     175.131E-03    -121.855E+06    -171.192E+06    -63.4807E+06    -8.50067E+06    -291.204E-03     584.905E-03    -293.701E-03     81.9421E-03    -292.001E-03     584.845E-03    -293.593E-03     72.9972E-03
            1153     4.69886E-03     175.232E-03    -111.615E+06    -149.624E+06    -43.1288E+06    -10.1828E+06    -290.298E-03     583.399E-03    -293.101E-03     91.4047E-03    -291.242E-03     583.540E-03    -292.937E-03     81.3008E-03
            1154     5.37389E-03     175.343E-03    -101.887E+06    -129.761E+06    -25.2556E+06    -11.8845E+06    -289.555E-03     582.056E-03    -292.501E-03     99.2913E-03    -290.642E-03     582.394E-03    -292.291E-03     88.0936E-03
            1155     6.04974E-03     175.463E-03    -92.3217E+06    -110.865E+06    -9.73439E+06    -13.6770E+06    -289.058E-03     580.982E-03    -291.924E-03     105.950E-03    -290.282E-03     581.513E-03    -291.678E-03     93.7149E-03
            1156     6.72557E-03     175.594E-03    -82.6714E+06    -92.0749E+06     4.22957E+06    -14.8157E+06    -288.871E-03     580.266E-03    -291.395E-03     111.491E-03    -290.230E-03     580.993E-03    -291.121E-03     98.2426E-03
            1157     7.40194E-03     175.733E-03    -73.7452E+06    -72.0981E+06     16.9302E+06    -15.7232E+06    -288.767E-03     579.691E-03    -290.924E-03     116.075E-03    -290.267E-03     580.625E-03    -290.628E-03     101.801E-03
            1158     8.07791E-03     175.878E-03    -65.3876E+06    -50.7951E+06     28.8726E+06    -16.1074E+06    -288.437E-03     578.934E-03    -290.497E-03     120.080E-03    -290.098E-03     580.099E-03    -290.184E-03     104.695E-03
            1159     8.75539E-03     176.032E-03    -56.9061E+06    -26.8525E+06     40.6619E+06    -16.3023E+06    -287.931E-03     578.023E-03    -290.092E-03     123.926E-03    -289.787E-03     579.465E-03    -289.768E-03     107.239E-03
            1160     9.43264E-03     176.190E-03    -48.8338E+06     2.85479E+06     52.6319E+06    -15.1137E+06    -287.104E-03     576.795E-03    -289.692E-03     127.181E-03    -289.197E-03     578.573E-03    -289.362E-03     109.042E-03
            1161     10.1116E-03     176.350E-03    -40.7203E+06     45.6017E+06     66.6867E+06    -13.6840E+06    -286.138E-03     575.424E-03    -289.286E-03     128.883E-03    -288.516E-03     577.626E-03    -288.960E-03     109.067E-03
            1162     10.7886E-03     176.511E-03    -32.5635E+06     77.3691E+06     74.9561E+06    -11.5500E+06    -285.439E-03     574.326E-03    -288.887E-03     128.992E-03    -288.108E-03     576.937E-03    -288.577E-03     107.215E-03
            1163     11.4683E-03     176.675E-03    -24.5211E+06     100.983E+06     88.1156E+06    -7.47618E+06    -284.535E-03     573.091E-03    -288.556E-03     124.254E-03    -287.365E-03     575.938E-03    -288.227E-03     101.036E-03
            1164     12.1450E-03     176.821E-03    -15.8098E+06     124.920E+06     111.692E+06    -4.11857E+06    -283.749E-03     572.065E-03    -288.316E-03     120.886E-03    -287.013E-03     575.393E-03    -287.916E-03     94.6539E-03
            1165     12.8261E-03     176.972E-03    -7.46523E+06     128.529E+06     129.691E+06    -418.149E+03    -284.406E-03     572.567E-03    -288.160E-03     93.2879E-03    -287.023E-03     575.237E-03    -287.687E-03     69.6628E-03
            1166     673.529E-06     176.545E-03    -153.143E+06    -257.172E+06    -151.957E+06    -1.73406E+06    -289.828E-03     579.726E-03    -289.898E-03     17.8093E-03    -290.024E-03     578.903E-03    -290.063E-03     16.2519E-03
            1167     1.34654E-03     176.570E-03    -150.094E+06    -245.000E+06    -139.719E+06    -3.39178E+06    -289.520E-03     579.262E-03    -289.743E-03     32.4385E-03    -289.781E-03     578.523E-03    -289.868E-03     29.5786E-03
            1168     2.02110E-03     176.612E-03    -143.342E+06    -228.046E+06    -121.717E+06    -5.10642E+06    -289.331E-03     578.895E-03    -289.564E-03     47.3176E-03    -289.681E-03     578.276E-03    -289.634E-03     43.1308E-03
            1169     2.69510E-03     176.669E-03    -135.041E+06    -207.978E+06    -100.725E+06    -6.69112E+06    -289.321E-03     578.717E-03    -289.396E-03     61.0768E-03    -289.782E-03     578.250E-03    -289.402E-03     55.5841E-03
            1170     3.36915E-03     176.741E-03    -125.151E+06    -186.136E+06    -78.4759E+06    -8.29189E+06    -289.067E-03     578.282E-03    -289.215E-03     73.5917E-03    -289.653E-03     577.989E-03    -289.156E-03     66.8423E-03
            1171     4.04420E-03     176.826E-03    -114.402E+06    -163.458E+06    -56.3992E+06    -9.60533E+06    -288.744E-03     577.731E-03    -288.987E-03     85.0221E-03    -289.464E-03     577.627E-03    -288.866E-03     77.0947E-03
            1172     4.72005E-03     176.924E-03    -103.786E+06    -142.167E+06    -35.6877E+06    -10.5014E+06    -288.662E-03     577.397E-03    -288.735E-03     95.1004E-03    -289.518E-03     577.483E-03    -288.557E-03     86.0686E-03
            1173     5.39590E-03     177.035E-03    -93.3148E+06    -121.439E+06    -16.8723E+06    -11.5594E+06    -288.821E-03     577.318E-03    -288.497E-03     103.611E-03    -289.815E-03     577.598E-03    -288.270E-03     93.5003E-03
            1174     6.07146E-03     177.154E-03    -83.3258E+06    -102.236E+06    -423.945E+03    -12.9288E+06    -289.200E-03     577.494E-03    -288.294E-03     111.066E-03    -290.328E-03     577.963E-03    -288.027E-03     99.9325E-03
            1175     6.74750E-03     177.284E-03    -74.0936E+06    -85.1713E+06     13.3217E+06    -14.3898E+06    -289.620E-03     577.748E-03    -288.129E-03     117.502E-03    -290.880E-03     578.405E-03    -287.831E-03     105.366E-03
            1176     7.42319E-03     177.423E-03    -65.0575E+06    -66.0586E+06     25.7619E+06    -14.9270E+06    -289.909E-03     577.901E-03    -287.991E-03     122.833E-03    -291.316E-03     578.767E-03    -287.672E-03     109.635E-03
            1177     8.09943E-03     177.568E-03    -56.6232E+06    -46.9325E+06     37.2178E+06    -15.1060E+06    -289.996E-03     577.867E-03    -287.871E-03     127.336E-03    -291.563E-03     578.959E-03    -287.535E-03     112.997E-03
            1178     8.77509E-03     177.719E-03    -49.0109E+06    -23.6881E+06     49.2029E+06    -14.6761E+06    -289.700E-03     577.451E-03    -287.751E-03     130.851E-03    -291.456E-03     578.807E-03    -287.399E-03     115.266E-03
            1179     9.45237E-03     177.875E-03    -41.9911E+06     4.21110E+06     61.1239E+06    -13.5572E+06    -289.413E-03     577.035E-03    -287.622E-03     132.883E-03    -291.390E-03     578.702E-03    -287.262E-03     115.855E-03
            1180     10.1288E-03     178.034E-03    -35.9487E+06     43.9553E+06     74.3833E+06    -11.7287E+06    -289.479E-03     576.988E-03    -287.508E-03     133.693E-03    -291.735E-03     579.056E-03    -287.148E-03     114.941E-03
            1181     10.8058E-03     178.198E-03    -30.4513E+06     75.6185E+06     80.7793E+06    -10.9694E+06    -289.448E-03     576.861E-03    -287.412E-03     133.079E-03    -292.009E-03     579.348E-03    -287.074E-03     112.186E-03
            1182     11.4814E-03     178.355E-03    -23.5194E+06     95.3375E+06     90.4863E+06    -10.6596E+06    -289.313E-03     576.706E-03    -287.393E-03     127.129E-03    -292.059E-03     579.445E-03    -287.045E-03     104.350E-03
            1183     12.1594E-03     178.507E-03    -15.6788E+06     114.726E+06     111.296E+06    -6.89930E+06    -289.739E-03     577.234E-03    -287.495E-03     122.429E-03    -292.935E-03     580.460E-03    -287.082E-03     96.2058E-03
            1184     12.8310E-03     178.656E-03    -8.41283E+06      120.95E+06     128.717E+06    -2.29032E+06    -290.641E-03     578.332E-03    -287.691E-03     93.8707E-03    -293.222E-03     580.940E-03    -287.211E-03     70.0332E-03
            1185     677.588E-06     178.226E-03    -146.546E+06    -247.663E+06    -144.529E+06    -2.52034E+06    -283.389E-03     566.529E-03    -283.139E-03     18.0095E-03    -283.574E-03     565.730E-03    -283.291E-03     16.6726E-03
            1186     1.35607E-03     178.251E-03    -142.568E+06    -235.512E+06    -132.263E+06    -4.38013E+06    -283.552E-03     566.817E-03    -283.265E-03     32.7014E-03    -283.790E-03     566.093E-03    -283.379E-03     30.2317E-03
            1187     2.03360E-03     178.292E-03    -135.604E+06    -218.474E+06    -113.824E+06    -6.17425E+06    -283.880E-03     567.214E-03    -283.334E-03     47.6087E-03    -284.194E-03     566.599E-03    -283.390E-03     44.0249E-03
            1188     2.71159E-03     178.351E-03    -126.791E+06    -198.617E+06    -92.3025E+06    -8.12120E+06    -284.229E-03     567.625E-03    -283.395E-03     62.0121E-03    -284.641E-03     567.146E-03    -283.385E-03     57.2825E-03
            1189     3.38936E-03     178.423E-03    -116.870E+06    -177.440E+06    -70.0360E+06    -9.87486E+06    -284.728E-03     568.176E-03    -283.448E-03     75.6480E-03    -285.254E-03     567.857E-03    -283.372E-03     69.7718E-03
            1190     4.06710E-03     178.508E-03    -106.547E+06    -156.219E+06    -48.5624E+06    -11.0249E+06    -285.374E-03     568.879E-03    -283.505E-03     88.2359E-03    -286.021E-03     568.732E-03    -283.367E-03     81.3058E-03
            1191     4.74448E-03     178.607E-03    -95.8751E+06    -135.610E+06    -28.3317E+06    -11.8697E+06    -286.072E-03     569.642E-03    -283.570E-03     99.4316E-03    -286.844E-03     569.672E-03    -283.376E-03     91.4927E-03
            1192     5.42175E-03     178.717E-03    -84.9905E+06    -115.221E+06    -9.49172E+06    -12.5097E+06    -286.994E-03     570.646E-03    -283.652E-03     109.560E-03    -287.893E-03     570.860E-03    -283.409E-03     100.647E-03
            1193     6.09918E-03     178.839E-03    -74.8457E+06    -96.0799E+06     7.31949E+06    -12.6387E+06    -288.195E-03     571.966E-03    -283.771E-03     118.510E-03    -289.225E-03     572.367E-03    -283.487E-03     108.656E-03
            1194     6.77559E-03     178.970E-03    -65.5989E+06    -78.0098E+06     22.1134E+06    -12.9597E+06    -289.321E-03     573.252E-03    -283.931E-03     126.073E-03    -290.486E-03     573.843E-03    -283.612E-03     115.248E-03
            1195     7.45209E-03     179.109E-03    -57.7917E+06    -62.1802E+06     33.5970E+06    -13.2466E+06    -290.340E-03     574.455E-03    -284.114E-03     132.244E-03    -291.650E-03     575.241E-03    -283.772E-03     120.388E-03
            1196     8.12799E-03     179.255E-03    -51.1818E+06    -44.3780E+06     44.1044E+06    -12.1357E+06    -291.412E-03     575.736E-03    -284.324E-03     136.788E-03    -292.877E-03     576.734E-03    -283.965E-03     123.871E-03
            1197     8.80410E-03     179.406E-03    -44.9744E+06    -21.1023E+06     55.5674E+06    -10.8846E+06    -292.508E-03     577.079E-03    -284.571E-03     139.520E-03    -294.155E-03     578.331E-03    -284.198E-03     125.369E-03
            1198     9.47874E-03     179.562E-03    -38.8487E+06     4.49987E+06     66.5904E+06    -9.86985E+06    -293.631E-03     578.490E-03    -284.860E-03     140.766E-03    -295.494E-03     580.039E-03    -284.477E-03     125.080E-03
            1199     10.1530E-03     179.724E-03    -32.2445E+06     42.8667E+06     79.9455E+06    -8.29151E+06    -294.644E-03     579.833E-03    -285.189E-03     140.050E-03    -296.766E-03     581.763E-03    -284.805E-03     122.555E-03
            1200     10.8263E-03     179.885E-03    -25.6979E+06     80.9315E+06     89.6786E+06    -8.51389E+06    -295.508E-03     581.060E-03    -285.552E-03     136.992E-03    -297.933E-03     583.422E-03    -285.184E-03     117.139E-03
            1201     11.4990E-03     180.050E-03    -19.5285E+06     96.4570E+06     99.3447E+06    -9.26185E+06    -296.447E-03     582.454E-03    -286.007E-03     129.820E-03    -299.076E-03     585.069E-03    -285.621E-03     107.697E-03
            1202     12.1666E-03     180.198E-03    -13.4352E+06     102.809E+06     112.746E+06    -6.56682E+06    -297.616E-03     584.179E-03    -286.563E-03     125.377E-03    -300.713E-03     587.267E-03    -286.129E-03     99.4160E-03
            1203     12.8374E-03     180.357E-03    -6.63766E+06     112.135E+06     125.085E+06    -2.68413E+06    -298.793E-03     585.974E-03    -287.181E-03     96.2727E-03    -301.319E-03     588.512E-03    -286.708E-03     72.3592E-03
            1204     682.977E-06     179.884E-03    -140.906E+06    -235.309E+06    -137.608E+06    -3.10048E+06    -276.793E-03     553.393E-03    -276.601E-03     17.8836E-03    -276.974E-03     552.635E-03    -276.743E-03     16.7460E-03
            1205     1.36469E-03     179.911E-03    -135.724E+06    -223.997E+06    -125.070E+06    -5.59964E+06    -277.394E-03     554.169E-03    -276.775E-03     33.0910E-03    -277.616E-03     553.473E-03    -276.879E-03     31.0175E-03
            1206     2.04651E-03     179.954E-03    -128.739E+06    -207.777E+06    -107.343E+06    -7.80541E+06    -277.784E-03     554.740E-03    -276.956E-03     48.5102E-03    -278.072E-03     554.141E-03    -277.005E-03     45.4632E-03
            1207     2.72824E-03     180.012E-03    -119.986E+06    -188.525E+06    -85.7081E+06    -9.53535E+06    -278.105E-03     555.173E-03    -277.068E-03     63.8800E-03    -278.480E-03     554.697E-03    -277.049E-03     59.8767E-03
            1208     3.41055E-03     180.085E-03    -110.349E+06    -168.283E+06    -63.2455E+06    -11.0281E+06    -279.079E-03     556.255E-03    -277.176E-03     78.7332E-03    -279.553E-03     555.920E-03    -277.088E-03     73.8066E-03
            1209     4.09178E-03     180.173E-03    -100.151E+06    -148.385E+06    -41.8203E+06    -12.2455E+06    -280.432E-03     557.783E-03    -277.351E-03     92.7075E-03    -281.014E-03     557.600E-03    -277.200E-03     86.8823E-03
            1210     4.77270E-03     180.274E-03    -90.0049E+06    -129.396E+06    -22.3583E+06    -12.7665E+06    -281.863E-03     559.447E-03    -277.584E-03     105.736E-03    -282.557E-03     559.424E-03    -277.377E-03     99.0520E-03
            1211     5.45349E-03     180.386E-03    -80.6719E+06    -110.888E+06    -4.98098E+06    -12.4725E+06    -283.665E-03     561.535E-03    -277.870E-03     117.649E-03    -284.478E-03     561.680E-03    -277.618E-03     110.148E-03
            1212     6.13283E-03     180.512E-03    -72.2418E+06    -93.3189E+06     10.5735E+06    -11.5571E+06    -285.682E-03     563.909E-03    -278.226E-03     127.953E-03    -286.620E-03     564.226E-03    -277.933E-03     119.632E-03
            1213     6.81177E-03     180.645E-03    -65.0000E+06    -75.6459E+06     24.4597E+06    -9.83023E+06    -287.904E-03     566.560E-03    -278.656E-03     136.621E-03    -288.976E-03     567.060E-03    -278.330E-03     127.453E-03
            1214     7.48942E-03     180.788E-03    -58.8688E+06    -59.6069E+06     36.2925E+06    -8.40791E+06    -290.522E-03     569.696E-03    -279.174E-03     143.298E-03    -291.733E-03     570.381E-03    -278.821E-03     133.208E-03
            1215     8.16579E-03     180.937E-03    -53.3099E+06    -41.6836E+06     46.5178E+06    -7.50622E+06    -293.428E-03     573.223E-03    -279.795E-03     147.558E-03    -294.789E-03     574.113E-03    -279.424E-03     136.414E-03
            1216     8.83988E-03     181.093E-03    -47.7489E+06    -18.8910E+06     56.7600E+06    -7.09080E+06    -296.534E-03     577.064E-03    -280.530E-03     149.507E-03    -298.070E-03     578.200E-03    -280.149E-03     137.056E-03
            1217     9.51224E-03     181.254E-03    -41.6726E+06     5.88503E+06     67.2332E+06    -7.05296E+06    -299.617E-03     580.997E-03    -281.381E-03     149.294E-03    -301.353E-03     582.414E-03    -280.993E-03     135.226E-03
            1218     10.1827E-03     181.418E-03    -35.2392E+06     45.2480E+06     80.7170E+06    -7.68494E+06    -302.127E-03     584.446E-03    -282.320E-03     146.669E-03    -304.115E-03     586.238E-03    -281.931E-03     130.614E-03
            1219     10.8505E-03     181.586E-03    -28.0531E+06     85.8579E+06     92.3318E+06    -7.99119E+06    -304.116E-03     587.427E-03    -283.310E-03     142.183E-03    -306.414E-03     589.664E-03    -282.933E-03     123.512E-03
            1220     11.5165E-03     181.749E-03    -20.8850E+06     97.5301E+06     100.987E+06    -7.39730E+06    -305.704E-03     590.078E-03    -284.374E-03     133.403E-03    -308.204E-03     592.560E-03    -283.980E-03     112.184E-03
            1221     12.1842E-03     181.908E-03    -13.8992E+06     94.7891E+06     109.426E+06    -6.59223E+06    -306.776E-03     592.261E-03    -285.484E-03     127.563E-03    -309.743E-03     595.198E-03    -285.055E-03     102.058E-03
            1222     12.8456E-03     182.066E-03    -6.71158E+06     103.038E+06     118.528E+06    -3.73248E+06    -308.395E-03     595.005E-03    -286.611E-03     98.2741E-03    -310.833E-03     597.443E-03    -286.158E-03     74.5053E-03
            1223     686.359E-06     181.520E-03    -134.235E+06    -221.269E+06    -131.666E+06    -3.43831E+06    -270.187E-03     539.983E-03    -269.797E-03     19.1546E-03    -270.361E-03     539.274E-03    -269.939E-03     18.2330E-03
            1224     1.37337E-03     181.550E-03    -130.261E+06    -211.150E+06    -120.108E+06    -6.19443E+06    -270.237E-03     540.194E-03    -269.957E-03     35.1756E-03    -270.450E-03     539.539E-03    -270.063E-03     33.5144E-03
            1225     2.06011E-03     181.593E-03    -124.117E+06    -196.652E+06    -103.197E+06    -8.34767E+06    -270.523E-03     540.499E-03    -269.975E-03     51.5298E-03    -270.794E-03     539.925E-03    -270.026E-03     49.1231E-03
            1226     2.74740E-03     181.652E-03    -116.388E+06    -178.996E+06    -82.5802E+06    -9.75833E+06    -271.296E-03     541.321E-03    -270.026E-03     68.0963E-03    -271.639E-03     540.851E-03    -270.010E-03     64.9922E-03
            1227     3.43386E-03     181.727E-03    -108.045E+06    -160.031E+06    -60.9934E+06    -10.4890E+06    -272.403E-03     542.544E-03    -270.140E-03     84.2824E-03    -272.833E-03     542.194E-03    -270.057E-03     80.5122E-03
            1228     4.12042E-03     181.818E-03    -99.9080E+06    -142.058E+06    -40.4336E+06    -10.5337E+06    -273.944E-03     544.271E-03    -270.326E-03     99.5407E-03    -274.468E-03     544.048E-03    -270.178E-03     95.1118E-03
            1229     4.80639E-03     181.921E-03    -92.3884E+06    -125.252E+06    -21.9685E+06    -9.85541E+06    -276.225E-03     546.842E-03    -270.617E-03     113.967E-03    -276.850E-03     546.754E-03    -270.412E-03     108.894E-03
            1230     5.49052E-03     182.040E-03    -85.8219E+06    -108.926E+06    -6.08992E+06    -8.41026E+06    -278.947E-03     549.982E-03    -271.035E-03     127.336E-03    -279.681E-03     550.038E-03    -270.783E-03     121.627E-03
            1231     6.17399E-03     182.169E-03    -79.9061E+06    -92.8025E+06     7.89817E+06    -6.47867E+06    -282.173E-03     553.761E-03    -271.588E-03     138.956E-03    -283.024E-03     553.973E-03    -271.298E-03     132.557E-03
            1232     6.85564E-03     182.308E-03    -74.1784E+06    -75.2176E+06     20.6505E+06    -4.96128E+06    -286.280E-03     558.588E-03    -272.307E-03     148.353E-03    -287.256E-03     558.972E-03    -271.987E-03     141.198E-03
            1233     7.53478E-03     182.458E-03    -67.8198E+06    -57.9297E+06     32.1812E+06    -3.88070E+06    -291.165E-03     564.399E-03    -273.234E-03     155.006E-03    -292.265E-03     564.959E-03    -272.891E-03     146.988E-03
            1234     8.21063E-03     182.616E-03    -60.9488E+06    -38.6406E+06     43.0048E+06    -4.19363E+06    -296.552E-03     570.935E-03    -274.384E-03     158.835E-03    -297.792E-03     571.699E-03    -274.024E-03     149.699E-03
            1235     8.88329E-03     182.780E-03    -53.8568E+06    -15.4902E+06     53.5920E+06    -4.72992E+06    -302.203E-03     577.957E-03    -275.754E-03     159.736E-03    -303.607E-03     578.962E-03    -275.385E-03     149.198E-03
            1236     9.55213E-03     182.950E-03    -46.8428E+06     12.3745E+06     65.1075E+06    -6.40978E+06    -307.483E-03     584.803E-03    -277.320E-03     157.596E-03    -309.080E-03     586.093E-03    -276.945E-03     145.307E-03
            1237     10.2165E-03     183.124E-03    -38.5391E+06     55.5499E+06     80.6702E+06    -9.85157E+06    -311.622E-03     590.641E-03    -279.019E-03     152.707E-03    -313.469E-03     592.318E-03    -278.641E-03     138.164E-03
            1238     10.8796E-03     183.295E-03    -28.7976E+06     86.4481E+06     90.7578E+06    -11.5402E+06    -314.924E-03     595.703E-03    -280.779E-03     146.121E-03    -317.048E-03     597.771E-03    -280.408E-03     128.684E-03
            1239     11.5394E-03     183.471E-03    -19.6920E+06     92.7692E+06     98.3474E+06    -9.72834E+06    -317.117E-03     599.704E-03    -282.587E-03     134.899E-03    -319.434E-03     601.997E-03    -282.201E-03     114.522E-03
            1240     12.1935E-03     183.626E-03    -12.1577E+06     90.8096E+06     106.131E+06    -6.59771E+06    -317.942E-03     602.320E-03    -284.378E-03     127.156E-03    -320.725E-03     605.077E-03    -283.961E-03     102.096E-03
            1241     12.8517E-03     183.795E-03    -5.96929E+06     93.5862E+06     112.139E+06    -3.87935E+06    -318.391E-03     604.476E-03    -286.085E-03     98.7974E-03    -320.705E-03     606.778E-03    -285.652E-03     75.1587E-03
            1242     692.347E-06     183.136E-03    -131.345E+06    -210.426E+06    -128.899E+06    -1.88274E+06    -262.104E-03     523.552E-03    -261.448E-03     21.2246E-03    -262.281E-03     522.883E-03    -261.597E-03     20.6290E-03
            1243     1.38444E-03     183.163E-03    -130.078E+06    -201.818E+06    -119.055E+06    -2.39189E+06    -261.674E-03     523.321E-03    -261.647E-03     38.7725E-03    -261.890E-03     522.697E-03    -261.761E-03     37.7422E-03
            1244     2.07765E-03     183.207E-03    -126.958E+06    -187.359E+06    -103.443E+06    -3.60057E+06    -262.236E-03     523.811E-03    -261.575E-03     56.7371E-03    -262.508E-03     523.260E-03    -261.636E-03     55.2863E-03
            1245     2.76983E-03     183.268E-03    -122.816E+06    -171.172E+06    -85.7018E+06    -4.93069E+06    -263.411E-03     525.048E-03    -261.638E-03     74.8222E-03    -263.747E-03     524.582E-03    -261.640E-03     72.9600E-03
            1246     3.46208E-03     183.346E-03    -117.840E+06    -155.269E+06    -66.5446E+06    -4.91746E+06    -264.888E-03     526.704E-03    -261.815E-03     92.1469E-03    -265.295E-03     526.327E-03    -261.752E-03     89.8863E-03
            1247     4.15418E-03     183.438E-03    -112.310E+06    -139.100E+06    -47.2913E+06    -3.95388E+06    -267.002E-03     529.098E-03    -262.096E-03     108.525E-03    -267.484E-03     528.820E-03    -261.968E-03     105.871E-03
            1248     4.84484E-03     183.548E-03    -106.539E+06    -123.286E+06    -29.5659E+06    -2.92906E+06    -270.015E-03     532.535E-03    -262.519E-03     123.914E-03    -270.577E-03     532.361E-03    -262.334E-03     120.841E-03
            1249     5.53470E-03     183.670E-03    -100.263E+06    -107.971E+06    -13.9713E+06    -1.97816E+06    -273.970E-03     537.103E-03    -263.132E-03     137.731E-03    -274.616E-03     537.046E-03    -262.900E-03     134.168E-03
            1250     6.22225E-03     183.808E-03    -92.9927E+06    -91.9984E+06     2.75925E+03    -1.59494E+06    -279.186E-03     543.173E-03    -263.988E-03     149.571E-03    -279.919E-03     543.249E-03    -263.719E-03     145.413E-03
            1251     6.90627E-03     183.957E-03    -84.3986E+06    -72.5925E+06     13.0884E+06    -2.11046E+06    -285.674E-03     550.814E-03    -265.140E-03     158.757E-03    -286.504E-03     551.049E-03    -264.847E-03     153.875E-03
            1252     7.58621E-03     184.119E-03    -75.4385E+06    -53.8377E+06     25.1142E+06    -3.62852E+06    -293.089E-03     559.716E-03    -266.627E-03     164.848E-03    -294.029E-03     560.127E-03    -266.314E-03     159.009E-03
            1253     8.26136E-03     184.290E-03    -65.9892E+06    -33.8948E+06     36.9571E+06    -5.01275E+06    -301.203E-03     569.657E-03    -268.454E-03     167.684E-03    -302.272E-03     570.269E-03    -268.124E-03     160.624E-03
            1254     8.93084E-03     184.469E-03    -56.0561E+06    -9.98104E+06     49.1812E+06    -7.34555E+06    -309.403E-03     580.001E-03    -270.597E-03     167.227E-03    -310.629E-03     580.854E-03    -270.256E-03     158.603E-03
            1255     9.59411E-03     184.654E-03    -45.1198E+06     24.8877E+06     64.7364E+06    -10.8122E+06    -316.664E-03     589.658E-03    -272.995E-03     163.304E-03    -318.085E-03     590.826E-03    -272.642E-03     152.703E-03
            1256     10.2540E-03     184.838E-03    -34.4289E+06     65.9153E+06     80.4388E+06    -13.6721E+06    -322.786E-03     598.338E-03    -275.552E-03     156.493E-03    -324.446E-03     599.882E-03    -275.196E-03     143.403E-03
            1257     10.9073E-03     185.024E-03    -26.2092E+06     86.3042E+06     88.0578E+06    -14.4335E+06    -327.229E-03     605.407E-03    -278.178E-03     147.884E-03    -329.147E-03     607.287E-03    -277.825E-03     131.684E-03
            1258     11.5579E-03     185.203E-03    -19.4251E+06     84.7687E+06     93.9017E+06    -12.3009E+06    -329.236E-03     610.032E-03    -280.796E-03     135.540E-03    -331.366E-03     612.125E-03    -280.421E-03     116.023E-03
            1259     12.2099E-03     185.370E-03    -12.3601E+06     81.9773E+06     101.897E+06    -8.41488E+06    -329.534E-03     612.832E-03    -283.299E-03     127.982E-03    -332.166E-03     615.418E-03    -282.890E-03     103.282E-03
            1260     12.8557E-03     185.537E-03    -5.69193E+06     85.4379E+06     108.873E+06     -4.2133E+06    -328.334E-03     613.931E-03    -285.597E-03     100.423E-03    -330.570E-03     616.135E-03    -285.168E-03     76.7340E-03
            1261     699.169E-06     184.720E-03    -148.375E+06    -214.982E+06    -143.773E+06     4.33991E+06    -251.406E-03     502.215E-03    -250.809E-03     23.4948E-03    -251.636E-03     501.560E-03    -251.001E-03     23.4204E-03
            1262     1.39953E-03     184.747E-03    -147.441E+06    -204.362E+06    -133.157E+06     6.71139E+06    -251.661E-03     502.750E-03    -251.089E-03     42.9400E-03    -251.919E-03     502.135E-03    -251.245E-03     42.8352E-03
            1263     2.09877E-03     184.792E-03    -145.812E+06    -186.145E+06    -117.532E+06     7.97217E+06    -252.803E-03     504.047E-03    -251.244E-03     62.9398E-03    -253.108E-03     503.504E-03    -251.350E-03     62.7779E-03
            1264     2.79831E-03     184.856E-03    -143.733E+06    -168.187E+06    -98.3366E+06      8.0464E+06    -254.518E-03     506.056E-03    -251.538E-03     82.3281E-03    -254.874E-03     505.582E-03    -251.577E-03     82.0803E-03
            1265     3.49714E-03     184.936E-03    -140.258E+06    -151.582E+06    -78.5505E+06     6.53405E+06    -257.015E-03     508.988E-03    -251.973E-03     100.677E-03    -257.419E-03     508.577E-03    -251.943E-03     100.294E-03
            1266     4.19420E-03     185.034E-03    -134.373E+06    -135.489E+06    -59.9471E+06     4.27027E+06    -260.448E-03     513.028E-03    -252.580E-03     117.801E-03    -260.893E-03     512.683E-03    -252.488E-03     117.209E-03
            1267     4.89059E-03     185.148E-03    -125.878E+06    -118.970E+06    -42.6059E+06     1.78236E+06    -264.981E-03     518.383E-03    -253.402E-03     133.006E-03    -265.460E-03     518.114E-03    -253.260E-03     132.133E-03
            1268     5.58406E-03     185.281E-03    -114.801E+06    -103.223E+06    -26.2743E+06    -1.55544E+06    -271.001E-03     525.510E-03    -254.510E-03     145.791E-03    -271.514E-03     525.325E-03    -254.325E-03     144.508E-03
            1269     6.27369E-03     185.428E-03    -102.249E+06    -87.0706E+06    -11.1393E+06    -5.08458E+06    -278.513E-03     534.482E-03    -255.968E-03     156.321E-03    -279.069E-03     534.399E-03    -255.749E-03     154.472E-03
            1270     6.95894E-03     185.593E-03    -89.0970E+06    -67.2771E+06     3.31238E+06    -7.80984E+06    -287.189E-03     545.000E-03    -257.811E-03     164.010E-03    -287.811E-03     545.060E-03    -257.567E-03     161.389E-03
            1271     7.63817E-03     185.771E-03    -75.1046E+06    -47.4898E+06     18.0991E+06    -10.2968E+06    -296.876E-03     556.933E-03    -260.057E-03     168.746E-03    -297.589E-03     557.164E-03    -259.789E-03     165.059E-03
            1272     8.31083E-03     185.962E-03    -61.9610E+06    -27.9793E+06     32.1366E+06    -12.8522E+06    -307.112E-03     569.807E-03    -262.695E-03     170.619E-03    -307.949E-03     570.237E-03    -262.404E-03     165.538E-03
            1273     8.97609E-03     186.162E-03    -49.5173E+06    -2.18241E+06     46.3457E+06    -14.9054E+06    -317.055E-03     582.723E-03    -265.668E-03     169.288E-03    -318.051E-03     583.407E-03    -265.362E-03     162.484E-03
            1274     9.63576E-03     186.364E-03    -39.1901E+06     32.6278E+06     62.6765E+06    -15.7291E+06    -326.217E-03     595.129E-03    -268.913E-03     164.325E-03    -327.423E-03     596.137E-03    -268.590E-03     155.373E-03
            1275     10.2872E-03     186.568E-03    -32.4946E+06     69.4155E+06     77.1162E+06    -14.2780E+06    -333.669E-03     605.992E-03    -272.323E-03     156.533E-03    -335.130E-03     607.366E-03    -271.991E-03     144.972E-03
            1276     10.9350E-03     186.767E-03    -26.5872E+06     87.3814E+06     84.6907E+06    -13.0139E+06    -338.635E-03     614.403E-03    -275.768E-03     147.108E-03    -340.357E-03     616.100E-03    -275.433E-03     132.304E-03
            1277     11.5794E-03     186.956E-03    -20.2584E+06     83.5968E+06     91.4452E+06    -13.5381E+06    -340.642E-03     619.785E-03    -279.143E-03     133.819E-03    -342.586E-03     621.692E-03    -278.777E-03     115.330E-03
            1278     12.2194E-03     187.126E-03    -13.8672E+06     72.6786E+06     98.8031E+06    -12.6905E+06    -339.718E-03     622.021E-03    -282.303E-03     125.529E-03    -342.161E-03     624.387E-03    -281.894E-03     101.393E-03
            1279     12.8645E-03     187.298E-03    -6.68880E+06     69.1900E+06     107.509E+06    -7.12937E+06    -337.165E-03     622.308E-03    -285.143E-03     98.8030E-03    -339.264E-03     624.317E-03    -284.696E-03     75.3412E-03
            1280     709.524E-06     186.268E-03    -220.378E+06    -227.575E+06    -217.606E+06     2.15964E+06    -239.132E-03     477.369E-03    -238.236E-03     25.1354E-03    -239.589E-03     476.853E-03    -238.675E-03     25.5085E-03
            1281     1.41719E-03     186.296E-03    -210.750E+06    -213.751E+06    -197.427E+06     3.94372E+06    -240.459E-03     479.349E-03    -238.890E-03     45.8070E-03    -240.903E-03     478.847E-03    -239.262E-03     46.4851E-03
            1282     2.12502E-03     186.345E-03    -196.693E+06    -192.019E+06    -169.013E+06     5.22113E+06    -242.638E-03     482.160E-03    -239.522E-03     66.8550E-03    -243.064E-03     481.687E-03    -239.804E-03     67.8221E-03
            1283     2.83131E-03     186.411E-03    -179.295E+06    -170.434E+06    -135.926E+06     5.70096E+06    -245.735E-03     486.065E-03    -240.330E-03     86.6147E-03    -246.130E-03     485.605E-03    -240.502E-03     87.8208E-03
            1284     3.53603E-03     186.498E-03    -160.734E+06    -148.476E+06    -104.292E+06     4.57473E+06    -249.949E-03     491.293E-03    -241.344E-03     104.865E-03    -250.307E-03     490.851E-03    -241.417E-03     106.213E-03
            1285     4.23924E-03     186.603E-03    -142.872E+06    -128.746E+06    -77.3204E+06     1.29176E+06    -255.564E-03     498.186E-03    -242.622E-03     121.124E-03    -255.886E-03     497.765E-03    -242.615E-03     122.495E-03
            1286     4.93814E-03     186.728E-03    -125.701E+06    -109.666E+06    -54.7466E+06    -3.61888E+06    -262.650E-03     506.879E-03    -244.229E-03     134.961E-03    -262.945E-03     506.498E-03    -244.162E-03     136.205E-03
            1287     5.63300E-03     186.873E-03    -110.260E+06    -93.1145E+06    -35.7685E+06    -8.31842E+06    -271.126E-03     517.342E-03    -246.216E-03     146.194E-03    -271.415E-03     517.015E-03    -246.100E-03     147.137E-03
            1288     6.32268E-03     187.037E-03    -96.4902E+06    -76.1581E+06    -18.7326E+06    -12.7756E+06    -280.738E-03     529.340E-03    -248.602E-03     154.761E-03    -281.052E-03     529.100E-03    -248.446E-03     155.182E-03
            1289     7.00571E-03     187.220E-03    -84.3512E+06    -57.7078E+06    -3.09748E+06    -16.6439E+06    -291.175E-03     542.557E-03    -251.382E-03     160.527E-03    -291.554E-03     542.446E-03    -251.191E-03     160.147E-03
            1290     7.68244E-03     187.419E-03    -74.3410E+06    -40.5556E+06     10.9929E+06    -19.3821E+06    -302.162E-03     556.698E-03    -254.536E-03     163.723E-03    -302.644E-03     556.747E-03    -254.314E-03     162.228E-03
            1291     8.35140E-03     187.633E-03    -64.7613E+06    -17.7357E+06     25.8979E+06    -23.0192E+06    -313.162E-03     571.185E-03    -258.022E-03     164.421E-03    -313.791E-03     571.452E-03    -257.773E-03     161.433E-03
            1292     9.01382E-03     187.854E-03    -55.7816E+06     6.06120E+06     39.7833E+06    -26.8066E+06    -323.906E-03     585.692E-03    -261.786E-03     162.409E-03    -324.711E-03     586.212E-03    -261.515E-03     157.541E-03
            1293     9.66723E-03     188.082E-03    -44.8529E+06     30.3289E+06     54.5168E+06    -27.2460E+06    -333.641E-03     599.403E-03    -265.762E-03     157.772E-03    -334.646E-03     600.205E-03    -265.468E-03     150.555E-03
            1294     10.3148E-03     188.307E-03    -30.5665E+06     57.6144E+06     69.7865E+06    -22.5004E+06    -341.597E-03     611.442E-03    -269.845E-03     150.607E-03    -342.810E-03     612.555E-03    -269.535E-03     140.659E-03
            1295     10.9564E-03     188.521E-03    -18.2044E+06     78.5144E+06     82.3826E+06    -15.2046E+06    -347.089E-03     621.007E-03    -273.918E-03     141.191E-03    -348.529E-03     622.427E-03    -273.594E-03     128.015E-03
            1296     11.5932E-03     188.725E-03    -10.7160E+06     83.0586E+06      95.022E+06    -9.94685E+06    -349.199E-03     627.076E-03    -277.877E-03     128.152E-03    -350.868E-03     628.729E-03    -277.507E-03     111.242E-03
            1297     12.2312E-03     188.899E-03    -7.96677E+06     70.7148E+06     102.178E+06    -7.34232E+06    -347.680E-03     629.223E-03    -281.543E-03     120.010E-03    -349.848E-03     631.318E-03    -281.123E-03     97.1677E-03
            1298     12.8664E-03     189.069E-03    -5.92935E+06     55.8996E+06     110.426E+06    -5.73037E+06    -343.716E-03     628.523E-03    -284.807E-03     95.5577E-03    -345.636E-03     630.300E-03    -284.327E-03     72.7614E-03
            1299     717.361E-06     187.775E-03    -305.556E+06    -214.432E+06    -300.339E+06    -9.22474E+06    -228.580E-03     456.279E-03    -227.699E-03     22.6491E-03    -229.355E-03     456.073E-03    -228.447E-03     23.1564E-03
            1300     1.43457E-03     187.808E-03    -291.917E+06    -201.669E+06    -279.291E+06    -16.9810E+06    -230.555E-03     459.037E-03    -228.482E-03     41.4155E-03    -231.291E-03     458.825E-03    -229.163E-03     42.3187E-03
            1301     2.14933E-03     187.861E-03    -272.368E+06    -182.352E+06    -246.884E+06    -23.3774E+06    -233.902E-03     463.383E-03    -229.481E-03     60.6480E-03    -234.583E-03     463.161E-03    -230.056E-03     61.9843E-03
            1302     2.86217E-03     187.936E-03    -247.502E+06    -161.844E+06    -208.848E+06    -28.9840E+06    -238.625E-03     469.453E-03    -230.828E-03     78.6597E-03    -239.227E-03     469.204E-03    -231.278E-03     80.4188E-03
            1303     3.57195E-03     188.032E-03    -219.323E+06    -140.693E+06    -170.162E+06    -33.5113E+06    -244.965E-03     477.516E-03    -232.552E-03     94.9783E-03    -245.470E-03     477.237E-03    -232.880E-03     97.1245E-03
            1304     4.27678E-03     188.150E-03    -189.957E+06    -119.947E+06    -133.078E+06    -36.7802E+06    -252.897E-03     487.590E-03    -234.693E-03     109.080E-03    -253.302E-03     487.283E-03    -234.909E-03     111.544E-03
            1305     4.97714E-03     188.291E-03    -162.397E+06    -101.492E+06    -99.2744E+06    -39.1094E+06    -262.232E-03     499.500E-03    -237.269E-03     120.776E-03    -262.550E-03     499.173E-03    -237.382E-03     123.435E-03
            1306     5.67109E-03     188.453E-03    -137.118E+06    -87.8611E+06    -69.5767E+06    -40.2386E+06    -272.749E-03     513.022E-03    -240.273E-03     130.090E-03    -273.001E-03     512.682E-03    -240.294E-03     132.730E-03
            1307     6.35777E-03     188.638E-03    -113.874E+06    -70.6739E+06    -42.8869E+06    -40.2229E+06    -283.955E-03     527.623E-03    -243.668E-03     136.716E-03    -284.178E-03     527.321E-03    -243.615E-03     139.085E-03
            1308     7.03794E-03     188.842E-03    -92.7081E+06    -56.6143E+06    -18.7566E+06    -39.1400E+06    -295.451E-03     542.866E-03    -247.416E-03     140.905E-03    -295.678E-03     542.624E-03    -247.293E-03     142.677E-03
            1309     7.70966E-03     189.065E-03    -73.0865E+06    -40.5763E+06     3.38375E+06    -36.8698E+06    -306.827E-03     558.273E-03    -251.446E-03     142.885E-03    -307.100E-03     558.139E-03    -251.264E-03     143.680E-03
            1310     8.37490E-03     189.300E-03    -55.7762E+06    -13.6956E+06     24.4227E+06    -33.8513E+06    -317.672E-03     573.354E-03    -255.682E-03     142.627E-03    -318.045E-03     573.415E-03    -255.459E-03     142.059E-03
            1311     9.03163E-03     189.550E-03    -41.5429E+06     12.9576E+06     44.0604E+06    -31.6327E+06    -327.335E-03     587.387E-03    -260.051E-03     141.180E-03    -327.854E-03     587.682E-03    -259.789E-03     138.742E-03
            1312     9.68264E-03     189.800E-03    -30.7494E+06     34.6034E+06     59.0610E+06    -32.2565E+06    -335.879E-03     600.335E-03    -264.456E-03     138.819E-03    -336.573E-03     600.876E-03    -264.166E-03     134.053E-03
            1313     10.3277E-03     190.047E-03    -24.5047E+06     38.7734E+06     67.5308E+06    -29.5681E+06    -343.528E-03     612.377E-03    -268.849E-03     134.760E-03    -344.411E-03     613.120E-03    -268.532E-03     127.206E-03
            1314     10.9662E-03     190.285E-03    -20.8494E+06     55.0705E+06     81.0354E+06    -19.3144E+06    -349.034E-03     622.211E-03    -273.177E-03     128.569E-03    -350.173E-03     623.240E-03    -272.821E-03     117.758E-03
            1315     11.6027E-03     190.498E-03    -15.5419E+06     72.3666E+06     95.5561E+06    -11.0146E+06    -351.767E-03     629.097E-03    -277.330E-03     118.634E-03    -353.167E-03     630.425E-03    -276.935E-03     104.016E-03
            1316     12.2348E-03     190.684E-03    -7.64712E+06     60.3189E+06     103.099E+06    -5.54051E+06    -350.992E-03     632.183E-03    -281.191E-03     111.064E-03    -352.826E-03     633.906E-03    -280.752E-03     90.2991E-03
            1317     12.8714E-03     190.848E-03    -906.375E+03     48.2727E+06     119.087E+06     710.470E+03    -346.272E-03     630.929E-03    -284.658E-03     89.4256E-03    -347.948E-03     632.429E-03    -284.131E-03     67.9816E-03
            1318     720.704E-06     189.259E-03    -279.980E+06    -166.618E+06    -276.144E+06    -16.2423E+06    -226.248E-03     451.496E-03    -225.248E-03     14.2328E-03    -227.003E-03     451.462E-03    -225.981E-03     14.5757E-03
            1319     1.44011E-03     189.295E-03    -272.364E+06    -155.206E+06    -258.308E+06    -30.1649E+06    -228.243E-03     454.491E-03    -226.249E-03     24.6644E-03    -228.992E-03     454.466E-03    -226.920E-03     25.3039E-03
            1320     2.15830E-03     189.356E-03    -259.681E+06    -140.473E+06    -233.428E+06    -44.0829E+06    -231.828E-03     459.307E-03    -227.479E-03     35.8056E-03    -232.556E-03     459.285E-03    -228.066E-03     36.7295E-03
            1321     2.87314E-03     189.439E-03    -242.761E+06    -125.341E+06    -204.173E+06    -56.2214E+06    -237.174E-03     466.372E-03    -229.197E-03     46.1216E-03    -237.861E-03     466.338E-03    -229.684E-03     47.3932E-03
            1322     3.58348E-03     189.548E-03    -222.977E+06    -110.560E+06    -173.722E+06    -66.2369E+06    -244.134E-03     475.573E-03    -231.439E-03     55.3615E-03    -244.764E-03     475.518E-03    -231.824E-03     57.0229E-03
            1323     4.28862E-03     189.683E-03    -201.258E+06    -97.4005E+06    -143.840E+06    -73.3820E+06    -252.429E-03     486.611E-03    -234.182E-03     63.2943E-03    -252.992E-03     486.527E-03    -234.468E-03     65.3650E-03
            1324     4.98674E-03     189.842E-03    -178.215E+06    -86.5353E+06    -114.447E+06    -77.1808E+06    -261.810E-03     499.196E-03    -237.386E-03     69.8890E-03    -262.299E-03     499.076E-03    -237.575E-03     72.3743E-03
            1325     5.67762E-03     190.026E-03    -154.777E+06    -79.1129E+06    -86.8885E+06    -79.1901E+06    -271.913E-03     512.902E-03    -240.989E-03     75.4167E-03    -272.328E-03     512.739E-03    -241.084E-03     78.2352E-03
            1326     6.36131E-03     190.233E-03    -131.955E+06    -69.2097E+06    -61.8693E+06    -79.1836E+06    -282.420E-03     527.327E-03    -244.906E-03     80.1076E-03    -282.777E-03     527.151E-03    -244.924E-03     83.1042E-03
            1327     7.03599E-03     190.462E-03    -110.256E+06    -62.0388E+06    -38.8555E+06    -77.1089E+06    -292.989E-03     542.059E-03    -249.070E-03     84.1745E-03    -293.299E-03     541.875E-03    -249.015E-03     87.1267E-03
            1328     7.70435E-03     190.707E-03    -90.5418E+06    -51.8661E+06    -17.5633E+06    -73.2406E+06    -303.205E-03     556.592E-03    -253.387E-03     87.9968E-03    -303.492E-03     556.431E-03    -253.268E-03     90.6417E-03
            1329     8.36402E-03     190.970E-03    -72.9308E+06    -32.1008E+06     4.50468E+06    -66.4861E+06    -312.406E-03     570.157E-03    -257.751E-03     92.0473E-03    -312.711E-03     570.084E-03    -257.576E-03     93.9834E-03
            1330     9.01887E-03     191.237E-03    -57.2383E+06    -6.17725E+06     28.8013E+06    -56.6513E+06    -320.756E-03     582.838E-03    -262.082E-03     96.0443E-03    -321.124E-03     582.905E-03    -261.846E-03     96.7943E-03
            1331     9.66984E-03     191.509E-03    -46.7244E+06     20.5606E+06     53.8924E+06    -44.5565E+06    -328.451E-03     594.795E-03    -266.344E-03     98.7853E-03    -328.937E-03     595.039E-03    -266.037E-03     97.7837E-03
            1332     10.3152E-03     191.781E-03    -40.3943E+06     20.8310E+06     74.6811E+06    -32.4808E+06    -334.877E-03     605.393E-03    -270.515E-03     100.110E-03    -335.505E-03     605.741E-03    -270.114E-03     96.4609E-03
            1333     10.9587E-03     192.035E-03    -33.0216E+06     29.5996E+06     90.6730E+06    -23.4779E+06    -339.902E-03     614.392E-03    -274.490E-03     99.7426E-03    -340.730E-03     614.951E-03    -274.031E-03     92.4847E-03
            1334     11.5969E-03     192.271E-03    -24.4057E+06     52.7895E+06     98.3906E+06    -15.0142E+06    -343.014E-03     621.208E-03    -278.194E-03     96.7314E-03    -344.098E-03     622.112E-03    -277.743E-03     85.0632E-03
            1335     12.2340E-03     192.466E-03    -19.0189E+06     43.6907E+06     103.885E+06    -7.44809E+06    -343.553E-03     625.216E-03    -281.663E-03     95.4321E-03    -345.014E-03     626.466E-03    -281.179E-03     78.0149E-03
            1336     12.8681E-03     192.630E-03    -12.1533E+06     37.6955E+06     123.175E+06    -3.74251E+06    -340.706E-03     625.528E-03    -284.822E-03     79.4310E-03    -342.062E-03     626.617E-03    -284.243E-03     61.5271E-03
            1337     713.230E-06     190.752E-03    -168.407E+06    -103.515E+06    -163.111E+06    -17.4478E+06    -241.315E-03     480.318E-03    -239.003E-03    -6.10714E-03    -241.805E-03     480.242E-03    -239.424E-03    -6.26166E-03
            1338     1.42466E-03     190.793E-03    -159.602E+06    -93.5859E+06    -148.117E+06    -30.5922E+06    -241.480E-03     482.431E-03    -240.952E-03    -11.7699E-03    -241.955E-03     482.368E-03    -241.325E-03    -12.0303E-03
            1339     2.13368E-03     190.858E-03    -149.163E+06    -82.3223E+06    -126.095E+06    -43.7759E+06    -244.173E-03     486.515E-03    -242.342E-03    -17.5396E-03    -244.638E-03     486.453E-03    -242.637E-03    -17.9512E-03
            1340     2.83937E-03     190.952E-03    -137.074E+06    -73.4789E+06    -103.158E+06    -54.9881E+06    -247.777E-03     492.118E-03    -244.341E-03    -24.1390E-03    -248.218E-03     492.040E-03    -244.551E-03    -24.6265E-03
            1341     3.54017E-03     191.073E-03    -125.036E+06    -65.0162E+06    -82.0087E+06    -63.5312E+06    -251.916E-03     498.762E-03    -246.846E-03    -31.3208E-03    -252.332E-03     498.672E-03    -246.980E-03    -31.7765E-03
            1342     4.23549E-03     191.221E-03    -114.514E+06    -58.8969E+06    -63.4215E+06    -70.0166E+06    -256.229E-03     505.982E-03    -249.753E-03    -38.3589E-03    -256.620E-03     505.878E-03    -249.818E-03    -38.6973E-03
            1343     4.92495E-03     191.396E-03    -105.318E+06    -54.9072E+06    -47.4405E+06    -74.7407E+06    -260.463E-03     513.410E-03    -252.947E-03    -44.3006E-03    -260.835E-03     513.296E-03    -252.952E-03    -44.4165E-03
            1344     5.60855E-03     191.596E-03    -97.3604E+06    -52.1411E+06    -33.3305E+06    -77.7831E+06    -264.611E-03     520.933E-03    -256.322E-03    -48.2414E-03    -264.974E-03     520.820E-03    -256.272E-03    -48.0139E-03
            1345     6.28565E-03     191.822E-03    -90.9266E+06    -50.1624E+06    -20.8602E+06    -79.3393E+06    -268.684E-03     528.465E-03    -259.781E-03    -49.6950E-03    -269.051E-03     528.363E-03    -259.681E-03    -49.0638E-03
            1346     6.95870E-03     192.068E-03    -86.3229E+06    -48.2365E+06    -9.53931E+06    -79.4235E+06    -272.767E-03     536.002E-03    -263.235E-03    -48.0797E-03    -273.150E-03     535.922E-03    -263.088E-03    -47.0292E-03
            1347     7.62513E-03     192.335E-03    -83.2381E+06    -45.4423E+06     1.57543E+06    -78.3795E+06    -276.609E-03     543.189E-03    -266.580E-03    -42.6793E-03    -277.007E-03     543.128E-03    -266.386E-03    -41.3417E-03
            1348     8.28973E-03     192.614E-03    -79.6411E+06    -38.2262E+06     15.2652E+06    -76.0300E+06    -280.570E-03     550.303E-03    -269.732E-03    -33.9099E-03    -280.992E-03     550.273E-03    -269.485E-03    -32.4689E-03
            1349     8.95165E-03     192.902E-03    -75.0317E+06    -26.2594E+06     31.2737E+06    -70.2660E+06    -285.405E-03     558.070E-03    -272.665E-03    -21.8810E-03    -285.859E-03     558.100E-03    -272.362E-03    -20.4783E-03
            1350     9.60656E-03     193.198E-03    -66.6391E+06    -12.1615E+06     52.4619E+06    -58.7893E+06    -290.258E-03     565.606E-03    -275.348E-03    -5.71635E-03    -290.739E-03     565.696E-03    -274.971E-03    -4.80922E-03
            1351     10.2607E-03     193.482E-03    -53.0792E+06    -7.28178E+06     76.3621E+06    -45.2337E+06    -295.477E-03     573.199E-03    -277.722E-03     15.6019E-03    -295.968E-03     573.299E-03    -277.252E-03     15.5126E-03
            1352     10.9106E-03     193.761E-03    -38.3782E+06     4.25170E+06     95.0647E+06    -33.7844E+06    -301.435E-03     581.181E-03    -279.746E-03     40.3197E-03    -301.957E-03     581.346E-03    -279.221E-03     38.4887E-03
            1353     11.5612E-03     194.008E-03    -26.5077E+06     24.7419E+06     107.949E+06    -23.1796E+06    -308.550E-03     590.081E-03    -281.531E-03     63.8042E-03    -309.173E-03     590.409E-03    -280.989E-03     59.1446E-03
            1354     12.2120E-03     194.219E-03    -12.6243E+06     24.2248E+06     121.491E+06    -12.4718E+06    -317.997E-03     601.361E-03    -283.364E-03     81.8571E-03    -318.828E-03     601.891E-03    -282.773E-03     72.7627E-03
            1355     12.8648E-03     194.392E-03     1.95129E+06     25.7299E+06     136.732E+06    -4.75663E+06    -325.228E-03     610.586E-03    -285.358E-03     72.5015E-03    -325.979E-03     611.041E-03    -284.714E-03     62.8445E-03
            1356     683.726E-06     192.322E-03    -37.3408E+06    -44.1083E+06    -33.8789E+06    -12.1906E+06    -284.200E-03     569.519E-03    -285.318E-03    -43.7086E-03    -284.438E-03     569.174E-03    -285.370E-03    -44.7634E-03
            1357     1.36889E-03     192.365E-03    -35.0389E+06    -38.8210E+06    -25.2863E+06    -21.4608E+06    -283.090E-03     569.364E-03    -286.274E-03    -78.5049E-03    -283.294E-03     568.962E-03    -286.293E-03    -80.3272E-03
            1358     2.05070E-03     192.436E-03    -32.2917E+06    -33.1201E+06    -11.8292E+06    -28.7746E+06    -281.267E-03     568.949E-03    -287.682E-03    -115.820E-03    -281.401E-03     568.485E-03    -287.646E-03    -118.208E-03
            1359     2.72806E-03     192.535E-03    -29.7285E+06    -29.5396E+06     3.49204E+06    -34.0855E+06    -278.185E-03     567.696E-03    -289.511E-03    -151.551E-03    -278.234E-03     567.150E-03    -289.407E-03    -154.386E-03
            1360     3.40151E-03     192.661E-03    -27.6480E+06    -25.8299E+06     17.6789E+06    -37.8547E+06    -273.604E-03     565.168E-03    -291.564E-03    -184.343E-03    -273.563E-03     564.547E-03    -291.398E-03    -187.493E-03
            1361     4.07030E-03     192.814E-03    -26.0971E+06    -23.3113E+06     30.4829E+06    -39.9906E+06    -267.562E-03     561.245E-03    -293.683E-03    -212.837E-03    -267.438E-03     560.561E-03    -293.459E-03    -216.155E-03
            1362     4.73604E-03     192.990E-03    -25.4564E+06    -21.8636E+06     41.7700E+06    -41.0310E+06    -260.203E-03     555.940E-03    -295.737E-03    -236.310E-03    -260.024E-03     555.217E-03    -295.460E-03    -239.617E-03
            1363     5.39909E-03     193.193E-03    -25.3645E+06    -21.2949E+06     52.1301E+06    -41.2381E+06    -251.773E-03     549.391E-03    -297.618E-03    -253.942E-03    -251.575E-03     548.663E-03    -297.289E-03    -257.045E-03
            1364     6.06155E-03     193.417E-03    -25.8159E+06    -21.2770E+06     61.9585E+06    -40.6862E+06    -242.648E-03     541.874E-03    -299.226E-03    -265.185E-03    -242.463E-03     541.178E-03    -298.848E-03    -267.938E-03
            1365     6.72237E-03     193.665E-03    -26.4032E+06    -21.3164E+06     71.5725E+06    -39.5418E+06    -233.079E-03     533.525E-03    -300.446E-03    -269.295E-03    -232.925E-03     532.878E-03    -300.019E-03    -271.642E-03
            1366     7.38662E-03     193.929E-03    -25.6591E+06    -20.2576E+06     81.8872E+06    -38.5934E+06    -223.898E-03     525.085E-03    -301.187E-03    -266.447E-03    -223.793E-03     524.507E-03    -300.711E-03    -268.406E-03
            1367     8.05333E-03     194.207E-03    -24.8873E+06    -17.7182E+06     91.6439E+06    -37.3250E+06    -216.201E-03     517.623E-03    -301.421E-03    -256.719E-03    -216.161E-03     517.144E-03    -300.901E-03    -258.257E-03
            1368     8.72067E-03     194.501E-03    -24.2227E+06    -14.8637E+06     99.6244E+06    -35.4220E+06    -209.272E-03     510.329E-03    -301.057E-03    -238.357E-03    -209.287E-03     509.947E-03    -300.502E-03    -239.463E-03
            1369     9.39947E-03     194.796E-03    -23.5526E+06    -13.8704E+06     105.110E+06    -33.5047E+06    -203.856E-03     503.831E-03    -299.975E-03    -210.834E-03    -203.918E-03     503.520E-03    -299.395E-03    -211.569E-03
            1370     10.0869E-03     195.094E-03    -23.5521E+06    -13.6595E+06     109.042E+06    -31.9859E+06    -201.417E-03     499.624E-03    -298.207E-03    -175.865E-03    -201.500E-03     499.344E-03    -297.608E-03    -176.267E-03
            1371     10.7857E-03     195.383E-03    -22.5548E+06    -11.3073E+06     113.494E+06    -27.0952E+06    -203.106E-03     499.038E-03    -295.932E-03    -136.719E-03    -203.166E-03     498.739E-03    -295.316E-03    -137.026E-03
            1372     11.4903E-03     195.655E-03    -17.7419E+06     6.91501E+06     127.914E+06    -22.7750E+06    -212.642E-03     506.198E-03    -293.556E-03    -96.8243E-03    -212.707E-03     505.948E-03    -292.900E-03    -97.6541E-03
            1373     12.1858E-03     195.906E-03    -7.90809E+06     5.47633E+06     134.200E+06    -14.8489E+06    -228.639E-03     520.032E-03    -291.394E-03    -53.5127E-03    -228.761E-03     519.879E-03    -290.719E-03    -56.2510E-03
            1374     12.8567E-03     196.122E-03     360.526E+03     6.06224E+06     118.986E+06    -2.99855E+06    -242.311E-03     531.612E-03    -289.301E-03    -12.6305E-03    -242.481E-03     531.570E-03    -288.715E-03    -15.3237E-03
            1375     12.7955E-03     97.5768E-03    -5.24306E+06     73.5230E+06     93.9600E+06    -597.252E+03    -289.445E-03     579.813E-03    -290.368E-03     87.5963E-03    -291.966E-03     582.304E-03    -289.997E-03     62.9217E-03
            1376     12.1225E-03     97.4198E-03    -10.8930E+06     67.9795E+06     93.1082E+06    -793.725E+03    -290.077E-03     580.477E-03    -290.400E-03     117.240E-03    -293.430E-03     583.763E-03    -290.017E-03     88.9973E-03
            1377     11.4464E-03     97.2550E-03    -16.7365E+06     60.1858E+06     90.5949E+06    -237.434E+03    -290.851E-03     581.285E-03    -290.434E-03     122.388E-03    -294.059E-03     584.385E-03    -290.044E-03     95.6648E-03
            1378     10.7743E-03     97.0704E-03    -21.5969E+06     54.7387E+06     87.2086E+06     349.669E+03    -291.703E-03     582.159E-03    -290.456E-03     129.720E-03    -294.997E-03     585.317E-03    -290.068E-03     103.235E-03
            1379     10.1011E-03     96.8757E-03    -27.5322E+06     47.4029E+06     76.9532E+06     536.494E+03    -292.230E-03     582.673E-03    -290.443E-03     132.069E-03    -295.397E-03     585.687E-03    -290.087E-03     106.719E-03
            1380     9.42783E-03     96.6777E-03    -36.2188E+06     36.2451E+06     63.9093E+06     670.560E+03    -292.404E-03     582.835E-03    -290.431E-03     132.144E-03    -295.403E-03     585.649E-03    -290.112E-03     108.041E-03
            1381     8.75300E-03     96.4806E-03    -44.9252E+06     25.0499E+06     53.5065E+06    -59.3107E+03    -292.377E-03     582.824E-03    -290.447E-03     129.990E-03    -295.177E-03     585.399E-03    -290.151E-03     107.212E-03
            1382     8.07934E-03     96.2876E-03    -52.6429E+06     16.0279E+06     46.0698E+06     39.3220E+03    -292.411E-03     582.892E-03    -290.481E-03     125.932E-03    -295.002E-03     585.220E-03    -290.198E-03     104.467E-03
            1383     7.40609E-03     96.1005E-03    -60.6020E+06    -4.37363E+06     36.1079E+06     1.11788E+06    -292.488E-03     582.999E-03    -290.511E-03     120.752E-03    -294.854E-03     585.030E-03    -290.236E-03     100.571E-03
            1384     6.73251E-03     95.9205E-03    -69.3514E+06    -40.0087E+06     20.7111E+06     1.23478E+06    -292.409E-03     582.936E-03    -290.527E-03     114.740E-03    -294.528E-03     584.607E-03    -290.264E-03     95.8382E-03
            1385     6.05933E-03     95.7500E-03    -78.3955E+06    -74.9549E+06     3.91064E+06     784.476E+03    -292.166E-03     582.699E-03    -290.532E-03     107.772E-03    -294.036E-03     584.013E-03    -290.290E-03     90.1795E-03
            1386     5.38586E-03     95.5912E-03    -87.5063E+06    -104.644E+06    -13.3854E+06     529.652E+03    -291.820E-03     582.355E-03    -290.536E-03     99.8282E-03    -293.441E-03     583.333E-03    -290.324E-03     83.6429E-03
            1387     4.71218E-03     95.4452E-03    -96.7658E+06    -134.100E+06    -31.6043E+06     408.845E+03    -291.503E-03     582.047E-03    -290.544E-03     90.5848E-03    -292.867E-03     582.683E-03    -290.367E-03     75.9293E-03
            1388     4.03888E-03     95.3147E-03    -106.242E+06    -160.338E+06    -51.1611E+06     454.993E+03    -291.306E-03     581.846E-03    -290.540E-03     80.2423E-03    -292.414E-03     582.157E-03    -290.410E-03     67.2717E-03
            1389     3.36569E-03     95.1998E-03    -115.278E+06    -182.774E+06    -71.6868E+06     405.247E+03    -291.090E-03     581.605E-03    -290.515E-03     68.8570E-03    -291.953E-03     581.618E-03    -290.441E-03     57.7198E-03
            1390     2.69256E-03     95.1043E-03    -123.415E+06    -205.739E+06    -92.0914E+06     245.410E+03    -290.821E-03     581.307E-03    -290.486E-03     56.3762E-03    -291.453E-03     581.037E-03    -290.469E-03     47.2085E-03
            1391     2.01909E-03     95.0287E-03    -130.396E+06    -226.168E+06    -111.134E+06     136.137E+03    -290.748E-03     581.186E-03    -290.438E-03     43.2619E-03    -291.179E-03     580.673E-03    -290.477E-03     36.2019E-03
            1392     1.34644E-03     94.9729E-03    -135.973E+06    -242.775E+06    -126.986E+06    -63.7155E+03    -290.695E-03     581.017E-03    -290.322E-03     29.5726E-03    -290.968E-03     580.314E-03    -290.408E-03     24.7296E-03
            1393     673.515E-06     94.9381E-03    -140.827E+06    -254.423E+06    -136.885E+06    -73.0556E+03    -290.006E-03     580.504E-03    -290.498E-03     15.9457E-03    -290.185E-03     579.678E-03    -290.610E-03     13.2954E-03
            1394     12.7948E-03     95.8842E-03    -4.36915E+06     75.2510E+06     94.4047E+06    -106.866E+03    -289.268E-03     579.643E-03    -290.375E-03     87.1695E-03    -291.780E-03     582.133E-03    -290.006E-03     62.5229E-03
            1395     12.1202E-03     95.7250E-03    -10.9588E+06     67.5844E+06     92.5453E+06    -1.27306E+06    -290.259E-03     580.663E-03    -290.404E-03     116.319E-03    -293.596E-03     583.933E-03    -290.024E-03     88.0568E-03
            1396     11.4494E-03     95.5618E-03    -16.6150E+06     58.9084E+06     89.6146E+06    -1.49062E+06    -291.138E-03     581.560E-03    -290.422E-03     122.096E-03    -294.342E-03     584.654E-03    -290.035E-03     95.2997E-03
            1397     10.7748E-03     95.3758E-03    -23.6351E+06     52.8739E+06     85.3662E+06    -1.04287E+06    -291.633E-03     582.070E-03    -290.437E-03     130.397E-03    -294.945E-03     585.238E-03    -290.052E-03     103.870E-03
            1398     10.1009E-03     95.1825E-03    -31.3842E+06     45.0593E+06     75.5006E+06     223.302E+03    -291.945E-03     582.389E-03    -290.445E-03     133.158E-03    -295.135E-03     585.410E-03    -290.087E-03     107.859E-03
            1399     9.42643E-03     94.9845E-03    -37.6415E+06     36.2802E+06     64.7013E+06     1.27422E+06    -292.270E-03     582.728E-03    -290.458E-03     132.834E-03    -295.283E-03     585.549E-03    -290.132E-03     108.779E-03
            1400     8.75336E-03     94.7879E-03    -44.7990E+06     27.1197E+06     54.4167E+06     1.23280E+06    -292.536E-03     583.008E-03    -290.471E-03     129.841E-03    -295.339E-03     585.590E-03    -290.174E-03     107.067E-03
            1401     8.07959E-03     94.5939E-03    -53.6499E+06     16.6816E+06     45.0821E+06     23.0413E+03    -292.582E-03     583.068E-03    -290.485E-03     125.597E-03    -295.173E-03     585.396E-03    -290.206E-03     104.128E-03
            1402     7.40594E-03     94.4063E-03    -62.3979E+06    -5.87706E+06     34.3755E+06    -671.703E+03    -292.518E-03     583.024E-03    -290.506E-03     120.662E-03    -294.888E-03     585.052E-03    -290.235E-03     100.458E-03
            1403     6.73280E-03     94.2266E-03    -70.5936E+06    -40.5581E+06     19.7511E+06    -151.677E+03    -292.365E-03     582.888E-03    -290.523E-03     114.851E-03    -294.490E-03     584.561E-03    -290.263E-03     95.9300E-03
            1404     6.05908E-03     94.0565E-03    -79.0127E+06    -74.8483E+06     3.29176E+06     213.301E+03    -292.131E-03     582.664E-03    -290.533E-03     107.898E-03    -294.005E-03     583.983E-03    -290.294E-03     90.2875E-03
            1405     5.38561E-03     93.8977E-03    -88.0593E+06    -104.480E+06    -13.9472E+06     295.875E+03    -291.865E-03     582.400E-03    -290.535E-03     99.7134E-03    -293.489E-03     583.381E-03    -290.326E-03     83.4999E-03
            1406     4.71240E-03     93.7520E-03    -97.3760E+06    -134.052E+06    -32.2609E+06     428.310E+03    -291.614E-03     582.145E-03    -290.531E-03     90.4410E-03    -292.979E-03     582.782E-03    -290.356E-03     75.7794E-03
            1407     4.03909E-03     93.6209E-03    -106.579E+06    -160.085E+06    -51.6533E+06     388.206E+03    -291.357E-03     581.867E-03    -290.510E-03     80.1041E-03    -292.466E-03     582.179E-03    -290.382E-03     67.1306E-03
            1408     3.36577E-03     93.5065E-03    -115.414E+06    -182.321E+06    -71.8879E+06     294.411E+03    -291.003E-03     581.485E-03    -290.482E-03     68.5589E-03    -291.865E-03     581.499E-03    -290.410E-03     57.4200E-03
            1409     2.69226E-03     93.4109E-03    -123.777E+06     -205.51E+06    -92.4662E+06     100.888E+03    -290.775E-03     581.232E-03    -290.457E-03     56.0448E-03    -291.407E-03     580.963E-03    -290.442E-03     46.8756E-03
            1410     2.01941E-03     93.3348E-03    -131.119E+06    -226.010E+06    -111.544E+06     98.7872E+03    -290.663E-03     581.083E-03    -290.420E-03     43.0876E-03    -291.095E-03     580.571E-03    -290.460E-03     36.0465E-03
            1411     1.34631E-03     93.2786E-03    -136.702E+06    -242.510E+06    -127.045E+06     167.165E+03    -290.477E-03     580.862E-03    -290.385E-03     29.6011E-03    -290.754E-03     580.162E-03    -290.471E-03     24.7410E-03
            1412     673.030E-06     93.2463E-03    -139.458E+06    -253.466E+06    -138.307E+06     240.106E+03    -290.455E-03     580.765E-03    -290.311E-03     16.0505E-03    -290.627E-03     579.944E-03    -290.432E-03     13.3722E-03
            1413     12.7957E-03     94.1907E-03    -4.79863E+06     75.9229E+06     94.9246E+06     138.355E+03    -289.389E-03     579.753E-03    -290.364E-03     86.7344E-03    -291.904E-03     582.245E-03    -289.992E-03     62.0371E-03
            1414     12.1232E-03     94.0315E-03    -10.5056E+06     70.3762E+06     93.7252E+06     313.212E+03    -289.907E-03     580.306E-03    -290.399E-03     116.811E-03    -293.246E-03     583.585E-03    -290.017E-03     88.6667E-03
            1415     11.4471E-03     93.8672E-03    -17.7872E+06     58.1350E+06     88.8809E+06     51.0694E+03    -290.719E-03     581.159E-03    -290.441E-03     123.174E-03    -293.934E-03     584.260E-03    -290.055E-03     96.4927E-03
            1416     10.7740E-03     93.6831E-03    -24.9071E+06     51.6735E+06     84.1757E+06     448.985E+03    -291.489E-03     581.968E-03    -290.478E-03     131.208E-03    -294.815E-03     585.144E-03    -290.096E-03     104.723E-03
            1417     10.0999E-03     93.4894E-03    -32.1176E+06     45.5625E+06     74.4346E+06    -275.477E+03    -292.145E-03     582.631E-03    -290.486E-03     133.208E-03    -295.345E-03     585.663E-03    -290.133E-03     107.841E-03
            1418     9.42665E-03     93.2912E-03    -39.6069E+06     34.6636E+06     62.3966E+06    -1.18621E+06    -292.619E-03     583.098E-03    -290.480E-03     132.500E-03    -295.635E-03     585.916E-03    -290.160E-03     108.359E-03
            1419     8.75281E-03     93.0929E-03    -45.8378E+06     25.7939E+06     53.4832E+06    -943.303E+03    -292.777E-03     583.253E-03    -290.475E-03     129.676E-03    -295.579E-03     585.828E-03    -290.179E-03     106.856E-03
            1420     8.07977E-03     92.9004E-03     -51.867E+06     18.1429E+06     46.4955E+06    -15.5971E+03    -292.663E-03     583.143E-03    -290.480E-03     125.640E-03    -295.251E-03     585.476E-03    -290.198E-03     104.154E-03
            1421     7.40626E-03     92.7126E-03    -59.9737E+06    -5.24920E+06     35.3281E+06     297.761E+03    -292.452E-03     582.949E-03    -290.498E-03     120.644E-03    -294.811E-03     584.975E-03    -290.226E-03     100.462E-03
            1422     6.73233E-03     92.5330E-03    -69.6245E+06    -41.6131E+06     19.3589E+06     40.1253E+03    -292.327E-03     582.844E-03    -290.517E-03     114.645E-03    -294.443E-03     584.509E-03    -290.259E-03     95.7246E-03
            1423     6.05909E-03     92.3628E-03    -79.2172E+06    -75.1301E+06     2.67129E+06     127.589E+03    -292.179E-03     582.703E-03    -290.523E-03     107.578E-03    -294.051E-03     584.019E-03    -290.286E-03     89.9562E-03
            1424     5.38588E-03     92.2039E-03    -88.5610E+06    -104.555E+06    -14.6059E+06     182.218E+03    -291.950E-03     582.463E-03    -290.513E-03     99.4386E-03    -293.573E-03     583.443E-03    -290.306E-03     83.2227E-03
            1425     4.71246E-03     92.0585E-03    -97.8323E+06    -134.126E+06    -32.7814E+06     155.125E+03    -291.673E-03     582.166E-03    -290.493E-03     90.3042E-03    -293.039E-03     582.804E-03    -290.321E-03     75.6269E-03
            1426     4.03926E-03     91.9270E-03    -107.003E+06    -160.011E+06    -51.8987E+06     226.806E+03    -291.298E-03     581.765E-03    -290.467E-03     80.0500E-03    -292.410E-03     582.079E-03    -290.339E-03     67.0633E-03
            1427     3.36607E-03     91.8134E-03    -116.008E+06    -182.097E+06    -72.2330E+06     195.799E+03    -291.004E-03     581.438E-03    -290.434E-03     68.6643E-03    -291.870E-03     581.456E-03    -290.363E-03     57.5183E-03
            1428     2.69303E-03     91.7175E-03    -124.219E+06    -205.048E+06    -92.5902E+06     178.019E+03    -290.843E-03     581.232E-03    -290.389E-03     56.2362E-03    -291.478E-03     580.967E-03    -290.375E-03     47.0795E-03
            1429     2.01960E-03     91.6414E-03    -131.481E+06    -225.720E+06    -111.818E+06     197.909E+03    -290.529E-03     580.873E-03    -290.345E-03     42.8502E-03    -290.961E-03     580.362E-03    -290.386E-03     35.8294E-03
            1430     1.34596E-03     91.5864E-03    -137.177E+06    -242.526E+06    -127.706E+06    -64.4946E+03    -290.249E-03     580.617E-03    -290.368E-03     29.1967E-03    -290.526E-03     579.916E-03    -290.456E-03     24.3573E-03
            1431     672.792E-06     91.5514E-03    -141.022E+06    -253.334E+06    -137.570E+06    -205.375E+03    -290.579E-03     580.833E-03    -290.254E-03     15.9907E-03    -290.761E-03     580.014E-03    -290.370E-03     13.2796E-03
            1432     12.7957E-03     92.4970E-03    -5.49501E+06     74.0337E+06     93.9528E+06     378.926E+03    -289.039E-03     579.420E-03    -290.381E-03     87.9078E-03    -291.566E-03     581.918E-03    -290.011E-03     63.2363E-03
            1433     12.1202E-03     92.3391E-03    -11.6676E+06     69.7398E+06     93.0000E+06     1.10052E+06    -289.934E-03     580.362E-03    -290.429E-03     117.373E-03    -293.279E-03     583.644E-03    -290.048E-03     89.2814E-03
            1434     11.4476E-03     92.1750E-03    -16.8574E+06     58.8140E+06     89.9819E+06     1.26527E+06    -290.718E-03     581.193E-03    -290.475E-03     122.416E-03    -293.919E-03     584.283E-03    -290.086E-03     95.7549E-03
            1435     10.7729E-03     91.9890E-03    -23.3433E+06     52.6473E+06     85.6050E+06     970.564E+03    -291.602E-03     582.109E-03    -290.507E-03     130.004E-03    -294.902E-03     585.264E-03    -290.121E-03     103.539E-03
            1436     10.0999E-03     91.7950E-03    -30.1979E+06     48.6672E+06     76.0911E+06     299.916E+03    -292.416E-03     582.911E-03    -290.496E-03     132.419E-03    -295.601E-03     585.942E-03    -290.142E-03     107.042E-03
            1437     9.42661E-03     91.5965E-03    -36.8855E+06     36.4396E+06     63.6206E+06    -934.230E+03    -292.779E-03     583.248E-03    -290.469E-03     132.067E-03    -295.783E-03     586.066E-03    -290.151E-03     107.890E-03
            1438     8.75347E-03     91.3998E-03    -44.8673E+06     25.1053E+06     53.0420E+06    -1.85653E+06    -292.724E-03     583.180E-03    -290.456E-03     129.405E-03    -295.520E-03     585.752E-03    -290.162E-03     106.543E-03
            1439     8.07955E-03     91.2058E-03    -53.7568E+06     15.0469E+06     44.3631E+06    -1.46548E+06    -292.614E-03     583.074E-03    -290.460E-03     125.345E-03    -295.201E-03     585.395E-03    -290.182E-03     103.831E-03
            1440     7.40610E-03     91.0193E-03    -62.3747E+06    -6.78992E+06     33.7805E+06    -121.659E+03    -292.525E-03     582.998E-03    -290.473E-03     120.306E-03    -294.888E-03     585.018E-03    -290.204E-03     100.110E-03
            1441     6.73295E-03     90.8393E-03    -70.9050E+06    -41.0249E+06     18.9075E+06     609.499E+03    -292.341E-03     582.825E-03    -290.483E-03     114.345E-03    -294.460E-03     584.492E-03    -290.226E-03     95.4344E-03
            1442     6.05950E-03     90.6690E-03    -79.8287E+06    -75.0063E+06     2.26398E+06     293.729E+03    -292.108E-03     582.595E-03    -290.487E-03     107.456E-03    -293.980E-03     583.911E-03    -290.251E-03     89.8551E-03
            1443     5.38598E-03     90.5105E-03    -88.8422E+06    -104.448E+06    -14.8178E+06     46.6807E+03    -291.883E-03     582.364E-03    -290.482E-03     99.5381E-03    -293.507E-03     583.345E-03    -290.275E-03     83.3337E-03
            1444     4.71288E-03     90.3644E-03    -98.0061E+06    -134.115E+06    -32.8080E+06     18.1552E+03    -291.600E-03     582.070E-03    -290.470E-03     90.4817E-03    -292.969E-03     582.710E-03    -290.297E-03     75.8016E-03
            1445     4.03947E-03     90.2344E-03    -107.230E+06    -160.105E+06    -51.9904E+06     10.3770E+03    -291.273E-03     581.721E-03    -290.449E-03     80.2033E-03    -292.387E-03     582.037E-03    -290.321E-03     67.2109E-03
            1446     3.36585E-03     90.1198E-03    -116.142E+06    -181.962E+06    -72.2719E+06     65.1627E+03    -290.971E-03     581.391E-03    -290.420E-03     68.8193E-03    -291.838E-03     581.409E-03    -290.349E-03     57.6838E-03
            1447     2.69256E-03     90.0239E-03    -124.445E+06    -205.237E+06    -92.8449E+06     93.9107E+03    -290.711E-03     581.107E-03    -290.396E-03     56.5511E-03    -291.346E-03     580.842E-03    -290.382E-03     47.4109E-03
            1448     2.01970E-03     89.9480E-03    -131.238E+06    -225.545E+06    -111.707E+06    -31.9532E+03    -290.576E-03     580.946E-03    -290.370E-03     43.3575E-03    -291.010E-03     580.438E-03    -290.411E-03     36.3134E-03
            1449     1.34685E-03     89.8939E-03    -136.866E+06    -242.318E+06    -127.775E+06     44.7218E+03    -290.488E-03     580.812E-03    -290.324E-03     29.6505E-03    -290.765E-03     580.113E-03    -290.413E-03     24.8274E-03
            1450     673.386E-06     89.8583E-03    -140.809E+06    -253.866E+06    -138.925E+06    -50.2224E+03    -290.465E-03     580.614E-03    -290.149E-03     16.2379E-03    -290.641E-03     579.793E-03    -290.272E-03     13.5997E-03
            1451     12.7934E-03     90.8037E-03    -4.67756E+06     72.8548E+06     94.4979E+06     1.00085E+06    -289.286E-03     579.700E-03    -290.414E-03     87.3940E-03    -291.791E-03     582.172E-03    -290.040E-03     62.7837E-03
            1452     12.1216E-03     90.6447E-03    -9.43356E+06     70.1231E+06     95.0908E+06     950.060E+03    -290.388E-03     580.830E-03    -290.442E-03     115.906E-03    -293.714E-03     584.096E-03    -290.055E-03     87.6892E-03
            1453     11.4474E-03     90.4808E-03    -16.2429E+06     59.7187E+06     91.1040E+06     639.645E+03    -291.076E-03     581.533E-03    -290.457E-03     121.700E-03    -294.277E-03     584.624E-03    -290.065E-03     94.9277E-03
            1454     10.7747E-03     90.2963E-03    -22.6403E+06     53.2853E+06     86.5624E+06     381.268E+03    -291.728E-03     582.196E-03    -290.469E-03     129.737E-03    -295.021E-03     585.347E-03    -290.080E-03     103.258E-03
            1455     10.1006E-03     90.1006E-03    -29.1488E+06     49.9423E+06     77.0920E+06     248.768E+03    -292.222E-03     582.677E-03    -290.455E-03     132.216E-03    -295.398E-03     585.703E-03    -290.100E-03     106.882E-03
            1456     9.42702E-03     89.9028E-03    -36.7622E+06     39.0067E+06     64.5422E+06    -48.7195E+03    -292.593E-03     583.031E-03    -290.438E-03     131.893E-03    -295.597E-03     585.855E-03    -290.118E-03     107.754E-03
            1457     8.75340E-03     89.7053E-03    -44.6939E+06     25.1376E+06     53.1719E+06     187.568E+03    -292.737E-03     583.164E-03    -290.427E-03     129.240E-03    -295.529E-03     585.732E-03    -290.133E-03     106.421E-03
            1458     8.08022E-03     89.5130E-03    -53.1779E+06     13.7304E+06     43.9513E+06     628.892E+03    -292.626E-03     583.051E-03    -290.425E-03     125.177E-03    -295.203E-03     585.361E-03    -290.148E-03     103.717E-03
            1459     7.40670E-03     89.3249E-03    -62.0608E+06    -7.56771E+06     33.4344E+06     137.835E+03    -292.452E-03     582.891E-03    -290.439E-03     120.344E-03    -294.812E-03     584.907E-03    -290.171E-03     100.156E-03
            1460     6.73319E-03     89.1459E-03    -70.6893E+06    -41.1566E+06     18.9805E+06    -265.893E+03    -292.253E-03     582.709E-03    -290.457E-03     114.616E-03    -294.374E-03     584.379E-03    -290.199E-03     95.6916E-03
            1461     6.05952E-03     88.9759E-03    -79.5166E+06    -74.7000E+06     2.69572E+06    -20.7546E+03    -292.003E-03     582.475E-03    -290.472E-03     107.834E-03    -293.878E-03     583.795E-03    -290.235E-03     90.2383E-03
            1462     5.38619E-03     88.8167E-03    -88.6715E+06    -104.388E+06    -14.5586E+06     44.7801E+03    -291.736E-03     582.220E-03    -290.484E-03     99.8622E-03    -293.361E-03     583.202E-03    -290.276E-03     83.6778E-03
            1463     4.71243E-03     88.6716E-03    -97.7049E+06    -134.263E+06    -32.5627E+06    -118.000E+03    -291.524E-03     582.016E-03    -290.491E-03     90.7556E-03    -292.892E-03     582.654E-03    -290.318E-03     76.0960E-03
            1464     4.03911E-03     88.5404E-03    -106.732E+06    -160.158E+06    -51.6515E+06    -139.051E+03    -291.338E-03     581.815E-03    -290.477E-03     80.4077E-03    -292.451E-03     582.130E-03    -290.348E-03     67.4194E-03
            1465     3.36626E-03     88.4269E-03    -115.631E+06    -182.027E+06    -71.9006E+06    -55.2691E+03    -290.973E-03     581.422E-03    -290.449E-03     68.8978E-03    -291.839E-03     581.440E-03    -290.377E-03     57.7603E-03
            1466     2.69274E-03     88.3310E-03    -123.997E+06    -205.271E+06    -92.4799E+06     4.69897E+03    -290.580E-03     581.033E-03    -290.452E-03     56.5097E-03    -291.214E-03     580.766E-03    -290.437E-03     47.3737E-03
            1467     2.01879E-03     88.2550E-03    -131.360E+06    -225.951E+06    -111.804E+06    -35.4072E+03    -290.454E-03     580.943E-03    -290.488E-03     43.3958E-03    -290.888E-03     580.432E-03    -290.529E-03     36.3633E-03
            1468     1.34560E-03     88.1989E-03    -136.705E+06    -242.295E+06    -127.396E+06     88.4855E+03    -290.518E-03     581.047E-03    -290.528E-03     29.9239E-03    -290.796E-03     580.348E-03    -290.616E-03     25.1058E-03
            1469     673.151E-06     88.1662E-03    -139.489E+06    -253.176E+06    -137.531E+06     280.662E+03    -290.693E-03     581.123E-03    -290.429E-03     16.9394E-03    -290.868E-03     580.302E-03    -290.548E-03     14.2683E-03
            1470     12.7961E-03     89.1080E-03    -5.83105E+06     71.7395E+06     94.0444E+06    -524.750E+03    -289.609E-03     579.996E-03    -290.387E-03     86.6089E-03    -292.113E-03     582.462E-03    -290.012E-03     61.9793E-03
            1471     12.1215E-03     88.9510E-03    -9.75309E+06     69.4003E+06     95.1958E+06     565.146E+03    -290.174E-03     580.586E-03    -290.412E-03     116.122E-03    -293.510E-03     583.858E-03    -290.023E-03     87.8897E-03
            1472     11.4484E-03     88.7873E-03    -15.0792E+06     60.6673E+06     92.1400E+06     1.03156E+06    -291.087E-03     581.519E-03    -290.432E-03     122.178E-03    -294.287E-03     584.614E-03    -290.038E-03     95.4448E-03
            1473     10.7743E-03     88.6017E-03    -21.8739E+06     54.1302E+06     87.2896E+06     200.442E+03    -291.851E-03     582.291E-03    -290.441E-03     130.432E-03    -295.153E-03     585.456E-03    -290.051E-03     103.934E-03
            1474     10.1011E-03     88.4079E-03    -29.0562E+06     48.9029E+06     77.3000E+06     201.954E+03    -292.375E-03     582.796E-03    -290.421E-03     132.677E-03    -295.556E-03     585.823E-03    -290.063E-03     107.334E-03
            1475     9.42728E-03     88.2089E-03    -36.2833E+06     38.5642E+06     64.2416E+06     1.34546E+06    -292.532E-03     582.928E-03    -290.395E-03     131.738E-03    -295.526E-03     585.742E-03    -290.077E-03     107.668E-03
            1476     8.75383E-03     88.0118E-03    -44.0686E+06     24.9444E+06     52.8716E+06     2.01337E+06    -292.528E-03     582.919E-03    -290.391E-03     129.076E-03    -295.306E-03     585.476E-03    -290.099E-03     106.358E-03
            1477     8.08027E-03     87.8186E-03    -51.8489E+06     14.6479E+06     45.0378E+06     1.55860E+06    -292.465E-03     582.873E-03    -290.408E-03     125.451E-03    -295.040E-03     585.186E-03    -290.129E-03     104.025E-03
            1478     7.40669E-03     87.6322E-03    -59.8312E+06    -5.38074E+06     35.3456E+06     960.970E+03    -292.314E-03     582.752E-03    -290.438E-03     120.758E-03    -294.673E-03     584.777E-03    -290.167E-03     100.598E-03
            1479     6.73282E-03     87.4523E-03    -68.9299E+06    -40.7153E+06     20.1610E+06     448.264E+03    -292.192E-03     582.660E-03    -290.468E-03     114.838E-03    -294.308E-03     584.328E-03    -290.208E-03     95.9377E-03
            1480     6.05951E-03     87.2826E-03    -78.2744E+06    -74.6078E+06     3.61749E+06     150.395E+03    -291.977E-03     582.469E-03    -290.491E-03     107.870E-03    -293.846E-03     583.785E-03    -290.252E-03     90.2846E-03
            1481     5.38567E-03     87.1238E-03    -87.3478E+06    -104.125E+06    -13.5331E+06    -15.9734E+03    -291.727E-03     582.235E-03    -290.508E-03     99.8628E-03    -293.346E-03     583.214E-03    -290.298E-03     83.6848E-03
            1482     4.71241E-03     86.9780E-03    -96.6700E+06    -134.209E+06    -31.8223E+06     20.4083E+03    -291.521E-03     582.041E-03    -290.519E-03     90.6092E-03    -292.883E-03     582.675E-03    -290.344E-03     75.9573E-03
            1483     4.03911E-03     86.8469E-03    -106.077E+06    -160.311E+06    -51.2252E+06     8.08369E+03    -291.225E-03     581.744E-03    -290.518E-03     80.3148E-03    -292.334E-03     582.056E-03    -290.388E-03     67.3282E-03
            1484     3.36544E-03     86.7331E-03    -115.062E+06    -182.235E+06    -71.5066E+06    -66.9523E+03    -290.987E-03     581.495E-03    -290.508E-03     68.8895E-03    -291.853E-03     581.513E-03    -290.434E-03     57.7207E-03
            1485     2.69231E-03     86.6382E-03    -123.223E+06    -205.118E+06    -91.8579E+06         15.8408    -290.773E-03     581.269E-03    -290.496E-03     56.4439E-03    -291.406E-03     581.002E-03    -290.479E-03     47.2728E-03
            1486     2.01958E-03     86.5615E-03    -130.426E+06    -225.649E+06    -111.108E+06     90.4407E+03    -290.470E-03     580.984E-03    -290.514E-03     43.1877E-03    -290.900E-03     580.472E-03    -290.553E-03     36.1638E-03
            1487     1.34602E-03     86.5063E-03    -136.107E+06    -242.498E+06    -126.922E+06    -168.041E+03    -290.404E-03     581.003E-03    -290.600E-03     29.5564E-03    -290.677E-03     580.301E-03    -290.685E-03     24.7333E-03
            1488     672.224E-06     86.4702E-03    -140.585E+06    -253.709E+06    -136.905E+06    -326.032E+03    -290.666E-03     581.344E-03    -290.679E-03     16.3232E-03    -290.845E-03     580.522E-03    -290.792E-03     13.6545E-03
            1489     12.7955E-03     87.4173E-03    -5.31064E+06     72.1067E+06     93.7438E+06     82.0986E+03    -289.259E-03     579.629E-03    -290.370E-03     87.6923E-03    -291.786E-03     582.121E-03    -289.998E-03     62.9914E-03
            1490     12.1217E-03     87.2569E-03    -11.8851E+06     67.9831E+06     92.5341E+06    -1.14137E+06    -290.135E-03     580.538E-03    -290.402E-03     117.092E-03    -293.488E-03     583.821E-03    -290.021E-03     88.8478E-03
            1491     11.4478E-03     87.0932E-03    -17.0719E+06     59.7429E+06     90.2947E+06    -1.19057E+06    -291.176E-03     581.603E-03    -290.427E-03     122.427E-03    -294.380E-03     584.697E-03    -290.037E-03     95.6962E-03
            1492     10.7745E-03     86.9085E-03    -22.8566E+06     53.3760E+06     85.9762E+06    -124.552E+03    -292.043E-03     582.471E-03    -290.427E-03     130.289E-03    -295.344E-03     585.630E-03    -290.042E-03     103.786E-03
            1493     10.1008E-03     86.7127E-03    -29.9877E+06     47.9976E+06     75.6783E+06     234.740E+03    -292.400E-03     582.797E-03    -290.397E-03     132.460E-03    -295.579E-03     585.820E-03    -290.045E-03     107.115E-03
            1494     9.42812E-03     86.5154E-03    -36.6139E+06     35.6068E+06     64.0154E+06     711.491E+03    -292.412E-03     582.796E-03    -290.384E-03     132.215E-03    -295.407E-03     585.602E-03    -290.062E-03     108.171E-03
            1495     8.75421E-03     86.3189E-03    -42.9942E+06     24.0867E+06     54.9296E+06     1.97984E+06    -292.425E-03     582.824E-03    -290.399E-03     129.829E-03    -295.206E-03     585.378E-03    -290.097E-03     107.144E-03
            1496     8.08012E-03     86.1256E-03    -50.6953E+06     17.1320E+06     47.1390E+06     2.08690E+06    -292.394E-03     582.816E-03    -290.422E-03     125.691E-03    -294.970E-03     585.137E-03    -290.138E-03     104.295E-03
            1497     7.40626E-03     85.9386E-03    -59.7873E+06    -3.96541E+06     35.9853E+06     1.27169E+06    -292.311E-03     582.763E-03    -290.452E-03     120.565E-03    -294.669E-03     584.791E-03    -290.180E-03     100.423E-03
            1498     6.73295E-03     85.7590E-03    -68.5951E+06    -39.5329E+06     20.8113E+06     806.624E+03    -292.159E-03     582.644E-03    -290.484E-03     114.692E-03    -294.274E-03     584.314E-03    -290.224E-03     95.8067E-03
            1499     6.05917E-03     85.5891E-03    -77.2427E+06    -73.9625E+06     4.38649E+06     395.124E+03    -292.020E-03     582.528E-03    -290.508E-03     107.730E-03    -293.886E-03     583.844E-03    -290.267E-03     90.1402E-03
            1500     5.38594E-03     85.4306E-03    -86.6180E+06    -103.985E+06    -12.9781E+06     356.839E+03    -291.826E-03     582.342E-03    -290.517E-03     99.7163E-03    -293.443E-03     583.320E-03    -290.305E-03     83.5214E-03
            1501     4.71246E-03     85.2841E-03    -96.1811E+06    -133.926E+06    -31.3199E+06     377.514E+03    -291.473E-03     581.997E-03    -290.524E-03     90.5103E-03    -292.835E-03     582.633E-03    -290.347E-03     75.8456E-03
            1502     4.03892E-03     85.1542E-03    -105.439E+06    -159.918E+06    -50.5838E+06     319.847E+03    -291.142E-03     581.676E-03    -290.534E-03     80.1617E-03    -292.249E-03     581.988E-03    -290.402E-03     67.1823E-03
            1503     3.36565E-03     85.0396E-03    -114.547E+06    -181.987E+06    -71.0523E+06     193.295E+03    -290.951E-03     581.487E-03    -290.536E-03     68.7369E-03    -291.813E-03     581.502E-03    -290.462E-03     57.5867E-03
            1504     2.69253E-03     84.9440E-03    -123.124E+06    -205.313E+06    -91.7586E+06     49.7156E+03    -290.846E-03     581.370E-03    -290.524E-03     56.3309E-03    -291.477E-03     581.101E-03    -290.507E-03     47.1706E-03
            1505     2.01896E-03     84.8684E-03    -130.278E+06    -225.576E+06    -110.527E+06     75.7031E+03    -290.736E-03     581.225E-03    -290.489E-03     43.2223E-03    -291.165E-03     580.711E-03    -290.526E-03     36.2089E-03
            1506     1.34607E-03     84.8125E-03    -136.196E+06    -242.499E+06    -126.198E+06     408.634E+03    -290.620E-03     581.052E-03    -290.432E-03     29.7117E-03    -290.894E-03     580.348E-03    -290.514E-03     24.9293E-03
            1507     673.762E-06     84.7764E-03    -139.325E+06    -253.763E+06    -137.836E+06     513.958E+03    -290.417E-03     580.812E-03    -290.396E-03     16.3760E-03    -290.588E-03     579.988E-03    -290.515E-03     13.7273E-03
            1508     12.7945E-03     85.7221E-03    -3.75673E+06     73.2208E+06     94.7364E+06     694.374E+03    -289.205E-03     579.584E-03    -290.379E-03     87.1904E-03    -291.711E-03     582.062E-03    -290.006E-03     62.5319E-03
            1509     12.1214E-03     85.5631E-03    -9.46160E+06     71.5679E+06     94.4155E+06    -21.0177E+03    -290.284E-03     580.693E-03    -290.408E-03     116.664E-03    -293.614E-03     583.969E-03    -290.026E-03     88.5008E-03
            1510     11.4479E-03     85.3998E-03    -17.1789E+06     58.8290E+06     88.7749E+06    -936.257E+03    -291.371E-03     581.786E-03    -290.416E-03     122.316E-03    -294.571E-03     584.877E-03    -290.032E-03     95.5554E-03
            1511     10.7749E-03     85.2127E-03    -24.2207E+06     51.0792E+06     83.7196E+06    -813.719E+03    -291.943E-03     582.356E-03    -290.413E-03     130.277E-03    -295.244E-03     585.510E-03    -290.033E-03     103.771E-03
            1512     10.1019E-03     85.0201E-03    -30.5099E+06     47.4597E+06     75.2222E+06    -121.493E+03    -292.022E-03     582.427E-03    -290.405E-03     132.874E-03    -295.209E-03     585.456E-03    -290.053E-03     107.552E-03
            1513     9.42677E-03     84.8223E-03    -37.7331E+06     34.2851E+06     62.6958E+06     178.235E+03    -292.329E-03     582.737E-03    -290.408E-03     132.594E-03    -295.332E-03     585.546E-03    -290.090E-03     108.530E-03
            1514     8.75311E-03     84.6251E-03    -45.3628E+06     22.2510E+06     52.7749E+06    -222.889E+03    -292.588E-03     583.009E-03    -290.420E-03     129.765E-03    -295.377E-03     585.562E-03    -290.123E-03     107.013E-03
            1515     8.07998E-03     84.4320E-03    -52.3883E+06     16.1646E+06     46.2027E+06     316.569E+03    -292.533E-03     582.969E-03    -290.436E-03     125.598E-03    -295.115E-03     585.288E-03    -290.152E-03     104.167E-03
            1516     7.40669E-03     84.2450E-03    -59.5772E+06    -3.07678E+06     36.3707E+06     1.02332E+06    -292.353E-03     582.812E-03    -290.459E-03     120.531E-03    -294.712E-03     584.844E-03    -290.187E-03     100.371E-03
            1517     6.73275E-03     84.0659E-03    -68.2110E+06    -38.2846E+06     21.1983E+06     799.232E+03    -292.191E-03     582.678E-03    -290.487E-03     114.615E-03    -294.307E-03     584.354E-03    -290.226E-03     95.7127E-03
            1518     6.05930E-03     83.8957E-03    -77.7869E+06    -73.5623E+06     4.25101E+06     795.586E+03    -292.042E-03     582.549E-03    -290.507E-03     107.712E-03    -293.911E-03     583.868E-03    -290.266E-03     90.1215E-03
            1519     5.38588E-03     83.7364E-03    -87.2440E+06    -103.491E+06    -13.1548E+06     715.819E+03    -291.774E-03     582.291E-03    -290.516E-03     99.7036E-03    -293.396E-03     583.273E-03    -290.306E-03     83.5136E-03
            1520     4.71241E-03     83.5917E-03    -96.5125E+06    -133.607E+06    -31.3097E+06     453.521E+03    -291.468E-03     581.996E-03    -290.528E-03     90.5626E-03    -292.832E-03     582.635E-03    -290.351E-03     75.8968E-03
            1521     4.03903E-03     83.4602E-03    -105.801E+06    -159.683E+06    -50.5734E+06     363.263E+03    -291.229E-03     581.761E-03    -290.532E-03     80.2034E-03    -292.338E-03     582.074E-03    -290.400E-03     67.2197E-03
            1522     3.36567E-03     83.3467E-03    -114.802E+06    -181.651E+06    -70.8899E+06     292.681E+03    -290.988E-03     581.510E-03    -290.522E-03     68.7288E-03    -291.851E-03     581.526E-03    -290.447E-03     57.5964E-03
            1523     2.69209E-03     83.2503E-03    -123.106E+06    -204.806E+06    -91.2669E+06     242.269E+03    -290.869E-03     581.367E-03    -290.499E-03     56.1661E-03    -291.498E-03     581.097E-03    -290.479E-03     47.0382E-03
            1524     2.01944E-03     83.1745E-03    -130.616E+06    -225.654E+06    -110.725E+06     235.389E+03    -290.856E-03     581.278E-03    -290.422E-03     42.9168E-03    -291.285E-03     580.763E-03    -290.459E-03     35.9076E-03
            1525     1.34654E-03     83.1182E-03    -136.192E+06    -242.449E+06    -126.802E+06     102.590E+03    -290.608E-03     580.906E-03    -290.298E-03     29.4942E-03    -290.882E-03     580.203E-03    -290.383E-03     24.6914E-03
            1526     672.787E-06     83.0839E-03    -139.444E+06    -252.924E+06    -136.213E+06     27.5806E+03    -290.307E-03     580.492E-03    -290.185E-03     16.5262E-03    -290.483E-03     579.671E-03    -290.297E-03     13.8358E-03
            1527     12.7964E-03     84.0294E-03    -4.77402E+06     72.0861E+06     93.6559E+06    -410.888E+03    -289.442E-03     579.803E-03    -290.361E-03     86.9490E-03    -291.944E-03     582.273E-03    -289.990E-03     62.2895E-03
            1528     12.1215E-03     83.8702E-03    -10.7003E+06     70.2789E+06     92.8646E+06     484.190E+03    -290.241E-03     580.624E-03    -290.383E-03     116.634E-03    -293.566E-03     583.891E-03    -290.005E-03     88.5235E-03
            1529     11.4484E-03     83.7037E-03    -16.0894E+06     60.7998E+06     89.9552E+06     1.05162E+06    -291.022E-03     581.429E-03    -290.407E-03     122.370E-03    -294.217E-03     584.521E-03    -290.022E-03     95.7095E-03
            1530     10.7748E-03     83.5202E-03    -22.7558E+06     53.4686E+06     85.6027E+06     681.785E+03    -291.471E-03     581.903E-03    -290.433E-03     130.501E-03    -294.777E-03     585.070E-03    -290.049E-03     104.041E-03
            1531     10.0997E-03     83.3266E-03    -30.4093E+06     46.3226E+06     75.3464E+06    -138.479E+03    -292.114E-03     582.551E-03    -290.436E-03     132.803E-03    -295.300E-03     585.574E-03    -290.083E-03     107.460E-03
            1532     9.42726E-03     83.1288E-03    -37.1940E+06     33.9710E+06     62.9437E+06    -104.059E+03    -292.606E-03     583.031E-03    -290.425E-03     132.110E-03    -295.600E-03     585.832E-03    -290.106E-03     108.012E-03
            1533     8.75396E-03     82.9313E-03    -44.1810E+06     23.3427E+06     53.2342E+06    -41.3150E+03    -292.629E-03     583.051E-03    -290.422E-03     129.324E-03    -295.410E-03     585.604E-03    -290.125E-03     106.561E-03
            1534     8.08003E-03     82.7386E-03    -52.5600E+06     15.0197E+06     45.4053E+06    -583.492E+03    -292.441E-03     582.877E-03    -290.437E-03     125.436E-03    -295.020E-03     585.192E-03    -290.155E-03     103.982E-03
            1535     7.40612E-03     82.5512E-03    -61.4132E+06    -4.76505E+06     35.1547E+06    -562.994E+03    -292.327E-03     582.792E-03    -290.465E-03     120.596E-03    -294.695E-03     584.824E-03    -290.194E-03     100.391E-03
            1536     6.73291E-03     82.3726E-03    -70.1497E+06    -38.6768E+06     20.3267E+06     323.424E+03    -292.283E-03     582.772E-03    -290.489E-03     114.717E-03    -294.409E-03     584.453E-03    -290.230E-03     95.7886E-03
            1537     6.05946E-03     82.2019E-03    -78.8570E+06    -73.1745E+06     3.88770E+06     513.705E+03    -292.033E-03     582.539E-03    -290.505E-03     107.756E-03    -293.908E-03     583.863E-03    -290.266E-03     90.1593E-03
            1538     5.38576E-03     82.0439E-03    -87.7026E+06    -103.063E+06    -13.1450E+06     329.893E+03    -291.722E-03     582.241E-03    -290.520E-03     99.6501E-03    -293.345E-03     583.225E-03    -290.309E-03     83.4649E-03
            1539     4.71231E-03     81.8975E-03    -96.9134E+06    -133.425E+06    -31.3829E+06     280.935E+03    -291.536E-03     582.065E-03    -290.529E-03     90.4790E-03    -292.902E-03     582.704E-03    -290.352E-03     75.8151E-03
            1540     4.03899E-03     81.7674E-03    -106.105E+06    -159.503E+06    -50.6457E+06     154.015E+03    -291.349E-03     581.864E-03    -290.515E-03     80.1108E-03    -292.459E-03     582.178E-03    -290.383E-03     67.1249E-03
            1541     3.36572E-03     81.6525E-03    -115.000E+06    -181.396E+06    -70.8587E+06     126.030E+03    -291.132E-03     581.605E-03    -290.473E-03     68.5188E-03    -291.994E-03     581.621E-03    -290.398E-03     57.3851E-03
            1542     2.69294E-03     81.5573E-03    -123.346E+06    -204.741E+06    -91.4790E+06     232.033E+03    -290.887E-03     581.303E-03    -290.416E-03     56.1267E-03    -291.517E-03     581.033E-03    -290.398E-03     47.0080E-03
            1543     2.01954E-03     81.4798E-03    -130.350E+06    -225.323E+06    -110.812E+06     117.208E+03    -290.658E-03     581.006E-03    -290.348E-03     43.1195E-03    -291.087E-03     580.494E-03    -290.387E-03     36.1043E-03
            1544     1.34644E-03     81.4258E-03    -135.727E+06    -241.875E+06    -126.940E+06    -177.460E+03    -290.487E-03     580.756E-03    -290.269E-03     29.5541E-03    -290.761E-03     580.057E-03    -290.356E-03     24.6859E-03
            1545     673.606E-06     81.3909E-03    -139.056E+06    -253.262E+06    -137.666E+06    -386.461E+03    -290.362E-03     580.479E-03    -290.117E-03     16.3738E-03    -290.534E-03     579.658E-03    -290.236E-03     13.6843E-03
            1546     12.7948E-03     82.3366E-03    -5.51572E+06     71.3711E+06     92.5777E+06    -111.943E+03    -289.728E-03     580.096E-03    -290.367E-03     87.9650E-03    -292.248E-03     582.581E-03    -290.000E-03     63.2806E-03
            1547     12.1226E-03     82.1751E-03    -10.8281E+06     68.7512E+06     92.9480E+06     219.582E+03    -290.434E-03     580.818E-03    -290.385E-03     117.366E-03    -293.776E-03     584.097E-03    -290.004E-03     89.1907E-03
            1548     11.4482E-03     82.0120E-03    -16.9009E+06     60.6032E+06     90.1048E+06     264.672E+03    -290.744E-03     581.156E-03    -290.412E-03     122.450E-03    -293.950E-03     584.256E-03    -290.025E-03     95.7598E-03
            1549     10.7736E-03     81.8269E-03    -22.9092E+06     54.0878E+06     85.8762E+06     260.339E+03    -291.554E-03     581.994E-03    -290.441E-03     129.989E-03    -294.854E-03     585.157E-03    -290.056E-03     103.509E-03
            1550     10.1013E-03     81.6326E-03    -29.3807E+06     47.4263E+06     75.9157E+06     550.054E+03    -292.286E-03     582.718E-03    -290.432E-03     132.180E-03    -295.455E-03     585.731E-03    -290.079E-03     106.859E-03
            1551     9.42716E-03     81.4344E-03    -36.8800E+06     34.1256E+06     63.1588E+06    -270.179E+03    -292.550E-03     582.965E-03    -290.416E-03     131.979E-03    -295.540E-03     585.763E-03    -290.096E-03     107.887E-03
            1552     8.75342E-03     81.2379E-03    -44.3387E+06     22.9564E+06     53.5203E+06    -402.992E+03    -292.539E-03     582.958E-03    -290.419E-03     129.475E-03    -295.325E-03     585.512E-03    -290.120E-03     106.697E-03
            1553     8.08004E-03     81.0451E-03    -51.9747E+06     15.7479E+06     46.1980E+06     397.636E+03    -292.414E-03     582.852E-03    -290.438E-03     125.427E-03    -294.993E-03     585.169E-03    -290.155E-03     103.982E-03
            1554     7.40649E-03     80.8585E-03    -60.7288E+06    -4.74226E+06     35.5047E+06     393.021E+03    -292.320E-03     582.788E-03    -290.467E-03     120.527E-03    -294.682E-03     584.813E-03    -290.195E-03     100.362E-03
            1555     6.73266E-03     80.6781E-03    -69.7233E+06    -39.2903E+06     20.3994E+06    -340.583E+03    -292.210E-03     582.706E-03    -290.496E-03     114.671E-03    -294.332E-03     584.382E-03    -290.236E-03     95.7434E-03
            1556     6.05918E-03     80.5091E-03    -78.4491E+06    -73.3918E+06     4.07572E+06    -448.897E+03    -292.025E-03     582.542E-03    -290.516E-03     107.767E-03    -293.900E-03     583.865E-03    -290.276E-03     90.1425E-03
            1557     5.38590E-03     80.3499E-03    -87.5179E+06    -103.461E+06    -13.1683E+06    -138.824E+03    -291.847E-03     582.371E-03    -290.524E-03     99.7762E-03    -293.471E-03     583.355E-03    -290.313E-03     83.5665E-03
            1558     4.71249E-03     80.2047E-03    -96.7345E+06    -133.278E+06    -31.3379E+06     32.8826E+03    -291.685E-03     582.200E-03    -290.515E-03     90.4972E-03    -293.049E-03     582.838E-03    -290.338E-03     75.8298E-03
            1559     4.03921E-03     80.0731E-03    -106.065E+06    -159.323E+06    -50.7089E+06     118.631E+03    -291.459E-03     581.936E-03    -290.477E-03     80.0159E-03    -292.567E-03     582.249E-03    -290.345E-03     67.0420E-03
            1560     3.36620E-03     79.9593E-03    -115.082E+06    -181.648E+06    -71.2068E+06     160.439E+03    -291.131E-03     581.547E-03    -290.416E-03     68.5664E-03    -291.993E-03     581.562E-03    -290.342E-03     57.4372E-03
            1561     2.69275E-03     79.8632E-03    -123.224E+06    -204.760E+06    -91.7739E+06     94.5340E+03    -290.758E-03     581.122E-03    -290.364E-03     56.2752E-03    -291.388E-03     580.854E-03    -290.347E-03     47.1426E-03
            1562     2.01958E-03     79.7879E-03    -130.380E+06    -225.092E+06    -110.859E+06     64.6666E+03    -290.470E-03     580.808E-03    -290.338E-03     43.1897E-03    -290.899E-03     580.297E-03    -290.377E-03     36.1902E-03
            1563     1.34614E-03     79.7315E-03    -136.132E+06    -241.734E+06    -126.552E+06     230.078E+03    -290.447E-03     580.758E-03    -290.311E-03     29.5149E-03    -290.723E-03     580.059E-03    -290.396E-03     24.6884E-03
            1564     673.005E-06     79.6983E-03    -139.241E+06    -253.386E+06    -137.139E+06     160.580E+03    -290.147E-03     580.599E-03    -290.452E-03     16.2578E-03    -290.320E-03     579.777E-03    -290.569E-03     13.5440E-03
            1565     12.7949E-03     80.6390E-03    -5.13763E+06     72.2566E+06     93.5041E+06     516.166E+03    -289.731E-03     580.113E-03    -290.382E-03     87.1727E-03    -292.237E-03     582.586E-03    -290.011E-03     62.5570E-03
            1566     12.1212E-03     80.4817E-03    -9.99619E+06     69.8226E+06     94.5702E+06     70.4628E+03    -290.388E-03     580.788E-03    -290.400E-03     116.415E-03    -293.725E-03     584.063E-03    -290.014E-03     88.1798E-03
            1567     11.4478E-03     80.3186E-03    -15.7681E+06     59.5145E+06     90.7121E+06     1.62503E+03    -291.077E-03     581.490E-03    -290.413E-03     121.942E-03    -294.275E-03     584.580E-03    -290.023E-03     95.1798E-03
            1568     10.7754E-03     80.1329E-03    -22.6964E+06     52.6510E+06     85.2877E+06    -105.053E+03    -291.679E-03     582.102E-03    -290.422E-03     130.124E-03    -294.976E-03     585.258E-03    -290.039E-03     103.636E-03
            1569     10.1007E-03     79.9390E-03    -30.0094E+06     47.8269E+06     75.6882E+06    -64.4166E+03    -292.117E-03     582.534E-03    -290.417E-03     132.682E-03    -295.298E-03     585.559E-03    -290.064E-03     107.358E-03
            1570     9.42736E-03     79.7413E-03    -37.0948E+06     34.8561E+06     63.2450E+06     337.585E+03    -292.403E-03     582.816E-03    -290.413E-03     132.179E-03    -295.401E-03     585.622E-03    -290.093E-03     108.091E-03
            1571     8.75379E-03     79.5444E-03    -44.7981E+06     22.5364E+06     52.8497E+06     118.039E+03    -292.483E-03     582.905E-03    -290.422E-03     129.439E-03    -295.269E-03     585.459E-03    -290.126E-03     106.671E-03
            1572     8.07992E-03     79.3517E-03    -52.5275E+06     15.3505E+06     45.7797E+06    -456.212E+03    -292.473E-03     582.916E-03    -290.443E-03     125.517E-03    -295.055E-03     585.234E-03    -290.160E-03     104.055E-03
            1573     7.40632E-03     79.1646E-03    -60.0726E+06    -3.99469E+06     36.3079E+06    -404.770E+03    -292.368E-03     582.839E-03    -290.471E-03     120.633E-03    -294.730E-03     584.869E-03    -290.197E-03     100.446E-03
            1574     6.73289E-03     78.9853E-03    -68.4750E+06    -38.8350E+06     21.2223E+06    -121.493E+03    -292.174E-03     582.674E-03    -290.500E-03     114.644E-03    -294.290E-03     584.347E-03    -290.238E-03     95.7367E-03
            1575     6.05919E-03     78.8153E-03    -77.8482E+06    -74.1353E+06     4.01684E+06    -22.7749E+03    -292.054E-03     582.574E-03    -290.519E-03     107.646E-03    -293.921E-03     583.889E-03    -290.279E-03     90.0433E-03
            1576     5.38560E-03     78.6565E-03    -87.3379E+06    -103.825E+06    -13.4057E+06     27.0060E+03    -291.953E-03     582.470E-03    -290.517E-03     99.6294E-03    -293.572E-03     583.450E-03    -290.307E-03     83.4231E-03
            1577     4.71247E-03     78.5104E-03    -96.8412E+06    -133.474E+06    -31.6986E+06     197.159E+03    -291.715E-03     582.212E-03    -290.497E-03     90.4810E-03    -293.078E-03     582.849E-03    -290.321E-03     75.8213E-03
            1578     4.03946E-03     78.3796E-03    -106.134E+06    -159.398E+06    -51.0416E+06     228.103E+03    -291.320E-03     581.787E-03    -290.467E-03     80.2858E-03    -292.430E-03     582.103E-03    -290.337E-03     67.3102E-03
            1579     3.36605E-03     78.2658E-03    -114.995E+06    -181.623E+06    -71.3176E+06     109.495E+03    -290.982E-03     581.421E-03    -290.439E-03     69.0643E-03    -291.848E-03     581.441E-03    -290.366E-03     57.9188E-03
            1580     2.69291E-03     78.1704E-03    -123.292E+06    -204.505E+06    -91.7567E+06     90.8942E+03    -290.817E-03     581.223E-03    -290.406E-03     56.6070E-03    -291.451E-03     580.960E-03    -290.389E-03     47.4468E-03
            1581     2.01952E-03     78.0945E-03    -130.600E+06    -225.137E+06    -111.140E+06     177.577E+03    -290.639E-03     580.992E-03    -290.353E-03     43.2194E-03    -291.070E-03     580.482E-03    -290.393E-03     36.2040E-03
            1582     1.34645E-03     78.0389E-03    -135.855E+06    -241.586E+06    -126.706E+06    -84.7235E+03    -290.375E-03     580.696E-03    -290.321E-03     29.4875E-03    -290.649E-03     579.998E-03    -290.407E-03     24.6540E-03
            1583     673.299E-06     78.0041E-03    -140.779E+06    -253.389E+06    -136.604E+06    -359.602E+03    -289.877E-03     580.658E-03    -290.780E-03     15.9448E-03    -290.059E-03     579.837E-03    -290.892E-03     13.1900E-03
            1584     12.7961E-03     78.9479E-03    -5.13563E+06     72.1936E+06     93.6366E+06     250.977E+03    -289.444E-03     579.812E-03    -290.368E-03     87.1028E-03    -291.957E-03     582.291E-03    -289.997E-03     62.4267E-03
            1585     12.1220E-03     78.7872E-03    -11.2338E+06     70.7651E+06     92.8021E+06     134.324E+03    -290.120E-03     580.512E-03    -290.392E-03     116.784E-03    -293.465E-03     583.800E-03    -290.015E-03     88.5835E-03
            1586     11.4489E-03     78.6241E-03    -17.7201E+06     59.5420E+06     89.3882E+06    -316.470E+03    -291.060E-03     581.480E-03    -290.420E-03     122.577E-03    -294.269E-03     584.578E-03    -290.034E-03     95.8627E-03
            1587     10.7741E-03     78.4401E-03    -23.7484E+06     52.5711E+06     85.7967E+06     140.723E+03    -291.764E-03     582.204E-03    -290.440E-03     130.801E-03    -295.078E-03     585.371E-03    -290.052E-03     104.317E-03
            1588     10.1009E-03     78.2455E-03    -30.1665E+06     47.1716E+06     76.1525E+06     83.0334E+03    -292.187E-03     582.618E-03    -290.431E-03     132.846E-03    -295.376E-03     585.646E-03    -290.075E-03     107.490E-03
            1589     9.42708E-03     78.0475E-03    -37.1024E+06     35.1346E+06     63.4194E+06    -42.9744E+03    -292.394E-03     582.817E-03    -290.423E-03     132.180E-03    -295.394E-03     585.626E-03    -290.103E-03     108.083E-03
            1590     8.75335E-03     77.8510E-03    -43.5968E+06     23.8966E+06     53.9439E+06     25.0257E+03    -292.507E-03     582.941E-03    -290.434E-03     129.561E-03    -295.290E-03     585.497E-03    -290.136E-03     106.809E-03
            1591     8.07988E-03     77.6582E-03    -51.0682E+06     15.9443E+06     46.4437E+06    -614.870E+03    -292.494E-03     582.947E-03    -290.454E-03     125.598E-03    -295.071E-03     585.266E-03    -290.171E-03     104.130E-03
            1592     7.40633E-03     77.4709E-03    -60.1204E+06    -5.69779E+06     35.3460E+06    -903.138E+03    -292.390E-03     582.869E-03    -290.479E-03     120.635E-03    -294.751E-03     584.894E-03    -290.207E-03     100.421E-03
            1593     6.73262E-03     77.2920E-03    -69.4400E+06    -40.4716E+06     20.0950E+06     44.1313E+03    -292.320E-03     582.820E-03    -290.500E-03     114.648E-03    -294.438E-03     584.489E-03    -290.240E-03     95.7266E-03
            1594     6.05928E-03     77.1217E-03    -78.4593E+06    -73.9534E+06     3.68974E+06     496.885E+03    -292.183E-03     582.688E-03    -290.505E-03     107.608E-03    -294.052E-03     584.005E-03    -290.266E-03     90.0133E-03
            1595     5.38616E-03     76.9628E-03    -87.7702E+06    -103.732E+06    -13.6958E+06     465.100E+03    -291.879E-03     582.378E-03    -290.498E-03     99.6110E-03    -293.499E-03     583.357E-03    -290.289E-03     83.4367E-03
            1596     4.71275E-03     76.8168E-03    -97.0699E+06    -133.371E+06    -31.9912E+06     284.320E+03    -291.473E-03     581.972E-03    -290.499E-03     90.6086E-03    -292.839E-03     582.613E-03    -290.325E-03     75.9545E-03
            1597     4.03900E-03     76.6866E-03    -106.153E+06    -159.249E+06    -51.1254E+06     66.6188E+03    -291.147E-03     581.653E-03    -290.506E-03     80.3951E-03    -292.260E-03     581.972E-03    -290.377E-03     67.4027E-03
            1598     3.36548E-03     76.5725E-03    -115.231E+06    -181.311E+06    -71.4451E+06     133.585E+03    -290.956E-03     581.461E-03    -290.505E-03     68.9664E-03    -291.823E-03     581.482E-03    -290.432E-03     57.8230E-03
            1599     2.69212E-03     76.4765E-03    -123.660E+06    -204.493E+06    -92.0605E+06     89.4479E+03    -290.790E-03     581.284E-03    -290.494E-03     56.5827E-03    -291.426E-03     581.022E-03    -290.478E-03     47.4238E-03
            1600     2.01946E-03     76.4006E-03    -130.792E+06    -224.904E+06    -111.086E+06    -26.4271E+03    -290.620E-03     581.102E-03    -290.482E-03     43.6092E-03    -291.055E-03     580.596E-03    -290.521E-03     36.5512E-03
            1601     1.34639E-03     76.3458E-03    -136.441E+06    -241.505E+06    -127.310E+06     114.612E+03    -290.488E-03     580.977E-03    -290.490E-03     30.1074E-03    -290.767E-03     580.284E-03    -290.578E-03     25.2337E-03
            1602     672.789E-06     76.3119E-03    -140.418E+06    -253.285E+06    -138.452E+06     343.432E+03    -290.651E-03     581.034E-03    -290.383E-03     16.1805E-03    -290.829E-03     580.216E-03    -290.504E-03     13.5166E-03
            1603     12.7946E-03     77.2528E-03    -4.18834E+06     71.3191E+06     93.5178E+06     1.09493E+06    -289.302E-03     579.681E-03    -290.379E-03     87.9121E-03    -291.816E-03     582.162E-03    -290.009E-03     63.2623E-03
            1604     12.1214E-03     77.0944E-03    -10.8496E+06     72.0056E+06     93.2122E+06     805.312E+03    -290.237E-03     580.644E-03    -290.406E-03     116.865E-03    -293.585E-03     583.938E-03    -290.029E-03     88.6609E-03
            1605     11.4465E-03     76.9306E-03    -17.0238E+06     61.8887E+06     89.6286E+06    -63.8441E+03    -290.983E-03     581.413E-03    -290.430E-03     122.013E-03    -294.190E-03     584.519E-03    -290.047E-03     95.2592E-03
            1606     10.7742E-03     76.7453E-03    -23.6439E+06     52.2549E+06     84.3537E+06    -1.11610E+06    -291.771E-03     582.214E-03    -290.444E-03     129.969E-03    -295.072E-03     585.373E-03    -290.064E-03     103.427E-03
            1607     10.1007E-03     76.5515E-03    -29.9037E+06     46.1975E+06     75.6137E+06    -925.610E+03    -292.163E-03     582.601E-03    -290.438E-03     132.501E-03    -295.343E-03     585.620E-03    -290.084E-03     107.129E-03
            1608     9.42713E-03     76.3545E-03    -36.3508E+06     35.4418E+06     64.8189E+06    -820.639E+03    -292.366E-03     582.805E-03    -290.439E-03     132.118E-03    -295.361E-03     585.609E-03    -290.113E-03     108.025E-03
            1609     8.75344E-03     76.1574E-03    -44.0178E+06     23.1923E+06     54.2532E+06    -1.11555E+06    -292.522E-03     582.971E-03    -290.449E-03     129.591E-03    -295.305E-03     585.523E-03    -290.148E-03     106.827E-03
            1610     8.07981E-03     75.9643E-03    -52.2223E+06     15.2710E+06     45.7142E+06    -213.250E+03    -292.519E-03     582.982E-03    -290.464E-03     125.561E-03    -295.100E-03     585.300E-03    -290.181E-03     104.096E-03
            1611     7.40609E-03     75.7777E-03    -61.1365E+06    -5.90921E+06     34.4707E+06     723.312E+03    -292.458E-03     582.941E-03    -290.483E-03     120.530E-03    -294.819E-03     584.964E-03    -290.213E-03     100.354E-03
            1612     6.73278E-03     75.5979E-03    -70.3931E+06    -40.8237E+06     19.2750E+06     179.839E+03    -292.378E-03     582.876E-03    -290.498E-03     114.648E-03    -294.499E-03     584.547E-03    -290.241E-03     95.7234E-03
            1613     6.05952E-03     75.4280E-03    -79.5396E+06    -74.4011E+06     2.91007E+06     14.3623E+03    -292.144E-03     582.648E-03    -290.504E-03     107.820E-03    -294.021E-03     583.970E-03    -290.266E-03     90.2101E-03
            1614     5.38590E-03     75.2693E-03    -88.4056E+06    -103.702E+06    -14.2323E+06     144.647E+03    -291.779E-03     582.286E-03    -290.507E-03     99.8594E-03    -293.405E-03     583.272E-03    -290.300E-03     83.6682E-03
            1615     4.71222E-03     75.1240E-03    -97.3234E+06    -133.096E+06    -32.1900E+06    -52.9008E+03    -291.435E-03     581.955E-03    -290.521E-03     90.5930E-03    -292.804E-03     582.600E-03    -290.347E-03     75.9140E-03
            1616     4.03890E-03     74.9932E-03    -106.648E+06    -159.106E+06    -51.4806E+06    -6.00155E+03    -291.189E-03     581.717E-03    -290.529E-03     80.2028E-03    -292.301E-03     582.036E-03    -290.401E-03     67.2135E-03
            1617     3.36583E-03     74.8789E-03    -115.650E+06    -181.288E+06    -71.8639E+06     48.5984E+03    -290.934E-03     581.462E-03    -290.528E-03     68.8060E-03    -291.801E-03     581.483E-03    -290.457E-03     57.6731E-03
            1618     2.69265E-03     74.7833E-03    -123.904E+06    -204.404E+06    -92.3744E+06    -4.75824E+03    -290.664E-03     581.207E-03    -290.543E-03     56.4291E-03    -291.299E-03     580.944E-03    -290.529E-03     47.2688E-03
            1619     2.01859E-03     74.7073E-03    -131.228E+06    -224.923E+06    -111.567E+06     81.2941E+03    -290.574E-03     581.146E-03    -290.572E-03     43.1347E-03    -291.009E-03     580.640E-03    -290.614E-03     36.0890E-03
            1620     1.34517E-03     74.6518E-03    -137.198E+06    -241.827E+06    -127.519E+06     274.154E+03    -290.653E-03     581.232E-03    -290.579E-03     29.3028E-03    -290.932E-03     580.536E-03    -290.667E-03     24.4636E-03
            1621     673.024E-06     74.6166E-03    -139.130E+06    -252.125E+06    -137.757E+06     352.007E+03    -291.343E-03     581.164E-03    -289.821E-03     15.9162E-03    -291.516E-03     580.347E-03    -289.942E-03     13.2574E-03
            1622     12.7951E-03     75.5581E-03    -4.63487E+06     70.1320E+06     94.7054E+06     1.07370E+06    -289.593E-03     579.970E-03    -290.377E-03     86.4342E-03    -292.086E-03     582.420E-03    -289.998E-03     61.8038E-03
            1623     12.1214E-03     75.4005E-03    -9.31595E+06     73.6307E+06     96.0649E+06     1.05392E+06    -290.117E-03     580.513E-03    -290.395E-03     115.572E-03    -293.442E-03     583.787E-03    -290.008E-03     87.3875E-03
            1624     11.4495E-03     75.2365E-03    -15.1175E+06       64.17E+06     92.0503E+06     472.944E+03    -290.950E-03     581.365E-03    -290.416E-03     121.819E-03    -294.148E-03     584.471E-03    -290.026E-03     95.0897E-03
            1625     10.7748E-03     75.0524E-03    -22.0229E+06     53.4968E+06     85.4820E+06     239.620E+03    -291.553E-03     581.985E-03    -290.433E-03     130.007E-03    -294.846E-03     585.142E-03    -290.051E-03     103.532E-03
            1626     10.1007E-03     74.8582E-03    -30.5516E+06     46.1628E+06     74.1132E+06    -27.3793E+03    -291.988E-03     582.419E-03    -290.432E-03     132.426E-03    -295.163E-03     585.435E-03    -290.084E-03     107.113E-03
            1627     9.42687E-03     74.6608E-03    -39.2753E+06     36.6231E+06     61.7310E+06    -514.691E+03    -292.381E-03     582.812E-03    -290.431E-03     132.066E-03    -295.388E-03     585.630E-03    -290.118E-03     107.970E-03
            1628     8.75329E-03     74.4638E-03    -47.3798E+06     23.1967E+06     50.9632E+06    -1.11026E+06    -292.552E-03     582.992E-03    -290.439E-03     129.473E-03    -295.349E-03     585.554E-03    -290.149E-03     106.690E-03
            1629     8.07962E-03     74.2708E-03    -55.3955E+06     12.2743E+06     42.8183E+06    -1.04593E+06    -292.525E-03     582.981E-03    -290.456E-03     125.391E-03    -295.110E-03     585.289E-03    -290.180E-03     103.926E-03
            1630     7.40632E-03     74.0836E-03    -62.9343E+06    -6.81754E+06     33.5466E+06    -673.096E+03    -292.444E-03     582.923E-03    -290.479E-03     120.459E-03    -294.812E-03     584.946E-03    -290.210E-03     100.259E-03
            1631     6.73276E-03     73.9043E-03    -70.6347E+06    -40.1018E+06     19.2766E+06    -463.913E+03    -292.244E-03     582.745E-03    -290.501E-03     114.677E-03    -294.368E-03     584.420E-03    -290.244E-03     95.7469E-03
            1632     6.05904E-03     73.7344E-03    -79.2928E+06    -74.7311E+06     2.62224E+06    -518.785E+03    -291.995E-03     582.517E-03    -290.522E-03     107.813E-03    -293.870E-03     583.838E-03    -290.286E-03     90.1923E-03
            1633     5.38563E-03     73.5760E-03    -88.5447E+06    -103.953E+06    -14.4980E+06    -466.307E+03    -291.775E-03     582.312E-03    -290.537E-03     99.7794E-03    -293.404E-03     583.299E-03    -290.330E-03     83.5495E-03
            1634     4.71248E-03     73.4304E-03    -97.8315E+06    -133.400E+06    -32.6283E+06    -254.875E+03    -291.577E-03     582.120E-03    -290.543E-03     90.6052E-03    -292.949E-03     582.765E-03    -290.370E-03     75.9093E-03
            1635     4.03917E-03     73.2998E-03    -106.944E+06    -159.269E+06    -51.8264E+06    -113.542E+03    -291.284E-03     581.819E-03    -290.535E-03     80.2715E-03    -292.398E-03     582.138E-03    -290.408E-03     67.2785E-03
            1636     3.36546E-03     73.1856E-03    -115.836E+06    -181.398E+06    -72.0873E+06    -48.3569E+03    -290.974E-03     581.497E-03    -290.523E-03     68.7645E-03    -291.841E-03     581.518E-03    -290.453E-03     57.6230E-03
            1637     2.69191E-03     73.0899E-03    -124.334E+06    -204.715E+06    -92.8401E+06     76.2140E+03    -290.850E-03     581.353E-03    -290.503E-03     56.1448E-03    -291.485E-03     581.089E-03    -290.490E-03     46.9923E-03
            1638     2.01952E-03     73.0136E-03    -131.107E+06    -224.997E+06    -111.878E+06     65.3204E+03    -290.724E-03     581.181E-03    -290.457E-03     42.8047E-03    -291.155E-03     580.672E-03    -290.500E-03     35.7894E-03
            1639     1.34703E-03     72.9574E-03    -136.338E+06    -241.532E+06    -127.271E+06    -227.506E+03    -290.498E-03     580.919E-03    -290.421E-03     29.3127E-03    -290.772E-03     580.221E-03    -290.510E-03     24.4953E-03
            1640     673.177E-06     72.9236E-03    -140.699E+06    -252.587E+06    -137.891E+06    -479.349E+03    -290.815E-03     580.848E-03    -290.032E-03     16.5012E-03    -290.996E-03     580.033E-03    -290.152E-03     13.7640E-03
            1641     12.7969E-03     73.8661E-03    -4.96687E+06     69.2039E+06     94.0610E+06    -772.538E+03    -289.446E-03     579.805E-03    -290.359E-03     87.2564E-03    -291.955E-03     582.269E-03    -289.982E-03     62.5695E-03
            1642     12.1229E-03     73.7071E-03    -9.85426E+06     72.9944E+06     95.4042E+06     216.074E+03    -289.993E-03     580.382E-03    -290.389E-03     117.270E-03    -293.333E-03     583.670E-03    -290.004E-03     89.1751E-03
            1643     11.4471E-03     73.5433E-03    -16.1040E+06     63.4095E+06     92.1271E+06     1.35629E+06    -290.888E-03     581.314E-03    -290.426E-03     122.778E-03    -294.096E-03     584.422E-03    -290.034E-03     96.1338E-03
            1644     10.7742E-03     73.3582E-03    -23.6192E+06     53.7820E+06     86.5592E+06     1.96009E+06    -291.660E-03     582.110E-03    -290.450E-03     130.339E-03    -294.966E-03     585.271E-03    -290.061E-03     103.908E-03
            1645     10.1007E-03     73.1654E-03    -30.4151E+06     47.9599E+06     76.3268E+06     1.74947E+06    -292.188E-03     582.629E-03    -290.441E-03     132.402E-03    -295.367E-03     585.649E-03    -290.085E-03     107.111E-03
            1646     9.42705E-03     72.9671E-03    -36.8992E+06     38.4521E+06     63.3884E+06     1.18735E+06    -292.473E-03     582.896E-03    -290.423E-03     131.868E-03    -295.470E-03     585.715E-03    -290.108E-03     107.794E-03
            1647     8.75352E-03     72.7702E-03    -44.2028E+06     24.9946E+06     52.2663E+06     800.495E+03    -292.582E-03     583.004E-03    -290.423E-03     129.186E-03    -295.364E-03     585.567E-03    -290.133E-03     106.423E-03
            1648     8.08007E-03     72.5773E-03    -52.2436E+06     13.9978E+06     44.3595E+06    -398.837E+03    -292.467E-03     582.908E-03    -290.440E-03     125.298E-03    -295.042E-03     585.219E-03    -290.163E-03     103.829E-03
            1649     7.40628E-03     72.3900E-03    -60.8085E+06    -7.61043E+06     34.0735E+06    -1.42918E+06    -292.270E-03     582.744E-03    -290.473E-03     120.502E-03    -294.629E-03     584.760E-03    -290.204E-03     100.292E-03
            1650     6.73266E-03     72.2110E-03    -69.9227E+06    -41.7159E+06     19.0899E+06    -1.03356E+06    -292.136E-03     582.645E-03    -290.509E-03     114.670E-03    -294.255E-03     584.312E-03    -290.251E-03     95.7265E-03
            1651     6.05921E-03     72.0411E-03    -79.0578E+06    -74.8982E+06     2.76743E+06    -436.903E+03    -291.962E-03     582.500E-03    -290.538E-03     107.738E-03    -293.835E-03     583.819E-03    -290.301E-03     90.1172E-03
            1652     5.38565E-03     71.8824E-03    -88.1988E+06    -104.375E+06    -14.3625E+06    -374.819E+03    -291.744E-03     582.303E-03    -290.559E-03     99.7839E-03    -293.369E-03     583.286E-03    -290.352E-03     83.5657E-03
            1653     4.71199E-03     71.7368E-03    -97.6315E+06    -133.859E+06    -32.6964E+06    -203.519E+03    -291.586E-03     582.156E-03    -290.570E-03     90.7289E-03    -292.956E-03     582.799E-03    -290.398E-03     76.0439E-03
            1654     4.03873E-03     71.6060E-03    -106.904E+06    -159.727E+06    -52.0004E+06    -110.258E+03    -291.440E-03     581.993E-03    -290.552E-03     80.2689E-03    -292.554E-03     582.310E-03    -290.426E-03     67.2629E-03
            1655     3.36585E-03     71.4924E-03    -115.771E+06    -181.672E+06    -72.2720E+06    -39.8947E+03    -291.206E-03     581.710E-03    -290.503E-03     68.6883E-03    -292.073E-03     581.730E-03    -290.433E-03     57.5323E-03
            1656     2.69309E-03     71.3959E-03    -123.874E+06    -204.604E+06    -92.6383E+06    -140.682E+03    -290.896E-03     581.343E-03    -290.446E-03     56.3500E-03    -291.530E-03     581.079E-03    -290.433E-03     47.2031E-03
            1657     2.01959E-03     71.3197E-03    -131.263E+06    -225.180E+06    -111.446E+06    -152.779E+03    -290.579E-03     580.989E-03    -290.410E-03     43.3588E-03    -291.015E-03     580.482E-03    -290.450E-03     36.3172E-03
            1658     1.34561E-03     71.2650E-03    -136.968E+06    -241.483E+06    -127.194E+06     261.902E+03    -290.435E-03     580.838E-03    -290.403E-03     29.8300E-03    -290.716E-03     580.144E-03    -290.490E-03     24.9977E-03
            1659     672.834E-06     71.2298E-03    -140.573E+06    -252.833E+06    -138.573E+06     388.702E+03    -290.397E-03     580.833E-03    -290.437E-03     16.3099E-03    -290.575E-03     580.017E-03    -290.559E-03     13.6565E-03
            1660     12.7938E-03     72.1719E-03    -4.69369E+06     69.2156E+06     93.3518E+06     93.7192E+03    -289.213E-03     579.599E-03    -290.387E-03     87.5267E-03    -291.717E-03     582.062E-03    -290.013E-03     62.8879E-03
            1661     12.1201E-03     72.0134E-03    -11.4774E+06     71.3028E+06     93.4928E+06    -327.626E+03    -290.294E-03     580.709E-03    -290.414E-03     116.697E-03    -293.637E-03     583.992E-03    -290.034E-03     88.4969E-03
            1662     11.4484E-03     71.8495E-03    -17.4412E+06     60.4633E+06     90.1964E+06     422.401E+03    -291.024E-03     581.461E-03    -290.437E-03     122.023E-03    -294.227E-03     584.556E-03    -290.049E-03     95.3031E-03
            1663     10.7742E-03     71.6648E-03    -22.5878E+06     53.8735E+06     86.5107E+06     1.21179E+06    -291.752E-03     582.205E-03    -290.453E-03     129.884E-03    -295.047E-03     585.360E-03    -290.066E-03     103.419E-03
            1664     10.1006E-03     71.4707E-03    -28.7409E+06     50.2955E+06     77.5128E+06     351.540E+03    -292.320E-03     582.757E-03    -290.437E-03     132.278E-03    -295.500E-03     585.789E-03    -290.081E-03     106.911E-03
            1665     9.42741E-03     71.2737E-03    -35.2744E+06     37.3618E+06     65.7586E+06     130.995E+03    -292.545E-03     582.968E-03    -290.423E-03     131.948E-03    -295.539E-03     585.778E-03    -290.097E-03     107.852E-03
            1666     8.75373E-03     71.0765E-03    -41.8156E+06     24.5950E+06     55.7149E+06     891.677E+03    -292.506E-03     582.933E-03    -290.427E-03     129.482E-03    -295.283E-03     585.487E-03    -290.123E-03     106.744E-03
            1667     8.08005E-03     70.8837E-03    -49.4534E+06     17.1019E+06     47.3976E+06     1.49181E+06    -292.368E-03     582.814E-03    -290.446E-03     125.605E-03    -294.943E-03     585.137E-03    -290.163E-03     104.165E-03
            1668     7.40636E-03     70.6973E-03    -58.9229E+06    -5.58917E+06     35.6340E+06     1.41662E+06    -292.241E-03     582.724E-03    -290.483E-03     120.684E-03    -294.597E-03     584.747E-03    -290.211E-03     100.520E-03
            1669     6.73259E-03     70.5174E-03    -69.0355E+06    -41.4276E+06     19.6130E+06     678.020E+03    -292.126E-03     582.648E-03    -290.522E-03     114.759E-03    -294.243E-03     584.316E-03    -290.264E-03     95.8486E-03
            1670     6.05897E-03     70.3478E-03    -78.5916E+06    -75.1364E+06     2.86912E+06     146.221E+03    -291.983E-03     582.535E-03    -290.553E-03     107.809E-03    -293.854E-03     583.852E-03    -290.315E-03     90.2009E-03
            1671     5.38544E-03     70.1890E-03    -87.8320E+06    -104.477E+06    -14.3259E+06     49.9939E+03    -291.820E-03     582.389E-03    -290.569E-03     99.7300E-03    -293.442E-03     583.370E-03    -290.362E-03     83.5197E-03
            1672     4.71215E-03     70.0433E-03    -97.2373E+06    -133.974E+06    -32.4780E+06     83.2709E+03    -291.598E-03     582.173E-03    -290.575E-03     90.4659E-03    -292.963E-03     582.812E-03    -290.402E-03     75.7955E-03
            1673     4.03887E-03     69.9119E-03    -106.621E+06    -159.870E+06    -51.8494E+06     135.889E+03    -291.358E-03     581.922E-03    -290.564E-03     80.2291E-03    -292.468E-03     582.236E-03    -290.437E-03     67.2468E-03
            1674     3.36573E-03     69.7980E-03    -115.604E+06    -181.687E+06    -72.1367E+06    -31.7473E+03    -291.119E-03     581.656E-03    -290.536E-03     69.0820E-03    -291.988E-03     581.678E-03    -290.466E-03     57.9204E-03
            1675     2.69228E-03     69.7026E-03    -123.986E+06    -204.734E+06    -92.4536E+06     42.4348E+03    -290.802E-03     581.319E-03    -290.517E-03     56.8433E-03    -291.440E-03     581.058E-03    -290.502E-03     47.6674E-03
            1676     2.01899E-03     69.6270E-03    -131.242E+06    -225.428E+06    -111.800E+06     177.596E+03    -290.639E-03     581.147E-03    -290.508E-03     43.5467E-03    -291.075E-03     580.640E-03    -290.550E-03     36.4979E-03
            1677     1.34655E-03     69.5709E-03    -136.928E+06    -241.609E+06    -127.608E+06    -13.3504E+03    -290.603E-03     581.091E-03    -290.488E-03     29.7966E-03    -290.882E-03     580.397E-03    -290.577E-03     24.9538E-03
            1678     673.463E-06     69.5360E-03    -139.553E+06    -251.824E+06    -137.063E+06     23.6896E+03    -290.474E-03     580.974E-03    -290.500E-03     16.4483E-03    -290.651E-03     580.160E-03    -290.618E-03     13.7663E-03
            1679     12.7957E-03     70.4779E-03    -5.59168E+06     69.0678E+06     93.6027E+06     201.636E+03    -289.573E-03     579.967E-03    -290.393E-03     86.7138E-03    -292.068E-03     582.416E-03    -290.017E-03     62.0999E-03
            1680     12.1228E-03     70.3192E-03    -10.0285E+06     71.7898E+06     94.9406E+06     559.892E+03    -290.309E-03     580.719E-03    -290.410E-03     116.071E-03    -293.642E-03     583.996E-03    -290.025E-03     87.8514E-03
            1681     11.4476E-03     70.1558E-03    -16.3971E+06     59.9673E+06     90.4355E+06     103.859E+03    -291.108E-03     581.533E-03    -290.425E-03     122.019E-03    -294.308E-03     584.625E-03    -290.036E-03     95.2698E-03
            1682     10.7745E-03     69.9710E-03    -23.0198E+06     53.7509E+06     85.7088E+06    -901.357E+03    -291.730E-03     582.164E-03    -290.434E-03     129.864E-03    -295.025E-03     585.319E-03    -290.050E-03     103.365E-03
            1683     10.1009E-03     69.7770E-03    -29.8336E+06     50.0091E+06     76.1106E+06    -94.6869E+03    -292.057E-03     582.482E-03    -290.425E-03     132.302E-03    -295.235E-03     585.511E-03    -290.074E-03     106.989E-03
            1684     9.42708E-03     69.5797E-03    -38.0384E+06     37.8776E+06     62.9932E+06     66.8465E+03    -292.345E-03     582.767E-03    -290.422E-03     132.215E-03    -295.354E-03     585.592E-03    -290.106E-03     108.124E-03
            1685     8.75353E-03     69.3833E-03    -46.1835E+06     24.1497E+06     52.2928E+06    -752.275E+03    -292.441E-03     582.878E-03    -290.437E-03     129.774E-03    -295.241E-03     585.448E-03    -290.144E-03     106.986E-03
            1686     8.07961E-03     69.1905E-03    -53.8187E+06     13.3274E+06     44.2830E+06     5.72986E+03    -292.387E-03     582.855E-03    -290.467E-03     125.738E-03    -294.973E-03     585.168E-03    -290.187E-03     104.295E-03
            1687     7.40597E-03     69.0033E-03    -61.4154E+06    -5.71548E+06     34.6304E+06     1.22710E+06    -292.296E-03     582.801E-03    -290.505E-03     120.712E-03    -294.664E-03     584.830E-03    -290.234E-03     100.537E-03
            1688     6.73251E-03     68.8244E-03    -69.4968E+06    -39.0729E+06     20.0995E+06     1.39200E+06    -292.146E-03     582.689E-03    -290.543E-03     114.814E-03    -294.269E-03     584.368E-03    -290.285E-03     95.9136E-03
            1689     6.05888E-03     68.6541E-03    -78.5493E+06    -74.1538E+06     3.13470E+06     850.408E+03    -292.067E-03     582.637E-03    -290.570E-03     107.922E-03    -293.942E-03     583.961E-03    -290.333E-03     90.3149E-03
            1690     5.38558E-03     68.4954E-03    -87.9608E+06    -104.021E+06    -14.2495E+06     493.910E+03    -291.922E-03     582.500E-03    -290.578E-03     99.8335E-03    -293.548E-03     583.486E-03    -290.371E-03     83.6155E-03
            1691     4.71234E-03     68.3493E-03    -97.1860E+06    -133.850E+06    -32.3569E+06     329.446E+03    -291.579E-03     582.160E-03    -290.582E-03     90.7166E-03    -292.947E-03     582.802E-03    -290.408E-03     76.0388E-03
            1692     4.03889E-03     68.2191E-03    -106.416E+06    -159.623E+06    -51.5444E+06     241.671E+03    -291.194E-03     581.785E-03    -290.591E-03     80.5191E-03    -292.308E-03     582.104E-03    -290.463E-03     67.5343E-03
            1693     3.36516E-03     68.1042E-03    -115.478E+06    -181.585E+06    -71.8243E+06     248.584E+03    -290.929E-03     581.536E-03    -290.606E-03     68.9962E-03    -291.798E-03     581.558E-03    -290.535E-03     57.8401E-03
            1694     2.69202E-03     68.0092E-03    -123.779E+06    -204.964E+06    -92.3560E+06     161.705E+03    -290.852E-03     581.469E-03    -290.616E-03     56.5028E-03    -291.489E-03     581.206E-03    -290.601E-03     47.3181E-03
            1695     2.01909E-03     67.9325E-03    -130.897E+06    -225.108E+06    -111.515E+06    -70.3698E+03    -290.744E-03     581.355E-03    -290.611E-03     43.4735E-03    -291.178E-03     580.849E-03    -290.652E-03     36.4295E-03
            1696     1.34566E-03     67.8769E-03    -136.269E+06    -241.608E+06    -127.132E+06    -241.517E+03    -290.610E-03     581.235E-03    -290.625E-03     30.0231E-03    -290.887E-03     580.539E-03    -290.713E-03     25.1759E-03
            1697     672.425E-06     67.8430E-03    -140.112E+06    -252.604E+06    -137.340E+06    -295.791E+03    -290.618E-03     581.316E-03    -290.697E-03     16.7207E-03    -290.797E-03     580.499E-03    -290.815E-03     14.0155E-03
            1698     12.7951E-03     68.7830E-03    -4.74855E+06     70.1741E+06     93.9593E+06    -246.361E+03    -289.490E-03     579.868E-03    -290.378E-03     87.1277E-03    -291.985E-03     582.323E-03    -290.003E-03     62.5599E-03
            1699     12.1207E-03     68.6261E-03    -10.1504E+06     70.4483E+06     94.4165E+06    -387.820E+03    -290.284E-03     580.684E-03    -290.400E-03     116.555E-03    -293.614E-03     583.954E-03    -290.015E-03     88.3891E-03
            1700     11.4485E-03     68.4615E-03    -15.6345E+06     60.0097E+06     90.9732E+06     451.752E+03    -291.083E-03     581.502E-03    -290.419E-03     122.065E-03    -294.276E-03     584.589E-03    -290.029E-03     95.3501E-03
            1701     10.7748E-03     68.2771E-03    -22.8366E+06     54.3726E+06     86.0351E+06     492.500E+03    -291.496E-03     581.932E-03    -290.436E-03     130.121E-03    -294.798E-03     585.097E-03    -290.052E-03     103.655E-03
            1702     10.1008E-03     68.0844E-03    -30.3312E+06     48.3283E+06     76.1255E+06     328.170E+03    -291.903E-03     582.348E-03    -290.445E-03     132.860E-03    -295.089E-03     585.378E-03    -290.091E-03     107.567E-03
            1703     9.42686E-03     67.8864E-03    -36.8481E+06     38.4874E+06     64.0226E+06     773.285E+03    -292.297E-03     582.749E-03    -290.453E-03     132.459E-03    -295.304E-03     585.576E-03    -290.135E-03     108.384E-03
            1704     8.75297E-03     67.6897E-03    -44.3761E+06     24.9726E+06     52.7486E+06     1.32793E+06    -292.515E-03     582.981E-03    -290.466E-03     129.640E-03    -295.310E-03     585.554E-03    -290.174E-03     106.854E-03
            1705     8.07963E-03     67.4971E-03    -53.1395E+06     13.1510E+06     43.8934E+06     517.706E+03    -292.461E-03     582.951E-03    -290.490E-03     125.642E-03    -295.046E-03     585.267E-03    -290.213E-03     104.170E-03
            1706     7.40600E-03     67.3099E-03    -61.9112E+06    -6.86932E+06     33.7407E+06    -360.024E+03    -292.292E-03     582.819E-03    -290.527E-03     120.722E-03    -294.660E-03     584.846E-03    -290.259E-03     100.519E-03
            1707     6.73221E-03     67.1309E-03    -70.4672E+06    -39.6874E+06     19.4591E+06     24.7928E+03    -292.237E-03     582.801E-03    -290.564E-03     114.845E-03    -294.365E-03     584.481E-03    -290.307E-03     95.9065E-03
            1708     6.05875E-03     66.9605E-03    -78.9352E+06    -73.6154E+06     3.32330E+06     533.737E+03    -292.080E-03     582.670E-03    -290.590E-03     107.990E-03    -293.959E-03     583.997E-03    -290.352E-03     90.3733E-03
            1709     5.38539E-03     66.8011E-03    -87.7455E+06    -103.468E+06    -13.8371E+06     521.079E+03    -291.758E-03     582.370E-03    -290.611E-03     100.025E-03    -293.387E-03     583.359E-03    -290.403E-03     83.8116E-03
            1710     4.71178E-03     66.6563E-03    -96.9766E+06    -133.598E+06    -31.9862E+06     374.064E+03    -291.539E-03     582.174E-03    -290.636E-03     90.9620E-03    -292.910E-03     582.820E-03    -290.461E-03     76.2689E-03
            1711     4.03841E-03     66.5249E-03    -106.175E+06    -159.482E+06     -51.089E+06     324.106E+03    -291.349E-03     581.994E-03    -290.645E-03     80.5463E-03    -292.465E-03     582.314E-03    -290.515E-03     67.5339E-03
            1712     3.36543E-03     66.4113E-03    -115.083E+06    -181.321E+06    -71.3509E+06     226.908E+03    -291.063E-03     581.704E-03    -290.641E-03     68.9102E-03    -291.931E-03     581.726E-03    -290.568E-03     57.7516E-03
            1713     2.69204E-03     66.3147E-03    -123.343E+06    -204.361E+06    -91.7046E+06    -38.9438E+03    -290.864E-03     581.506E-03    -290.642E-03     56.5253E-03    -291.499E-03     581.243E-03    -290.625E-03     47.3619E-03
            1714     2.01885E-03     66.2388E-03    -130.857E+06    -224.981E+06    -110.652E+06    -170.076E+03    -290.793E-03     581.427E-03    -290.635E-03     43.2217E-03    -291.227E-03     580.920E-03    -290.672E-03     36.1659E-03
            1715     1.34577E-03     66.1834E-03    -136.759E+06    -241.674E+06    -126.659E+06    -11.8359E+03    -290.734E-03     581.335E-03    -290.601E-03     29.4078E-03    -291.012E-03     580.637E-03    -290.685E-03     24.5789E-03
            1716     673.230E-06     66.1469E-03    -140.701E+06    -253.486E+06    -137.880E+06     115.842E+03    -290.485E-03     581.168E-03    -290.683E-03     16.0872E-03    -290.663E-03     580.348E-03    -290.801E-03     13.4099E-03
            1717     12.7954E-03     67.0915E-03    -4.69455E+06     70.4015E+06     93.6205E+06     266.393E+03    -289.468E-03     579.844E-03    -290.376E-03     87.1543E-03    -291.963E-03     582.301E-03    -290.003E-03     62.5461E-03
            1718     12.1224E-03     66.9308E-03    -10.8224E+06     69.6913E+06     93.1202E+06    -439.019E+03    -290.251E-03     580.647E-03    -290.396E-03     116.356E-03    -293.576E-03     583.911E-03    -290.016E-03     88.1939E-03
            1719     11.4481E-03     66.7679E-03    -16.8813E+06     58.7273E+06     89.9347E+06    -605.263E+03    -290.705E-03     581.136E-03    -290.431E-03     122.195E-03    -293.900E-03     584.219E-03    -290.042E-03     95.5231E-03
            1720     10.7739E-03     66.5845E-03    -22.5857E+06     54.6473E+06     86.7403E+06     805.829E+03    -291.375E-03     581.845E-03    -290.470E-03     130.446E-03    -294.679E-03     585.011E-03    -290.083E-03     104.018E-03
            1721     10.1000E-03     66.3906E-03    -29.1862E+06     49.4443E+06     76.5800E+06     287.584E+03    -292.093E-03     582.568E-03    -290.475E-03     132.754E-03    -295.280E-03     585.605E-03    -290.122E-03     107.392E-03
            1722     9.42649E-03     66.1929E-03    -36.2281E+06     36.1593E+06     64.0765E+06     310.157E+03    -292.416E-03     582.892E-03    -290.476E-03     132.144E-03    -295.413E-03     585.702E-03    -290.155E-03     108.058E-03
            1723     8.75309E-03     65.9959E-03    -43.1009E+06     23.0632E+06      54.132E+06     1.28326E+06    -292.473E-03     582.966E-03    -290.493E-03     129.519E-03    -295.256E-03     585.520E-03    -290.193E-03     106.765E-03
            1724     8.07933E-03     65.8031E-03    -50.1518E+06     16.1141E+06     46.8558E+06     1.84301E+06    -292.410E-03     582.931E-03    -290.521E-03     125.646E-03    -294.992E-03     585.256E-03    -290.237E-03     104.170E-03
            1725     7.40558E-03     65.6168E-03    -58.7806E+06    -4.77003E+06     36.0812E+06     1.72135E+06    -292.353E-03     582.910E-03    -290.558E-03     120.790E-03    -294.714E-03     584.942E-03    -290.285E-03     100.603E-03
            1726     6.73218E-03     65.4368E-03    -68.3371E+06    -39.7191E+06     20.5093E+06     806.116E+03    -292.256E-03     582.849E-03    -290.593E-03     115.010E-03    -294.378E-03     584.529E-03    -290.334E-03     96.0722E-03
            1727     6.05887E-03     65.2668E-03    -77.8067E+06    -73.8883E+06     3.92377E+06     494.247E+03    -291.989E-03     582.617E-03    -290.628E-03     108.172E-03    -293.867E-03     583.946E-03    -290.389E-03     90.5362E-03
            1728     5.38498E-03     65.1084E-03    -87.2322E+06    -103.157E+06    -13.1647E+06     565.840E+03    -291.753E-03     582.415E-03    -290.662E-03     100.114E-03    -293.383E-03     583.407E-03    -290.451E-03     83.8883E-03
            1729     4.71153E-03     64.9620E-03    -96.6388E+06    -133.129E+06    -31.2953E+06     503.106E+03    -291.631E-03     582.317E-03    -290.686E-03     90.8066E-03    -293.001E-03     582.962E-03    -290.509E-03     76.1155E-03
            1730     4.03843E-03     64.8312E-03    -105.858E+06    -159.179E+06    -50.4836E+06     223.341E+03    -291.435E-03     582.121E-03    -290.687E-03     80.4209E-03    -292.549E-03     582.442E-03    -290.555E-03     67.3968E-03
            1731     3.36511E-03     64.7168E-03    -114.787E+06    -180.819E+06    -70.6314E+06     16.6778E+03    -291.211E-03     581.877E-03    -290.666E-03     68.9691E-03    -292.081E-03     581.902E-03    -290.590E-03     57.7778E-03
            1732     2.69207E-03     64.6215E-03    -123.295E+06    -204.162E+06    -91.2368E+06     151.740E+03    -291.003E-03     581.639E-03    -290.636E-03     56.4929E-03    -291.639E-03     581.377E-03    -290.617E-03     47.3217E-03
            1733     2.01893E-03     64.5441E-03    -130.449E+06    -224.839E+06    -110.695E+06     155.550E+03    -290.870E-03     581.457E-03    -290.586E-03     43.2597E-03    -291.303E-03     580.949E-03    -290.625E-03     36.2170E-03
            1734     1.34656E-03     64.4886E-03    -135.765E+06    -241.131E+06     -127.09E+06    -403.783E+03    -290.745E-03     581.251E-03    -290.506E-03     29.7327E-03    -291.019E-03     580.556E-03    -290.595E-03     24.8922E-03
            1735     673.109E-06     64.4545E-03    -139.708E+06    -254.922E+06    -136.859E+06    -971.376E+03    -290.335E-03     580.958E-03    -290.623E-03     16.4528E-03    -290.509E-03     580.128E-03    -290.735E-03     13.7561E-03
            1736     12.7951E-03     65.3951E-03    -4.89508E+06     69.1490E+06     92.7027E+06     93.2512E+03    -289.438E-03     579.823E-03    -290.385E-03     87.8985E-03    -291.938E-03     582.282E-03    -290.015E-03     63.2947E-03
            1737     12.1214E-03     65.2377E-03    -10.1498E+06      71.422E+06     93.9852E+06     413.682E+03    -290.065E-03     580.483E-03    -290.418E-03     116.701E-03    -293.393E-03     583.756E-03    -290.037E-03     88.5906E-03
            1738     11.4474E-03     65.0757E-03    -16.3419E+06     59.1853E+06     89.9377E+06    -150.602E+03    -290.743E-03     581.199E-03    -290.456E-03     122.183E-03    -293.942E-03     584.289E-03    -290.068E-03     95.4707E-03
            1739     10.7737E-03     64.8908E-03    -23.2122E+06     52.7502E+06     85.0257E+06    -1.01024E+06    -291.676E-03     582.156E-03    -290.481E-03     129.970E-03    -294.971E-03     585.310E-03    -290.098E-03     103.479E-03
            1740     10.1005E-03     64.6965E-03    -30.2776E+06     49.4706E+06     75.7617E+06    -74.4589E+03    -292.142E-03     582.616E-03    -290.475E-03     132.157E-03    -295.321E-03     585.644E-03    -290.124E-03     106.823E-03
            1741     9.42683E-03     64.4994E-03    -37.6043E+06     35.3449E+06     62.9192E+06    -4.58680E+03    -292.274E-03     582.751E-03    -290.477E-03     131.958E-03    -295.272E-03     585.558E-03    -290.159E-03     107.879E-03
            1742     8.75286E-03     64.3025E-03    -44.6867E+06     21.8571E+06     52.9031E+06    -414.958E+03    -292.314E-03     582.819E-03    -290.505E-03     129.633E-03    -295.101E-03     585.372E-03    -290.207E-03     106.873E-03
            1743     8.07907E-03     64.1100E-03    -52.2570E+06     13.9022E+06     45.6270E+06     238.230E+03    -292.333E-03     582.879E-03    -290.547E-03     125.730E-03    -294.919E-03     585.197E-03    -290.263E-03     104.259E-03
            1744     7.40555E-03     63.9225E-03    -60.1389E+06    -4.65416E+06     35.9978E+06     1.20941E+06    -292.297E-03     582.891E-03    -290.594E-03     120.941E-03    -294.670E-03     584.929E-03    -290.320E-03     100.732E-03
            1745     6.73193E-03     63.7433E-03    -68.4827E+06    -37.9344E+06     21.5992E+06     1.50248E+06    -292.161E-03     582.803E-03    -290.643E-03     115.200E-03    -294.293E-03     584.495E-03    -290.380E-03     96.2576E-03
            1746     6.05790E-03     63.5733E-03    -77.6665E+06    -72.9654E+06     4.79558E+06     994.810E+03    -292.062E-03     582.746E-03    -290.683E-03     108.217E-03    -293.947E-03     584.082E-03    -290.441E-03     90.5533E-03
            1747     5.38481E-03     63.4143E-03    -86.9109E+06    -102.750E+06    -12.4451E+06     651.350E+03    -291.954E-03     582.659E-03    -290.705E-03     100.102E-03    -293.587E-03     583.654E-03    -290.492E-03     83.8428E-03
            1748     4.71167E-03     63.2681E-03    -96.0357E+06    -132.413E+06    -30.5351E+06     416.873E+03    -291.719E-03     582.433E-03    -290.714E-03     90.8829E-03    -293.092E-03     583.083E-03    -290.535E-03     76.1610E-03
            1749     4.03824E-03     63.1372E-03    -105.334E+06    -158.548E+06    -49.8549E+06     122.182E+03    -291.454E-03     582.163E-03    -290.710E-03     80.4454E-03    -292.570E-03     582.487E-03    -290.576E-03     67.3942E-03
            1750     3.36507E-03     63.0228E-03    -114.232E+06    -180.948E+06    -70.1404E+06     48.7049E+03    -291.285E-03     581.968E-03    -290.683E-03     68.9561E-03    -292.153E-03     581.992E-03    -290.606E-03     57.7535E-03
            1751     2.69216E-03     62.9266E-03    -122.379E+06    -204.058E+06    -90.7534E+06     76.8319E+03    -291.108E-03     581.742E-03    -290.634E-03     56.5281E-03    -291.741E-03     581.479E-03    -290.614E-03     47.3370E-03
            1752     2.01936E-03     62.8507E-03    -129.521E+06    -224.319E+06    -110.187E+06    -60.7342E+03    -290.767E-03     581.357E-03    -290.589E-03     43.4620E-03    -291.198E-03     580.851E-03    -290.627E-03     36.4083E-03
            1753     1.34543E-03     62.7946E-03    -134.821E+06    -240.605E+06    -126.321E+06    -142.979E+03    -290.605E-03     581.189E-03    -290.585E-03     29.8234E-03    -290.877E-03     580.495E-03    -290.672E-03     24.9744E-03
            1754     672.897E-06     62.7603E-03    -138.052E+06    -257.229E+06    -136.777E+06    -137.454E+03    -290.462E-03     581.234E-03    -290.772E-03     16.2337E-03    -290.624E-03     580.390E-03    -290.883E-03     13.5537E-03
            1755     12.7949E-03     63.7018E-03    -5.18174E+06     69.0746E+06     93.2317E+06     190.775E+03    -289.216E-03     579.612E-03    -290.396E-03     87.1868E-03    -291.709E-03     582.062E-03    -290.022E-03     62.5964E-03
            1756     12.1208E-03     63.5443E-03    -9.77917E+06     72.6997E+06     94.7446E+06     162.903E+03    -289.939E-03     580.373E-03    -290.434E-03     115.846E-03    -293.254E-03     583.637E-03    -290.052E-03     87.7498E-03
            1757     11.4475E-03     63.3816E-03    -15.6243E+06     59.2608E+06     89.8944E+06    -26.7032E+03    -291.067E-03     581.528E-03    -290.461E-03     121.705E-03    -294.253E-03     584.609E-03    -290.075E-03     94.9723E-03
            1758     10.7744E-03     63.1964E-03    -22.7957E+06     51.5538E+06     84.4463E+06     291.717E+03    -291.645E-03     582.122E-03    -290.477E-03     130.093E-03    -294.932E-03     585.267E-03    -290.097E-03     103.657E-03
            1759     10.1005E-03     63.0033E-03    -29.9052E+06     49.7342E+06     75.9392E+06     67.7803E+03    -291.975E-03     582.458E-03    -290.483E-03     132.729E-03    -295.159E-03     585.491E-03    -290.132E-03     107.425E-03
            1760     9.42647E-03     62.8061E-03    -36.7373E+06     35.6730E+06     63.5276E+06    -333.849E+03    -292.245E-03     582.742E-03    -290.496E-03     132.333E-03    -295.248E-03     585.556E-03    -290.177E-03     108.233E-03
            1761     8.75270E-03     62.6096E-03    -44.2460E+06     21.3741E+06     52.9695E+06     242.217E+03    -292.341E-03     582.868E-03    -290.527E-03     129.754E-03    -295.128E-03     585.420E-03    -290.229E-03     106.992E-03
            1762     8.07896E-03     62.4161E-03    -52.4865E+06     12.9630E+06     45.1659E+06     397.531E+03    -292.287E-03     582.858E-03    -290.571E-03     125.825E-03    -294.874E-03     585.174E-03    -290.288E-03     104.356E-03
            1763     7.40509E-03     62.2293E-03    -61.1514E+06    -5.69083E+06     35.3219E+06    -195.096E+03    -292.198E-03     582.826E-03    -290.627E-03     120.934E-03    -294.575E-03     584.863E-03    -290.354E-03     100.696E-03
            1764     6.73121E-03     62.0496E-03    -69.5611E+06    -38.3266E+06     21.4218E+06    -252.152E+03    -292.197E-03     582.879E-03    -290.682E-03     115.042E-03    -294.336E-03     584.574E-03    -290.419E-03     96.0357E-03
            1765     6.05822E-03     61.8792E-03    -77.6723E+06    -72.5015E+06     5.38599E+06     28.4187E+03    -292.151E-03     582.869E-03    -290.719E-03     108.083E-03    -294.038E-03     584.208E-03    -290.474E-03     90.3789E-03
            1766     5.38473E-03     61.7200E-03    -86.3381E+06    -102.475E+06    -11.7931E+06     132.366E+03    -291.957E-03     582.694E-03    -290.737E-03     100.128E-03    -293.590E-03     583.692E-03    -290.523E-03     83.8385E-03
            1767     4.71125E-03     61.5742E-03    -95.5521E+06    -131.929E+06    -30.1161E+06     156.576E+03    -291.719E-03     582.469E-03    -290.750E-03     91.0290E-03    -293.095E-03     583.124E-03    -290.570E-03     76.2717E-03
            1768     4.03824E-03     61.4427E-03    -104.808E+06    -158.073E+06    -49.5681E+06     155.850E+03    -291.511E-03     582.258E-03    -290.747E-03     80.7093E-03    -292.629E-03     582.587E-03    -290.614E-03     67.6497E-03
            1769     3.36519E-03     61.3287E-03    -113.917E+06    -181.180E+06    -70.1601E+06     105.507E+03    -291.279E-03     582.007E-03    -290.728E-03     69.3294E-03    -292.147E-03     582.031E-03    -290.651E-03     58.1308E-03
            1770     2.69199E-03     61.2321E-03    -122.168E+06    -204.011E+06    -90.7082E+06     10.9767E+03    -291.080E-03     581.779E-03    -290.698E-03     56.8718E-03    -291.715E-03     581.519E-03    -290.679E-03     47.6628E-03
            1771     2.01869E-03     61.1568E-03    -129.309E+06    -224.181E+06    -109.872E+06    -34.4214E+03    -290.922E-03     581.575E-03    -290.653E-03     43.4079E-03    -291.354E-03     581.071E-03    -290.690E-03     36.3200E-03
            1772     1.34633E-03     61.1008E-03    -135.033E+06    -240.920E+06    -126.250E+06     46.4995E+03    -290.656E-03     581.285E-03    -290.629E-03     29.7528E-03    -290.930E-03     580.590E-03    -290.715E-03     24.8833E-03
            1773     672.925E-06     61.0655E-03    -137.600E+06    -257.058E+06    -135.680E+06     245.786E+03    -290.586E-03     581.319E-03    -290.733E-03     16.2507E-03    -290.749E-03     580.474E-03    -290.839E-03     13.5402E-03
            1774     12.7958E-03     62.0107E-03    -4.89760E+06     68.9837E+06     92.9293E+06    -602.070E+03    -289.218E-03     579.609E-03    -290.390E-03     87.0966E-03    -291.717E-03     582.065E-03    -290.019E-03     62.4156E-03
            1775     12.1216E-03     61.8508E-03    -10.3797E+06     71.9683E+06     93.3985E+06    -86.9568E+03    -290.004E-03     580.430E-03    -290.426E-03     116.516E-03    -293.315E-03     583.689E-03    -290.048E-03     88.5156E-03
            1776     11.4479E-03     61.6870E-03    -16.6667E+06     58.7488E+06     89.5009E+06     359.105E+03    -290.836E-03     581.302E-03    -290.467E-03     121.977E-03    -294.010E-03     584.367E-03    -290.080E-03     95.4248E-03
            1777     10.7736E-03     61.5040E-03    -22.7772E+06     52.1670E+06     85.9666E+06     566.117E+03    -291.462E-03     581.966E-03    -290.504E-03     130.322E-03    -294.754E-03     585.113E-03    -290.117E-03     103.925E-03
            1778     10.0996E-03     61.3095E-03    -29.1525E+06     50.4402E+06     77.1415E+06     170.835E+03    -291.963E-03     582.479E-03    -290.515E-03     132.666E-03    -295.148E-03     585.515E-03    -290.160E-03     107.344E-03
            1779     9.42608E-03     61.1125E-03    -36.5241E+06     35.2590E+06     63.5411E+06     522.183E+03    -292.311E-03     582.835E-03    -290.524E-03     132.094E-03    -295.313E-03     585.648E-03    -290.204E-03     107.980E-03
            1780     8.75248E-03     60.9159E-03    -44.1411E+06     20.7841E+06     52.8265E+06     501.712E+03    -292.402E-03     582.952E-03    -290.550E-03     129.686E-03    -295.194E-03     585.508E-03    -290.252E-03     106.875E-03
            1781     8.07873E-03     60.7229E-03    -51.3841E+06     14.0764E+06     46.2416E+06    -7.98609E+03    -292.302E-03     582.896E-03    -290.594E-03     125.824E-03    -294.893E-03     585.220E-03    -290.309E-03     104.304E-03
            1782     7.40499E-03     60.5357E-03    -58.8521E+06    -4.44831E+06     37.0977E+06    -494.328E+03    -292.261E-03     582.911E-03    -290.650E-03     120.892E-03    -294.635E-03     584.952E-03    -290.372E-03     100.613E-03
            1783     6.73170E-03     60.3557E-03    -67.4238E+06    -39.1490E+06     22.1157E+06    -758.462E+03    -292.200E-03     582.901E-03    -290.702E-03     115.125E-03    -294.332E-03     584.591E-03    -290.436E-03     96.0946E-03
            1784     6.05785E-03     60.1851E-03    -76.7891E+06    -73.7091E+06     5.30805E+06    -425.360E+03    -292.046E-03     582.793E-03    -290.747E-03     108.365E-03    -293.930E-03     584.127E-03    -290.502E-03     90.6644E-03
            1785     5.38443E-03     60.0262E-03    -86.2600E+06    -103.005E+06    -12.0225E+06    -37.4739E+03    -291.891E-03     582.674E-03    -290.782E-03     100.428E-03    -293.527E-03     583.672E-03    -290.568E-03     84.1387E-03
            1786     4.71127E-03     59.8797E-03    -95.6462E+06    -132.114E+06    -30.4361E+06     140.800E+03    -291.688E-03     582.498E-03    -290.810E-03     91.2679E-03    -293.066E-03     583.156E-03    -290.632E-03     76.5070E-03
            1787     4.03778E-03     59.7489E-03    -104.949E+06    -157.911E+06    -49.8398E+06     223.220E+03    -291.486E-03     582.311E-03    -290.825E-03     81.0337E-03    -292.607E-03     582.644E-03    -290.693E-03     67.9664E-03
            1788     3.36452E-03     59.6337E-03    -114.089E+06    -180.798E+06    -70.2958E+06     272.544E+03    -291.299E-03     582.123E-03    -290.824E-03     69.4523E-03    -292.171E-03     582.153E-03    -290.748E-03     58.2317E-03
            1789     2.69145E-03     59.5386E-03    -122.651E+06    -203.922E+06    -91.1115E+06     215.106E+03    -291.071E-03     581.889E-03    -290.819E-03     56.9749E-03    -291.710E-03     581.633E-03    -290.801E-03     47.7464E-03
            1790     2.01892E-03     59.4609E-03    -129.919E+06    -224.406E+06    -110.585E+06     182.071E+03    -290.957E-03     581.768E-03    -290.811E-03     43.8218E-03    -291.393E-03     581.267E-03    -290.850E-03     36.7181E-03
            1791     1.34571E-03     59.4073E-03    -135.067E+06    -240.671E+06    -126.885E+06    -77.8122E+03    -290.930E-03     581.711E-03    -290.781E-03     30.2240E-03    -291.205E-03     581.021E-03    -290.871E-03     25.3169E-03
            1792     672.703E-06     59.3717E-03    -137.177E+06    -256.698E+06    -136.560E+06    -672.496E+03    -290.771E-03     581.580E-03    -290.808E-03     16.7519E-03    -290.931E-03     580.738E-03    -290.920E-03     14.0162E-03
            1793     12.7940E-03     60.3164E-03     -4.3748E+06     69.0610E+06     92.1016E+06     75.1292E+03    -289.318E-03     579.710E-03    -290.392E-03     87.0835E-03    -291.802E-03     582.157E-03    -290.026E-03     62.5064E-03
            1794     12.1211E-03     60.1567E-03    -11.4480E+06     70.8604E+06     92.3286E+06    -177.029E+03    -289.955E-03     580.384E-03    -290.429E-03     116.368E-03    -293.273E-03     583.645E-03    -290.054E-03     88.3072E-03
            1795     11.4468E-03     59.9947E-03    -17.1780E+06     58.8853E+06     89.0745E+06    -285.942E+03    -290.755E-03     581.228E-03    -290.473E-03     121.856E-03    -293.941E-03     584.304E-03    -290.088E-03     95.2147E-03
            1796     10.7734E-03     59.8096E-03    -23.0645E+06     52.4927E+06     85.1609E+06    -860.770E+03    -291.589E-03     582.092E-03    -290.503E-03     129.487E-03    -294.879E-03     585.239E-03    -290.120E-03     102.989E-03
            1797     10.1002E-03     59.6165E-03    -30.2086E+06     49.3597E+06     76.4466E+06    -165.824E+03    -291.832E-03     582.345E-03    -290.513E-03     131.909E-03    -295.009E-03     585.368E-03    -290.158E-03     106.600E-03
            1798     9.42612E-03     59.4188E-03    -37.1632E+06     34.8951E+06     64.3313E+06    -109.263E+03    -292.057E-03     582.596E-03    -290.538E-03     132.008E-03    -295.060E-03     585.404E-03    -290.213E-03     107.917E-03
            1799     8.75234E-03     59.2224E-03    -43.6279E+06     21.8005E+06     54.4689E+06    -703.768E+03    -292.281E-03     582.861E-03    -290.580E-03     129.824E-03    -295.081E-03     585.425E-03    -290.276E-03     106.974E-03
            1800     8.07861E-03     59.0294E-03    -50.8380E+06     14.9503E+06     46.8749E+06    -1.36399E+06    -292.298E-03     582.925E-03    -290.627E-03     126.218E-03    -294.897E-03     585.261E-03    -290.341E-03     104.648E-03
            1801     7.40504E-03     58.8418E-03    -59.2080E+06    -5.58931E+06     36.2139E+06    -1.37842E+06    -292.229E-03     582.917E-03    -290.688E-03     121.585E-03    -294.613E-03     584.965E-03    -290.413E-03     101.276E-03
            1802     6.73112E-03     58.6620E-03    -68.1782E+06    -40.4611E+06     21.1680E+06    -389.967E+03    -292.154E-03     582.907E-03    -290.754E-03     115.823E-03    -294.296E-03     584.602E-03    -290.490E-03     96.7892E-03
            1803     6.05762E-03     58.4917E-03    -77.5671E+06    -74.2316E+06     4.31993E+06     137.425E+03    -292.062E-03     582.872E-03    -290.810E-03     108.852E-03    -293.954E-03     584.213E-03    -290.568E-03     91.1446E-03
            1804     5.38407E-03     58.3316E-03    -87.0819E+06    -103.518E+06    -13.1584E+06     207.669E+03    -291.896E-03     582.751E-03    -290.855E-03     100.727E-03    -293.538E-03     583.754E-03    -290.644E-03     84.4247E-03
            1805     4.71052E-03     58.1858E-03    -96.4700E+06    -132.297E+06    -31.2795E+06     201.131E+03    -291.725E-03     582.618E-03    -290.893E-03     91.4676E-03    -293.111E-03     583.282E-03    -290.718E-03     76.6832E-03
            1806     4.03741E-03     58.0541E-03    -105.839E+06    -157.930E+06    -50.5618E+06     333.440E+03    -291.521E-03     582.439E-03    -290.917E-03     81.0791E-03    -292.649E-03     582.777E-03    -290.788E-03     67.9824E-03
            1807     3.36438E-03     57.9394E-03    -114.865E+06    -180.511E+06    -71.0202E+06     343.979E+03    -291.289E-03     582.221E-03    -290.932E-03     69.5533E-03    -292.167E-03     582.257E-03    -290.859E-03     58.3095E-03
            1808     2.69151E-03     57.8432E-03    -123.309E+06    -203.655E+06    -91.7836E+06     290.764E+03    -291.080E-03     582.035E-03    -290.955E-03     57.0430E-03    -291.723E-03     581.783E-03    -290.940E-03     47.7930E-03
            1809     2.01772E-03     57.7676E-03    -130.483E+06    -224.025E+06    -111.263E+06     225.390E+03    -290.999E-03     581.984E-03    -290.985E-03     43.7892E-03    -291.438E-03     581.487E-03    -291.027E-03     36.6737E-03
            1810     1.34500E-03     57.7104E-03    -135.579E+06    -240.001E+06    -127.267E+06     57.6529E+03    -291.137E-03     582.109E-03    -290.971E-03     29.8468E-03    -291.415E-03     581.422E-03    -291.063E-03     24.9279E-03
            1811     673.135E-06     57.6766E-03    -139.873E+06    -257.535E+06    -137.435E+06     57.5670E+03    -290.951E-03     581.934E-03    -290.983E-03     16.3095E-03    -291.122E-03     581.093E-03    -291.094E-03     13.5668E-03
            1812     12.7960E-03     58.6209E-03    -5.45637E+06     69.0096E+06     93.4437E+06     638.884E+03    -289.668E-03     580.063E-03    -290.395E-03     86.2682E-03    -292.151E-03     582.501E-03    -290.020E-03     61.7025E-03
            1813     12.1215E-03     58.4656E-03    -9.67536E+06      72.765E+06     94.9727E+06     651.669E+03    -290.044E-03     580.459E-03    -290.415E-03     115.548E-03    -293.363E-03     583.727E-03    -290.032E-03     87.3775E-03
            1814     11.4478E-03     58.3003E-03    -15.9490E+06     59.8205E+06     89.6272E+06    -255.389E+03    -290.756E-03     581.199E-03    -290.443E-03     121.383E-03    -293.940E-03     584.280E-03    -290.059E-03     94.6545E-03
            1815     10.7745E-03     58.1156E-03    -23.2093E+06     51.2731E+06     83.9939E+06    -246.993E+03    -291.187E-03     581.667E-03    -290.480E-03     129.568E-03    -294.474E-03     584.811E-03    -290.101E-03     103.116E-03
            1816     10.1002E-03     57.9240E-03    -30.2371E+06     48.4865E+06     75.3952E+06    -142.460E+03    -291.557E-03     582.071E-03    -290.513E-03     132.641E-03    -294.744E-03     585.104E-03    -290.163E-03     107.338E-03
            1817     9.42605E-03     57.7262E-03    -37.5038E+06     37.7553E+06     64.1061E+06    -725.036E+03    -291.883E-03     582.442E-03    -290.559E-03     132.751E-03    -294.902E-03     585.276E-03    -290.239E-03     108.664E-03
            1818     8.75191E-03     57.5290E-03    -45.1480E+06     23.6736E+06     53.2265E+06    -2.27030E+06    -292.085E-03     582.704E-03    -290.619E-03     130.414E-03    -294.900E-03     585.288E-03    -290.321E-03     107.570E-03
            1819     8.07804E-03     57.3358E-03    -52.9236E+06     12.6117E+06     44.1967E+06    -2.43380E+06    -292.163E-03     582.850E-03    -290.687E-03     126.744E-03    -294.773E-03     585.189E-03    -290.408E-03     105.160E-03
            1820     7.40394E-03     57.1483E-03    -61.4500E+06    -8.00639E+06     33.8109E+06    -1.11933E+06    -292.191E-03     582.958E-03    -290.766E-03     121.955E-03    -294.586E-03     585.007E-03    -290.496E-03     101.640E-03
            1821     6.73028E-03     56.9682E-03    -70.6747E+06    -42.1970E+06     18.9077E+06    -672.572E+03    -292.223E-03     583.062E-03    -290.840E-03     115.978E-03    -294.378E-03     584.762E-03    -290.582E-03     96.9011E-03
            1822     6.05681E-03     56.7969E-03    -79.6742E+06    -75.0796E+06     2.64182E+06    -226.996E+03    -292.101E-03     583.002E-03    -290.901E-03     109.028E-03    -294.009E-03     584.353E-03    -290.664E-03     91.2623E-03
            1823     5.38349E-03     56.6378E-03    -88.7015E+06    -103.718E+06    -14.3655E+06     61.8486E+03    -291.964E-03     582.916E-03    -290.953E-03     101.047E-03    -293.620E-03     583.931E-03    -290.745E-03     84.6931E-03
            1824     4.71029E-03     56.4909E-03    -98.0030E+06    -132.452E+06    -32.6570E+06     112.060E+03    -291.832E-03     582.824E-03    -290.993E-03     91.7346E-03    -293.229E-03     583.498E-03    -290.822E-03     76.9065E-03
            1825     4.03716E-03     56.3594E-03    -107.131E+06    -158.122E+06    -52.0016E+06     45.9361E+03    -291.565E-03     582.587E-03    -291.022E-03     81.3190E-03    -292.702E-03     582.934E-03    -290.898E-03     68.1742E-03
            1826     3.36385E-03     56.2449E-03    -115.955E+06    -180.658E+06    -72.3607E+06     34.0843E+03    -291.305E-03     582.360E-03    -291.055E-03     69.8376E-03    -292.191E-03     582.402E-03    -290.987E-03     58.5514E-03
            1827     2.69044E-03     56.1482E-03    -124.112E+06    -203.400E+06    -92.7613E+06     77.6534E+03    -291.299E-03     582.377E-03    -291.079E-03     57.1311E-03    -291.946E-03     582.131E-03    -291.067E-03     47.8598E-03
            1828     2.01845E-03     56.0720E-03    -131.292E+06    -223.570E+06    -111.766E+06     33.7865E+03    -291.346E-03     582.398E-03    -291.052E-03     43.7290E-03    -291.788E-03     581.905E-03    -291.096E-03     36.6082E-03
            1829     1.34582E-03     56.0148E-03    -137.125E+06    -240.196E+06    -128.170E+06     332.721E+03    -291.120E-03     582.122E-03    -291.003E-03     29.6854E-03    -291.403E-03     581.438E-03    -291.096E-03     24.7873E-03
            1830     672.224E-06     55.9814E-03    -139.623E+06    -256.813E+06    -137.977E+06     539.272E+03    -291.204E-03     582.015E-03    -290.811E-03     15.9835E-03    -291.373E-03     581.178E-03    -290.926E-03     13.2411E-03
            1831     12.7948E-03     56.9290E-03    -5.05339E+06     68.5873E+06     93.0852E+06    -558.174E+03    -289.439E-03     579.823E-03    -290.384E-03     86.4443E-03    -291.923E-03     582.263E-03    -290.011E-03     61.8158E-03
            1832     12.1219E-03     56.7700E-03    -10.3152E+06     71.2809E+06     93.8909E+06    -326.392E+03    -290.207E-03     580.616E-03    -290.409E-03     116.548E-03    -293.526E-03     583.879E-03    -290.028E-03     88.4507E-03
            1833     11.4488E-03     56.6074E-03    -16.0684E+06     60.0159E+06     90.8598E+06     957.176E+03    -290.505E-03     580.959E-03    -290.453E-03     122.448E-03    -293.698E-03     584.044E-03    -290.063E-03     95.8498E-03
            1834     10.7734E-03     56.4245E-03    -22.5622E+06     52.9811E+06     86.5272E+06     1.39234E+06    -290.844E-03     581.362E-03    -290.518E-03     130.561E-03    -294.145E-03     584.520E-03    -290.130E-03     104.200E-03
            1835     10.0991E-03     56.2303E-03    -29.9803E+06     48.6877E+06     76.3761E+06     855.938E+03    -291.434E-03     582.002E-03    -290.568E-03     133.091E-03    -294.628E-03     585.041E-03    -290.213E-03     107.810E-03
            1836     9.42529E-03     56.0334E-03    -37.4800E+06     40.7676E+06     64.0124E+06     265.125E+03    -291.880E-03     582.495E-03    -290.615E-03     133.106E-03    -294.911E-03     585.352E-03    -290.300E-03     109.001E-03
            1837     8.75125E-03     55.8359E-03    -45.5847E+06     26.6050E+06     52.2357E+06    -957.138E+03    -292.080E-03     582.757E-03    -290.677E-03     130.635E-03    -294.908E-03     585.367E-03    -290.388E-03     107.764E-03
            1838     8.07714E-03     55.6425E-03    -54.7022E+06     11.5746E+06     42.2103E+06    -1.65632E+06    -292.166E-03     582.919E-03    -290.753E-03     126.622E-03    -294.784E-03     585.262E-03    -290.480E-03     105.018E-03
            1839     7.40348E-03     55.4545E-03    -63.4666E+06    -9.72719E+06     32.0497E+06    -1.72922E+06    -292.209E-03     583.047E-03    -290.838E-03     121.773E-03    -294.612E-03     585.097E-03    -290.572E-03     101.410E-03
            1840     6.73003E-03     55.2735E-03    -71.8496E+06    -43.8222E+06     17.6218E+06    -1.24816E+06    -292.137E-03     583.059E-03    -290.922E-03     116.006E-03    -294.300E-03     584.760E-03    -290.666E-03     96.8883E-03
            1841     6.05642E-03     55.1033E-03    -80.6341E+06    -76.4045E+06     1.49934E+06    -885.698E+03    -292.074E-03     583.073E-03    -290.999E-03     109.221E-03    -293.990E-03     584.427E-03    -290.763E-03     91.4041E-03
            1842     5.38275E-03     54.9429E-03    -89.7010E+06    -104.641E+06    -15.5214E+06    -534.634E+03    -291.984E-03     583.047E-03    -291.063E-03     101.273E-03    -293.649E-03     584.067E-03    -290.859E-03     84.8672E-03
            1843     4.70959E-03     54.7958E-03    -98.6921E+06    -132.917E+06    -33.6481E+06    -378.409E+03    -291.797E-03     582.919E-03    -291.122E-03     92.0914E-03    -293.202E-03     583.600E-03    -290.954E-03     77.2168E-03
            1844     4.03630E-03     54.6647E-03    -107.676E+06    -158.482E+06    -52.8359E+06    -348.171E+03    -291.662E-03     582.832E-03    -291.171E-03     81.6804E-03    -292.807E-03     583.186E-03    -291.049E-03     68.4779E-03
            1845     3.36336E-03     54.5494E-03    -116.545E+06    -180.911E+06    -73.0363E+06    -190.960E+03    -291.605E-03     582.799E-03    -291.194E-03     70.0140E-03    -292.497E-03     582.846E-03    -291.128E-03     58.6837E-03
            1846     2.69083E-03     54.4530E-03    -124.847E+06    -203.616E+06    -93.5105E+06    -82.9044E+03    -291.538E-03     582.724E-03    -291.186E-03     57.3544E-03    -292.189E-03     582.481E-03    -291.178E-03     48.0679E-03
            1847     2.01767E-03     54.3747E-03    -131.981E+06    -223.942E+06    -112.647E+06     71.0591E+03    -291.346E-03     582.511E-03    -291.165E-03     44.0246E-03    -291.792E-03     582.020E-03    -291.212E-03     36.8882E-03
            1848     1.34511E-03     54.3204E-03    -137.113E+06    -239.970E+06    -129.069E+06    -117.668E+03    -291.194E-03     582.351E-03    -291.157E-03     30.2101E-03    -291.478E-03     581.671E-03    -291.255E-03     25.2877E-03
            1849     673.043E-06     54.2853E-03    -140.176E+06    -256.673E+06    -137.914E+06    -331.751E+03    -291.304E-03     582.386E-03    -291.083E-03     16.5664E-03    -291.477E-03     581.551E-03    -291.197E-03     13.8545E-03
            1850     12.7950E-03     55.2344E-03    -4.24387E+06     68.9234E+06     93.1231E+06     605.950E+03    -289.040E-03     579.436E-03    -290.396E-03     87.0222E-03    -291.511E-03     581.866E-03    -290.024E-03     62.5508E-03
            1851     12.1211E-03     55.0759E-03    -11.3902E+06     70.1394E+06     93.4007E+06      68.741E+03    -289.758E-03     580.205E-03    -290.447E-03     116.220E-03    -293.068E-03     583.453E-03    -290.065E-03     88.2066E-03
            1852     11.4460E-03     54.9155E-03    -17.8369E+06     58.3211E+06     89.8723E+06    -474.576E+03    -290.300E-03     580.810E-03    -290.511E-03     122.204E-03    -293.505E-03     583.899E-03    -290.120E-03     95.5198E-03
            1853     10.7730E-03     54.7307E-03    -23.9032E+06     52.4225E+06     86.1159E+06    -18.7908E+03    -290.983E-03     581.562E-03    -290.579E-03     130.420E-03    -294.296E-03     584.726E-03    -290.190E-03     103.963E-03
            1854     10.0992E-03     54.5386E-03    -30.1564E+06     49.2079E+06     77.1203E+06     441.559E+03    -291.492E-03     582.119E-03    -290.628E-03     133.065E-03    -294.692E-03     585.163E-03    -290.270E-03     107.751E-03
            1855     9.42452E-03     54.3399E-03    -36.9009E+06     41.3222E+06     65.1708E+06     333.320E+03    -291.914E-03     582.589E-03    -290.675E-03     132.947E-03    -294.948E-03     585.450E-03    -290.356E-03     108.806E-03
            1856     8.75072E-03     54.1424E-03    -44.2864E+06     28.0089E+06     54.0055E+06     884.121E+03    -292.114E-03     582.851E-03    -290.738E-03     130.430E-03    -294.944E-03     585.468E-03    -290.444E-03     107.539E-03
            1857     8.07708E-03     53.9490E-03    -52.3928E+06     14.5520E+06     44.5639E+06     610.874E+03    -292.151E-03     582.968E-03    -290.817E-03     126.827E-03    -294.775E-03     585.328E-03    -290.539E-03     105.212E-03
            1858     7.40336E-03     53.7601E-03    -61.3742E+06    -8.94709E+06     33.1667E+06    -523.627E+03    -292.084E-03     582.997E-03    -290.913E-03     122.260E-03    -294.492E-03     585.060E-03    -290.646E-03     101.873E-03
            1859     6.72920E-03     53.5805E-03    -70.6855E+06    -45.0527E+06     17.6618E+06    -753.800E+03    -292.079E-03     583.096E-03    -291.017E-03     116.510E-03    -294.244E-03     584.799E-03    -290.761E-03     97.3682E-03
            1860     6.05545E-03     53.4081E-03    -79.9384E+06    -77.0826E+06     1.28976E+06    -623.976E+03    -292.097E-03     583.205E-03    -291.109E-03     109.645E-03    -294.017E-03     584.564E-03    -290.874E-03     91.7955E-03
            1861     5.38247E-03     53.2483E-03    -89.0321E+06    -105.292E+06    -15.5974E+06    -726.914E+03    -291.933E-03     583.126E-03    -291.193E-03     101.604E-03    -293.603E-03     584.151E-03    -290.989E-03     85.1478E-03
            1862     4.70874E-03     53.1012E-03    -98.3568E+06    -133.596E+06    -33.4823E+06    -561.744E+03    -291.809E-03     583.086E-03    -291.277E-03     92.4145E-03    -293.218E-03     583.769E-03    -291.108E-03     77.4986E-03
            1863     4.03566E-03     52.9688E-03    -107.686E+06    -159.045E+06    -52.6605E+06    -314.061E+03    -291.874E-03     583.209E-03    -291.335E-03     81.8928E-03    -293.023E-03     583.563E-03    -291.211E-03     68.6674E-03
            1864     3.36284E-03     52.8535E-03    -116.664E+06    -181.218E+06    -72.9058E+06    -248.222E+03    -291.838E-03     583.185E-03    -291.347E-03     70.2251E-03    -292.732E-03     583.233E-03    -291.280E-03     58.8673E-03
            1865     2.69010E-03     52.7560E-03    -124.915E+06    -204.010E+06    -93.4579E+06    -193.908E+03    -291.579E-03     582.927E-03    -291.348E-03     57.7017E-03    -292.235E-03     582.686E-03    -291.339E-03     48.3678E-03
            1866     2.01773E-03     52.6800E-03    -131.823E+06    -224.303E+06    -112.901E+06    -184.157E+03    -291.385E-03     582.754E-03    -291.369E-03     44.2026E-03    -291.832E-03     582.264E-03    -291.417E-03     37.0217E-03
            1867     1.34465E-03     52.6233E-03    -136.791E+06    -240.103E+06    -128.830E+06    -99.5005E+03    -291.372E-03     582.782E-03    -291.410E-03     30.1426E-03    -291.655E-03     582.101E-03    -291.508E-03     25.1933E-03
            1868     671.896E-06     52.5886E-03    -139.303E+06    -256.957E+06    -138.876E+06     203.383E+03    -291.587E-03     582.926E-03    -291.339E-03     16.2241E-03    -291.754E-03     582.089E-03    -291.459E-03     13.5562E-03
            1869     12.7949E-03     53.5397E-03    -5.35143E+06     67.9658E+06     94.3442E+06     882.944E+03    -289.029E-03     579.448E-03    -290.419E-03     86.7581E-03    -291.510E-03     581.878E-03    -290.038E-03     62.2573E-03
            1870     12.1207E-03     53.3851E-03    -9.46510E+06     72.8492E+06     96.5318E+06     1.13791E+06    -289.367E-03     579.847E-03    -290.480E-03     115.549E-03    -292.675E-03     583.100E-03    -290.089E-03     87.5256E-03
            1871     11.4474E-03     53.2214E-03    -15.7495E+06     59.2395E+06     91.0114E+06     534.530E+03    -290.128E-03     580.680E-03    -290.552E-03     121.806E-03    -293.317E-03     583.759E-03    -290.160E-03     95.1708E-03
            1872     10.7725E-03     53.0389E-03    -22.8668E+06     51.5253E+06     85.4079E+06    -199.106E+03    -290.945E-03     581.568E-03    -290.623E-03     130.396E-03    -294.251E-03     584.729E-03    -290.238E-03     103.928E-03
            1873     10.0979E-03     52.8448E-03    -30.1733E+06     49.0545E+06     76.3110E+06    -773.126E+03    -291.649E-03     582.320E-03    -290.671E-03     133.271E-03    -294.860E-03     585.377E-03    -290.317E-03     107.856E-03
            1874     9.42471E-03     52.6468E-03    -37.6965E+06     40.4292E+06     64.7266E+06    -179.888E+03    -291.906E-03     582.627E-03    -290.721E-03     133.078E-03    -294.953E-03     585.496E-03    -290.401E-03     108.882E-03
            1875     8.75049E-03     52.4493E-03    -44.8397E+06     27.5152E+06     54.1372E+06     367.302E+03    -291.917E-03     582.716E-03    -290.798E-03     130.923E-03    -294.759E-03     585.339E-03    -290.503E-03     108.034E-03
            1876     8.07630E-03     52.2550E-03    -52.2020E+06     14.7222E+06     45.1487E+06     644.529E+03    -291.942E-03     582.845E-03    -290.903E-03     127.447E-03    -294.580E-03     585.219E-03    -290.623E-03     105.808E-03
            1877     7.40195E-03     52.0671E-03    -60.7026E+06    -7.68632E+06     34.0729E+06     1.22460E+06    -292.007E-03     583.030E-03    -291.023E-03     122.750E-03    -294.428E-03     585.109E-03    -290.754E-03     102.342E-03
            1878     6.72843E-03     51.8855E-03    -69.8986E+06    -44.1078E+06     18.2651E+06      823.33E+03    -292.122E-03     583.263E-03    -291.141E-03     116.972E-03    -294.297E-03     584.981E-03    -290.884E-03     97.8021E-03
            1879     6.05513E-03     51.7139E-03    -79.0866E+06    -76.6963E+06     2.12226E+06     72.1779E+03    -292.064E-03     583.316E-03    -291.252E-03     110.134E-03    -293.993E-03     584.685E-03    -291.015E-03     92.2493E-03
            1880     5.38103E-03     51.5532E-03    -88.5011E+06    -105.141E+06    -14.8462E+06    -159.518E+03    -292.050E-03     583.401E-03    -291.351E-03     102.036E-03    -293.729E-03     584.436E-03    -291.145E-03     85.5301E-03
            1881     4.70811E-03     51.4059E-03    -97.9437E+06    -134.025E+06    -32.8816E+06    -215.208E+03    -292.104E-03     583.534E-03    -291.431E-03     92.6279E-03    -293.518E-03     584.220E-03    -291.259E-03     77.6667E-03
            1882     4.03503E-03     51.2726E-03    -107.179E+06    -159.360E+06    -52.0318E+06    -297.635E+03    -292.006E-03     583.486E-03    -291.480E-03     82.0633E-03    -293.155E-03     583.840E-03    -291.354E-03     68.8171E-03
            1883     3.36242E-03     51.1565E-03    -116.008E+06    -181.449E+06    -72.2149E+06    -360.500E+03    -291.795E-03     583.311E-03    -291.515E-03     70.3359E-03    -292.691E-03     583.360E-03    -291.445E-03     58.9384E-03
            1884     2.68962E-03     51.0604E-03    -124.198E+06    -204.244E+06    -92.6543E+06    -356.346E+03    -291.632E-03     583.189E-03    -291.557E-03     57.7606E-03    -292.288E-03     582.947E-03    -291.544E-03     48.3898E-03
            1885     2.01661E-03     50.9824E-03    -131.289E+06    -224.444E+06    -111.762E+06    -275.088E+03    -291.599E-03     583.202E-03    -291.603E-03     44.4247E-03    -292.046E-03     582.710E-03    -291.646E-03     37.2236E-03
            1886     1.34490E-03     50.9265E-03    -137.280E+06    -241.465E+06    -127.908E+06     181.271E+03    -291.593E-03     583.248E-03    -291.655E-03     30.4501E-03    -291.878E-03     582.560E-03    -291.746E-03     25.5303E-03
            1887     672.556E-06     50.8918E-03    -140.236E+06    -255.931E+06    -138.051E+06     757.236E+03    -291.822E-03     583.417E-03    -291.595E-03     16.9607E-03    -291.997E-03     582.586E-03    -291.711E-03     14.2550E-03
            1888     12.7950E-03     51.8484E-03    -5.21839E+06     66.8105E+06     93.8070E+06    -642.857E+03    -288.544E-03     578.974E-03    -290.430E-03     86.6921E-03    -291.028E-03     581.405E-03    -290.050E-03     62.1368E-03
            1889     12.1209E-03     51.6914E-03    -10.3599E+06     71.8149E+06     95.1570E+06     426.221E+03    -289.225E-03     579.733E-03    -290.507E-03     116.241E-03    -292.540E-03     582.990E-03    -290.121E-03     88.2465E-03
            1890     11.4456E-03     51.5299E-03    -16.4668E+06     60.8839E+06     91.6499E+06     1.10993E+06    -290.177E-03     580.769E-03    -290.592E-03     122.278E-03    -293.370E-03     583.855E-03    -290.199E-03     95.7227E-03
            1891     10.7717E-03     51.3458E-03    -22.9032E+06     53.0450E+06     86.2222E+06     466.286E+03    -291.069E-03     581.732E-03    -290.663E-03     130.380E-03    -294.375E-03     584.895E-03    -290.275E-03     103.945E-03
            1892     10.0984E-03     51.1513E-03    -29.7320E+06     48.5790E+06     76.1793E+06     751.652E+03    -291.465E-03     582.177E-03    -290.712E-03     133.124E-03    -294.673E-03     585.232E-03    -290.359E-03     107.740E-03
            1893     9.42366E-03     50.9536E-03    -37.4416E+06     40.4666E+06     64.5252E+06     604.254E+03    -291.563E-03     582.346E-03    -290.784E-03     133.394E-03    -294.618E-03     585.225E-03    -290.465E-03     109.203E-03
            1894     8.74949E-03     50.7564E-03    -45.3707E+06     27.1056E+06     53.5734E+06     198.883E+03    -291.745E-03     582.633E-03    -290.888E-03     131.522E-03    -294.604E-03     585.272E-03    -290.594E-03     108.585E-03
            1895     8.07521E-03     50.5618E-03    -53.7279E+06     13.3353E+06     44.1543E+06     730.252E+03    -291.919E-03     582.931E-03    -291.012E-03     127.800E-03    -294.573E-03     585.314E-03    -290.732E-03     106.111E-03
            1896     7.40151E-03     50.3730E-03    -62.1722E+06    -7.62773E+06     33.7011E+06     792.796E+03    -292.017E-03     583.161E-03    -291.144E-03     123.002E-03    -294.453E-03     585.252E-03    -290.874E-03     102.550E-03
            1897     6.72751E-03     50.1910E-03    -70.5495E+06    -42.4182E+06     18.9556E+06      260.51E+03    -292.051E-03     583.331E-03    -291.280E-03     117.306E-03    -294.242E-03     585.066E-03    -291.021E-03     98.0840E-03
            1898     6.05343E-03     50.0192E-03    -79.1268E+06    -76.0385E+06     2.99926E+06    -5.83045E+03    -292.146E-03     583.553E-03    -291.407E-03     110.372E-03    -294.086E-03     584.933E-03    -291.167E-03     92.4291E-03
            1899     5.38055E-03     49.8577E-03    -88.1523E+06    -105.000E+06    -14.0954E+06    -80.7816E+03    -292.219E-03     583.731E-03    -291.511E-03     102.252E-03    -293.903E-03     584.769E-03    -291.301E-03     85.7104E-03
            1900     4.70741E-03     49.7091E-03    -97.1830E+06    -133.913E+06    -32.1836E+06    -246.742E+03    -292.216E-03     583.811E-03    -291.595E-03     93.1346E-03    -293.635E-03     584.503E-03    -291.421E-03     78.1303E-03
            1901     4.03482E-03     49.5763E-03    -106.238E+06    -159.451E+06    -51.3694E+06    -313.451E+03    -292.073E-03     583.735E-03    -291.662E-03     82.6994E-03    -293.228E-03     584.096E-03    -291.534E-03     69.3911E-03
            1902     3.36162E-03     49.4601E-03    -115.053E+06    -181.803E+06    -71.6348E+06    -323.767E+03    -291.907E-03     583.629E-03    -291.721E-03     70.8585E-03    -292.804E-03     583.680E-03    -291.649E-03     59.4272E-03
            1903     2.68897E-03     49.3630E-03    -123.308E+06    -204.634E+06    -91.9870E+06    -243.830E+03    -291.905E-03     583.675E-03    -291.770E-03     58.0396E-03    -292.559E-03     583.432E-03    -291.755E-03     48.6410E-03
            1904     2.01691E-03     49.2853E-03    -130.813E+06    -225.053E+06    -111.128E+06    -31.6651E+03    -291.815E-03     583.623E-03    -291.808E-03     44.3828E-03    -292.261E-03     583.128E-03    -291.848E-03     37.1688E-03
            1905     1.34362E-03     49.2287E-03    -136.100E+06    -241.556E+06    -127.063E+06    -214.877E+03    -291.796E-03     583.654E-03    -291.858E-03     30.3774E-03    -292.076E-03     582.962E-03    -291.945E-03     25.4420E-03
            1906     671.655E-06     49.1927E-03    -140.562E+06    -256.136E+06    -136.701E+06    -740.117E+03    -291.725E-03     583.818E-03    -292.094E-03     16.9738E-03    -291.903E-03     582.986E-03    -292.202E-03     14.1693E-03
            1907     12.7940E-03     50.1558E-03    -4.30443E+06     66.8912E+06     93.6104E+06    -52.6905E+03    -288.320E-03     578.765E-03    -290.445E-03     86.5232E-03    -290.783E-03     581.178E-03    -290.067E-03     62.0996E-03
            1908     12.1192E-03     49.9996E-03    -10.7532E+06     69.2839E+06     94.0273E+06    -76.1101E+03    -289.142E-03     579.674E-03    -290.532E-03     115.503E-03    -292.435E-03     582.901E-03    -290.146E-03     87.5623E-03
            1909     11.4458E-03     49.8368E-03    -16.4120E+06     61.1689E+06     91.1652E+06     119.538E+03    -290.172E-03     580.789E-03    -290.617E-03     121.808E-03    -293.362E-03     583.873E-03    -290.226E-03     95.2106E-03
            1910     10.7722E-03     49.6517E-03    -22.9361E+06     53.0278E+06     86.4585E+06    -76.9162E+03    -290.809E-03     581.510E-03    -290.700E-03     130.521E-03    -294.123E-03     584.680E-03    -290.312E-03     104.072E-03
            1911     10.0974E-03     49.4592E-03    -29.6399E+06     45.8788E+06     76.3483E+06     689.312E+03    -291.088E-03     581.867E-03    -290.779E-03     133.661E-03    -294.305E-03     584.920E-03    -290.421E-03     108.287E-03
            1912     9.42303E-03     49.2614E-03    -36.5363E+06     40.9300E+06     64.9060E+06     1.91185E+06    -291.417E-03     582.288E-03    -290.871E-03     133.808E-03    -294.483E-03     585.182E-03    -290.553E-03     109.591E-03
            1913     8.74846E-03     49.0631E-03    -44.6838E+06     28.5603E+06     53.4549E+06     1.91022E+06    -291.735E-03     582.721E-03    -290.986E-03     131.635E-03    -294.604E-03     585.377E-03    -290.695E-03     108.658E-03
            1914     8.07449E-03     48.8681E-03    -52.5651E+06     14.0457E+06     44.7059E+06     837.998E+03    -291.903E-03     583.027E-03    -291.123E-03     128.109E-03    -294.565E-03     585.422E-03    -290.844E-03     106.373E-03
            1915     7.40033E-03     48.6785E-03    -60.3069E+06    -6.49201E+06     35.4682E+06     81.6964E+03    -291.984E-03     583.258E-03    -291.275E-03     123.436E-03    -294.428E-03     585.363E-03    -291.001E-03     102.919E-03
            1916     6.72647E-03     48.4971E-03    -68.7881E+06    -41.6758E+06     20.5492E+06    -82.8569E+03    -292.128E-03     583.551E-03    -291.423E-03     117.682E-03    -294.325E-03     585.297E-03    -291.161E-03     98.3988E-03
            1917     6.05324E-03     48.3234E-03    -77.9519E+06    -75.9667E+06     3.66408E+06    -114.201E+03    -292.245E-03     583.802E-03    -291.557E-03     110.799E-03    -294.189E-03     585.189E-03    -291.315E-03     92.8182E-03
            1918     5.37970E-03     48.1616E-03    -86.8502E+06    -105.072E+06    -13.3582E+06     -243.33E+03    -292.252E-03     583.929E-03    -291.676E-03     102.803E-03    -293.940E-03     584.973E-03    -291.465E-03     86.2222E-03
            1919     4.70638E-03     48.0132E-03    -96.0353E+06    -133.874E+06    -31.5458E+06    -168.409E+03    -292.203E-03     583.990E-03    -291.787E-03     93.5932E-03    -293.627E-03     584.690E-03    -291.611E-03     78.5383E-03
            1920     4.03306E-03     47.8785E-03    -105.386E+06    -159.596E+06    -50.9245E+06    -72.8288E+03    -292.155E-03     584.037E-03    -291.882E-03     82.8476E-03    -293.313E-03     584.402E-03    -291.752E-03     69.4880E-03
            1921     3.36076E-03     47.7634E-03    -114.499E+06    -182.109E+06    -71.2790E+06     29.8465E+03    -292.189E-03     584.138E-03    -291.949E-03     71.0511E-03    -293.087E-03     584.190E-03    -291.875E-03     59.5826E-03
            1922     2.68840E-03     47.6641E-03    -122.881E+06    -204.917E+06    -91.7280E+06     46.3485E+03    -292.218E-03     584.198E-03    -291.980E-03     58.2008E-03    -292.873E-03     583.956E-03    -291.963E-03     48.7602E-03
            1923     2.01594E-03     47.5875E-03    -129.907E+06    -225.102E+06    -110.780E+06    -49.1683E+03    -292.183E-03     584.155E-03    -291.972E-03     44.4531E-03    -292.627E-03     583.659E-03    -292.011E-03     37.2060E-03
            1924     1.34474E-03     47.5299E-03    -135.317E+06    -241.057E+06    -127.048E+06    -141.007E+03    -292.089E-03     584.022E-03    -291.932E-03     30.4456E-03    -292.367E-03     583.332E-03    -292.022E-03     25.4896E-03
            1925     672.377E-06     47.4947E-03    -138.599E+06    -257.466E+06    -137.216E+06    -120.070E+03    -292.134E-03     583.871E-03    -291.737E-03     16.5777E-03    -292.300E-03     583.029E-03    -291.849E-03     13.7892E-03
            1926     12.7949E-03     48.4641E-03    -4.83472E+06     66.7019E+06     93.0209E+06    -122.753E+03    -288.567E-03     579.025E-03    -290.458E-03     86.4744E-03    -291.034E-03     581.441E-03    -290.082E-03     62.0101E-03
            1927     12.1209E-03     48.3077E-03    -9.37206E+06     68.5466E+06     94.3968E+06    -82.2388E+03    -289.282E-03     579.821E-03    -290.538E-03     115.836E-03    -292.568E-03     583.042E-03    -290.152E-03     87.9238E-03
            1928     11.4460E-03     48.1438E-03    -15.5176E+06     60.9362E+06     91.1258E+06     51.9395E+03    -289.812E-03     580.443E-03    -290.631E-03     122.175E-03    -293.000E-03     583.527E-03    -290.241E-03     95.6324E-03
            1929     10.7708E-03     47.9603E-03    -21.9547E+06     53.6196E+06     86.6559E+06     519.781E+03    -290.221E-03     580.968E-03    -290.747E-03     130.636E-03    -293.536E-03     584.144E-03    -290.359E-03     104.227E-03
            1930     10.0962E-03     47.7667E-03    -29.2027E+06     44.5879E+06     76.3851E+06     94.3535E+03    -290.838E-03     581.697E-03    -290.859E-03     133.717E-03    -294.057E-03     584.749E-03    -290.500E-03     108.320E-03
            1931     9.42187E-03     47.5682E-03    -35.9015E+06     37.7319E+06     65.5027E+06     578.829E+03    -291.409E-03     582.381E-03    -290.972E-03     134.069E-03    -294.475E-03     585.264E-03    -290.647E-03     109.822E-03
            1932     8.74794E-03     47.3700E-03    -41.5511E+06     28.6973E+06     56.4868E+06     1.69854E+06    -291.696E-03     582.799E-03    -291.103E-03     132.159E-03    -294.566E-03     585.459E-03    -290.802E-03     109.159E-03
            1933     8.07352E-03     47.1745E-03    -48.6772E+06     17.2256E+06     48.1493E+06     1.58507E+06    -291.849E-03     583.104E-03    -291.254E-03     128.733E-03    -294.518E-03     585.521E-03    -290.968E-03     106.952E-03
            1934     7.39937E-03     46.9846E-03    -57.5444E+06    -5.26299E+06     37.2203E+06     979.760E+03    -292.070E-03     583.486E-03    -291.416E-03     123.922E-03    -294.520E-03     585.604E-03    -291.138E-03     103.351E-03
            1935     6.72562E-03     46.8015E-03    -66.9571E+06     -41.556E+06     21.3421E+06     915.407E+03    -292.252E-03     583.822E-03    -291.569E-03     118.109E-03    -294.454E-03     585.576E-03    -291.305E-03     98.7784E-03
            1936     6.05183E-03     46.6279E-03    -76.2812E+06    -75.2164E+06     4.54331E+06     895.583E+03    -292.283E-03     583.997E-03    -291.714E-03     111.230E-03    -294.231E-03     585.394E-03    -291.471E-03     93.2158E-03
            1937     5.37838E-03     46.4656E-03    -85.9448E+06    -104.874E+06    -12.9532E+06     718.384E+03    -292.364E-03     584.210E-03    -291.845E-03     103.076E-03    -294.057E-03     585.262E-03    -291.633E-03     86.4470E-03
            1938     4.70561E-03     46.3155E-03    -95.6988E+06    -133.787E+06    -31.3165E+06     645.858E+03    -292.388E-03     584.347E-03    -291.959E-03     93.5480E-03    -293.816E-03     585.051E-03    -291.783E-03     78.4412E-03
            1939     4.03308E-03     46.1823E-03    -105.277E+06    -159.427E+06    -50.7474E+06     656.161E+03    -292.341E-03     584.392E-03    -292.051E-03     82.7988E-03    -293.500E-03     584.758E-03    -291.920E-03     69.4178E-03
            1940     3.36016E-03     46.0638E-03    -114.506E+06    -181.847E+06    -71.2230E+06     555.908E+03    -292.383E-03     584.494E-03    -292.111E-03     71.0120E-03    -293.284E-03     584.550E-03    -292.037E-03     59.5089E-03
            1941     2.68794E-03     45.9664E-03    -122.892E+06    -204.603E+06    -91.7000E+06     364.278E+03    -292.346E-03     584.488E-03    -292.142E-03     58.1144E-03    -293.004E-03     584.249E-03    -292.125E-03     48.6496E-03
            1942     2.01611E-03     45.8874E-03    -130.248E+06    -224.825E+06    -110.979E+06     249.528E+03    -292.262E-03     584.416E-03    -292.154E-03     44.6403E-03    -292.709E-03     583.924E-03    -292.194E-03     37.3612E-03
            1943     1.34351E-03     45.8314E-03    -135.813E+06    -241.051E+06    -127.546E+06     268.712E+03    -292.290E-03     584.423E-03    -292.133E-03     30.9469E-03    -292.572E-03     583.737E-03    -292.224E-03     25.9470E-03
            1944     671.923E-06     45.7952E-03    -137.917E+06    -256.997E+06    -136.605E+06     254.531E+03    -292.743E-03     584.290E-03    -291.546E-03     16.9570E-03    -292.908E-03     583.449E-03    -291.657E-03     14.2023E-03
            1945     12.7933E-03     46.7713E-03    -5.09941E+06     67.0139E+06     91.8595E+06    -666.405E+03    -288.362E-03     578.819E-03    -290.458E-03     86.3520E-03    -290.819E-03     581.230E-03    -290.088E-03     61.9302E-03
            1946     12.1192E-03     46.6141E-03    -10.9239E+06     66.7112E+06     91.9170E+06    -801.838E+03    -289.048E-03     579.597E-03    -290.550E-03     115.782E-03    -292.329E-03     582.810E-03    -290.171E-03     87.9070E-03
            1947     11.4452E-03     46.4527E-03    -16.0659E+06     60.1516E+06     90.3149E+06    -549.164E+03    -289.440E-03     580.106E-03    -290.666E-03     122.212E-03    -292.640E-03     583.201E-03    -290.279E-03     95.6133E-03
            1948     10.7708E-03     46.2686E-03    -22.2098E+06     53.1073E+06     85.7378E+06    -213.676E+03    -290.014E-03     580.815E-03    -290.801E-03     130.927E-03    -293.338E-03     584.000E-03    -290.417E-03     104.480E-03
            1949     10.0961E-03     46.0750E-03    -28.9506E+06     44.9363E+06     75.5022E+06     278.372E+03    -290.704E-03     581.633E-03    -290.929E-03     134.120E-03    -293.926E-03     584.692E-03    -290.574E-03     108.746E-03
            1950     9.42126E-03     45.8755E-03    -36.1511E+06     37.7240E+06     65.1352E+06    -557.745E+03    -291.186E-03     582.252E-03    -291.067E-03     134.487E-03    -294.260E-03     585.143E-03    -290.743E-03     110.234E-03
            1951     8.74636E-03     45.6766E-03    -43.8747E+06     26.6734E+06     55.1808E+06    -1.34732E+06    -291.576E-03     582.797E-03    -291.221E-03     132.564E-03    -294.465E-03     585.465E-03    -290.920E-03     109.485E-03
            1952     8.07215E-03     45.4806E-03    -51.1798E+06     14.9134E+06     46.3973E+06     116.186E+03    -291.924E-03     583.307E-03    -291.383E-03     129.043E-03    -294.609E-03     585.729E-03    -291.099E-03     107.193E-03
            1953     7.39825E-03     45.2895E-03    -59.2500E+06    -5.59066E+06     35.8371E+06     1.67992E+06    -292.170E-03     583.717E-03    -291.548E-03     124.242E-03    -294.634E-03     585.847E-03    -291.274E-03     103.640E-03
            1954     6.72456E-03     45.1061E-03    -68.4034E+06    -40.5008E+06     20.6209E+06     1.71053E+06    -292.337E-03     584.044E-03    -291.707E-03     118.308E-03    -294.555E-03     585.816E-03    -291.446E-03     98.9376E-03
            1955     6.05110E-03     44.9323E-03    -77.8957E+06    -74.5783E+06     3.85461E+06     1.51574E+06    -292.480E-03     584.332E-03    -291.852E-03     111.328E-03    -294.445E-03     585.745E-03    -291.612E-03     93.2474E-03
            1956     5.37810E-03     44.7682E-03    -87.3941E+06    -103.929E+06    -13.6438E+06     1.50957E+06    -292.529E-03     584.505E-03    -291.977E-03     103.171E-03    -294.235E-03     585.572E-03    -291.768E-03     86.4950E-03
            1957     4.70496E-03     44.6185E-03    -96.9126E+06    -133.120E+06    -32.0379E+06     1.25926E+06    -292.549E-03     584.635E-03    -292.086E-03     93.7349E-03    -293.988E-03     585.350E-03    -291.912E-03     78.5953E-03
            1958     4.03208E-03     44.4833E-03    -106.182E+06    -158.887E+06    -51.3034E+06     975.643E+03    -292.566E-03     584.734E-03    -292.168E-03     83.0423E-03    -293.735E-03     585.110E-03    -292.040E-03     69.6224E-03
            1959     3.36002E-03     44.3660E-03    -115.036E+06    -181.166E+06    -71.5319E+06     775.733E+03    -292.378E-03     584.612E-03    -292.234E-03     71.2967E-03    -293.285E-03     584.675E-03    -292.162E-03     59.7822E-03
            1960     2.68777E-03     44.2663E-03    -123.321E+06    -203.989E+06    -92.0804E+06     605.247E+03    -292.297E-03     584.605E-03    -292.308E-03     58.6735E-03    -292.960E-03     584.374E-03    -292.294E-03     49.2000E-03
            1961     2.01528E-03     44.1893E-03    -130.442E+06    -224.264E+06    -111.353E+06     378.656E+03    -292.433E-03     584.791E-03    -292.357E-03     44.9524E-03    -292.883E-03     584.304E-03    -292.400E-03     37.6639E-03
            1962     1.34361E-03     44.1309E-03    -135.569E+06    -240.293E+06    -127.227E+06     174.257E+03    -292.430E-03     584.799E-03    -292.369E-03     30.6576E-03    -292.712E-03     584.116E-03    -292.460E-03     25.6529E-03
            1963     671.700E-06     44.0954E-03    -136.899E+06    -256.355E+06    -136.891E+06    -362.209E+03    -292.761E-03     584.803E-03    -292.041E-03     16.6724E-03    -292.921E-03     583.964E-03    -292.156E-03     13.8721E-03
            1964     12.7951E-03     45.0796E-03    -5.14161E+06     68.2816E+06     92.8108E+06    -304.249E+03    -288.286E-03     578.737E-03    -290.451E-03     85.7066E-03    -290.738E-03     581.144E-03    -290.078E-03     61.3204E-03
            1965     12.1203E-03     44.9231E-03    -10.2058E+06     67.0974E+06     93.2261E+06    -289.858E+03    -288.322E-03     578.887E-03    -290.565E-03     115.246E-03    -291.595E-03     582.092E-03    -290.181E-03     87.4303E-03
            1966     11.4449E-03     44.7610E-03    -16.5934E+06     59.0549E+06     89.6111E+06    -624.621E+03    -289.030E-03     579.739E-03    -290.709E-03     122.172E-03    -292.227E-03     582.826E-03    -290.322E-03     95.6268E-03
            1967     10.7695E-03     44.5777E-03    -23.3858E+06     51.7223E+06     84.4192E+06    -863.926E+03    -289.917E-03     580.778E-03    -290.861E-03     131.205E-03    -293.250E-03     583.966E-03    -290.480E-03     104.747E-03
            1968     10.0947E-03     44.3822E-03    -30.5972E+06     43.8275E+06     74.1708E+06    -434.297E+03    -290.564E-03     581.565E-03    -291.002E-03     134.342E-03    -293.800E-03     584.634E-03    -290.650E-03     108.932E-03
            1969     9.42006E-03     44.1836E-03    -38.0150E+06     39.9552E+06     63.9128E+06    -46.9090E+03    -291.070E-03     582.220E-03    -291.150E-03     134.706E-03    -294.166E-03     585.137E-03    -290.833E-03     110.416E-03
            1970     8.74573E-03     43.9832E-03    -46.5308E+06     27.9288E+06     52.5479E+06    -525.819E+03    -291.620E-03     582.929E-03    -291.309E-03     132.721E-03    -294.529E-03     585.619E-03    -291.019E-03     109.603E-03
            1971     8.07155E-03     43.7865E-03    -55.6631E+06     10.7591E+06     41.9455E+06    -1.27797E+06    -291.977E-03     583.453E-03    -291.476E-03     129.048E-03    -294.679E-03     585.874E-03    -291.201E-03     107.135E-03
            1972     7.39750E-03     43.5945E-03    -63.9422E+06    -8.41155E+06     32.5094E+06    -666.868E+03    -292.150E-03     583.801E-03    -291.650E-03     124.336E-03    -294.636E-03     585.935E-03    -291.383E-03     103.661E-03
            1973     6.72366E-03     43.4105E-03    -71.8316E+06    -41.1000E+06     18.5009E+06     480.968E+03    -292.433E-03     584.250E-03    -291.817E-03     118.511E-03    -294.672E-03     586.035E-03    -291.561E-03     99.0684E-03
            1974     6.05047E-03     43.2351E-03    -80.1332E+06    -74.6312E+06     2.37653E+06     843.095E+03    -292.636E-03     584.597E-03    -291.960E-03     111.640E-03    -294.619E-03     586.023E-03    -291.724E-03     93.4867E-03
            1975     5.37724E-03     43.0715E-03    -88.9317E+06    -103.361E+06    -14.5633E+06     851.655E+03    -292.650E-03     584.734E-03    -292.084E-03     103.501E-03    -294.371E-03     585.815E-03    -291.878E-03     86.7688E-03
            1976     4.70445E-03     42.9205E-03    -97.7957E+06    -132.222E+06    -32.5486E+06     768.899E+03    -292.624E-03     584.822E-03    -292.198E-03     94.0930E-03    -294.071E-03     585.546E-03    -292.027E-03     78.9439E-03
            1977     4.03219E-03     42.7848E-03    -106.792E+06    -158.241E+06    -51.7341E+06     535.941E+03    -292.524E-03     584.825E-03    -292.301E-03     83.5270E-03    -293.699E-03     585.209E-03    -292.176E-03     70.1005E-03
            1978     3.35950E-03     42.6669E-03    -115.448E+06    -180.650E+06    -71.8314E+06     381.191E+03    -292.438E-03     584.836E-03    -292.398E-03     71.7820E-03    -293.351E-03     584.907E-03    -292.328E-03     60.2385E-03
            1979     2.68661E-03     42.5684E-03    -123.501E+06    -203.412E+06    -92.3046E+06     285.765E+03    -292.496E-03     584.980E-03    -292.483E-03     58.8857E-03    -293.162E-03     584.752E-03    -292.471E-03     49.4119E-03
            1980     2.01500E-03     42.4872E-03    -130.397E+06    -223.632E+06    -111.355E+06     120.361E+03    -292.597E-03     585.131E-03    -292.534E-03     45.0036E-03    -293.047E-03     584.647E-03    -292.577E-03     37.7152E-03
            1981     1.34354E-03     42.4313E-03    -135.479E+06    -239.698E+06    -127.186E+06     115.401E+03    -292.597E-03     585.151E-03    -292.554E-03     30.8856E-03    -292.880E-03     584.472E-03    -292.646E-03     25.8618E-03
            1982     671.612E-06     42.3951E-03    -138.742E+06    -256.831E+06    -137.022E+06    -60.8898E+03    -292.549E-03     585.184E-03    -292.636E-03     17.0022E-03    -292.717E-03     584.346E-03    -292.747E-03     14.2119E-03
            1983     12.7945E-03     43.3877E-03    -5.01475E+06     68.4288E+06     92.9538E+06    -613.004E+03    -287.679E-03     578.154E-03    -290.475E-03     86.3881E-03    -290.155E-03     580.586E-03    -290.102E-03     61.9617E-03
            1984     12.1193E-03     43.2335E-03    -10.6728E+06     66.4512E+06     92.9055E+06    -311.925E+03    -288.152E-03     578.768E-03    -290.615E-03     116.827E-03    -291.465E-03     582.009E-03    -290.232E-03     88.9410E-03
            1985     11.4439E-03     43.0706E-03    -16.4995E+06     59.2333E+06     90.3304E+06     273.657E+03    -289.017E-03     579.792E-03    -290.775E-03     123.007E-03    -292.225E-03     582.890E-03    -290.385E-03     96.5021E-03
            1986     10.7695E-03     42.8857E-03    -23.4740E+06     51.9148E+06     85.7718E+06     719.686E+03    -289.884E-03     580.823E-03    -290.939E-03     131.678E-03    -293.232E-03     584.023E-03    -290.551E-03     105.230E-03
            1987     10.0947E-03     42.6911E-03    -30.8415E+06     44.1395E+06     75.4132E+06     229.694E+03    -290.692E-03     581.774E-03    -291.083E-03     134.757E-03    -293.947E-03     584.858E-03    -290.725E-03     109.291E-03
            1988     9.41961E-03     42.4911E-03    -38.0684E+06     38.9476E+06     63.5457E+06     84.0613E+03    -291.319E-03     582.536E-03    -291.217E-03     134.799E-03    -294.424E-03     585.459E-03    -290.900E-03     110.433E-03
            1989     8.74496E-03     42.2895E-03    -44.9583E+06     27.8204E+06     52.6640E+06     959.047E+03    -291.654E-03     583.023E-03    -291.369E-03     132.742E-03    -294.565E-03     585.720E-03    -291.081E-03     109.575E-03
            1990     8.07090E-03     42.0919E-03    -52.5088E+06     13.6639E+06     44.0514E+06     1.18141E+06    -291.883E-03     583.430E-03    -291.547E-03     129.251E-03    -294.586E-03     585.868E-03    -291.271E-03     107.327E-03
            1991     7.39692E-03     41.8999E-03    -61.6196E+06    -8.51908E+06     33.3291E+06     1.14091E+03    -292.182E-03     583.914E-03    -291.733E-03     124.723E-03    -294.667E-03     586.054E-03    -291.464E-03     104.010E-03
            1992     6.72331E-03     41.7143E-03    -70.9006E+06    -43.0550E+06     17.9722E+06    -483.288E+03    -292.465E-03     584.371E-03    -291.906E-03     118.991E-03    -294.704E-03     586.153E-03    -291.651E-03     99.5115E-03
            1993     6.04982E-03     41.5384E-03    -79.6789E+06    -75.1030E+06     2.23047E+06    -264.749E+03    -292.654E-03     584.715E-03    -292.062E-03     112.024E-03    -294.639E-03     586.145E-03    -291.826E-03     93.8367E-03
            1994     5.37684E-03     41.3738E-03    -88.3265E+06    -103.640E+06    -14.3896E+06    -214.727E+03    -292.706E-03     584.904E-03    -292.198E-03     103.902E-03    -294.429E-03     585.987E-03    -291.992E-03     87.1375E-03
            1995     4.70407E-03     41.2222E-03    -97.2199E+06    -132.222E+06    -32.2143E+06    -15.8046E+03    -292.616E-03     584.947E-03    -292.331E-03     94.6075E-03    -294.066E-03     585.675E-03    -292.159E-03     79.4304E-03
            1996     4.03087E-03     41.0866E-03    -106.090E+06    -157.795E+06    -51.2950E+06     59.0019E+03    -292.600E-03     585.055E-03    -292.454E-03     83.8728E-03    -293.776E-03     585.443E-03    -292.328E-03     70.4232E-03
            1997     3.35828E-03     40.9677E-03    -114.980E+06    -180.350E+06    -71.6666E+06    -9.80661E+03    -292.771E-03     585.311E-03    -292.540E-03     71.7554E-03    -293.683E-03     585.382E-03    -292.470E-03     60.1951E-03
            1998     2.68721E-03     40.8671E-03    -123.284E+06    -203.169E+06    -92.0593E+06     85.4969E+03    -292.745E-03     585.333E-03    -292.588E-03     58.7847E-03    -293.409E-03     585.105E-03    -292.575E-03     49.2981E-03
            1999     2.01500E-03     40.7881E-03    -130.544E+06    -223.637E+06    -111.317E+06     242.213E+03    -292.550E-03     585.197E-03    -292.647E-03     45.1215E-03    -293.001E-03     584.714E-03    -292.690E-03     37.8313E-03
            2000     1.34255E-03     40.7296E-03    -135.519E+06    -239.652E+06    -127.290E+06     72.0538E+03    -292.658E-03     585.378E-03    -292.720E-03     30.8758E-03    -292.942E-03     584.699E-03    -292.813E-03     25.8378E-03
            2001     671.500E-06     40.6936E-03    -139.153E+06    -256.766E+06    -137.041E+06     173.946E+03    -292.580E-03     585.566E-03    -292.985E-03     16.7162E-03    -292.751E-03     584.728E-03    -293.096E-03     13.9634E-03
            2002     12.7925E-03     41.6982E-03    -4.28151E+06     68.2858E+06     92.4840E+06     763.276E+03    -287.095E-03     577.622E-03    -290.526E-03     86.0884E-03    -289.551E-03     580.036E-03    -290.157E-03     61.7874E-03
            2003     12.1174E-03     41.5415E-03    -11.2814E+06     67.1436E+06     91.9140E+06    -591.424E+03    -288.142E-03     578.824E-03    -290.681E-03     116.036E-03    -291.451E-03     582.064E-03    -290.303E-03     88.0962E-03
            2004     11.4434E-03     41.3791E-03    -18.0859E+06     58.1911E+06     89.0281E+06    -764.769E+03    -289.076E-03     579.920E-03    -290.843E-03     123.030E-03    -292.306E-03     583.034E-03    -290.456E-03     96.3869E-03
            2005     10.7678E-03     41.1945E-03    -24.0408E+06     51.5642E+06     85.0226E+06     14.2167E+03    -290.061E-03     581.064E-03    -291.003E-03     131.700E-03    -293.419E-03     584.273E-03    -290.618E-03     105.175E-03
            2006     10.0928E-03     40.9982E-03    -29.7278E+06     46.1803E+06     76.0561E+06    -430.322E+03    -290.868E-03     582.008E-03    -291.139E-03     134.743E-03    -294.132E-03     585.109E-03    -290.783E-03     109.183E-03
            2007     9.41919E-03     40.7971E-03    -35.7671E+06     36.1119E+06     64.9333E+06    -554.832E+03    -291.395E-03     582.674E-03    -291.278E-03     135.175E-03    -294.503E-03     585.594E-03    -290.954E-03     110.722E-03
            2008     8.74527E-03     40.5967E-03    -42.6239E+06     24.7397E+06     54.8873E+06     1.15616E+06    -291.663E-03     583.103E-03    -291.440E-03     133.397E-03    -294.575E-03     585.793E-03    -291.139E-03     110.202E-03
            2009     8.07047E-03     40.3981E-03    -50.6321E+06     15.4641E+06     46.1220E+06     2.36964E+06    -291.904E-03     583.524E-03    -291.620E-03     129.907E-03    -294.612E-03     585.974E-03    -291.339E-03     107.996E-03
            2010     7.39636E-03     40.2044E-03    -59.1388E+06    -5.88077E+06     35.1866E+06     1.99169E+06    -292.205E-03     584.017E-03    -291.812E-03     125.237E-03    -294.691E-03     586.170E-03    -291.542E-03     104.544E-03
            2011     6.72257E-03     40.0184E-03    -68.0746E+06    -41.4214E+06     20.0750E+06     856.424E+03    -292.489E-03     584.488E-03    -291.998E-03     119.524E-03    -294.726E-03     586.278E-03    -291.739E-03     100.055E-03
            2012     6.04921E-03     39.8414E-03    -77.4323E+06    -74.9267E+06     3.47458E+06    -53.7347E+03    -292.656E-03     584.823E-03    -292.167E-03     112.537E-03    -294.639E-03     586.255E-03    -291.929E-03     94.3458E-03
            2013     5.37609E-03     39.6759E-03    -86.8711E+06    -103.918E+06    -13.8242E+06    -46.1014E+03    -292.737E-03     585.055E-03    -292.318E-03     104.308E-03    -294.459E-03     586.140E-03    -292.110E-03     87.5201E-03
            2014     4.70294E-03     39.5244E-03    -96.2333E+06    -132.449E+06    -31.9703E+06    -30.4550E+03    -292.816E-03     585.267E-03    -292.451E-03     94.6665E-03    -294.266E-03     585.998E-03    -292.280E-03     79.4290E-03
            2015     4.03075E-03     39.3872E-03    -105.615E+06    -157.959E+06    -51.2668E+06     77.8725E+03    -292.898E-03     585.450E-03    -292.553E-03     83.8551E-03    -294.073E-03     585.839E-03    -292.427E-03     70.3702E-03
            2016     3.35914E-03     39.2672E-03    -114.714E+06    -180.461E+06    -71.6226E+06     342.265E+03    -292.903E-03     585.521E-03    -292.618E-03     72.0271E-03    -293.815E-03     585.593E-03    -292.548E-03     60.4651E-03
            2017     2.68632E-03     39.1669E-03    -122.991E+06    -203.385E+06    -92.1814E+06     330.903E+03    -292.887E-03     585.540E-03    -292.653E-03     58.9479E-03    -293.552E-03     585.313E-03    -292.640E-03     49.4388E-03
            2018     2.01454E-03     39.0876E-03    -129.658E+06    -223.231E+06    -110.863E+06     169.170E+03    -292.886E-03     585.534E-03    -292.648E-03     44.9147E-03    -293.333E-03     585.050E-03    -292.691E-03     37.6220E-03
            2019     1.34347E-03     39.0283E-03    -135.273E+06    -239.391E+06    -126.854E+06     155.802E+03    -292.736E-03     585.354E-03    -292.619E-03     30.4413E-03    -293.017E-03     584.674E-03    -292.710E-03     25.4366E-03
            2020     671.386E-06     38.9921E-03    -138.035E+06    -255.653E+06    -136.380E+06     540.811E+03    -292.722E-03     585.262E-03    -292.540E-03     16.2299E-03    -292.889E-03     584.427E-03    -292.651E-03     13.4648E-03
            2021     12.7934E-03     40.0062E-03    -4.91161E+06     68.3878E+06     93.4718E+06     1.02350E+06    -287.374E-03     577.926E-03    -290.552E-03     85.7979E-03    -289.818E-03     580.324E-03    -290.176E-03     61.5663E-03
            2022     12.1187E-03     39.8519E-03    -9.74952E+06     70.9196E+06     94.6372E+06     1.41756E+06    -288.132E-03     578.830E-03    -290.698E-03     114.981E-03    -291.418E-03     582.059E-03    -290.314E-03     87.1327E-03
            2023     11.4422E-03     39.6884E-03    -16.0698E+06     58.4117E+06     89.4802E+06    -89.7204E+03    -288.912E-03     579.767E-03    -290.855E-03     122.119E-03    -292.127E-03     582.873E-03    -290.469E-03     95.4476E-03
            2024     10.7682E-03     39.5017E-03    -22.7146E+06     51.1036E+06     84.1777E+06    -1.29173E+06    -289.884E-03     580.903E-03    -291.019E-03     131.271E-03    -293.233E-03     584.109E-03    -290.639E-03     104.698E-03
            2025     10.0942E-03     39.3064E-03    -29.6454E+06     46.9990E+06     74.7875E+06    -1.52378E+06    -290.586E-03     581.755E-03    -291.169E-03     135.048E-03    -293.859E-03     584.873E-03    -290.820E-03     109.454E-03
            2026     9.41858E-03     39.1044E-03    -37.4240E+06     33.2170E+06     61.9004E+06    -556.308E+03    -291.116E-03     582.448E-03    -291.333E-03     135.730E-03    -294.232E-03     585.370E-03    -291.017E-03     111.298E-03
            2027     8.74339E-03     38.9029E-03    -45.3393E+06     21.2421E+06     51.6481E+06     242.066E+03    -291.676E-03     583.190E-03    -291.514E-03     133.980E-03    -294.602E-03     585.881E-03    -291.221E-03     110.764E-03
            2028     8.06978E-03     38.7033E-03    -52.3973E+06     13.4854E+06     44.5050E+06     515.699E+03    -292.080E-03     583.782E-03    -291.701E-03     130.550E-03    -294.805E-03     586.240E-03    -291.422E-03     108.566E-03
            2029     7.39578E-03     38.5096E-03    -59.7205E+06    -4.86344E+06     35.3733E+06     1.15116E+06    -292.328E-03     584.222E-03    -291.894E-03     125.799E-03    -294.830E-03     586.392E-03    -291.624E-03     105.064E-03
            2030     6.72202E-03     38.3219E-03    -68.0751E+06    -39.1786E+06     20.6533E+06     1.13662E+06    -292.551E-03     584.633E-03    -292.082E-03     119.908E-03    -294.802E-03     586.444E-03    -291.823E-03     100.393E-03
            2031     6.04863E-03     38.1444E-03    -77.1287E+06    -74.0866E+06     3.75335E+06     1.13787E+06    -292.710E-03     584.966E-03    -292.255E-03     112.759E-03    -294.700E-03     586.408E-03    -292.017E-03     94.5362E-03
            2032     5.37536E-03     37.9782E-03    -86.6642E+06    -103.336E+06    -13.7490E+06     932.964E+03    -292.919E-03     585.322E-03    -292.403E-03     104.394E-03    -294.645E-03     586.413E-03    -292.196E-03     87.5853E-03
            2033     4.70312E-03     37.8248E-03    -96.3734E+06    -132.126E+06    -32.3082E+06     740.094E+03    -293.132E-03     585.643E-03    -292.511E-03     94.7607E-03    -294.585E-03     586.379E-03    -292.341E-03     79.5072E-03
            2034     4.03074E-03     37.6877E-03    -105.896E+06    -157.901E+06    -51.7656E+06     745.692E+03    -293.139E-03     585.716E-03    -292.576E-03     83.9019E-03    -294.317E-03     586.107E-03    -292.453E-03     70.4019E-03
            2035     3.35779E-03     37.5671E-03    -114.489E+06    -180.191E+06    -71.7508E+06     588.094E+03    -292.979E-03     585.594E-03    -292.615E-03     71.7233E-03    -293.889E-03     585.666E-03    -292.547E-03     60.1472E-03
            2036     2.68656E-03     37.4662E-03    -122.602E+06    -202.708E+06    -91.9709E+06     342.233E+03    -292.903E-03     585.540E-03    -292.636E-03     58.6652E-03    -293.565E-03     585.314E-03    -292.625E-03     49.1575E-03
            2037     2.01534E-03     37.3853E-03    -130.083E+06    -223.067E+06    -111.120E+06     275.209E+03    -292.881E-03     585.505E-03    -292.624E-03     45.1978E-03    -293.332E-03     585.024E-03    -292.667E-03     37.8987E-03
            2038     1.34350E-03     37.3280E-03    -135.290E+06    -238.953E+06    -127.175E+06     242.891E+03    -292.754E-03     585.335E-03    -292.580E-03     31.1033E-03    -293.039E-03     584.659E-03    -292.674E-03     26.0722E-03
            2039     672.056E-06     37.2918E-03    -137.723E+06    -255.104E+06    -136.262E+06    -136.166E+03    -292.930E-03     585.178E-03    -292.248E-03     17.1614E-03    -293.098E-03     584.347E-03    -292.360E-03     14.3596E-03
            2040     12.7927E-03     38.3151E-03    -5.48563E+06     67.0959E+06     92.4701E+06    -278.776E+03    -287.109E-03     577.628E-03    -290.519E-03     85.0765E-03    -289.554E-03     580.024E-03    -290.146E-03     60.7809E-03
            2041     12.1177E-03     38.1605E-03    -9.94838E+06     70.3436E+06     93.6278E+06    -204.448E+03    -287.693E-03     578.375E-03    -290.682E-03     115.349E-03    -290.991E-03     581.616E-03    -290.302E-03     87.4639E-03
            2042     11.4445E-03     37.9977E-03    -14.5221E+06     60.3205E+06     90.9438E+06     656.721E+03    -288.730E-03     579.597E-03    -290.867E-03     123.483E-03    -291.960E-03     582.726E-03    -290.478E-03     96.8701E-03
            2043     10.7682E-03     37.8115E-03    -21.2406E+06     52.9993E+06     86.0176E+06     784.255E+03    -289.602E-03     580.658E-03    -291.056E-03     132.794E-03    -292.971E-03     583.890E-03    -290.672E-03     106.298E-03
            2044     10.0920E-03     37.6137E-03    -29.6428E+06     46.4979E+06     74.9521E+06     806.191E+03    -290.386E-03     581.615E-03    -291.229E-03     135.917E-03    -293.669E-03     584.740E-03    -290.879E-03     110.407E-03
            2045     9.41775E-03     37.4125E-03    -37.5658E+06     32.5009E+06     61.0611E+06     785.942E+03    -291.196E-03     582.597E-03    -291.401E-03     136.301E-03    -294.322E-03     585.529E-03    -291.089E-03     111.864E-03
            2046     8.74372E-03     37.2091E-03    -44.5896E+06     21.8252E+06     51.4287E+06    -163.677E+03    -291.796E-03     583.379E-03    -291.583E-03     134.267E-03    -294.732E-03     586.085E-03    -291.293E-03     110.973E-03
            2047     8.06894E-03     37.0087E-03    -52.2789E+06     12.8725E+06     44.0259E+06    -630.771E+03    -292.152E-03     583.922E-03    -291.770E-03     130.678E-03    -294.886E-03     586.388E-03    -291.493E-03     108.614E-03
            2048     7.39508E-03     36.8136E-03    -60.8639E+06    -7.08438E+06     33.7109E+06    -44.6300E+03    -292.475E-03     584.433E-03    -291.957E-03     126.055E-03    -294.991E-03     586.609E-03    -291.690E-03     105.211E-03
            2049     6.72165E-03     36.6255E-03    -69.7379E+06    -39.7695E+06     19.0792E+06     1.05147E+06    -292.724E-03     584.859E-03    -292.135E-03     120.088E-03    -294.992E-03     586.683E-03    -291.880E-03     100.488E-03
            2050     6.04821E-03     36.4474E-03    -78.9398E+06    -73.4980E+06     2.49527E+06     1.30335E+06    -292.974E-03     585.263E-03    -292.289E-03     112.827E-03    -294.977E-03     586.717E-03    -292.056E-03     94.5612E-03
            2051     5.37560E-03     36.2793E-03    -88.1270E+06    -102.735E+06    -14.6715E+06     1.22433E+06    -293.152E-03     585.562E-03    -292.410E-03     104.324E-03    -294.884E-03     586.659E-03    -292.206E-03     87.5068E-03
            2052     4.70266E-03     36.1259E-03    -97.2452E+06    -131.389E+06    -32.7857E+06     1.11879E+06    -293.213E-03     585.711E-03    -292.498E-03     94.6949E-03    -294.669E-03     586.451E-03    -292.330E-03     79.4506E-03
            2053     4.03057E-03     35.9869E-03    -105.860E+06    -156.865E+06    -51.6040E+06     734.782E+03    -293.228E-03     585.775E-03    -292.547E-03     83.8697E-03    -294.409E-03     586.174E-03    -292.424E-03     70.3359E-03
            2054     3.35968E-03     35.8673E-03    -114.887E+06    -179.405E+06    -71.6718E+06     413.825E+03    -293.069E-03     585.631E-03    -292.562E-03     71.9553E-03    -293.986E-03     585.711E-03    -292.494E-03     60.3491E-03
            2055     2.68716E-03     35.7653E-03    -123.510E+06    -202.423E+06    -92.1431E+06     447.834E+03    -292.803E-03     585.379E-03    -292.576E-03     59.0810E-03    -293.472E-03     585.159E-03    -292.564E-03     49.5701E-03
            2056     2.01440E-03     35.6858E-03    -130.309E+06    -222.525E+06    -111.231E+06     334.354E+03    -292.623E-03     585.232E-03    -292.610E-03     45.2009E-03    -293.076E-03     584.755E-03    -292.654E-03     37.8940E-03
            2057     1.34266E-03     35.6257E-03    -135.374E+06    -238.430E+06    -127.298E+06    -11.7200E+03    -292.572E-03     585.246E-03    -292.674E-03     30.7832E-03    -292.857E-03     584.573E-03    -292.768E-03     25.7435E-03
            2058     671.072E-06     35.5913E-03    -138.787E+06    -255.397E+06    -137.108E+06     6.04690E+03    -292.719E-03     585.495E-03    -292.776E-03     17.4037E-03    -292.890E-03     584.665E-03    -292.890E-03     14.5757E-03
            2059     12.7954E-03     36.6283E-03    -4.22582E+06     67.9786E+06     92.5639E+06    -510.301E+03    -286.528E-03     577.040E-03    -290.511E-03     86.3521E-03    -288.990E-03     579.459E-03    -290.141E-03     62.0647E-03
            2060     12.1188E-03     36.4712E-03    -9.91834E+06     69.0943E+06     92.8345E+06    -414.586E+03    -287.253E-03     577.960E-03    -290.708E-03     116.829E-03    -290.567E-03     581.216E-03    -290.329E-03     89.0140E-03
            2061     11.4408E-03     36.3074E-03    -17.4429E+06     58.5300E+06     88.2124E+06    -214.420E+03    -288.519E-03     579.431E-03    -290.912E-03     123.969E-03    -291.766E-03     582.569E-03    -290.531E-03     97.3575E-03
            2062     10.7665E-03     36.1194E-03    -24.0565E+06     51.6472E+06     83.6982E+06     766.110E+03    -289.571E-03     580.684E-03    -291.113E-03     132.807E-03    -292.957E-03     583.926E-03    -290.735E-03     106.279E-03
            2063     10.0925E-03     35.9230E-03    -29.5749E+06     46.0911E+06     75.3493E+06     1.78698E+06    -290.488E-03     581.784E-03    -291.296E-03     136.068E-03    -293.784E-03     584.920E-03    -290.943E-03     110.513E-03
            2064     9.41710E-03     35.7188E-03    -36.1499E+06     35.2866E+06     63.9454E+06     830.299E+03    -291.412E-03     582.880E-03    -291.468E-03     136.660E-03    -294.555E-03     585.834E-03    -291.147E-03     112.146E-03
            2065     8.74254E-03     35.5146E-03    -43.7195E+06     23.0897E+06     53.4276E+06     30.8236E+03    -291.982E-03     583.620E-03    -291.638E-03     134.571E-03    -294.935E-03     586.345E-03    -291.341E-03     111.189E-03
            2066     8.06895E-03     35.3144E-03    -52.1017E+06     12.1673E+06     44.0926E+06     961.600E+03    -292.296E-03     584.107E-03    -291.811E-03     130.993E-03    -295.045E-03     586.586E-03    -291.532E-03     108.857E-03
            2067     7.39505E-03     35.1175E-03    -61.5105E+06    -7.87162E+06     32.8285E+06     1.43344E+06    -292.621E-03     584.607E-03    -291.986E-03     126.279E-03    -295.148E-03     586.792E-03    -291.721E-03     105.392E-03
            2068     6.72137E-03     34.9292E-03    -70.8656E+06    -40.0569E+06     18.0476E+06     988.767E+03    -292.989E-03     585.134E-03    -292.145E-03     120.213E-03    -295.267E-03     586.966E-03    -291.894E-03     100.567E-03
            2069     6.04860E-03     34.7488E-03    -79.6203E+06    -73.0799E+06     2.01381E+06     801.583E+03    -293.238E-03     585.511E-03    -292.273E-03     113.034E-03    -295.250E-03     586.975E-03    -292.041E-03     94.7180E-03
            2070     5.37574E-03     34.5812E-03    -88.3962E+06    -102.208E+06    -14.7832E+06     655.005E+03    -293.320E-03     585.687E-03    -292.367E-03     104.616E-03    -295.061E-03     586.795E-03    -292.165E-03     87.7395E-03
            2071     4.70368E-03     34.4263E-03    -97.0742E+06    -130.620E+06    -32.3588E+06     314.144E+03    -293.236E-03     585.676E-03    -292.439E-03     94.9630E-03    -294.699E-03     586.424E-03    -292.271E-03     79.6733E-03
            2072     4.03128E-03     34.2877E-03    -106.229E+06    -156.470E+06    -51.2638E+06     225.507E+03    -292.977E-03     585.480E-03    -292.503E-03     84.2296E-03    -294.164E-03     585.883E-03    -292.378E-03     70.6975E-03
            2073     3.35804E-03     34.1662E-03    -115.142E+06    -179.136E+06    -71.4026E+06     393.573E+03    -292.905E-03     585.459E-03    -292.554E-03     72.4719E-03    -293.828E-03     585.545E-03    -292.484E-03     60.8465E-03
            2074     2.68655E-03     34.0659E-03    -123.020E+06    -202.031E+06    -91.7875E+06     275.383E+03    -292.980E-03     585.542E-03    -292.562E-03     59.3308E-03    -293.652E-03     585.326E-03    -292.550E-03     49.7764E-03
            2075     2.01565E-03     33.9841E-03    -129.897E+06    -221.904E+06    -110.758E+06     131.131E+03    -292.739E-03     585.280E-03    -292.542E-03     45.1024E-03    -293.192E-03     584.805E-03    -292.585E-03     37.7789E-03
            2076     1.34376E-03     33.9267E-03    -135.395E+06    -238.444E+06    -126.710E+06     322.928E+03    -292.520E-03     585.080E-03    -292.561E-03     30.7600E-03    -292.804E-03     584.405E-03    -292.652E-03     25.7762E-03
            2077     671.619E-06     33.8887E-03    -138.155E+06    -254.967E+06    -136.359E+06     317.979E+03    -292.439E-03     585.234E-03    -292.795E-03     16.8825E-03    -292.607E-03     584.403E-03    -292.907E-03     14.1200E-03
            2078     12.7910E-03     34.9374E-03    -4.40159E+06     67.9751E+06     92.8528E+06    -506.149E+03    -286.362E-03     576.923E-03    -290.561E-03     86.7237E-03    -288.828E-03     579.345E-03    -290.189E-03     62.4519E-03
            2079     12.1162E-03     34.7825E-03    -10.9279E+06     66.5391E+06     92.1069E+06     121.922E+03    -287.577E-03     578.332E-03    -290.755E-03     116.763E-03    -290.902E-03     581.588E-03    -290.375E-03     88.8649E-03
            2080     11.4432E-03     34.6164E-03    -16.5076E+06     58.8680E+06     89.0050E+06     1.12411E+06    -288.536E-03     579.488E-03    -290.952E-03     123.945E-03    -291.800E-03     582.644E-03    -290.568E-03     97.2419E-03
            2081     10.7671E-03     34.4296E-03    -22.9199E+06     51.3392E+06     84.2771E+06     685.596E+03    -289.575E-03     580.728E-03    -291.153E-03     133.016E-03    -292.975E-03     583.985E-03    -290.773E-03     106.401E-03
            2082     10.0909E-03     34.2301E-03    -30.8163E+06     44.0511E+06     73.7095E+06     538.023E+03    -290.717E-03     582.043E-03    -291.326E-03     136.508E-03    -294.036E-03     585.195E-03    -290.976E-03     110.822E-03
            2083     9.41704E-03     34.0257E-03    -38.5846E+06     37.8484E+06     62.0923E+06     1.26985E+06    -291.496E-03     582.978E-03    -291.482E-03     136.779E-03    -294.670E-03     585.969E-03    -291.171E-03     112.170E-03
            2084     8.74290E-03     33.8205E-03    -46.7883E+06     24.2881E+06     50.3210E+06     1.06293E+06    -291.936E-03     583.584E-03    -291.648E-03     134.736E-03    -294.916E-03     586.338E-03    -291.364E-03     111.301E-03
            2085     8.06853E-03     33.6187E-03    -54.7696E+06     9.95300E+06     41.4511E+06     558.084E+03    -292.428E-03     584.253E-03    -291.826E-03     131.455E-03    -295.201E-03     586.748E-03    -291.553E-03     109.227E-03
            2086     7.39483E-03     33.4219E-03    -62.1470E+06    -7.22171E+06     33.1493E+06     770.749E+03    -292.886E-03     584.880E-03    -291.994E-03     126.803E-03    -295.435E-03     587.087E-03    -291.728E-03     105.820E-03
            2087     6.72181E-03     33.2313E-03    -70.0465E+06    -38.5944E+06     19.2984E+06     542.060E+03    -293.175E-03     585.311E-03    -292.135E-03     120.728E-03    -295.466E-03     587.159E-03    -291.881E-03     101.018E-03
            2088     6.04870E-03     33.0513E-03    -78.6612E+06    -72.7638E+06     2.99019E+06     61.9435E+03    -293.329E-03     585.580E-03    -292.251E-03     113.652E-03    -295.353E-03     587.057E-03    -292.016E-03     95.2577E-03
            2089     5.37610E-03     32.8820E-03    -87.3813E+06    -101.935E+06    -13.8030E+06    -102.691E+03    -293.356E-03     585.696E-03    -292.339E-03     105.313E-03    -295.108E-03     586.815E-03    -292.134E-03     88.3680E-03
            2090     4.70340E-03     32.7270E-03    -96.4710E+06    -130.606E+06    -31.6509E+06    -47.0133E+03    -293.236E-03     585.646E-03    -292.410E-03     95.5653E-03    -294.706E-03     586.402E-03    -292.239E-03     80.2220E-03
            2091     4.03098E-03     32.5886E-03    -105.595E+06    -156.533E+06    -50.9218E+06     37.9420E+03    -293.075E-03     585.536E-03    -292.461E-03     84.3739E-03    -294.262E-03     585.941E-03    -292.336E-03     70.8146E-03
            2092     3.35929E-03     32.4675E-03    -114.177E+06    -179.359E+06    -71.0327E+06    -64.5153E+03    -292.930E-03     585.421E-03    -292.491E-03     72.1331E-03    -293.845E-03     585.500E-03    -292.421E-03     60.5254E-03
            2093     2.68711E-03     32.3635E-03    -122.095E+06    -201.859E+06    -90.9788E+06    -39.8049E+03    -292.743E-03     585.258E-03    -292.514E-03     59.1158E-03    -293.409E-03     585.037E-03    -292.499E-03     49.5729E-03
            2094     2.01485E-03     32.2844E-03    -129.287E+06    -222.087E+06    -110.102E+06     203.547E+03    -292.688E-03     585.211E-03    -292.523E-03     45.3937E-03    -293.140E-03     584.735E-03    -292.564E-03     38.0681E-03
            2095     1.34299E-03     32.2258E-03    -134.258E+06    -238.144E+06    -125.844E+06     207.500E+03    -292.750E-03     585.222E-03    -292.472E-03     31.2668E-03    -293.032E-03     584.547E-03    -292.561E-03     26.2850E-03
            2096     671.983E-06     32.1879E-03    -136.560E+06    -254.127E+06    -135.153E+06    -118.185E+03    -292.509E-03     584.911E-03    -292.403E-03     17.0039E-03    -292.672E-03     584.080E-03    -292.512E-03     14.2679E-03
            2097     12.7938E-03     33.2490E-03    -5.98638E+06     66.6645E+06     91.1152E+06    -225.479E+03    -286.460E-03     577.052E-03    -290.592E-03     87.0396E-03    -288.945E-03     579.488E-03    -290.224E-03     62.7130E-03
            2098     12.1182E-03     33.0916E-03    -10.8705E+06     66.6070E+06     92.2949E+06    -216.604E+03    -287.570E-03     578.360E-03    -290.790E-03     117.122E-03    -290.921E-03     581.641E-03    -290.409E-03     89.1119E-03
            2099     11.4406E-03     32.9265E-03    -16.6966E+06     59.0208E+06     90.1447E+06     719.168E+03    -288.641E-03     579.633E-03    -290.992E-03     124.866E-03    -291.940E-03     582.821E-03    -290.602E-03     98.0577E-03
            2100     10.7657E-03     32.7380E-03    -23.3758E+06     51.1018E+06     84.9872E+06     936.983E+03    -289.928E-03     581.109E-03    -291.182E-03     133.622E-03    -293.359E-03     584.392E-03    -290.797E-03     106.887E-03
            2101     10.0921E-03     32.5377E-03    -29.7906E+06     43.9140E+06     74.5921E+06     1.38840E+06    -290.849E-03     582.189E-03    -291.339E-03     136.856E-03    -294.184E-03     585.358E-03    -290.987E-03     111.100E-03
            2102     9.41713E-03     32.3320E-03    -36.1337E+06     35.9085E+06     62.9055E+06     1.84621E+06    -291.437E-03     582.934E-03    -291.497E-03     137.449E-03    -294.623E-03     585.937E-03    -291.182E-03     112.770E-03
            2103     8.74253E-03     32.1268E-03    -42.6202E+06     24.9118E+06     53.3253E+06     3.01566E+06    -292.043E-03     583.715E-03    -291.671E-03     135.552E-03    -295.032E-03     586.486E-03    -291.379E-03     112.073E-03
            2104     8.06851E-03     31.9238E-03    -50.5489E+06     14.1083E+06     45.2558E+06     2.11997E+06    -292.623E-03     584.465E-03    -291.842E-03     132.055E-03    -295.406E-03     586.987E-03    -291.563E-03     109.785E-03
            2105     7.39509E-03     31.7247E-03    -59.2402E+06    -5.88996E+06     35.2565E+06     36.3163E+03    -293.025E-03     585.023E-03    -291.997E-03     127.375E-03    -295.586E-03     587.250E-03    -291.727E-03     106.288E-03
            2106     6.72167E-03     31.5344E-03    -67.7653E+06    -38.6722E+06     20.9858E+06    -93.6241E+03    -293.262E-03     585.394E-03    -292.132E-03     121.335E-03    -295.563E-03     587.256E-03    -291.873E-03     101.524E-03
            2107     6.04872E-03     31.3530E-03    -76.4378E+06    -72.2520E+06     4.70126E+06     188.380E+03    -293.371E-03     585.614E-03    -292.243E-03     114.131E-03    -295.400E-03     587.102E-03    -292.004E-03     95.6787E-03
            2108     5.37597E-03     31.1834E-03    -85.7316E+06    -102.087E+06    -12.4600E+06     236.398E+03    -293.356E-03     585.687E-03    -292.331E-03     105.600E-03    -295.108E-03     586.809E-03    -292.121E-03     88.6267E-03
            2109     4.70350E-03     31.0282E-03    -95.0649E+06    -130.492E+06    -30.7419E+06     285.942E+03    -293.342E-03     585.734E-03    -292.392E-03     95.6235E-03    -294.810E-03     586.490E-03    -292.219E-03     80.2631E-03
            2110     4.03141E-03     30.8884E-03    -104.200E+06    -156.234E+06    -50.1551E+06     55.6688E+03    -293.317E-03     585.727E-03    -292.410E-03     84.5556E-03    -294.503E-03     586.134E-03    -292.283E-03     70.9673E-03
            2111     3.35947E-03     30.7667E-03    -113.189E+06    -179.407E+06    -70.3766E+06     6.20632E+03    -293.042E-03     585.440E-03    -292.399E-03     72.5305E-03    -293.957E-03     585.521E-03    -292.326E-03     60.9053E-03
            2112     2.68731E-03     30.6655E-03    -121.448E+06    -202.276E+06    -90.5911E+06     35.1435E+03    -292.657E-03     585.057E-03    -292.400E-03     59.1389E-03    -293.319E-03     584.833E-03    -292.383E-03     49.6221E-03
            2113     2.01500E-03     30.5838E-03    -128.232E+06    -222.023E+06    -109.407E+06    -109.373E+03    -292.636E-03     585.027E-03    -292.391E-03     44.9361E-03    -293.080E-03     584.545E-03    -292.431E-03     37.6362E-03
            2114     1.34382E-03     30.5239E-03    -133.354E+06    -237.823E+06    -125.364E+06    -205.644E+03    -292.605E-03     584.923E-03    -292.318E-03     30.4841E-03    -292.882E-03     584.246E-03    -292.407E-03     25.4540E-03
            2115     671.661E-06     30.4885E-03    -136.452E+06    -253.895E+06    -134.576E+06     113.973E+03    -292.324E-03     584.581E-03    -292.257E-03     16.5521E-03    -292.488E-03     583.750E-03    -292.364E-03     13.8042E-03
            2116     12.7908E-03     31.5575E-03    -4.81601E+06     68.3227E+06     91.9335E+06     1.03080E+06    -286.281E-03     576.870E-03    -290.590E-03     86.8042E-03    -288.759E-03     579.308E-03    -290.222E-03     62.5405E-03
            2117     12.1153E-03     31.4028E-03    -10.0234E+06     67.1844E+06     92.4881E+06     101.909E+03    -287.216E-03     578.017E-03    -290.800E-03     116.701E-03    -290.563E-03     581.298E-03    -290.421E-03     88.7238E-03
            2118     11.4416E-03     31.2359E-03    -15.7055E+06     55.5746E+06     88.4404E+06    -110.328E+03    -288.605E-03     579.614E-03    -291.009E-03     124.793E-03    -291.904E-03     582.798E-03    -290.625E-03     97.9124E-03
            2119     10.7669E-03     31.0455E-03    -21.7695E+06     50.6541E+06     84.6453E+06     835.180E+03    -289.873E-03     581.079E-03    -291.206E-03     134.508E-03    -293.328E-03     584.391E-03    -290.825E-03     107.672E-03
            2120     10.0912E-03     30.8452E-03    -28.3132E+06     44.8449E+06     75.9954E+06     337.274E+03    -290.937E-03     582.314E-03    -291.377E-03     138.208E-03    -294.311E-03     585.526E-03    -291.021E-03     112.320E-03
            2121     9.41653E-03     30.6395E-03    -34.7396E+06     32.9934E+06     64.1362E+06     534.056E+03    -291.697E-03     583.232E-03    -291.535E-03     138.208E-03    -294.900E-03     586.243E-03    -291.211E-03     113.431E-03
            2122     8.74223E-03     30.4320E-03    -41.1996E+06     22.4668E+06     54.8266E+06     1.19116E+06    -292.259E-03     583.956E-03    -291.697E-03     136.085E-03    -295.261E-03     586.733E-03    -291.396E-03     112.505E-03
            2123     8.06865E-03     30.2277E-03    -47.4928E+06     16.3820E+06     48.4827E+06     2.09922E+06    -292.740E-03     584.599E-03    -291.858E-03     132.793E-03    -295.540E-03     587.148E-03    -291.571E-03     110.433E-03
            2124     7.39489E-03     30.0286E-03    -55.3589E+06    -2.85090E+06     38.2936E+06     2.60549E+06    -293.113E-03     585.120E-03    -292.007E-03     128.047E-03    -295.684E-03     587.374E-03    -291.731E-03     106.923E-03
            2125     6.72174E-03     29.8367E-03    -65.1019E+06    -37.5727E+06     22.7779E+06     1.73694E+06    -293.427E-03     585.560E-03    -292.133E-03     121.821E-03    -295.736E-03     587.438E-03    -291.870E-03     101.959E-03
            2126     6.04891E-03     29.6549E-03    -75.0146E+06    -71.7265E+06     5.91710E+06     1.33204E+06    -293.589E-03     585.813E-03    -292.224E-03     114.258E-03    -295.622E-03     587.308E-03    -291.982E-03     95.7730E-03
            2127     5.37614E-03     29.4851E-03    -84.3338E+06    -101.379E+06    -11.4834E+06     1.17604E+06    -293.584E-03     585.863E-03    -292.279E-03     105.382E-03    -295.333E-03     586.986E-03    -292.067E-03     88.3949E-03
            2128     4.70380E-03     29.3283E-03    -93.8403E+06    -129.630E+06    -29.9656E+06     827.825E+03    -293.467E-03     585.771E-03    -292.303E-03     95.3100E-03    -294.930E-03     586.527E-03    -292.129E-03     79.9526E-03
            2129     4.03166E-03     29.1889E-03    -103.308E+06    -155.499E+06    -49.2545E+06     580.269E+03    -293.249E-03     585.549E-03    -292.301E-03     84.1559E-03    -294.429E-03     585.954E-03    -292.172E-03     70.5839E-03
            2130     3.35931E-03     29.0670E-03    -112.150E+06    -178.801E+06    -69.3318E+06     493.065E+03    -293.060E-03     585.326E-03    -292.265E-03     71.8007E-03    -293.969E-03     585.402E-03    -292.190E-03     60.1723E-03
            2131     2.68763E-03     28.9651E-03    -120.326E+06    -201.577E+06    -89.6584E+06     380.808E+03    -292.893E-03     585.080E-03    -292.187E-03     58.5392E-03    -293.548E-03     584.853E-03    -292.169E-03     49.0301E-03
            2132     2.01645E-03     28.8838E-03    -127.687E+06    -221.816E+06    -108.807E+06     189.001E+03    -292.477E-03     584.574E-03    -292.097E-03     44.8827E-03    -292.918E-03     584.090E-03    -292.134E-03     37.6119E-03
            2133     1.34397E-03     28.8245E-03    -133.305E+06    -238.070E+06    -124.935E+06     180.328E+03    -292.108E-03     584.170E-03    -292.062E-03     30.6629E-03    -292.385E-03     583.491E-03    -292.148E-03     25.6592E-03
            2134     672.199E-06     28.7894E-03    -136.345E+06    -253.692E+06    -134.502E+06     163.262E+03    -291.931E-03     584.187E-03    -292.256E-03     16.7183E-03    -292.095E-03     583.357E-03    -292.363E-03     13.9820E-03
            2135     12.7947E-03     29.8722E-03    -4.80182E+06     68.1487E+06     92.2065E+06     499.137E+03    -286.304E-03     576.876E-03    -290.571E-03     86.9378E-03    -288.799E-03     579.328E-03    -290.202E-03     62.5206E-03
            2136     12.1181E-03     29.7133E-03    -9.49269E+06     67.5097E+06     91.8495E+06     489.576E+03    -286.924E-03     577.707E-03    -290.783E-03     117.149E-03    -290.281E-03     581.003E-03    -290.408E-03     89.1744E-03
            2137     11.4412E-03     29.5454E-03    -15.8085E+06     54.6069E+06     87.3309E+06    -233.090E+03    -288.182E-03     579.198E-03    -291.016E-03     126.006E-03    -291.504E-03     582.405E-03    -290.636E-03     99.1476E-03
            2138     10.7649E-03     29.3552E-03    -22.0479E+06     50.3928E+06     83.6360E+06      55.279E+03    -289.746E-03     580.982E-03    -291.236E-03     135.375E-03    -293.225E-03     584.319E-03    -290.859E-03     108.512E-03
            2139     10.0902E-03     29.1518E-03    -28.7692E+06     45.8995E+06     74.8748E+06    -75.4187E+03    -291.033E-03     582.441E-03    -291.409E-03     138.262E-03    -294.430E-03     585.683E-03    -291.059E-03     112.265E-03
            2140     9.41650E-03     28.9448E-03    -35.8973E+06     32.4027E+06     63.4150E+06    -764.265E+03    -291.916E-03     583.477E-03    -291.561E-03     138.514E-03    -295.153E-03     586.519E-03    -291.239E-03     113.568E-03
            2141     8.74266E-03     28.7380E-03    -42.9394E+06     20.8153E+06     53.8886E+06    -835.437E+03    -292.476E-03     584.187E-03    -291.711E-03     136.783E-03    -295.513E-03     586.989E-03    -291.410E-03     113.060E-03
            2142     8.06822E-03     28.5322E-03    -51.1683E+06     12.8327E+06     45.4748E+06     68.8937E+03    -292.927E-03     584.781E-03    -291.854E-03     133.233E-03    -295.753E-03     587.339E-03    -291.571E-03     110.786E-03
            2143     7.39484E-03     28.3317E-03    -59.4907E+06    -4.16861E+06     35.7932E+06     1.12869E+06    -293.374E-03     585.355E-03    -291.981E-03     128.017E-03    -295.968E-03     587.619E-03    -291.710E-03     106.816E-03
            2144     6.72172E-03     28.1389E-03    -67.4226E+06    -35.9705E+06     22.0680E+06     1.76135E+06    -293.745E-03     585.818E-03    -292.073E-03     121.394E-03    -296.066E-03     587.708E-03    -291.813E-03     101.509E-03
            2145     6.04900E-03     27.9563E-03    -75.8806E+06    -70.7821E+06     5.53335E+06     1.57388E+06    -293.970E-03     586.081E-03    -292.112E-03     113.429E-03    -295.999E-03     587.574E-03    -291.871E-03     94.9466E-03
            2146     5.37705E-03     27.7856E-03    -85.1706E+06    -100.309E+06    -11.8460E+06     1.45758E+06    -293.887E-03     585.987E-03    -292.100E-03     104.316E-03    -295.628E-03     587.105E-03    -291.890E-03     87.3552E-03
            2147     4.70491E-03     27.6297E-03    -94.3777E+06    -128.218E+06    -29.9338E+06     1.23248E+06    -293.581E-03     585.640E-03    -292.059E-03     94.0873E-03    -295.032E-03     586.388E-03    -291.886E-03     78.7925E-03
            2148     4.03263E-03     27.4895E-03    -103.463E+06    -154.448E+06    -49.1924E+06     914.501E+03    -293.283E-03     585.273E-03    -291.990E-03     82.7277E-03    -294.448E-03     585.665E-03    -291.862E-03     69.2434E-03
            2149     3.36100E-03     27.3676E-03    -112.404E+06    -178.363E+06    -69.4713E+06     675.789E+03    -292.941E-03     584.829E-03    -291.888E-03     70.4295E-03    -293.834E-03     584.891E-03    -291.813E-03     58.9187E-03
            2150     2.68899E-03     27.2654E-03    -120.683E+06    -201.165E+06    -89.7165E+06     574.486E+03    -292.488E-03     584.260E-03    -291.772E-03     57.4977E-03    -293.134E-03     584.024E-03    -291.754E-03     48.0811E-03
            2151     2.01635E-03     27.1850E-03    -127.557E+06    -221.219E+06    -108.538E+06     549.290E+03    -292.018E-03     583.695E-03    -291.677E-03     43.8961E-03    -292.454E-03     583.208E-03    -291.714E-03     36.6776E-03
            2152     1.34418E-03     27.1271E-03    -132.504E+06    -237.101E+06    -124.079E+06     324.656E+03    -291.697E-03     583.335E-03    -291.638E-03     29.8970E-03    -291.968E-03     582.654E-03    -291.723E-03     24.9757E-03
            2153     671.704E-06     27.0889E-03    -136.648E+06    -253.277E+06    -134.027E+06     170.195E+03    -291.368E-03     583.318E-03    -291.950E-03     16.0699E-03    -291.532E-03     582.487E-03    -292.055E-03     13.3758E-03
            2154     12.7910E-03     28.1803E-03    -4.48160E+06     67.0475E+06     91.2177E+06    -185.353E+03    -286.083E-03     576.658E-03    -290.575E-03     87.6638E-03    -288.585E-03     579.117E-03    -290.210E-03     63.2364E-03
            2155     12.1164E-03     28.0255E-03    -10.5365E+06     67.9193E+06     91.4278E+06     383.998E+03    -286.936E-03     577.734E-03    -290.799E-03     118.282E-03    -290.321E-03     581.059E-03    -290.425E-03     90.2978E-03
            2156     11.4403E-03     27.8577E-03    -16.5178E+06     56.1613E+06     87.8220E+06     63.1382E+03    -288.461E-03     579.490E-03    -291.029E-03     126.565E-03    -291.822E-03     582.737E-03    -290.647E-03     99.5670E-03
            2157     10.7659E-03     27.6619E-03    -23.0785E+06     48.7630E+06     83.4971E+06    -735.855E+03    -289.890E-03     581.126E-03    -291.236E-03     135.263E-03    -293.394E-03     584.479E-03    -290.856E-03     108.270E-03
            2158     10.0915E-03     27.4599E-03    -29.5181E+06     45.2649E+06     74.6231E+06    -112.041E+03    -290.916E-03     582.320E-03    -291.404E-03     138.648E-03    -294.343E-03     585.586E-03    -291.054E-03     112.575E-03
            2159     9.41605E-03     27.2508E-03    -36.8850E+06     34.5462E+06     61.7962E+06     119.674E+03    -291.900E-03     583.451E-03    -291.551E-03     138.883E-03    -295.166E-03     586.529E-03    -291.239E-03     113.879E-03
            2160     8.74174E-03     27.0426E-03    -45.2079E+06     21.2992E+06     50.8464E+06    -376.450E+03    -292.895E-03     584.575E-03    -291.680E-03     136.661E-03    -295.951E-03     587.399E-03    -291.391E-03     112.864E-03
            2161     8.06885E-03     26.8361E-03    -52.8064E+06     10.7724E+06     43.3080E+06    -835.733E+03    -293.638E-03     585.414E-03    -291.776E-03     132.583E-03    -296.466E-03     587.967E-03    -291.498E-03     110.046E-03
            2162     7.39570E-03     26.6346E-03    -60.6883E+06    -6.29756E+06     34.1802E+06    -903.567E+03    -294.046E-03     585.873E-03    -291.827E-03     126.711E-03    -296.622E-03     588.112E-03    -291.559E-03     105.488E-03
            2163     6.72316E-03     26.4409E-03    -69.2983E+06    -37.3539E+06     20.1590E+06    -317.543E+03    -294.334E-03     586.159E-03    -291.825E-03     119.504E-03    -296.625E-03     588.013E-03    -291.570E-03     99.6689E-03
            2164     6.05120E-03     26.2572E-03    -78.0569E+06    -70.9434E+06     3.86375E+06     435.001E+03    -294.313E-03     586.079E-03    -291.767E-03     111.107E-03    -296.309E-03     587.536E-03    -291.531E-03     92.7328E-03
            2165     5.37897E-03     26.0867E-03    -86.5526E+06    -100.092E+06    -12.7150E+06     563.782E+03    -293.990E-03     585.656E-03    -291.666E-03     101.837E-03    -295.695E-03     586.735E-03    -291.459E-03     85.0313E-03
            2166     4.70702E-03     25.9308E-03    -95.2459E+06    -127.691E+06    -30.4374E+06     638.872E+03    -293.661E-03     585.189E-03    -291.528E-03     91.7591E-03    -295.076E-03     585.901E-03    -291.357E-03     76.6581E-03
            2167     4.03539E-03     25.7909E-03    -104.185E+06    -153.781E+06    -49.6145E+06     705.148E+03    -293.221E-03     584.569E-03    -291.348E-03     80.4545E-03    -294.350E-03     584.927E-03    -291.222E-03     67.2092E-03
            2168     3.36303E-03     25.6694E-03    -112.830E+06    -177.746E+06    -69.7058E+06     573.604E+03    -292.511E-03     583.660E-03    -291.149E-03     68.1642E-03    -293.374E-03     583.694E-03    -291.076E-03     56.8838E-03
            2169     2.69060E-03     25.5684E-03    -120.715E+06    -200.524E+06    -89.7676E+06     337.230E+03    -291.795E-03     582.766E-03    -290.971E-03     55.2991E-03    -292.418E-03     582.509E-03    -290.954E-03     46.0911E-03
            2170     2.01838E-03     25.4882E-03    -127.447E+06    -220.442E+06    -108.471E+06     173.486E+03    -291.355E-03     582.166E-03    -290.811E-03     41.9949E-03    -291.774E-03     581.665E-03    -290.849E-03     34.9586E-03
            2171     1.34595E-03     25.4297E-03    -132.955E+06    -236.904E+06    -124.555E+06     106.379E+03    -290.983E-03     581.638E-03    -290.655E-03     28.4845E-03    -291.247E-03     580.951E-03    -290.742E-03     23.6978E-03
            2172     673.298E-06     25.3940E-03    -135.856E+06    -252.733E+06    -134.365E+06     3.90353E+03    -290.469E-03     581.202E-03    -290.733E-03     15.5595E-03    -290.627E-03     580.370E-03    -290.841E-03     12.9271E-03
            2173     12.7942E-03     26.4939E-03    -4.67254E+06     66.0180E+06     91.3236E+06     105.828E+03    -286.116E-03     576.709E-03    -290.592E-03     87.0633E-03    -288.617E-03     579.163E-03    -290.225E-03     62.6134E-03
            2174     12.1159E-03     26.3378E-03    -9.93853E+06     67.2544E+06     92.0710E+06     157.542E+03    -287.255E-03     578.059E-03    -290.805E-03     117.751E-03    -290.651E-03     581.392E-03    -290.427E-03     89.6317E-03
            2175     11.4418E-03     26.1640E-03    -15.2581E+06     57.8021E+06     89.2018E+06     309.760E+03    -288.703E-03     579.718E-03    -291.015E-03     126.958E-03    -292.098E-03     583.006E-03    -290.631E-03     99.8145E-03
            2176     10.7663E-03     25.9730E-03    -21.4126E+06     50.0136E+06     84.9570E+06     524.217E+03    -289.913E-03     581.130E-03    -291.217E-03     136.468E-03    -293.459E-03     584.530E-03    -290.833E-03     109.385E-03
            2177     10.0902E-03     25.7663E-03    -29.4418E+06     43.9967E+06     74.7503E+06     196.502E+03    -291.319E-03     582.690E-03    -291.371E-03     139.188E-03    -294.767E-03     585.974E-03    -291.019E-03     113.044E-03
            2178     9.41679E-03     25.5576E-03    -36.5765E+06     34.4515E+06     62.7516E+06     634.174E+03    -292.675E-03     584.149E-03    -291.474E-03     138.154E-03    -295.932E-03     587.216E-03    -291.157E-03     113.144E-03
            2179     8.74334E-03     25.3466E-03    -43.0745E+06     23.3374E+06     52.7187E+06     652.770E+03    -293.888E-03     585.407E-03    -291.519E-03     135.004E-03    -296.908E-03     588.204E-03    -291.227E-03     111.246E-03
            2180     8.07029E-03     25.1384E-03    -50.9975E+06     12.2949E+06     44.3031E+06    -282.877E+03    -294.704E-03     586.200E-03    -291.496E-03     129.898E-03    -297.477E-03     588.707E-03    -291.219E-03     107.433E-03
            2181     7.39845E-03     24.9366E-03    -59.9100E+06    -6.65051E+06     34.2132E+06    -375.555E+03    -295.066E-03     586.470E-03    -291.404E-03     123.454E-03    -297.569E-03     588.638E-03    -291.137E-03     102.414E-03
            2182     6.72682E-03     24.7421E-03    -69.0225E+06    -38.2755E+06     19.8461E+06    -224.105E+03    -295.018E-03     586.268E-03    -291.249E-03     115.839E-03    -297.227E-03     588.038E-03    -290.995E-03     96.2730E-03
            2183     6.05512E-03     24.5590E-03    -77.7347E+06    -71.1358E+06     4.03224E+06    -720.244E+03    -294.598E-03     585.644E-03    -291.046E-03     107.186E-03    -296.510E-03     587.016E-03    -290.810E-03     89.1343E-03
            2184     5.38353E-03     24.3892E-03    -86.4193E+06    -100.800E+06    -12.8434E+06    -748.056E+03    -294.122E-03     584.918E-03    -290.796E-03     97.6964E-03    -295.740E-03     585.909E-03    -290.589E-03     81.2721E-03
            2185     4.71157E-03     24.2335E-03    -95.2603E+06    -128.306E+06    -30.8093E+06    -254.618E+03    -293.545E-03     584.042E-03    -290.497E-03     87.3312E-03    -294.875E-03     584.668E-03    -290.327E-03     72.6647E-03
            2186     4.03938E-03     24.0938E-03    -103.958E+06    -153.592E+06    -49.6097E+06    -76.2268E+03    -292.673E-03     582.838E-03    -290.165E-03     75.9800E-03    -293.730E-03     583.124E-03    -290.039E-03     63.1699E-03
            2187     3.36742E-03     23.9743E-03    -112.254E+06    -177.325E+06    -69.3249E+06    -185.462E+03    -291.669E-03     581.501E-03    -289.831E-03     64.0745E-03    -292.474E-03     581.478E-03    -289.758E-03     53.1971E-03
            2188     2.69470E-03     23.8741E-03    -120.025E+06    -200.092E+06    -89.3130E+06    -129.032E+03    -290.759E-03     580.283E-03    -289.524E-03     51.8884E-03    -291.338E-03     579.985E-03    -289.506E-03     43.0709E-03
            2189     2.02125E-03     23.7950E-03    -127.191E+06    -220.434E+06    -108.103E+06     48.1846E+03    -289.980E-03     579.240E-03    -289.260E-03     39.4808E-03    -290.373E-03     578.712E-03    -289.297E-03     32.7953E-03
            2190     1.34759E-03     23.7369E-03    -132.539E+06    -236.667E+06    -123.830E+06     192.090E+03    -289.423E-03     578.470E-03    -289.047E-03     26.7902E-03    -289.675E-03     577.770E-03    -289.131E-03     22.2381E-03
            2191     673.729E-06     23.7025E-03    -135.890E+06    -252.394E+06    -133.512E+06     11.8041E+03    -288.931E-03     577.933E-03    -289.002E-03     14.8339E-03    -289.088E-03     577.098E-03    -289.106E-03     12.3024E-03
            2192     12.7908E-03     24.8057E-03    -5.85202E+06     66.5151E+06     91.3961E+06    -788.807E+03    -286.501E-03     577.100E-03    -290.599E-03     87.8039E-03    -289.038E-03     579.587E-03    -290.230E-03     63.2092E-03
            2193     12.1181E-03     24.6463E-03    -10.4410E+06     66.8268E+06     92.3018E+06    -104.967E+03    -287.562E-03     578.357E-03    -290.795E-03     118.999E-03    -291.009E-03     581.736E-03    -290.415E-03     90.7429E-03
            2194     11.4410E-03     24.4765E-03    -16.1852E+06     56.7420E+06     88.4761E+06     287.091E+03    -288.865E-03     579.855E-03    -290.991E-03     127.870E-03    -292.303E-03     583.181E-03    -290.607E-03     100.611E-03
            2195     10.7653E-03     24.2803E-03    -22.8498E+06     49.0851E+06     82.9411E+06     239.957E+03    -290.913E-03     582.058E-03    -291.146E-03     135.911E-03    -294.470E-03     585.469E-03    -290.769E-03     108.690E-03
            2196     10.0925E-03     24.0732E-03    -29.0296E+06     44.7071E+06     74.2131E+06     972.679E+03    -292.712E-03     583.921E-03    -291.209E-03     137.252E-03    -296.127E-03     587.177E-03    -290.861E-03     111.084E-03
            2197     9.41856E-03     23.8617E-03    -35.9465E+06     35.1811E+06     63.5769E+06     135.620E+03    -294.294E-03     585.478E-03    -291.184E-03     135.482E-03    -297.493E-03     588.490E-03    -290.865E-03     110.509E-03
            2198     8.74658E-03     23.6489E-03    -43.3012E+06     22.9263E+06     53.4535E+06    -547.574E+03    -295.534E-03     586.596E-03    -291.062E-03     131.281E-03    -298.470E-03     589.305E-03    -290.765E-03     107.655E-03
            2199     8.07567E-03     23.4403E-03    -50.7718E+06     12.7718E+06     44.7328E+06     580.738E+03    -296.060E-03     586.903E-03    -290.843E-03     125.072E-03    -298.717E-03     589.295E-03    -290.565E-03     102.953E-03
            2200     7.40456E-03     23.2378E-03    -58.7363E+06    -5.44281E+06     35.0874E+06     615.881E+03    -296.057E-03     586.607E-03    -290.550E-03     118.068E-03    -298.431E-03     588.652E-03    -290.281E-03     97.4615E-03
            2201     6.73378E-03     23.0441E-03    -66.7710E+06    -36.6766E+06     21.5336E+06    -435.317E+03    -295.610E-03     585.803E-03    -290.193E-03     110.110E-03    -297.684E-03     587.447E-03    -289.935E-03     91.0305E-03
            2202     6.06263E-03     22.8626E-03    -75.3094E+06    -70.3158E+06     5.29489E+06    -856.113E+03    -294.995E-03     584.767E-03    -289.772E-03     101.181E-03    -296.768E-03     586.008E-03    -289.534E-03     83.7043E-03
            2203     5.39114E-03     22.6931E-03    -84.2778E+06    -101.726E+06    -11.6665E+06    -702.754E+03    -294.276E-03     583.560E-03    -289.284E-03     91.4660E-03    -295.759E-03     584.416E-03    -289.073E-03     75.6627E-03
            2204     4.71997E-03     22.5388E-03    -93.2784E+06    -129.031E+06    -29.5756E+06    -354.983E+03    -293.043E-03     581.788E-03    -288.745E-03     81.0240E-03    -294.254E-03     582.295E-03    -288.570E-03     66.9893E-03
            2205     4.04796E-03     22.4019E-03    -102.265E+06    -153.032E+06    -48.7168E+06    -344.174E+03    -291.484E-03     579.694E-03    -288.210E-03     70.2586E-03    -292.444E-03     579.888E-03    -288.083E-03     58.0686E-03
            2206     3.37444E-03     22.2837E-03    -111.044E+06    -177.555E+06    -68.8304E+06    -384.791E+03    -290.168E-03     577.877E-03    -287.709E-03     59.1397E-03    -290.898E-03     577.782E-03    -287.635E-03     48.8518E-03
            2207     2.70058E-03     22.1856E-03    -119.284E+06    -200.409E+06    -88.9230E+06    -104.739E+03    -289.000E-03     576.238E-03    -287.238E-03     47.5801E-03    -289.527E-03     575.888E-03    -287.219E-03     39.2739E-03
            2208     2.02632E-03     22.1080E-03    -126.207E+06    -220.607E+06    -107.683E+06     146.074E+03    -287.837E-03     574.665E-03    -286.828E-03     35.8620E-03    -288.195E-03     574.104E-03    -286.864E-03     29.5898E-03
            2209     1.35116E-03     22.0517E-03    -131.151E+06    -236.337E+06    -123.042E+06     188.968E+03    -286.946E-03     573.478E-03    -286.532E-03     24.2097E-03    -287.177E-03     572.761E-03    -286.615E-03     19.9476E-03
            2210     675.843E-06     22.0164E-03    -133.849E+06    -251.550E+06    -132.555E+06     374.226E+03    -286.336E-03     572.851E-03    -286.515E-03     13.0996E-03    -286.480E-03     572.011E-03    -286.619E-03     10.7484E-03
            2211     12.7933E-03     23.1125E-03    -4.32349E+06     68.0560E+06     91.9910E+06     200.909E+03    -286.270E-03     576.863E-03    -290.593E-03     87.8813E-03    -288.808E-03     579.360E-03    -290.225E-03     63.3338E-03
            2212     12.1157E-03     22.9588E-03    -10.3529E+06     66.0562E+06     91.3647E+06    -967.940E+03    -288.024E-03     578.802E-03    -290.778E-03     118.825E-03    -291.496E-03     582.207E-03    -290.402E-03     90.3661E-03
            2213     11.4414E-03     22.7846E-03    -15.8377E+06     54.4608E+06     87.7317E+06    -379.173E+03    -290.746E-03     581.647E-03    -290.901E-03     127.285E-03    -294.189E-03     584.973E-03    -290.518E-03     99.7957E-03
            2214     10.7690E-03     22.5860E-03    -22.1885E+06     48.5951E+06     83.8230E+06     370.509E+03    -293.172E-03     584.089E-03    -290.917E-03     133.847E-03    -296.687E-03     587.455E-03    -290.536E-03     106.564E-03
            2215     10.0955E-03     22.3778E-03    -29.4929E+06     43.8799E+06     74.4718E+06     190.928E+03    -295.155E-03     585.947E-03    -290.792E-03     134.022E-03    -298.499E-03     589.126E-03    -290.440E-03     107.870E-03
            2216     9.42488E-03     22.1637E-03    -36.3917E+06     37.0549E+06     62.6647E+06     562.295E+03    -296.678E-03     587.208E-03    -290.530E-03     130.823E-03    -299.770E-03     590.121E-03    -290.218E-03     106.019E-03
            2217     8.75468E-03     21.9500E-03    -44.0440E+06     24.7063E+06     51.6310E+06     262.165E+03    -297.404E-03     587.561E-03    -290.158E-03     125.513E-03    -300.207E-03     590.147E-03    -289.871E-03     102.236E-03
            2218     8.08461E-03     21.7412E-03    -51.7771E+06     12.1919E+06     43.5971E+06    -1.34484E+06    -297.456E-03     587.152E-03    -289.696E-03     118.962E-03    -299.972E-03     589.402E-03    -289.421E-03     97.2629E-03
            2219     7.41509E-03     21.5399E-03    -58.4980E+06    -4.89889E+06     35.5038E+06    -1.98115E+06    -297.006E-03     586.158E-03    -289.153E-03     111.565E-03    -299.234E-03     588.059E-03    -288.883E-03     91.4550E-03
            2220     6.74482E-03     21.3481E-03    -66.1267E+06    -36.4426E+06     21.5480E+06    -1.35251E+06    -296.334E-03     584.855E-03    -288.521E-03     103.148E-03    -298.256E-03     586.351E-03    -288.265E-03     84.6825E-03
            2221     6.07452E-03     21.1679E-03    -74.7699E+06    -70.2398E+06     4.97915E+06    -715.583E+03    -295.449E-03     583.243E-03    -287.794E-03     93.9345E-03    -297.073E-03     584.339E-03    -287.559E-03     77.1488E-03
            2222     5.40418E-03     21.0005E-03    -83.8011E+06    -101.754E+06    -11.9676E+06    -449.267E+03    -293.953E-03     580.949E-03    -286.996E-03     84.1786E-03    -295.301E-03     581.674E-03    -286.787E-03     69.1030E-03
            2223     4.73224E-03     20.8495E-03    -92.9351E+06    -129.338E+06    -29.7635E+06    -419.178E+03    -291.887E-03     578.069E-03    -286.182E-03     73.9901E-03    -292.983E-03     578.462E-03    -286.009E-03     60.6693E-03
            2224     4.05875E-03     20.7167E-03    -101.859E+06    -152.980E+06    -48.6416E+06    -63.2006E+03    -289.845E-03     575.244E-03    -285.398E-03     63.7872E-03    -290.712E-03     575.346E-03    -285.272E-03     52.3039E-03
            2225     3.38468E-03     20.6009E-03    -110.657E+06    -177.380E+06    -68.6250E+06     271.730E+03    -288.037E-03     572.697E-03    -284.660E-03     53.1994E-03    -288.694E-03     572.530E-03    -284.585E-03     43.5868E-03
            2226     2.70959E-03     20.5051E-03    -118.817E+06    -200.203E+06    -88.5812E+06     212.795E+03    -286.325E-03     570.305E-03    -283.980E-03     42.3533E-03    -286.802E-03     569.905E-03    -283.960E-03     34.6068E-03
            2227     2.03322E-03     20.4304E-03    -125.816E+06    -220.300E+06    -107.342E+06     173.591E+03    -284.814E-03     568.203E-03    -283.390E-03     31.8581E-03    -285.142E-03     567.613E-03    -283.425E-03     26.0226E-03
            2228     1.35616E-03     20.3760E-03    -131.121E+06    -236.496E+06    -122.979E+06     281.486E+03    -283.616E-03     566.543E-03    -282.927E-03     21.4941E-03    -283.833E-03     565.810E-03    -283.009E-03     17.5447E-03
            2229     677.954E-06     20.3425E-03    -134.068E+06    -250.097E+06    -132.408E+06     553.447E+03    -282.680E-03     565.458E-03    -282.778E-03     11.4952E-03    -282.823E-03     564.620E-03    -282.883E-03     9.36555E-03
            2230     12.7922E-03     21.4281E-03    -4.19249E+06     68.0488E+06     91.9718E+06    -350.531E+03    -286.949E-03     577.506E-03    -290.557E-03     88.4676E-03    -289.510E-03     580.027E-03    -290.190E-03     63.7195E-03
            2231     12.1176E-03     21.2671E-03    -9.18638E+06     67.4626E+06     91.8419E+06     456.094E+03    -289.950E-03     580.615E-03    -290.665E-03     118.665E-03    -293.423E-03     584.028E-03    -290.290E-03     90.0761E-03
            2232     11.4448E-03     21.0884E-03    -16.7234E+06     53.6732E+06     87.0014E+06     384.863E+03    -293.504E-03     584.143E-03    -290.638E-03     125.687E-03    -296.922E-03     587.440E-03    -290.257E-03     98.0644E-03
            2233     10.7724E-03     20.8892E-03    -23.7930E+06     48.6589E+06     83.5449E+06     359.421E+03    -296.394E-03     586.835E-03    -290.441E-03     131.011E-03    -299.851E-03     590.138E-03    -290.059E-03     103.672E-03
            2234     10.1037E-03     20.6775E-03    -29.5502E+06     45.7099E+06     75.7666E+06    -558.201E+03    -298.514E-03     588.561E-03    -290.047E-03     129.830E-03    -301.765E-03     591.650E-03    -289.692E-03     103.716E-03
            2235     9.43499E-03     20.4629E-03    -35.4614E+06     34.9166E+06     64.6652E+06    -1.16716E+06    -299.458E-03     588.952E-03    -289.494E-03     125.631E-03    -302.423E-03     591.728E-03    -289.170E-03     101.046E-03
            2236     8.76666E-03     20.2505E-03    -40.9910E+06     24.5003E+06     55.2757E+06    -177.906E+03    -299.548E-03     588.370E-03    -288.822E-03     119.753E-03    -302.208E-03     590.811E-03    -288.521E-03     96.8573E-03
            2237     8.09848E-03     20.0428E-03    -47.6626E+06     16.9922E+06     46.9448E+06    -483.014E+03    -299.134E-03     587.173E-03    -288.039E-03     112.327E-03    -301.502E-03     589.296E-03    -287.760E-03     91.1064E-03
            2238     7.42948E-03     19.8438E-03    -56.8732E+06    -4.50945E+06     35.1792E+06    -1.47220E+06    -298.345E-03     585.496E-03    -287.150E-03     103.853E-03    -300.416E-03     587.247E-03    -286.885E-03     84.3250E-03
            2239     6.76068E-03     19.6541E-03    -66.6175E+06    -38.0787E+06     19.8497E+06    -1.05249E+06    -297.203E-03     583.353E-03    -286.150E-03     94.8391E-03    -298.970E-03     584.691E-03    -285.899E-03     77.0530E-03
            2240     6.09133E-03     19.4765E-03    -75.7740E+06    -70.7738E+06     3.59583E+06    -367.176E+03    -295.411E-03     580.463E-03    -285.053E-03     85.3952E-03    -296.893E-03     581.415E-03    -284.822E-03     69.3550E-03
            2241     5.42040E-03     19.3137E-03    -84.7805E+06    -100.849E+06    -13.4723E+06    -339.261E+03    -292.919E-03     576.832E-03    -283.912E-03     75.7115E-03    -294.143E-03     577.435E-03    -283.711E-03     61.4142E-03
            2242     4.74802E-03     19.1684E-03    -93.8603E+06    -128.750E+06    -31.0275E+06    -481.924E+03    -290.325E-03     573.104E-03    -282.780E-03     65.8825E-03    -291.312E-03     573.391E-03    -282.612E-03     53.3490E-03
            2243     4.07432E-03     19.0394E-03    -102.952E+06    -153.955E+06    -49.5470E+06    -93.4361E+03    -287.836E-03     569.501E-03    -281.666E-03     56.0626E-03    -288.611E-03     569.508E-03    -281.541E-03     45.3370E-03
            2244     3.39873E-03     18.9282E-03    -111.403E+06    -176.786E+06    -69.0513E+06     316.322E+03    -285.180E-03     565.788E-03    -280.607E-03     46.1666E-03    -285.769E-03     565.553E-03    -280.535E-03     37.2582E-03
            2245     2.72121E-03     18.8368E-03    -119.321E+06    -199.641E+06    -88.9704E+06     314.553E+03    -282.697E-03     562.369E-03    -279.672E-03     36.4284E-03    -283.126E-03     561.923E-03    -279.655E-03     29.3092E-03
            2246     2.04237E-03     18.7654E-03    -126.074E+06    -219.717E+06    -107.217E+06     273.978E+03    -280.759E-03     559.641E-03    -278.882E-03     27.1035E-03    -281.059E-03     559.023E-03    -278.917E-03     21.7522E-03
            2247     1.36228E-03     18.7136E-03    -131.428E+06    -236.127E+06    -122.437E+06     339.485E+03    -279.221E-03     557.458E-03    -278.237E-03     17.9793E-03    -279.426E-03     556.711E-03    -278.316E-03     14.3639E-03
            2248     681.873E-06     18.6822E-03    -135.509E+06    -248.537E+06    -133.139E+06     348.672E+03    -277.899E-03     555.862E-03    -277.963E-03     9.61025E-03    -278.045E-03     555.029E-03    -278.072E-03     7.66770E-03
            2249     12.7931E-03     19.7366E-03    -4.65514E+06     66.9842E+06     91.3982E+06    -313.314E+03    -289.268E-03     579.713E-03    -290.445E-03     88.0510E-03    -291.834E-03     582.235E-03    -290.078E-03     63.0838E-03
            2250     12.1205E-03     19.5711E-03    -11.5135E+06     66.2895E+06     91.2076E+06     412.288E+03    -293.003E-03     583.399E-03    -290.396E-03     118.336E-03    -296.497E-03     586.823E-03    -290.019E-03     89.4495E-03
            2251     11.4493E-03     19.3903E-03    -17.2401E+06     54.8797E+06     87.4189E+06     566.049E+03    -297.166E-03     587.313E-03    -290.147E-03     123.881E-03    -300.573E-03     590.600E-03    -289.764E-03     95.9491E-03
            2252     10.7818E-03     19.1859E-03    -22.0693E+06     50.0563E+06     83.6400E+06    -879.004E+03    -300.316E-03     589.975E-03    -289.659E-03     127.268E-03    -303.709E-03     593.225E-03    -289.282E-03     99.6813E-03
            2253     10.1145E-03     18.9732E-03    -28.1634E+06     47.7045E+06     75.5741E+06    -1.52257E+06    -301.784E-03     590.732E-03    -288.948E-03     124.959E-03    -304.936E-03     593.735E-03    -288.599E-03     98.8870E-03
            2254     9.44827E-03     18.7604E-03    -35.2861E+06     35.3471E+06     64.0552E+06    -2.00116E+06    -302.270E-03     590.341E-03    -288.072E-03     120.105E-03    -305.120E-03     593.007E-03    -287.752E-03     95.7516E-03
            2255     8.78204E-03     18.5495E-03    -42.9026E+06     22.5295E+06     53.0026E+06    -3.05132E+06    -302.222E-03     589.263E-03    -287.041E-03     113.364E-03    -304.764E-03     591.580E-03    -286.747E-03     90.7499E-03
            2256     8.11556E-03     18.3445E-03    -50.1414E+06     13.9368E+06     44.0796E+06    -1.43959E+06    -301.572E-03     587.424E-03    -285.852E-03     104.746E-03    -303.807E-03     589.404E-03    -285.579E-03     83.9608E-03
            2257     7.44942E-03     18.1485E-03    -58.0741E+06    -4.16568E+06     33.6064E+06     1.05017E+06    -300.201E-03     584.716E-03    -284.515E-03     95.0917E-03    -302.130E-03     586.328E-03    -284.257E-03     76.1557E-03
            2258     6.78204E-03     17.9635E-03    -67.1677E+06    -35.7964E+06     19.1846E+06     969.740E+03    -297.981E-03     581.040E-03    -283.059E-03     85.5127E-03    -299.611E-03     582.249E-03    -282.814E-03     68.4147E-03
            2259     6.11300E-03     17.7912E-03    -76.4928E+06    -69.7298E+06     2.84010E+06     117.695E+03    -295.048E-03     576.577E-03    -281.530E-03     75.6493E-03    -296.398E-03     577.401E-03    -281.303E-03     60.3595E-03
            2260     5.44196E-03     17.6360E-03    -85.3803E+06    -99.2293E+06    -13.9711E+06    -337.854E+03    -291.770E-03     571.740E-03    -279.970E-03     65.4902E-03    -292.869E-03     572.225E-03    -279.773E-03     51.9886E-03
            2261     4.76860E-03     17.4957E-03    -94.0186E+06    -128.484E+06    -31.4369E+06    -394.290E+03    -288.465E-03     566.879E-03    -278.414E-03     55.7628E-03    -289.338E-03     567.053E-03    -278.248E-03     44.0621E-03
            2262     4.09337E-03     17.3730E-03    -102.649E+06    -154.320E+06    -49.8460E+06    -107.115E+03    -284.966E-03     561.858E-03    -276.892E-03     46.4183E-03    -285.646E-03     561.769E-03    -276.769E-03     36.4887E-03
            2263     3.41592E-03     17.2686E-03    -111.345E+06    -176.467E+06    -69.5126E+06     73.0566E+03    -281.351E-03     556.830E-03    -275.479E-03     37.5594E-03    -281.870E-03     556.527E-03    -275.409E-03     29.3727E-03
            2264     2.73601E-03     17.1835E-03    -118.931E+06    -199.000E+06    -88.8131E+06     168.579E+03    -278.178E-03     552.424E-03    -274.246E-03     29.3353E-03    -278.559E-03     551.932E-03    -274.229E-03     22.8497E-03
            2265     2.05407E-03     17.1160E-03    -125.844E+06    -219.378E+06    -107.092E+06     227.237E+03    -275.580E-03     548.795E-03    -273.214E-03     21.5715E-03    -275.853E-03     548.149E-03    -273.249E-03     16.7158E-03
            2266     1.37071E-03     17.0685E-03    -131.441E+06    -235.849E+06    -122.175E+06     389.283E+03    -273.517E-03     545.944E-03    -272.427E-03     14.1461E-03    -273.710E-03     545.185E-03    -272.506E-03     10.8850E-03
            2267     685.272E-06     17.0399E-03    -134.670E+06    -246.825E+06    -132.382E+06     397.741E+03    -272.011E-03     544.142E-03    -272.130E-03     7.55612E-03    -272.154E-03     543.310E-03    -272.239E-03     5.77355E-03
            2268     12.7972E-03     18.0418E-03    -5.45584E+06     65.8006E+06     92.0069E+06     718.444E+03    -293.246E-03     583.479E-03    -290.233E-03     88.5614E-03    -295.852E-03     586.032E-03    -289.860E-03     63.1879E-03
            2269     12.1257E-03     17.8730E-03    -9.74138E+06     67.1492E+06     92.9047E+06     56.8974E+03    -297.207E-03     587.147E-03    -289.940E-03     118.022E-03    -300.741E-03     590.615E-03    -289.558E-03     88.5477E-03
            2270     11.4585E-03     17.6833E-03    -14.4877E+06     57.6472E+06     89.8528E+06    -1.49482E+06    -301.554E-03     590.956E-03    -289.402E-03     122.085E-03    -304.953E-03     594.247E-03    -289.015E-03     93.7298E-03
            2271     10.7933E-03     17.4779E-03    -20.7715E+06     50.4282E+06     84.9800E+06    -1.60618E+06    -304.243E-03     592.836E-03    -288.593E-03     123.722E-03    -307.588E-03     596.040E-03    -288.211E-03     95.9462E-03
            2272     10.1292E-03     17.2671E-03    -27.9315E+06     46.0815E+06     75.0993E+06    -548.429E+03    -305.371E-03     592.903E-03    -287.532E-03     119.927E-03    -308.443E-03     595.823E-03    -287.183E-03     93.8777E-03
            2273     9.46497E-03     17.0555E-03    -35.8367E+06     37.9068E+06     61.9528E+06    -110.970E+03    -305.850E-03     592.102E-03    -286.252E-03     113.439E-03    -308.603E-03     594.683E-03    -285.945E-03     89.2293E-03
            2274     8.80140E-03     16.8469E-03    -44.2956E+06     24.9553E+06     49.5299E+06    -423.796E+03    -305.585E-03     590.349E-03    -284.764E-03     104.953E-03    -308.012E-03     592.565E-03    -284.488E-03     82.6032E-03
            2275     8.13812E-03     16.6457E-03    -53.7009E+06     9.43709E+06     39.2355E+06    -901.121E+03    -304.332E-03     587.413E-03    -283.080E-03     95.2434E-03    -306.441E-03     589.251E-03    -282.820E-03     74.8282E-03
            2276     7.47363E-03     16.4543E-03    -62.1190E+06    -6.01840E+06     30.4512E+06    -858.001E+03    -302.069E-03     583.291E-03    -281.222E-03     84.8482E-03    -303.880E-03     584.773E-03    -280.971E-03     66.3566E-03
            2277     6.80764E-03     16.2775E-03    -69.1454E+06    -33.1462E+06     18.2102E+06    -381.133E+03    -298.840E-03     578.071E-03    -279.231E-03     74.2546E-03    -300.350E-03     579.167E-03    -278.991E-03     57.6972E-03
            2278     6.13916E-03     16.1134E-03    -76.6045E+06    -67.2922E+06     2.73571E+06    -490.186E+03    -294.887E-03     572.048E-03    -277.161E-03     63.6089E-03    -296.112E-03     572.755E-03    -276.938E-03     48.9703E-03
            2279     5.46834E-03     15.9660E-03    -84.9173E+06    -97.3744E+06    -13.6926E+06    -837.227E+03    -290.616E-03     565.672E-03    -275.056E-03     53.2946E-03    -291.595E-03     566.044E-03    -274.860E-03     40.5331E-03
            2280     4.79511E-03     15.8350E-03    -93.4626E+06    -128.298E+06    -31.4227E+06    -677.831E+03    -286.014E-03     558.988E-03    -272.975E-03     43.9428E-03    -286.779E-03     559.058E-03    -272.810E-03     33.0171E-03
            2281     4.11829E-03     15.7211E-03    -101.944E+06    -154.736E+06    -50.0351E+06    -277.945E+03    -281.147E-03     552.140E-03    -270.993E-03     35.3460E-03    -281.738E-03     551.965E-03    -270.871E-03     26.1526E-03
            2282     3.43775E-03     15.6260E-03    -110.037E+06    -175.913E+06    -68.9163E+06     30.7068E+03    -276.602E-03     545.789E-03    -269.188E-03     27.7176E-03    -277.054E-03     545.424E-03    -269.118E-03     20.1988E-03
            2283     2.75435E-03     15.5476E-03    -117.807E+06    -198.633E+06    -87.9478E+06     295.322E+03    -272.570E-03     540.187E-03    -267.617E-03     21.0438E-03    -272.905E-03     539.651E-03    -267.598E-03     15.1477E-03
            2284     2.06836E-03     15.4871E-03    -124.683E+06    -218.759E+06    -106.027E+06     450.450E+03    -269.128E-03     535.470E-03    -266.342E-03     15.0997E-03    -269.372E-03     534.799E-03    -266.375E-03     10.7231E-03
            2285     1.37974E-03     15.4442E-03    -129.952E+06    -235.150E+06    -121.254E+06     218.462E+03    -266.643E-03     532.058E-03    -265.415E-03     9.63001E-03    -266.819E-03     531.285E-03    -265.492E-03     6.70184E-03
            2286     690.558E-06     15.4185E-03    -133.961E+06    -246.170E+06    -131.022E+06     81.3496E+03    -265.083E-03     530.000E-03    -264.917E-03     4.91578E-03    -265.221E-03     529.164E-03    -265.021E-03     3.32147E-03
            2287     12.7991E-03     16.3384E-03    -4.30208E+06     66.7434E+06     92.4575E+06    -837.872E+03    -298.014E-03     587.964E-03    -289.950E-03     90.3731E-03    -300.692E-03     590.596E-03    -289.578E-03     64.2966E-03
            2288     12.1341E-03     16.1656E-03    -9.48596E+06     67.8791E+06     92.8643E+06    -1.51531E+06    -302.869E-03     592.222E-03    -289.353E-03     119.557E-03    -306.494E-03     595.785E-03    -288.973E-03     89.3238E-03
            2289     11.4698E-03     15.9724E-03    -15.5171E+06     57.7921E+06     89.5816E+06    -850.216E+03    -306.449E-03     594.922E-03    -288.472E-03     121.682E-03    -309.900E-03     598.263E-03    -288.086E-03     92.8249E-03
            2290     10.8073E-03     15.7659E-03    -22.1851E+06     50.5009E+06     85.2055E+06     79.3426E+03    -308.792E-03     596.097E-03    -287.305E-03     120.817E-03    -312.137E-03     599.296E-03    -286.920E-03     92.7836E-03
            2291     10.1460E-03     15.5561E-03    -29.2441E+06     45.3228E+06     74.6928E+06    -292.451E+03    -310.391E-03     596.207E-03    -285.815E-03     114.725E-03    -313.430E-03     599.087E-03    -285.465E-03     88.4241E-03
            2292     9.48625E-03     15.3467E-03    -35.5066E+06     36.1598E+06     62.2438E+06     364.846E+03    -310.787E-03     594.811E-03    -284.024E-03     105.972E-03    -313.467E-03     597.315E-03    -283.714E-03     81.6355E-03
            2293     8.82663E-03     15.1421E-03    -41.8628E+06     24.4119E+06     51.6887E+06     2.34138E+06    -309.834E-03     591.802E-03    -281.968E-03     95.4900E-03    -312.157E-03     593.915E-03    -281.684E-03     73.2065E-03
            2294     8.16584E-03     14.9471E-03    -48.7359E+06     13.8834E+06     42.8582E+06     2.48916E+06    -307.605E-03     587.279E-03    -279.674E-03     83.9710E-03    -309.592E-03     589.020E-03    -279.409E-03     63.7509E-03
            2295     7.50364E-03     14.7640E-03    -56.4982E+06    -2.53698E+06     32.8214E+06     258.188E+03    -304.289E-03     581.467E-03    -277.178E-03     71.8372E-03    -305.958E-03     582.834E-03    -276.928E-03     53.6468E-03
            2296     6.83934E-03     14.5955E-03    -65.1549E+06    -31.8319E+06     18.9054E+06    -1.07710E+06    -300.009E-03     574.536E-03    -274.526E-03     59.6897E-03    -301.375E-03     575.505E-03    -274.291E-03     43.5122E-03
            2297     6.17251E-03     14.4435E-03    -73.7536E+06    -65.9224E+06     3.00661E+06    -833.257E+03    -294.693E-03     566.484E-03    -271.790E-03     48.4405E-03    -295.783E-03     567.071E-03    -271.573E-03     34.3050E-03
            2298     5.50163E-03     14.3072E-03    -82.1020E+06    -96.1864E+06    -13.1780E+06    -359.564E+03    -288.685E-03     557.747E-03    -269.062E-03     38.6874E-03    -289.544E-03     558.013E-03    -268.870E-03     26.5112E-03
            2299     4.82641E-03     14.1880E-03    -90.8910E+06    -127.636E+06    -30.2152E+06    -38.2834E+03    -282.495E-03     548.933E-03    -266.438E-03     30.3274E-03    -283.165E-03     548.915E-03    -266.273E-03     19.9646E-03
            2300     4.14688E-03     14.0871E-03    -99.6158E+06    -154.786E+06    -48.3080E+06     204.832E+03    -276.436E-03     540.422E-03    -263.986E-03     23.1326E-03    -276.953E-03     540.174E-03    -263.858E-03     14.4872E-03
            2301     3.46351E-03     14.0021E-03    -108.047E+06    -175.262E+06    -67.2577E+06     529.515E+03    -270.765E-03     532.537E-03    -261.772E-03     17.2399E-03    -271.164E-03     532.122E-03    -261.698E-03     10.2191E-03
            2302     2.77626E-03     13.9340E-03    -116.212E+06    -197.607E+06    -86.7240E+06     679.938E+03    -265.760E-03     525.640E-03    -259.879E-03     12.5554E-03    -266.061E-03     525.074E-03    -259.858E-03     7.05736E-03
            2303     2.08520E-03     13.8817E-03    -123.035E+06    -217.775E+06    -104.585E+06     472.919E+03    -261.698E-03     520.061E-03    -258.362E-03     8.64433E-03    -261.921E-03     519.372E-03    -258.391E-03     4.57029E-03
            2304     1.39194E-03     13.8443E-03    -128.712E+06    -234.221E+06    -119.899E+06     490.925E+03    -258.751E-03     515.999E-03    -257.248E-03     5.30491E-03    -258.917E-03     515.219E-03    -257.322E-03     2.60054E-03
            2305     696.232E-06     13.8218E-03    -132.196E+06    -245.506E+06    -130.671E+06     227.478E+03    -256.955E-03     513.493E-03    -256.538E-03     2.60053E-03    -257.084E-03     512.654E-03    -256.644E-03     1.14829E-03
            2306     12.8042E-03     14.6290E-03    -4.68874E+06     67.6962E+06     91.5536E+06    -678.017E+03    -303.579E-03     593.198E-03    -289.620E-03     93.1222E-03    -306.343E-03     595.921E-03    -289.253E-03     66.3963E-03
            2307     12.1403E-03     14.4464E-03    -11.2262E+06     66.7505E+06     90.9266E+06    -1.27152E+06    -308.841E-03     597.527E-03    -288.686E-03     119.988E-03    -312.566E-03     601.185E-03    -288.312E-03     88.9319E-03
            2308     11.4811E-03     14.2548E-03    -17.7704E+06     56.7707E+06     87.2699E+06    -1.06715E+06    -312.411E-03     599.818E-03    -287.407E-03     119.720E-03    -315.943E-03     603.236E-03    -287.028E-03     90.0024E-03
            2309     10.8227E-03     14.0473E-03    -23.1842E+06     50.9580E+06     83.3244E+06    -685.030E+03    -314.921E-03     600.698E-03    -285.777E-03     116.905E-03    -318.304E-03     603.939E-03    -285.401E-03     88.1520E-03
            2310     10.1668E-03     13.8377E-03    -28.8870E+06     46.2891E+06     73.6134E+06    -932.537E+03    -316.649E-03     600.396E-03    -283.747E-03     108.291E-03    -319.678E-03     603.275E-03    -283.404E-03     81.4199E-03
            2311     9.51146E-03     13.6318E-03    -35.4490E+06     33.1181E+06     61.1397E+06    -759.174E+03    -316.829E-03     598.164E-03    -281.336E-03     97.1223E-03    -319.468E-03     600.621E-03    -281.026E-03     72.2799E-03
            2312     8.85579E-03     13.4344E-03    -41.6228E+06     20.9701E+06     51.3502E+06    -167.713E+03    -315.260E-03     593.843E-03    -278.583E-03     84.2079E-03    -317.516E-03     595.880E-03    -278.296E-03     61.5114E-03
            2313     8.19936E-03     13.2475E-03    -47.2903E+06     14.4871E+06     43.8548E+06     706.206E+03    -311.981E-03     587.512E-03    -275.531E-03     70.0261E-03    -313.873E-03     589.165E-03    -275.264E-03     49.5735E-03
            2314     7.54077E-03     13.0759E-03    -54.1636E+06     1.75231E+06     34.1271E+06     1.70591E+06    -307.043E-03     579.296E-03    -272.253E-03     56.1229E-03    -308.604E-03     580.576E-03    -272.006E-03     37.9220E-03
            2315     6.87896E-03     12.9197E-03    -62.7269E+06    -27.4816E+06     19.6496E+06     1.55266E+06    -300.760E-03     569.612E-03    -268.852E-03     43.5443E-03    -302.021E-03     570.499E-03    -268.623E-03     27.5062E-03
            2316     6.21259E-03     12.7828E-03    -71.6860E+06    -63.9039E+06     3.11375E+06     990.295E+03    -293.597E-03     559.030E-03    -265.433E-03     33.0005E-03    -294.597E-03     559.542E-03    -265.221E-03     19.0208E-03
            2317     5.54113E-03     12.6628E-03    -80.9177E+06    -95.2849E+06    -13.6139E+06     1.26528E+06    -285.851E-03     547.946E-03    -262.095E-03     24.3113E-03    -286.640E-03     548.150E-03    -261.908E-03     12.3115E-03
            2318     4.86384E-03     12.5599E-03    -90.0145E+06    -125.616E+06    -30.4877E+06     1.38410E+06    -277.940E-03     536.893E-03    -258.953E-03     17.1794E-03    -278.556E-03     536.833E-03    -258.793E-03     7.01306E-03
            2319     4.18128E-03     12.4725E-03    -98.6963E+06    -153.236E+06    -47.5702E+06     1.02609E+06    -270.469E-03     526.566E-03    -256.096E-03     11.9036E-03    -270.949E-03     526.287E-03    -255.969E-03     3.42868E-03
            2320     3.49327E-03     12.4020E-03    -107.182E+06    -175.232E+06    -66.4744E+06     1.12477E+06    -263.781E-03     517.356E-03    -253.574E-03     8.13733E-03    -264.154E-03     516.915E-03    -253.497E-03     1.24757E-03
            2321     2.80015E-03     12.3453E-03    -115.232E+06    -196.021E+06    -86.0833E+06     1.36505E+06    -258.098E-03     509.539E-03    -251.442E-03     5.39861E-03    -258.384E-03     508.965E-03    -251.421E-03    -8.17905E-06
            2322     2.10381E-03     12.3019E-03    -122.730E+06    -216.465E+06    -104.505E+06     1.35747E+06    -253.522E-03     503.263E-03    -249.741E-03     3.33591E-03    -253.738E-03     502.573E-03    -249.772E-03    -652.660E-06
            2323     1.40405E-03     12.2717E-03    -128.511E+06    -232.806E+06    -119.129E+06     1.06357E+06    -250.145E-03     498.664E-03    -248.519E-03     2.00560E-03    -250.310E-03     497.886E-03    -248.591E-03    -640.246E-06
            2324     702.711E-06     12.2531E-03    -131.691E+06    -243.404E+06    -129.074E+06     695.258E+03    -248.142E-03     495.965E-03    -247.823E-03     1.03917E-03    -248.273E-03     495.133E-03    -247.925E-03    -398.593E-06
            2325     12.8079E-03     12.9068E-03    -5.65205E+06     68.1968E+06     92.1565E+06     295.773E+03    -310.665E-03     599.914E-03    -289.249E-03     95.0600E-03    -313.566E-03     602.770E-03    -288.879E-03     67.2991E-03
            2326     12.1513E-03     12.7215E-03    -10.1999E+06     68.8385E+06     91.9373E+06     317.416E+03    -315.636E-03     603.543E-03    -287.907E-03     120.365E-03    -319.522E-03     607.371E-03    -287.533E-03     88.0893E-03
            2327     11.4953E-03     12.5264E-03    -15.3047E+06     57.7790E+06     87.3618E+06    -549.992E+03    -320.100E-03     606.242E-03    -286.142E-03     116.344E-03    -323.705E-03     609.746E-03    -285.767E-03     85.5327E-03
            2328     10.8430E-03     12.3203E-03    -22.0115E+06     50.2739E+06     82.0886E+06    -1.35343E+06    -322.703E-03     606.628E-03    -283.926E-03     110.781E-03    -326.115E-03     609.905E-03    -283.556E-03     81.0328E-03
            2329     10.1917E-03     12.1110E-03    -28.9720E+06     46.4952E+06     72.6568E+06    -1.20353E+06    -324.146E-03     605.377E-03    -281.231E-03     99.8440E-03    -327.183E-03     608.267E-03    -280.893E-03     72.0476E-03
            2330     9.54165E-03     11.9111E-03    -35.7526E+06     33.3746E+06     60.1259E+06    -1.28854E+06    -324.156E-03     602.217E-03    -278.061E-03     85.1036E-03    -326.765E-03     604.647E-03    -277.757E-03     59.3656E-03
            2331     8.89202E-03     11.7207E-03    -42.6129E+06     20.2018E+06     48.8037E+06    -1.59570E+06    -321.513E-03     595.980E-03    -274.467E-03     69.0505E-03    -323.704E-03     597.955E-03    -274.190E-03     45.5858E-03
            2332     8.24060E-03     11.5468E-03    -49.9862E+06     10.7451E+06     39.2300E+06    -995.869E+03    -316.210E-03     586.776E-03    -270.566E-03     53.7496E-03    -318.031E-03     588.349E-03    -270.313E-03     32.6880E-03
            2333     7.58548E-03     11.3902E-03    -57.6562E+06     209.676E+03     30.2186E+06     608.545E+03    -308.809E-03     575.316E-03    -266.506E-03     40.1824E-03    -310.317E-03     576.537E-03    -266.272E-03     21.5184E-03
            2334     6.92462E-03     11.2536E-03    -65.1399E+06    -24.6454E+06     17.8853E+06     2.05255E+06    -300.005E-03     562.444E-03    -262.439E-03     28.9727E-03    -301.233E-03     563.305E-03    -262.219E-03     12.5976E-03
            2335     6.25728E-03     11.1353E-03    -73.3783E+06    -61.1449E+06     1.56394E+06     2.92614E+06    -290.726E-03     549.208E-03    -258.482E-03     20.3751E-03    -291.708E-03     549.710E-03    -258.279E-03     6.13156E-03
            2336     5.58361E-03     11.0346E-03    -81.8380E+06    -93.3534E+06    -14.8135E+06     3.07958E+06    -281.390E-03     536.117E-03    -254.727E-03     14.0561E-03    -282.175E-03     536.324E-03    -254.547E-03     1.78336E-03
            2337     4.90354E-03     10.9510E-03    -90.6032E+06    -121.893E+06    -31.7499E+06     2.76028E+06    -272.241E-03     523.507E-03    -251.266E-03     9.56969E-03    -272.868E-03     523.471E-03    -251.117E-03    -866.005E-06
            2338     4.21603E-03     10.8824E-03    -99.9640E+06    -149.565E+06    -49.6087E+06     1.85824E+06    -263.748E-03     511.934E-03    -248.187E-03     6.37751E-03    -264.244E-03     511.687E-03    -248.073E-03    -2.33414E-03
            2339     3.52253E-03     10.8262E-03    -108.674E+06    -174.980E+06    -67.8267E+06     1.23862E+06    -256.449E-03     501.979E-03    -245.530E-03     4.14802E-03    -256.836E-03     501.554E-03    -245.458E-03    -2.96014E-03
            2340     2.82485E-03     10.7823E-03    -116.301E+06    -195.548E+06    -86.4743E+06     1.81772E+06    -250.385E-03     493.689E-03    -243.303E-03     2.54344E-03    -250.684E-03     493.127E-03    -243.284E-03    -3.04798E-03
            2341     2.12222E-03     10.7493E-03    -122.751E+06    -213.827E+06    -104.111E+06     1.96992E+06    -245.473E-03     487.022E-03    -241.549E-03     1.44604E-03    -245.698E-03     486.350E-03    -241.582E-03    -2.68922E-03
            2342     1.41668E-03     10.7264E-03    -127.678E+06    -230.104E+06    -118.839E+06     1.26693E+06    -242.017E-03     482.316E-03    -240.299E-03     937.033E-06    -242.184E-03     481.554E-03    -240.375E-03    -1.83067E-03
            2343     708.562E-06     10.7121E-03    -130.871E+06    -240.818E+06    -128.892E+06     783.231E+03    -239.841E-03     479.513E-03    -239.673E-03     552.697E-06    -239.972E-03     478.694E-03    -239.778E-03    -951.112E-06
            2344     12.8152E-03     11.1778E-03    -4.25115E+06     69.8456E+06     92.9438E+06    -770.159E+03    -319.036E-03     607.904E-03    -288.868E-03     98.6529E-03    -322.128E-03     610.960E-03    -288.499E-03     69.4052E-03
            2345     12.1600E-03     10.9833E-03    -8.60287E+06     69.4737E+06     91.9374E+06    -873.037E+03    -324.879E-03     611.900E-03    -287.021E-03     121.569E-03    -328.976E-03     615.947E-03    -286.650E-03     87.6040E-03
            2346     11.5125E-03     10.7843E-03    -13.7345E+06     56.6862E+06     87.9561E+06     340.642E+03    -329.651E-03     614.309E-03    -284.658E-03     114.056E-03    -333.395E-03     617.952E-03    -284.281E-03     81.7543E-03
            2347     10.8668E-03     10.5807E-03    -20.0624E+06     51.5221E+06     84.9387E+06     1.00167E+06    -333.466E-03     615.176E-03    -281.710E-03     104.343E-03    -336.958E-03     618.536E-03    -281.331E-03     73.0602E-03
            2348     10.2227E-03     10.3767E-03    -26.8140E+06     47.1964E+06     75.2676E+06     547.644E+03    -334.590E-03     612.720E-03    -278.130E-03     87.7243E-03    -337.615E-03     615.604E-03    -277.783E-03     58.4580E-03
            2349     9.58023E-03     10.1790E-03    -33.5292E+06     35.0521E+06     61.8807E+06     574.546E+03    -332.059E-03     606.088E-03    -274.028E-03     68.9262E-03    -334.595E-03     608.455E-03    -273.721E-03     42.0564E-03
            2350     8.93680E-03     10.0038E-03    -40.7325E+06     21.2610E+06     48.4176E+06     957.165E+03    -326.292E-03     595.865E-03    -269.574E-03     52.0755E-03    -328.404E-03     597.774E-03    -269.303E-03     27.7069E-03
            2351     8.28855E-03     9.84726E-03    -48.5790E+06     9.92506E+06     37.0929E+06     1.34618E+06    -317.702E-03     582.661E-03    -264.960E-03     38.4185E-03    -319.465E-03     584.185E-03    -264.718E-03     16.6185E-03
            2352     7.63393E-03     9.71278E-03    -56.6890E+06    -1.35806E+06     27.5584E+06     1.85301E+06    -307.304E-03     567.682E-03    -260.378E-03     27.9424E-03    -308.787E-03     568.883E-03    -260.156E-03     8.66675E-03
            2353     6.97186E-03     9.59960E-03    -65.1612E+06    -25.0985E+06     15.3825E+06     2.98458E+06    -296.331E-03     552.302E-03    -255.972E-03     20.5373E-03    -297.573E-03     553.183E-03    -255.764E-03     3.61755E-03
            2354     6.30205E-03     9.50484E-03    -73.5946E+06    -58.7484E+06     548.616E+03     3.91611E+06    -285.321E-03     537.164E-03    -251.844E-03     15.6269E-03    -286.346E-03     537.720E-03    -251.649E-03     918.958E-06
            2355     5.62370E-03     9.42697E-03    -82.1996E+06    -90.2519E+06    -15.0547E+06     3.90149E+06    -274.768E-03     522.839E-03    -248.071E-03     12.4152E-03    -275.609E-03     523.112E-03    -247.897E-03    -247.554E-06
            2356     4.93731E-03     9.36384E-03    -90.4006E+06    -118.768E+06    -31.5125E+06     3.73114E+06    -265.242E-03     509.944E-03    -244.702E-03     10.2910E-03    -265.923E-03     509.973E-03    -244.556E-03    -475.940E-06
            2357     4.24520E-03     9.31362E-03    -98.4835E+06    -144.492E+06    -49.2454E+06     3.04377E+06    -256.944E-03     498.690E-03    -241.746E-03     8.91123E-03    -257.488E-03     498.514E-03    -241.640E-03    -99.6795E-06
            2358     3.54714E-03     9.27382E-03    -107.102E+06    -172.590E+06    -66.8669E+06     1.85578E+06    -249.766E-03     488.996E-03    -239.230E-03     7.71417E-03    -250.188E-03     488.619E-03    -239.159E-03     349.034E-06
            2359     2.84327E-03     9.24221E-03    -115.325E+06    -195.491E+06    -84.5170E+06     1.30800E+06    -243.783E-03     480.950E-03    -237.168E-03     6.38541E-03    -244.106E-03     480.414E-03    -237.139E-03     593.086E-06
            2360     2.13611E-03     9.22022E-03    -122.290E+06    -211.772E+06    -103.027E+06     1.47073E+06    -239.287E-03     474.831E-03    -235.544E-03     4.99611E-03    -239.530E-03     474.185E-03    -235.575E-03     703.854E-06
            2361     1.42552E-03     9.20398E-03    -127.549E+06    -227.131E+06    -118.860E+06     1.50183E+06    -236.091E-03     470.441E-03    -234.351E-03     3.56751E-03    -236.269E-03     469.703E-03    -234.431E-03     713.667E-06
            2362     713.778E-06     9.19381E-03    -131.223E+06    -237.783E+06    -128.325E+06     931.208E+03    -233.606E-03     467.663E-03    -234.057E-03     2.26530E-03    -233.746E-03     466.863E-03    -234.164E-03     729.903E-06
            2363     12.8146E-03     9.42290E-03    -3.52343E+06     72.6180E+06     93.0605E+06    -1.17525E+06    -328.678E-03     617.131E-03    -288.453E-03     101.081E-03    -331.956E-03     620.383E-03    -288.087E-03     70.3088E-03
            2364     12.1743E-03     9.22873E-03    -9.50796E+06     67.5879E+06     89.6467E+06    -1.78619E+06    -336.368E-03     622.368E-03    -286.001E-03     121.092E-03    -340.688E-03     626.635E-03    -285.637E-03     85.0156E-03
            2365     11.5310E-03     9.03095E-03    -15.4368E+06     53.2933E+06     85.4769E+06    -717.809E+03    -343.350E-03     626.190E-03    -282.840E-03     108.882E-03    -347.209E-03     629.938E-03    -282.467E-03     74.4169E-03
            2366     10.8938E-03     8.81986E-03    -21.0981E+06     52.2537E+06     84.8332E+06    -655.722E+03    -347.502E-03     626.402E-03    -278.900E-03     91.6204E-03    -350.996E-03     629.766E-03    -278.521E-03     58.1057E-03
            2367     10.2631E-03     8.62104E-03    -26.3425E+06     45.9002E+06     74.5540E+06    -87.7498E+03    -345.155E-03     619.432E-03    -274.277E-03     70.2120E-03    -348.097E-03     622.235E-03    -273.932E-03     39.1134E-03
            2368     9.62879E-03     8.44425E-03    -32.0784E+06     33.0986E+06     60.3408E+06     1.82581E+06    -337.297E-03     606.600E-03    -269.303E-03     52.8558E-03    -339.743E-03     608.882E-03    -269.003E-03     24.7863E-03
            2369     8.98709E-03     8.28729E-03    -38.7303E+06     21.1050E+06     47.6885E+06     3.64026E+06    -326.683E-03     590.944E-03    -264.262E-03     39.0592E-03    -328.721E-03     592.788E-03    -263.998E-03     14.0569E-03
            2370     8.33857E-03     8.15748E-03    -46.1524E+06     10.3165E+06     37.2696E+06     4.91497E+06    -314.113E-03     573.475E-03    -259.362E-03     29.3829E-03    -315.838E-03     574.970E-03    -259.124E-03     7.31299E-03
            2371     7.68014E-03     8.05090E-03    -54.1757E+06    -945.795E+03     27.7891E+06     5.81055E+06    -300.863E-03     555.637E-03    -254.773E-03     24.3725E-03    -302.358E-03     556.858E-03    -254.555E-03     4.99560E-03
            2372     7.01233E-03     7.96340E-03    -62.9755E+06    -22.9836E+06     16.4109E+06     5.81255E+06    -288.364E-03     538.959E-03    -250.595E-03     22.1441E-03    -289.660E-03     539.904E-03    -250.389E-03     5.21039E-03
            2373     6.33541E-03     7.89470E-03    -71.7516E+06    -55.1901E+06     2.52264E+06     5.02224E+06    -276.928E-03     523.789E-03    -246.861E-03     21.1626E-03    -278.027E-03     524.430E-03    -246.664E-03     6.49901E-03
            2374     5.65061E-03     7.83968E-03    -80.1226E+06    -87.2485E+06    -12.5777E+06     4.47836E+06    -266.674E-03     510.255E-03    -243.581E-03     20.7711E-03    -267.589E-03     510.614E-03    -243.402E-03     8.22116E-03
            2375     4.95911E-03     7.79702E-03    -89.1350E+06    -116.066E+06    -28.8406E+06     4.06800E+06    -257.936E-03     498.686E-03    -240.750E-03     20.2882E-03    -258.688E-03     498.794E-03    -240.597E-03     9.68027E-03
            2376     4.26063E-03     7.76321E-03    -98.0470E+06    -141.007E+06    -45.4717E+06     3.64183E+06    -250.681E-03     489.021E-03    -238.339E-03     19.4344E-03    -251.291E-03     488.914E-03    -238.220E-03     10.6010E-03
            2377     3.55773E-03     7.73721E-03    -106.679E+06    -168.093E+06    -63.4489E+06     2.74082E+06    -244.701E-03     481.027E-03    -236.326E-03     17.8483E-03    -245.176E-03     480.711E-03    -236.245E-03     10.6833E-03
            2378     2.85113E-03     7.71895E-03    -115.155E+06    -193.757E+06    -82.3259E+06     1.34394E+06    -239.937E-03     474.629E-03    -234.692E-03     15.3820E-03    -240.292E-03     474.126E-03    -234.656E-03     9.79575E-03
            2379     2.14062E-03     7.70389E-03    -122.561E+06    -211.453E+06    -100.288E+06     810.549E+03    -236.328E-03     469.742E-03    -233.414E-03     12.2564E-03    -236.593E-03     469.112E-03    -233.431E-03     8.13443E-03
            2380     1.42894E-03     7.69457E-03    -128.692E+06    -224.948E+06    -116.661E+06     518.522E+03    -233.787E-03     466.267E-03    -232.480E-03     8.77325E-03    -233.985E-03     465.547E-03    -232.550E-03     6.02616E-03
            2381     714.274E-06     7.68913E-03    -132.664E+06    -236.161E+06    -128.886E+06    -11.2500E+03    -231.825E-03     464.131E-03    -232.306E-03     4.97688E-03    -231.975E-03     463.346E-03    -232.416E-03     3.48673E-03
            2382     12.8281E-03     7.66326E-03    -4.98950E+06     74.1638E+06     91.8539E+06    -1.06683E+06    -342.238E-03     630.142E-03    -287.904E-03     103.336E-03    -345.690E-03     633.572E-03    -287.545E-03     70.7623E-03
            2383     12.1843E-03     7.45321E-03    -9.96318E+06     67.4543E+06     88.2027E+06    -872.839E+03    -353.715E-03     638.299E-03    -284.584E-03     115.987E-03    -358.093E-03     642.626E-03    -284.227E-03     77.6041E-03
            2384     11.5579E-03     7.24711E-03    -15.2982E+06     52.9353E+06     83.4449E+06    -677.781E+03    -360.940E-03     641.249E-03    -280.309E-03     93.8628E-03    -364.708E-03     644.914E-03    -279.946E-03     56.7782E-03
            2385     10.9383E-03     7.03500E-03    -20.7790E+06     54.3747E+06     81.9803E+06    -1.62348E+06    -358.619E-03     633.908E-03    -275.288E-03     74.3747E-03    -361.995E-03     637.173E-03    -274.927E-03     38.8320E-03
            2386     10.3121E-03     6.85946E-03    -26.9554E+06     42.8959E+06     69.0400E+06    -1.41234E+06    -349.680E-03     619.573E-03    -269.893E-03     55.3460E-03    -352.467E-03     622.224E-03    -269.571E-03     23.3325E-03
            2387     9.67774E-03     6.70904E-03    -33.2177E+06     25.7061E+06     55.6882E+06     1.47181E+06    -336.399E-03     600.914E-03    -264.515E-03     42.3051E-03    -338.700E-03     603.034E-03    -264.226E-03     14.1379E-03
            2388     9.03490E-03     6.58373E-03    -39.2182E+06     17.4874E+06     46.9850E+06     4.66839E+06    -320.118E-03     579.579E-03    -259.461E-03     34.5051E-03    -322.056E-03     581.310E-03    -259.195E-03     10.1575E-03
            2389     8.37911E-03     6.48642E-03    -45.4713E+06     9.08084E+06     38.9521E+06     6.50864E+06    -304.077E-03     559.007E-03    -254.930E-03     31.9083E-03    -305.768E-03     560.459E-03    -254.682E-03     10.8345E-03
            2390     7.71245E-03     6.41093E-03    -52.3315E+06    -173.392E+03     31.4545E+06     7.42494E+06    -289.857E-03     540.833E-03    -250.976E-03     32.3666E-03    -291.356E-03     542.057E-03    -250.743E-03     14.1490E-03
            2391     7.03527E-03     6.35126E-03    -59.6766E+06    -18.6857E+06     21.9240E+06     7.50251E+06    -277.378E-03     524.972E-03    -247.594E-03     33.4862E-03    -278.685E-03     525.940E-03    -247.371E-03     17.8704E-03
            2392     6.35005E-03     6.30481E-03    -68.3438E+06    -51.2251E+06     8.22971E+06     6.96129E+06    -267.044E-03     511.794E-03    -244.749E-03     34.4343E-03    -268.157E-03     512.460E-03    -244.535E-03     21.0930E-03
            2393     5.65781E-03     6.27075E-03    -78.3401E+06    -84.0599E+06    -6.23624E+06     6.24979E+06    -258.766E-03     501.139E-03    -242.372E-03     34.6750E-03    -259.702E-03     501.518E-03    -242.168E-03     23.3562E-03
            2394     4.95956E-03     6.24356E-03    -87.9866E+06    -111.059E+06    -20.5481E+06     4.53887E+06    -252.066E-03     492.459E-03    -240.393E-03     33.8441E-03    -252.844E-03     492.591E-03    -240.207E-03     24.3392E-03
            2395     4.25821E-03     6.22349E-03    -97.1393E+06    -137.233E+06    -37.7354E+06     1.94792E+06    -246.697E-03     485.457E-03    -238.761E-03     31.6577E-03    -247.324E-03     485.363E-03    -238.610E-03     23.7843E-03
            2396     3.55260E-03     6.20855E-03    -105.084E+06    -165.776E+06    -56.8384E+06     512.627E+03    -242.587E-03     480.029E-03    -237.443E-03     28.3581E-03    -243.069E-03     479.715E-03    -237.334E-03     21.9834E-03
            2397     2.84464E-03     6.19703E-03    -112.149E+06    -191.709E+06    -76.1943E+06     49.9960E+03    -239.530E-03     475.924E-03    -236.394E-03     24.1762E-03    -239.885E-03     475.421E-03    -236.334E-03     19.1929E-03
            2398     2.13570E-03     6.18985E-03    -119.408E+06    -210.681E+06    -95.5158E+06    -1.04409E+06    -237.254E-03     472.835E-03    -235.581E-03     19.2779E-03    -237.514E-03     472.199E-03    -235.580E-03     15.5774E-03
            2399     1.42364E-03     6.18453E-03    -125.241E+06    -225.874E+06    -113.037E+06    -1.54245E+06    -235.790E-03     470.763E-03    -234.973E-03     13.4304E-03    -235.976E-03     470.029E-03    -235.029E-03     10.9557E-03
            2400     712.789E-06     6.18069E-03    -129.059E+06    -238.194E+06    -125.554E+06    -724.456E+03    -234.761E-03     469.363E-03    -234.602E-03     7.19571E-03    -234.896E-03     468.556E-03    -234.697E-03     5.87422E-03
            2401     12.8275E-03     5.87422E-03    -4.75876E+06     76.1811E+06     89.7223E+06    -714.981E+03    -364.870E-03     651.963E-03    -287.093E-03     103.185E-03    -368.290E-03     655.374E-03    -286.748E-03     69.0109E-03
            2402     12.2140E-03     5.63824E-03    -9.68064E+06     66.1482E+06     83.6764E+06    -1.92003E+06    -376.508E-03     659.027E-03    -282.519E-03     108.655E-03    -380.920E-03     663.400E-03    -282.183E-03     67.0810E-03
            2403     11.6039E-03     5.42917E-03    -12.9483E+06     51.8528E+06     80.4771E+06    -900.260E+03    -375.666E-03     652.736E-03    -277.070E-03     79.7996E-03    -379.334E-03     656.318E-03    -276.724E-03     40.3800E-03
            2404     10.9845E-03     5.25135E-03    -18.4798E+06     54.6542E+06     79.8788E+06     1.22326E+06    -362.546E-03     633.855E-03    -271.310E-03     58.2720E-03    -365.531E-03     636.749E-03    -270.963E-03     23.2165E-03
            2405     10.3565E-03     5.10010E-03    -26.0774E+06     40.6774E+06     67.4709E+06     3.35839E+06    -344.226E-03     609.987E-03    -265.760E-03     45.3311E-03    -346.629E-03     612.254E-03    -265.444E-03     15.3982E-03
            2406     9.71986E-03     4.98705E-03    -34.1232E+06     24.3827E+06     55.5676E+06     3.59005E+06    -324.935E-03     585.698E-03    -260.762E-03     40.6484E-03    -326.944E-03     587.517E-03    -260.470E-03     15.2676E-03
            2407     9.06596E-03     4.90572E-03    -40.6979E+06     15.1954E+06     47.3880E+06     2.48834E+06    -306.152E-03     562.624E-03    -256.473E-03     42.0005E-03    -307.900E-03     564.150E-03    -256.199E-03     20.6646E-03
            2408     8.39791E-03     4.84371E-03    -46.1167E+06     5.42512E+06     40.9180E+06     3.78257E+06    -290.305E-03     543.229E-03    -252.923E-03     44.6097E-03    -291.837E-03     544.501E-03    -252.660E-03     26.7111E-03
            2409     7.71951E-03     4.79420E-03    -52.2453E+06    -1.28004E+06     37.4305E+06     6.04197E+06    -277.575E-03     527.615E-03    -250.040E-03     46.4386E-03    -278.926E-03     528.671E-03    -249.776E-03     31.3821E-03
            2410     7.03381E-03     4.75948E-03    -60.3630E+06    -17.5770E+06     30.2677E+06     7.51919E+06    -267.457E-03     515.175E-03    -247.718E-03     47.1861E-03    -268.635E-03     515.992E-03    -247.454E-03     34.5259E-03
            2411     6.34060E-03     4.73162E-03    -69.0220E+06    -46.3521E+06     17.0611E+06     6.83549E+06    -259.663E-03     505.525E-03    -245.862E-03     46.5595E-03    -260.663E-03     506.068E-03    -245.609E-03     35.8882E-03
            2412     5.64338E-03     4.71051E-03    -75.8810E+06    -77.2278E+06     1.25360E+06     3.26118E+06    -253.946E-03     498.322E-03    -244.376E-03     44.5511E-03    -254.768E-03     498.598E-03    -244.148E-03     35.5112E-03
            2413     4.94372E-03     4.69484E-03    -80.9859E+06    -105.056E+06    -15.8108E+06    -600.768E+03    -249.670E-03     492.848E-03    -243.178E-03     41.4384E-03    -250.327E-03     492.891E-03    -242.987E-03     33.7809E-03
            2414     4.24018E-03     4.68319E-03    -86.0079E+06    -135.258E+06    -33.4994E+06    -2.36513E+06    -246.410E-03     488.642E-03    -242.231E-03     37.2392E-03    -246.913E-03     488.456E-03    -242.078E-03     30.8398E-03
            2415     3.53590E-03     4.67456E-03    -92.6198E+06    -167.749E+06    -52.6089E+06    -2.13237E+06    -243.990E-03     485.492E-03    -241.502E-03     32.3421E-03    -244.357E-03     485.086E-03    -241.388E-03     27.1165E-03
            2416     2.82997E-03     4.66841E-03    -99.9729E+06    -192.069E+06    -72.5196E+06    -1.57240E+06    -242.304E-03     483.250E-03    -240.946E-03     26.7548E-03    -242.567E-03     482.685E-03    -240.885E-03     22.6265E-03
            2417     2.12215E-03     4.66420E-03    -106.062E+06    -211.139E+06    -90.8859E+06    -1.32001E+06    -241.301E-03     481.822E-03    -240.521E-03     20.6611E-03    -241.479E-03     481.135E-03    -240.515E-03     17.5862E-03
            2418     1.41618E-03     4.66030E-03    -111.333E+06    -229.108E+06    -105.072E+06    -820.803E+03    -240.581E-03     480.791E-03    -240.210E-03     14.2484E-03    -240.694E-03     479.998E-03    -240.242E-03     12.1788E-03
            2419     707.678E-06     4.65970E-03    -114.621E+06    -240.739E+06    -113.390E+06    -217.187E+03    -239.998E-03     480.128E-03    -240.130E-03     7.84992E-03    -240.072E-03     479.267E-03    -240.182E-03     6.72981E-03
            2420     12.8510E-03     4.01838E-03    -3.42060E+06     79.1684E+06     87.8206E+06    -2.91579E+06    -398.493E-03     684.584E-03    -286.091E-03     110.001E-03    -402.192E-03     688.295E-03    -285.762E-03     72.5256E-03
            2421     12.2468E-03     3.79067E-03    -4.03736E+06     64.4570E+06     82.3725E+06    -860.148E+03    -399.344E-03     679.398E-03    -280.054E-03     94.3004E-03    -403.403E-03     683.447E-03    -279.730E-03     52.0017E-03
            2422     11.6407E-03     3.59237E-03    -11.4516E+06     45.8712E+06     74.6366E+06     2.34208E+06    -379.652E-03     653.427E-03    -273.775E-03     61.7892E-03    -382.549E-03     656.245E-03    -273.451E-03     25.7248E-03
            2423     11.0289E-03     3.46843E-03    -18.2108E+06     49.0441E+06     76.6881E+06     5.19757E+06    -354.289E-03     622.335E-03    -268.045E-03     48.3067E-03    -356.470E-03     624.414E-03    -267.707E-03     19.0318E-03
            2424     10.3947E-03     3.37004E-03    -24.5815E+06     40.6339E+06     72.7885E+06     6.42973E+06    -328.585E-03     591.771E-03    -263.186E-03     47.6824E-03    -330.363E-03     593.404E-03    -262.845E-03     24.4071E-03
            2425     9.73586E-03     3.30359E-03    -30.9822E+06     31.2107E+06     63.5249E+06     5.37894E+06    -307.051E-03     566.312E-03    -259.262E-03     49.1884E-03    -308.545E-03     567.628E-03    -258.944E-03     30.5849E-03
            2426     9.06533E-03     3.25803E-03    -39.0656E+06     18.4518E+06     51.5179E+06     3.51751E+06    -291.301E-03     547.445E-03    -256.143E-03     51.1834E-03    -292.590E-03     548.515E-03    -255.856E-03     36.0363E-03
            2427     8.38751E-03     3.22190E-03    -47.6273E+06     4.20933E+06     40.1643E+06     1.99512E+06    -279.099E-03     532.764E-03    -253.665E-03     52.1987E-03    -280.213E-03     533.611E-03    -253.402E-03     39.7523E-03
            2428     7.70204E-03     3.19745E-03    -54.3573E+06    -4.75166E+06     32.0319E+06     2.17900E+06    -269.618E-03     521.336E-03    -251.718E-03     51.2924E-03    -270.586E-03     522.003E-03    -251.472E-03     40.9901E-03
            2429     7.01021E-03     3.17574E-03    -58.5922E+06    -16.3044E+06     24.0644E+06     1.98743E+06    -262.701E-03     512.893E-03    -250.193E-03     48.8231E-03    -263.532E-03     513.390E-03    -249.964E-03     40.1753E-03
            2430     6.31653E-03     3.16189E-03    -60.9513E+06    -38.5672E+06     9.98697E+06    -1.45790E+06    -257.655E-03     506.630E-03    -248.975E-03     45.4508E-03    -258.335E-03     506.928E-03    -248.781E-03     38.0667E-03
            2431     5.61904E-03     3.14866E-03    -62.9761E+06    -70.7351E+06    -8.60213E+06    -5.35524E+06    -253.817E-03     501.828E-03    -248.012E-03     41.3265E-03    -254.342E-03     501.903E-03    -247.861E-03     34.9733E-03
            2432     4.91894E-03     3.14002E-03    -66.6728E+06    -105.156E+06    -27.4483E+06    -6.50113E+06    -251.028E-03     498.300E-03    -247.272E-03     36.6741E-03    -251.419E-03     498.160E-03    -247.160E-03     31.2238E-03
            2433     4.21880E-03     3.13279E-03    -71.5321E+06    -141.590E+06    -43.0656E+06    -4.29021E+06    -249.090E-03     495.814E-03    -246.724E-03     31.8503E-03    -249.365E-03     495.456E-03    -246.630E-03     27.2470E-03
            2434     3.51645E-03     3.12857E-03    -76.1618E+06    -171.362E+06    -56.5750E+06    -1.84329E+06    -247.761E-03     494.068E-03    -246.307E-03     26.6791E-03    -247.941E-03     493.531E-03    -246.231E-03     22.8990E-03
            2435     2.81353E-03     3.12454E-03    -79.9690E+06    -194.067E+06    -68.0991E+06    -1.12626E+06    -246.870E-03     492.853E-03    -245.983E-03     21.4344E-03    -246.974E-03     492.180E-03    -245.926E-03     18.4205E-03
            2436     2.11160E-03     3.12138E-03    -83.2418E+06    -215.097E+06    -76.1528E+06     230.511E+03    -246.168E-03     491.929E-03    -245.761E-03     16.1214E-03    -246.210E-03     491.132E-03    -245.710E-03     13.8654E-03
            2437     1.40673E-03     3.11984E-03    -85.7692E+06    -229.657E+06    -82.3285E+06     1.51734E+06    -245.657E-03     491.315E-03    -245.658E-03     10.8916E-03    -245.657E-03     490.432E-03    -245.613E-03     9.38666E-03
            2438     703.648E-06     3.11875E-03    -87.6440E+06    -239.145E+06    -86.7958E+06     950.818E+03    -245.607E-03     491.265E-03    -245.658E-03     5.88100E-03    -245.581E-03     490.329E-03    -245.618E-03     5.04565E-03
            2439     12.8533E-03     2.07605E-03    -4.50426E+06     78.8281E+06     89.7913E+06    -2.75815E+06    -458.747E-03     744.831E-03    -286.084E-03     115.901E-03    -461.838E-03     747.937E-03    -285.742E-03     83.0114E-03
            2440     12.2843E-03     1.88826E-03    -7.43872E+06     62.0533E+06     83.4736E+06     819.071E+03    -416.359E-03     694.678E-03    -278.319E-03     68.5817E-03    -418.585E-03     696.892E-03    -277.980E-03     40.9453E-03
            2441     11.6840E-03     1.78923E-03    -13.8948E+06     46.0685E+06     76.9020E+06     2.94359E+06    -372.090E-03     643.932E-03    -271.842E-03     49.2918E-03    -373.474E-03     645.228E-03    -271.504E-03     28.5005E-03
            2442     11.0431E-03     1.71479E-03    -19.1676E+06     45.6594E+06     77.1366E+06     2.71230E+06    -338.279E-03     605.084E-03    -266.805E-03     45.0646E-03    -339.403E-03     606.088E-03    -266.458E-03     29.1246E-03
            2443     10.3866E-03     1.68016E-03    -23.1855E+06     40.4697E+06     73.6259E+06     3.52428E+06    -313.771E-03     576.703E-03    -262.931E-03     43.7434E-03    -314.707E-03     577.493E-03    -262.588E-03     31.7908E-03
            2444     9.72038E-03     1.64919E-03    -27.6032E+06     31.6696E+06     59.8100E+06     4.96724E+06    -296.107E-03     556.017E-03    -259.910E-03     42.4566E-03    -296.874E-03     556.630E-03    -259.617E-03     33.1962E-03
            2445     9.04586E-03     1.62712E-03    -32.4611E+06     21.5165E+06     42.9993E+06     5.83969E+06    -283.792E-03     541.328E-03    -257.536E-03     39.3495E-03    -284.421E-03     541.796E-03    -257.305E-03     32.0066E-03
            2446     8.36295E-03     1.61294E-03    -37.6187E+06     10.6149E+06     27.1324E+06     3.57848E+06    -274.765E-03     530.414E-03    -255.650E-03     36.7691E-03    -275.305E-03     530.781E-03    -255.475E-03     30.6956E-03
            2447     7.67601E-03     1.60010E-03    -42.2599E+06    -416.296E+03     10.1208E+06    -1.41142E+06    -268.053E-03     522.179E-03    -254.126E-03     33.8846E-03    -268.511E-03     522.457E-03    -254.014E-03     28.7583E-03
            2448     6.98670E-03     1.59195E-03    -44.9314E+06    -11.0956E+06    -3.89224E+06    -6.10753E+06    -262.948E-03     515.855E-03    -252.907E-03     30.8425E-03    -263.333E-03     516.052E-03    -252.845E-03     26.4019E-03
            2449     6.29270E-03     1.58316E-03    -47.3756E+06    -35.4638E+06    -16.4365E+06    -8.02479E+06    -259.111E-03     511.061E-03    -251.950E-03     27.6282E-03    -259.417E-03     511.121E-03    -251.912E-03     23.7606E-03
            2450     5.59789E-03     1.57877E-03    -52.0412E+06    -73.8388E+06    -28.8223E+06    -6.69863E+06    -256.187E-03     507.397E-03    -251.210E-03     24.3581E-03    -256.410E-03     507.257E-03    -251.172E-03     21.0159E-03
            2451     4.90129E-03     1.57378E-03    -57.3742E+06    -112.142E+06    -39.4449E+06    -3.66080E+06    -253.964E-03     504.608E-03    -250.643E-03     20.9311E-03    -254.115E-03     504.270E-03    -250.595E-03     18.0802E-03
            2452     4.20201E-03     1.57109E-03    -61.9320E+06    -147.572E+06    -48.8255E+06    -2.10982E+06    -252.413E-03     502.620E-03    -250.207E-03     17.4379E-03    -252.500E-03     502.104E-03    -250.147E-03     15.0269E-03
            2453     3.50315E-03     1.56785E-03    -64.5211E+06    -174.475E+06    -55.6527E+06    -1.81837E+06    -251.337E-03     501.198E-03    -249.861E-03     14.3140E-03    -251.370E-03     500.542E-03    -249.792E-03     12.2925E-03
            2454     2.80389E-03     1.56621E-03    -65.9723E+06    -197.585E+06    -59.5070E+06    -566.052E+03    -250.504E-03     500.100E-03    -249.596E-03     11.4290E-03    -250.489E-03     499.321E-03    -249.511E-03     9.80022E-03
            2455     2.10228E-03     1.56468E-03    -67.5137E+06    -217.539E+06    -62.6086E+06     513.516E+03    -249.850E-03     499.257E-03    -249.406E-03     8.44138E-03    -249.798E-03     498.374E-03    -249.306E-03     7.21159E-03
            2456     1.40264E-03     1.56428E-03    -68.3247E+06    -228.647E+06    -65.5806E+06     753.466E+03    -249.460E-03     498.732E-03    -249.272E-03     5.54663E-03    -249.383E-03     497.790E-03    -249.170E-03     4.72388E-03
            2457     700.901E-06     1.56262E-03    -68.8544E+06    -235.540E+06    -67.3681E+06     713.891E+03    -249.429E-03     498.429E-03    -249.000E-03     3.08726E-03    -249.336E-03     497.451E-03    -248.896E-03     2.64776E-03


