********************************************************************************
Field Output Report, written Tue May 28 18:39:40 2024

Source 1
---------

   ODB: G:/Abaqus_calc_2019/1740/Vel_20/odb/zeides_2a_16_red_500_cal_30_vel_20_fric_0100.odb
   Step: Step-1
   Frame: Increment   3699693: Step Time =   0.4640

Loc 1 : Nodal values from source 1

Output sorted by column "Nodal Label".

Field Output reported at nodes for region: DIE_2A_16_D0_36-1.Region_1
   Computation algorithm: EXTRAPOLATE_COMPUTE_AVERAGE
   Averaged at nodes
   Averaging regions: ODB_REGIONS

      Node Label     COORD.COOR1     COORD.COOR2
                          @Loc 1          @Loc 1
-------------------------------------------------
               1     19.4799E-03     125.962E-03


Field Output reported at nodes for region: DIE_2A_16_D0_36-1.Region_2
   Computation algorithm: EXTRAPOLATE_COMPUTE_AVERAGE
   Averaged at nodes
   Averaging regions: ODB_REGIONS

      Node Label     COORD.COOR1     COORD.COOR2
                          @Loc 1          @Loc 1
-------------------------------------------------
               1     19.4799E-03     125.962E-03


Field Output reported at nodes for part: WIRE-1
   Computation algorithm: EXTRAPOLATE_COMPUTE_AVERAGE
   Averaged at nodes
   Averaging regions: ODB_REGIONS

      Node Label     COORD.COOR1     COORD.COOR2           S.S11           S.S22           S.S33           S.S12         PE.PE11         PE.PE22         PE.PE33         PE.PE12         LE.LE11         LE.LE22         LE.LE33         LE.LE12
                          @Loc 1          @Loc 1          @Loc 1          @Loc 1          @Loc 1          @Loc 1          @Loc 1          @Loc 1          @Loc 1          @Loc 1          @Loc 1          @Loc 1          @Loc 1          @Loc 1
-------------------------------------------------------------------------------------------------------------------------------------------------------------------------------------------------------------------------------------------------
               1     24.1476E-09     60.4446E-03    -65.0169E+06    -169.431E+06    -65.0365E+06    -88.8452E+03    -53.2176E-03     106.375E-03    -53.1571E-03     5.69774E-03    -53.2031E-03     105.717E-03    -53.1424E-03     5.67649E-03
               2     17.0734E-03     61.7729E-03    -2.56560E+06     119.923E+06     83.5226E+06     192.788E+03    -52.8955E-03     105.973E-03    -53.0777E-03     50.2943E-03    -53.5438E-03     106.796E-03    -52.8302E-03     49.8530E-03
               3     16.8619E-03     123.538E-03     5.70515E+06     18.7635E+06     23.9675E+06    -1.85059E+06     32.5405E-03     27.2030E-03    -59.7435E-03     445.478E-06     32.4999E-03     27.2465E-03    -59.6591E-03     421.680E-06
               4     612.043E-09     121.003E-03     44.2767E+06    -1.91616E+06     45.1339E+06    -1.83612E+06    -52.3748E-03     104.789E-03    -52.4140E-03    -2.72123E-03    -52.2245E-03     104.641E-03    -52.2498E-03    -2.75080E-03
               5     144.615E-09    -201.228E-18    -32.4419E+06    -141.516E+06    -32.0267E+06     113.207E+03    -52.3981E-03     104.616E-03    -52.2183E-03     417.351E-06    -52.3083E-03     104.003E-03    -52.1262E-03     417.832E-06
               6     16.8638E-03    -201.228E-18     1.44332E+06     101.092E+06     81.0898E+06     3.94093E+06    -92.0988E-03     153.863E-03    -61.7646E-03     98.9344E-03    -92.6295E-03     154.507E-03    -61.5078E-03     98.0932E-03
               7     853.370E-06     60.4504E-03    -64.0387E+06    -172.569E+06    -62.2791E+06    -51.5793E+03    -53.2148E-03     106.397E-03    -53.1824E-03     9.42497E-03    -53.1959E-03     105.719E-03    -53.1507E-03     9.39047E-03
               8     1.70684E-03     60.4636E-03    -61.7692E+06    -173.415E+06    -56.0945E+06     89.0744E+03    -53.2375E-03     106.452E-03    -53.2141E-03     17.2531E-03    -53.2182E-03     105.760E-03    -53.1535E-03     17.1905E-03
               9     2.56023E-03     60.4850E-03    -58.7137E+06    -167.971E+06    -48.0072E+06     173.278E+03    -53.2987E-03     106.529E-03    -53.2307E-03     25.3945E-03    -53.2895E-03     105.855E-03    -53.1421E-03     25.2988E-03
              10     3.41375E-03     60.5144E-03    -55.0180E+06    -157.500E+06     -39.723E+06     178.945E+03    -53.3800E-03     106.619E-03    -53.2390E-03     33.3810E-03    -53.3883E-03     105.988E-03    -53.1294E-03     33.2467E-03
              11     4.26719E-03     60.5518E-03    -51.1677E+06    -146.258E+06    -31.7213E+06     147.899E+03    -53.4890E-03     106.733E-03    -53.2435E-03     41.1220E-03    -53.5184E-03     106.153E-03    -53.1159E-03     40.9434E-03
              12     5.12076E-03     60.5966E-03    -47.1836E+06    -138.897E+06    -22.6736E+06     132.613E+03    -53.6306E-03     106.890E-03    -53.2590E-03     48.5674E-03    -53.6810E-03     106.345E-03    -53.1026E-03     48.3386E-03
              13     5.97422E-03     60.6490E-03    -43.0410E+06    -132.459E+06    -13.6478E+06     168.785E+03    -53.7881E-03     107.064E-03    -53.2763E-03     55.6656E-03    -53.8630E-03     106.556E-03    -53.0901E-03     55.3803E-03
              14     6.82782E-03     60.7080E-03    -39.0355E+06    -123.414E+06    -7.40508E+06     105.194E+03    -53.9399E-03     107.216E-03    -53.2758E-03     62.3937E-03    -54.0469E-03     106.767E-03    -53.0773E-03     62.0428E-03
              15     7.68137E-03     60.7737E-03    -35.3555E+06    -112.170E+06    -3.70580E+06     116.799E+03    -54.0848E-03     107.343E-03    -53.2586E-03     68.7405E-03    -54.2338E-03     106.979E-03    -53.0632E-03     68.3169E-03
              16     8.53500E-03     60.8453E-03    -32.1631E+06    -99.3080E+06    -1.66739E+06     186.615E+03    -54.2380E-03     107.469E-03    -53.2309E-03     74.6891E-03    -54.4427E-03     107.212E-03    -53.0486E-03     74.1842E-03
              17     9.38861E-03     60.9227E-03    -29.3953E+06    -83.9377E+06     261.762E+03     211.013E+03    -54.3631E-03     107.563E-03    -53.1998E-03     80.1711E-03    -54.6429E-03     107.440E-03    -53.0341E-03     79.5754E-03
              18     10.2423E-03     61.0054E-03    -26.9497E+06    -67.1706E+06     1.49574E+06     246.946E+03    -54.4500E-03     107.613E-03    -53.1634E-03     84.9953E-03    -54.8250E-03     107.650E-03    -53.0194E-03     84.2995E-03
              19     11.0959E-03     61.0922E-03    -24.6642E+06    -43.1810E+06     2.52506E+06     179.536E+03    -54.4894E-03     107.604E-03    -53.1147E-03     89.7624E-03    -54.9980E-03     107.864E-03    -53.0037E-03     88.9537E-03
              20     11.9501E-03     61.1844E-03    -22.3508E+06    -9.56524E+06     5.87165E+06     267.591E+03    -54.5592E-03     107.621E-03    -53.0616E-03     96.3486E-03    -55.2681E-03     108.199E-03    -52.9860E-03     95.4148E-03
              21     12.8033E-03     61.2841E-03    -20.1658E+06     47.5961E+06     9.37224E+06     365.514E+03    -54.6274E-03     107.599E-03    -52.9711E-03     105.650E-03    -55.6500E-03     108.691E-03    -52.9640E-03     104.583E-03
              22     13.6581E-03     61.3950E-03    -18.0281E+06     97.1956E+06     32.0012E+06     359.199E+03    -54.7037E-03     107.686E-03    -52.9821E-03     114.740E-03    -56.0773E-03     109.248E-03    -52.9369E-03     113.601E-03
              23     14.5111E-03     61.5129E-03    -14.6673E+06     111.960E+06     62.2859E+06     499.810E+03    -54.3390E-03     107.418E-03    -53.0785E-03     111.529E-03    -55.8504E-03     109.094E-03    -52.9082E-03     110.466E-03
              24     15.3659E-03     61.6173E-03    -8.84937E+06     122.810E+06     81.6126E+06     388.582E+03    -53.5996E-03     106.717E-03    -53.1170E-03     104.595E-03    -55.1571E-03     108.442E-03    -52.8742E-03     103.680E-03
              25     16.2218E-03     61.7222E-03    -3.92923E+06     124.971E+06     87.5768E+06     195.674E+03    -53.1006E-03     106.205E-03    -53.1046E-03     77.4985E-03    -54.2361E-03     107.516E-03    -52.8423E-03     76.8550E-03
              26     17.0738E-03     62.8279E-03    -1.50160E+06     120.811E+06     84.2194E+06     538.423E+03    -51.9821E-03     105.075E-03    -53.0932E-03     50.9942E-03    -52.6290E-03     105.901E-03    -52.8451E-03     50.5663E-03
              27     17.0744E-03     63.8785E-03    -2.16033E+06     120.410E+06     83.7997E+06    -516.036E+03    -52.3193E-03     105.397E-03    -53.0773E-03     51.1176E-03    -52.9709E-03     106.225E-03    -52.8297E-03     50.6699E-03
              28     17.0733E-03     64.9353E-03    -2.85819E+06     119.936E+06     83.5757E+06     143.011E+03    -53.0159E-03     106.097E-03    -53.0807E-03     50.3560E-03    -53.6666E-03     106.921E-03    -52.8326E-03     49.9122E-03
              29     17.0736E-03     65.9895E-03    -2.25408E+06     120.266E+06     83.8754E+06     662.972E+03    -51.9780E-03     105.077E-03    -53.0987E-03     51.3297E-03    -52.6292E-03     105.904E-03    -52.8504E-03     50.9045E-03
              30     17.0747E-03     67.0401E-03    -2.14221E+06     120.328E+06     84.0108E+06    -226.851E+03    -52.3505E-03     105.433E-03    -53.0823E-03     50.8587E-03    -52.9989E-03     106.257E-03    -52.8336E-03     50.4162E-03
              31     17.0726E-03     68.0979E-03    -2.21622E+06     120.244E+06     84.1435E+06     105.788E+03    -52.5985E-03     105.681E-03    -53.0824E-03     50.3079E-03    -53.2452E-03     106.503E-03    -52.8328E-03     49.8673E-03
              32     17.0753E-03     69.1483E-03    -1.93819E+06     120.543E+06     84.4540E+06    -55.4844E+03    -52.0983E-03     105.188E-03    -53.0896E-03     50.5069E-03    -52.7448E-03     106.011E-03    -52.8393E-03     50.0713E-03
              33     17.0724E-03     70.2044E-03    -2.49083E+06     120.451E+06     84.1746E+06     29.3928E+03    -52.5151E-03     105.599E-03    -53.0838E-03     50.2753E-03    -53.1641E-03     106.422E-03    -52.8339E-03     49.8356E-03
              34     17.0751E-03     71.2569E-03    -2.03825E+06     120.990E+06     84.5616E+06    -36.3672E+03    -52.3963E-03     105.481E-03    -53.0846E-03     50.3750E-03    -53.0447E-03     106.306E-03    -52.8343E-03     49.9344E-03
              35     17.0728E-03     72.3119E-03    -2.10999E+06     121.027E+06     84.4641E+06    -141.730E+03    -52.2223E-03     105.308E-03    -53.0859E-03     50.3868E-03    -52.8711E-03     106.134E-03    -52.8360E-03     49.9475E-03
              36     17.0749E-03     73.3646E-03    -2.09410E+06     121.458E+06     84.6989E+06     137.614E+03    -52.4080E-03     105.490E-03    -53.0821E-03     50.6652E-03    -53.0581E-03     106.318E-03    -52.8317E-03     50.2275E-03
              37     17.0730E-03     74.4196E-03    -1.97249E+06     121.483E+06     84.6862E+06     341.126E+03    -52.6465E-03     105.729E-03    -53.0822E-03     50.7259E-03    -53.2950E-03     106.556E-03    -52.8321E-03     50.2874E-03
              38     17.0743E-03     75.4739E-03    -2.11174E+06     121.103E+06     84.3859E+06     117.146E+03    -52.4084E-03     105.489E-03    -53.0803E-03     50.8518E-03    -53.0574E-03     106.315E-03    -52.8309E-03     50.4110E-03
              39     17.0741E-03     76.5258E-03    -2.66798E+06     120.337E+06     83.9392E+06    -749.094E+03    -52.7412E-03     105.816E-03    -53.0752E-03     50.2842E-03    -53.3905E-03     106.640E-03    -52.8262E-03     49.8300E-03
              40     17.0729E-03     77.5836E-03    -1.75744E+06     120.680E+06     84.5426E+06     585.000E+03    -52.4757E-03     105.564E-03    -53.0884E-03     50.3734E-03    -53.1216E-03     106.387E-03    -52.8381E-03     49.9420E-03
              41     17.0752E-03     78.6333E-03    -1.33550E+06     122.081E+06     85.4778E+06     438.998E+03    -51.8403E-03     104.929E-03    -53.0882E-03     50.7374E-03    -52.4875E-03     105.756E-03    -52.8359E-03     50.3104E-03
              42     17.0731E-03     79.6897E-03    -2.80927E+06     122.374E+06     85.0384E+06     327.731E+03    -52.5099E-03     105.588E-03    -53.0781E-03     50.1600E-03    -53.1633E-03     106.419E-03    -52.8263E-03     49.7241E-03
              43     17.0744E-03     80.7420E-03    -2.40054E+06     123.357E+06     85.5705E+06     341.269E+03    -52.6602E-03     105.744E-03    -53.0841E-03     49.9444E-03    -53.3138E-03     106.579E-03    -52.8316E-03     49.5068E-03
              44     17.0732E-03     81.7971E-03    -2.07319E+06     123.720E+06     85.6064E+06     81.2624E+03    -52.6581E-03     105.743E-03    -53.0850E-03     50.2172E-03    -53.3123E-03     106.581E-03    -52.8334E-03     49.7749E-03
              45     17.0742E-03     82.8517E-03    -1.82333E+06     123.916E+06     85.4297E+06     91.5045E+03    -52.1959E-03     105.275E-03    -53.0791E-03     50.4744E-03    -52.8484E-03     106.113E-03    -52.8290E-03     50.0359E-03
              46     17.0745E-03     83.9034E-03    -2.71977E+06     124.083E+06     85.1032E+06    -379.365E+03    -52.7543E-03     105.827E-03    -53.0723E-03     50.6551E-03    -53.4138E-03     106.670E-03    -52.8227E-03     50.2040E-03
              47     17.0724E-03     84.9618E-03    -2.57338E+06     124.767E+06     85.5176E+06     823.954E+03    -52.7279E-03     105.817E-03    -53.0895E-03     50.7820E-03    -53.3874E-03     106.663E-03    -52.8391E-03     50.3488E-03
              48     17.0753E-03     86.0122E-03    -2.05964E+06     124.828E+06     85.5775E+06     23.0162E+03    -51.8753E-03     104.971E-03    -53.0959E-03     50.9914E-03    -52.5317E-03     105.815E-03    -52.8460E-03     50.5580E-03
              49     17.0726E-03     87.0663E-03    -2.43059E+06     124.672E+06     85.5550E+06    -248.972E+03    -52.7057E-03     105.781E-03    -53.0750E-03     50.1880E-03    -53.3617E-03     106.623E-03    -52.8245E-03     49.7409E-03
              50     17.0751E-03     88.1217E-03    -1.53350E+06     125.403E+06     86.2700E+06     167.087E+03    -52.5397E-03     105.615E-03    -53.0754E-03     50.6035E-03    -53.1943E-03     106.459E-03    -52.8236E-03     50.1629E-03
              51     17.0732E-03     89.1755E-03    -1.63277E+06     125.569E+06     86.1042E+06     511.879E+03    -52.2087E-03     105.289E-03    -53.0801E-03     51.5139E-03    -52.8680E-03     106.138E-03    -52.8293E-03     51.0818E-03
              52     17.0747E-03     90.2289E-03    -2.37161E+06     126.144E+06     86.1096E+06     481.715E+03    -52.2507E-03     105.326E-03    -53.0751E-03     50.4454E-03    -52.9092E-03     106.174E-03    -52.8240E-03     50.0134E-03
              53     17.0738E-03     91.2811E-03    -2.81503E+06     125.859E+06     85.5183E+06    -400.827E+03    -52.6549E-03     105.719E-03    -53.0641E-03     50.1041E-03    -53.3146E-03     106.568E-03    -52.8149E-03     49.6545E-03
              54     17.0740E-03     92.3384E-03    -1.70507E+06     126.230E+06     85.9117E+06     614.009E+03    -52.1972E-03     105.256E-03    -53.0587E-03     50.2515E-03    -52.8520E-03     106.104E-03    -52.8097E-03     49.8202E-03
              55     17.0756E-03     93.3883E-03    -2.48461E+06     127.025E+06     86.1183E+06    -232.743E+03    -52.4287E-03     105.464E-03    -53.0350E-03     50.9729E-03    -53.0943E-03     106.322E-03    -52.7850E-03     50.5253E-03
              56     17.0735E-03     94.4460E-03    -3.01894E+06     127.026E+06     86.0190E+06     85.3381E+03    -53.3938E-03     106.405E-03    -53.0112E-03     50.3360E-03    -54.0610E-03     107.263E-03    -52.7609E-03     49.8795E-03
              57     17.0761E-03     95.4992E-03    -2.34117E+06     127.487E+06     87.0036E+06     406.400E+03    -52.1926E-03     105.205E-03    -53.0119E-03     50.2027E-03    -52.8553E-03     106.059E-03    -52.7583E-03     49.7679E-03
              58     17.0752E-03     96.5513E-03    -2.33762E+06     127.827E+06     88.0913E+06    -53.9707E+03    -52.2560E-03     105.236E-03    -52.9805E-03     51.0392E-03    -52.9263E-03     106.097E-03    -52.7220E-03     50.5964E-03
              59     17.0768E-03     97.6083E-03    -1.14165E+06     128.686E+06     89.5429E+06     526.230E+03    -52.1645E-03     105.088E-03    -52.9236E-03     51.3061E-03    -52.8311E-03     105.948E-03    -52.6608E-03     50.8658E-03
              60     17.0788E-03     98.6575E-03    -3.11018E+06     128.134E+06     89.0272E+06    -458.011E+03    -52.9133E-03     105.760E-03    -52.8463E-03     51.6203E-03    -53.5919E-03     106.624E-03    -52.5824E-03     51.1543E-03
              61     17.0771E-03     99.7170E-03    -2.71477E+06     128.012E+06     89.9770E+06     764.372E+03    -53.3184E-03     106.092E-03    -52.7735E-03     51.6079E-03    -53.9960E-03     106.953E-03    -52.5053E-03     51.1516E-03
              62     17.0829E-03     100.768E-03    -584.205E+03     128.126E+06     91.8745E+06    -217.571E+03    -51.9892E-03     104.658E-03    -52.6684E-03     53.2153E-03    -52.6630E-03     105.518E-03    -52.3940E-03     52.7584E-03
              63     17.0827E-03     101.821E-03    -2.63187E+06     125.482E+06     91.2581E+06    -1.40337E+06    -54.6580E-03     107.134E-03    -52.4763E-03     53.5202E-03    -55.3464E-03     107.994E-03    -52.1981E-03     53.0036E-03
              64     17.0858E-03     102.881E-03    -3.86581E+06     122.956E+06     91.5008E+06     140.181E+03    -56.3484E-03     108.654E-03    -52.3051E-03     52.8668E-03    -57.0398E-03     109.502E-03    -52.0203E-03     52.3430E-03
              65     17.0888E-03     103.937E-03    -1.66740E+06     121.633E+06     93.4200E+06    -320.654E+03    -55.9057E-03     108.037E-03    -52.1310E-03     55.1559E-03    -56.6005E-03     108.887E-03    -51.8379E-03     54.6272E-03
              66     17.0927E-03     104.994E-03    -1.83918E+06     118.607E+06     93.1945E+06    -1.18187E+06    -59.0222E-03     110.888E-03    -51.8661E-03     56.1493E-03    -59.7244E-03     111.735E-03    -51.5694E-03     55.5542E-03
              67     17.0945E-03     106.056E-03    -2.87381E+06     114.979E+06     92.1409E+06    -1.35170E+06    -63.8368E-03     115.434E-03    -51.5969E-03     56.4926E-03    -64.5493E-03     116.277E-03    -51.2987E-03     55.8107E-03
              68     17.0969E-03     107.126E-03    -2.33439E+06     112.100E+06     92.2381E+06    -930.777E+03    -67.7895E-03     119.169E-03    -51.3796E-03     59.0070E-03    -68.5198E-03     120.022E-03    -51.0775E-03     58.2520E-03
              69     17.0985E-03     108.197E-03    -2.20935E+06     107.649E+06     90.8786E+06    -1.62166E+06    -72.0028E-03     123.178E-03    -51.1749E-03     61.2243E-03    -72.7449E-03     124.031E-03    -50.8734E-03     60.3731E-03
              70     17.0996E-03     109.273E-03    -2.77379E+06     102.592E+06     89.3768E+06    -2.09439E+06    -77.4100E-03     128.383E-03    -50.9730E-03     63.4418E-03    -78.1689E-03     129.238E-03    -50.6709E-03     62.4697E-03
              71     17.1004E-03     110.356E-03    -2.23137E+06     97.8044E+06     89.6953E+06    -1.41118E+06    -82.8484E-03     133.639E-03    -50.7910E-03     67.1557E-03    -83.6288E-03     134.500E-03    -50.4811E-03     66.0636E-03
              72     17.1015E-03     111.445E-03    -3.21708E+06     90.8763E+06     87.8780E+06    -2.44129E+06    -88.5310E-03     139.136E-03    -50.6047E-03     71.5865E-03    -89.3410E-03     140.003E-03    -50.2924E-03     70.3319E-03
              73     17.1020E-03     112.539E-03    -1.77708E+06      82.674E+06     85.8354E+06    -2.53245E+06    -94.4944E-03     144.910E-03    -50.4157E-03     73.6693E-03    -95.3148E-03     145.769E-03    -50.1039E-03     72.2457E-03
              74     17.1028E-03     113.639E-03    -3.47838E+06     76.2081E+06     85.4761E+06    -3.52108E+06    -100.804E-03     151.037E-03    -50.2331E-03     76.9406E-03    -101.672E-03     151.916E-03    -49.9112E-03     75.2930E-03
              75     17.1033E-03     114.748E-03    -2.17316E+06     70.1674E+06     86.3708E+06    -3.87158E+06    -108.407E-03     158.428E-03    -50.0212E-03     83.8825E-03    -109.326E-03     159.341E-03    -49.6880E-03     81.9776E-03
              76     17.1045E-03     115.869E-03     136.514E+03     60.7485E+06     89.1806E+06    -2.23493E+06    -116.871E-03     166.680E-03    -49.8083E-03     94.6513E-03    -117.850E-03     167.620E-03    -49.4507E-03     92.4913E-03
              77     17.1047E-03     117.000E-03    -6.75153E+06     50.3727E+06     90.1460E+06    -2.03937E+06    -121.528E-03     171.212E-03    -49.6835E-03     100.036E-03    -122.614E-03     172.192E-03    -49.2961E-03     97.5978E-03
              78     17.1063E-03     118.120E-03     1.22827E+06     45.9379E+06     97.3384E+06    -826.403E+03    -128.617E-03     178.111E-03    -49.4938E-03     113.938E-03    -129.824E-03     179.209E-03    -49.0755E-03     111.111E-03
              79     17.1077E-03     119.276E-03     1.28909E+06     50.8601E+06     101.597E+06     2.66466E+06    -138.566E-03     187.786E-03    -49.2204E-03     131.750E-03    -139.951E-03     189.074E-03    -48.7880E-03     128.521E-03
              80     17.1085E-03     120.434E-03    -9.72256E+06     49.1088E+06      81.952E+06    -2.90129E+06    -130.627E-03     179.914E-03    -49.2865E-03     152.330E-03    -132.266E-03     181.465E-03    -48.9338E-03     148.994E-03
              81     17.1109E-03     121.569E-03    -2.81304E+06     24.1560E+06     46.9664E+06    -13.1631E+06    -85.5421E-03     135.809E-03    -50.2672E-03     176.080E-03    -86.7023E-03     136.927E-03    -50.0633E-03     174.018E-03
              82     17.1066E-03     122.617E-03     5.46375E+06     12.4899E+06     26.3393E+06    -8.45331E+06    -9.51344E-03     64.9200E-03    -55.4066E-03     90.9476E-03    -9.79521E-03     65.1947E-03    -55.3009E-03     90.5273E-03
              83     15.9651E-03     123.335E-03     1.23696E+06    -484.428E+03     35.6445E+06    -2.74198E+06     11.5551E-03     49.3542E-03    -60.9094E-03     8.58206E-03     11.5030E-03     49.3033E-03    -60.7322E-03     8.52602E-03
              84     15.0979E-03     123.082E-03     4.65200E+06    -10.0291E+06     57.6464E+06    -4.06854E+06    -17.3964E-03     79.7545E-03    -62.3581E-03     16.1002E-03    -17.4533E-03     79.6291E-03    -62.0621E-03     15.9881E-03
              85     14.2522E-03     122.808E-03     15.6037E+06    -2.36991E+06     77.6400E+06    -821.842E+03    -25.7564E-03     88.4484E-03    -62.6920E-03     5.96526E-03    -25.8036E-03     88.3087E-03    -62.3230E-03     5.86502E-03
              86     13.4102E-03     122.557E-03     21.1660E+06     2.38750E+06     88.6165E+06     1.41433E+06    -29.5391E-03     92.2250E-03    -62.6860E-03    -8.85208E-03    -29.5841E-03     92.0724E-03    -62.2770E-03    -8.94447E-03
              87     12.5756E-03     122.330E-03     24.3215E+06     547.017E+03     89.7421E+06     1.77118E+06    -38.2674E-03     100.669E-03    -62.4011E-03    -19.2620E-03    -38.2929E-03     100.491E-03    -61.9884E-03    -19.3735E-03
              88     11.7453E-03     122.123E-03     26.7242E+06    -1.21619E+06     90.5105E+06     2.43198E+06    -46.7663E-03     108.505E-03    -61.7386E-03    -27.8701E-03    -46.7756E-03     108.306E-03    -61.3230E-03    -27.9900E-03
              89     10.9224E-03     121.939E-03     29.2951E+06     275.568E+03     88.2134E+06     1.84069E+06    -51.8009E-03     112.602E-03    -60.8015E-03    -31.7065E-03    -51.7946E-03     112.407E-03    -60.4033E-03    -31.8304E-03
              90     10.0949E-03     121.779E-03     31.4798E+06    -1.26246E+06     85.5161E+06     1.38983E+06    -55.1624E-03     114.934E-03    -59.7716E-03    -31.8757E-03    -55.1356E-03     114.734E-03    -59.3879E-03    -31.9931E-03
              91     9.26719E-03     121.638E-03     33.3387E+06    -362.832E+03     84.8129E+06      991.76E+03    -57.2459E-03     115.947E-03    -58.7013E-03    -30.3674E-03    -57.2097E-03     115.752E-03    -58.3251E-03    -30.4750E-03
              92     8.43656E-03     121.516E-03     33.8681E+06    -291.777E+03     81.9415E+06     1.37180E+06    -57.9537E-03     115.575E-03    -57.6213E-03    -27.5683E-03    -57.9100E-03     115.387E-03    -57.2603E-03    -27.6546E-03
              93     7.60295E-03     121.410E-03     33.6889E+06     1.10232E+06     78.0997E+06     649.193E+03    -57.8746E-03     114.454E-03    -56.5795E-03    -24.5298E-03    -57.8279E-03     114.282E-03    -56.2395E-03    -24.6102E-03
              94     6.76650E-03     121.319E-03     33.7398E+06     764.548E+03     73.7746E+06    -484.359E+03    -57.2628E-03     112.868E-03    -55.6053E-03    -21.3751E-03    -57.2087E-03     112.703E-03    -55.2864E-03    -21.4558E-03
              95     5.92706E-03     121.241E-03     34.5972E+06     287.743E+03     67.8227E+06    -1.27356E+06    -56.3066E-03     111.019E-03    -54.7121E-03    -18.3473E-03    -56.2385E-03     110.860E-03    -54.4236E-03    -18.4255E-03
              96     5.08508E-03     121.176E-03     35.8941E+06    -106.055E+03     61.2570E+06    -1.54775E+06    -55.2276E-03     109.151E-03    -53.9239E-03    -15.5027E-03    -55.1429E-03     109.000E-03    -53.6695E-03    -15.5732E-03
              97     4.24081E-03     121.122E-03     37.4063E+06     180.529E+03     56.4660E+06    -1.88470E+06    -54.2011E-03     107.463E-03    -53.2617E-03    -12.8114E-03    -54.1021E-03     107.319E-03    -53.0338E-03    -12.8763E-03
              98     3.39462E-03     121.079E-03     39.3251E+06    -79.8924E+03     52.5699E+06    -2.17058E+06    -53.2612E-03     105.993E-03    -52.7321E-03    -10.2781E-03    -53.1466E-03     105.852E-03    -52.5262E-03    -10.3377E-03
              99     2.54692E-03     121.046E-03     41.6238E+06    -580.280E+03     48.6950E+06    -2.14275E+06    -52.4009E-03     104.769E-03    -52.3680E-03    -7.93697E-03    -52.2685E-03     104.628E-03    -52.1840E-03    -7.98805E-03
             100     1.69786E-03     121.023E-03     44.1134E+06    -777.985E+03     45.7135E+06    -2.00096E+06    -51.8586E-03     104.098E-03    -52.2397E-03    -5.91302E-03    -51.7091E-03     103.958E-03    -52.0740E-03    -5.95519E-03
             101     847.941E-06     121.008E-03     44.8413E+06    -783.455E+03     44.9604E+06    -1.89558E+06    -52.0464E-03     104.375E-03    -52.3289E-03    -3.85877E-03    -51.8934E-03     104.234E-03    -52.1680E-03    -3.89268E-03
             102    -602.465E-09     119.949E-03     38.4307E+06    -4.07820E+06     38.0016E+06    -1.48483E+06    -46.3318E-03     92.9808E-03    -46.6489E-03    -965.602E-06    -46.1946E-03     92.8438E-03    -46.5087E-03    -991.068E-06
             103     96.4720E-09     118.921E-03     20.5132E+06    -11.0875E+06     20.2299E+06    -1.97222E+06    -36.5043E-03     73.3458E-03    -36.8415E-03     1.49018E-03    -36.4173E-03     73.2290E-03    -36.7540E-03     1.45872E-03
             104    -151.775E-09     117.909E-03    -1.84937E+06    -20.1950E+06    -1.96012E+06    -2.71723E+06    -30.1190E-03     60.2595E-03    -30.1405E-03     2.79124E-03    -30.0971E-03     60.1631E-03    -30.1183E-03     2.75193E-03
             105     176.597E-09     116.908E-03    -27.1641E+06    -31.1325E+06    -26.2692E+06    -3.34656E+06    -26.0225E-03     52.0286E-03    -26.0061E-03     3.92217E-03    -26.0753E-03     51.9503E-03    -26.0529E-03     3.87646E-03
             106    -165.786E-09     115.912E-03    -55.4555E+06    -44.1784E+06    -54.8293E+06    -4.23260E+06    -23.9490E-03     47.9335E-03    -23.9844E-03     4.84803E-03    -24.0827E-03     47.8726E-03    -24.1141E-03     4.79222E-03
             107     89.6753E-09     114.918E-03    -87.4105E+06    -57.6967E+06    -87.3379E+06    -3.92633E+06    -23.6647E-03     47.3630E-03    -23.6983E-03     5.63561E-03    -23.8913E-03     47.3280E-03    -23.9246E-03     5.58485E-03
             108    -86.0339E-09     113.924E-03    -120.162E+06    -69.1388E+06    -120.227E+06    -2.81287E+06    -24.9951E-03     49.9449E-03    -24.9498E-03     6.26874E-03    -25.3214E-03     49.9477E-03    -25.2764E-03     6.23297E-03
             109     144.876E-09     112.925E-03    -127.510E+06    -73.8676E+06    -128.517E+06    -100.553E+03    -27.5981E-03     55.1116E-03    -27.5135E-03     6.67808E-03    -27.9424E-03     55.1132E-03    -27.8641E-03     6.67740E-03
             110    -83.7688E-09     111.920E-03    -95.5482E+06    -69.4336E+06    -95.6947E+06     2.64318E+06    -31.0715E-03     62.0969E-03    -31.0254E-03     6.90304E-03    -31.3102E-03     62.0266E-03    -31.2646E-03     6.93710E-03
             111     84.8038E-09     110.907E-03    -61.3627E+06    -61.7275E+06    -60.4921E+06     1.65258E+06    -34.8771E-03     69.7182E-03    -34.8411E-03     6.93433E-03    -35.0073E-03     69.5859E-03    -34.9651E-03     6.95409E-03
             112    -30.4426E-09     109.886E-03    -48.3094E+06    -60.7264E+06    -47.6844E+06    -1.06102E+06    -38.4851E-03     76.8896E-03    -38.4045E-03     6.89836E-03    -38.5699E-03     76.7249E-03    -38.4848E-03     6.88106E-03
             113     105.174E-09     108.859E-03    -43.2878E+06    -66.6157E+06    -43.2143E+06    -2.30169E+06    -41.6824E-03     83.3109E-03    -41.6285E-03     6.83942E-03    -41.7400E-03     83.1032E-03    -41.6853E-03     6.80387E-03
             114    -103.816E-09     107.825E-03    -42.0208E+06    -75.2500E+06    -42.2249E+06    -2.58435E+06    -44.4375E-03     88.8366E-03    -44.3991E-03     6.61562E-03    -44.4776E-03     88.5826E-03    -44.4402E-03     6.57405E-03
             115     148.598E-09     106.787E-03    -43.9620E+06    -84.8856E+06    -44.2215E+06    -2.76105E+06    -46.6966E-03     93.3462E-03    -46.6496E-03     6.33840E-03    -46.7295E-03     93.0499E-03    -46.6839E-03     6.29203E-03
             116    -132.277E-09     105.744E-03    -46.3746E+06    -94.7674E+06    -46.4074E+06    -2.97630E+06    -48.5045E-03     96.9759E-03    -48.4715E-03     6.11871E-03    -48.5320E-03     96.6370E-03    -48.4988E-03     6.06714E-03
             117     156.288E-09     104.698E-03    -49.1768E+06    -105.238E+06    -49.7531E+06    -2.88909E+06    -49.9626E-03     99.8036E-03    -49.8410E-03     6.04297E-03    -49.9841E-03     99.4213E-03    -49.8658E-03     5.99078E-03
             118     5.57346E-09     103.649E-03    -53.2554E+06    -115.481E+06    -53.2110E+06    -2.65530E+06    -51.0068E-03     101.879E-03    -50.8722E-03     5.99588E-03    -51.0288E-03     101.456E-03    -50.8936E-03     5.94528E-03
             119     47.4304E-09     102.599E-03    -56.5788E+06    -124.913E+06    -56.5423E+06    -2.45719E+06    -51.7354E-03     103.395E-03    -51.6596E-03     5.82395E-03    -51.7555E-03     102.935E-03    -51.6791E-03     5.77458E-03
             120     14.4468E-09     101.547E-03    -59.5302E+06    -133.116E+06    -60.1381E+06    -2.02541E+06    -52.2641E-03     104.436E-03    -52.1719E-03     5.74500E-03    -52.2819E-03     103.944E-03    -52.1932E-03     5.70040E-03
             121     59.7074E-09     100.494E-03    -63.3061E+06    -140.393E+06    -63.1756E+06    -1.95777E+06    -52.5747E-03     105.133E-03    -52.5582E-03     5.73231E-03    -52.5964E-03     104.615E-03    -52.5787E-03     5.68807E-03
             122    -118.962E-09     99.4410E-03    -66.3266E+06    -147.498E+06    -66.1647E+06    -1.97704E+06    -52.8032E-03     105.661E-03    -52.8579E-03     5.65934E-03    -52.8254E-03     105.116E-03    -52.8787E-03     5.61425E-03
             123     72.2962E-09     98.3871E-03    -68.4806E+06    -153.737E+06    -68.6679E+06    -1.51053E+06    -53.0167E-03     106.004E-03    -52.9874E-03     5.68654E-03    -53.0370E-03     105.435E-03    -53.0085E-03     5.64726E-03
             124     7.78868E-09     97.3334E-03    -70.3805E+06    -159.437E+06    -70.1909E+06    -1.44032E+06    -53.1635E-03     106.219E-03    -53.0554E-03     5.71134E-03    -53.1828E-03     105.626E-03    -53.0732E-03     5.67295E-03
             125     83.9825E-09     96.2794E-03    -70.7575E+06     -164.14E+06    -71.3872E+06    -1.02099E+06    -53.2287E-03     106.353E-03    -53.1246E-03     5.68024E-03    -53.2414E-03     105.739E-03    -53.1409E-03     5.64711E-03
             126    -19.4765E-09     95.2253E-03    -71.2945E+06    -167.419E+06    -70.7384E+06    -769.854E+03    -53.2555E-03     106.426E-03    -53.1701E-03     5.69597E-03    -53.2671E-03     105.795E-03    -53.1777E-03     5.66581E-03
             127     92.2437E-09     94.1712E-03    -70.6104E+06    -170.411E+06    -70.7848E+06    -915.591E+03    -53.2672E-03     106.460E-03    -53.1926E-03     5.72060E-03    -53.2709E-03     105.813E-03    -53.1971E-03     5.68822E-03
             128    -54.3648E-09     93.1169E-03    -71.1065E+06    -172.962E+06    -71.3016E+06    -490.201E+03    -53.2046E-03     106.403E-03    -53.1985E-03     5.63195E-03    -53.2063E-03     105.745E-03    -53.2011E-03     5.60541E-03
             129     10.4421E-09     92.0634E-03    -72.5429E+06    -175.540E+06    -72.3576E+06    -900.006E+03    -53.2118E-03     106.401E-03    -53.1895E-03     5.57301E-03    -53.2155E-03     105.734E-03    -53.1916E-03     5.54123E-03
             130     59.6949E-09     91.0089E-03    -73.1836E+06    -177.322E+06    -73.7710E+06    -97.0579E+03    -53.2868E-03     106.454E-03    -53.1672E-03     5.64896E-03    -53.2890E-03     105.781E-03    -53.1728E-03     5.62761E-03
             131     53.4822E-09     89.9550E-03    -72.3295E+06    -175.852E+06    -72.1738E+06     986.497E+03    -53.2591E-03     106.397E-03    -53.1380E-03     5.65128E-03    -53.2615E-03     105.728E-03    -53.1390E-03     5.64407E-03
             132     27.2248E-09     88.9011E-03    -70.0393E+06    -173.588E+06    -69.6816E+06     221.849E+03    -53.2093E-03     106.361E-03    -53.1521E-03     5.65997E-03    -53.2071E-03     105.697E-03    -53.1472E-03     5.64268E-03
             133    -20.8752E-09     87.8470E-03    -70.0013E+06    -174.407E+06    -70.0649E+06    -561.389E+03    -53.1842E-03     106.342E-03    -53.1577E-03     5.67752E-03    -53.1801E-03     105.674E-03    -53.1536E-03     5.65007E-03
             134     44.5379E-09     86.7930E-03    -70.2691E+06    -175.197E+06    -70.6931E+06     153.055E+03    -53.2198E-03     106.308E-03    -53.0883E-03     5.70726E-03    -53.2150E-03     105.637E-03    -53.0859E-03     5.68935E-03
             135     136.799E-09     85.7391E-03    -69.9006E+06    -174.327E+06    -69.3587E+06     403.253E+03    -53.2146E-03     106.274E-03    -53.0592E-03     5.67021E-03    -53.2111E-03     105.605E-03    -53.0519E-03     5.65567E-03
             136    -61.6289E-09     84.6854E-03    -70.5915E+06    -175.030E+06    -70.4615E+06    -651.647E+03    -53.1377E-03     106.235E-03    -53.0971E-03     5.64949E-03    -53.1350E-03     105.565E-03    -53.0933E-03     5.62097E-03
             137     42.6715E-09     83.6315E-03    -67.9941E+06    -178.184E+06    -68.0111E+06    -1.10437E+06    -53.1418E-03     106.302E-03    -53.1599E-03     5.70940E-03    -53.1251E-03     105.609E-03    -53.1430E-03     5.67497E-03
             138    -69.5227E-09     82.5774E-03    -65.2418E+06    -181.433E+06    -65.6033E+06    -600.980E+03    -53.1761E-03     106.336E-03    -53.1600E-03     5.67952E-03    -53.1444E-03     105.619E-03    -53.1304E-03     5.65145E-03
             139     105.161E-09     81.5237E-03    -66.0858E+06    -182.128E+06    -66.2135E+06     117.601E+03    -53.2078E-03     106.332E-03    -53.1242E-03     5.65636E-03    -53.1785E-03     105.614E-03    -53.0954E-03     5.63747E-03
             140    -13.9796E-09     80.4697E-03    -65.6231E+06    -181.344E+06    -65.4470E+06     160.232E+03    -53.2350E-03     106.361E-03    -53.1257E-03     5.66463E-03    -53.2057E-03     105.645E-03    -53.0948E-03     5.64650E-03
             141     96.8034E-09     79.4158E-03    -65.3730E+06    -180.945E+06    -65.4449E+06     97.8455E+03    -53.1918E-03     106.304E-03    -53.1118E-03     5.67058E-03    -53.1618E-03     105.589E-03    -53.0818E-03     5.65188E-03
             142    -58.3867E-09     78.3620E-03    -65.3174E+06    -180.621E+06    -65.2235E+06    -12.3044E+03    -53.1564E-03     106.279E-03    -53.1231E-03     5.62896E-03    -53.1269E-03     105.566E-03    -53.0926E-03     5.60853E-03
             143     63.5361E-09     77.3083E-03    -64.9149E+06    -180.297E+06    -65.0766E+06    -180.102E+03    -53.1871E-03     106.345E-03    -53.1577E-03     5.53654E-03    -53.1562E-03     105.632E-03    -53.1275E-03     5.51362E-03
             144    -34.0749E-09     76.2541E-03    -64.9747E+06    -180.149E+06    -65.0066E+06     129.433E+03    -53.1935E-03     106.361E-03    -53.1671E-03     5.60042E-03    -53.1633E-03     105.649E-03    -53.1367E-03     5.58190E-03
             145     35.1844E-09     75.2003E-03    -64.7890E+06    -179.735E+06    -64.6673E+06     99.2590E+03    -53.2215E-03     106.357E-03    -53.1351E-03     5.66292E-03    -53.1915E-03     105.646E-03    -53.1039E-03     5.64418E-03
             146     97.9906E-09     74.1462E-03    -64.4569E+06    -179.492E+06    -64.6889E+06     97.7637E+03    -53.2237E-03     106.364E-03    -53.1398E-03     5.70476E-03    -53.1923E-03     105.654E-03    -53.1095E-03     5.68602E-03
             147    -105.215E-09     73.0924E-03    -64.5121E+06    -179.337E+06    -64.3007E+06     93.0927E+03    -53.2053E-03     106.366E-03    -53.1604E-03     5.65928E-03    -53.1750E-03     105.656E-03    -53.1283E-03     5.64055E-03
             148     176.966E-09     72.0384E-03    -64.4451E+06    -179.418E+06    -64.4934E+06    -39.3425E+03    -53.2695E-03     106.394E-03    -53.1244E-03     5.66382E-03    -53.2384E-03     105.684E-03    -53.0932E-03     5.64334E-03
             149    -16.0417E-09     70.9844E-03    -64.3344E+06    -179.124E+06    -64.2806E+06     202.283E+03    -53.2453E-03     106.415E-03    -53.1694E-03     5.67588E-03    -53.2144E-03     105.706E-03    -53.1378E-03     5.65834E-03
             150    -29.3078E-09     69.9305E-03    -64.2853E+06    -178.939E+06    -64.2603E+06    -144.599E+03    -53.1816E-03     106.393E-03    -53.2119E-03     5.60937E-03    -53.1508E-03     105.686E-03    -53.1805E-03     5.58726E-03
             151     9.09815E-09     68.8764E-03    -64.3050E+06    -179.058E+06    -64.5870E+06    -92.4946E+03    -53.1985E-03     106.381E-03    -53.1829E-03     5.62357E-03    -53.1671E-03     105.674E-03    -53.1530E-03     5.60215E-03
             152     20.2904E-09     67.8226E-03    -64.2235E+06    -178.736E+06    -64.1905E+06     219.201E+03    -53.2525E-03     106.408E-03    -53.1558E-03     5.60793E-03    -53.2218E-03     105.701E-03    -53.1244E-03     5.59055E-03
             153     101.552E-09     66.7684E-03    -63.1338E+06    -177.671E+06    -63.2392E+06     514.605E+03    -53.2546E-03     106.392E-03    -53.1375E-03     5.62536E-03    -53.2213E-03     105.688E-03    -53.1045E-03     5.61221E-03
             154    -39.1116E-09     65.7146E-03    -66.0303E+06    -175.515E+06    -66.0100E+06     472.867E+03    -53.1711E-03     106.330E-03    -53.1593E-03     5.61361E-03    -53.1514E-03     105.645E-03    -53.1391E-03     5.59985E-03
             155    -17.3175E-09     64.6607E-03    -64.5435E+06    -173.908E+06    -64.6283E+06     302.883E+03    -53.2123E-03     106.376E-03    -53.1635E-03     5.55738E-03    -53.1895E-03     105.694E-03    -53.1409E-03     5.54103E-03
             156     142.117E-09     63.6065E-03    -63.5389E+06    -172.728E+06    -63.3820E+06     531.346E+03    -53.2594E-03     106.364E-03    -53.1047E-03     5.60009E-03    -53.2351E-03     105.685E-03    -53.0791E-03     5.58706E-03
             157    -15.4156E-09     62.5527E-03    -66.0667E+06    -170.786E+06    -66.2047E+06     548.065E+03    -53.1817E-03     106.296E-03    -53.1141E-03     5.63818E-03    -53.1688E-03     105.634E-03    -53.1017E-03     5.62558E-03
             158    -11.7882E-09     61.4988E-03    -65.0493E+06    -169.537E+06    -64.8722E+06     157.156E+03    -53.1790E-03     106.359E-03    -53.1804E-03     5.63693E-03    -53.1647E-03     105.701E-03    -53.1646E-03     5.61893E-03
             159     51.8610E-09     59.3907E-03    -64.9408E+06    -169.619E+06    -65.0346E+06     61.4162E+03    -53.2271E-03     106.326E-03    -53.0987E-03     5.71115E-03    -53.2119E-03     105.667E-03    -53.0838E-03     5.69173E-03
             160     75.3721E-09     58.3368E-03    -65.0461E+06    -169.290E+06    -64.9502E+06    -36.6372E+03    -53.2154E-03     106.346E-03    -53.1304E-03     5.75391E-03    -53.2014E-03     105.688E-03    -53.1154E-03     5.73317E-03
             161    -71.4614E-09     57.2826E-03    -65.2058E+06    -169.326E+06    -65.3029E+06    -3.75503E+03    -53.1967E-03     106.361E-03    -53.1645E-03     5.71955E-03    -53.1829E-03     105.704E-03    -53.1510E-03     5.69932E-03
             162     106.601E-09     56.2288E-03    -65.1459E+06    -169.473E+06    -65.0210E+06    -14.6107E+03    -53.2140E-03     106.341E-03    -53.1272E-03     5.66334E-03    -53.2001E-03     105.683E-03    -53.1121E-03     5.64319E-03
             163    -6.77090E-09     55.1749E-03    -65.1615E+06    -169.478E+06    -65.1634E+06    -149.946E+03    -53.2343E-03     106.344E-03    -53.1096E-03     5.62462E-03    -53.2203E-03     105.686E-03    -53.0952E-03     5.60262E-03
             164     105.502E-09     54.1209E-03    -65.1830E+06    -169.629E+06    -65.2582E+06     65.0859E+03    -53.1777E-03     106.312E-03    -53.1341E-03     5.61602E-03    -53.1634E-03     105.653E-03    -53.1199E-03     5.59675E-03
             165    -144.963E-09     53.0670E-03    -64.8075E+06    -169.332E+06    -64.9916E+06    -5.31451E+03    -53.1084E-03     106.301E-03    -53.1928E-03     5.58563E-03    -53.0930E-03     105.643E-03    -53.1782E-03     5.56557E-03
             166     24.3069E-09     52.0131E-03    -65.2363E+06    -169.469E+06    -65.2549E+06    -80.6335E+03    -53.1725E-03     106.330E-03    -53.1576E-03     5.52036E-03    -53.1587E-03     105.673E-03    -53.1436E-03     5.49930E-03
             167     107.795E-09     50.9590E-03    -65.2601E+06    -169.597E+06    -65.1574E+06     32.2533E+03    -53.2049E-03     106.292E-03    -53.0872E-03     5.63395E-03    -53.1912E-03     105.634E-03    -53.0725E-03     5.61445E-03
             168    -52.2147E-09     49.9052E-03    -65.1129E+06    -169.480E+06    -65.2482E+06     15.4869E+03    -53.1244E-03     106.225E-03    -53.1002E-03     5.62008E-03    -53.1100E-03     105.567E-03    -53.0863E-03     5.60026E-03
             169     22.1051E-09     48.8514E-03    -65.2773E+06    -169.588E+06    -65.2398E+06    -135.225E+03    -53.0910E-03     106.171E-03    -53.0799E-03     5.46702E-03    -53.0773E-03     105.513E-03    -53.0655E-03     5.44538E-03
             170     13.8988E-09     47.7978E-03    -65.0630E+06    -169.637E+06    -65.1012E+06    -30.5536E+03    -53.0809E-03     106.133E-03    -53.0524E-03     5.51747E-03    -53.0662E-03     105.474E-03    -53.0376E-03     5.49733E-03
             171    -15.5587E-09     46.7437E-03    -65.1458E+06    -169.456E+06    -65.2758E+06     68.8313E+03    -53.0390E-03     106.054E-03    -53.0148E-03     5.58046E-03    -53.0247E-03     105.396E-03    -53.0010E-03     5.56147E-03
             172     42.9720E-09     45.6904E-03    -65.4712E+06    -169.501E+06    -65.5065E+06     93.7197E+03    -52.9689E-03     105.912E-03    -52.9428E-03     5.51618E-03    -52.9558E-03     105.255E-03    -52.9297E-03     5.49779E-03
             173    -40.0963E-09     44.6370E-03    -65.3053E+06    -169.292E+06    -65.2108E+06    -65.5525E+03    -52.9466E-03     105.852E-03    -52.9052E-03     5.48201E-03    -52.9334E-03     105.195E-03    -52.8911E-03     5.46169E-03
             174     95.2436E-09     43.5833E-03    -65.2925E+06    -168.989E+06    -65.5334E+06     30.7777E+03    -52.9289E-03     105.783E-03    -52.8545E-03     5.55953E-03    -52.9157E-03     105.129E-03    -52.8424E-03     5.54034E-03
             175    -39.9469E-09     42.5300E-03    -65.4508E+06    -168.793E+06    -65.3151E+06     253.727E+03    -52.8417E-03     105.595E-03    -52.7531E-03     5.61877E-03    -52.8299E-03     104.941E-03    -52.7400E-03     5.60238E-03
             176     123.236E-09     41.4769E-03     -65.325E+06    -168.848E+06    -65.1813E+06    -58.8447E+03    -52.6755E-03     105.348E-03    -52.6722E-03     5.60360E-03    -52.6631E-03     104.693E-03    -52.6586E-03     5.58331E-03
             177    -213.623E-09     40.4243E-03    -64.8198E+06    -168.813E+06    -64.9327E+06    -53.3146E+03    -52.5879E-03     105.158E-03    -52.5698E-03     5.46625E-03    -52.5734E-03     104.502E-03    -52.5557E-03     5.44610E-03
             178     320.184E-09     39.3717E-03    -65.0508E+06    -169.223E+06    -64.8987E+06    -262.911E+03    -52.5890E-03     104.994E-03    -52.4050E-03     5.42562E-03    -52.5751E-03     104.337E-03    -52.3898E-03     5.40264E-03
             179    -124.082E-09     38.3191E-03    -65.4544E+06    -169.812E+06    -65.3736E+06    -83.3836E+03    -52.4121E-03     104.672E-03    -52.2596E-03     5.43727E-03    -52.3986E-03     104.013E-03    -52.2454E-03     5.41724E-03
             180     175.881E-09     37.2672E-03    -65.1454E+06    -169.646E+06    -65.1287E+06     43.6003E+03    -52.1221E-03     104.280E-03    -52.1575E-03     5.43614E-03    -52.1077E-03     103.621E-03    -52.1427E-03     5.41817E-03
             181    -301.379E-09     36.2156E-03    -65.3183E+06    -169.450E+06    -65.6627E+06    -22.6882E+03    -51.8943E-03     103.888E-03    -51.9938E-03     5.32565E-03    -51.8803E-03     103.231E-03    -51.9817E-03     5.30644E-03
             182     240.264E-09     35.1645E-03    -65.8281E+06    -169.654E+06    -65.6343E+06    -36.1366E+03    -51.7735E-03     103.466E-03    -51.6926E-03     5.20594E-03    -51.7618E-03     102.809E-03    -51.6793E-03     5.18666E-03
             183    -50.9338E-09     34.1138E-03    -65.1353E+06    -169.528E+06    -65.2475E+06     51.6081E+03    -51.5365E-03     102.992E-03    -51.4554E-03     5.22783E-03    -51.5221E-03     102.334E-03    -51.4414E-03     5.21018E-03
             184    -13.3895E-09     33.0636E-03    -64.8071E+06    -168.830E+06    -64.9960E+06     207.574E+03    -51.1841E-03     102.398E-03    -51.2141E-03     5.17486E-03    -51.1694E-03     101.743E-03    -51.2003E-03     5.15921E-03
             185     12.2664E-09     32.0141E-03    -65.4998E+06    -168.404E+06    -65.4654E+06     211.237E+03    -50.8716E-03     101.722E-03    -50.8501E-03     5.18282E-03    -50.8603E-03     101.070E-03    -50.8382E-03     5.16773E-03
             186     13.9192E-09     30.9653E-03    -64.9859E+06    -167.428E+06    -65.0208E+06     271.140E+03    -50.5095E-03     100.988E-03    -50.4781E-03     5.10697E-03    -50.4976E-03     100.339E-03    -50.4662E-03     5.09318E-03
             187     1.50225E-09     29.9175E-03    -64.6594E+06    -166.531E+06    -64.7650E+06     351.090E+03    -50.1172E-03     100.152E-03    -50.0349E-03     4.92812E-03    -50.1054E-03     99.5076E-03    -50.0235E-03     4.91561E-03
             188     112.058E-09     28.8706E-03    -65.0390E+06    -165.233E+06    -64.9313E+06     389.926E+03    -49.6845E-03     99.2912E-03    -49.6067E-03     4.76285E-03    -49.6763E-03     98.6540E-03    -49.5974E-03     4.75130E-03
             189    -101.258E-09     27.8247E-03    -64.4173E+06    -164.409E+06    -64.2828E+06    -142.489E+03    -49.2688E-03     98.4663E-03    -49.1975E-03     4.63098E-03    -49.2596E-03     97.8314E-03    -49.1871E-03     4.61268E-03
             190     204.558E-09     26.7791E-03    -64.0859E+06    -164.796E+06    -64.2718E+06    -89.6543E+03    -48.8044E-03     97.4818E-03    -48.6774E-03     4.60434E-03    -48.7930E-03     96.8444E-03    -48.6669E-03     4.58721E-03
             191    -101.534E-09     25.7353E-03    -64.4746E+06    -164.971E+06    -64.3768E+06    -44.3543E+03    -48.1886E-03     96.3627E-03    -48.1741E-03     4.53327E-03    -48.1786E-03     95.7251E-03    -48.1633E-03     4.51731E-03
             192     15.1869E-09     24.6924E-03    -65.6507E+06    -166.268E+06    -65.6474E+06    -609.872E+03    -47.6809E-03     95.3611E-03    -47.6803E-03     4.31901E-03    -47.6731E-03     94.7206E-03    -47.6722E-03     4.29607E-03
             193     64.0155E-09     23.6506E-03    -64.0392E+06    -168.479E+06    -64.1204E+06    -691.360E+03    -47.2481E-03     94.4479E-03    -47.1998E-03     4.20798E-03    -47.2312E-03     93.7918E-03    -47.1832E-03     4.18437E-03
             194    -69.0003E-09     22.6095E-03    -62.0004E+06    -169.706E+06    -62.2709E+06    -160.582E+03    -46.7755E-03     93.5503E-03    -46.7749E-03     4.15276E-03    -46.7493E-03     92.8824E-03    -46.7502E-03     4.13635E-03
             195     64.3822E-09     21.5694E-03    -62.5708E+06    -169.503E+06    -62.5206E+06     267.304E+03    -46.4233E-03     92.6984E-03    -46.2750E-03     4.07755E-03    -46.3999E-03     92.0327E-03    -46.2511E-03     4.06714E-03
             196     188.272E-09     20.5302E-03    -62.2825E+06    -168.433E+06    -62.1659E+06     420.488E+03    -45.9682E-03     91.8250E-03    -45.8568E-03     3.98046E-03    -45.9454E-03     91.1637E-03    -45.8331E-03     3.97284E-03
             197    -255.298E-09     19.4922E-03    -61.7517E+06    -166.723E+06    -62.1050E+06     482.510E+03    -45.4013E-03     90.9597E-03    -45.5584E-03     3.72968E-03    -45.3784E-03     90.3061E-03    -45.5376E-03     3.72291E-03
             198     41.9064E-09     18.4547E-03    -59.9404E+06    -163.801E+06    -60.3384E+06     912.712E+03    -44.9920E-03     89.9988E-03    -45.0068E-03     3.36052E-03    -44.9668E-03     89.3546E-03    -44.9840E-03     3.35966E-03
             199     136.841E-09     17.4186E-03    -61.2457E+06    -159.442E+06    -61.2419E+06     1.51263E+06    -44.3981E-03     88.6022E-03    -44.2041E-03     3.06858E-03    -44.3844E-03     87.9829E-03    -44.1903E-03     3.07668E-03
             200     14.3835E-09     16.3842E-03    -61.4760E+06    -153.933E+06    -61.5159E+06     1.42958E+06    -43.3343E-03     86.6077E-03    -43.2734E-03     2.66251E-03    -43.3294E-03     86.0167E-03    -43.2687E-03     2.67051E-03
             201    -64.0569E-09     15.3519E-03    -58.1814E+06    -149.003E+06    -58.0722E+06     1.16601E+06    -41.8802E-03     83.7794E-03    -41.8991E-03     2.18146E-03    -41.8710E-03     83.2031E-03    -41.8891E-03     2.18761E-03
             202     81.3313E-09     14.3232E-03    -55.7011E+06    -145.113E+06    -55.7162E+06     1.03428E+06    -40.0432E-03     79.9525E-03    -39.9093E-03     1.53472E-03    -40.0307E-03     79.3886E-03    -39.8967E-03     1.54073E-03
             203     133.914E-09     13.2994E-03    -52.2116E+06    -141.192E+06    -52.3546E+06     1.07294E+06    -37.7266E-03     75.2170E-03    -37.4904E-03     861.070E-06    -37.7072E-03     74.6626E-03    -37.4718E-03     868.836E-06
             204     60.9215E-09     12.2800E-03    -49.5875E+06    -137.504E+06    -49.1234E+06     867.224E+03    -35.0927E-03     69.9849E-03    -34.8922E-03     603.228E-06    -35.0703E-03     69.4405E-03    -34.8666E-03     609.347E-06
             205     100.549E-09     11.2666E-03    -47.9317E+06    -135.913E+06    -47.6855E+06     229.177E+03    -32.5077E-03     64.9141E-03    -32.4063E-03     589.065E-06    -32.4814E-03     64.3731E-03    -32.3782E-03     587.332E-06
             206    -80.4854E-09     10.2577E-03    -46.4643E+06    -135.390E+06    -46.2399E+06     140.156E+03    -30.4969E-03     60.9263E-03    -30.4294E-03     823.323E-06    -30.4659E-03     60.3839E-03    -30.3970E-03     820.572E-06
             207     181.552E-09     9.25244E-03    -46.7563E+06    -135.464E+06    -46.1957E+06    -117.043E+03    -29.5735E-03     59.0505E-03    -29.4770E-03     1.31549E-03    -29.5438E-03     58.5082E-03    -29.4438E-03     1.30954E-03
             208    -108.424E-09     8.24730E-03    -47.3253E+06    -136.607E+06    -47.0454E+06    -477.279E+03    -29.9514E-03     59.8664E-03    -29.9150E-03     1.86918E-03    -29.9218E-03     59.3204E-03    -29.8836E-03     1.85884E-03
             209     101.104E-09     7.24046E-03    -47.3999E+06    -138.546E+06    -47.2433E+06    -418.463E+03    -31.7537E-03     63.5559E-03    -31.8022E-03     2.46411E-03    -31.7215E-03     63.0003E-03    -31.7688E-03     2.45507E-03
             210    -176.474E-09     6.22772E-03    -46.5851E+06    -140.578E+06    -46.6835E+06    -391.097E+03    -34.7135E-03     69.6066E-03    -34.8931E-03     2.94579E-03    -34.6753E-03     69.0387E-03    -34.8551E-03     2.93747E-03
             211    -60.1494E-09     5.20830E-03    -44.5740E+06    -141.941E+06    -44.5880E+06    -443.299E+03    -38.4393E-03     77.0316E-03    -38.5924E-03     3.07670E-03    -38.3922E-03     76.4508E-03    -38.5449E-03     3.06775E-03
             212     32.7789E-09     4.18071E-03    -41.5870E+06    -142.860E+06    -41.8351E+06    -190.518E+03    -42.5316E-03     85.0488E-03    -42.5172E-03     3.03198E-03    -42.4723E-03     84.4550E-03    -42.4589E-03     3.02663E-03
             213     18.7488E-09     3.14474E-03    -38.3015E+06    -143.051E+06    -38.3937E+06     184.421E+03    -46.4043E-03     92.7422E-03    -46.3380E-03     2.67286E-03    -46.3331E-03     92.1379E-03    -46.2670E-03     2.67281E-03
             214     44.3902E-09     2.10113E-03    -35.2231E+06    -142.578E+06    -35.2528E+06     248.568E+03    -49.5611E-03     99.0532E-03    -49.4921E-03     2.03655E-03    -49.4794E-03     98.4425E-03    -49.4106E-03     2.03803E-03
             215     10.9739E-09     1.05209E-03    -32.9116E+06    -141.804E+06    -33.1217E+06     218.930E+03    -51.6539E-03     103.183E-03    -51.5290E-03     1.07207E-03    -51.5646E-03     102.570E-03    -51.4412E-03     1.07385E-03
             216     853.952E-06    -201.228E-18    -32.3162E+06    -141.893E+06    -32.1539E+06     67.6639E+03    -52.4632E-03     104.763E-03    -52.3000E-03     879.865E-06    -52.3722E-03     104.147E-03    -52.2082E-03     879.711E-06
             217     1.70753E-03    -201.228E-18    -32.3363E+06    -142.596E+06    -32.4339E+06     145.616E+03    -52.7085E-03     105.155E-03    -52.4470E-03     1.74249E-03    -52.6164E-03     104.536E-03    -52.3555E-03     1.74277E-03
             218     2.56100E-03    -201.228E-18    -32.5107E+06    -143.248E+06    -32.8706E+06     80.3540E+03    -53.1373E-03     105.738E-03    -52.6005E-03     2.60799E-03    -53.0445E-03     105.116E-03    -52.5100E-03     2.60615E-03
             219     3.41381E-03    -201.228E-18    -32.6929E+06    -144.365E+06    -34.1962E+06    -166.549E+03    -53.6770E-03     106.471E-03    -52.7942E-03     3.46685E-03    -53.5816E-03     105.846E-03    -52.7084E-03     3.46027E-03
             220     4.26638E-03    -201.228E-18    -32.3256E+06    -146.204E+06    -36.7807E+06    -1.03810E+06    -54.3339E-03     107.355E-03    -53.0212E-03     4.33390E-03    -54.2302E-03     106.724E-03    -52.9462E-03     4.31450E-03
             221     5.11812E-03    -201.228E-18    -31.0457E+06    -144.891E+06    -40.5545E+06    -2.06741E+06    -55.1153E-03     108.391E-03    -53.2754E-03     5.22964E-03    -55.0018E-03     107.770E-03    -53.2231E-03     5.19468E-03
             222     5.96929E-03    -201.228E-18    -28.8602E+06    -139.634E+06    -44.7317E+06    -2.90623E+06    -56.0240E-03     109.585E-03    -53.5609E-03     6.25162E-03    -55.9012E-03     108.994E-03    -53.5402E-03     6.20342E-03
             223     6.81937E-03    -201.228E-18    -25.6014E+06    -133.567E+06    -49.8152E+06    -4.41743E+06    -57.0821E-03     110.963E-03    -53.8811E-03     7.40697E-03    -56.9445E-03     110.405E-03    -53.8994E-03     7.33608E-03
             224     7.66866E-03    -201.228E-18    -20.9384E+06    -120.673E+06    -55.5963E+06    -5.66512E+06    -58.2189E-03     112.446E-03    -54.2267E-03     8.63372E-03    -58.0685E-03     111.954E-03    -54.2994E-03     8.54235E-03
             225     8.51672E-03    -201.228E-18    -15.5404E+06    -99.3434E+06    -60.1376E+06    -6.21082E+06    -59.4077E-03     114.009E-03    -54.6009E-03     9.99190E-03    -59.2549E-03     113.622E-03    -54.7350E-03     9.88852E-03
             226     9.36390E-03    -201.228E-18    -9.98932E+06    -73.1016E+06    -61.7841E+06    -6.42036E+06    -60.6865E-03     115.702E-03    -55.0155E-03     11.4192E-03    -60.5420E-03     115.442E-03    -55.2039E-03     11.3054E-03
             227     10.2097E-03    -201.228E-18    -5.22592E+06    -39.8941E+06    -58.6501E+06    -5.37123E+06    -62.0595E-03     117.538E-03    -55.4790E-03     13.2145E-03    -61.9445E-03     117.433E-03    -55.7068E-03     13.1048E-03
             228     11.0539E-03    -201.228E-18    -3.08191E+06     3.46895E+06    -49.6254E+06    -2.53824E+06    -63.4900E-03     119.485E-03    -55.9953E-03     15.2279E-03    -63.4411E-03     119.582E-03    -56.2440E-03     15.1421E-03
             229     11.8974E-03    -201.228E-18    -3.69044E+06     44.5182E+06    -24.5038E+06     356.940E+03    -64.8741E-03     121.504E-03    -56.6297E-03     17.5816E-03    -64.9257E-03     121.771E-03    -56.8115E-03     17.5155E-03
             230     12.7382E-03    -201.228E-18    -5.91217E+06     69.4344E+06     10.4889E+06     2.27904E+06    -66.2888E-03     123.653E-03    -57.3645E-03     21.4411E-03    -66.4410E-03     124.000E-03    -57.4042E-03     21.3762E-03
             231     13.5774E-03    -201.228E-18    -6.49268E+06     83.5266E+06     41.4183E+06     786.258E+03    -68.8698E-03     127.018E-03    -58.1481E-03     26.9767E-03    -69.0961E-03     127.397E-03    -58.0527E-03     26.8440E-03
             232     14.4144E-03    -201.228E-18    -3.19225E+06     92.5374E+06     69.3393E+06    -1.17855E+06    -71.9368E-03     130.949E-03    -59.0127E-03     32.0322E-03    -72.2069E-03     131.335E-03    -58.7956E-03     31.8263E-03
             233     15.2454E-03    -201.228E-18    -306.498E+03     97.4775E+06     82.9699E+06     1.42688E+06    -76.3582E-03     136.301E-03    -59.9427E-03     47.8843E-03    -76.6778E-03     136.721E-03    -59.6687E-03     47.5670E-03
             234     16.0638E-03    -201.228E-18     695.098E+03     99.9669E+06     82.3428E+06     3.82885E+06    -85.8215E-03     146.914E-03    -61.0922E-03     80.3434E-03    -86.2647E-03     147.465E-03    -60.8265E-03     79.7129E-03
             235     16.9616E-03     1.11739E-03    -1.43059E+06     101.837E+06     78.2060E+06     4.79467E+06    -83.2207E-03     142.949E-03    -59.7279E-03     89.0307E-03    -83.7691E-03     143.620E-03    -59.4825E-03     88.2659E-03
             236     17.0133E-03     2.20098E-03    -3.54623E+06     103.211E+06     74.5026E+06     5.30031E+06    -79.9682E-03     136.275E-03    -56.3071E-03     67.7288E-03    -80.5118E-03     136.959E-03    -56.0791E-03     66.9444E-03
             237     17.0440E-03     3.29305E-03    -2.70756E+06     104.380E+06     74.4233E+06     1.97923E+06    -91.3637E-03     145.488E-03    -54.1243E-03     50.3610E-03    -91.8777E-03     146.150E-03    -53.8996E-03     49.3363E-03
             238     17.0574E-03     4.40615E-03    -1.93754E+06     105.719E+06     76.8176E+06    -805.496E+03    -98.0131E-03     151.020E-03    -53.0071E-03     42.6276E-03    -98.5247E-03     151.680E-03    -52.7734E-03     41.4247E-03
             239     17.0643E-03     5.51202E-03    -1.17228E+06     105.895E+06     78.6119E+06    -410.726E+03    -97.5008E-03     150.101E-03    -52.6001E-03     39.3997E-03    -98.0103E-03     150.754E-03    -52.3589E-03     38.1918E-03
             240     17.0656E-03     6.61063E-03    -1.55298E+06     105.134E+06     78.7199E+06     620.918E+03    -94.3901E-03     146.934E-03    -52.5439E-03     35.9084E-03    -94.8839E-03     147.568E-03    -52.3005E-03     34.7874E-03
             241     17.0649E-03     7.71156E-03    -2.01812E+06     104.368E+06     77.8908E+06     1.65842E+06    -89.7708E-03     142.419E-03    -52.6485E-03     35.1810E-03    -90.2566E-03     143.043E-03    -52.4075E-03     34.1625E-03
             242     17.0654E-03     8.79737E-03    -1.30771E+06     104.606E+06     77.4628E+06     606.421E+03    -83.6587E-03     136.441E-03    -52.7818E-03     32.9330E-03    -84.1288E-03     137.052E-03    -52.5442E-03     32.0059E-03
             243     17.0661E-03     9.88025E-03    -1.71893E+06     104.856E+06     76.9229E+06    -274.619E+03    -79.0175E-03     131.918E-03    -52.9001E-03     30.5998E-03    -79.4804E-03     132.524E-03    -52.6650E-03     29.7480E-03
             244     17.0639E-03     10.9625E-03    -2.36089E+06     105.508E+06     76.4238E+06     1.14985E+06    -75.3918E-03     128.378E-03    -52.9865E-03     32.3861E-03    -75.8650E-03     128.996E-03    -52.7539E-03     31.6061E-03
             245     17.0678E-03     12.0379E-03    -2.13131E+06     107.161E+06     76.8384E+06     741.389E+03    -71.8658E-03     124.888E-03    -53.0223E-03     33.8165E-03    -72.3497E-03     125.522E-03    -52.7904E-03     33.0755E-03
             246     17.0656E-03     13.1124E-03    -2.53194E+06     109.000E+06     77.5626E+06     623.264E+03    -69.7103E-03     122.739E-03    -53.0287E-03     35.7717E-03    -70.2138E-03     123.396E-03    -52.7953E-03     35.0548E-03
             247     17.0694E-03     14.1856E-03    -363.737E+03     111.937E+06     79.7271E+06     633.947E+03    -67.2701E-03     120.275E-03    -53.0048E-03     38.6205E-03    -67.7858E-03     120.956E-03    -52.7680E-03     37.9270E-03
             248     17.0701E-03     15.2530E-03    -2.14026E+06     112.585E+06     79.3825E+06     58.1162E+03    -66.9275E-03     119.890E-03    -52.9625E-03     40.3888E-03    -67.4673E-03     120.592E-03    -52.7258E-03     39.6896E-03
             249     17.0683E-03     16.3274E-03    -2.80149E+06     113.820E+06     79.6357E+06     1.63031E+06    -66.4157E-03     119.368E-03    -52.9528E-03     41.8739E-03    -66.9723E-03     120.088E-03    -52.7156E-03     41.2015E-03
             250     17.0727E-03     17.3922E-03    -1.88228E+06     114.983E+06     80.1877E+06     380.771E+03    -64.7186E-03     117.651E-03    -52.9324E-03     43.6296E-03    -65.2859E-03     118.387E-03    -52.6955E-03     42.9554E-03
             251     17.0700E-03     18.4605E-03    -2.83034E+06     115.663E+06     80.3506E+06    -42.6706E+03    -64.6739E-03     117.576E-03    -52.9019E-03     43.5940E-03    -65.2541E-03     118.324E-03    -52.6637E-03     42.9189E-03
             252     17.0732E-03     19.5282E-03    -1.47662E+06     117.131E+06     81.7519E+06     283.341E+03    -63.5130E-03     116.408E-03    -52.8946E-03     45.6510E-03    -64.1041E-03     117.172E-03    -52.6535E-03     44.9933E-03
             253     17.0722E-03     20.5933E-03    -2.65831E+06     116.748E+06     81.0199E+06    -230.043E+03    -62.9965E-03     115.890E-03    -52.8937E-03     46.9175E-03    -63.6029E-03     116.667E-03    -52.6540E-03     46.2609E-03
             254     17.0719E-03     21.6599E-03    -2.26125E+06     117.347E+06     81.4266E+06     855.429E+03    -61.6909E-03     114.610E-03    -52.9187E-03     47.0806E-03    -62.2997E-03     115.391E-03    -52.6784E-03     46.4639E-03
             255     17.0741E-03     22.7198E-03    -1.34115E+06     118.267E+06     82.1972E+06      12.628E+03    -60.2836E-03     113.201E-03    -52.9178E-03     48.6936E-03    -60.9007E-03     113.995E-03    -52.6764E-03     48.0836E-03
             256     17.0726E-03     23.7850E-03    -2.42438E+06     118.591E+06     82.0968E+06    -118.918E+03    -60.3567E-03     113.278E-03    -52.9218E-03     48.4073E-03    -60.9820E-03     114.078E-03    -52.6797E-03     47.8029E-03
             257     17.0730E-03     24.8459E-03    -2.27479E+06     119.408E+06     82.5542E+06     855.479E+03    -58.7822E-03     111.741E-03    -52.9585E-03     49.2171E-03    -59.4128E-03     112.548E-03    -52.7155E-03     48.6551E-03
             258     17.0739E-03     25.9049E-03    -1.59518E+06     120.204E+06     83.1297E+06     48.9429E+03    -57.7582E-03     110.713E-03    -52.9546E-03     50.0536E-03    -58.3926E-03     111.527E-03    -52.7109E-03     49.4959E-03
             259     17.0738E-03     26.9655E-03    -2.49068E+06     119.923E+06     82.7006E+06    -233.089E+03    -57.9362E-03     110.897E-03    -52.9606E-03     49.6115E-03    -58.5756E-03     111.713E-03    -52.7174E-03     49.0552E-03
             260     17.0724E-03     28.0255E-03    -2.15154E+06     120.358E+06     83.0420E+06     984.754E+03    -56.6457E-03     109.645E-03    -52.9991E-03     50.5276E-03    -57.2887E-03     110.467E-03    -52.7553E-03     50.0098E-03
             261     17.0749E-03     29.0817E-03    -1.81114E+06     120.632E+06     83.3359E+06     145.037E+03    -55.4030E-03     108.414E-03    -53.0108E-03     50.6132E-03    -56.0449E-03     109.236E-03    -52.7664E-03     50.1049E-03
             262     17.0726E-03     30.1385E-03    -2.44035E+06     120.261E+06     82.8987E+06    -170.002E+03    -55.7170E-03     108.726E-03    -53.0086E-03     50.1687E-03    -56.3617E-03     109.548E-03    -52.7649E-03     49.6578E-03
             263     17.0743E-03     31.1970E-03    -2.14599E+06     120.629E+06     83.0351E+06     130.854E+03    -55.3240E-03     108.332E-03    -53.0085E-03     50.6609E-03    -55.9710E-03     109.159E-03    -52.7651E-03     50.1588E-03
             264     17.0739E-03     32.2523E-03    -2.80686E+06     120.786E+06     83.0434E+06    -419.212E+03    -55.0770E-03     108.092E-03    -53.0151E-03     50.7167E-03    -55.7299E-03     108.923E-03    -52.7710E-03     50.2154E-03
             265     17.0730E-03     33.3111E-03    -2.03232E+06     121.550E+06     83.8768E+06     614.133E+03    -54.2254E-03     107.272E-03    -53.0469E-03     50.8866E-03    -54.8756E-03     108.104E-03    -52.8008E-03     50.4178E-03
             266     17.0747E-03     34.3643E-03    -987.181E+03     121.794E+06     84.1798E+06     72.1051E+03    -52.9108E-03     105.964E-03    -53.0533E-03     51.5386E-03    -53.5585E-03     106.797E-03    -52.8076E-03     51.0788E-03
             267     17.0740E-03     35.4179E-03    -2.90489E+06     121.135E+06     83.3333E+06    -634.370E+03    -54.2869E-03     107.319E-03    -53.0319E-03     50.6478E-03    -54.9424E-03     108.152E-03    -52.7867E-03     50.1631E-03
             268     17.0727E-03     36.4770E-03    -2.45637E+06     121.468E+06     83.8309E+06     807.791E+03    -53.9160E-03     106.971E-03    -53.0549E-03     50.5243E-03    -54.5665E-03     107.801E-03    -52.8083E-03     50.0679E-03
             269     17.0752E-03     37.5300E-03    -1.00405E+06     121.756E+06     84.3012E+06    -71.5576E+03    -52.2445E-03     105.310E-03    -53.0657E-03     51.6335E-03    -52.8929E-03     106.143E-03    -52.8193E-03     51.1857E-03
             270     17.0736E-03     38.5821E-03    -2.75284E+06     120.939E+06     83.4002E+06     -855.98E+03    -53.6551E-03     106.697E-03    -53.0420E-03     50.6070E-03    -54.3093E-03     107.529E-03    -52.7964E-03     50.1331E-03
             271     17.0733E-03     39.6416E-03    -2.29890E+06     121.334E+06     83.8366E+06     1.00536E+06    -53.4250E-03     106.491E-03    -53.0663E-03     50.7574E-03    -54.0762E-03     107.322E-03    -52.8197E-03     50.3148E-03
             272     17.0744E-03     40.6936E-03    -641.163E+03     122.033E+06     84.5426E+06     14.6779E+03    -51.5018E-03     104.573E-03    -53.0711E-03     51.8908E-03    -52.1493E-03     105.406E-03    -52.8244E-03     51.4573E-03
             273     17.0756E-03     41.7439E-03    -2.70003E+06     120.669E+06     83.2175E+06    -1.48893E+06    -52.9198E-03     105.964E-03    -53.0447E-03     49.8622E-03    -53.5694E-03     106.792E-03    -52.7997E-03     49.3944E-03
             274     17.0712E-03     42.8039E-03    -3.46047E+06     120.086E+06     82.5745E+06     434.956E+03    -53.4374E-03     106.521E-03    -53.0832E-03     48.6283E-03    -54.0894E-03     107.347E-03    -52.8394E-03     48.1783E-03
             275     17.0752E-03     43.8529E-03    -1.03243E+06     121.764E+06     84.2404E+06     832.729E+03    -52.0157E-03     105.107E-03    -53.0909E-03     51.0175E-03    -52.6649E-03     105.940E-03    -52.8448E-03     50.5867E-03
             276     17.0738E-03     44.9114E-03    -1.90273E+06     121.573E+06     84.1399E+06    -504.738E+03    -52.7587E-03     105.812E-03    -53.0530E-03     51.9870E-03    -53.4133E-03     106.647E-03    -52.8058E-03     51.5311E-03
             277     17.0740E-03     45.9652E-03    -3.09806E+06     120.512E+06     83.1624E+06     103.652E+03    -53.0674E-03     106.143E-03    -53.0753E-03     51.4906E-03    -53.7258E-03     106.977E-03    -52.8297E-03     51.0419E-03
             278     17.0729E-03     47.0180E-03    -1.86862E+06     120.806E+06     83.5615E+06     795.154E+03    -51.9432E-03     105.041E-03    -53.0975E-03     51.0088E-03    -52.5913E-03     105.869E-03    -52.8521E-03     50.5855E-03
             279     17.0753E-03     48.0708E-03    -1.72964E+06     121.384E+06     84.1904E+06    -661.702E+03    -52.1704E-03     105.244E-03    -53.0736E-03     50.8555E-03    -52.8200E-03     106.074E-03    -52.8262E-03     50.4066E-03
             280     17.0729E-03     49.1254E-03    -3.16441E+06     120.160E+06     83.1393E+06    -360.922E+03    -53.5858E-03     106.652E-03    -53.0662E-03     50.3820E-03    -54.2385E-03     107.479E-03    -52.8202E-03     49.9220E-03
             281     17.0732E-03     50.1827E-03    -2.46117E+06     120.127E+06     83.1244E+06     1.02006E+06    -52.4770E-03     105.568E-03    -53.0909E-03     50.6332E-03    -53.1242E-03     106.392E-03    -52.8459E-03     50.2062E-03
             282     17.0752E-03     51.2319E-03    -1.49739E+06     121.045E+06     84.0058E+06    -490.731E+03    -51.7673E-03     104.852E-03    -53.0843E-03     51.1778E-03    -52.4160E-03     105.681E-03    -52.8376E-03     50.7386E-03
             283     17.0728E-03     52.2892E-03    -2.27610E+06     121.240E+06     84.1156E+06    -155.630E+03    -52.7170E-03     105.791E-03    -53.0740E-03     50.5358E-03    -53.3685E-03     106.621E-03    -52.8259E-03     50.0905E-03
             284     17.0748E-03     53.3413E-03    -1.70508E+06     121.698E+06     84.4636E+06     341.208E+03    -52.2519E-03     105.335E-03    -53.0829E-03     50.9071E-03    -52.9013E-03     106.165E-03    -52.8346E-03     50.4737E-03
             285     17.0734E-03     54.3959E-03    -2.09887E+06     121.357E+06     83.9606E+06    -332.318E+03    -52.2277E-03     105.303E-03    -53.0756E-03     50.7221E-03    -52.8780E-03     106.133E-03    -52.8287E-03     50.2799E-03
             286     17.0746E-03     55.4487E-03    -2.43272E+06     121.051E+06     83.7723E+06    -110.017E+03    -52.7174E-03     105.795E-03    -53.0772E-03     50.6760E-03    -53.3689E-03     106.624E-03    -52.8303E-03     50.2313E-03
             287     17.0727E-03     56.5052E-03    -1.75119E+06     120.646E+06     83.7573E+06     648.853E+03    -52.2674E-03     105.361E-03    -53.0937E-03     50.9913E-03    -52.9138E-03     106.187E-03    -52.8473E-03     50.5628E-03
             288     17.0749E-03     57.5560E-03    -2.03381E+06     120.227E+06     83.5120E+06     -63.743E+03    -51.8685E-03     104.961E-03    -53.0929E-03     50.5364E-03    -52.5133E-03     105.784E-03    -52.8467E-03     50.1036E-03
             289     17.0730E-03     58.6097E-03    -2.79927E+06     119.743E+06     83.0766E+06    -258.925E+03    -52.7835E-03     105.859E-03    -53.0751E-03     50.1856E-03    -53.4317E-03     106.681E-03    -52.8293E-03     49.7383E-03
             290     17.0742E-03     59.6665E-03    -1.72685E+06     120.726E+06     84.0313E+06     157.861E+03    -52.3350E-03     105.416E-03    -53.0808E-03     50.2601E-03    -52.9802E-03     106.240E-03    -52.8332E-03     49.8229E-03
             291     17.0743E-03     60.7170E-03    -2.19106E+06     120.197E+06     83.6658E+06    -862.598E+03    -52.1103E-03     105.190E-03    -53.0794E-03     50.5312E-03    -52.7587E-03     106.014E-03    -52.8321E-03     50.0841E-03
             292     853.399E-06     61.5044E-03    -64.3235E+06    -172.803E+06    -62.1958E+06     240.285E+03    -53.1933E-03     106.385E-03    -53.1916E-03     9.41889E-03    -53.1756E-03     105.706E-03    -53.1588E-03     9.38820E-03
             293     1.70680E-03     61.5176E-03    -62.1279E+06    -173.672E+06    -56.0805E+06     301.754E+03    -53.2332E-03     106.443E-03    -53.2095E-03     17.2678E-03    -53.2154E-03     105.750E-03    -53.1480E-03     17.2080E-03
             294     2.56031E-03     61.5389E-03    -58.8011E+06    -167.989E+06    -47.8097E+06     209.823E+03    -53.3017E-03     106.530E-03    -53.2282E-03     25.3909E-03    -53.2932E-03     105.855E-03    -53.1384E-03     25.2956E-03
             295     3.41369E-03     61.5684E-03    -54.9920E+06    -157.571E+06    -39.5389E+06     108.187E+03    -53.3888E-03     106.628E-03    -53.2388E-03     33.3839E-03    -53.3971E-03     105.996E-03    -53.1283E-03     33.2486E-03
             296     4.26724E-03     61.6057E-03    -51.1108E+06    -146.378E+06    -31.7193E+06     205.834E+03    -53.4982E-03     106.743E-03    -53.2445E-03     41.1282E-03    -53.5272E-03     106.163E-03    -53.1167E-03     40.9504E-03
             297     5.12067E-03     61.6507E-03    -47.2047E+06    -138.873E+06    -22.5589E+06     197.338E+03    -53.6240E-03     106.885E-03    -53.2606E-03     48.5789E-03    -53.6747E-03     106.340E-03    -53.1036E-03     48.3510E-03
             298     5.97428E-03     61.7029E-03    -43.0827E+06    -132.607E+06    -13.7149E+06     136.400E+03    -53.7710E-03     107.046E-03    -53.2754E-03     55.6942E-03    -53.8458E-03     106.537E-03    -53.0892E-03     55.4087E-03
             299     6.82780E-03     61.7621E-03    -39.0173E+06    -123.428E+06    -7.47741E+06     231.055E+03    -53.9281E-03     107.201E-03    -53.2727E-03     62.4057E-03    -54.0349E-03     106.753E-03    -53.0746E-03     62.0566E-03
             300     7.68141E-03     61.8276E-03    -35.3998E+06    -112.306E+06    -3.66228E+06     210.631E+03    -54.0736E-03     107.329E-03    -53.2553E-03     68.7257E-03    -54.2228E-03     106.964E-03    -53.0595E-03     68.3033E-03
             301     8.53509E-03     61.8993E-03    -32.1672E+06    -99.4272E+06    -1.67812E+06     296.542E+03    -54.2369E-03     107.464E-03    -53.2270E-03     74.7054E-03    -54.4414E-03     107.206E-03    -53.0446E-03     74.2021E-03
             302     9.38865E-03     61.9768E-03    -29.4166E+06    -83.9410E+06     240.403E+03     349.580E+03    -54.3710E-03     107.567E-03    -53.1964E-03     80.1557E-03    -54.6510E-03     107.444E-03    -53.0308E-03     79.5615E-03
             303     10.2424E-03     62.0592E-03    -26.9226E+06    -67.0212E+06     1.54067E+06     266.620E+03    -54.4638E-03     107.625E-03    -53.1612E-03     84.9871E-03    -54.8391E-03     107.662E-03    -53.0173E-03     84.2912E-03
             304     11.0961E-03     62.1465E-03    -24.8199E+06    -43.2250E+06     2.43101E+06     233.767E+03    -54.5079E-03     107.622E-03    -53.1140E-03     89.6657E-03    -55.0173E-03     107.883E-03    -53.0032E-03     88.8566E-03
             305     11.9495E-03     62.2379E-03    -23.0740E+06    -9.69166E+06     5.50733E+06     165.694E+03    -54.5782E-03     107.641E-03    -53.0623E-03     96.2830E-03    -55.2898E-03     108.220E-03    -52.9873E-03     95.3474E-03
             306     12.8038E-03     62.3386E-03    -21.2063E+06     47.4155E+06     8.62694E+06     165.660E+03    -54.6554E-03     107.628E-03    -52.9726E-03     105.491E-03    -55.6821E-03     108.723E-03    -52.9675E-03     104.420E-03
             307     13.6570E-03     62.4483E-03    -18.4524E+06     96.7732E+06     31.0792E+06     637.335E+03    -54.6729E-03     107.655E-03    -52.9826E-03     114.639E-03    -56.0467E-03     109.217E-03    -52.9407E-03     113.504E-03
             308     14.5120E-03     62.5675E-03    -14.3227E+06     112.740E+06     62.9215E+06     421.764E+03    -54.3339E-03     107.417E-03    -53.0827E-03     111.584E-03    -55.8455E-03     109.095E-03    -52.9108E-03     110.521E-03
             309     15.3651E-03     62.6709E-03    -10.1181E+06     122.610E+06     81.3854E+06    -199.646E+03    -53.9610E-03     107.092E-03    -53.1306E-03     104.345E-03    -55.5264E-03     108.820E-03    -52.8867E-03     103.413E-03
             310     16.2179E-03     62.7754E-03    -4.86815E+06     124.430E+06     86.7344E+06     178.923E+03    -52.9614E-03     106.083E-03    -53.1214E-03     77.6571E-03    -54.1018E-03     107.396E-03    -52.8611E-03     77.0092E-03
             311     853.454E-06     62.5583E-03    -64.8701E+06    -173.462E+06    -62.8535E+06     436.491E+03    -53.2027E-03     106.354E-03    -53.1515E-03     9.41435E-03    -53.1859E-03     105.674E-03    -53.1202E-03     9.38633E-03
             312     1.70687E-03     62.5715E-03    -62.0106E+06    -173.669E+06    -55.9868E+06     199.878E+03    -53.2506E-03     106.452E-03    -53.2019E-03     17.2635E-03    -53.2323E-03     105.760E-03    -53.1401E-03     17.2023E-03
             313     2.56022E-03     62.5929E-03    -58.5834E+06    -168.077E+06    -47.8774E+06     154.217E+03    -53.3089E-03     106.536E-03    -53.2271E-03     25.3896E-03    -53.2991E-03     105.860E-03    -53.1378E-03     25.2935E-03
             314     3.41376E-03     62.6224E-03    -54.9794E+06    -157.633E+06    -39.5679E+06     228.808E+03    -53.3886E-03     106.628E-03    -53.2391E-03     33.3909E-03    -53.3967E-03     105.996E-03    -53.1286E-03     33.2573E-03
             315     4.26717E-03     62.6597E-03    -51.1597E+06    -146.500E+06    -31.5928E+06     167.702E+03    -53.4912E-03     106.736E-03    -53.2449E-03     41.1377E-03    -53.5204E-03     106.155E-03    -53.1163E-03     40.9594E-03
             316     5.12076E-03     62.7047E-03    -47.0786E+06    -138.953E+06    -22.3989E+06     254.409E+03    -53.6152E-03     106.875E-03    -53.2596E-03     48.5813E-03    -53.6654E-03     106.330E-03    -53.1019E-03     48.3541E-03
             317     5.97426E-03     62.7568E-03    -43.0360E+06    -132.631E+06    -13.5334E+06     275.067E+03    -53.7593E-03     107.033E-03    -53.2733E-03     55.6938E-03    -53.8341E-03     106.523E-03    -53.0862E-03     55.4100E-03
             318     6.82787E-03     62.8160E-03    -39.0650E+06    -123.691E+06    -7.64444E+06     247.257E+03    -53.9160E-03     107.184E-03    -53.2682E-03     62.4014E-03    -54.0223E-03     106.735E-03    -53.0704E-03     62.0526E-03
             319     7.68147E-03     62.8815E-03    -35.3239E+06    -112.209E+06    -3.62853E+06     328.366E+03    -54.0949E-03     107.347E-03    -53.2520E-03     68.7164E-03    -54.2439E-03     106.983E-03    -53.0562E-03     68.2952E-03
             320     8.53499E-03     62.9533E-03    -32.1352E+06    -99.5876E+06    -1.66898E+06     355.221E+03    -54.2398E-03     107.466E-03    -53.2257E-03     74.6582E-03    -54.4441E-03     107.207E-03    -53.0430E-03     74.1553E-03
             321     9.38876E-03     63.0307E-03    -29.2889E+06    -84.0982E+06     191.660E+03     435.743E+03    -54.3763E-03     107.572E-03    -53.1952E-03     80.1266E-03    -54.6554E-03     107.447E-03    -53.0298E-03     79.5334E-03
             322     10.2423E-03     63.1133E-03    -26.9165E+06    -67.0205E+06     1.52675E+06     397.946E+03    -54.4907E-03     107.652E-03    -53.1617E-03     84.9448E-03    -54.8661E-03     107.690E-03    -53.0178E-03     84.2501E-03
             323     11.0959E-03     63.2002E-03    -24.7625E+06    -43.1347E+06     2.51815E+06     351.489E+03    -54.5379E-03     107.655E-03    -53.1170E-03     89.6457E-03    -55.0475E-03     107.916E-03    -53.0060E-03     88.8375E-03
             324     11.9499E-03     63.2922E-03    -22.6237E+06    -9.82606E+06     5.61510E+06     444.918E+03    -54.5583E-03     107.624E-03    -53.0654E-03     96.2736E-03    -55.2675E-03     108.201E-03    -52.9903E-03     95.3421E-03
             325     12.8032E-03     63.3922E-03    -20.8860E+06     46.9809E+06     8.76781E+06     552.144E+03    -54.6290E-03     107.603E-03    -52.9742E-03     105.692E-03    -55.6531E-03     108.694E-03    -52.9682E-03     104.627E-03
             326     13.6577E-03     63.5027E-03    -18.4559E+06     97.1648E+06     31.4256E+06     234.264E+03    -54.7681E-03     107.754E-03    -52.9857E-03     114.785E-03    -56.1440E-03     109.318E-03    -52.9427E-03     113.643E-03
             327     14.5111E-03     63.6207E-03    -14.6005E+06     112.834E+06     62.7542E+06     262.601E+03    -54.2928E-03     107.378E-03    -53.0855E-03     111.582E-03    -55.8046E-03     109.057E-03    -52.9142E-03     110.519E-03
             328     15.3659E-03     63.7258E-03    -9.91050E+06     122.726E+06     81.5722E+06     549.944E+03    -53.6962E-03     106.821E-03    -53.1246E-03     105.161E-03    -55.2598E-03     108.548E-03    -52.8803E-03     104.249E-03
             329     16.2201E-03     63.8304E-03    -4.77801E+06     124.620E+06     86.9237E+06    -35.1614E+03    -52.9810E-03     106.088E-03    -53.1068E-03     78.4406E-03    -54.1240E-03     107.404E-03    -52.8459E-03     77.7925E-03
             330     853.415E-06     63.6123E-03    -62.9124E+06    -174.172E+06    -61.4869E+06     381.347E+03    -53.2374E-03     106.388E-03    -53.1502E-03     9.37894E-03    -53.2117E-03     105.699E-03    -53.1138E-03     9.35011E-03
             331     1.70682E-03     63.6255E-03    -61.2742E+06    -173.578E+06    -56.3155E+06     246.868E+03    -53.2424E-03     106.447E-03    -53.2044E-03     17.2511E-03    -53.2201E-03     105.754E-03    -53.1455E-03     17.1905E-03
             332     2.56031E-03     63.6469E-03    -58.5835E+06    -168.301E+06    -48.1505E+06     252.151E+03    -53.3078E-03     106.534E-03    -53.2266E-03     25.3935E-03    -53.2973E-03     105.858E-03    -53.1384E-03     25.2987E-03
             333     3.41368E-03     63.6763E-03    -54.9352E+06    -157.746E+06    -39.6025E+06     274.088E+03    -53.3822E-03     106.621E-03    -53.2384E-03     33.4061E-03    -53.3899E-03     105.988E-03    -53.1280E-03     33.2731E-03
             334     4.26725E-03     63.7137E-03    -51.0930E+06    -146.511E+06    -31.5561E+06     260.774E+03    -53.4809E-03     106.724E-03    -53.2428E-03     41.1365E-03    -53.5098E-03     106.143E-03    -53.1140E-03     40.9594E-03
             335     5.12072E-03     63.7586E-03    -47.2052E+06    -139.167E+06    -22.6086E+06     206.422E+03    -53.6140E-03     106.870E-03    -53.2561E-03     48.5748E-03    -53.6642E-03     106.324E-03    -53.0989E-03     48.3470E-03
             336     5.97430E-03     63.8109E-03    -42.9460E+06    -132.698E+06    -13.5778E+06     333.407E+03    -53.7576E-03     107.028E-03    -53.2704E-03     55.6681E-03    -53.8318E-03     106.518E-03    -53.0836E-03     55.3850E-03
             337     6.82788E-03     63.8698E-03    -38.9030E+06    -123.744E+06    -7.43091E+06     357.272E+03    -53.9239E-03     107.191E-03    -53.2672E-03     62.3840E-03    -54.0297E-03     106.741E-03    -53.0685E-03     62.0364E-03
             338     7.68145E-03     63.9356E-03    -35.2923E+06    -112.431E+06    -3.65910E+06     367.723E+03    -54.1003E-03     107.351E-03    -53.2511E-03     68.7176E-03    -54.2488E-03     106.986E-03    -53.0552E-03     68.2968E-03
             339     8.53508E-03     64.0072E-03    -32.0308E+06    -99.6396E+06    -1.55894E+06     442.056E+03    -54.2666E-03     107.493E-03    -53.2268E-03     74.6314E-03    -54.4706E-03     107.234E-03    -53.0437E-03     74.1291E-03
             340     9.38860E-03     64.0846E-03    -29.2846E+06    -84.3414E+06     175.390E+03     464.412E+03    -54.3874E-03     107.585E-03    -53.1978E-03     80.1301E-03    -54.6661E-03     107.460E-03    -53.0322E-03     79.5370E-03
             341     10.2424E-03     64.1674E-03    -26.7250E+06    -67.0598E+06     1.69173E+06     514.948E+03    -54.4761E-03     107.640E-03    -53.1643E-03     84.9638E-03    -54.8508E-03     107.677E-03    -53.0198E-03     84.2708E-03
             342     11.0961E-03     64.2542E-03    -24.4636E+06    -43.0109E+06     2.79500E+06     413.052E+03    -54.5114E-03     107.629E-03    -53.1178E-03     89.7161E-03    -55.0200E-03     107.890E-03    -53.0060E-03     88.9096E-03
             343     11.9494E-03     64.3462E-03    -22.4371E+06    -10.1585E+06     5.79493E+06     458.563E+03    -54.5173E-03     107.581E-03    -53.0639E-03     96.2759E-03    -55.2255E-03     108.157E-03    -52.9877E-03     95.3450E-03
             344     12.8039E-03     64.4458E-03    -20.0855E+06     46.7880E+06     8.96452E+06     544.258E+03    -54.6423E-03     107.613E-03    -52.9707E-03     105.725E-03    -55.6624E-03     108.702E-03    -52.9646E-03     104.660E-03
             345     13.6574E-03     64.5569E-03    -17.6730E+06     97.5207E+06     31.8623E+06     617.820E+03    -54.8075E-03     107.792E-03    -52.9841E-03     114.833E-03    -56.1807E-03     109.356E-03    -52.9406E-03     113.695E-03
             346     14.5115E-03     64.6751E-03    -14.3826E+06     112.661E+06     62.5292E+06     496.271E+03    -54.2846E-03     107.368E-03    -53.0833E-03     111.426E-03    -55.7960E-03     109.047E-03    -52.9132E-03     110.364E-03
             347     15.3654E-03     64.7786E-03    -9.05411E+06     123.017E+06     81.6333E+06     66.1573E+03    -53.5030E-03     106.621E-03    -53.1182E-03     104.323E-03    -55.0571E-03     108.343E-03    -52.8753E-03     103.407E-03
             348     16.2211E-03     64.8834E-03    -4.39271E+06     125.063E+06     87.5291E+06     7.97791E+03    -53.1609E-03     106.266E-03    -53.1055E-03     77.3298E-03    -54.2953E-03     107.575E-03    -52.8428E-03     76.6831E-03
             349     853.363E-06     64.6662E-03    -63.8185E+06    -175.002E+06    -62.1690E+06     536.952E+03    -53.2136E-03     106.397E-03    -53.1833E-03     9.38633E-03    -53.1902E-03     105.706E-03    -53.1479E-03     9.35945E-03
             350     1.70683E-03     64.6794E-03    -61.7539E+06    -173.772E+06    -56.2139E+06     603.960E+03    -53.2375E-03     106.448E-03    -53.2103E-03     17.2723E-03    -53.2175E-03     105.755E-03    -53.1499E-03     17.2164E-03
             351     2.56024E-03     64.7008E-03    -58.6288E+06    -168.287E+06    -48.0573E+06     325.152E+03    -53.2969E-03     106.525E-03    -53.2279E-03     25.3962E-03    -53.2868E-03     105.848E-03    -53.1391E-03     25.3023E-03
             352     3.41376E-03     64.7303E-03    -54.9683E+06    -157.896E+06    -39.7696E+06     244.682E+03    -53.3735E-03     106.609E-03    -53.2358E-03     33.4002E-03    -53.3810E-03     105.976E-03    -53.1260E-03     33.2668E-03
             353     4.26722E-03     64.7676E-03    -51.1191E+06    -146.625E+06    -31.8343E+06     294.855E+03    -53.4815E-03     106.721E-03    -53.2390E-03     41.1378E-03    -53.5101E-03     106.139E-03    -53.1115E-03     40.9611E-03
             354     5.12077E-03     64.8126E-03    -47.1314E+06    -139.157E+06    -22.7363E+06     280.835E+03    -53.6151E-03     106.868E-03    -53.2533E-03     48.5589E-03    -53.6648E-03     106.323E-03    -53.0969E-03     48.3320E-03
             355     5.97430E-03     64.8647E-03    -43.0976E+06    -133.000E+06    -13.8257E+06     269.670E+03    -53.7718E-03     107.041E-03    -53.2691E-03     55.6520E-03    -53.8460E-03     106.530E-03    -53.0829E-03     55.3678E-03
             356     6.82786E-03     64.9239E-03    -39.0401E+06    -123.810E+06    -7.45958E+06     427.597E+03    -53.9424E-03     107.211E-03    -53.2688E-03     62.3749E-03    -54.0489E-03     106.761E-03    -53.0700E-03     62.0280E-03
             357     7.68144E-03     64.9895E-03    -35.3616E+06    -112.581E+06    -3.60943E+06     449.755E+03    -54.0972E-03     107.351E-03    -53.2541E-03     68.6813E-03    -54.2460E-03     106.985E-03    -53.0576E-03     68.2614E-03
             358     8.53504E-03     65.0613E-03    -32.1034E+06    -99.8476E+06    -1.65252E+06     403.783E+03    -54.2630E-03     107.492E-03    -53.2286E-03     74.6475E-03    -54.4669E-03     107.232E-03    -53.0456E-03     74.1447E-03
             359     9.38863E-03     65.1387E-03    -29.1546E+06    -84.3334E+06     326.656E+03     511.942E+03    -54.3959E-03     107.596E-03    -53.2003E-03     80.1242E-03    -54.6744E-03     107.471E-03    -53.0341E-03     79.5315E-03
             360     10.2422E-03     65.2212E-03    -26.6040E+06     -67.058E+06     1.74554E+06     490.285E+03    -54.4452E-03     107.610E-03    -53.1652E-03     84.9740E-03    -54.8192E-03     107.647E-03    -53.0206E-03     84.2810E-03
             361     11.0959E-03     65.3084E-03    -24.4550E+06    -43.1747E+06     2.87176E+06     511.692E+03    -54.4572E-03     107.573E-03    -53.1160E-03     89.6661E-03    -54.9653E-03     107.833E-03    -53.0036E-03     88.8618E-03
             362     11.9502E-03     65.3998E-03    -22.4275E+06    -9.98556E+06     6.01823E+06     465.438E+03    -54.5932E-03     107.657E-03    -53.0634E-03     96.1607E-03    -55.3025E-03     108.233E-03    -52.9863E-03     95.2277E-03
             363     12.8032E-03     65.5001E-03    -20.7172E+06     46.9228E+06     9.11651E+06     345.599E+03    -54.7215E-03     107.698E-03    -52.9768E-03     105.556E-03    -55.7463E-03     108.790E-03    -52.9692E-03     104.486E-03
             364     13.6575E-03     65.6107E-03    -18.2911E+06     96.5798E+06     31.2888E+06     754.281E+03    -54.6726E-03     107.660E-03    -52.9870E-03     114.694E-03    -56.0456E-03     109.220E-03    -52.9441E-03     113.561E-03
             365     14.5115E-03     65.7290E-03    -13.9883E+06     113.291E+06     62.8678E+06     532.502E+03    -54.2628E-03     107.346E-03    -53.0827E-03     111.227E-03    -55.7729E-03     109.026E-03    -52.9124E-03     110.165E-03
             366     15.3658E-03     65.8326E-03    -9.43317E+06     123.554E+06     81.8502E+06    -263.676E+03    -54.0060E-03     107.138E-03    -53.1316E-03     104.416E-03    -55.5701E-03     108.869E-03    -52.8879E-03     103.480E-03
             367     16.2179E-03     65.9374E-03    -4.81096E+06     124.577E+06     87.0073E+06     111.991E+03    -53.0452E-03     106.171E-03    -53.1262E-03     78.1154E-03    -54.1878E-03     107.487E-03    -52.8649E-03     77.4640E-03
             368     853.478E-06     65.7202E-03    -64.8672E+06    -176.032E+06    -62.9205E+06     427.540E+03    -53.1973E-03     106.374E-03    -53.1768E-03     9.41474E-03    -53.1766E-03     105.681E-03    -53.1421E-03     9.38658E-03
             369     1.70682E-03     65.7334E-03    -62.0307E+06    -173.958E+06    -56.1730E+06     376.346E+03    -53.2463E-03     106.452E-03    -53.2054E-03     17.2845E-03    -53.2275E-03     105.758E-03    -53.1441E-03     17.2256E-03
             370     2.56028E-03     65.7548E-03    -58.5724E+06    -168.212E+06    -47.8493E+06     312.718E+03    -53.3014E-03     106.529E-03    -53.2278E-03     25.3997E-03    -53.2914E-03     105.853E-03    -53.1382E-03     25.3057E-03
             371     3.41372E-03     65.7842E-03    -54.8577E+06    -158.019E+06    -39.6693E+06     258.290E+03    -53.3782E-03     106.615E-03    -53.2368E-03     33.3807E-03    -53.3850E-03     105.981E-03    -53.1265E-03     33.2474E-03
             372     4.26725E-03     65.8216E-03    -51.0385E+06    -146.733E+06    -31.9776E+06     239.127E+03    -53.4791E-03     106.718E-03    -53.2390E-03     41.1131E-03    -53.5068E-03     106.136E-03    -53.1121E-03     40.9356E-03
             373     5.12075E-03     65.8666E-03    -47.1228E+06    -139.292E+06    -23.0167E+06     294.452E+03    -53.6202E-03     106.873E-03    -53.2528E-03     48.5426E-03    -53.6693E-03     106.327E-03    -53.0976E-03     48.3156E-03
             374     5.97430E-03     65.9187E-03    -43.0563E+06    -133.127E+06    -13.8155E+06     405.645E+03    -53.7926E-03     107.064E-03    -53.2716E-03     55.6446E-03    -53.8665E-03     106.553E-03    -53.0852E-03     55.3619E-03
             375     6.82782E-03     65.9779E-03    -39.0797E+06    -124.079E+06    -7.47420E+06     414.522E+03    -53.9474E-03     107.220E-03    -53.2730E-03     62.3590E-03    -54.0536E-03     106.769E-03    -53.0737E-03     62.0118E-03
             376     7.68139E-03     66.0435E-03    -35.3007E+06    -112.565E+06    -3.56980E+06     473.463E+03    -54.1055E-03     107.364E-03    -53.2582E-03     68.6915E-03    -54.2541E-03     106.998E-03    -53.0616E-03     68.2718E-03
             377     8.53498E-03     66.1152E-03    -32.0499E+06    -99.9521E+06    -1.59728E+06     470.453E+03    -54.2447E-03     107.477E-03    -53.2321E-03     74.6355E-03    -54.4483E-03     107.216E-03    -53.0487E-03     74.1335E-03
             378     9.38867E-03     66.1927E-03    -29.2303E+06    -84.5491E+06     222.985E+03     478.975E+03    -54.3628E-03     107.563E-03    -53.2007E-03     80.1389E-03    -54.6410E-03     107.437E-03    -53.0346E-03     79.5463E-03
             379     10.2423E-03     66.2753E-03    -26.7708E+06    -67.0899E+06     1.69293E+06     558.008E+03    -54.4548E-03     107.620E-03    -53.1647E-03     84.9399E-03    -54.8297E-03     107.656E-03    -53.0201E-03     84.2476E-03
             380     11.0962E-03     66.3620E-03    -24.4720E+06    -43.2329E+06     2.91799E+06     490.907E+03    -54.5323E-03     107.652E-03    -53.1193E-03     89.5757E-03    -55.0408E-03     107.911E-03    -53.0065E-03     88.7694E-03
             381     11.9493E-03     66.4541E-03    -22.5130E+06    -10.2040E+06     5.89782E+06     567.948E+03    -54.6316E-03     107.702E-03    -53.0704E-03     96.1355E-03    -55.3409E-03     108.278E-03    -52.9934E-03     95.2031E-03
             382     12.8035E-03     66.5542E-03    -20.8064E+06     46.8487E+06     8.95773E+06     907.171E+03    -54.6746E-03     107.657E-03    -52.9826E-03     105.603E-03    -55.6985E-03     108.748E-03    -52.9755E-03     104.543E-03
             383     13.6572E-03     66.6644E-03    -18.4230E+06     96.6396E+06     31.2123E+06     625.675E+03    -54.6254E-03     107.615E-03    -52.9896E-03     114.690E-03    -55.9972E-03     109.174E-03    -52.9470E-03     113.558E-03
             384     14.5115E-03     66.7828E-03    -14.5747E+06     113.441E+06     62.8463E+06     159.909E+03    -54.2272E-03     107.310E-03    -53.0830E-03     111.525E-03    -55.7385E-03     108.990E-03    -52.9122E-03     110.462E-03
             385     15.3653E-03     66.8868E-03    -9.64822E+06     123.906E+06     82.1033E+06     316.970E+03    -53.7915E-03     106.915E-03    -53.1240E-03     105.212E-03    -55.3567E-03     108.648E-03    -52.8792E-03     104.294E-03
             386     16.2203E-03     66.9925E-03    -4.66340E+06     124.520E+06     87.1642E+06     110.215E+03    -53.0281E-03     106.139E-03    -53.1107E-03     78.3088E-03    -54.1690E-03     107.452E-03    -52.8486E-03     77.6629E-03
             387     853.368E-06     66.7742E-03    -62.7337E+06    -176.853E+06    -61.6603E+06     421.843E+03    -53.2336E-03     106.401E-03    -53.1670E-03     9.39439E-03    -53.2029E-03     105.698E-03    -53.1279E-03     9.36612E-03
             388     1.70686E-03     66.7873E-03    -61.2487E+06    -173.922E+06    -56.6317E+06     201.990E+03    -53.2400E-03     106.445E-03    -53.2047E-03     17.2584E-03    -53.2166E-03     105.751E-03    -53.1469E-03     17.1972E-03
             389     2.56027E-03     66.8088E-03    -58.4222E+06    -168.518E+06    -48.2471E+06     264.922E+03    -53.3107E-03     106.537E-03    -53.2266E-03     25.3922E-03    -53.2990E-03     105.860E-03    -53.1388E-03     25.2975E-03
             390     3.41373E-03     66.8382E-03    -54.9051E+06    -157.956E+06    -39.8491E+06     300.904E+03    -53.3885E-03     106.627E-03    -53.2386E-03     33.3773E-03    -53.3955E-03     105.994E-03    -53.1292E-03     33.2444E-03
             391     4.26718E-03     66.8756E-03    -51.1782E+06    -146.887E+06    -32.0261E+06     235.992E+03    -53.4825E-03     106.725E-03    -53.2429E-03     41.0995E-03    -53.5106E-03     106.143E-03    -53.1158E-03     40.9219E-03
             392     5.12076E-03     66.9205E-03    -47.2743E+06    -139.531E+06    -22.8019E+06     374.426E+03    -53.6291E-03     106.888E-03    -53.2586E-03     48.5526E-03    -53.6790E-03     106.341E-03    -53.1018E-03     48.3267E-03
             393     5.97424E-03     66.9728E-03    -43.2335E+06    -133.297E+06    -13.9131E+06     439.365E+03    -53.7879E-03     107.064E-03    -53.2756E-03     55.6495E-03    -53.8623E-03     106.552E-03    -53.0892E-03     55.3674E-03
             394     6.82779E-03     67.0319E-03    -39.1332E+06    -124.162E+06    -7.65975E+06     442.653E+03    -53.9414E-03     107.217E-03    -53.2751E-03     62.3746E-03    -54.0476E-03     106.765E-03    -53.0766E-03     62.0277E-03
             395     7.68140E-03     67.0975E-03    -35.4285E+06    -112.818E+06    -3.71817E+06     473.296E+03    -54.1017E-03     107.362E-03    -53.2599E-03     68.7328E-03    -54.2504E-03     106.995E-03    -53.0635E-03     68.3132E-03
             396     8.53496E-03     67.1693E-03    -32.1728E+06    -99.9513E+06    -1.68586E+06     543.524E+03    -54.2595E-03     107.494E-03    -53.2340E-03     74.6411E-03    -54.4637E-03     107.234E-03    -53.0508E-03     74.1399E-03
             397     9.38858E-03     67.2465E-03    -29.2825E+06    -84.5247E+06     266.681E+03     508.567E+03    -54.3567E-03     107.560E-03    -53.2035E-03     80.0652E-03    -54.6354E-03     107.434E-03    -53.0372E-03     79.4727E-03
             398     10.2424E-03     67.3293E-03    -26.7376E+06    -67.4954E+06     1.56902E+06     523.675E+03    -54.4740E-03     107.642E-03    -53.1676E-03     84.9027E-03    -54.8478E-03     107.676E-03    -53.0231E-03     84.2100E-03
             399     11.0957E-03     67.4161E-03    -24.7594E+06    -43.3249E+06     2.69344E+06     599.967E+03    -54.5668E-03     107.690E-03    -53.1234E-03     89.6785E-03    -55.0767E-03     107.951E-03    -53.0112E-03     88.8730E-03
             400     11.9497E-03     67.5083E-03    -22.8790E+06    -10.4487E+06     5.77321E+06     765.692E+03    -54.5731E-03     107.647E-03    -53.0739E-03     96.2665E-03    -55.2832E-03     108.222E-03    -52.9967E-03     95.3386E-03
             401     12.8034E-03     67.6077E-03    -20.6253E+06     46.4061E+06      8.7277E+06     886.803E+03    -54.5914E-03     107.571E-03    -52.9798E-03     105.645E-03    -55.6125E-03     108.659E-03    -52.9735E-03     104.586E-03
             402     13.6575E-03     67.7188E-03    -17.7788E+06     97.0038E+06     31.7725E+06     699.179E+03    -54.6472E-03     107.634E-03    -52.9868E-03     114.690E-03    -56.0178E-03     109.194E-03    -52.9428E-03     113.557E-03
             403     14.5116E-03     67.8360E-03    -14.1508E+06     113.977E+06     63.4983E+06     415.218E+03    -54.2240E-03     107.305E-03    -53.0815E-03     111.535E-03    -55.7349E-03     108.987E-03    -52.9088E-03     110.475E-03
             404     15.3661E-03     67.9414E-03    -9.48478E+06     124.001E+06     82.2066E+06     123.954E+03    -53.6776E-03     106.796E-03    -53.1188E-03     104.475E-03    -55.2381E-03     108.525E-03    -52.8738E-03     103.556E-03
             405     16.2205E-03     68.0444E-03    -4.47530E+06     124.664E+06     87.5237E+06     40.2217E+03    -53.1016E-03     106.210E-03    -53.1079E-03     77.3129E-03    -54.2378E-03     107.519E-03    -52.8446E-03     76.6648E-03
             406     853.413E-06     67.8281E-03    -63.3791E+06    -177.398E+06    -62.1767E+06     232.755E+03    -53.2369E-03     106.418E-03    -53.1810E-03     9.39180E-03    -53.2079E-03     105.715E-03    -53.1428E-03     9.36086E-03
             407     1.70678E-03     67.8413E-03    -61.2863E+06    -173.888E+06    -56.6691E+06     221.375E+03    -53.2442E-03     106.458E-03    -53.2134E-03     17.2624E-03    -53.2211E-03     105.764E-03    -53.1557E-03     17.2014E-03
             408     2.56027E-03     67.8627E-03    -58.3896E+06    -168.816E+06    -48.6691E+06     151.631E+03    -53.3056E-03     106.536E-03    -53.2306E-03     25.3966E-03    -53.2927E-03     105.858E-03    -53.1445E-03     25.3004E-03
             409     3.41370E-03     67.8922E-03    -54.8371E+06    -158.154E+06    -40.3950E+06     292.459E+03    -53.3836E-03     106.622E-03    -53.2387E-03     33.3749E-03    -53.3891E-03     105.989E-03    -53.1318E-03     33.2419E-03
             410     4.26723E-03     67.9295E-03    -51.1826E+06    -147.017E+06    -31.9995E+06     424.742E+03    -53.4972E-03     106.743E-03    -53.2459E-03     41.1167E-03    -53.5253E-03     106.160E-03    -53.1185E-03     40.9415E-03
             411     5.12067E-03     67.9745E-03    -47.4164E+06    -139.896E+06    -22.7022E+06     528.266E+03    -53.6294E-03     106.893E-03    -53.2633E-03     48.5815E-03    -53.6796E-03     106.344E-03    -53.1052E-03     48.3576E-03
             412     5.97424E-03     68.0268E-03    -43.3470E+06    -133.318E+06    -13.8157E+06     526.726E+03    -53.7722E-03     107.050E-03    -53.2782E-03     55.6713E-03    -53.8473E-03     106.538E-03    -53.0911E-03     55.3904E-03
             413     6.82784E-03     68.0858E-03    -39.3359E+06    -124.246E+06    -7.71575E+06     426.455E+03    -53.9423E-03     107.218E-03    -53.2759E-03     62.3947E-03    -54.0493E-03     106.767E-03    -53.0773E-03     62.0476E-03
             414     7.68135E-03     68.1516E-03    -35.5945E+06    -113.027E+06    -3.89670E+06     483.344E+03    -54.1005E-03     107.361E-03    -53.2602E-03     68.7127E-03    -54.2494E-03     106.993E-03    -53.0641E-03     68.2932E-03
             415     8.53504E-03     68.2231E-03    -32.2538E+06    -100.088E+06    -1.78290E+06     526.766E+03    -54.2594E-03     107.494E-03    -53.2343E-03     74.6706E-03    -54.4636E-03     107.233E-03    -53.0513E-03     74.1695E-03
             416     9.38854E-03     68.3008E-03    -29.4450E+06    -84.4949E+06     181.771E+03     586.984E+03    -54.3993E-03     107.605E-03    -53.2055E-03     80.0783E-03    -54.6790E-03     107.479E-03    -53.0394E-03     79.4860E-03
             417     10.2421E-03     68.3829E-03    -27.0427E+06    -67.6273E+06     1.42183E+06     571.527E+03    -54.4714E-03     107.643E-03    -53.1712E-03     85.0124E-03    -54.8464E-03     107.677E-03    -53.0268E-03     84.3203E-03
             418     11.0961E-03     68.4707E-03    -24.7859E+06    -43.6642E+06     2.54824E+06     730.710E+03    -54.4954E-03     107.619E-03    -53.1236E-03     89.7169E-03    -55.0041E-03     107.877E-03    -53.0116E-03     88.9150E-03
             419     11.9496E-03     68.5616E-03    -22.5300E+06    -10.4724E+06     5.83940E+06     713.388E+03    -54.5335E-03     107.604E-03    -53.0701E-03     96.1788E-03    -55.2416E-03     108.178E-03    -52.9930E-03     95.2510E-03
             420     12.8035E-03     68.6624E-03    -20.5113E+06     46.2724E+06     9.17645E+06     675.282E+03    -54.5975E-03     107.575E-03    -52.9777E-03     105.570E-03    -55.6184E-03     108.661E-03    -52.9691E-03     104.508E-03
             421     13.6575E-03     68.7717E-03    -18.2458E+06     97.1182E+06     31.8622E+06     726.903E+03    -54.6697E-03     107.655E-03    -52.9849E-03     114.625E-03    -56.0427E-03     109.215E-03    -52.9400E-03     113.492E-03
             422     14.5114E-03     68.8912E-03    -14.3714E+06     114.458E+06     63.5234E+06     491.895E+03    -54.3159E-03     107.398E-03    -53.0823E-03     111.382E-03    -55.8290E-03     109.082E-03    -52.9099E-03     110.321E-03
             423     15.3653E-03     68.9937E-03    -9.63572E+06     123.965E+06     82.3210E+06     292.080E+03    -53.8887E-03     107.018E-03    -53.1291E-03     104.700E-03    -55.4539E-03     108.750E-03    -52.8832E-03     103.778E-03
             424     16.2182E-03     69.1007E-03    -4.65818E+06     124.618E+06     87.4390E+06     77.0085E+03    -52.9773E-03     106.096E-03    -53.1185E-03     77.8216E-03    -54.1176E-03     107.408E-03    -52.8552E-03     77.1738E-03
             425     853.398E-06     68.8822E-03    -63.6790E+06    -177.655E+06    -62.2892E+06    -24.7027E+03    -53.2170E-03     106.411E-03    -53.1939E-03     9.41115E-03    -53.1889E-03     105.707E-03    -53.1555E-03     9.37690E-03
             426     1.70683E-03     68.8953E-03    -61.7386E+06    -174.003E+06    -56.5944E+06     63.1745E+03    -53.2585E-03     106.474E-03    -53.2153E-03     17.2818E-03    -53.2375E-03     105.780E-03    -53.1564E-03     17.2187E-03
             427     2.56021E-03     68.9167E-03    -58.6596E+06    -168.767E+06    -48.5250E+06     16.7020E+03    -53.3052E-03     106.541E-03    -53.2357E-03     25.4013E-03    -53.2939E-03     105.863E-03    -53.1486E-03     25.3033E-03
             428     3.41372E-03     68.9461E-03    -55.0567E+06    -158.698E+06    -40.4836E+06     155.787E+03    -53.3772E-03     106.619E-03    -53.2419E-03     33.3801E-03    -53.3829E-03     105.983E-03    -53.1343E-03     33.2454E-03
             429     4.26718E-03     68.9835E-03    -51.3720E+06    -147.522E+06    -32.4669E+06     653.605E+03    -53.4904E-03     106.736E-03    -53.2451E-03     41.1399E-03    -53.5180E-03     106.151E-03    -53.1191E-03     40.9678E-03
             430     5.12071E-03     69.0285E-03    -47.5320E+06    -139.886E+06    -22.9335E+06     654.558E+03    -53.6240E-03     106.886E-03    -53.2617E-03     48.5868E-03    -53.6744E-03     106.337E-03    -53.1046E-03     48.3646E-03
             431     5.97428E-03     69.0807E-03    -43.3190E+06    -133.365E+06    -13.7330E+06     490.055E+03    -53.7803E-03     107.058E-03    -53.2782E-03     55.6841E-03    -53.8553E-03     106.546E-03    -53.0907E-03     55.4027E-03
             432     6.82776E-03     69.1399E-03    -39.2200E+06    -124.328E+06    -7.52866E+06     536.017E+03    -53.9428E-03     107.220E-03    -53.2769E-03     62.3973E-03    -54.0494E-03     106.767E-03    -53.0774E-03     62.0516E-03
             433     7.68141E-03     69.2054E-03    -35.5595E+06    -113.123E+06    -3.86870E+06     486.660E+03    -54.1016E-03     107.362E-03    -53.2605E-03     68.7269E-03    -54.2503E-03     106.994E-03    -53.0643E-03     68.3074E-03
             434     8.53489E-03     69.2773E-03    -32.3727E+06    -100.421E+06    -1.97487E+06     573.407E+03    -54.2392E-03     107.472E-03    -53.2331E-03     74.6886E-03    -54.4432E-03     107.211E-03    -53.0505E-03     74.1883E-03
             435     9.38870E-03     69.3545E-03    -29.5797E+06    -84.5881E+06     107.956E+03     679.417E+03    -54.3897E-03     107.593E-03    -53.2031E-03     80.1772E-03    -54.6698E-03     107.467E-03    -53.0370E-03     79.5866E-03
             436     10.2423E-03     69.4373E-03    -27.1010E+06    -67.4449E+06     1.58480E+06     721.529E+03    -54.4951E-03     107.665E-03    -53.1701E-03     84.9981E-03    -54.8714E-03     107.701E-03    -53.0250E-03     84.3071E-03
             437     11.0958E-03     69.5239E-03    -24.8698E+06    -44.0578E+06     2.35498E+06     611.343E+03    -54.4774E-03     107.600E-03    -53.1221E-03     89.6860E-03    -54.9855E-03     107.856E-03    -53.0104E-03     88.8830E-03
             438     11.9497E-03     69.6164E-03    -22.8354E+06    -10.5460E+06     5.63007E+06     617.552E+03    -54.5131E-03     107.580E-03    -53.0672E-03     96.1297E-03    -55.2221E-03     108.155E-03    -52.9907E-03     95.2011E-03
             439     12.8037E-03     69.7152E-03    -21.0480E+06     45.9851E+06     8.66365E+06     838.896E+03    -54.6349E-03     107.610E-03    -52.9749E-03     105.525E-03    -55.6581E-03     108.696E-03    -52.9677E-03     104.464E-03
             440     13.6573E-03     69.8269E-03    -18.4414E+06     97.4282E+06     31.7384E+06     760.316E+03    -54.7102E-03     107.696E-03    -52.9855E-03     114.603E-03    -56.0847E-03     109.259E-03    -52.9413E-03     113.470E-03
             441     14.5117E-03     69.9436E-03    -14.7138E+06     114.797E+06     63.4706E+06     436.273E+03    -54.2753E-03     107.359E-03    -53.0834E-03     111.526E-03    -55.7917E-03     109.046E-03    -52.9112E-03     110.464E-03
             442     15.3655E-03     70.0498E-03    -9.67444E+06     123.845E+06     82.1885E+06     198.267E+03    -53.7162E-03     106.840E-03    -53.1235E-03     105.011E-03    -55.2824E-03     108.573E-03    -52.8781E-03     104.092E-03
             443     16.2213E-03     70.1523E-03    -4.56983E+06     124.937E+06     87.7060E+06     60.8095E+03    -53.0613E-03     106.173E-03    -53.1114E-03     77.7483E-03    -54.2021E-03     107.486E-03    -52.8474E-03     77.1016E-03
             444     853.427E-06     69.9360E-03    -63.6054E+06    -177.725E+06    -62.3441E+06    -46.4681E+03    -53.2048E-03     106.413E-03    -53.2078E-03     9.40920E-03    -53.1762E-03     105.708E-03    -53.1696E-03     9.37467E-03
             445     1.70680E-03     69.9494E-03    -61.7048E+06    -174.121E+06    -56.6739E+06     59.3476E+03    -53.2506E-03     106.464E-03    -53.2139E-03     17.2816E-03    -53.2292E-03     105.770E-03    -53.1553E-03     17.2185E-03
             446     2.56025E-03     69.9707E-03    -58.7086E+06    -168.556E+06    -48.2242E+06    -88.8522E+03    -53.3076E-03     106.543E-03    -53.2350E-03     25.4034E-03    -53.2972E-03     105.865E-03    -53.1466E-03     25.3040E-03
             447     3.41369E-03     70.0001E-03    -55.0133E+06    -159.461E+06    -39.3227E+06     181.093E+03    -53.3831E-03     106.631E-03    -53.2483E-03     33.4011E-03    -53.3892E-03     105.990E-03    -53.1340E-03     33.2667E-03
             448     4.26720E-03     70.0375E-03    -51.1338E+06    -148.264E+06    -31.5725E+06     701.864E+03    -53.4847E-03     106.735E-03    -53.2501E-03     41.1421E-03    -53.5114E-03     106.145E-03    -53.1188E-03     40.9706E-03
             449     5.12075E-03     70.0824E-03    -47.1145E+06    -139.575E+06    -22.9876E+06     721.005E+03    -53.6254E-03     106.885E-03    -53.2595E-03     48.5742E-03    -53.6741E-03     106.338E-03    -53.1038E-03     48.3528E-03
             450     5.97421E-03     70.1348E-03    -43.1822E+06    -133.538E+06    -13.9337E+06     568.666E+03    -53.7797E-03     107.056E-03    -53.2764E-03     55.6860E-03    -53.8535E-03     106.543E-03    -53.0898E-03     55.4055E-03
             451     6.82785E-03     70.1938E-03    -39.2638E+06    -124.438E+06    -7.74430E+06     577.255E+03    -53.9320E-03     107.207E-03    -53.2745E-03     62.4217E-03    -54.0384E-03     106.754E-03    -53.0758E-03     62.0767E-03
             452     7.68136E-03     70.2595E-03    -35.5790E+06    -113.255E+06    -3.92650E+06     615.027E+03    -54.0831E-03     107.340E-03    -53.2573E-03     68.7569E-03    -54.2316E-03     106.972E-03    -53.0611E-03     68.3393E-03
             453     8.53509E-03     70.3311E-03    -32.3812E+06    -100.472E+06    -1.94049E+06     659.848E+03    -54.2481E-03     107.478E-03    -53.2299E-03     74.7132E-03    -54.4523E-03     107.216E-03    -53.0470E-03     74.2137E-03
             454     9.38858E-03     70.4086E-03    -29.5922E+06    -84.8490E+06     20.5939E+03     791.163E+03    -54.3892E-03     107.589E-03    -53.2002E-03     80.1788E-03    -54.6690E-03     107.463E-03    -53.0342E-03     79.5894E-03
             455     10.2423E-03     70.4913E-03    -27.2113E+06    -67.9299E+06     1.29609E+06     771.457E+03    -54.4660E-03     107.632E-03    -53.1657E-03     84.9707E-03    -54.8415E-03     107.666E-03    -53.0213E-03     84.2808E-03
             456     11.0959E-03     70.5782E-03    -25.0841E+06    -43.7480E+06     2.46130E+06     766.553E+03    -54.4878E-03     107.606E-03    -53.1183E-03     89.6890E-03    -54.9978E-03     107.865E-03    -53.0062E-03     88.8878E-03
             457     11.9498E-03     70.6696E-03    -23.1601E+06    -10.7512E+06     5.42715E+06     745.665E+03    -54.5473E-03     107.612E-03    -53.0647E-03     96.1705E-03    -55.2577E-03     108.186E-03    -52.9884E-03     95.2428E-03
             458     12.8033E-03     70.7701E-03    -21.0481E+06     45.6981E+06     8.63216E+06     724.677E+03    -54.6646E-03     107.640E-03    -52.9751E-03     105.547E-03    -55.6882E-03     108.726E-03    -52.9677E-03     104.483E-03
             459     13.6577E-03     70.8798E-03    -18.3831E+06     97.5975E+06     31.7698E+06     727.175E+03    -54.7007E-03     107.686E-03    -52.9858E-03     114.640E-03    -56.0757E-03     109.251E-03    -52.9418E-03     113.506E-03
             460     14.5111E-03     70.9989E-03    -14.2059E+06     115.297E+06     63.7795E+06     397.570E+03    -54.2334E-03     107.316E-03    -53.0826E-03     111.407E-03    -55.7474E-03     109.004E-03    -52.9103E-03     110.346E-03
             461     15.3662E-03     71.1015E-03    -9.48530E+06     123.928E+06     82.3875E+06     173.313E+03    -53.7386E-03     106.862E-03    -53.1233E-03     104.554E-03    -55.3000E-03     108.591E-03    -52.8773E-03     103.634E-03
             462     16.2185E-03     71.2082E-03    -4.73979E+06     124.742E+06     87.4695E+06     95.4756E+03    -53.0458E-03     106.157E-03    -53.1112E-03     77.5001E-03    -54.1835E-03     107.467E-03    -52.8478E-03     76.8534E-03
             463     853.365E-06     70.9901E-03    -63.6845E+06    -177.779E+06    -62.1182E+06     94.4860E+03    -53.2321E-03     106.422E-03    -53.1899E-03     9.43725E-03    -53.2042E-03     105.717E-03    -53.1504E-03     9.40459E-03
             464     1.70682E-03     71.0033E-03    -61.6526E+06    -174.147E+06    -56.5601E+06    -28.2357E+03    -53.2366E-03     106.452E-03    -53.2151E-03     17.2726E-03    -53.2151E-03     105.757E-03    -53.1560E-03     17.2084E-03
             465     2.56027E-03     71.0247E-03    -58.6123E+06    -168.414E+06    -48.1547E+06    -19.7498E+03    -53.2989E-03     106.530E-03    -53.2312E-03     25.4068E-03    -53.2884E-03     105.853E-03    -53.1427E-03     25.3084E-03
             466     3.41373E-03     71.0541E-03    -54.8842E+06    -160.274E+06    -38.4288E+06     240.457E+03    -53.3918E-03     106.642E-03    -53.2506E-03     33.4001E-03    -53.3973E-03     105.995E-03    -53.1307E-03     33.2664E-03
             467     4.26721E-03     71.0915E-03    -50.8231E+06    -148.996E+06    -30.6005E+06     748.241E+03    -53.4947E-03     106.749E-03    -53.2547E-03     41.1419E-03    -53.5201E-03     106.154E-03    -53.1180E-03     40.9709E-03
             468     5.12067E-03     71.1365E-03    -47.0046E+06    -139.499E+06    -22.9549E+06     875.863E+03    -53.6156E-03     106.874E-03    -53.2587E-03     48.5949E-03    -53.6639E-03     106.327E-03    -53.1030E-03     48.3756E-03
             469     5.97431E-03     71.1887E-03    -43.0110E+06    -133.594E+06    -13.9953E+06     726.347E+03    -53.7656E-03     107.039E-03    -53.2734E-03     55.7013E-03    -53.8383E-03     106.525E-03    -53.0873E-03     55.4229E-03
             470     6.82780E-03     71.2478E-03    -38.9996E+06    -124.625E+06    -7.70630E+06     666.903E+03    -53.9193E-03     107.190E-03    -53.2704E-03     62.4256E-03    -54.0241E-03     106.736E-03    -53.0717E-03     62.0818E-03
             471     7.68149E-03     71.3134E-03    -35.4212E+06    -113.418E+06    -3.89956E+06     724.685E+03    -54.0835E-03     107.336E-03    -53.2530E-03     68.7449E-03    -54.2311E-03     106.967E-03    -53.0566E-03     68.3286E-03
             472     8.53503E-03     71.3851E-03    -32.3113E+06    -100.552E+06    -1.86133E+06     875.782E+03    -54.2616E-03     107.489E-03    -53.2269E-03     74.7163E-03    -54.4655E-03     107.226E-03    -53.0435E-03     74.2195E-03
             473     9.38868E-03     71.4627E-03    -29.6282E+06    -85.2698E+06    -108.357E+03     866.121E+03    -54.3781E-03     107.575E-03    -53.1972E-03     80.1992E-03    -54.6573E-03     107.447E-03    -53.0311E-03     79.6110E-03
             474     10.2422E-03     71.5451E-03    -27.1096E+06    -67.9744E+06     1.37305E+06     930.156E+03    -54.4271E-03     107.588E-03    -53.1611E-03     84.9752E-03    -54.8019E-03     107.621E-03    -53.0163E-03     84.2882E-03
             475     11.0962E-03     71.6320E-03    -24.9915E+06    -43.7746E+06     2.53684E+06     1.04173E+06    -54.4776E-03     107.590E-03    -53.1120E-03     89.6833E-03    -54.9871E-03     107.848E-03    -52.9997E-03     88.8859E-03
             476     11.9496E-03     71.7240E-03    -23.1546E+06    -10.6859E+06     5.53346E+06     896.334E+03    -54.5895E-03     107.649E-03    -53.0600E-03     96.2432E-03    -55.3006E-03     108.224E-03    -52.9833E-03     95.3166E-03
             477     12.8038E-03     71.8234E-03    -21.2554E+06     45.7680E+06     8.40398E+06     581.365E+03    -54.6706E-03     107.641E-03    -52.9708E-03     105.611E-03    -55.6949E-03     108.728E-03    -52.9643E-03     104.546E-03
             478     13.6571E-03     71.9346E-03    -18.3864E+06     97.6994E+06     31.3420E+06     335.248E+03    -54.7215E-03     107.703E-03    -52.9811E-03     114.672E-03    -56.0964E-03     109.268E-03    -52.9394E-03     113.533E-03
             479     14.5121E-03     72.0516E-03    -14.2689E+06     115.310E+06     63.5787E+06     246.282E+03    -54.3760E-03     107.460E-03    -53.0841E-03     111.342E-03    -55.8902E-03     109.149E-03    -52.9127E-03     110.276E-03
             480     15.3648E-03     72.1572E-03    -9.42072E+06     123.963E+06     82.5186E+06     386.259E+03    -53.7966E-03     106.928E-03    -53.1318E-03     104.582E-03    -55.3576E-03     108.657E-03    -52.8853E-03     103.664E-03
             481     16.2208E-03     72.2604E-03    -4.44988E+06     125.022E+06     87.7046E+06     199.530E+03    -52.9163E-03     106.033E-03    -53.1170E-03     77.6456E-03    -54.0536E-03     107.344E-03    -52.8533E-03     77.0026E-03
             482     853.425E-06     72.0441E-03    -63.6496E+06    -177.951E+06    -62.3067E+06      49.941E+03    -53.2444E-03     106.408E-03    -53.1634E-03     9.42354E-03    -53.2158E-03     105.702E-03    -53.1246E-03     9.39039E-03
             483     1.70681E-03     72.0572E-03    -61.7010E+06    -174.100E+06    -56.4666E+06     63.8858E+03    -53.2412E-03     106.452E-03    -53.2109E-03     17.2703E-03    -53.2201E-03     105.758E-03    -53.1513E-03     17.2072E-03
             484     2.56026E-03     72.0786E-03    -58.8354E+06    -168.559E+06    -48.2789E+06     98.9143E+03    -53.2969E-03     106.526E-03    -53.2290E-03     25.4060E-03    -53.2871E-03     105.849E-03    -53.1407E-03     25.3090E-03
             485     3.41373E-03     72.1081E-03    -55.2361E+06    -160.895E+06    -39.1106E+06     394.512E+03    -53.3840E-03     106.630E-03    -53.2459E-03     33.4054E-03    -53.3894E-03     105.982E-03    -53.1281E-03     33.2737E-03
             486     4.26719E-03     72.1455E-03    -51.3119E+06    -149.743E+06    -31.2943E+06     715.313E+03    -53.4869E-03     106.736E-03    -53.2493E-03     41.1557E-03    -53.5127E-03     106.139E-03    -53.1143E-03     40.9842E-03
             487     5.12079E-03     72.1904E-03    -47.1230E+06    -139.608E+06    -23.0147E+06     902.414E+03    -53.6070E-03     106.861E-03    -53.2543E-03     48.6064E-03    -53.6556E-03     106.314E-03    -53.0986E-03     48.3874E-03
             488     5.97426E-03     72.2426E-03    -43.0144E+06    -133.553E+06    -13.9440E+06     805.092E+03    -53.7558E-03     107.024E-03    -53.2685E-03     55.7130E-03    -53.8287E-03     106.511E-03    -53.0822E-03     55.4358E-03
             489     6.82791E-03     72.3018E-03    -39.1141E+06    -124.830E+06    -7.83705E+06     771.863E+03    -53.9179E-03     107.183E-03    -53.2650E-03     62.4236E-03    -54.0228E-03     106.729E-03    -53.0665E-03     62.0812E-03
             490     7.68146E-03     72.3673E-03    -35.4898E+06    -113.711E+06    -3.94611E+06     894.814E+03    -54.0949E-03     107.344E-03    -53.2490E-03     68.7762E-03    -54.2424E-03     106.973E-03    -53.0524E-03     68.3621E-03
             491     8.53506E-03     72.4392E-03    -32.2542E+06    -100.856E+06    -1.92518E+06     927.470E+03    -54.2507E-03     107.474E-03    -53.2230E-03     74.7575E-03    -54.4538E-03     107.210E-03    -53.0396E-03     74.2615E-03
             492     9.38869E-03     72.5165E-03    -29.3834E+06    -85.3361E+06     117.784E+03     1.02514E+06    -54.3456E-03     107.538E-03    -53.1925E-03     80.1671E-03    -54.6236E-03     107.409E-03    -53.0256E-03     79.5814E-03
             493     10.2425E-03     72.5992E-03    -26.9686E+06    -68.2391E+06     1.44937E+06     1.10514E+06    -54.4290E-03     107.584E-03    -53.1552E-03     84.9742E-03    -54.8028E-03     107.616E-03    -53.0099E-03     84.2896E-03
             494     11.0959E-03     72.6860E-03    -24.7583E+06    -43.9627E+06     2.64456E+06     1.09458E+06    -54.4834E-03     107.590E-03    -53.1067E-03     89.6903E-03    -54.9918E-03     107.847E-03    -52.9939E-03     88.8933E-03
             495     11.9502E-03     72.7778E-03    -22.6418E+06    -10.6124E+06     5.80717E+06     1.07810E+06    -54.5596E-03     107.614E-03    -53.0541E-03     96.2677E-03    -55.2685E-03     108.188E-03    -52.9769E-03     95.3443E-03
             496     12.8032E-03     72.8780E-03    -20.7132E+06     46.3197E+06     9.10644E+06     737.458E+03    -54.6998E-03     107.666E-03    -52.9665E-03     105.598E-03    -55.7232E-03     108.754E-03    -52.9581E-03     104.534E-03
             497     13.6581E-03     72.9876E-03    -18.3526E+06     98.0469E+06     32.1817E+06     95.4375E+03    -54.8107E-03     107.793E-03    -52.9827E-03     114.664E-03    -56.1881E-03     109.360E-03    -52.9373E-03     113.519E-03
             498     14.5107E-03     73.1071E-03    -14.6271E+06     115.009E+06     63.3862E+06     194.806E+03    -54.3236E-03     107.407E-03    -53.0833E-03     111.462E-03    -55.8396E-03     109.095E-03    -52.9119E-03     110.396E-03
             499     15.3661E-03     73.2097E-03    -9.57169E+06     123.810E+06     82.0711E+06     350.792E+03    -53.6892E-03     106.814E-03    -53.1245E-03     104.748E-03    -55.2523E-03     108.544E-03    -52.8798E-03     103.832E-03
             500     16.2186E-03     73.3154E-03    -4.44944E+06     125.222E+06     87.7730E+06     122.688E+03    -52.9968E-03     106.107E-03    -53.1106E-03     77.8901E-03    -54.1369E-03     107.422E-03    -52.8469E-03     77.2443E-03
             501     853.402E-06     73.0980E-03    -63.8097E+06    -178.028E+06    -62.3310E+06     17.5969E+03    -53.2109E-03     106.387E-03    -53.1760E-03     9.41883E-03    -53.1829E-03     105.681E-03    -53.1370E-03     9.38523E-03
             502     1.70686E-03     73.1112E-03    -61.8272E+06    -174.338E+06    -56.8221E+06     125.572E+03    -53.2421E-03     106.444E-03    -53.2016E-03     17.2726E-03    -53.2208E-03     105.749E-03    -53.1433E-03     17.2103E-03
             503     2.56026E-03     73.1326E-03    -58.8640E+06    -168.758E+06    -48.4478E+06     278.899E+03    -53.3000E-03     106.524E-03    -53.2238E-03     25.4185E-03    -53.2899E-03     105.846E-03    -53.1360E-03     25.3239E-03
             504     3.41372E-03     73.1620E-03    -55.0726E+06    -161.521E+06    -38.7467E+06     470.065E+03    -53.3730E-03     106.617E-03    -53.2439E-03     33.4193E-03    -53.3772E-03     105.965E-03    -53.1236E-03     33.2887E-03
             505     4.26728E-03     73.1994E-03    -50.9508E+06    -150.184E+06    -30.8054E+06     719.763E+03    -53.4779E-03     106.724E-03    -53.2459E-03     41.1564E-03    -53.5019E-03     106.123E-03    -53.1083E-03     40.9851E-03
             506     5.12073E-03     73.2443E-03    -47.0037E+06    -139.877E+06    -23.2784E+06     768.301E+03    -53.6065E-03     106.854E-03    -53.2471E-03     48.5928E-03    -53.6538E-03     106.305E-03    -53.0925E-03     48.3720E-03
             507     5.97437E-03     73.2966E-03    -42.9911E+06    -133.749E+06    -14.1597E+06     932.780E+03    -53.7490E-03     107.011E-03    -53.2619E-03     55.7000E-03    -53.8212E-03     106.497E-03    -53.0764E-03     55.4244E-03
             508     6.82791E-03     73.3557E-03    -39.0600E+06    -124.927E+06    -7.57921E+06     940.451E+03    -53.9192E-03     107.180E-03    -53.2609E-03     62.4389E-03    -54.0241E-03     106.725E-03    -53.0610E-03     62.0987E-03
             509     7.68151E-03     73.4214E-03    -35.3755E+06    -113.915E+06    -3.83769E+06     871.160E+03    -54.0939E-03     107.339E-03    -53.2448E-03     68.7962E-03    -54.2408E-03     106.967E-03    -53.0475E-03     68.3817E-03
             510     8.53516E-03     73.4930E-03    -32.0731E+06    -101.050E+06    -1.77336E+06     983.099E+03    -54.2333E-03     107.452E-03    -53.2184E-03     74.7279E-03    -54.4354E-03     107.186E-03    -53.0343E-03     74.2327E-03
             511     9.38879E-03     73.5706E-03    -29.2903E+06    -85.7182E+06     151.670E+03     1.07306E+06    -54.3386E-03     107.526E-03    -53.1871E-03     80.1404E-03    -54.6157E-03     107.394E-03    -53.0196E-03     79.5554E-03
             512     10.2423E-03     73.6529E-03    -26.7177E+06    -68.4153E+06     1.61877E+06     1.12433E+06    -54.4266E-03     107.577E-03    -53.1499E-03     84.9719E-03    -54.7993E-03     107.607E-03    -53.0039E-03     84.2875E-03
             513     11.0965E-03     73.7401E-03    -24.4529E+06    -44.0928E+06     2.78292E+06     1.08752E+06    -54.5037E-03     107.606E-03    -53.1022E-03     89.7027E-03    -55.0108E-03     107.862E-03    -52.9889E-03     88.9052E-03
             514     11.9495E-03     73.8317E-03    -22.2988E+06    -10.5635E+06     6.05672E+06     934.914E+03    -54.5677E-03     107.619E-03    -53.0513E-03     96.1857E-03    -55.2751E-03     108.192E-03    -52.9734E-03     95.2602E-03
             515     12.8044E-03     73.9316E-03    -20.1176E+06     46.7252E+06     9.56005E+06     878.124E+03    -54.6832E-03     107.647E-03    -52.9638E-03     105.630E-03    -55.7054E-03     108.736E-03    -52.9546E-03     104.568E-03
             516     13.6567E-03     74.0426E-03    -17.8680E+06     98.4974E+06     32.5953E+06     836.581E+03    -54.7353E-03     107.712E-03    -52.9768E-03     114.830E-03    -56.1117E-03     109.280E-03    -52.9307E-03     113.697E-03
             517     14.5124E-03     74.1599E-03    -14.5503E+06     115.129E+06     63.6278E+06     351.699E+03    -54.2473E-03     107.320E-03    -53.0730E-03     111.515E-03    -55.7630E-03     109.009E-03    -52.9007E-03     110.454E-03
             518     15.3653E-03     74.2645E-03    -9.59425E+06     123.805E+06     81.9149E+06    -28.7611E+03    -53.7403E-03     106.853E-03    -53.1126E-03     104.584E-03    -55.3037E-03     108.584E-03    -52.8686E-03     103.661E-03
             519     16.2213E-03     74.3684E-03    -4.35529E+06     125.275E+06     87.6379E+06     161.057E+03    -53.1654E-03     106.271E-03    -53.1054E-03     77.7374E-03    -54.3047E-03     107.585E-03    -52.8425E-03     77.0888E-03
             520     853.436E-06     74.1520E-03    -63.8391E+06    -178.140E+06    -62.4968E+06     134.464E+03    -53.2157E-03     106.380E-03    -53.1644E-03     9.43845E-03    -53.1874E-03     105.674E-03    -53.1260E-03     9.40635E-03
             521     1.70682E-03     74.1652E-03    -61.9860E+06    -174.586E+06    -56.9224E+06     129.132E+03    -53.2306E-03     106.427E-03    -53.1969E-03     17.2672E-03    -53.2096E-03     105.732E-03    -53.1384E-03     17.2051E-03
             522     2.56031E-03     74.1865E-03    -58.9770E+06    -169.142E+06    -48.7214E+06     293.817E+03    -53.2895E-03     106.506E-03    -53.2161E-03     25.4127E-03    -53.2789E-03     105.826E-03    -53.1289E-03     25.3183E-03
             523     3.41377E-03     74.2160E-03    -55.2868E+06    -161.907E+06    -39.1025E+06     475.066E+03    -53.3743E-03     106.611E-03    -53.2364E-03     33.4080E-03    -53.3785E-03     105.957E-03    -53.1169E-03     33.2774E-03
             524     4.26724E-03     74.2533E-03    -51.3135E+06    -150.666E+06    -31.3242E+06     656.295E+03    -53.4727E-03     106.712E-03    -53.2390E-03     41.1557E-03    -53.4972E-03     106.110E-03    -53.1027E-03     40.9837E-03
             525     5.12084E-03     74.2984E-03    -47.2919E+06    -140.086E+06    -23.3487E+06     833.398E+03    -53.5978E-03     106.840E-03    -53.2419E-03     48.5871E-03    -53.6461E-03     106.291E-03    -53.0869E-03     48.3672E-03
             526     5.97434E-03     74.3504E-03    -43.2478E+06    -134.119E+06    -14.3940E+06     851.182E+03    -53.7523E-03     107.009E-03    -53.2565E-03     55.6902E-03    -53.8250E-03     106.494E-03    -53.0713E-03     55.4135E-03
             527     6.82796E-03     74.4097E-03    -39.0963E+06    -125.013E+06    -7.86116E+06     944.562E+03    -53.9167E-03     107.172E-03    -53.2553E-03     62.4449E-03    -54.0213E-03     106.717E-03    -53.0566E-03     62.1047E-03
             528     7.68157E-03     74.4752E-03    -35.3514E+06    -114.051E+06    -3.74997E+06     885.227E+03    -54.0820E-03     107.323E-03    -53.2407E-03     68.7889E-03    -54.2287E-03     106.950E-03    -53.0428E-03     68.3746E-03
             529     8.53510E-03     74.5472E-03    -32.1457E+06    -101.446E+06    -1.92597E+06     950.927E+03    -54.2195E-03     107.432E-03    -53.2128E-03     74.7111E-03    -54.4211E-03     107.165E-03    -53.0288E-03     74.2157E-03
             530     9.38883E-03     74.6243E-03    -29.1580E+06    -85.7840E+06     218.756E+03     1.04789E+06    -54.3401E-03     107.522E-03    -53.1817E-03     80.1357E-03    -54.6166E-03     107.390E-03    -53.0140E-03     79.5503E-03
             531     10.2427E-03     74.7071E-03    -26.6233E+06    -68.5700E+06     1.64661E+06     1.08976E+06    -54.4569E-03     107.603E-03    -53.1463E-03     84.9597E-03    -54.8291E-03     107.633E-03    -53.0001E-03     84.2742E-03
             532     11.0959E-03     74.7938E-03    -24.4897E+06    -44.1802E+06     2.80601E+06     1.05577E+06    -54.5030E-03     107.603E-03    -53.1002E-03     89.6648E-03    -55.0102E-03     107.859E-03    -52.9866E-03     88.8667E-03
             533     11.9504E-03     74.8859E-03    -22.4189E+06    -10.4880E+06     6.15787E+06     883.333E+03    -54.5825E-03     107.633E-03    -53.0503E-03     96.1990E-03    -55.2911E-03     108.207E-03    -52.9718E-03     95.2723E-03
             534     12.8029E-03     74.9855E-03    -20.5596E+06     46.5005E+06     9.18706E+06     877.859E+03    -54.6115E-03     107.571E-03    -52.9597E-03     105.645E-03    -55.6348E-03     108.660E-03    -52.9514E-03     104.584E-03
             535     13.6587E-03     75.0962E-03    -17.7829E+06     98.4252E+06     32.1687E+06     981.804E+03    -54.5973E-03     107.563E-03    -52.9652E-03     114.715E-03    -55.9695E-03     109.128E-03    -52.9213E-03     113.589E-03
             536     14.5112E-03     75.2143E-03    -13.7463E+06     115.911E+06     64.2767E+06     830.224E+03    -54.2440E-03     107.305E-03    -53.0610E-03     111.408E-03    -55.7555E-03     108.993E-03    -52.8878E-03     110.354E-03
             537     15.3663E-03     75.3180E-03    -9.77864E+06     124.361E+06     82.4538E+06     251.879E+03    -53.9158E-03     107.023E-03    -53.1072E-03     104.714E-03    -55.4839E-03     108.759E-03    -52.8610E-03     103.791E-03
             538     16.2185E-03     75.4227E-03    -5.01251E+06     125.166E+06     87.3125E+06     14.5890E+03    -53.1965E-03     106.299E-03    -53.1030E-03     77.9461E-03    -54.3409E-03     107.617E-03    -52.8406E-03     77.2923E-03
             539     853.394E-06     75.2059E-03    -64.0545E+06    -178.449E+06    -62.6792E+06     119.351E+03    -53.2118E-03     106.371E-03    -53.1593E-03     9.42219E-03    -53.1839E-03     105.664E-03    -53.1211E-03     9.38987E-03
             540     1.70687E-03     75.2191E-03    -62.0797E+06    -174.783E+06    -56.9415E+06     238.862E+03    -53.2246E-03     106.417E-03    -53.1926E-03     17.2694E-03    -53.2037E-03     105.721E-03    -53.1339E-03     17.2086E-03
             541     2.56029E-03     75.2404E-03    -59.1867E+06    -169.448E+06    -48.8167E+06     276.885E+03    -53.2840E-03     106.496E-03    -53.2115E-03     25.4040E-03    -53.2740E-03     105.815E-03    -53.1240E-03     25.3094E-03
             542     3.41379E-03     75.2699E-03    -55.4315E+06    -162.378E+06    -39.5575E+06     474.329E+03    -53.3677E-03     106.598E-03    -53.2299E-03     33.4005E-03    -53.3713E-03     105.943E-03    -53.1118E-03     33.2699E-03
             543     4.26729E-03     75.3073E-03    -51.4435E+06    -151.045E+06    -31.6280E+06     669.866E+03    -53.4659E-03     106.699E-03    -53.2327E-03     41.1477E-03    -53.4900E-03     106.096E-03    -53.0972E-03     40.9758E-03
             544     5.12082E-03     75.3522E-03    -47.4583E+06    -140.444E+06    -23.6298E+06     748.199E+03    -53.5939E-03     106.830E-03    -53.2357E-03     48.5954E-03    -53.6421E-03     106.279E-03    -53.0814E-03     48.3744E-03
             545     5.97442E-03     75.4045E-03    -43.2831E+06    -134.242E+06    -14.4236E+06     804.894E+03    -53.7601E-03     107.012E-03    -53.2520E-03     55.6919E-03    -53.8327E-03     106.496E-03    -53.0667E-03     55.4145E-03
             546     6.82797E-03     75.4635E-03    -39.2896E+06    -125.386E+06    -8.11714E+06     812.860E+03    -53.9155E-03     107.167E-03    -53.2513E-03     62.4433E-03    -54.0201E-03     106.710E-03    -53.0531E-03     62.1013E-03
             547     7.68154E-03     75.5294E-03    -35.5485E+06    -114.106E+06    -3.85401E+06     926.192E+03    -54.0592E-03     107.295E-03    -53.2362E-03     68.7900E-03    -54.2065E-03     106.923E-03    -53.0384E-03     68.3766E-03
             548     8.53531E-03     75.6008E-03    -32.1266E+06    -101.654E+06    -1.82361E+06     817.642E+03    -54.2192E-03     107.428E-03    -53.2086E-03     74.6883E-03    -54.4206E-03     107.160E-03    -53.0237E-03     74.1910E-03
             549     9.38888E-03     75.6785E-03    -29.2478E+06    -86.0821E+06     41.6243E+03     926.555E+03    -54.3624E-03     107.540E-03    -53.1778E-03     80.1211E-03    -54.6388E-03     107.407E-03    -53.0104E-03     79.5337E-03
             550     10.2424E-03     75.7607E-03    -26.6186E+06    -68.7195E+06     1.67174E+06     1.02530E+06    -54.4610E-03     107.606E-03    -53.1445E-03     84.9712E-03    -54.8331E-03     107.634E-03    -52.9979E-03     84.2848E-03
             551     11.0964E-03     75.8481E-03    -24.3019E+06    -44.3227E+06     2.85338E+06     1.14085E+06    -54.5029E-03     107.601E-03    -53.0985E-03     89.6924E-03    -55.0089E-03     107.855E-03    -52.9847E-03     88.8958E-03
             552     11.9494E-03     75.9394E-03    -22.4181E+06    -10.4356E+06     6.19760E+06     1.18121E+06    -54.5322E-03     107.579E-03    -53.0467E-03     96.2477E-03    -55.2407E-03     108.153E-03    -52.9681E-03     95.3263E-03
             553     12.8046E-03     76.0399E-03    -20.4195E+06     46.5476E+06     9.41090E+06     861.307E+03    -54.6332E-03     107.589E-03    -52.9561E-03     105.560E-03    -55.6553E-03     108.677E-03    -52.9469E-03     104.500E-03
             554     13.6568E-03     76.1495E-03    -17.9766E+06     98.2264E+06     32.3213E+06     734.097E+03    -54.6321E-03     107.597E-03    -52.9646E-03     114.505E-03    -56.0041E-03     109.160E-03    -52.9194E-03     113.375E-03
             555     14.5127E-03     76.2683E-03    -14.2712E+06     115.325E+06     64.0122E+06     1.07813E+06    -54.1894E-03     107.249E-03    -53.0596E-03     111.267E-03    -55.6999E-03     108.933E-03    -52.8861E-03     110.219E-03
             556     15.3658E-03     76.3718E-03    -9.30314E+06     125.467E+06     83.1604E+06     1.13465E+06    -53.8165E-03     106.919E-03    -53.1024E-03     104.869E-03    -55.3808E-03     108.654E-03    -52.8550E-03     103.961E-03
             557     16.2210E-03     76.4779E-03    -4.67384E+06     126.018E+06     88.0008E+06     38.1959E+03    -53.2751E-03     106.373E-03    -53.0978E-03     77.8665E-03    -54.4176E-03     107.691E-03    -52.8338E-03     77.2150E-03
             558     853.455E-06     76.2599E-03    -64.2667E+06    -178.740E+06    -62.7742E+06     144.104E+03    -53.1898E-03     106.364E-03    -53.1743E-03     9.39444E-03    -53.1624E-03     105.656E-03    -53.1358E-03     9.36238E-03
             559     1.70685E-03     76.2730E-03    -62.2451E+06    -175.132E+06    -57.2522E+06     218.233E+03    -53.2158E-03     106.403E-03    -53.1874E-03     17.2696E-03    -53.1948E-03     105.706E-03    -53.1295E-03     17.2085E-03
             560     2.56034E-03     76.2944E-03    -59.2072E+06    -169.631E+06    -48.9162E+06     351.606E+03    -53.2809E-03     106.487E-03    -53.2060E-03     25.4145E-03    -53.2705E-03     105.806E-03    -53.1188E-03     25.3209E-03
             561     3.41378E-03     76.3238E-03    -55.4712E+06    -162.858E+06    -38.8315E+06     427.016E+03    -53.3607E-03     106.590E-03    -53.2291E-03     33.4029E-03    -53.3649E-03     105.932E-03    -53.1067E-03     33.2717E-03
             562     4.26733E-03     76.3612E-03    -51.3177E+06    -151.512E+06    -31.0249E+06     669.941E+03    -53.4648E-03     106.696E-03    -53.2313E-03     41.1388E-03    -53.4885E-03     106.090E-03    -53.0923E-03     40.9668E-03
             563     5.12086E-03     76.4062E-03    -47.3232E+06    -140.570E+06    -23.6429E+06     736.005E+03    -53.5983E-03     106.830E-03    -53.2317E-03     48.5844E-03    -53.6457E-03     106.279E-03    -53.0774E-03     48.3632E-03
             564     5.97442E-03     76.4583E-03    -43.3268E+06    -134.499E+06    -14.6016E+06     706.271E+03    -53.7561E-03     107.004E-03    -53.2482E-03     55.6978E-03    -53.8284E-03     106.488E-03    -53.0634E-03     55.4191E-03
             565     6.82796E-03     76.5176E-03    -39.2428E+06    -125.617E+06    -7.96498E+06     829.691E+03    -53.9132E-03     107.162E-03    -53.2490E-03     62.4202E-03    -54.0176E-03     106.704E-03    -53.0497E-03     62.0784E-03
             566     7.68168E-03     76.5830E-03    -35.5479E+06    -114.309E+06    -3.88068E+06     866.838E+03    -54.0611E-03     107.294E-03    -53.2334E-03     68.7530E-03    -54.2081E-03     106.921E-03    -53.0355E-03     68.3388E-03
             567     8.53516E-03     76.6550E-03    -32.3664E+06    -101.576E+06    -1.85228E+06     815.786E+03    -54.2267E-03     107.433E-03    -53.2066E-03     74.6768E-03    -54.4295E-03     107.166E-03    -53.0217E-03     74.1794E-03
             568     9.38887E-03     76.7321E-03    -29.4333E+06    -86.5179E+06    -74.9422E+03     743.895E+03    -54.3583E-03     107.535E-03    -53.1766E-03     80.1157E-03    -54.6348E-03     107.400E-03    -53.0088E-03     79.5258E-03
             569     10.2426E-03     76.8151E-03    -26.8329E+06    -69.0325E+06     1.36753E+06     902.110E+03    -54.4340E-03     107.575E-03    -53.1410E-03     84.9974E-03    -54.8062E-03     107.603E-03    -52.9952E-03     84.3099E-03
             570     11.0960E-03     76.9016E-03    -24.5198E+06    -44.6263E+06     2.68235E+06     1.04412E+06    -54.4795E-03     107.573E-03    -53.0938E-03     89.7184E-03    -54.9859E-03     107.826E-03    -52.9802E-03     88.9211E-03
             571     11.9505E-03     76.9939E-03    -22.2419E+06    -10.5050E+06     6.28653E+06     1.29088E+06    -54.5698E-03     107.613E-03    -53.0433E-03     96.1808E-03    -55.2777E-03     108.187E-03    -52.9644E-03     95.2598E-03
             572     12.8031E-03     77.0931E-03    -20.5363E+06     46.8916E+06     9.78787E+06     1.18756E+06    -54.6666E-03     107.623E-03    -52.9568E-03     105.492E-03    -55.6906E-03     108.713E-03    -52.9461E-03     104.435E-03
             573     13.6586E-03     77.2045E-03    -18.4090E+06     98.0442E+06     32.6627E+06     999.335E+03    -54.7306E-03     107.702E-03    -52.9711E-03     114.367E-03    -56.1062E-03     109.265E-03    -52.9233E-03     113.236E-03
             574     14.5111E-03     77.3209E-03    -14.5291E+06     115.127E+06     63.8947E+06     883.447E+03    -54.3437E-03     107.415E-03    -53.0715E-03     111.090E-03    -55.8586E-03     109.102E-03    -52.8979E-03     110.032E-03
             575     15.3661E-03     77.4268E-03    -9.01845E+06     125.747E+06     83.0723E+06     420.220E+03    -53.8423E-03     106.961E-03    -53.1189E-03     104.190E-03    -55.4046E-03     108.697E-03    -52.8728E-03     103.267E-03
             576     16.2197E-03     77.5300E-03    -3.83213E+06     126.582E+06     88.5207E+06     398.713E+03    -53.1251E-03     106.239E-03    -53.1139E-03     77.2611E-03    -54.2617E-03     107.555E-03    -52.8493E-03     76.6148E-03
             577     853.366E-06     77.3137E-03    -64.2706E+06    -179.044E+06    -63.1108E+06     29.7103E+03    -53.1861E-03     106.351E-03    -53.1654E-03     9.37676E-03    -53.1577E-03     105.642E-03    -53.1281E-03     9.34311E-03
             578     1.70689E-03     77.3270E-03    -62.4132E+06    -175.421E+06    -57.4037E+06     236.193E+03    -53.2124E-03     106.394E-03    -53.1817E-03     17.2843E-03    -53.1915E-03     105.695E-03    -53.1238E-03     17.2236E-03
             579     2.56032E-03     77.3482E-03    -59.4608E+06    -169.952E+06    -49.0092E+06     295.577E+03    -53.2740E-03     106.475E-03    -53.2012E-03     25.4045E-03    -53.2643E-03     105.793E-03    -53.1136E-03     25.3102E-03
             580     3.41385E-03     77.3778E-03    -55.6467E+06    -163.203E+06    -39.1086E+06     500.528E+03    -53.3636E-03     106.588E-03    -53.2241E-03     33.3893E-03    -53.3677E-03     105.928E-03    -53.1023E-03     33.2590E-03
             581     4.26731E-03     77.4151E-03    -51.6079E+06    -151.905E+06    -31.3099E+06     593.570E+03    -53.4713E-03     106.700E-03    -53.2283E-03     41.1261E-03    -53.4954E-03     106.092E-03    -53.0898E-03     40.9531E-03
             582     5.12087E-03     77.4601E-03    -47.4916E+06    -140.757E+06    -23.6853E+06     704.729E+03    -53.5972E-03     106.828E-03    -53.2305E-03     48.5775E-03    -53.6451E-03     106.276E-03    -53.0760E-03     48.3559E-03
             583     5.97440E-03     77.5123E-03    -43.4613E+06    -134.698E+06    -14.6850E+06     750.625E+03    -53.7456E-03     106.992E-03    -53.2463E-03     55.6862E-03    -53.8180E-03     106.474E-03    -53.0614E-03     55.4082E-03
             584     6.82807E-03     77.5714E-03    -39.5071E+06    -125.884E+06    -8.36994E+06     753.267E+03    -53.9075E-03     107.153E-03    -53.2450E-03     62.4204E-03    -54.0121E-03     106.694E-03    -53.0471E-03     62.0777E-03
             585     7.68151E-03     77.6371E-03    -35.7709E+06    -114.606E+06    -4.19905E+06     871.074E+03    -54.0731E-03     107.304E-03    -53.2305E-03     68.7572E-03    -54.2204E-03     106.929E-03    -53.0335E-03     68.3428E-03
             586     8.53533E-03     77.7087E-03    -32.4835E+06    -101.559E+06    -1.98123E+06     870.174E+03    -54.2223E-03     107.427E-03    -53.2046E-03     74.7243E-03    -54.4254E-03     107.160E-03    -53.0202E-03     74.2280E-03
             587     9.38885E-03     77.7864E-03    -29.7212E+06    -86.5295E+06    -263.816E+03     732.073E+03    -54.3524E-03     107.527E-03    -53.1742E-03     80.1223E-03    -54.6302E-03     107.393E-03    -53.0070E-03     79.5323E-03
             588     10.2425E-03     77.8685E-03    -27.2076E+06    -69.4845E+06     934.630E+03     744.189E+03    -54.4293E-03     107.567E-03    -53.1381E-03     84.9363E-03    -54.8020E-03     107.594E-03    -52.9932E-03     84.2468E-03
             589     11.0965E-03     77.9560E-03    -24.8977E+06    -44.8016E+06     2.35836E+06     867.852E+03    -54.4828E-03     107.574E-03    -53.0915E-03     89.6604E-03    -54.9904E-03     107.828E-03    -52.9786E-03     88.8606E-03
             590     11.9496E-03     78.0472E-03    -22.7310E+06    -11.0367E+06     5.71299E+06     880.020E+03    -54.5934E-03     107.635E-03    -53.0415E-03     96.1953E-03    -55.3021E-03     108.207E-03    -52.9640E-03     95.2686E-03
             591     12.8043E-03     78.1480E-03    -20.2500E+06     46.6311E+06     9.64333E+06     1.43336E+06    -54.7079E-03     107.666E-03    -52.9578E-03     105.489E-03    -55.7302E-03     108.754E-03    -52.9479E-03     104.434E-03
             592     13.6570E-03     78.2572E-03    -17.8144E+06     98.3528E+06     32.7442E+06     1.66888E+06    -54.7776E-03     107.752E-03    -52.9743E-03     114.445E-03    -56.1516E-03     109.317E-03    -52.9274E-03     113.321E-03
             593     14.5120E-03     78.3767E-03    -14.2275E+06     115.974E+06     64.3869E+06     738.678E+03    -54.4806E-03     107.561E-03    -53.0807E-03     111.471E-03    -55.9982E-03     109.253E-03    -52.9063E-03     110.408E-03
             594     15.3648E-03     78.4792E-03    -9.78456E+06     125.522E+06     82.9773E+06     421.836E+03    -53.9725E-03     107.106E-03    -53.1337E-03     104.969E-03    -55.5443E-03     108.848E-03    -52.8866E-03     104.045E-03
             595     16.2186E-03     78.5862E-03    -4.53712E+06     126.352E+06     88.2102E+06     596.742E+03    -52.8155E-03     105.936E-03    -53.1206E-03     77.9850E-03    -53.9588E-03     107.256E-03    -52.8562E-03     77.3462E-03
             596     853.510E-06     78.3677E-03    -64.5985E+06    -179.324E+06    -63.1362E+06     27.3237E+03    -53.1816E-03     106.323E-03    -53.1417E-03     9.41634E-03    -53.1545E-03     105.613E-03    -53.1037E-03     9.38277E-03
             597     1.70686E-03     78.3808E-03    -62.6059E+06    -175.744E+06    -57.5265E+06     177.473E+03    -53.2250E-03     106.398E-03    -53.1733E-03     17.2842E-03    -53.2045E-03     105.698E-03    -53.1153E-03     17.2227E-03
             598     2.56036E-03     78.4022E-03    -59.6256E+06    -170.258E+06    -49.1839E+06     368.035E+03    -53.2788E-03     106.478E-03    -53.1990E-03     25.3953E-03    -53.2692E-03     105.795E-03    -53.1116E-03     25.3019E-03
             599     3.41379E-03     78.4316E-03    -55.8402E+06    -163.594E+06    -39.4263E+06     462.549E+03    -53.3645E-03     106.587E-03    -53.2227E-03     33.3839E-03    -53.3686E-03     105.927E-03    -53.1016E-03     33.2532E-03
             600     4.26734E-03     78.4691E-03    -51.6740E+06    -152.151E+06    -31.5176E+06     577.855E+03    -53.4683E-03     106.695E-03    -53.2270E-03     41.1263E-03    -53.4921E-03     106.087E-03    -53.0891E-03     40.9530E-03
             601     5.12084E-03     78.5139E-03    -47.7326E+06    -141.068E+06    -23.8719E+06     649.377E+03    -53.5911E-03     106.820E-03    -53.2291E-03     48.5858E-03    -53.6395E-03     106.268E-03    -53.0747E-03     48.3635E-03
             602     5.97447E-03     78.5662E-03    -43.6399E+06    -134.941E+06    -14.7753E+06     752.720E+03    -53.7429E-03     106.988E-03    -53.2448E-03     55.6882E-03    -53.8158E-03     106.469E-03    -53.0597E-03     55.4103E-03
             603     6.82796E-03     78.6253E-03    -39.6259E+06    -126.091E+06    -8.46004E+06     781.893E+03    -53.8976E-03     107.140E-03    -53.2428E-03     62.4202E-03    -54.0024E-03     106.681E-03    -53.0448E-03     62.0780E-03
             604     7.68177E-03     78.6910E-03    -35.9187E+06    -114.830E+06    -4.46005E+06     781.798E+03    -54.0647E-03     107.291E-03    -53.2267E-03     68.7803E-03    -54.2120E-03     106.916E-03    -53.0304E-03     68.3649E-03
             605     8.53515E-03     78.7627E-03    -32.6352E+06    -101.774E+06    -2.32036E+06     899.208E+03    -54.2231E-03     107.423E-03    -53.2003E-03     74.7154E-03    -54.4262E-03     107.156E-03    -53.0170E-03     74.2193E-03
             606     9.38901E-03     78.8401E-03    -29.8132E+06    -86.3312E+06    -346.206E+03     825.919E+03    -54.3525E-03     107.523E-03    -53.1708E-03     80.1514E-03    -54.6309E-03     107.390E-03    -53.0041E-03     79.5629E-03
             607     10.2426E-03     78.9228E-03    -27.3718E+06    -69.5116E+06     804.113E+03     744.474E+03    -54.4558E-03     107.592E-03    -53.1362E-03     84.9426E-03    -54.8294E-03     107.619E-03    -52.9917E-03     84.2526E-03
             608     11.0961E-03     79.0094E-03    -25.3090E+06    -45.2660E+06     1.75682E+06     838.592E+03    -54.4948E-03     107.584E-03    -53.0897E-03     89.7357E-03    -55.0030E-03     107.837E-03    -52.9785E-03     88.9355E-03
             609     11.9503E-03     79.1019E-03    -23.4520E+06    -11.0183E+06     5.24233E+06     846.627E+03    -54.5713E-03     107.611E-03    -53.0397E-03     96.2833E-03    -55.2827E-03     108.185E-03    -52.9635E-03     95.3574E-03
             610     12.8033E-03     79.2010E-03    -21.5562E+06     45.6751E+06     8.32817E+06     867.843E+03    -54.6944E-03     107.647E-03    -52.9526E-03     105.618E-03    -55.7193E-03     108.733E-03    -52.9459E-03     104.557E-03
             611     13.6581E-03     79.3126E-03    -18.3150E+06     98.2313E+06     31.7884E+06     1.33913E+06    -54.7893E-03     107.757E-03    -52.9681E-03     114.653E-03    -56.1651E-03     109.325E-03    -52.9250E-03     113.525E-03
             612     14.5114E-03     79.4290E-03    -14.4602E+06     116.828E+06     64.2671E+06     1.46985E+06    -54.3676E-03     107.441E-03    -53.0734E-03     111.685E-03    -55.8863E-03     109.137E-03    -52.9005E-03     110.635E-03
             613     15.3660E-03     79.5357E-03    -10.0148E+06     125.752E+06     83.2166E+06     666.029E+03    -53.7179E-03     106.837E-03    -53.1190E-03     104.928E-03    -55.2876E-03     108.576E-03    -52.8707E-03     104.016E-03
             614     16.2211E-03     79.6372E-03    -5.06142E+06     126.656E+06      88.421E+06     214.544E+03    -53.0232E-03     106.129E-03    -53.1059E-03     77.4944E-03    -54.1680E-03     107.449E-03    -52.8401E-03     76.8509E-03
             615     853.422E-06     79.4215E-03    -64.7179E+06    -179.586E+06    -63.2500E+06     135.210E+03    -53.1920E-03     106.330E-03    -53.1380E-03     9.41999E-03    -53.1649E-03     105.619E-03    -53.1001E-03     9.38790E-03
             616     1.70691E-03     79.4348E-03    -62.8181E+06    -176.040E+06    -57.6715E+06     221.367E+03    -53.2175E-03     106.392E-03    -53.1747E-03     17.2601E-03    -53.1974E-03     105.691E-03    -53.1167E-03     17.1991E-03
             617     2.56032E-03     79.4561E-03    -59.8051E+06    -170.649E+06    -49.5335E+06     334.824E+03    -53.2806E-03     106.478E-03    -53.1977E-03     25.4018E-03    -53.2708E-03     105.794E-03    -53.1112E-03     25.3080E-03
             618     3.41384E-03     79.4856E-03    -55.9817E+06    -163.803E+06    -39.5415E+06     417.288E+03    -53.3615E-03     106.584E-03    -53.2222E-03     33.3930E-03    -53.3658E-03     105.923E-03    -53.1013E-03     33.2617E-03
             619     4.26730E-03     79.5229E-03    -51.8983E+06    -152.518E+06    -31.7777E+06     476.617E+03    -53.4607E-03     106.686E-03    -53.2253E-03     41.1347E-03    -53.4848E-03     106.077E-03    -53.0878E-03     40.9602E-03
             620     5.12091E-03     79.5679E-03    -47.8107E+06    -141.360E+06    -24.0640E+06     660.880E+03    -53.5885E-03     106.815E-03    -53.2266E-03     48.5802E-03    -53.6366E-03     106.262E-03    -53.0727E-03     48.3580E-03
             621     5.97441E-03     79.6201E-03    -43.8189E+06    -135.194E+06    -14.8940E+06     723.434E+03    -53.7355E-03     106.978E-03    -53.2424E-03     55.6877E-03    -53.8087E-03     106.459E-03    -53.0573E-03     55.4095E-03
             622     6.82811E-03     79.6792E-03    -39.7791E+06    -126.194E+06    -8.67206E+06     749.109E+03    -53.8949E-03     107.134E-03    -53.2394E-03     62.4246E-03    -54.0000E-03     106.675E-03    -53.0421E-03     62.0820E-03
             623     7.68154E-03     79.7448E-03    -36.1010E+06    -114.954E+06    -4.71762E+06     792.579E+03    -54.0551E-03     107.278E-03    -53.2228E-03     68.7855E-03    -54.2027E-03     106.903E-03    -53.0273E-03     68.3704E-03
             624     8.53544E-03     79.8167E-03    -32.7753E+06    -102.059E+06    -2.59421E+06     787.347E+03    -54.2266E-03     107.423E-03    -53.1964E-03     74.7312E-03    -54.4296E-03     107.155E-03    -53.0139E-03     74.2337E-03
             625     9.38883E-03     79.8941E-03    -29.8911E+06    -86.5558E+06    -582.739E+03     887.069E+03    -54.3487E-03     107.516E-03    -53.1672E-03     80.1307E-03    -54.6267E-03     107.382E-03    -53.0012E-03     79.5430E-03
             626     10.2427E-03     79.9766E-03    -27.6026E+06    -69.5392E+06     653.687E+03     930.174E+03    -54.4488E-03     107.582E-03    -53.1327E-03     84.9840E-03    -54.8233E-03     107.609E-03    -52.9886E-03     84.2965E-03
             627     11.0964E-03     80.0636E-03    -25.4561E+06    -45.3097E+06     1.72973E+06     946.649E+03    -54.5011E-03     107.588E-03    -53.0869E-03     89.7092E-03    -55.0100E-03     107.841E-03    -52.9757E-03     88.9100E-03
             628     11.9498E-03     80.1552E-03    -23.4613E+06    -11.3073E+06     5.05414E+06     1.14331E+06    -54.5458E-03     107.582E-03    -53.0358E-03     96.3448E-03    -55.2566E-03     108.154E-03    -52.9601E-03     95.4230E-03
             629     12.8042E-03     80.2558E-03    -21.7890E+06     45.6615E+06     8.62292E+06     1.03245E+06    -54.6870E-03     107.637E-03    -52.9500E-03     105.655E-03    -55.7136E-03     108.723E-03    -52.9415E-03     104.596E-03
             630     13.6576E-03     80.3653E-03    -19.7605E+06     97.7563E+06     31.2929E+06     769.842E+03    -54.7992E-03     107.764E-03    -52.9646E-03     114.610E-03    -56.1814E-03     109.332E-03    -52.9212E-03     113.474E-03
             631     14.5117E-03     80.4849E-03    -15.2685E+06     116.582E+06     63.1862E+06     1.06239E+06    -54.2535E-03     107.317E-03    -53.0640E-03     111.344E-03    -55.7745E-03     109.015E-03    -52.8949E-03     110.290E-03
             632     15.3660E-03     80.5869E-03    -9.62507E+06     126.020E+06     83.0902E+06     647.105E+03    -53.7354E-03     106.846E-03    -53.1105E-03     104.514E-03    -55.3019E-03     108.585E-03    -52.8638E-03     103.601E-03
             633     16.2190E-03     80.6937E-03    -4.75511E+06     127.202E+06     88.8273E+06     154.757E+03    -53.2300E-03     106.337E-03    -53.1066E-03     77.3810E-03    -54.3738E-03     107.657E-03    -52.8400E-03     76.7328E-03
             634     853.413E-06     80.4754E-03    -64.9459E+06    -180.038E+06    -63.4757E+06     272.192E+03    -53.2058E-03     106.357E-03    -53.1512E-03     9.42591E-03    -53.1788E-03     105.645E-03    -53.1133E-03     9.39553E-03
             635     1.70685E-03     80.4886E-03    -63.0465E+06    -176.291E+06    -57.7577E+06     363.318E+03    -53.2058E-03     106.389E-03    -53.1836E-03     17.2679E-03    -53.1864E-03     105.688E-03    -53.1253E-03     17.2088E-03
             636     2.56036E-03     80.5100E-03    -60.0331E+06    -170.787E+06    -49.4923E+06     238.388E+03    -53.2709E-03     106.471E-03    -53.2004E-03     25.3948E-03    -53.2621E-03     105.787E-03    -53.1131E-03     25.2998E-03
             637     3.41380E-03     80.5395E-03    -56.1175E+06    -164.174E+06    -39.9408E+06     298.927E+03    -53.3522E-03     106.572E-03    -53.2201E-03     33.3783E-03    -53.3561E-03     105.910E-03    -53.1004E-03     33.2454E-03
             638     4.26737E-03     80.5768E-03    -52.0293E+06    -152.763E+06    -31.9546E+06     484.937E+03    -53.4567E-03     106.679E-03    -53.2228E-03     41.1400E-03    -53.4808E-03     106.069E-03    -53.0856E-03     40.9656E-03
             639     5.12084E-03     80.6217E-03    -48.0486E+06    -141.727E+06    -24.3141E+06     517.968E+03    -53.5828E-03     106.806E-03    -53.2237E-03     48.5889E-03    -53.6312E-03     106.252E-03    -53.0701E-03     48.3649E-03
             640     5.97450E-03     80.6740E-03    -43.7936E+06    -135.383E+06    -15.0411E+06     657.559E+03    -53.7342E-03     106.973E-03    -53.2391E-03     55.6863E-03    -53.8068E-03     106.453E-03    -53.0545E-03     55.4072E-03
             641     6.82801E-03     80.7331E-03    -39.7367E+06    -126.410E+06    -8.66929E+06     726.012E+03    -53.8985E-03     107.136E-03    -53.2373E-03     62.4186E-03    -54.0031E-03     106.676E-03    -53.0397E-03     62.0757E-03
             642     7.68180E-03     80.7988E-03    -36.0344E+06    -115.054E+06    -4.83168E+06     752.966E+03    -54.0644E-03     107.285E-03    -53.2209E-03     68.7603E-03    -54.2115E-03     106.910E-03    -53.0260E-03     68.3445E-03
             643     8.53520E-03     80.8704E-03    -32.8486E+06    -102.342E+06    -2.79184E+06     791.760E+03    -54.2021E-03     107.396E-03    -53.1940E-03     74.7198E-03    -54.4047E-03     107.127E-03    -53.0120E-03     74.2226E-03
             644     9.38907E-03     80.9481E-03    -30.1142E+06    -86.9855E+06    -955.068E+03     883.306E+03    -54.3545E-03     107.518E-03    -53.1636E-03     80.1608E-03    -54.6326E-03     107.383E-03    -52.9986E-03     79.5729E-03
             645     10.2426E-03     81.0303E-03    -27.4879E+06    -69.5258E+06     709.820E+03     1.05623E+06    -54.4618E-03     107.593E-03    -53.1311E-03     84.9530E-03    -54.8360E-03     107.621E-03    -52.9869E-03     84.2665E-03
             646     11.0963E-03     81.1177E-03    -25.3477E+06    -45.5615E+06     1.70534E+06     1.15970E+06    -54.4773E-03     107.563E-03    -53.0852E-03     89.6430E-03    -54.9853E-03     107.814E-03    -52.9739E-03     88.8465E-03
             647     11.9502E-03     81.2092E-03    -23.5381E+06    -11.8501E+06     4.80867E+06     1.29494E+06    -54.5636E-03     107.597E-03    -53.0337E-03     96.2821E-03    -55.2740E-03     108.168E-03    -52.9583E-03     95.3613E-03
             648     12.8038E-03     81.3093E-03    -21.5578E+06     45.5033E+06     8.17703E+06     1.38617E+06    -54.7041E-03     107.651E-03    -52.9473E-03     105.649E-03    -55.7296E-03     108.738E-03    -52.9411E-03     104.594E-03
             649     13.6577E-03     81.4203E-03    -18.8007E+06     98.6331E+06     31.9163E+06     1.12546E+06    -54.7754E-03     107.740E-03    -52.9643E-03     114.648E-03    -56.1559E-03     109.311E-03    -52.9205E-03     113.517E-03
             650     14.5119E-03     81.5375E-03    -14.9799E+06       116.9E+06     63.8400E+06     147.857E+03    -54.3331E-03     107.401E-03    -53.0675E-03     111.121E-03    -55.8552E-03     109.099E-03    -52.8961E-03     110.052E-03
             651     15.3656E-03     81.6422E-03    -9.79885E+06     125.799E+06     82.6690E+06     223.369E+03    -53.7857E-03     106.900E-03    -53.1140E-03     104.616E-03    -55.3529E-03     108.639E-03    -52.8688E-03     103.695E-03
             652     16.2207E-03     81.7466E-03    -4.43575E+06     127.468E+06     88.7380E+06     535.658E+03    -53.1735E-03     106.283E-03    -53.1092E-03     77.8325E-03    -54.3165E-03     107.605E-03    -52.8439E-03     77.1904E-03
             653     853.422E-06     81.5293E-03    -65.2208E+06    -180.565E+06    -63.8854E+06     153.703E+03    -53.2058E-03     106.357E-03    -53.1507E-03     9.42452E-03    -53.1789E-03     105.642E-03    -53.1137E-03     9.39251E-03
             654     1.70688E-03     81.5425E-03    -62.9660E+06    -176.584E+06    -58.0456E+06     276.657E+03    -53.2166E-03     106.401E-03    -53.1845E-03     17.2746E-03    -53.1960E-03     105.698E-03    -53.1274E-03     17.2144E-03
             655     2.56029E-03     81.5639E-03    -60.0492E+06    -170.954E+06    -49.6727E+06     441.516E+03    -53.2596E-03     106.461E-03    -53.2014E-03     25.3980E-03    -53.2504E-03     105.776E-03    -53.1148E-03     25.3056E-03
             656     3.41384E-03     81.5933E-03    -56.6144E+06    -164.352E+06    -39.9365E+06     375.292E+03    -53.3431E-03     106.563E-03    -53.2198E-03     33.3843E-03    -53.3491E-03     105.900E-03    -53.0991E-03     33.2524E-03
             657     4.26732E-03     81.6307E-03    -52.4911E+06    -153.028E+06    -32.0752E+06     314.319E+03    -53.4489E-03     106.670E-03    -53.2209E-03     41.1461E-03    -53.4747E-03     106.059E-03    -53.0833E-03     40.9697E-03
             658     5.12096E-03     81.6757E-03    -48.1687E+06    -141.823E+06    -24.2993E+06     305.793E+03    -53.5811E-03     106.803E-03    -53.2215E-03     48.5829E-03    -53.6299E-03     106.247E-03    -53.0675E-03     48.3561E-03
             659     5.97446E-03     81.7278E-03    -44.0148E+06    -135.884E+06    -15.5128E+06     424.806E+03    -53.7439E-03     106.980E-03    -53.2362E-03     55.6761E-03    -53.8163E-03     106.459E-03    -53.0529E-03     55.3938E-03
             660     6.82812E-03     81.7870E-03    -39.9441E+06    -126.571E+06    -9.10546E+06     714.592E+03    -53.9100E-03     107.146E-03    -53.2356E-03     62.4030E-03    -54.0148E-03     106.686E-03    -53.0397E-03     62.0597E-03
             661     7.68157E-03     81.8526E-03    -36.2624E+06    -115.317E+06    -5.16995E+06     682.426E+03    -54.0565E-03     107.277E-03    -53.2202E-03     68.7445E-03    -54.2038E-03     106.901E-03    -53.0263E-03     68.3277E-03
             662     8.53538E-03     81.9245E-03    -32.9246E+06    -102.577E+06    -3.11212E+06     705.031E+03    -54.2008E-03     107.394E-03    -53.1928E-03     74.6910E-03    -54.4031E-03     107.124E-03    -53.0119E-03     74.1925E-03
             663     9.38899E-03     82.0016E-03    -29.9233E+06    -86.9600E+06    -942.860E+03     890.247E+03    -54.3539E-03     107.517E-03    -53.1631E-03     80.1729E-03    -54.6311E-03     107.382E-03    -52.9984E-03     79.5852E-03
             664     10.2427E-03     82.0849E-03    -27.4555E+06    -70.0494E+06     299.081E+03     1.01188E+06    -54.4551E-03     107.584E-03    -53.1292E-03     84.9411E-03    -54.8277E-03     107.610E-03    -52.9863E-03     84.2543E-03
             665     11.0963E-03     82.1710E-03    -25.1575E+06    -46.0696E+06     1.46535E+06     1.19785E+06    -54.4978E-03     107.582E-03    -53.0844E-03     89.6313E-03    -55.0041E-03     107.831E-03    -52.9738E-03     88.8346E-03
             666     11.9501E-03     82.2635E-03    -23.0263E+06    -12.2887E+06     4.64085E+06     1.45597E+06    -54.5889E-03     107.623E-03    -53.0341E-03     96.3129E-03    -55.2963E-03     108.192E-03    -52.9597E-03     95.3937E-03
             667     12.8037E-03     82.3633E-03    -21.0739E+06     45.8336E+06     8.52382E+06     1.41819E+06    -54.6920E-03     107.641E-03    -52.9492E-03     105.720E-03    -55.7159E-03     108.728E-03    -52.9424E-03     104.667E-03
             668     13.6580E-03     82.4738E-03    -18.2538E+06     99.3623E+06     32.2802E+06     793.453E+03    -54.7311E-03     107.695E-03    -52.9636E-03     114.648E-03    -56.1096E-03     109.268E-03    -52.9198E-03     113.515E-03
             669     14.5114E-03     82.5924E-03    -14.0347E+06     117.712E+06     64.5892E+06     280.713E+03    -54.3209E-03     107.387E-03    -53.0659E-03     111.317E-03    -55.8391E-03     109.086E-03    -52.8933E-03     110.253E-03
             670     15.3657E-03     82.6953E-03    -9.73875E+06     125.793E+06     82.9180E+06     395.524E+03    -53.8947E-03     107.009E-03    -53.1144E-03     104.741E-03    -55.4614E-03     108.747E-03    -52.8681E-03     103.820E-03
             671     16.2193E-03     82.8008E-03    -4.81896E+06     127.036E+06     87.9279E+06     334.969E+03    -53.0439E-03     106.149E-03    -53.1052E-03     77.8129E-03    -54.1872E-03     107.471E-03    -52.8428E-03     77.1663E-03
             672     853.459E-06     82.5832E-03    -64.7283E+06    -180.427E+06    -64.0041E+06    -452.372E+03    -53.1861E-03     106.351E-03    -53.1651E-03     9.43062E-03    -53.1567E-03     105.637E-03    -53.1297E-03     9.39080E-03
             673     1.70683E-03     82.5964E-03    -63.1557E+06    -177.280E+06    -58.9466E+06     59.8770E+03    -53.2114E-03     106.389E-03    -53.1775E-03     17.2675E-03    -53.1893E-03     105.684E-03    -53.1236E-03     17.2044E-03
             674     2.56037E-03     82.6178E-03    -60.4313E+06    -171.650E+06    -50.3537E+06     697.457E+03    -53.2591E-03     106.455E-03    -53.1957E-03     25.3993E-03    -53.2498E-03     105.768E-03    -53.1109E-03     25.3102E-03
             675     3.41383E-03     82.6472E-03    -56.6844E+06    -164.091E+06    -39.5680E+06     687.181E+03    -53.3453E-03     106.564E-03    -53.2188E-03     33.3889E-03    -53.3527E-03     105.902E-03    -53.0965E-03     33.2611E-03
             676     4.26739E-03     82.6846E-03    -52.4892E+06    -152.726E+06    -31.6007E+06     77.1780E+03    -53.4568E-03     106.679E-03    -53.2220E-03     41.1290E-03    -53.4837E-03     106.069E-03    -53.0824E-03     40.9493E-03
             677     5.12088E-03     82.7295E-03    -48.3484E+06    -142.262E+06    -24.6579E+06     101.027E+03    -53.5895E-03     106.811E-03    -53.2214E-03     48.5646E-03    -53.6381E-03     106.254E-03    -53.0683E-03     48.3352E-03
             678     5.97449E-03     82.7818E-03    -44.3728E+06    -136.270E+06    -15.8887E+06     456.553E+03    -53.7477E-03     106.985E-03    -53.2371E-03     55.6533E-03    -53.8208E-03     106.463E-03    -53.0546E-03     55.3713E-03
             679     6.82801E-03     82.8408E-03    -40.4219E+06    -126.866E+06    -9.68659E+06     494.177E+03    -53.8966E-03     107.132E-03    -53.2350E-03     62.4089E-03    -54.0025E-03     106.672E-03    -53.0408E-03     62.0628E-03
             680     7.68173E-03     82.9067E-03    -36.5201E+06    -115.235E+06    -5.54160E+06     475.528E+03    -54.0602E-03     107.279E-03    -53.2191E-03     68.7437E-03    -54.2084E-03     106.905E-03    -53.0268E-03     68.3242E-03
             681     8.53532E-03     82.9780E-03    -33.0038E+06    -102.697E+06    -3.32438E+06     460.391E+03    -54.2313E-03     107.426E-03    -53.1943E-03     74.6711E-03    -54.4336E-03     107.156E-03    -53.0141E-03     74.1688E-03
             682     9.38887E-03     83.0561E-03    -29.9112E+06    -87.5452E+06    -1.39237E+06     572.898E+03    -54.3263E-03     107.490E-03    -53.1640E-03     80.1699E-03    -54.6018E-03     107.353E-03    -53.0006E-03     79.5785E-03
             683     10.2427E-03     83.1380E-03    -27.0635E+06    -70.3714E+06     216.894E+03     783.349E+03    -54.4291E-03     107.557E-03    -53.1283E-03     84.9779E-03    -54.7990E-03     107.581E-03    -52.9859E-03     84.2891E-03
             684     11.0963E-03     83.2256E-03    -24.6542E+06    -46.4505E+06     1.33115E+06     962.770E+03    -54.5430E-03     107.626E-03    -53.0835E-03     89.6583E-03    -55.0467E-03     107.874E-03    -52.9737E-03     88.8574E-03
             685     11.9499E-03     83.3169E-03    -22.4311E+06    -12.8358E+06     4.58534E+06     1.28980E+06    -54.5707E-03     107.605E-03    -53.0345E-03     96.2862E-03    -55.2741E-03     108.170E-03    -52.9604E-03     95.3653E-03
             686     12.8041E-03     83.4175E-03    -20.1773E+06     45.7098E+06     8.58207E+06     1.53329E+06    -54.6499E-03     107.597E-03    -52.9466E-03     105.822E-03    -55.6686E-03     108.681E-03    -52.9407E-03     104.772E-03
             687     13.6573E-03     83.5280E-03    -17.9245E+06     100.183E+06     32.4077E+06     917.377E+03    -54.6945E-03     107.652E-03    -52.9578E-03     114.764E-03    -56.0719E-03     109.228E-03    -52.9151E-03     113.634E-03
             688     14.5123E-03     83.6457E-03    -14.7455E+06     117.729E+06     63.8015E+06     523.670E+03    -54.2747E-03     107.331E-03    -53.0558E-03     111.314E-03    -55.7922E-03     109.029E-03    -52.8861E-03     110.256E-03
             689     15.3661E-03     83.7501E-03    -9.57883E+06     125.742E+06     82.5573E+06     787.791E+03    -53.7805E-03     106.881E-03    -53.1009E-03     104.974E-03    -55.3450E-03     108.619E-03    -52.8565E-03     104.063E-03
             690     16.2198E-03     83.8551E-03    -4.56316E+06     127.712E+06     88.4002E+06     243.821E+03    -53.2104E-03     106.306E-03    -53.0956E-03     78.1502E-03    -54.3565E-03     107.633E-03    -52.8322E-03     77.5018E-03
             691     853.374E-06     83.6371E-03    -67.1467E+06    -179.463E+06    -65.5718E+06    -813.436E+03    -53.1568E-03     106.319E-03    -53.1618E-03     9.45053E-03    -53.1387E-03     105.615E-03    -53.1321E-03     9.40611E-03
             692     1.70693E-03     83.6503E-03    -64.8765E+06    -178.341E+06    -59.5520E+06    -100.711E+03    -53.2028E-03     106.375E-03    -53.1718E-03     17.2631E-03    -53.1869E-03     105.668E-03    -53.1169E-03     17.1979E-03
             693     2.56033E-03     83.6717E-03    -61.7062E+06    -172.729E+06    -51.1367E+06     686.868E+03    -53.2701E-03     106.463E-03    -53.1925E-03     25.3736E-03    -53.2645E-03     105.773E-03    -53.1082E-03     25.2843E-03
             694     3.41385E-03     83.7011E-03    -57.8459E+06    -163.495E+06    -42.1141E+06     552.995E+03    -53.3536E-03     106.562E-03    -53.2084E-03     33.3703E-03    -53.3639E-03     105.909E-03    -53.0980E-03     33.2407E-03
             695     4.26732E-03     83.7385E-03    -53.6345E+06    -151.970E+06    -33.9990E+06    -158.883E+03    -53.4594E-03     106.673E-03    -53.2137E-03     41.1138E-03    -53.4897E-03     106.072E-03    -53.0855E-03     40.9309E-03
             696     5.12090E-03     83.7834E-03    -49.4579E+06    -143.092E+06    -25.2517E+06    -91.0956E+03    -53.5892E-03     106.814E-03    -53.2247E-03     48.5675E-03    -53.6413E-03     106.256E-03    -53.0717E-03     48.3355E-03
             697     5.97443E-03     83.8356E-03    -45.0906E+06    -136.467E+06    -16.1381E+06     247.023E+03    -53.7405E-03     106.981E-03    -53.2400E-03     55.6740E-03    -53.8164E-03     106.459E-03    -53.0575E-03     55.3894E-03
             698     6.82805E-03     83.8948E-03    -40.7466E+06    -126.868E+06    -9.93906E+06     158.013E+03    -53.8994E-03     107.136E-03    -53.2367E-03     62.3708E-03    -54.0066E-03     106.677E-03    -53.0433E-03     62.0202E-03
             699     7.68169E-03     83.9603E-03    -36.7851E+06    -115.243E+06    -5.95932E+06     51.8460E+03    -54.0670E-03     107.287E-03    -53.2204E-03     68.7346E-03    -54.2159E-03     106.914E-03    -53.0298E-03     68.3096E-03
             700     8.53517E-03     84.0324E-03    -33.2144E+06    -102.780E+06    -3.79647E+06    -16.2660E+03    -54.2131E-03     107.408E-03    -53.1945E-03     74.6961E-03    -54.4156E-03     107.138E-03    -53.0163E-03     74.1880E-03
             701     9.38903E-03     84.1093E-03    -29.9692E+06    -87.8887E+06    -1.82684E+06     40.0298E+03    -54.3234E-03     107.487E-03    -53.1634E-03     80.1555E-03    -54.5981E-03     107.348E-03    -53.0016E-03     79.5572E-03
             702     10.2426E-03     84.1925E-03    -27.1393E+06    -71.0751E+06    -407.848E+03     269.036E+03    -54.4415E-03     107.569E-03    -53.1274E-03     85.0399E-03    -54.8101E-03     107.590E-03    -52.9870E-03     84.3440E-03
             703     11.0963E-03     84.2791E-03    -24.5850E+06    -46.7090E+06     1.07181E+06     525.784E+03    -54.5325E-03     107.616E-03    -53.0833E-03     89.6970E-03    -55.0350E-03     107.862E-03    -52.9746E-03     88.8910E-03
             704     11.9501E-03     84.3714E-03    -22.2109E+06    -13.1573E+06     4.57273E+06     932.223E+03    -54.5936E-03     107.629E-03    -53.0359E-03     96.1579E-03    -55.2958E-03     108.193E-03    -52.9618E-03     95.2311E-03
             705     12.8036E-03     84.4708E-03    -20.1645E+06     44.8037E+06     7.81738E+06     1.29751E+06    -54.5942E-03     107.539E-03    -52.9447E-03     105.692E-03    -55.6104E-03     108.620E-03    -52.9413E-03     104.638E-03
             706     13.6586E-03     84.5822E-03    -17.7169E+06     100.525E+06     32.0676E+06     1.59925E+06    -54.6769E-03     107.631E-03    -52.9540E-03     114.612E-03    -56.0527E-03     109.208E-03    -52.9137E-03     113.491E-03
             707     14.5115E-03     84.6996E-03    -14.0731E+06     118.684E+06     64.1002E+06     1.11423E+06    -54.3862E-03     107.443E-03    -53.0570E-03     111.099E-03    -55.9051E-03     109.148E-03    -52.8882E-03     110.042E-03
             708     15.3657E-03     84.8039E-03    -9.37571E+06     125.773E+06     82.2840E+06     35.2851E+03    -53.8633E-03     106.972E-03    -53.1085E-03     103.932E-03    -55.4256E-03     108.709E-03    -52.8659E-03     103.004E-03
             709     16.2215E-03     84.9078E-03    -4.71303E+06     127.765E+06     88.2589E+06     207.542E+03    -53.2381E-03     106.348E-03    -53.1098E-03     77.2656E-03    -54.3809E-03     107.672E-03    -52.8469E-03     76.6146E-03
             710     853.518E-06     84.6909E-03    -69.5083E+06    -178.384E+06    -66.8905E+06    -566.681E+03    -53.1631E-03     106.293E-03    -53.1298E-03     9.42381E-03    -53.1564E-03     105.600E-03    -53.1048E-03     9.38259E-03
             711     1.70685E-03     84.7042E-03    -66.7119E+06    -179.223E+06    -59.7900E+06    -179.982E+03    -53.2120E-03     106.386E-03    -53.1741E-03     17.2509E-03    -53.2037E-03     105.678E-03    -53.1165E-03     17.1846E-03
             712     2.56036E-03     84.7255E-03    -62.8777E+06    -173.683E+06    -51.8731E+06     316.309E+03    -53.2782E-03     106.475E-03    -53.1969E-03     25.3692E-03    -53.2760E-03     105.784E-03    -53.1132E-03     25.2751E-03
             713     3.41378E-03     84.7550E-03    -58.8117E+06    -162.677E+06    -44.4956E+06     114.548E+03    -53.3584E-03     106.561E-03    -53.2030E-03     33.3746E-03    -53.3713E-03     105.917E-03    -53.1043E-03     33.2393E-03
             714     4.26733E-03     84.7924E-03    -54.8329E+06    -151.163E+06    -36.3314E+06    -589.668E+03    -53.4542E-03     106.662E-03    -53.2083E-03     41.1133E-03    -53.4882E-03     106.071E-03    -53.0912E-03     40.9249E-03
             715     5.12086E-03     84.8373E-03    -50.4043E+06    -143.743E+06    -25.7838E+06    -637.763E+03    -53.5828E-03     106.812E-03    -53.2287E-03     48.5634E-03    -53.6379E-03     106.252E-03    -53.0761E-03     48.3243E-03
             716     5.97445E-03     84.8896E-03    -45.7244E+06    -136.584E+06    -16.5158E+06    -330.552E+03    -53.7412E-03     106.984E-03    -53.2430E-03     55.6631E-03    -53.8197E-03     106.463E-03    -53.0612E-03     55.3710E-03
             717     6.82803E-03     84.9486E-03    -41.2174E+06    -126.705E+06    -10.5810E+06     -381.77E+03    -53.9187E-03     107.157E-03    -53.2387E-03     62.3822E-03    -54.0276E-03     106.701E-03    -53.0481E-03     62.0245E-03
             718     7.68150E-03     85.0144E-03    -37.0351E+06    -115.183E+06    -6.58306E+06    -545.836E+03    -54.0485E-03     107.271E-03    -53.2221E-03     68.7244E-03    -54.1979E-03     106.899E-03    -53.0343E-03     68.2916E-03
             719     8.53543E-03     85.0859E-03    -33.3453E+06    -102.924E+06    -4.35137E+06    -659.906E+03    -54.1927E-03     107.387E-03    -53.1944E-03     74.6841E-03    -54.3947E-03     107.118E-03    -53.0185E-03     74.1680E-03
             720     9.38884E-03     85.1637E-03    -30.1752E+06    -88.1155E+06    -2.44504E+06    -596.169E+03    -54.3699E-03     107.534E-03    -53.1641E-03     80.1091E-03    -54.6446E-03     107.396E-03    -53.0048E-03     79.5016E-03
             721     10.2426E-03     85.2459E-03    -27.3272E+06    -71.4160E+06    -987.931E+03    -352.622E+03    -54.4515E-03     107.582E-03    -53.1309E-03     84.9575E-03    -54.8199E-03     107.603E-03    -52.9926E-03     84.2527E-03
             722     11.0963E-03     85.3335E-03    -24.7654E+06    -47.2803E+06     477.591E+03     61.3364E+03    -54.5012E-03     107.587E-03    -53.0860E-03     89.7042E-03    -55.0024E-03     107.831E-03    -52.9791E-03     88.8932E-03
             723     11.9499E-03     85.4249E-03    -22.4991E+06    -13.9046E+06     3.87661E+06     451.084E+03    -54.6082E-03     107.646E-03    -53.0375E-03     96.1272E-03    -55.3105E-03     108.207E-03    -52.9653E-03     95.1934E-03
             724     12.8040E-03     85.5251E-03    -20.5831E+06     44.2988E+06     7.18450E+06      1.2321E+06    -54.6932E-03     107.644E-03    -52.9504E-03     105.483E-03    -55.7106E-03     108.724E-03    -52.9489E-03     104.425E-03
             725     13.6571E-03     85.6353E-03    -18.1286E+06     100.123E+06     31.0707E+06     1.58289E+06    -54.6600E-03     107.620E-03    -52.9604E-03     114.582E-03    -56.0358E-03     109.197E-03    -52.9240E-03     113.461E-03
             726     14.5121E-03     85.7544E-03    -13.9633E+06     119.270E+06     64.2767E+06     1.17637E+06    -54.3328E-03     107.397E-03    -53.0641E-03     111.374E-03    -55.8531E-03     109.105E-03    -52.8954E-03     110.320E-03
             727     15.3656E-03     85.8575E-03    -9.58342E+06     126.631E+06     83.0171E+06     862.650E+03    -54.1634E-03     107.286E-03    -53.1230E-03     104.881E-03    -55.7359E-03     109.034E-03    -52.8776E-03     103.958E-03
             728     16.2165E-03     85.9633E-03    -4.88906E+06     127.886E+06     88.2328E+06     327.604E+03    -53.0718E-03     106.194E-03    -53.1224E-03     78.1603E-03    -54.2217E-03     107.525E-03    -52.8596E-03     77.5108E-03
             729     853.383E-06     85.7448E-03    -69.0674E+06    -178.083E+06    -66.5242E+06     294.774E+03    -53.2058E-03     106.323E-03    -53.1168E-03     9.42125E-03    -53.1979E-03     105.630E-03    -53.0911E-03     9.39136E-03
             730     1.70689E-03     85.7581E-03    -66.6957E+06    -179.451E+06    -60.1659E+06     65.3397E+03    -53.2202E-03     106.405E-03    -53.1851E-03     17.2363E-03    -53.2109E-03     105.697E-03    -53.1290E-03     17.1732E-03
             731     2.56029E-03     85.7794E-03    -63.1140E+06    -173.750E+06    -52.0407E+06    -264.395E+03    -53.2790E-03     106.485E-03    -53.2064E-03     25.3740E-03    -53.2776E-03     105.794E-03    -53.1231E-03     25.2723E-03
             732     3.41380E-03     85.8089E-03    -58.7492E+06    -161.977E+06    -43.8703E+06    -670.258E+03    -53.3559E-03     106.568E-03    -53.2125E-03     33.3809E-03    -53.3704E-03     105.927E-03    -53.1118E-03     33.2353E-03
             733     4.26729E-03     85.8462E-03    -54.3751E+06    -150.437E+06    -35.7019E+06    -1.02906E+06    -53.4599E-03     106.676E-03    -53.2161E-03     41.1091E-03    -53.4937E-03     106.086E-03    -53.0976E-03     40.9148E-03
             734     5.12082E-03     85.8912E-03    -50.2979E+06    -144.000E+06    -26.2080E+06    -1.07392E+06    -53.5957E-03     106.829E-03    -53.2335E-03     48.5514E-03    -53.6493E-03     106.269E-03    -53.0829E-03     48.3065E-03
             735     5.97440E-03     85.9434E-03    -45.9641E+06    -136.710E+06    -17.2349E+06    -926.143E+03    -53.7517E-03     106.999E-03    -53.2474E-03     55.6591E-03    -53.8301E-03     106.479E-03    -53.0687E-03     55.3591E-03
             736     6.82792E-03     86.0027E-03    -41.4654E+06    -126.324E+06    -11.3125E+06    -1.12081E+06    -53.8957E-03     107.136E-03    -53.2407E-03     62.3808E-03    -54.0053E-03     106.683E-03    -53.0540E-03     62.0137E-03
             737     7.68170E-03     86.0681E-03    -37.2602E+06    -115.003E+06    -7.36067E+06    -1.34723E+06    -54.0605E-03     107.284E-03    -53.2230E-03     68.6922E-03    -54.2103E-03     106.914E-03    -53.0390E-03     68.2488E-03
             738     8.53506E-03     86.1400E-03    -33.5652E+06    -102.879E+06    -5.06879E+06    -1.36683E+06    -54.2261E-03     107.424E-03    -53.1977E-03     74.6486E-03    -54.4284E-03     107.156E-03    -53.0252E-03     74.1227E-03
             739     9.38897E-03     86.2174E-03    -30.2615E+06    -88.3500E+06    -3.08275E+06    -1.30954E+06    -54.3731E-03     107.542E-03    -53.1692E-03     80.1461E-03    -54.6472E-03     107.404E-03    -53.0126E-03     79.5292E-03
             740     10.2424E-03     86.3002E-03    -27.3870E+06    -71.7944E+06    -1.56663E+06    -943.124E+03    -54.4847E-03     107.622E-03    -53.1372E-03     84.9360E-03    -54.8523E-03     107.642E-03    -53.0012E-03     84.2230E-03
             741     11.0961E-03     86.3869E-03    -25.0359E+06    -48.0955E+06    -386.530E+03    -446.859E+03    -54.4682E-03     107.560E-03    -53.0913E-03     89.6702E-03    -54.9683E-03     107.801E-03    -52.9872E-03     88.8531E-03
             742     11.9501E-03     86.4794E-03    -23.1423E+06    -15.0935E+06     2.93067E+06     452.446E+03    -54.5602E-03     107.600E-03    -53.0398E-03     96.2405E-03    -55.2620E-03     108.158E-03    -52.9697E-03     95.3085E-03
             743     12.8034E-03     86.5787E-03    -21.3011E+06     43.5513E+06     5.76596E+06     1.07653E+06    -54.7244E-03     107.673E-03    -52.9484E-03     105.679E-03    -55.7433E-03     108.754E-03    -52.9518E-03     104.619E-03
             744     13.6579E-03     86.6899E-03    -18.5030E+06     100.016E+06     29.9515E+06     1.12441E+06    -54.7128E-03     107.673E-03    -52.9602E-03     114.747E-03    -56.0895E-03     109.252E-03    -52.9287E-03     113.618E-03
             745     14.5115E-03     86.8071E-03    -14.8059E+06     119.235E+06     63.6069E+06     1.31857E+06    -54.2435E-03     107.308E-03    -53.0649E-03     111.588E-03    -55.7663E-03     109.017E-03    -52.8983E-03     110.539E-03
             746     15.3658E-03     86.9130E-03    -9.85965E+06     127.367E+06     83.2241E+06     1.11250E+06    -53.6896E-03     106.800E-03    -53.1101E-03     105.103E-03    -55.2619E-03     108.548E-03    -52.8644E-03     104.197E-03
             747     16.2230E-03     87.0169E-03    -4.64564E+06     128.679E+06     88.9711E+06     290.243E+03    -53.1348E-03     106.235E-03    -53.1007E-03     77.8142E-03    -54.2817E-03     107.565E-03    -52.8357E-03     77.1697E-03
             748     853.450E-06     86.7988E-03    -68.9143E+06    -178.541E+06    -67.4321E+06     196.674E+03    -53.2123E-03     106.349E-03    -53.1366E-03     9.43796E-03    -53.2016E-03     105.655E-03    -53.1150E-03     9.40673E-03
             749     1.70680E-03     86.8119E-03    -66.0715E+06    -179.249E+06    -60.4923E+06     89.5678E+03    -53.2273E-03     106.421E-03    -53.1940E-03     17.2564E-03    -53.2148E-03     105.713E-03    -53.1408E-03     17.1936E-03
             750     2.56029E-03     86.8334E-03    -62.6430E+06    -172.688E+06    -51.5904E+06    -630.414E+03    -53.2889E-03     106.505E-03    -53.2161E-03     25.3947E-03    -53.2874E-03     105.818E-03    -53.1328E-03     25.2882E-03
             751     3.41374E-03     86.8628E-03    -58.5908E+06    -161.076E+06    -43.3123E+06    -1.48406E+06    -53.3634E-03     106.587E-03    -53.2233E-03     33.3741E-03    -53.3793E-03     105.948E-03    -53.1214E-03     33.2179E-03
             752     4.26726E-03     86.9002E-03    -54.4601E+06    -150.342E+06    -35.7137E+06    -1.46501E+06    -53.4651E-03     106.690E-03    -53.2253E-03     41.0894E-03    -53.4995E-03     106.101E-03    -53.1069E-03     40.8894E-03
             753     5.12080E-03     86.9450E-03    -50.3926E+06    -143.948E+06    -26.2086E+06    -1.17520E+06    -53.6099E-03     106.853E-03    -53.2430E-03     48.5458E-03    -53.6641E-03     106.293E-03    -53.0923E-03     48.2994E-03
             754     5.97429E-03     86.9974E-03    -46.0912E+06    -136.327E+06    -17.7988E+06    -1.50078E+06    -53.7466E-03     107.000E-03    -53.2531E-03     55.6546E-03    -53.8254E-03     106.483E-03    -53.0776E-03     55.3472E-03
             755     6.82796E-03     87.0564E-03    -41.6670E+06    -125.681E+06    -12.2464E+06    -1.92886E+06    -53.8961E-03     107.139E-03    -53.2431E-03     62.3626E-03    -54.0063E-03     106.691E-03    -53.0617E-03     61.9849E-03
             756     7.68145E-03     87.1221E-03    -37.5103E+06    -114.757E+06    -8.26093E+06    -2.23753E+06    -54.0748E-03     107.301E-03    -53.2262E-03     68.6988E-03    -54.2248E-03     106.934E-03    -53.0467E-03     68.2437E-03
             757     8.53524E-03     87.1939E-03    -33.6945E+06    -102.724E+06    -5.93657E+06    -2.27073E+06    -54.2479E-03     107.450E-03    -53.2020E-03     74.6712E-03    -54.4500E-03     107.185E-03    -53.0339E-03     74.1332E-03
             758     9.38863E-03     87.2713E-03    -30.4481E+06    -88.5862E+06    -3.92923E+06    -2.01794E+06    -54.3545E-03     107.528E-03    -53.1736E-03     80.1695E-03    -54.6279E-03     107.390E-03    -53.0206E-03     79.5437E-03
             759     10.2426E-03     87.3541E-03    -27.6505E+06    -72.6843E+06    -2.65766E+06    -1.60182E+06    -54.4303E-03     107.568E-03    -53.1374E-03     85.0526E-03    -54.7959E-03     107.585E-03    -53.0052E-03     84.3325E-03
             760     11.0960E-03     87.4411E-03    -25.2768E+06    -48.9189E+06    -1.21894E+06    -759.086E+03    -54.4923E-03     107.583E-03    -53.0906E-03     89.7762E-03    -54.9916E-03     107.822E-03    -52.9891E-03     88.9547E-03
             761     11.9498E-03     87.5326E-03    -22.8752E+06    -16.3495E+06     2.20938E+06     141.569E+03    -54.5235E-03     107.562E-03    -53.0385E-03     96.3746E-03    -55.2207E-03     108.114E-03    -52.9706E-03     95.4401E-03
             762     12.8041E-03     87.6334E-03    -20.5834E+06     42.9898E+06     5.60638E+06     893.063E+03    -54.6464E-03     107.590E-03    -52.9437E-03     105.741E-03    -55.6598E-03     108.667E-03    -52.9481E-03     104.681E-03
             763     13.6575E-03     87.7431E-03    -18.6251E+06     99.8795E+06     29.6035E+06     1.27292E+06    -54.7832E-03     107.738E-03    -52.9549E-03     114.715E-03    -56.1611E-03     109.319E-03    -52.9247E-03     113.586E-03
             764     14.5116E-03     87.8622E-03    -14.7835E+06     119.189E+06     62.9399E+06     1.18101E+06    -54.3395E-03     107.402E-03    -53.0629E-03     111.498E-03    -55.8631E-03     109.114E-03    -52.8996E-03     110.444E-03
             765     15.3660E-03     87.9652E-03    -9.62768E+06     127.757E+06     82.8027E+06     773.338E+03    -53.6622E-03     106.774E-03    -53.1116E-03     104.294E-03    -55.2283E-03     108.519E-03    -52.8689E-03     103.384E-03
             766     16.2179E-03     88.0708E-03    -4.38578E+06     129.008E+06     88.9481E+06     316.835E+03    -53.0032E-03     106.105E-03    -53.1016E-03     77.3423E-03    -54.1440E-03     107.430E-03    -52.8376E-03     76.6996E-03
             767     853.386E-06     87.8527E-03    -69.0626E+06    -178.079E+06    -67.4709E+06    -722.193E+03    -53.1939E-03     106.369E-03    -53.1755E-03     9.42062E-03    -53.1846E-03     105.678E-03    -53.1545E-03     9.37732E-03
             768     1.70686E-03     87.8659E-03    -66.5148E+06    -179.274E+06    -61.2396E+06    -615.870E+03    -53.2369E-03     106.439E-03    -53.2022E-03     17.2542E-03    -53.2255E-03     105.733E-03    -53.1520E-03     17.1823E-03
             769     2.56027E-03     87.8872E-03    -63.0768E+06    -171.051E+06    -53.6428E+06    -1.00440E+06    -53.3009E-03     106.516E-03    -53.2156E-03     25.3912E-03    -53.3009E-03     105.841E-03    -53.1443E-03     25.2798E-03
             770     3.41370E-03     87.9168E-03    -59.3527E+06    -159.738E+06    -45.2593E+06    -1.92052E+06    -53.3689E-03     106.593E-03    -53.2242E-03     33.3643E-03    -53.3877E-03     105.965E-03    -53.1329E-03     33.2024E-03
             771     4.26720E-03     87.9540E-03    -55.3898E+06    -150.819E+06    -36.0018E+06    -1.85868E+06    -53.4758E-03     106.713E-03    -53.2373E-03     41.1010E-03    -53.5137E-03     106.123E-03    -53.1183E-03     40.8958E-03
             772     5.12070E-03     87.9991E-03    -50.9453E+06    -143.599E+06    -26.2370E+06    -1.63501E+06    -53.6042E-03     106.858E-03    -53.2538E-03     48.5485E-03    -53.6616E-03     106.301E-03    -53.1029E-03     48.2963E-03
             773     5.97429E-03     88.0512E-03    -46.2916E+06    -135.228E+06    -18.1956E+06    -2.12990E+06    -53.7448E-03     107.004E-03    -53.2588E-03     55.6361E-03    -53.8256E-03     106.493E-03    -53.0865E-03     55.3204E-03
             774     6.82784E-03     88.1104E-03    -41.7558E+06    -124.743E+06    -13.1323E+06    -2.89419E+06    -53.9114E-03     107.158E-03    -53.2462E-03     62.3899E-03    -54.0221E-03     106.715E-03    -53.0704E-03     61.9996E-03
             775     7.68148E-03     88.1761E-03    -37.4966E+06    -114.290E+06    -9.20833E+06    -3.25948E+06    -54.0742E-03     107.304E-03    -53.2293E-03     68.7278E-03    -54.2234E-03     106.941E-03    -53.0553E-03     68.2596E-03
             776     8.53500E-03     88.2477E-03    -33.7945E+06    -102.835E+06    -6.92267E+06    -3.17320E+06    -54.2177E-03     107.421E-03    -53.2034E-03     74.7218E-03    -54.4186E-03     107.157E-03    -53.0399E-03     74.1726E-03
             777     9.38878E-03     88.3254E-03    -30.5142E+06    -88.8980E+06    -4.92566E+06    -2.88652E+06    -54.3251E-03     107.497E-03    -53.1716E-03     80.2237E-03    -54.5967E-03     107.359E-03    -53.0231E-03     79.5874E-03
             778     10.2423E-03     88.4076E-03    -27.5977E+06    -73.1879E+06    -3.46832E+06    -2.27768E+06    -54.3698E-03     107.502E-03    -53.1323E-03     85.0803E-03    -54.7331E-03     107.518E-03    -53.0035E-03     84.3526E-03
             779     11.0965E-03     88.4951E-03    -24.9634E+06    -50.1935E+06    -2.18049E+06    -1.35727E+06    -54.4562E-03     107.538E-03    -53.0814E-03     89.8896E-03    -54.9503E-03     107.771E-03    -52.9833E-03     89.0618E-03
             780     11.9499E-03     88.5868E-03    -22.8212E+06    -17.4608E+06     1.21783E+06    -528.274E+03    -54.6019E-03     107.632E-03    -53.0305E-03     96.3844E-03    -55.2966E-03     108.181E-03    -52.9660E-03     95.4393E-03
             781     12.8036E-03     88.6865E-03    -20.9299E+06     41.5956E+06     4.49318E+06     552.817E+03    -54.6702E-03     107.610E-03    -52.9397E-03     105.742E-03    -55.6819E-03     108.682E-03    -52.9472E-03     104.677E-03
             782     13.6578E-03     88.7981E-03    -18.0592E+06     99.5277E+06     28.8961E+06     1.50599E+06    -54.7559E-03     107.706E-03    -52.9498E-03     114.775E-03    -56.1294E-03     109.285E-03    -52.9234E-03     113.650E-03
             783     14.5118E-03     88.9152E-03    -14.3909E+06     119.746E+06     62.5037E+06     1.05589E+06    -54.4221E-03     107.482E-03    -53.0595E-03     111.499E-03    -55.9435E-03     109.196E-03    -52.8997E-03     110.442E-03
             784     15.3651E-03     89.0206E-03    -9.51793E+06     128.022E+06     82.5389E+06     484.056E+03    -53.8365E-03     106.953E-03    -53.1164E-03     104.617E-03    -55.4060E-03     108.704E-03    -52.8755E-03     103.697E-03
             785     16.2212E-03     89.1238E-03    -4.06027E+06     129.510E+06     89.0420E+06     530.279E+03    -52.9366E-03     106.046E-03    -53.1092E-03     78.0990E-03    -54.0839E-03     107.380E-03    -52.8459E-03     77.4569E-03
             786     853.391E-06     88.9067E-03    -69.2889E+06    -176.876E+06    -66.5955E+06    -253.185E+03    -53.2234E-03     106.409E-03    -53.1854E-03     9.41191E-03    -53.2183E-03     105.723E-03    -53.1614E-03     9.37465E-03
             787     1.70677E-03     88.9198E-03    -66.8745E+06    -178.615E+06    -60.8480E+06    -1.00199E+06    -53.2596E-03     106.485E-03    -53.2252E-03     17.2414E-03    -53.2515E-03     105.782E-03    -53.1735E-03     17.1644E-03
             788     2.56018E-03     88.9413E-03    -63.6556E+06    -169.541E+06    -55.3099E+06    -1.62056E+06    -53.2922E-03     106.517E-03    -53.2245E-03     25.3652E-03    -53.2949E-03     105.852E-03    -53.1629E-03     25.2458E-03
             789     3.41369E-03     88.9706E-03    -60.2780E+06    -158.317E+06    -46.7813E+06    -2.26177E+06    -53.3606E-03     106.589E-03    -53.2285E-03     33.3645E-03    -53.3839E-03     105.972E-03    -53.1454E-03     33.1981E-03
             790     4.26716E-03     89.0081E-03    -56.2289E+06    -151.020E+06    -36.0481E+06    -2.35757E+06    -53.4797E-03     106.729E-03    -53.2488E-03     41.1212E-03    -53.5215E-03     106.139E-03    -53.1285E-03     40.9096E-03
             791     5.12067E-03     89.0530E-03    -51.5774E+06    -142.848E+06    -26.5808E+06    -2.43719E+06    -53.6037E-03     106.865E-03    -53.2614E-03     48.5466E-03    -53.6649E-03     106.313E-03    -53.1123E-03     48.2839E-03
             792     5.97422E-03     89.1052E-03    -46.5841E+06    -133.685E+06    -19.0822E+06    -3.22835E+06    -53.7512E-03     107.013E-03    -53.2615E-03     55.6555E-03    -53.8345E-03     106.511E-03    -53.0955E-03     55.3256E-03
             793     6.82778E-03     89.1643E-03    -41.8740E+06    -123.495E+06    -14.1289E+06    -4.01140E+06    -53.9018E-03     107.149E-03    -53.2475E-03     62.4026E-03    -54.0135E-03     106.715E-03    -53.0783E-03     61.9980E-03
             794     7.68140E-03     89.2299E-03    -37.7071E+06    -113.805E+06    -10.3034E+06    -4.37753E+06    -54.0448E-03     107.273E-03    -53.2284E-03     68.7757E-03    -54.1941E-03     106.914E-03    -53.0602E-03     68.2935E-03
             795     8.53506E-03     89.3018E-03    -33.8655E+06    -102.793E+06    -8.06594E+06    -4.32094E+06    -54.1744E-03     107.373E-03    -53.1984E-03     74.7677E-03    -54.3739E-03     107.111E-03    -53.0405E-03     74.2045E-03
             796     9.38877E-03     89.3790E-03    -30.4635E+06    -89.2762E+06    -5.97050E+06    -3.90075E+06    -54.2736E-03     107.436E-03    -53.1629E-03     80.2511E-03    -54.5427E-03     107.298E-03    -53.0191E-03     79.6027E-03
             797     10.2426E-03     89.4619E-03    -27.5489E+06    -74.0292E+06    -4.59664E+06    -3.18039E+06    -54.3909E-03     107.513E-03    -53.1225E-03     85.1145E-03    -54.7511E-03     107.526E-03    -52.9982E-03     84.3750E-03
             798     11.0961E-03     89.5484E-03    -24.9737E+06    -51.3499E+06    -3.29254E+06    -2.28178E+06    -54.4524E-03     107.525E-03    -53.0730E-03     89.8845E-03    -54.9434E-03     107.755E-03    -52.9788E-03     89.0446E-03
             799     11.9503E-03     89.6410E-03    -22.8271E+06    -19.0531E+06     109.822E+03    -932.716E+03    -54.5916E-03     107.614E-03    -53.0222E-03     96.4669E-03    -55.2824E-03     108.156E-03    -52.9610E-03     95.5172E-03
             800     12.8037E-03     89.7408E-03    -20.9366E+06     40.2000E+06     3.36134E+06     286.183E+03    -54.7425E-03     107.675E-03    -52.9329E-03     105.796E-03    -55.7514E-03     108.743E-03    -52.9440E-03     104.726E-03
             801     13.6577E-03     89.8511E-03    -18.3183E+06     98.6203E+06     27.5709E+06     774.945E+03    -54.7255E-03     107.668E-03    -52.9427E-03     114.953E-03    -56.0983E-03     109.246E-03    -52.9213E-03     113.819E-03
             802     14.5114E-03     89.9704E-03    -14.2117E+06     120.351E+06     62.1102E+06     1.22063E+06    -54.2334E-03     107.281E-03    -53.0472E-03     111.775E-03    -55.7533E-03     108.997E-03    -52.8905E-03     110.725E-03
             803     15.3663E-03     90.0734E-03    -9.87589E+06     128.748E+06     82.6768E+06     799.350E+03    -53.8430E-03     106.945E-03    -53.1019E-03     104.858E-03    -55.4179E-03     108.702E-03    -52.8608E-03     103.943E-03
             804     16.2187E-03     90.1784E-03    -5.19506E+06     129.499E+06     88.7005E+06     292.606E+03    -53.0880E-03     106.187E-03    -53.0993E-03     77.7325E-03    -54.2415E-03     107.525E-03    -52.8360E-03     77.0838E-03
             805     853.411E-06     89.9606E-03    -71.1238E+06    -176.426E+06    -69.2344E+06     326.276E+03    -53.2534E-03     106.434E-03    -53.1807E-03     9.41047E-03    -53.2543E-03     105.757E-03    -53.1680E-03     9.38079E-03
             806     1.70672E-03     89.9739E-03    -68.2511E+06    -176.296E+06    -61.9219E+06    -1.26566E+06    -53.2566E-03     106.493E-03    -53.2366E-03     17.2578E-03    -53.2572E-03     105.805E-03    -53.1916E-03     17.1773E-03
             807     2.56017E-03     89.9951E-03    -64.4465E+06    -168.165E+06    -54.0997E+06    -2.35389E+06    -53.2928E-03     106.537E-03    -53.2437E-03     25.3893E-03    -53.3033E-03     105.878E-03    -53.1769E-03     25.2603E-03
             808     3.41362E-03     90.0247E-03    -60.4438E+06    -157.324E+06    -45.4742E+06    -2.47208E+06    -53.3671E-03     106.614E-03    -53.2466E-03     33.3714E-03    -53.3945E-03     106.000E-03    -53.1582E-03     33.2023E-03
             809     4.26711E-03     90.0620E-03    -56.3502E+06    -150.293E+06    -35.2990E+06    -2.74656E+06    -53.4711E-03     106.734E-03    -53.2625E-03     41.1044E-03    -53.5155E-03     106.147E-03    -53.1394E-03     40.8879E-03
             810     5.12064E-03     90.1070E-03    -51.4798E+06    -141.388E+06    -26.6432E+06    -3.55593E+06    -53.6051E-03     106.873E-03    -53.2675E-03     48.5540E-03    -53.6678E-03     106.328E-03    -53.1211E-03     48.2769E-03
             811     5.97415E-03     90.1591E-03    -46.4794E+06    -131.867E+06    -20.0994E+06    -4.53921E+06    -53.7435E-03     107.004E-03    -53.2609E-03     55.6732E-03    -53.8274E-03     106.513E-03    -53.1028E-03     55.3264E-03
             812     6.82777E-03     90.2183E-03    -41.8731E+06    -122.256E+06    -15.1551E+06    -5.25296E+06    -53.8726E-03     107.117E-03    -53.2447E-03     62.4294E-03    -53.9845E-03     106.691E-03    -53.0825E-03     62.0090E-03
             813     7.68138E-03     90.2838E-03    -37.6515E+06    -113.033E+06    -11.3001E+06    -5.60324E+06    -53.9978E-03     107.219E-03    -53.2216E-03     68.7968E-03    -54.1465E-03     106.866E-03    -53.0596E-03     68.2992E-03
             814     8.53514E-03     90.3555E-03    -33.9010E+06    -102.651E+06    -9.14633E+06    -5.59649E+06    -54.1328E-03     107.320E-03    -53.1877E-03     74.7962E-03    -54.3309E-03     107.060E-03    -53.0354E-03     74.2173E-03
             815     9.38879E-03     90.4330E-03    -30.5310E+06    -89.6683E+06    -7.10557E+06    -5.15881E+06    -54.2736E-03     107.425E-03    -53.1511E-03     80.2660E-03    -54.5408E-03     107.286E-03    -53.0123E-03     79.6014E-03
             816     10.2426E-03     90.5153E-03    -27.4942E+06    -74.8246E+06    -5.62288E+06    -4.35109E+06    -54.4043E-03     107.517E-03    -53.1125E-03     85.1512E-03    -54.7615E-03     107.527E-03    -52.9922E-03     84.3965E-03
             817     11.0965E-03     90.6029E-03    -24.9534E+06    -52.8123E+06    -4.47489E+06    -3.19342E+06    -54.4804E-03     107.545E-03    -53.0649E-03     89.9196E-03    -54.9679E-03     107.770E-03    -52.9745E-03     89.0670E-03
             818     11.9498E-03     90.6942E-03    -22.4252E+06    -20.8610E+06    -946.958E+03    -1.76689E+06    -54.5348E-03     107.548E-03    -53.0135E-03     96.5988E-03    -55.2190E-03     108.082E-03    -52.9555E-03     95.6400E-03
             819     12.8042E-03     90.7951E-03    -19.9740E+06     38.3849E+06     2.69498E+06    -133.227E+03    -54.6788E-03     107.599E-03    -52.9206E-03     105.975E-03    -55.6794E-03     108.658E-03    -52.9338E-03     104.901E-03
             820     13.6575E-03     90.9053E-03    -17.9499E+06     97.9732E+06     27.3234E+06     1.05574E+06    -54.7106E-03     107.640E-03    -52.9290E-03     115.075E-03    -56.0809E-03     109.215E-03    -52.9084E-03     113.945E-03
             821     14.5125E-03     91.0235E-03    -15.0781E+06     120.322E+06     61.3319E+06     1.27892E+06    -54.2338E-03     107.266E-03    -53.0319E-03     111.626E-03    -55.7565E-03     108.984E-03    -52.8779E-03     110.577E-03
             822     15.3661E-03     91.1278E-03    -10.0601E+06     129.393E+06     82.3312E+06     1.08717E+06    -53.7774E-03     106.863E-03    -53.0861E-03     104.828E-03    -55.3522E-03     108.623E-03    -52.8475E-03     103.918E-03
             823     16.2210E-03     91.2333E-03    -4.86269E+06     130.328E+06     89.0026E+06     297.785E+03    -53.1930E-03     106.280E-03    -53.0872E-03     77.7791E-03    -54.3450E-03     107.620E-03    -52.8241E-03     77.1307E-03
             824     853.287E-06     91.0148E-03    -72.4254E+06    -175.851E+06    -71.6245E+06    -468.692E+03    -53.2450E-03     106.436E-03    -53.1908E-03     9.41572E-03    -53.2497E-03     105.767E-03    -53.1890E-03     9.37572E-03
             825     1.70678E-03     91.0278E-03    -70.0126E+06    -173.132E+06    -64.6129E+06    -1.80632E+06    -53.2415E-03     106.468E-03    -53.2265E-03     17.2632E-03    -53.2516E-03     105.802E-03    -53.1971E-03     17.1757E-03
             826     2.56016E-03     91.0493E-03    -66.3265E+06    -166.405E+06    -54.7681E+06    -3.01083E+06    -53.3068E-03     106.553E-03    -53.2464E-03     25.3935E-03    -53.3282E-03     105.907E-03    -53.1828E-03     25.2559E-03
             827     3.41357E-03     91.0786E-03    -61.6930E+06    -156.788E+06    -44.5958E+06    -3.13214E+06    -53.3736E-03     106.635E-03    -53.2617E-03     33.3836E-03    -53.4094E-03     106.025E-03    -53.1679E-03     33.2059E-03
             828     4.26706E-03     91.1160E-03    -56.4205E+06    -148.638E+06    -34.9719E+06    -3.50213E+06    -53.4713E-03     106.743E-03    -53.2716E-03     41.1196E-03    -53.5190E-03     106.164E-03    -53.1491E-03     40.8932E-03
             829     5.12057E-03     91.1609E-03    -51.3285E+06    -139.126E+06    -27.2640E+06    -4.74834E+06    -53.5867E-03     106.855E-03    -53.2680E-03     48.5804E-03    -53.6510E-03     106.322E-03    -53.1281E-03     48.2880E-03
             830     5.97416E-03     91.2132E-03    -46.4716E+06    -129.966E+06    -21.0912E+06    -5.90429E+06    -53.7127E-03     106.969E-03    -53.2559E-03     55.6913E-03    -53.7978E-03     106.488E-03    -53.1055E-03     55.3271E-03
             831     6.82774E-03     91.2721E-03    -41.9092E+06    -120.862E+06    -16.2441E+06    -6.59522E+06    -53.8357E-03     107.071E-03    -53.2356E-03     62.4381E-03    -53.9482E-03     106.653E-03    -53.0808E-03     62.0008E-03
             832     7.68149E-03     91.3378E-03    -37.7538E+06    -111.975E+06    -12.3195E+06    -7.00101E+06    -53.9698E-03     107.180E-03    -53.2101E-03     68.7977E-03    -54.1189E-03     106.833E-03    -53.0546E-03     68.2824E-03
             833     8.53513E-03     91.4093E-03    -33.9720E+06    -102.417E+06    -10.2225E+06    -6.96760E+06    -54.1097E-03     107.285E-03    -53.1750E-03     74.7774E-03    -54.3069E-03     107.027E-03    -53.0284E-03     74.1810E-03
             834     9.38904E-03     91.4868E-03    -30.6020E+06    -89.8422E+06    -8.18648E+06    -6.49344E+06    -54.2705E-03     107.409E-03    -53.1382E-03     80.3297E-03    -54.5361E-03     107.270E-03    -53.0045E-03     79.6484E-03
             835     10.2426E-03     91.5694E-03    -27.5986E+06    -75.6160E+06    -6.80585E+06    -5.75143E+06    -54.3929E-03     107.493E-03    -53.0997E-03     85.2472E-03    -54.7479E-03     107.501E-03    -52.9841E-03     84.4748E-03
             836     11.0963E-03     91.6563E-03    -24.7100E+06    -54.3019E+06    -5.68226E+06    -4.54631E+06    -54.4545E-03     107.506E-03    -53.0512E-03     90.0379E-03    -54.9368E-03     107.724E-03    -52.9650E-03     89.1688E-03
             837     11.9504E-03     91.7485E-03    -22.1496E+06    -22.9598E+06    -2.21628E+06    -2.82288E+06    -54.5326E-03     107.532E-03    -52.9993E-03     96.6493E-03    -55.2109E-03     108.056E-03    -52.9450E-03     95.6768E-03
             838     12.8038E-03     91.8485E-03    -20.4086E+06     35.2695E+06     991.183E+03    -594.836E+03    -54.5715E-03     107.475E-03    -52.9033E-03     106.073E-03    -55.5665E-03     108.520E-03    -52.9199E-03     104.996E-03
             839     13.6587E-03     91.9594E-03    -18.2182E+06     96.7583E+06     25.7525E+06     1.44967E+06    -54.7463E-03     107.654E-03    -52.9073E-03     115.057E-03    -56.1126E-03     109.224E-03    -52.8925E-03     113.933E-03
             840     14.5117E-03     92.0775E-03    -14.2214E+06     121.346E+06     61.1933E+06     1.51365E+06    -54.4830E-03     107.505E-03    -53.0217E-03     111.590E-03    -56.0056E-03     109.230E-03    -52.8711E-03     110.537E-03
             841     15.3658E-03     92.1819E-03    -9.42818E+06     129.887E+06     82.5338E+06     370.385E+03    -53.8652E-03     106.954E-03    -53.0893E-03     104.366E-03    -55.4357E-03     108.713E-03    -52.8513E-03     103.444E-03
             842     16.2202E-03     92.2857E-03    -4.41430E+06     130.561E+06     88.8547E+06     262.494E+03    -52.9411E-03     106.027E-03    -53.0863E-03     77.2646E-03    -54.0861E-03     107.363E-03    -52.8249E-03     76.6184E-03
             843     853.409E-06     92.0686E-03    -71.6090E+06    -174.057E+06    -70.1023E+06    -1.18639E+06    -53.2265E-03     106.428E-03    -53.2013E-03     9.39414E-03    -53.2320E-03     105.765E-03    -53.1956E-03     9.34480E-03
             844     1.70673E-03     92.0819E-03    -69.3085E+06    -170.142E+06     -64.135E+06    -2.15175E+06    -53.2651E-03     106.489E-03    -53.2242E-03     17.2795E-03    -53.2767E-03     105.837E-03    -53.1976E-03     17.1875E-03
             845     2.56012E-03     92.1032E-03    -66.0426E+06    -164.120E+06    -54.9946E+06    -3.27321E+06    -53.3110E-03     106.559E-03    -53.2482E-03     25.3835E-03    -53.3340E-03     105.925E-03    -53.1894E-03     25.2425E-03
             846     3.41358E-03     92.1327E-03    -61.7431E+06    -155.582E+06    -44.6612E+06    -3.99483E+06    -53.3697E-03     106.635E-03    -53.2653E-03     33.3820E-03    -53.4073E-03     106.031E-03    -53.1735E-03     33.1932E-03
             847     4.26704E-03     92.1700E-03    -56.7330E+06    -146.445E+06    -35.8953E+06    -4.83188E+06    -53.4606E-03     106.728E-03    -53.2678E-03     41.1482E-03    -53.5117E-03     106.162E-03    -53.1526E-03     40.9048E-03
             848     5.12057E-03     92.2149E-03    -51.6344E+06    -136.528E+06    -28.4551E+06    -5.94301E+06    -53.5618E-03     106.821E-03    -53.2593E-03     48.6014E-03    -53.6297E-03     106.304E-03    -53.1287E-03     48.2937E-03
             849     5.97417E-03     92.2670E-03    -46.9327E+06    -127.575E+06    -22.0469E+06    -7.22443E+06    -53.6738E-03     106.919E-03    -53.2448E-03     55.7045E-03    -53.7633E-03     106.453E-03    -53.1020E-03     55.3236E-03
             850     6.82784E-03     92.3261E-03    -42.3818E+06    -119.169E+06    -17.3421E+06    -8.21008E+06    -53.8061E-03     107.028E-03    -53.2215E-03     62.4362E-03    -53.9217E-03     106.620E-03    -53.0739E-03     61.9783E-03
             851     7.68148E-03     92.3914E-03    -38.0897E+06    -110.855E+06    -13.4761E+06    -8.53324E+06    -53.9501E-03     107.145E-03    -53.1946E-03     68.8150E-03    -54.1007E-03     106.806E-03    -53.0460E-03     68.2805E-03
             852     8.53529E-03     92.4632E-03    -34.4112E+06    -101.959E+06    -11.4084E+06    -8.41518E+06    -54.1139E-03     107.275E-03    -53.1607E-03     74.8003E-03    -54.3121E-03     107.022E-03    -53.0200E-03     74.1854E-03
             853     9.38886E-03     92.5404E-03    -31.0882E+06    -90.0054E+06    -9.61714E+06    -8.06481E+06    -54.2159E-03     107.338E-03    -53.1222E-03     80.3750E-03    -54.4813E-03     107.202E-03    -52.9947E-03     79.6744E-03
             854     10.2429E-03     92.6233E-03    -27.8711E+06    -76.3587E+06    -8.24497E+06    -7.46613E+06    -54.3190E-03     107.398E-03    -53.0793E-03     85.3685E-03    -54.6717E-03     107.405E-03    -52.9694E-03     84.5759E-03
             855     11.0967E-03     92.7100E-03    -24.9445E+06    -55.6251E+06    -7.08255E+06    -6.19474E+06    -54.4430E-03     107.472E-03    -53.0288E-03     90.2196E-03    -54.9223E-03     107.686E-03    -52.9474E-03     89.3305E-03
             856     11.9502E-03     92.8024E-03    -22.3451E+06    -25.6321E+06    -3.83502E+06    -4.13507E+06    -54.5039E-03     107.481E-03    -52.9769E-03     96.7344E-03    -55.1768E-03     107.995E-03    -52.9265E-03     95.7462E-03
             857     12.8046E-03     92.9021E-03    -20.0120E+06     31.5132E+06    -757.965E+03    -945.942E+03    -54.6583E-03     107.542E-03    -52.8832E-03     106.153E-03    -55.6437E-03     108.570E-03    -52.9037E-03     105.071E-03
             858     13.6579E-03     93.0131E-03    -17.6988E+06     95.4402E+06     24.4640E+06     1.36018E+06    -54.7574E-03     107.646E-03    -52.8889E-03     115.326E-03    -56.1179E-03     109.212E-03    -52.8793E-03     114.201E-03
             859     14.5125E-03     93.1321E-03    -14.5514E+06     121.797E+06     59.7263E+06     1.53712E+06    -54.2817E-03     107.276E-03    -52.9948E-03     112.093E-03    -55.8033E-03     109.006E-03    -52.8517E-03     111.046E-03
             860     15.3662E-03     93.2357E-03    -10.0845E+06     130.063E+06     81.7018E+06     920.214E+03    -53.8065E-03     106.864E-03    -53.0572E-03     105.791E-03    -55.3838E-03     108.630E-03    -52.8227E-03     104.880E-03
             861     16.2190E-03     93.3409E-03    -4.98931E+06     131.246E+06     89.2109E+06     115.496E+03    -53.1025E-03     106.162E-03    -53.0598E-03     78.7065E-03    -54.2603E-03     107.510E-03    -52.7968E-03     78.0557E-03
             862     853.382E-06     93.1228E-03    -70.4315E+06    -171.457E+06    -68.9435E+06    -1.14302E+06    -53.2316E-03     106.441E-03    -53.2095E-03     9.40950E-03    -53.2366E-03     105.787E-03    -53.2035E-03     9.36072E-03
             863     1.70673E-03     93.1360E-03    -68.3273E+06    -167.363E+06    -62.6830E+06    -2.32076E+06    -53.2676E-03     106.499E-03    -53.2317E-03     17.2647E-03    -53.2804E-03     105.857E-03    -53.2034E-03     17.1705E-03
             864     2.56014E-03     93.1573E-03    -65.0142E+06    -161.492E+06    -54.3649E+06    -3.43603E+06    -53.3034E-03     106.553E-03    -53.2494E-03     25.3834E-03    -53.3260E-03     105.929E-03    -53.1928E-03     25.2404E-03
             865     3.41353E-03     93.1867E-03    -60.9477E+06    -153.274E+06    -45.4984E+06    -4.56882E+06    -53.3609E-03     106.618E-03    -53.2568E-03     33.3839E-03    -53.3967E-03     106.025E-03    -53.1736E-03     33.1878E-03
             866     4.26706E-03     93.2240E-03    -56.4427E+06    -143.617E+06    -36.7484E+06    -5.88459E+06    -53.4345E-03     106.690E-03    -53.2557E-03     41.1537E-03    -53.4869E-03     106.139E-03    -53.1493E-03     40.8969E-03
             867     5.12062E-03     93.2688E-03    -51.7065E+06    -133.721E+06    -29.2278E+06    -7.32967E+06    -53.5302E-03     106.775E-03    -53.2443E-03     48.6044E-03    -53.6013E-03     106.272E-03    -53.1216E-03     48.2791E-03
             868     5.97422E-03     93.3209E-03    -46.9680E+06    -124.811E+06    -22.7332E+06    -8.49887E+06    -53.6405E-03     106.868E-03    -53.2272E-03     55.7118E-03    -53.7330E-03     106.416E-03    -53.0917E-03     55.3148E-03
             869     6.82788E-03     93.3798E-03    -42.7347E+06    -116.866E+06    -18.0217E+06    -9.61585E+06    -53.7737E-03     106.976E-03    -53.2025E-03     62.4673E-03    -53.8933E-03     106.581E-03    -53.0612E-03     61.9919E-03
             870     7.68164E-03     93.4453E-03    -38.9267E+06    -109.828E+06    -14.6892E+06    -10.0390E+06    -53.9257E-03     107.100E-03    -53.1741E-03     68.8608E-03    -54.0801E-03     106.769E-03    -53.0319E-03     68.3074E-03
             871     8.53532E-03     93.5168E-03    -35.1841E+06    -101.071E+06    -12.5922E+06    -10.0218E+06    -54.0623E-03     107.201E-03    -53.1382E-03     74.9227E-03    -54.2637E-03     106.955E-03    -53.0036E-03     74.2884E-03
             872     9.38919E-03     93.5943E-03    -31.5211E+06    -89.5090E+06    -10.7650E+06    -10.0132E+06    -54.1831E-03     107.281E-03    -53.0975E-03     80.4870E-03    -54.4497E-03     107.149E-03    -52.9758E-03     79.7621E-03
             873     10.2430E-03     93.6764E-03    -28.1289E+06    -76.7756E+06    -9.44702E+06    -9.30700E+06    -54.2843E-03     107.338E-03    -53.0538E-03     85.4733E-03    -54.6357E-03     107.345E-03    -52.9490E-03     84.6580E-03
             874     11.0968E-03     93.7642E-03    -25.3622E+06    -57.4420E+06    -8.72399E+06    -7.94928E+06    -54.3471E-03     107.347E-03    -52.9995E-03     90.3233E-03    -54.8226E-03     107.554E-03    -52.9231E-03     89.4145E-03
             875     11.9510E-03     93.8557E-03    -22.8492E+06    -28.6431E+06    -5.73047E+06    -5.68348E+06    -54.5186E-03     107.465E-03    -52.9462E-03     96.8807E-03    -55.1867E-03     107.967E-03    -52.9002E-03     95.8732E-03
             876     12.8045E-03     93.9560E-03    -20.3519E+06     27.1441E+06    -2.64367E+06    -2.31097E+06    -54.7392E-03     107.597E-03    -52.8581E-03     106.428E-03    -55.7180E-03     108.608E-03    -52.8811E-03     105.328E-03
             877     13.6587E-03     94.0673E-03    -17.7745E+06     92.7985E+06     21.9472E+06     1.27518E+06    -54.6792E-03     107.537E-03    -52.8581E-03     115.474E-03    -56.0321E-03     109.093E-03    -52.8572E-03     114.351E-03
             878     14.5127E-03     94.1851E-03    -14.4012E+06     122.656E+06     57.5754E+06     2.00575E+06    -53.9793E-03     106.930E-03    -52.9504E-03     111.938E-03    -55.4945E-03     108.662E-03    -52.8195E-03     110.906E-03
             879     15.3677E-03     94.2898E-03    -9.53250E+06     131.083E+06     81.2608E+06     587.059E+03    -53.5420E-03     106.549E-03    -53.0074E-03     105.178E-03    -55.1119E-03     108.315E-03    -52.7774E-03     104.268E-03
             880     16.2243E-03     94.3940E-03    -4.82865E+06     131.557E+06     89.4026E+06     81.5781E+03    -53.5336E-03     106.556E-03    -53.0227E-03     77.9365E-03    -54.6879E-03     107.901E-03    -52.7594E-03     77.2796E-03
             881     853.314E-06     94.1768E-03    -69.8790E+06    -168.825E+06    -68.4591E+06    -1.22236E+06    -53.2479E-03     106.459E-03    -53.2106E-03     9.45355E-03    -53.2547E-03     105.817E-03    -53.2068E-03     9.40363E-03
             882     1.70672E-03     94.1901E-03    -67.7550E+06    -164.329E+06    -62.4083E+06    -2.37812E+06    -53.2427E-03     106.475E-03    -53.2318E-03     17.2653E-03    -53.2574E-03     105.846E-03    -53.2073E-03     17.1706E-03
             883     2.56011E-03     94.2113E-03    -64.4347E+06    -158.540E+06    -54.2403E+06    -3.82199E+06    -53.2836E-03     106.523E-03    -53.2399E-03     25.3857E-03    -53.3077E-03     105.913E-03    -53.1878E-03     25.2379E-03
             884     3.41361E-03     94.2407E-03    -60.3190E+06    -150.171E+06    -45.6486E+06    -5.24866E+06    -53.3395E-03     106.581E-03    -53.2419E-03     33.3864E-03    -53.3764E-03     106.003E-03    -53.1650E-03     33.1816E-03
             885     4.26709E-03     94.2779E-03    -55.8274E+06    -140.199E+06    -37.2393E+06    -6.83315E+06    -53.4024E-03     106.638E-03    -53.2354E-03     41.1576E-03    -53.4560E-03     106.103E-03    -53.1374E-03     40.8888E-03
             886     5.12068E-03     94.3228E-03    -51.3469E+06    -130.351E+06    -29.5638E+06    -8.44419E+06    -53.4834E-03     106.704E-03    -53.2210E-03     48.6279E-03    -53.5570E-03     106.219E-03    -53.1054E-03     48.2888E-03
             887     5.97434E-03     94.3747E-03    -46.9293E+06    -121.902E+06    -23.1930E+06    -9.90587E+06    -53.5994E-03     106.800E-03    -53.2007E-03     55.7524E-03    -53.6952E-03     106.364E-03    -53.0718E-03     55.3380E-03
             888     6.82806E-03     94.4336E-03    -42.8176E+06    -114.593E+06    -18.3814E+06    -10.5344E+06    -53.7382E-03     106.914E-03    -53.1756E-03     62.5213E-03    -53.8608E-03     106.531E-03    -53.0392E-03     62.0348E-03
             889     7.68176E-03     94.4990E-03    -39.1139E+06    -107.922E+06    -15.0283E+06    -11.2580E+06    -53.8653E-03     107.011E-03    -53.1453E-03     68.9335E-03    -54.0226E-03     106.689E-03    -53.0072E-03     68.3655E-03
             890     8.53560E-03     94.5706E-03    -35.3552E+06    -99.5778E+06    -13.4618E+06    -12.0241E+06    -53.9906E-03     107.094E-03    -53.1031E-03     75.0155E-03    -54.1934E-03     106.857E-03    -52.9748E-03     74.3569E-03
             891     9.38951E-03     94.6477E-03    -31.7401E+06    -88.8327E+06    -11.7709E+06    -11.9719E+06    -54.1481E-03     107.208E-03    -53.0604E-03     80.6341E-03    -54.4150E-03     107.082E-03    -52.9444E-03     79.8853E-03
             892     10.2433E-03     94.7306E-03    -28.5538E+06    -77.2717E+06    -10.7910E+06    -11.3153E+06    -54.2613E-03     107.278E-03    -53.0167E-03     85.6521E-03    -54.6121E-03     107.284E-03    -52.9172E-03     84.8121E-03
             893     11.0972E-03     94.8172E-03    -25.5952E+06    -59.1460E+06    -10.1641E+06    -9.68831E+06    -54.3192E-03     107.282E-03    -52.9632E-03     90.4901E-03    -54.7912E-03     107.483E-03    -52.8911E-03     89.5600E-03
             894     11.9511E-03     94.9097E-03    -23.1814E+06    -31.9458E+06    -7.57888E+06    -7.15465E+06    -54.5220E-03     107.433E-03    -52.9106E-03     97.1479E-03    -55.1845E-03     107.921E-03    -52.8685E-03     96.1224E-03
             895     12.8050E-03     95.0100E-03    -21.6408E+06     22.1189E+06    -5.04860E+06    -3.24312E+06    -54.7191E-03     107.543E-03    -52.8241E-03     106.577E-03    -55.6926E-03     108.533E-03    -52.8500E-03     105.466E-03
             896     13.6590E-03     95.1207E-03    -19.1795E+06     89.2146E+06     18.3382E+06    -48.8539E+03    -54.6742E-03     107.491E-03    -52.8169E-03     115.411E-03    -56.0230E-03     109.035E-03    -52.8268E-03     114.271E-03
             897     14.5132E-03     95.2393E-03    -13.8540E+06     123.059E+06     55.1633E+06     866.210E+03    -54.2225E-03     107.138E-03    -52.9157E-03     111.537E-03    -55.7336E-03     108.877E-03    -52.7983E-03     110.482E-03
             898     15.3674E-03     95.3421E-03    -8.73730E+06     132.116E+06     81.2117E+06     809.605E+03    -54.0327E-03     107.038E-03    -53.0057E-03     104.844E-03    -55.6005E-03     108.809E-03    -52.7786E-03     103.923E-03
             899     16.2182E-03     95.4496E-03    -4.70706E+06     131.819E+06     89.8060E+06     485.313E+03    -53.2070E-03     106.237E-03    -53.0305E-03     77.9126E-03    -54.3597E-03     107.581E-03    -52.7658E-03     77.2624E-03
             900     853.374E-06     95.2310E-03    -70.2468E+06    -165.982E+06    -68.6828E+06    -1.40751E+06    -53.2339E-03     106.424E-03    -53.1902E-03     9.44116E-03    -53.2463E-03     105.797E-03    -53.1911E-03     9.38903E-03
             901     1.70674E-03     95.2441E-03    -67.7151E+06    -160.955E+06    -62.8455E+06    -2.76615E+06    -53.2190E-03     106.430E-03    -53.2111E-03     17.2737E-03    -53.2377E-03     105.819E-03    -53.1938E-03     17.1740E-03
             902     2.56019E-03     95.2654E-03    -64.2800E+06    -154.961E+06    -54.3492E+06    -4.41997E+06    -53.2495E-03     106.466E-03    -53.2167E-03     25.3996E-03    -53.2778E-03     105.874E-03    -53.1706E-03     25.2442E-03
             903     3.41362E-03     95.2947E-03    -60.0343E+06    -146.375E+06    -45.5766E+06    -6.25505E+06    -53.2938E-03     106.508E-03    -53.2146E-03     33.4087E-03    -53.3349E-03     105.949E-03    -53.1431E-03     33.1912E-03
             904     4.26721E-03     95.3319E-03    -55.4432E+06    -136.499E+06    -37.4490E+06    -7.98464E+06    -53.3499E-03     106.552E-03    -53.2018E-03     41.1869E-03    -53.4065E-03     106.036E-03    -53.1107E-03     40.9037E-03
             905     5.12084E-03     95.3765E-03    -50.8775E+06    -126.699E+06    -29.7368E+06    -9.48135E+06    -53.4316E-03     106.615E-03    -53.1836E-03     48.6752E-03    -53.5078E-03     106.147E-03    -53.0748E-03     48.3235E-03
             906     5.97455E-03     95.4285E-03    -46.8842E+06    -118.810E+06    -23.2542E+06    -10.6297E+06    -53.5450E-03     106.707E-03    -53.1623E-03     55.8112E-03    -53.6448E-03     106.286E-03    -53.0383E-03     55.3884E-03
             907     6.82825E-03     95.4873E-03    -43.1344E+06    -112.354E+06    -18.8395E+06    -11.5847E+06    -53.6626E-03     106.796E-03    -53.1334E-03     62.6142E-03    -53.7891E-03     106.425E-03    -53.0021E-03     62.1155E-03
             908     7.68208E-03     95.5527E-03    -39.1041E+06    -104.708E+06    -15.3252E+06    -12.7505E+06    -53.7892E-03     106.887E-03    -53.0977E-03     69.0608E-03    -53.9504E-03     106.582E-03    -52.9658E-03     68.4753E-03
             909     8.53600E-03     95.6240E-03    -35.3447E+06    -97.4573E+06    -13.8440E+06    -13.7959E+06    -53.9403E-03     106.995E-03    -53.0543E-03     75.1620E-03    -54.1453E-03     106.768E-03    -52.9310E-03     74.4819E-03
             910     9.38977E-03     95.7015E-03    -31.9162E+06    -88.1871E+06    -12.7997E+06    -14.0041E+06    -54.0716E-03     107.080E-03    -53.0085E-03     80.8627E-03    -54.3384E-03     106.958E-03    -52.8983E-03     80.0900E-03
             911     10.2439E-03     95.7837E-03    -28.7471E+06    -77.4929E+06    -11.8430E+06    -13.2726E+06    -54.2060E-03     107.170E-03    -52.9635E-03     85.8543E-03    -54.5555E-03     107.176E-03    -52.8687E-03     84.9913E-03
             912     11.0977E-03     95.8712E-03    -25.8506E+06    -60.9712E+06    -11.6237E+06    -11.8012E+06    -54.3436E-03     107.255E-03    -52.9118E-03     90.7789E-03    -54.8125E-03     107.450E-03    -52.8441E-03     89.8219E-03
             913     11.9516E-03     95.9630E-03    -23.0359E+06    -35.4144E+06    -9.09551E+06    -8.80095E+06    -54.4924E-03     107.355E-03    -52.8623E-03     97.5935E-03    -55.1466E-03     107.828E-03    -52.8231E-03     96.5496E-03
             914     12.8056E-03     96.0638E-03    -20.0396E+06     15.9553E+06    -6.75775E+06    -4.37880E+06    -54.6860E-03     107.461E-03    -52.7751E-03     107.016E-03    -55.6407E-03     108.421E-03    -52.8030E-03     105.894E-03
             915     13.6594E-03     96.1746E-03    -17.1354E+06     86.7583E+06     17.9146E+06    -876.964E+03    -54.8252E-03     107.597E-03    -52.7723E-03     115.842E-03    -56.1610E-03     109.128E-03    -52.7837E-03     114.690E-03
             916     14.5136E-03     96.2926E-03    -14.9202E+06     123.108E+06     53.0705E+06     232.454E+03    -54.6068E-03     107.486E-03    -52.8795E-03     112.298E-03    -56.1272E-03     109.237E-03    -52.7710E-03     111.225E-03
             917     15.3665E-03     96.3976E-03    -10.1401E+06     131.418E+06     78.9335E+06     784.276E+03    -53.9903E-03     106.969E-03    -52.9786E-03     106.196E-03    -55.5721E-03     108.752E-03    -52.7598E-03     105.273E-03
             918     16.2231E-03     96.5033E-03    -4.29567E+06     132.687E+06     90.9147E+06     682.695E+03    -52.9414E-03     105.947E-03    -53.0054E-03     79.1313E-03    -54.1020E-03     107.300E-03    -52.7370E-03     78.4896E-03
             919     853.362E-06     96.2850E-03    -70.1342E+06    -162.404E+06    -69.0750E+06    -1.80258E+06    -53.2019E-03     106.351E-03    -53.1491E-03     9.42442E-03    -53.2183E-03     105.742E-03    -53.1573E-03     9.36734E-03
             920     1.70680E-03     96.2981E-03     -68.005E+06    -157.143E+06    -63.1916E+06    -3.42784E+06    -53.1743E-03     106.346E-03    -53.1720E-03     17.2695E-03    -53.1995E-03     105.755E-03    -53.1615E-03     17.1615E-03
             921     2.56023E-03     96.3194E-03    -64.4221E+06    -150.613E+06    -54.8055E+06    -5.34332E+06    -53.1878E-03     106.359E-03    -53.1715E-03     25.4280E-03    -53.2225E-03     105.790E-03    -53.1337E-03     25.2611E-03
             922     3.41381E-03     96.3486E-03    -60.0755E+06    -141.911E+06    -45.6706E+06    -7.44798E+06    -53.2204E-03     106.385E-03    -53.1646E-03     33.4548E-03    -53.2680E-03     105.848E-03    -53.1001E-03     33.2226E-03
             923     4.26740E-03     96.3857E-03    -55.4858E+06    -132.555E+06    -37.2845E+06    -9.20155E+06    -53.2809E-03     106.430E-03    -53.1493E-03     41.2419E-03    -53.3436E-03     105.933E-03    -53.0630E-03     40.9439E-03
             924     5.12109E-03     96.4303E-03    -51.0492E+06    -123.069E+06    -29.8989E+06    -10.5597E+06    -53.3618E-03     106.489E-03    -53.1272E-03     48.7496E-03    -53.4437E-03     106.039E-03    -53.0242E-03     48.3850E-03
             925     5.97481E-03     96.4822E-03    -46.6548E+06    -116.126E+06    -23.5072E+06    -11.3989E+06    -53.4510E-03     106.553E-03    -53.1021E-03     55.9247E-03    -53.5528E-03     106.145E-03    -52.9836E-03     55.4936E-03
             926     6.82867E-03     96.5409E-03    -42.5418E+06    -108.815E+06    -18.7814E+06    -12.6198E+06    -53.5568E-03     106.624E-03    -53.0671E-03     62.7604E-03    -53.6852E-03     106.269E-03    -52.9415E-03     62.2504E-03
             927     7.68263E-03     96.6061E-03    -38.7534E+06    -101.234E+06    -15.3042E+06    -14.3191E+06    -53.6930E-03     106.720E-03    -53.0267E-03     69.2830E-03    -53.8570E-03     106.431E-03    -52.9003E-03     68.6797E-03
             928     8.53643E-03     96.6777E-03    -35.2010E+06    -94.9465E+06    -13.9656E+06    -15.3496E+06    -53.8447E-03     106.825E-03    -52.9806E-03     75.4563E-03    -54.0520E-03     106.611E-03    -52.8617E-03     74.7590E-03
             929     9.39060E-03     96.7546E-03    -32.1437E+06    -86.5329E+06    -13.2823E+06    -15.6918E+06    -53.9899E-03     106.922E-03    -52.9320E-03     81.2052E-03    -54.2588E-03     106.808E-03    -52.8263E-03     80.4140E-03
             930     10.2444E-03     96.8375E-03    -29.1991E+06    -77.5754E+06    -12.8051E+06    -15.2777E+06    -54.1421E-03     107.028E-03    -52.8861E-03     86.3145E-03    -54.4918E-03     107.036E-03    -52.7953E-03     85.4288E-03
             931     11.0984E-03     96.9243E-03    -26.3114E+06    -62.3367E+06    -12.9215E+06    -14.0171E+06    -54.2776E-03     107.111E-03    -52.8335E-03     91.3112E-03    -54.7447E-03     107.301E-03    -52.7695E-03     90.3293E-03
             932     11.9525E-03     97.0169E-03    -23.1179E+06    -39.2491E+06    -10.7925E+06    -11.5720E+06    -54.4439E-03     107.228E-03    -52.7840E-03     98.1665E-03    -55.0901E-03     107.684E-03    -52.7475E-03     97.0910E-03
             933     12.8064E-03     97.1171E-03    -20.0979E+06     9.32536E+06      -8.826E+06    -6.86946E+06    -54.6864E-03     107.386E-03    -52.6995E-03     107.657E-03    -55.6291E-03     108.316E-03    -52.7280E-03     106.506E-03
             934     13.6608E-03     97.2284E-03    -17.7940E+06     82.4830E+06     14.5368E+06    -1.32284E+06    -54.9301E-03     107.622E-03    -52.6922E-03     116.639E-03    -56.2607E-03     109.140E-03    -52.7133E-03     115.481E-03
             935     14.5141E-03     97.3473E-03    -14.2052E+06     124.146E+06     50.9004E+06     730.268E+03    -54.5603E-03     107.359E-03    -52.7982E-03     113.297E-03    -56.0787E-03     109.120E-03    -52.7032E-03     112.233E-03
             936     15.3688E-03     97.4515E-03    -10.2360E+06     131.319E+06     77.8304E+06     171.431E+03    -53.9369E-03     106.842E-03    -52.9048E-03     106.150E-03    -55.5169E-03     108.626E-03    -52.6912E-03     105.223E-03
             937     16.2218E-03     97.5554E-03    -4.96059E+06     131.696E+06     90.4450E+06     260.178E+03    -52.9788E-03     105.920E-03    -52.9408E-03     78.6815E-03    -54.1385E-03     107.267E-03    -52.6724E-03     78.0302E-03
             938     853.433E-06     97.3390E-03    -69.4350E+06    -157.888E+06    -68.0791E+06    -2.30253E+06    -53.1371E-03     106.218E-03    -53.0812E-03     9.45328E-03    -53.1581E-03     105.630E-03    -53.0920E-03     9.38991E-03
             939     1.70687E-03     97.3521E-03    -67.0423E+06    -152.568E+06    -62.4763E+06    -4.20414E+06    -53.1029E-03     106.206E-03    -53.1035E-03     17.3012E-03    -53.1310E-03     105.636E-03    -53.0975E-03     17.1834E-03
             940     2.56044E-03     97.3732E-03    -63.6236E+06    -145.588E+06    -54.3813E+06    -6.36992E+06    -53.1044E-03     106.202E-03    -53.0979E-03     25.4740E-03    -53.1429E-03     105.656E-03    -53.0664E-03     25.2945E-03
             941     3.41401E-03     97.4024E-03    -59.5208E+06    -137.054E+06    -45.2088E+06    -8.41970E+06    -53.1283E-03     106.216E-03    -53.0876E-03     33.5069E-03    -53.1807E-03     105.702E-03    -53.0286E-03     33.2630E-03
             942     4.26772E-03     97.4394E-03    -55.2148E+06    -128.309E+06    -36.6883E+06    -10.1905E+06    -53.1782E-03     106.248E-03    -53.0698E-03     41.3375E-03    -53.2464E-03     105.771E-03    -52.9872E-03     41.0281E-03
             943     5.12145E-03     97.4839E-03    -50.8521E+06    -119.480E+06    -29.8191E+06    -11.5267E+06    -53.2340E-03     106.274E-03    -53.0402E-03     48.8922E-03    -53.3200E-03     105.842E-03    -52.9423E-03     48.5171E-03
             944     5.97535E-03     97.5357E-03    -46.5000E+06    -112.911E+06    -23.7843E+06    -12.8031E+06    -53.3102E-03     106.316E-03    -53.0063E-03     56.1278E-03    -53.4150E-03     105.924E-03    -52.8941E-03     55.6812E-03
             945     6.82932E-03     97.5943E-03    -41.9912E+06    -104.969E+06    -18.6560E+06    -14.1144E+06    -53.4209E-03     106.386E-03    -52.9651E-03     63.0461E-03    -53.5517E-03     106.049E-03    -52.8453E-03     62.5201E-03
             946     7.68324E-03     97.6596E-03    -38.0290E+06    -97.5562E+06    -14.7948E+06    -15.4487E+06    -53.5377E-03     106.458E-03    -52.9203E-03     69.6263E-03    -53.7034E-03     106.185E-03    -52.7976E-03     69.0123E-03
             947     8.53754E-03     97.7307E-03    -34.9304E+06    -92.2414E+06    -13.5588E+06    -16.4805E+06    -53.6934E-03     106.563E-03    -52.8693E-03     75.8937E-03    -53.9029E-03     106.360E-03    -52.7527E-03     75.1866E-03
             948     9.39140E-03     97.8082E-03    -32.1464E+06    -84.3116E+06    -13.0481E+06    -16.9961E+06    -53.8617E-03     106.678E-03    -52.8165E-03     81.7391E-03    -54.1334E-03     106.574E-03    -52.7129E-03     80.9358E-03
             949     10.2457E-03     97.8904E-03    -29.4868E+06    -77.0715E+06    -13.1525E+06    -17.1595E+06    -54.0080E-03     106.775E-03    -52.7671E-03     86.9867E-03    -54.3586E-03     106.786E-03    -52.6784E-03     86.0822E-03
             950     11.0998E-03     97.9780E-03    -26.7279E+06    -63.1966E+06    -13.7311E+06    -16.0439E+06    -54.1825E-03     106.894E-03    -52.7119E-03     92.0987E-03    -54.6482E-03     107.081E-03    -52.6501E-03     91.0970E-03
             951     11.9538E-03     98.0699E-03    -24.5227E+06    -41.8428E+06    -12.1702E+06    -14.0156E+06    -54.4222E-03     107.087E-03    -52.6651E-03     98.9132E-03    -55.0699E-03     107.535E-03    -52.6297E-03     97.8103E-03
             952     12.8081E-03     98.1708E-03    -22.4891E+06     1.76732E+06    -12.0084E+06    -9.28759E+06    -54.7683E-03     107.355E-03    -52.5871E-03     108.497E-03    -55.7080E-03     108.256E-03    -52.6171E-03     107.317E-03
             953     13.6615E-03     98.2822E-03    -19.0415E+06     76.3367E+06     9.56950E+06    -3.27054E+06    -54.9281E-03     107.501E-03    -52.5732E-03     117.532E-03    -56.2514E-03     109.000E-03    -52.6084E-03     116.352E-03
             954     14.5163E-03     98.4013E-03    -14.6315E+06     122.966E+06     45.3963E+06    -257.719E+03    -54.4107E-03     107.078E-03    -52.6670E-03     113.757E-03    -55.9191E-03     108.839E-03    -52.5971E-03     112.689E-03
             955     15.3698E-03     98.5052E-03    -9.80454E+06     131.824E+06     76.2517E+06     636.741E+03    -53.9571E-03     106.746E-03    -52.7889E-03     107.214E-03    -55.5345E-03     108.535E-03    -52.5846E-03     106.296E-03
             956     16.2234E-03     98.6113E-03    -5.14045E+06     132.310E+06     91.3168E+06     196.633E+03    -53.4427E-03     106.296E-03    -52.8529E-03     79.8411E-03    -54.6135E-03     107.653E-03    -52.5807E-03     79.1798E-03
             957     853.519E-06     98.3929E-03    -67.6970E+06    -152.301E+06    -66.4876E+06    -2.70685E+06    -53.0021E-03     105.993E-03    -52.9910E-03     9.44847E-03    -53.0248E-03     105.428E-03    -53.0045E-03     9.38013E-03
             958     1.70709E-03     98.4058E-03    -65.4544E+06    -147.167E+06    -60.9777E+06    -4.96958E+06    -52.9880E-03     105.978E-03    -52.9899E-03     17.3415E-03    -53.0181E-03     105.430E-03    -52.9865E-03     17.2145E-03
             959     2.56067E-03     98.4269E-03    -62.2835E+06    -140.095E+06    -53.1754E+06    -7.16983E+06    -52.9882E-03     105.970E-03    -52.9821E-03     25.5513E-03    -53.0297E-03     105.448E-03    -52.9545E-03     25.3624E-03
             960     3.41440E-03     98.4560E-03    -58.3676E+06    -132.003E+06    -44.3754E+06    -9.27575E+06    -52.9969E-03     105.965E-03    -52.9685E-03     33.6354E-03    -53.0519E-03     105.473E-03    -52.9143E-03     33.3820E-03
             961     4.26817E-03     98.4929E-03    -54.0154E+06    -123.849E+06    -35.9488E+06    -10.9605E+06    -53.0141E-03     105.958E-03    -52.9444E-03     41.5114E-03    -53.0836E-03     105.501E-03    -52.8662E-03     41.1942E-03
             962     5.12212E-03     98.5373E-03    -49.6662E+06    -115.471E+06    -28.9254E+06    -12.5348E+06    -53.0448E-03     105.951E-03    -52.9064E-03     49.1089E-03    -53.1315E-03     105.536E-03    -52.8116E-03     48.7237E-03
             963     5.97616E-03     98.5889E-03    -45.3537E+06    -108.785E+06    -22.9563E+06    -14.0540E+06    -53.1146E-03     105.977E-03    -52.8623E-03     56.4395E-03    -53.2204E-03     105.602E-03    -52.7536E-03     55.9806E-03
             964     6.83024E-03     98.6475E-03    -41.3784E+06    -101.096E+06    -18.1712E+06    -15.6417E+06    -53.2039E-03     106.015E-03    -52.8111E-03     63.4736E-03    -53.3371E-03     105.695E-03    -52.6954E-03     62.9328E-03
             965     7.68460E-03     98.7125E-03    -37.6304E+06    -94.3331E+06    -14.1478E+06    -16.6004E+06    -53.3261E-03     106.086E-03    -52.7597E-03     70.1411E-03    -53.4944E-03     105.827E-03    -52.6391E-03     69.5180E-03
             966     8.53865E-03     98.7839E-03    -34.3554E+06    -89.1587E+06    -12.3814E+06    -17.1849E+06    -53.4789E-03     106.183E-03    -52.7040E-03     76.5282E-03    -53.6903E-03     105.992E-03    -52.5868E-03     75.8187E-03
             967     9.39323E-03     98.8609E-03    -31.6175E+06    -81.9865E+06    -12.2747E+06    -18.1839E+06    -53.6470E-03     106.290E-03    -52.6434E-03     82.4987E-03    -53.9192E-03     106.195E-03    -52.5400E-03     81.6875E-03
             968     10.2474E-03     98.9436E-03    -29.1639E+06    -75.5211E+06    -12.4411E+06    -18.4113E+06    -53.8597E-03     106.451E-03    -52.5913E-03     87.8235E-03    -54.2106E-03     106.466E-03    -52.5018E-03     86.9102E-03
             969     11.1017E-03     99.0307E-03    -27.1193E+06    -63.6218E+06    -13.8350E+06    -17.6696E+06    -54.0931E-03     106.630E-03    -52.5372E-03     92.9969E-03    -54.5590E-03     106.814E-03    -52.4748E-03     91.9810E-03
             970     11.9560E-03     99.1235E-03    -25.1932E+06    -44.0256E+06    -12.6330E+06    -15.2828E+06    -54.4536E-03     106.952E-03    -52.4986E-03     99.8724E-03    -55.1013E-03     107.391E-03    -52.4614E-03     98.7572E-03
             971     12.8097E-03     99.2239E-03    -23.1245E+06    -5.10151E+06    -13.3193E+06    -11.2390E+06    -54.8549E-03     107.289E-03    -52.4345E-03     109.488E-03    -55.7882E-03     108.161E-03    -52.4602E-03     108.285E-03
             972     13.6642E-03     99.3363E-03    -20.5141E+06     69.5854E+06     6.14600E+06    -6.12651E+06    -55.0280E-03     107.451E-03    -52.4228E-03     118.426E-03    -56.3455E-03     108.925E-03    -52.4633E-03     117.211E-03
             973     14.5176E-03     99.4547E-03    -16.3343E+06     121.239E+06     39.7873E+06    -2.26111E+06    -54.6848E-03     107.200E-03    -52.5157E-03     114.153E-03    -56.1942E-03     108.967E-03    -52.4689E-03     113.054E-03
             974     15.3723E-03     99.5593E-03    -10.2187E+06     131.028E+06     72.3824E+06    -1.02632E+06    -54.1761E-03     106.841E-03    -52.6646E-03     106.292E-03    -55.7474E-03     108.631E-03    -52.4778E-03     105.342E-03
             975     16.2281E-03     99.6638E-03    -4.73382E+06     132.143E+06     91.6354E+06     18.4606E+03    -53.6725E-03     106.440E-03    -52.7674E-03     78.9203E-03    -54.8369E-03     107.791E-03    -52.4940E-03     78.2493E-03
             976     853.635E-06     99.4464E-03    -65.5187E+06    -145.910E+06    -64.2401E+06    -3.12266E+06    -52.8096E-03     105.649E-03    -52.8396E-03     9.48257E-03    -52.8339E-03     105.109E-03    -52.8542E-03     9.40932E-03
             977     1.70734E-03     99.4594E-03    -63.3838E+06    -141.016E+06    -58.8606E+06    -5.53353E+06    -52.8117E-03     105.629E-03    -52.8169E-03     17.4327E-03    -52.8434E-03     105.105E-03    -52.8149E-03     17.2994E-03
             978     2.56113E-03     99.4803E-03    -60.0777E+06    -134.267E+06    -51.1483E+06    -7.91533E+06    -52.8033E-03     105.609E-03    -52.8060E-03     25.6760E-03    -52.8450E-03     105.109E-03    -52.7800E-03     25.4791E-03
             979     3.41497E-03     99.5093E-03    -56.1651E+06    -126.616E+06    -42.7427E+06    -10.0385E+06    -52.7874E-03     105.572E-03    -52.7850E-03     33.8201E-03    -52.8414E-03     105.101E-03    -52.7337E-03     33.5592E-03
             980     4.26898E-03     99.5460E-03    -51.9855E+06    -119.116E+06    -34.5401E+06    -11.9278E+06    -52.7763E-03     105.528E-03    -52.7515E-03     41.7592E-03    -52.8441E-03     105.088E-03    -52.6761E-03     41.4328E-03
             981     5.12310E-03     99.5902E-03    -47.5150E+06    -110.866E+06    -27.1798E+06    -13.5974E+06    -52.7911E-03     105.496E-03    -52.7044E-03     49.4584E-03    -52.8756E-03     105.097E-03    -52.6107E-03     49.0637E-03
             982     5.97735E-03     99.6418E-03    -43.2620E+06    -104.594E+06    -21.1670E+06    -15.1193E+06    -52.8350E-03     105.485E-03    -52.6501E-03     56.8837E-03    -52.9381E-03     105.125E-03    -52.5415E-03     56.4164E-03
             983     6.83183E-03     99.7001E-03    -39.4686E+06    -96.8467E+06    -16.5241E+06    -16.4312E+06    -52.9059E-03     105.492E-03    -52.5866E-03     64.0298E-03    -53.0368E-03     105.187E-03    -52.4715E-03     63.4855E-03
             984     7.68617E-03     99.7652E-03    -36.2065E+06    -91.3503E+06    -12.8725E+06    -17.4351E+06    -53.0184E-03     105.543E-03    -52.5243E-03     70.8477E-03    -53.1841E-03     105.293E-03    -52.4037E-03     70.2220E-03
             985     8.54095E-03     99.8363E-03    -33.1285E+06    -86.3933E+06    -11.2105E+06    -18.1326E+06    -53.1861E-03     105.645E-03    -52.4589E-03     77.3946E-03    -53.3953E-03     105.462E-03    -52.3417E-03     76.6820E-03
             986     9.39531E-03     99.9136E-03    -30.4977E+06    -78.9801E+06    -10.8614E+06    -18.8603E+06    -53.4093E-03     105.803E-03    -52.3938E-03     83.4794E-03    -53.6805E-03     105.717E-03    -52.2894E-03     82.6689E-03
             987     10.2501E-03     99.9961E-03    -28.3345E+06    -73.7366E+06    -11.1893E+06    -19.2514E+06    -53.6835E-03     106.026E-03    -52.3428E-03     88.9363E-03    -54.0329E-03     106.046E-03    -52.2507E-03     88.0220E-03
             988     11.1043E-03     100.084E-03    -26.3269E+06    -63.2211E+06    -12.9596E+06    -18.6647E+06    -54.0370E-03     106.332E-03    -52.2945E-03     94.2735E-03    -54.5000E-03     106.514E-03    -52.2295E-03     93.2529E-03
             989     11.9585E-03     100.176E-03    -24.0130E+06    -46.5112E+06    -12.3513E+06    -16.8896E+06    -54.4753E-03     106.743E-03    -52.2675E-03     101.281E-03    -55.1136E-03     107.167E-03    -52.2270E-03     100.152E-03
             990     12.8127E-03     100.278E-03    -21.3971E+06    -10.1716E+06    -12.6496E+06    -13.1350E+06    -55.0095E-03     107.233E-03    -52.2239E-03     110.861E-03    -55.9296E-03     108.078E-03    -52.2414E-03     109.638E-03
             991     13.6662E-03     100.389E-03    -18.3276E+06     63.4101E+06     6.85955E+06    -7.95372E+06    -55.2611E-03     107.494E-03    -52.2333E-03     119.671E-03    -56.5614E-03     108.935E-03    -52.2644E-03     118.435E-03
             992     14.5204E-03     100.510E-03    -14.5935E+06     118.199E+06     38.6043E+06    -3.81699E+06    -55.1412E-03     107.480E-03    -52.3385E-03     115.870E-03    -56.6427E-03     109.237E-03    -52.2957E-03     114.746E-03
             993     15.3726E-03     100.613E-03    -11.0897E+06     129.589E+06     69.1249E+06    -1.58246E+06    -55.0685E-03     107.588E-03    -52.5195E-03     108.210E-03    -56.6514E-03     109.391E-03    -52.3457E-03     107.234E-03
             994     16.2230E-03     100.719E-03    -5.01563E+06     130.738E+06     90.6153E+06    -510.741E+03    -53.5272E-03     106.183E-03    -52.6559E-03     80.5374E-03    -54.6981E-03     107.537E-03    -52.3851E-03     79.8536E-03
             995     853.899E-06     100.500E-03    -62.5934E+06    -138.854E+06    -61.2939E+06    -3.34136E+06    -52.5743E-03     105.136E-03    -52.5612E-03     9.56530E-03    -52.5984E-03     104.622E-03    -52.5756E-03     9.49007E-03
             996     1.70778E-03     100.512E-03    -60.4700E+06    -134.185E+06    -56.1047E+06    -6.08394E+06    -52.5559E-03     105.115E-03    -52.5593E-03     17.5523E-03    -52.5869E-03     104.618E-03    -52.5576E-03     17.4134E-03
             997     2.56176E-03     100.533E-03    -57.3145E+06    -128.049E+06    -48.7139E+06    -8.63347E+06    -52.5176E-03     105.061E-03    -52.5433E-03     25.8593E-03    -52.5579E-03     104.584E-03    -52.5181E-03     25.6554E-03
             998     3.41587E-03     100.562E-03    -53.4853E+06    -120.923E+06    -40.4396E+06    -10.8880E+06    -52.4729E-03     104.985E-03    -52.5119E-03     34.0737E-03    -52.5247E-03     104.535E-03    -52.4612E-03     33.8051E-03
             999     4.27015E-03     100.599E-03    -49.1986E+06    -113.689E+06    -32.2646E+06    -13.0151E+06    -52.4356E-03     104.901E-03    -52.4658E-03     42.1166E-03    -52.5001E-03     104.481E-03    -52.3909E-03     41.7806E-03
            1000     5.12458E-03     100.643E-03    -44.9295E+06    -106.336E+06    -25.2537E+06    -14.6630E+06    -52.4263E-03     104.831E-03    -52.4051E-03     49.9601E-03    -52.5065E-03     104.448E-03    -52.3121E-03     49.5576E-03
            1001     5.97921E-03     100.694E-03    -40.8415E+06    -100.027E+06    -19.2111E+06    -16.0872E+06    -52.4530E-03     104.791E-03    -52.3377E-03     57.5183E-03    -52.5523E-03     104.446E-03    -52.2295E-03     57.0459E-03
            1002     6.83385E-03     100.752E-03    -37.0465E+06    -93.2796E+06    -14.7720E+06    -17.1397E+06    -52.4958E-03     104.757E-03    -52.2608E-03     64.8270E-03    -52.6207E-03     104.462E-03    -52.1457E-03     64.2829E-03
            1003     7.68888E-03     100.817E-03    -33.6781E+06    -87.8187E+06    -11.1287E+06    -17.9226E+06    -52.6053E-03     104.790E-03    -52.1848E-03     71.8439E-03    -52.7640E-03     104.550E-03    -52.0642E-03     71.2230E-03
            1004     8.54365E-03     100.888E-03    -30.8217E+06    -83.6316E+06    -9.36368E+06    -18.8236E+06    -52.8123E-03     104.923E-03    -52.1110E-03     78.5744E-03    -53.0143E-03     104.746E-03    -51.9919E-03     77.8650E-03
            1005     9.39879E-03     100.966E-03    -28.3196E+06    -76.0516E+06    -8.79906E+06    -19.2338E+06    -53.0979E-03     105.140E-03    -52.0420E-03     84.9226E-03    -53.3627E-03     105.060E-03    -51.9346E-03     84.1208E-03
            1006     10.2533E-03     101.048E-03    -26.1956E+06    -71.2418E+06    -8.85213E+06    -19.7566E+06    -53.4640E-03     105.458E-03    -51.9941E-03     90.5798E-03    -53.8073E-03     105.481E-03    -51.8971E-03     89.6722E-03
            1007     11.1082E-03     101.136E-03    -24.2275E+06    -62.7472E+06    -11.3293E+06    -19.6797E+06    -53.9140E-03     105.866E-03    -51.9522E-03     96.1967E-03    -54.3676E-03     106.044E-03    -51.8827E-03     95.1763E-03
            1008     11.9624E-03     101.230E-03    -22.1528E+06    -47.5884E+06    -10.9513E+06    -18.5929E+06    -54.4917E-03     106.431E-03    -51.9396E-03     103.347E-03    -55.1206E-03     106.844E-03    -51.8932E-03     102.208E-03
            1009     12.8165E-03     101.330E-03    -19.3849E+06    -14.5532E+06    -11.9417E+06    -15.8204E+06    -55.1969E-03     107.114E-03    -51.9172E-03     113.138E-03    -56.1032E-03     107.935E-03    -51.9277E-03     111.889E-03
            1010     13.6702E-03     101.444E-03    -16.0097E+06     56.7401E+06     7.87121E+06    -9.89303E+06    -55.6095E-03     107.568E-03    -51.9583E-03     121.667E-03    -56.8941E-03     108.974E-03    -51.9780E-03     120.409E-03
            1011     14.5240E-03     101.562E-03    -13.3843E+06     112.816E+06     35.3357E+06    -3.51347E+06    -55.2229E-03     107.286E-03    -52.0630E-03     118.147E-03    -56.7089E-03     109.022E-03    -52.0305E-03     117.036E-03
            1012     15.3778E-03     101.671E-03    -10.0454E+06     129.201E+06     65.2080E+06    -1.11325E+06    -54.8315E-03     107.066E-03    -52.2350E-03     111.405E-03    -56.4126E-03     108.881E-03    -52.0818E-03     110.452E-03
            1013     16.2336E-03     101.773E-03    -5.18303E+06     130.274E+06     90.7298E+06    -1.38756E+06    -54.7588E-03     107.184E-03    -52.4253E-03     82.3049E-03    -55.9440E-03     108.550E-03    -52.1530E-03     81.5938E-03
            1014     854.159E-06     101.552E-03    -59.0226E+06    -131.181E+06    -58.1760E+06    -3.54492E+06    -52.2224E-03     104.408E-03    -52.1854E-03     9.62719E-03    -52.2443E-03     103.923E-03    -52.2005E-03     9.55037E-03
            1015     1.70839E-03     101.565E-03    -57.2091E+06    -126.773E+06    -53.0715E+06    -6.53466E+06    -52.1572E-03     104.344E-03    -52.1869E-03     17.7210E-03    -52.1869E-03     103.875E-03    -52.1855E-03     17.5783E-03
            1016     2.56271E-03     101.586E-03    -54.2671E+06    -121.302E+06    -45.9494E+06    -9.33447E+06    -52.0957E-03     104.252E-03    -52.1566E-03     26.1328E-03    -52.1343E-03     103.801E-03    -52.1318E-03     25.9231E-03
            1017     3.41721E-03     101.614E-03    -50.6276E+06    -114.676E+06    -38.0414E+06    -11.8573E+06    -52.0218E-03     104.132E-03    -52.1102E-03     34.4652E-03    -52.0714E-03     103.705E-03    -52.0608E-03     34.1888E-03
            1018     4.27185E-03     101.651E-03    -46.6054E+06    -107.952E+06    -30.3384E+06    -13.9995E+06    -51.9575E-03     104.005E-03    -52.0480E-03     42.6420E-03    -52.0194E-03     103.607E-03    -51.9756E-03     42.2997E-03
            1019     5.12676E-03     101.694E-03    -42.5416E+06    -101.670E+06    -23.5104E+06    -15.6141E+06    -51.9128E-03     103.885E-03    -51.9722E-03     50.6479E-03    -51.9891E-03     103.517E-03    -51.8806E-03     50.2415E-03
            1020     5.98175E-03     101.746E-03    -38.5839E+06    -95.3007E+06    -17.7031E+06    -17.0451E+06    -51.8979E-03     103.783E-03    -51.8855E-03     58.4231E-03    -51.9931E-03     103.455E-03    -51.7799E-03     57.9491E-03
            1021     6.83708E-03     101.803E-03    -34.8345E+06    -89.9689E+06    -13.1388E+06    -18.0622E+06    -51.9397E-03     103.733E-03    -51.7937E-03     65.9439E-03    -52.0584E-03     103.447E-03    -51.6784E-03     65.4006E-03
            1022     7.69237E-03     101.868E-03    -31.3674E+06    -84.3855E+06    -9.50549E+06    -18.6551E+06    -52.0673E-03     103.770E-03    -51.7029E-03     73.2453E-03    -52.2188E-03     103.538E-03    -51.5826E-03     72.6297E-03
            1023     8.54792E-03     101.939E-03    -28.2577E+06    -80.3857E+06    -7.03813E+06    -19.3559E+06    -52.3144E-03     103.937E-03    -51.6223E-03     80.2589E-03    -52.5084E-03     103.765E-03    -51.5000E-03     79.5592E-03
            1024     9.40315E-03     102.017E-03    -25.7416E+06    -73.9353E+06    -6.72325E+06    -19.6688E+06    -52.6542E-03     104.202E-03    -51.5479E-03     86.8837E-03    -52.9083E-03     104.122E-03    -51.4370E-03     86.0947E-03
            1025     10.2587E-03     102.100E-03    -23.6874E+06    -68.1627E+06    -5.99454E+06    -20.0375E+06    -53.1402E-03     104.644E-03    -51.5034E-03     92.8879E-03    -53.4762E-03     104.671E-03    -51.4002E-03     91.9952E-03
            1026     11.1133E-03     102.188E-03    -22.1753E+06    -61.7871E+06    -8.67150E+06    -20.2469E+06    -53.7416E-03     105.216E-03    -51.4739E-03     98.6866E-03    -54.1880E-03     105.389E-03    -51.3955E-03     97.6757E-03
            1027     11.9682E-03     102.282E-03    -20.7625E+06    -47.0769E+06    -8.44091E+06    -19.7045E+06    -54.4972E-03     105.978E-03    -51.4811E-03     106.060E-03    -55.1233E-03     106.388E-03    -51.4249E-03     104.921E-03
            1028     12.8220E-03     102.384E-03    -19.5804E+06    -17.7177E+06    -9.86258E+06    -17.6947E+06    -55.4072E-03     106.900E-03    -51.4924E-03     115.818E-03    -56.3153E-03     107.704E-03    -51.4876E-03     114.554E-03
            1029     13.6760E-03     102.497E-03    -18.2172E+06     47.6179E+06     7.14621E+06    -11.5817E+06    -56.0174E-03     107.585E-03    -51.5681E-03     124.166E-03    -57.3069E-03     108.959E-03    -51.5750E-03     122.887E-03
            1030     14.5288E-03     102.618E-03    -14.3950E+06     106.896E+06     29.6031E+06    -4.82326E+06    -55.8018E-03     107.489E-03    -51.6870E-03     119.417E-03    -57.2858E-03     109.215E-03    -51.6731E-03     118.281E-03
            1031     15.3834E-03     102.721E-03    -8.99796E+06     128.922E+06     60.2808E+06    -2.66835E+06    -55.7106E-03     107.621E-03    -51.9102E-03     110.627E-03    -57.2783E-03     109.439E-03    -51.7827E-03     109.633E-03
            1032     16.2351E-03     102.830E-03    -5.09513E+06     129.413E+06     91.1992E+06    -1.34598E+06    -56.1720E-03     108.379E-03    -52.2070E-03     81.2077E-03    -57.3522E-03     109.736E-03    -51.9312E-03     80.4690E-03
            1033     854.572E-06     102.604E-03    -55.8063E+06    -122.853E+06    -54.9031E+06    -3.96780E+06    -51.6861E-03     103.350E-03    -51.6635E-03     9.76790E-03    -51.7087E-03     102.897E-03    -51.6789E-03     9.68706E-03
            1034     1.70928E-03     102.617E-03    -53.9708E+06    -118.887E+06    -50.1880E+06    -7.02578E+06    -51.5889E-03     103.237E-03    -51.6478E-03     17.9574E-03    -51.6178E-03     102.798E-03    -51.6481E-03     17.8112E-03
            1035     2.56412E-03     102.637E-03    -51.2432E+06    -113.996E+06    -43.4677E+06    -9.97024E+06    -51.4900E-03     103.089E-03    -51.5990E-03     26.4925E-03    -51.5274E-03     102.666E-03    -51.5768E-03     26.2791E-03
            1036     3.41910E-03     102.665E-03    -47.8394E+06    -107.995E+06    -35.9815E+06    -12.5929E+06    -51.3845E-03     102.918E-03    -51.5332E-03     34.9957E-03    -51.4321E-03     102.516E-03    -51.4871E-03     34.7163E-03
            1037     4.27436E-03     102.701E-03    -44.1851E+06    -102.081E+06    -28.5893E+06    -14.7966E+06    -51.2872E-03     102.740E-03    -51.4524E-03     43.3782E-03    -51.3470E-03     102.363E-03    -51.3833E-03     43.0342E-03
            1038     5.12974E-03     102.745E-03    -40.3283E+06    -96.6301E+06    -21.9629E+06    -16.5439E+06    -51.1984E-03     102.555E-03    -51.3571E-03     51.6046E-03    -51.2716E-03     102.206E-03    -51.2683E-03     51.1974E-03
            1039     5.98553E-03     102.796E-03    -36.5965E+06    -90.6852E+06    -16.3217E+06    -17.8867E+06    -51.1437E-03     102.393E-03    -51.2488E-03     59.6335E-03    -51.2354E-03     102.080E-03    -51.1458E-03     59.1627E-03
            1040     6.84141E-03     102.854E-03    -33.1559E+06     -86.323E+06    -11.6646E+06    -18.8826E+06    -51.1947E-03     102.334E-03    -51.1393E-03     67.4582E-03    -51.3094E-03     102.058E-03    -51.0244E-03     66.9210E-03
            1041     7.69750E-03     102.918E-03    -29.7855E+06    -80.9221E+06    -8.27871E+06    -19.7079E+06    -51.3544E-03     102.387E-03    -51.0326E-03     75.0899E-03    -51.5011E-03     102.165E-03    -50.9135E-03     74.4798E-03
            1042     8.55356E-03     102.989E-03    -26.6472E+06    -77.4080E+06    -5.40830E+06    -20.1534E+06    -51.6364E-03     102.581E-03    -50.9441E-03     82.4540E-03    -51.8244E-03     102.415E-03    -50.8203E-03     81.7659E-03
            1043     9.40967E-03     103.067E-03    -23.9978E+06    -71.7333E+06    -4.72883E+06    -20.2403E+06    -52.0848E-03     102.953E-03    -50.8681E-03     89.4441E-03    -52.3316E-03     102.873E-03    -50.7529E-03     88.6708E-03
            1044     10.2653E-03     103.150E-03    -21.9244E+06    -65.8136E+06    -3.57247E+06    -20.2523E+06    -52.7129E-03     103.543E-03    -50.8302E-03     95.8137E-03    -53.0426E-03     103.572E-03    -50.7208E-03     94.9415E-03
            1045     11.1210E-03     103.239E-03    -20.5452E+06    -60.0620E+06    -5.50671E+06    -20.1088E+06    -53.5624E-03     104.385E-03    -50.8227E-03     101.828E-03    -54.0048E-03     104.557E-03    -50.7334E-03     100.840E-03
            1046     11.9753E-03     103.333E-03    -19.9347E+06    -46.2176E+06    -5.55421E+06    -19.5400E+06    -54.5758E-03     105.438E-03    -50.8625E-03     109.365E-03    -55.2031E-03     105.847E-03    -50.7943E-03     108.244E-03
            1047     12.8298E-03     103.437E-03    -19.6720E+06    -20.5386E+06    -6.84169E+06    -17.4538E+06    -55.7762E-03     106.702E-03    -50.9256E-03     119.120E-03    -56.6888E-03     107.491E-03    -50.9015E-03     117.868E-03
            1048     13.6827E-03     103.551E-03    -17.8677E+06     40.3201E+06     10.0187E+06    -12.6338E+06    -56.8052E-03     107.872E-03    -51.0672E-03     126.959E-03    -58.0967E-03     109.215E-03    -51.0496E-03     125.662E-03
            1049     14.5365E-03     103.672E-03    -14.3169E+06     102.025E+06     29.2243E+06    -7.57501E+06    -57.5038E-03     108.765E-03    -51.2610E-03     121.513E-03    -59.0000E-03     110.488E-03    -51.2420E-03     120.306E-03
            1050     15.3858E-03     103.779E-03    -10.3751E+06     126.564E+06     56.1799E+06    -3.78665E+06    -58.0191E-03     109.611E-03    -51.5921E-03     113.003E-03    -59.6134E-03     111.455E-03    -51.4797E-03     111.933E-03
            1051     16.2362E-03     103.886E-03    -5.01817E+06     126.817E+06     89.7189E+06    -1.09310E+06    -57.0478E-03     109.043E-03    -51.9950E-03     83.8337E-03    -58.2445E-03     110.412E-03    -51.7230E-03     83.0669E-03
            1052     855.264E-06     103.654E-03    -52.5390E+06    -113.820E+06    -51.6672E+06    -4.29286E+06    -50.9381E-03     101.827E-03    -50.8891E-03     9.94456E-03    -50.9621E-03     101.411E-03    -50.9062E-03     9.86158E-03
            1053     1.71053E-03     103.667E-03    -50.7743E+06    -110.630E+06    -47.4114E+06    -7.45199E+06    -50.8040E-03     101.684E-03    -50.8796E-03     18.2645E-03    -50.8328E-03     101.277E-03    -50.8827E-03     18.1167E-03
            1054     2.56603E-03     103.687E-03    -48.3460E+06    -106.219E+06    -41.3126E+06    -10.5415E+06    -50.6624E-03     101.477E-03    -50.8144E-03     26.9991E-03    -50.6992E-03     101.085E-03    -50.7968E-03     26.7844E-03
            1055     3.42181E-03     103.715E-03    -45.2436E+06    -101.123E+06    -34.1168E+06    -13.2481E+06    -50.5120E-03     101.241E-03    -50.7293E-03     35.7008E-03    -50.5585E-03     100.867E-03    -50.6877E-03     35.4214E-03
            1056     4.27775E-03     103.751E-03    -41.7842E+06    -95.9700E+06    -26.8761E+06    -15.4120E+06    -50.3578E-03     100.984E-03    -50.6260E-03     44.3272E-03    -50.4154E-03     100.630E-03    -50.5606E-03     43.9867E-03
            1057     5.13411E-03     103.794E-03    -38.2318E+06    -91.1551E+06    -20.3994E+06    -17.3441E+06    -50.2311E-03     100.737E-03    -50.5062E-03     52.8283E-03    -50.3018E-03     100.408E-03    -50.4206E-03     52.4253E-03
            1058     5.99060E-03     103.844E-03    -34.6762E+06    -86.2886E+06    -15.0712E+06    -18.6269E+06    -50.1702E-03     100.545E-03    -50.3752E-03     61.1878E-03    -50.2574E-03     100.247E-03    -50.2752E-03     60.7251E-03
            1059     6.84745E-03     103.902E-03    -31.3184E+06    -82.3148E+06    -10.3808E+06    -19.5094E+06    -50.2172E-03     100.464E-03    -50.2466E-03     69.4032E-03    -50.3262E-03     100.199E-03    -50.1337E-03     68.8790E-03
            1060     7.70436E-03     103.966E-03    -28.3883E+06    -77.3755E+06    -6.99464E+06    -20.4058E+06    -50.4107E-03     100.536E-03    -50.1251E-03     77.4531E-03    -50.5522E-03     100.322E-03    -50.0067E-03     76.8585E-03
            1061     8.56130E-03     104.038E-03    -25.7648E+06    -74.7078E+06    -4.34635E+06    -20.8580E+06    -50.7735E-03     100.801E-03    -50.0279E-03     85.2418E-03    -50.9564E-03     100.640E-03    -49.9040E-03     84.5717E-03
            1062     9.41813E-03     104.115E-03    -23.3402E+06    -69.3126E+06    -3.16231E+06    -20.7234E+06    -51.3750E-03     101.330E-03    -49.9553E-03     92.7130E-03    -51.6180E-03     101.253E-03    -49.8368E-03     91.9620E-03
            1063     10.2747E-03     104.200E-03    -21.4352E+06    -64.1546E+06    -1.91756E+06    -20.4556E+06    -52.2401E-03     102.173E-03    -49.9331E-03     99.4772E-03    -52.5664E-03     102.201E-03    -49.8186E-03     98.6304E-03
            1064     11.1302E-03     104.289E-03    -19.9797E+06    -58.6368E+06    -3.07615E+06    -19.8925E+06    -53.3855E-03     103.345E-03    -49.9596E-03     105.877E-03    -53.8264E-03     103.516E-03    -49.8609E-03     104.918E-03
            1065     11.9856E-03     104.385E-03    -19.0124E+06    -45.9088E+06    -2.67681E+06    -18.7176E+06    -54.8120E-03     104.863E-03    -50.0514E-03     113.499E-03    -55.4396E-03     105.268E-03    -49.9707E-03     112.408E-03
            1066     12.8391E-03     104.490E-03    -18.3227E+06    -22.2095E+06    -2.70494E+06    -16.6401E+06    -56.4742E-03     106.667E-03    -50.1930E-03     123.194E-03    -57.3889E-03     107.446E-03    -50.1477E-03     121.961E-03
            1067     13.6926E-03     104.606E-03    -16.8976E+06     36.1049E+06     14.3195E+06    -13.4878E+06    -58.1538E-03     108.588E-03    -50.4345E-03     130.832E-03    -59.4570E-03     109.918E-03    -50.3908E-03     129.510E-03
            1068     14.5424E-03     104.728E-03    -14.3855E+06     96.6852E+06     31.1706E+06    -8.66872E+06    -59.0984E-03     109.828E-03    -50.7301E-03     125.716E-03    -60.6151E-03     111.547E-03    -50.6936E-03     124.469E-03
            1069     15.3937E-03     104.838E-03    -10.7286E+06     123.228E+06     55.1018E+06    -4.31082E+06    -59.4664E-03     110.611E-03    -51.1451E-03     117.332E-03    -61.0879E-03     112.473E-03    -51.0327E-03     116.227E-03
            1070     16.2438E-03     104.944E-03    -5.19206E+06     124.049E+06     87.8585E+06    -2.09833E+06    -59.3521E-03     111.007E-03    -51.6553E-03     86.2389E-03    -60.5684E-03     112.391E-03    -51.3884E-03     85.4127E-03
            1071     856.053E-06     104.703E-03    -48.8868E+06    -104.293E+06    -48.4024E+06    -4.50489E+06    -49.8757E-03     99.7225E-03    -49.8468E-03     10.1215E-03    -49.8999E-03     99.3433E-03    -49.8667E-03     10.0384E-03
            1072     1.71235E-03     104.715E-03    -47.5866E+06    -101.997E+06    -44.5770E+06    -7.82391E+06    -49.7239E-03     99.5431E-03    -49.8192E-03     18.6781E-03    -49.7531E-03     99.1704E-03    -49.8252E-03     18.5304E-03
            1073     2.56878E-03     104.735E-03    -45.3785E+06    -98.0852E+06    -39.0481E+06    -11.0192E+06    -49.5574E-03     99.2964E-03    -49.7390E-03     27.6364E-03    -49.5938E-03     98.9366E-03    -49.7262E-03     27.4232E-03
            1074     3.42541E-03     104.763E-03    -42.7770E+06    -94.1249E+06    -32.4822E+06    -13.6904E+06    -49.3454E-03     98.9804E-03    -49.6349E-03     36.6045E-03    -49.3910E-03     98.6339E-03    -49.5988E-03     36.3302E-03
            1075     4.28249E-03     104.798E-03    -39.8126E+06    -89.7149E+06    -25.7887E+06    -15.8312E+06    -49.1376E-03     98.6440E-03    -49.5064E-03     45.5233E-03    -49.1941E-03     98.3153E-03    -49.4475E-03     45.1916E-03
            1076     5.13980E-03     104.841E-03    -36.8377E+06    -85.3850E+06    -19.6551E+06    -17.6669E+06    -48.9755E-03     98.3366E-03    -49.3611E-03     54.3622E-03    -49.0458E-03     98.0299E-03    -49.2821E-03     53.9730E-03
            1077     5.99754E-03     104.891E-03    -33.9257E+06    -81.8062E+06    -14.6432E+06    -19.1477E+06    -48.8985E-03     98.1061E-03    -49.2076E-03     63.1248E-03    -48.9850E-03     97.8241E-03    -49.1130E-03     62.6773E-03
            1078     6.85542E-03     104.948E-03    -30.9899E+06    -78.3818E+06    -10.2746E+06    -20.0330E+06    -48.9568E-03     98.0150E-03    -49.0582E-03     71.8268E-03    -49.0647E-03     97.7643E-03    -48.9510E-03     71.3219E-03
            1079     7.71349E-03     105.013E-03    -28.5139E+06    -74.0052E+06    -6.66480E+06    -20.3978E+06    -49.1969E-03     98.1206E-03    -48.9237E-03     80.3762E-03    -49.3376E-03     97.9166E-03    -48.8084E-03     79.8117E-03
            1080     8.57161E-03     105.084E-03    -26.4369E+06    -71.3142E+06    -3.86309E+06    -21.0239E+06    -49.7229E-03     98.5461E-03    -48.8231E-03     88.6972E-03    -49.9072E-03     98.3944E-03    -48.7007E-03     88.0576E-03
            1081     9.42934E-03     105.162E-03    -24.5274E+06    -67.9245E+06    -2.86766E+06    -21.0149E+06    -50.5662E-03     99.3307E-03    -48.7645E-03     96.6821E-03    -50.8096E-03     99.2541E-03    -48.6448E-03     95.9607E-03
            1082     10.2865E-03     105.247E-03    -22.8907E+06    -62.2346E+06    -1.10371E+06    -20.4013E+06    -51.7380E-03     100.512E-03    -48.7736E-03     103.890E-03    -52.0682E-03     100.543E-03    -48.6557E-03     103.077E-03
            1083     11.1431E-03     105.338E-03    -21.5157E+06    -57.7775E+06    -1.49667E+06    -19.9558E+06    -53.3119E-03     102.168E-03    -48.8557E-03     110.646E-03    -53.7595E-03     102.338E-03    -48.7483E-03     109.713E-03
            1084     11.9978E-03     105.436E-03    -20.2018E+06    -46.0377E+06    -404.216E+03    -18.5778E+06    -55.2742E-03     104.301E-03    -49.0269E-03     118.402E-03    -55.9115E-03     104.705E-03    -48.9329E-03     117.330E-03
            1085     12.8517E-03     105.543E-03    -18.5971E+06    -22.9918E+06     1.61074E+06    -16.6013E+06    -57.5709E-03     106.851E-03    -49.2803E-03     128.028E-03    -58.5033E-03     107.631E-03    -49.2119E-03     126.794E-03
            1086     13.7028E-03     105.661E-03    -16.6255E+06     32.7486E+06     18.7438E+06    -13.5846E+06    -59.5828E-03     109.226E-03    -49.6435E-03     135.703E-03    -60.9094E-03     110.556E-03    -49.5732E-03     134.361E-03
            1087     14.5543E-03     105.786E-03    -13.6045E+06     91.1645E+06     34.2231E+06    -9.29793E+06    -60.6720E-03     110.726E-03    -50.0541E-03     129.643E-03    -62.2072E-03     112.438E-03    -49.9955E-03     128.359E-03
            1088     15.4032E-03     105.895E-03    -8.95127E+06     118.837E+06     57.1263E+06    -5.29830E+06    -61.7725E-03     112.368E-03    -50.5954E-03     119.632E-03    -63.4084E-03     114.229E-03    -50.4691E-03     118.459E-03
            1089     16.2507E-03     106.006E-03    -4.56058E+06     122.413E+06     87.7816E+06    -2.44969E+06    -63.2048E-03     114.482E-03    -51.2769E-03     87.2827E-03    -64.4359E-03     115.877E-03    -51.0089E-03     86.3712E-03
            1090     857.331E-06     105.749E-03    -46.0181E+06    -94.5036E+06    -45.3560E+06    -4.62560E+06    -48.4484E-03     96.9060E-03    -48.4577E-03     10.3562E-03    -48.4768E-03     96.5670E-03    -48.4807E-03     10.2748E-03
            1091     1.71471E-03     105.761E-03    -44.9165E+06    -92.8257E+06    -42.3281E+06    -8.13773E+06    -48.3020E-03     96.7069E-03    -48.4049E-03     19.1715E-03    -48.3341E-03     96.3726E-03    -48.4168E-03     19.0259E-03
            1092     2.57233E-03     105.781E-03    -43.2141E+06    -90.1311E+06    -37.7046E+06    -11.2421E+06    -48.0847E-03     96.3945E-03    -48.3099E-03     28.3837E-03    -48.1229E-03     96.0685E-03    -48.3050E-03     28.1770E-03
            1093     3.43036E-03     105.808E-03    -41.1787E+06    -87.0883E+06    -31.9876E+06    -13.6797E+06    -47.8249E-03     96.0080E-03    -48.1830E-03     37.6698E-03    -47.8719E-03     95.6921E-03    -48.1569E-03     37.4086E-03
            1094     4.28867E-03     105.843E-03    -38.9322E+06    -83.4717E+06    -25.9979E+06    -15.8236E+06    -47.5740E-03     95.6039E-03    -48.0299E-03     46.9631E-03    -47.6325E-03     95.3030E-03    -47.9824E-03     46.6486E-03
            1095     5.14743E-03     105.885E-03    -36.6447E+06    -79.9912E+06    -20.2818E+06    -17.3841E+06    -47.3739E-03     95.2346E-03    -47.8606E-03     56.2266E-03    -47.4465E-03     94.9517E-03    -47.7929E-03     55.8625E-03
            1096     6.00648E-03     105.935E-03    -34.7252E+06    -76.9577E+06    -15.3124E+06    -18.6167E+06    -47.2902E-03     94.9766E-03    -47.6864E-03     65.4780E-03    -47.3817E-03     94.7158E-03    -47.6011E-03     65.0633E-03
            1097     6.86587E-03     105.992E-03    -33.2442E+06    -74.5264E+06    -11.4907E+06    -19.5995E+06    -47.3896E-03     94.9102E-03    -47.5206E-03     74.6933E-03    -47.5060E-03     94.6770E-03    -47.4218E-03     74.2244E-03
            1098     7.72537E-03     106.056E-03    -31.6881E+06    -71.1452E+06    -8.07087E+06    -19.8646E+06    -47.7596E-03     95.1407E-03    -47.3810E-03     83.7898E-03    -47.9100E-03     94.9492E-03    -47.2723E-03     83.2664E-03
            1099     8.58466E-03     106.128E-03    -30.4193E+06    -67.6271E+06    -4.93486E+06    -20.2339E+06    -48.5185E-03     95.8098E-03    -47.2913E-03     92.7117E-03    -48.7171E-03     95.6745E-03    -47.1738E-03     92.1187E-03
            1100     9.44356E-03     106.207E-03    -29.3990E+06    -66.0103E+06    -3.64780E+06    -20.7672E+06    -49.7281E-03     96.9974E-03    -47.2693E-03     101.188E-03    -49.9883E-03     96.9294E-03    -47.1492E-03     100.506E-03
            1101     10.3016E-03     106.293E-03    -27.7268E+06    -60.4270E+06    -1.80662E+06    -20.6704E+06    -51.3597E-03     98.6958E-03    -47.3361E-03     108.813E-03    -51.7081E-03     98.7364E-03    -47.2173E-03     108.029E-03
            1102     11.1581E-03     106.386E-03    -25.6806E+06    -56.6141E+06    -1.11050E+06    -20.3390E+06    -53.4722E-03     100.979E-03    -47.5071E-03     115.842E-03    -53.9395E-03     101.158E-03    -47.3933E-03     114.930E-03
            1103     12.0133E-03     106.486E-03    -23.4180E+06    -46.2710E+06     405.356E+03    -19.3935E+06    -56.0555E-03     103.846E-03    -47.7910E-03     123.773E-03    -56.7138E-03     104.256E-03    -47.6879E-03     122.702E-03
            1104     12.8658E-03     106.596E-03    -20.9319E+06    -24.0040E+06     3.83974E+06    -17.6913E+06    -58.9207E-03     107.104E-03    -48.1838E-03     133.374E-03    -59.8830E-03     107.896E-03    -48.0994E-03     132.118E-03
            1105     13.7171E-03     106.718E-03    -17.6356E+06     30.1397E+06     21.8013E+06    -14.6810E+06    -61.4933E-03     110.196E-03    -48.7027E-03     140.131E-03    -62.8537E-03     111.538E-03    -48.6119E-03     138.743E-03
            1106     14.5656E-03     106.844E-03    -13.3372E+06     87.2977E+06     37.6084E+06    -10.8504E+06    -63.4857E-03     112.780E-03    -49.2943E-03     132.598E-03    -65.0547E-03     114.503E-03    -49.2135E-03     131.227E-03
            1107     15.4120E-03     106.957E-03    -9.26442E+06     113.429E+06     57.9115E+06    -6.44244E+06    -65.6125E-03     115.655E-03    -50.0426E-03     121.716E-03    -67.2857E-03     117.531E-03    -49.9041E-03     120.418E-03
            1108     16.2555E-03     107.069E-03    -4.87648E+06     119.019E+06     85.9558E+06    -2.35548E+06    -67.3135E-03     118.252E-03    -50.9389E-03     89.4958E-03    -68.5734E-03     119.669E-03    -50.6746E-03     88.4795E-03
            1109     858.818E-06     106.792E-03    -43.7318E+06    -84.5959E+06    -43.3521E+06    -4.60492E+06    -46.6381E-03     93.2763E-03    -46.6382E-03     10.6703E-03    -46.6723E-03     92.9805E-03    -46.6689E-03     10.5929E-03
            1110     1.71778E-03     106.804E-03    -43.1406E+06    -83.6283E+06    -41.1149E+06    -8.05640E+06    -46.4583E-03     93.0383E-03    -46.5800E-03     19.7298E-03    -46.4962E-03     92.7451E-03    -46.6018E-03     19.5923E-03
            1111     2.57705E-03     106.823E-03    -42.2404E+06    -82.4669E+06    -37.6677E+06    -10.9887E+06    -46.1990E-03     92.6658E-03    -46.4667E-03     29.2575E-03    -46.2427E-03     92.3756E-03    -46.4742E-03     29.0648E-03
            1112     3.43662E-03     106.849E-03    -40.9751E+06    -80.3442E+06    -33.1812E+06    -13.2865E+06    -45.9050E-03     92.2220E-03    -46.3171E-03     38.8931E-03    -45.9572E-03     91.9394E-03    -46.3070E-03     38.6519E-03
            1113     4.29666E-03     106.884E-03    -39.7825E+06    -77.7446E+06    -27.9768E+06    -14.8894E+06    -45.6065E-03     91.7485E-03    -46.1420E-03     48.5913E-03    -45.6717E-03     91.4772E-03    -46.1115E-03     48.3083E-03
            1114     5.15711E-03     106.925E-03    -38.9064E+06    -75.1669E+06    -22.7753E+06    -16.0725E+06    -45.3889E-03     91.3411E-03    -45.9522E-03     58.3348E-03    -45.4718E-03     91.0847E-03    -45.9007E-03     58.0118E-03
            1115     6.01799E-03     106.975E-03    -38.2386E+06    -72.8420E+06    -17.9437E+06    -16.7188E+06    -45.3551E-03     91.1200E-03    -45.7649E-03     68.1145E-03    -45.4601E-03     90.8823E-03    -45.6935E-03     67.7532E-03
            1116     6.87903E-03     107.032E-03    -38.0295E+06    -70.5095E+06    -13.6769E+06    -17.2799E+06    -45.5902E-03     91.1910E-03    -45.6007E-03     77.8501E-03    -45.7252E-03     90.9799E-03    -45.5117E-03     77.4440E-03
            1117     7.74006E-03     107.096E-03    -37.8823E+06    -68.0006E+06    -10.2988E+06    -18.2068E+06    -46.2005E-03     91.6806E-03    -45.4801E-03     87.5114E-03    -46.3739E-03     91.5077E-03    -45.3781E-03     87.0450E-03
            1118     8.60084E-03     107.169E-03    -37.1604E+06    -64.7075E+06    -7.06688E+06    -18.6869E+06    -47.3247E-03     92.7559E-03    -45.4312E-03     96.9957E-03    -47.5481E-03     92.6380E-03    -45.3189E-03     96.4593E-03
            1119     9.46070E-03     107.249E-03    -36.0343E+06    -62.1175E+06    -4.48675E+06    -19.7214E+06    -49.0183E-03     94.4992E-03    -45.4809E-03     105.907E-03    -49.3068E-03     94.4521E-03    -45.3610E-03     105.273E-03
            1120     10.3192E-03     107.337E-03    -34.3997E+06    -57.9125E+06    -3.02977E+06    -21.1229E+06    -51.2206E-03     96.8642E-03    -45.6436E-03     113.904E-03    -51.5978E-03     96.9225E-03    -45.5249E-03     113.143E-03
            1121     11.1761E-03     107.433E-03    -31.6056E+06    -54.7894E+06    -1.86201E+06    -21.6884E+06    -53.9633E-03     99.9035E-03    -45.9402E-03     121.321E-03    -54.4604E-03     100.099E-03    -45.8242E-03     120.411E-03
            1122     12.0303E-03     107.536E-03    -27.8054E+06    -45.5956E+06     121.615E+03    -21.8014E+06    -57.1966E-03     103.570E-03    -46.3735E-03     129.406E-03    -57.8863E-03     103.999E-03    -46.2665E-03     128.306E-03
            1123     12.8826E-03     107.650E-03    -23.5298E+06    -25.2378E+06     4.60689E+06    -20.2280E+06    -60.7814E-03     107.724E-03    -46.9428E-03     138.679E-03    -61.7784E-03     108.535E-03    -46.8491E-03     137.367E-03
            1124     13.7314E-03     107.774E-03    -18.8412E+06     27.9633E+06     22.9293E+06    -17.2362E+06    -64.3217E-03     111.986E-03    -47.6647E-03     144.724E-03    -65.7288E-03     113.360E-03    -47.5632E-03     143.239E-03
            1125     14.5777E-03     107.906E-03    -14.3469E+06     81.6471E+06     38.5792E+06    -12.4107E+06    -67.1709E-03     115.664E-03    -48.4933E-03     136.785E-03    -68.7942E-03     117.415E-03    -48.3980E-03     135.294E-03
            1126     15.4202E-03     108.021E-03    -10.3031E+06     107.978E+06     57.6953E+06    -6.84411E+06    -69.8978E-03     119.382E-03    -49.4843E-03     126.035E-03    -71.6343E-03     121.299E-03    -49.3375E-03     124.599E-03
            1127     16.2603E-03     108.139E-03    -5.25493E+06     115.606E+06     83.6317E+06    -3.12122E+06    -71.7204E-03     122.331E-03    -50.6103E-03     92.8187E-03    -73.0226E-03     123.783E-03    -50.3522E-03     91.6718E-03
            1128     860.776E-06     107.830E-03    -42.3102E+06    -74.9412E+06    -42.1762E+06    -4.28816E+06    -44.3556E-03     88.7297E-03    -44.3741E-03     11.0192E-03    -44.3983E-03     88.4780E-03    -44.4149E-03     10.9499E-03
            1129     1.72169E-03     107.842E-03    -42.6304E+06    -75.1430E+06    -41.2453E+06    -7.42918E+06    -44.1511E-03     88.4459E-03    -44.2948E-03     20.3104E-03    -44.1981E-03     88.1939E-03    -44.3303E-03     20.1886E-03
            1130     2.58291E-03     107.861E-03    -42.7097E+06    -75.2654E+06    -39.2297E+06    -10.0010E+06    -43.8726E-03     88.0368E-03    -44.1642E-03     30.1840E-03    -43.9257E-03     87.7843E-03    -44.1893E-03     30.0158E-03
            1131     3.44454E-03     107.887E-03    -43.0208E+06    -74.5246E+06    -36.3568E+06    -11.7559E+06    -43.5488E-03     87.5461E-03    -43.9973E-03     40.1951E-03    -43.6130E-03     87.2979E-03    -44.0086E-03     39.9897E-03
            1132     4.30660E-03     107.920E-03    -43.4981E+06    -73.2568E+06    -32.2794E+06    -12.6281E+06    -43.2442E-03     87.0524E-03    -43.8081E-03     50.3035E-03    -43.3249E-03     86.8116E-03    -43.8002E-03     50.0702E-03
            1133     5.16915E-03     107.962E-03    -44.2327E+06    -71.2431E+06    -27.2093E+06    -12.9620E+06    -43.0800E-03     86.6945E-03    -43.6145E-03     60.5245E-03    -43.1837E-03     86.4666E-03    -43.5831E-03     60.2668E-03
            1134     6.03198E-03     108.011E-03    -45.1210E+06    -69.6249E+06    -21.9223E+06    -13.3064E+06    -43.1889E-03     86.6289E-03    -43.4400E-03     70.8073E-03    -43.3203E-03     86.4161E-03    -43.3833E-03     70.5193E-03
            1135     6.89491E-03     108.068E-03    -45.2617E+06    -66.7862E+06    -16.7038E+06    -14.0181E+06    -43.6890E-03     86.9974E-03    -43.3084E-03     81.0689E-03    -43.8527E-03     86.8113E-03    -43.2294E-03     80.7372E-03
            1136     7.75761E-03     108.133E-03    -44.7690E+06    -63.8426E+06    -11.9808E+06    -15.3523E+06    -44.7136E-03     87.9626E-03    -43.2490E-03     91.2371E-03    -44.9155E-03     87.8134E-03    -43.1514E-03     90.8408E-03
            1137     8.61949E-03     108.206E-03    -43.4727E+06    -61.0626E+06    -8.24652E+06    -17.1949E+06    -46.3191E-03     89.6065E-03    -43.2874E-03     101.218E-03    -46.5680E-03     89.5080E-03    -43.1770E-03     100.733E-03
            1138     9.48017E-03     108.289E-03    -40.8260E+06    -57.5850E+06    -4.98073E+06    -19.2855E+06    -48.5467E-03     91.9943E-03    -43.4475E-03     110.665E-03    -48.8566E-03     91.9692E-03    -43.3297E-03     110.067E-03
            1139     10.3391E-03     108.380E-03    -37.4271E+06    -53.7448E+06    -2.60083E+06    -21.4114E+06    -51.4005E-03     95.1496E-03    -43.7490E-03     119.087E-03    -51.7948E-03     95.2278E-03    -43.6298E-03     118.346E-03
            1140     11.1955E-03     108.478E-03    -33.8055E+06    -51.2358E+06    -1.14490E+06    -23.6493E+06    -54.8037E-03     99.0116E-03    -44.2079E-03     126.869E-03    -55.3200E-03     99.2296E-03    -44.0903E-03     125.945E-03
            1141     12.0496E-03     108.586E-03    -29.4197E+06    -43.6156E+06     908.233E+03    -25.0216E+06    -58.7750E-03     103.602E-03    -44.8267E-03     135.209E-03    -59.4896E-03     104.055E-03    -44.7163E-03     134.060E-03
            1142     12.8998E-03     108.704E-03    -24.2786E+06    -26.8349E+06     5.13864E+06    -23.8583E+06    -63.2729E-03     108.882E-03    -45.6089E-03     144.512E-03    -64.3051E-03     109.718E-03    -45.5091E-03     143.112E-03
            1143     13.7469E-03     108.834E-03    -19.1471E+06     25.4507E+06     23.1507E+06    -20.3910E+06    -67.5819E-03     114.146E-03    -46.5645E-03     150.378E-03    -69.0427E-03     115.563E-03    -46.4579E-03     148.770E-03
            1144     14.5900E-03     108.970E-03    -13.9622E+06     73.8862E+06     38.2652E+06    -14.4007E+06    -71.0651E-03     118.711E-03    -47.6460E-03     141.978E-03    -72.7439E-03     120.492E-03    -47.5415E-03     140.344E-03
            1145     15.4302E-03     109.091E-03    -8.53871E+06     101.106E+06     57.0851E+06    -7.55266E+06    -74.3681E-03     123.257E-03    -48.8888E-03     130.978E-03    -76.1621E-03     125.215E-03    -48.7376E-03     129.382E-03
            1146     16.2665E-03     109.213E-03    -4.26790E+06     112.809E+06     82.6676E+06    -3.30640E+06    -76.7739E-03     127.046E-03    -50.2717E-03     96.4215E-03    -78.1175E-03     128.535E-03    -50.0157E-03     95.1312E-03
            1147     863.106E-06     108.864E-03    -43.5967E+06    -66.7378E+06    -43.3784E+06    -3.47819E+06    -41.5983E-03     83.2060E-03    -41.6076E-03     11.3427E-03    -41.6575E-03     82.9986E-03    -41.6646E-03     11.2881E-03
            1148     1.72644E-03     108.875E-03    -44.6318E+06    -67.8589E+06    -43.6902E+06    -5.90022E+06    -41.3877E-03     82.9164E-03    -41.5287E-03     20.8773E-03    -41.4512E-03     82.7065E-03    -41.5840E-03     20.7831E-03
            1149     2.59004E-03     108.893E-03    -46.3350E+06    -69.5519E+06    -43.4973E+06    -7.68001E+06    -41.0982E-03     82.4895E-03    -41.3913E-03     31.0571E-03    -41.1702E-03     82.2755E-03    -41.4408E-03     30.9307E-03
            1150     3.45407E-03     108.919E-03    -48.5313E+06    -70.5375E+06    -41.9248E+06    -8.28560E+06    -40.7894E-03     82.0114E-03    -41.2220E-03     41.4152E-03    -40.8765E-03     81.7966E-03    -41.2590E-03     41.2706E-03
            1151     4.31853E-03     108.952E-03    -50.9639E+06    -70.1449E+06    -38.3555E+06    -8.43150E+06    -40.5768E-03     81.6202E-03    -41.0434E-03     51.9150E-03    -40.6867E-03     81.4107E-03    -41.0596E-03     51.7559E-03
            1152     5.18334E-03     108.993E-03    -52.6394E+06    -68.6569E+06    -32.5515E+06    -8.56464E+06    -40.5933E-03     81.4760E-03    -40.8828E-03     62.5747E-03    -40.7297E-03     81.2756E-03    -40.8696E-03     62.3975E-03
            1153     6.04831E-03     109.042E-03    -52.8608E+06    -66.2331E+06    -25.4940E+06    -9.34805E+06    -40.9821E-03     81.7467E-03    -40.7646E-03     73.3143E-03    -41.1451E-03     81.5603E-03    -40.7194E-03     73.1042E-03
            1154     6.91309E-03     109.099E-03    -51.8362E+06    -62.8503E+06    -18.8549E+06    -11.1159E+06    -41.8950E-03     82.6088E-03    -40.7139E-03     84.0647E-03    -42.0858E-03     82.4469E-03    -40.6419E-03     83.7990E-03
            1155     7.77718E-03     109.165E-03    -49.4537E+06    -59.2860E+06    -12.8729E+06    -13.3435E+06    -43.4167E-03     84.1788E-03    -40.7621E-03     94.7607E-03    -43.6384E-03     84.0515E-03    -40.6688E-03     94.4197E-03
            1156     8.64005E-03     109.241E-03    -46.1136E+06    -55.4270E+06    -7.97934E+06    -16.4547E+06    -45.5531E-03     86.4847E-03    -40.9316E-03     105.287E-03    -45.8151E-03     86.4092E-03    -40.8243E-03     104.841E-03
            1157     9.50139E-03     109.326E-03    -42.0948E+06    -51.8759E+06    -4.31610E+06    -20.1120E+06    -48.3455E-03     89.5873E-03    -41.2418E-03     115.346E-03    -48.6638E-03     89.5845E-03    -41.1271E-03     114.762E-03
            1158     10.3604E-03     109.420E-03    -37.3503E+06    -49.1570E+06    -1.55378E+06    -23.0577E+06    -51.8378E-03     93.5516E-03    -41.7137E-03     124.399E-03    -52.2366E-03     93.6479E-03    -41.5960E-03     123.654E-03
            1159     11.2166E-03     109.523E-03    -32.6630E+06    -46.1491E+06     550.851E+03    -25.5448E+06    -55.9586E-03     98.3212E-03    -42.3626E-03     132.671E-03    -56.4835E-03     98.5652E-03    -42.2456E-03     131.728E-03
            1160     12.0692E-03     109.635E-03    -28.1157E+06    -39.6582E+06     2.54056E+06    -28.1065E+06    -60.7289E-03     103.922E-03    -43.1931E-03     141.563E-03    -61.4626E-03     104.409E-03    -43.0822E-03     140.359E-03
            1161     12.9183E-03     109.759E-03    -23.2529E+06    -28.7038E+06     5.16772E+06    -27.6341E+06    -66.0462E-03     110.254E-03    -44.2073E-03     151.212E-03    -67.1100E-03     111.119E-03    -44.1061E-03     149.712E-03
            1162     13.7627E-03     109.895E-03    -18.8402E+06     21.6959E+06     22.6884E+06    -22.7779E+06    -71.0771E-03     116.489E-03    -45.4120E-03     156.778E-03    -72.5951E-03     117.952E-03    -45.3027E-03     155.043E-03
            1163     14.6036E-03     110.037E-03    -14.8580E+06     66.3786E+06     37.1690E+06    -16.7318E+06    -75.3831E-03     122.146E-03    -46.7626E-03     147.935E-03    -77.1379E-03     123.977E-03    -46.6514E-03     146.128E-03
            1164     15.4392E-03     110.164E-03    -10.2125E+06     92.7141E+06     53.2500E+06    -10.0005E+06    -79.3424E-03     127.617E-03    -48.2742E-03     135.987E-03    -81.2119E-03     129.626E-03    -48.1276E-03     134.176E-03
            1165     16.2718E-03     110.292E-03    -4.95170E+06     108.162E+06     80.1915E+06    -3.81621E+06    -82.0645E-03     132.003E-03    -49.9384E-03     100.390E-03    -83.4558E-03     133.529E-03    -49.6871E-03     98.9286E-03
            1166     865.959E-06     109.891E-03    -49.1852E+06    -61.3403E+06    -48.7639E+06    -1.74778E+06    -38.3903E-03     76.7777E-03    -38.3874E-03     11.5340E-03    -38.4774E-03     76.6130E-03    -38.4710E-03     11.5056E-03
            1167     1.73198E-03     109.902E-03    -51.7976E+06    -63.3830E+06    -50.6091E+06    -2.70764E+06    -38.1851E-03     76.4994E-03    -38.3144E-03     21.3214E-03    -38.2803E-03     76.3316E-03    -38.4004E-03     21.2757E-03
            1168     2.59835E-03     109.920E-03    -55.5095E+06    -66.4323E+06    -51.3431E+06    -3.07920E+06    -37.9524E-03     76.1430E-03    -38.1906E-03     31.7506E-03    -38.0621E-03     75.9678E-03    -38.2705E-03     31.6945E-03
            1169     3.46507E-03     109.945E-03    -58.9681E+06    -68.6357E+06    -49.6688E+06    -3.11521E+06    -37.7666E-03     75.8212E-03    -38.0546E-03     42.4023E-03    -37.8950E-03     75.6399E-03    -38.1180E-03     42.3388E-03
            1170     4.33212E-03     109.977E-03    -61.0260E+06    -68.1001E+06    -44.5327E+06    -3.33530E+06    -37.7825E-03     75.7168E-03    -37.9343E-03     53.2518E-03    -37.9331E-03     75.5375E-03    -37.9698E-03     53.1761E-03
            1171     5.19925E-03     110.018E-03    -60.9752E+06    -65.7306E+06    -36.7402E+06    -4.76122E+06    -38.1323E-03     75.9902E-03    -37.8579E-03     64.2726E-03    -38.3035E-03     75.8176E-03    -37.8579E-03     64.1647E-03
            1172     6.06624E-03     110.067E-03    -58.6948E+06    -62.4255E+06    -28.0787E+06    -7.07661E+06    -38.9404E-03     76.7887E-03    -37.8483E-03     75.4266E-03    -39.1280E-03     76.6273E-03    -37.8131E-03     75.2680E-03
            1173     6.93262E-03     110.126E-03    -54.8969E+06    -58.0694E+06    -19.8355E+06    -9.78787E+06    -40.3137E-03     78.2428E-03    -37.9291E-03     86.6916E-03    -40.5179E-03     78.1031E-03    -37.8644E-03     86.4669E-03
            1174     7.79792E-03     110.194E-03    -50.4035E+06    -53.7231E+06    -13.0692E+06    -13.3200E+06    -42.3006E-03     80.4235E-03    -38.1229E-03     97.9836E-03    -42.5266E-03     80.3175E-03    -38.0372E-03     97.6678E-03
            1175     8.66180E-03     110.272E-03    -45.2505E+06    -48.8045E+06    -7.26296E+06    -17.3007E+06    -44.9771E-03     83.4303E-03    -38.4533E-03     109.186E-03    -45.2372E-03     83.3776E-03    -38.3532E-03     108.753E-03
            1176     9.52339E-03     110.360E-03    -40.2724E+06    -45.0317E+06    -2.81650E+06    -21.2685E+06    -48.3523E-03     87.2935E-03    -38.9412E-03     119.952E-03    -48.6671E-03     87.3138E-03    -38.8316E-03     119.375E-03
            1177     10.3825E-03     110.459E-03    -35.9720E+06    -43.3021E+06    -241.543E+03    -25.0852E+06    -52.4048E-03     92.0063E-03    -39.6015E-03     129.812E-03    -52.8041E-03     92.1253E-03    -39.4878E-03     129.058E-03
            1178     11.2382E-03     110.567E-03    -31.3230E+06    -41.1959E+06     1.69277E+06    -28.0372E+06    -57.2310E-03     97.6816E-03    -40.4506E-03     138.932E-03    -57.7626E-03     97.9514E-03    -40.3370E-03     137.962E-03
            1179     12.0899E-03     110.685E-03    -27.0104E+06    -34.0383E+06     4.17561E+06    -30.4556E+06    -62.8208E-03     104.322E-03    -41.5011E-03     148.664E-03    -63.5796E-03     104.853E-03    -41.3917E-03     147.411E-03
            1180     12.9370E-03     110.816E-03    -23.4515E+06    -30.0290E+06     4.98955E+06    -30.7392E+06    -68.9187E-03     111.673E-03    -42.7540E-03     158.779E-03    -70.0225E-03     112.573E-03    -42.6515E-03     157.186E-03
            1181     13.7795E-03     110.959E-03    -19.0546E+06     15.5673E+06     20.6354E+06    -25.1125E+06    -74.8855E-03     119.097E-03    -44.2118E-03     164.329E-03    -76.4682E-03     120.609E-03    -44.1036E-03     162.452E-03
            1182     14.6167E-03     111.108E-03    -14.3897E+06     59.6975E+06     35.7777E+06    -18.0066E+06    -80.0151E-03     125.858E-03    -45.8425E-03     155.239E-03    -81.8545E-03     127.756E-03    -45.7293E-03     153.250E-03
            1183     15.4490E-03     111.242E-03    -10.2590E+06     84.5765E+06     50.4913E+06    -11.7663E+06    -84.6883E-03     132.330E-03    -47.6416E-03     142.919E-03    -86.6489E-03     134.409E-03    -47.4969E-03     140.874E-03
            1184     16.2765E-03     111.375E-03    -5.69183E+06     101.836E+06     77.1851E+06    -5.23319E+06    -87.7986E-03     137.397E-03    -49.5981E-03     105.993E-03    -89.2563E-03     138.973E-03    -49.3516E-03     104.316E-03
            1185     868.940E-06     110.912E-03    -63.3292E+06    -61.6119E+06    -61.8604E+06     2.19156E+06    -34.8062E-03     69.6251E-03    -34.8189E-03     11.6264E-03    -34.9445E-03     69.4982E-03    -34.9470E-03     11.6522E-03
            1186     1.73821E-03     110.922E-03    -67.3568E+06    -63.1858E+06    -63.3424E+06     2.91758E+06    -34.6826E-03     69.4445E-03    -34.7619E-03     21.5445E-03    -34.8370E-03     69.3181E-03    -34.8893E-03     21.5775E-03
            1187     2.60756E-03     110.940E-03    -70.4332E+06    -65.5581E+06    -62.0189E+06     2.56789E+06    -34.6175E-03     69.3121E-03    -34.6947E-03     32.1215E-03    -34.7864E-03     69.1771E-03    -34.8076E-03     32.1471E-03
            1188     3.47711E-03     110.964E-03    -71.0051E+06    -67.2821E+06    -57.2506E+06     1.17495E+06    -34.7131E-03     69.3605E-03    -34.6473E-03     42.9911E-03    -34.8906E-03     69.2122E-03    -34.7331E-03     42.9943E-03
            1189     4.34665E-03     110.997E-03    -68.7888E+06    -65.9178E+06    -49.1356E+06    -787.766E+03    -35.0914E-03     69.7331E-03    -34.6417E-03     54.1200E-03    -35.2742E-03     69.5795E-03    -34.6921E-03     54.0908E-03
            1190     5.21600E-03     111.038E-03    -64.6587E+06    -61.3930E+06    -39.2252E+06    -3.63836E+06    -35.8652E-03     70.5642E-03    -34.6989E-03     65.4687E-03    -36.0533E-03     70.4180E-03    -34.7123E-03     65.3908E-03
            1191     6.08473E-03     111.088E-03    -59.5492E+06    -57.6696E+06    -29.4728E+06    -7.21049E+06    -37.1243E-03     71.9662E-03    -34.8418E-03     77.0710E-03    -37.3157E-03     71.8264E-03    -34.8192E-03     76.9281E-03
            1192     6.95253E-03     111.148E-03    -53.7946E+06    -52.7156E+06    -20.6282E+06    -10.7872E+06    -38.9123E-03     73.9969E-03    -35.0846E-03     88.8854E-03    -39.1110E-03     73.8770E-03    -35.0333E-03     88.6672E-03
            1193     7.81907E-03     111.219E-03    -47.8314E+06    -46.9322E+06    -12.9187E+06    -14.7550E+06    -41.3443E-03     76.7915E-03    -35.4472E-03     100.843E-03    -41.5599E-03     76.7081E-03    -35.3744E-03     100.530E-03
            1194     8.68356E-03     111.300E-03    -42.4418E+06    -41.8878E+06    -6.57951E+06    -18.9764E+06    -44.4854E-03     80.4387E-03    -35.9533E-03     112.833E-03    -44.7345E-03     80.4076E-03    -35.8639E-03     112.400E-03
            1195     9.54577E-03     111.392E-03    -37.4772E+06    -38.4613E+06    -1.67135E+06    -22.7324E+06    -48.3684E-03     84.9914E-03    -36.6230E-03     124.499E-03    -48.6733E-03     85.0318E-03    -36.5212E-03     123.925E-03
            1196     10.4047E-03     111.495E-03    -32.9575E+06    -36.2764E+06     1.83836E+06    -26.2938E+06    -53.0139E-03     90.4877E-03    -37.4738E-03     135.323E-03    -53.4074E-03     90.6306E-03    -37.3643E-03     134.570E-03
            1197     11.2601E-03     111.610E-03    -29.0402E+06    -34.9430E+06     3.88413E+06    -30.2618E+06    -58.4635E-03     96.9855E-03    -38.5220E-03     145.543E-03    -58.9987E-03     97.2831E-03    -38.4098E-03     144.551E-03
            1198     12.1109E-03     111.735E-03    -24.5032E+06    -29.1918E+06     6.73387E+06    -32.8442E+06    -64.7871E-03     104.570E-03    -39.7833E-03     156.356E-03    -65.5598E-03     105.134E-03    -39.6718E-03     155.059E-03
            1199     12.9567E-03     111.873E-03    -19.7893E+06    -29.9226E+06     7.21955E+06    -32.6453E+06    -71.8058E-03     113.071E-03    -41.2653E-03     167.177E-03    -72.9344E-03     114.004E-03    -41.1571E-03     165.506E-03
            1200     13.7968E-03     112.025E-03    -15.0582E+06     8.15040E+06     19.3452E+06    -27.8498E+06    -78.7793E-03     121.745E-03    -42.9659E-03     173.322E-03    -80.4076E-03     123.295E-03    -42.8592E-03     171.293E-03
            1201     14.6310E-03     112.183E-03    -10.2184E+06     51.1237E+06     34.7781E+06    -19.1103E+06    -84.8105E-03     129.685E-03    -44.8745E-03     163.879E-03    -86.7230E-03     131.644E-03    -44.7600E-03     161.694E-03
            1202     15.4598E-03     112.323E-03    -6.60863E+06     77.9163E+06     51.8525E+06    -11.4931E+06    -90.5619E-03     137.548E-03    -46.9865E-03     150.697E-03    -92.6186E-03     139.710E-03    -46.8307E-03     148.405E-03
            1203     16.2834E-03     112.467E-03    -3.49744E+06     94.5001E+06     76.6116E+06    -5.48670E+06    -94.0546E-03     143.310E-03    -49.2551E-03     110.842E-03    -95.5708E-03     144.928E-03    -49.0039E-03     108.932E-03
            1204     872.414E-06     111.924E-03    -94.1918E+06    -67.8042E+06    -92.8117E+06     4.01519E+06    -31.0865E-03     62.1310E-03    -31.0445E-03     11.5704E-03    -31.3251E-03     62.0627E-03    -31.2737E-03     11.6220E-03
            1205     1.74465E-03     111.935E-03    -90.7191E+06    -65.8967E+06    -85.4325E+06     5.27484E+06    -31.1583E-03     62.2419E-03    -31.0836E-03     21.4557E-03    -31.3930E-03     62.1674E-03    -31.2837E-03     21.5233E-03
            1206     2.61703E-03     111.952E-03    -85.9852E+06    -65.0209E+06    -75.8738E+06     4.02058E+06    -31.3807E-03     62.5178E-03    -31.1370E-03     32.0738E-03    -31.6071E-03     62.4272E-03    -31.2975E-03     32.1240E-03
            1207     3.48922E-03     111.977E-03    -80.4817E+06    -64.7178E+06    -65.6671E+06     1.16775E+06    -31.8562E-03     63.0863E-03    -31.2301E-03     43.0579E-03    -32.0709E-03     62.9752E-03    -31.3479E-03     43.0687E-03
            1208     4.36110E-03     112.010E-03    -74.0904E+06    -61.9274E+06    -54.8541E+06    -2.56913E+06    -32.6432E-03     64.0223E-03    -31.3791E-03     54.3924E-03    -32.8476E-03     63.9023E-03    -31.4561E-03     54.3494E-03
            1209     5.23236E-03     112.053E-03    -66.4677E+06    -56.1538E+06    -43.2980E+06    -6.62562E+06    -33.8175E-03     65.4178E-03    -31.6003E-03     66.0757E-03    -34.0129E-03     65.3030E-03    -31.6390E-03     65.9704E-03
            1210     6.10277E-03     112.104E-03    -58.2166E+06    -52.0589E+06    -32.1502E+06    -10.5025E+06    -35.4596E-03     67.3718E-03    -31.9122E-03     78.1118E-03    -35.6440E-03     67.2577E-03    -31.9131E-03     77.9398E-03
            1211     6.97196E-03     112.167E-03    -50.2980E+06    -46.9473E+06    -21.9711E+06    -14.0770E+06    -37.6435E-03     69.9702E-03    -32.3267E-03     90.4960E-03    -37.8253E-03     69.8703E-03    -32.2956E-03     90.2512E-03
            1212     7.83942E-03     112.240E-03    -43.4336E+06    -40.5373E+06    -13.0104E+06    -17.3109E+06    -40.4469E-03     73.3079E-03    -32.8610E-03     103.195E-03    -40.6424E-03     73.2430E-03    -32.8043E-03     102.868E-03
            1213     8.70480E-03     112.325E-03    -37.8233E+06    -35.2458E+06    -5.47817E+06    -20.5289E+06    -43.9655E-03     77.5026E-03    -33.5372E-03     116.069E-03    -44.1943E-03     77.4881E-03    -33.4586E-03     115.637E-03
            1214     9.56738E-03     112.421E-03    -33.3659E+06    -32.0105E+06     387.447E+03    -23.8404E+06    -48.2990E-03     82.6762E-03    -34.3772E-03     128.759E-03    -48.5867E-03     82.7310E-03    -34.2804E-03     128.192E-03
            1215     10.4267E-03     112.530E-03    -29.0186E+06    -28.7863E+06     5.03885E+06    -27.8640E+06    -53.4636E-03     88.8647E-03    -35.4011E-03     140.722E-03    -53.8453E-03     89.0271E-03    -35.2921E-03     139.970E-03
            1216     11.2816E-03     112.651E-03    -24.6231E+06    -28.1640E+06     8.08057E+06    -31.4123E+06    -59.5314E-03     96.1620E-03    -36.6306E-03     152.276E-03    -60.0583E-03     96.4790E-03    -36.5136E-03     151.282E-03
            1217     12.1319E-03     112.784E-03    -22.2901E+06    -24.4097E+06     10.1237E+06    -33.4575E+06    -66.5445E-03     104.625E-03    -38.0804E-03     164.350E-03    -67.3252E-03     105.212E-03    -37.9621E-03     163.043E-03
            1218     12.9765E-03     112.932E-03    -20.1096E+06    -27.6449E+06     9.49876E+06    -35.3201E+06    -74.5213E-03     114.291E-03    -39.7694E-03     176.272E-03    -75.6871E-03     115.261E-03    -39.6527E-03     174.525E-03
            1219     13.8146E-03     113.093E-03    -15.9265E+06    -46.8735E+03     16.1777E+06    -31.6407E+06    -82.6242E-03     124.319E-03    -41.6950E-03     182.844E-03    -84.3083E-03     125.902E-03    -41.5909E-03     180.653E-03
            1220     14.6466E-03     113.261E-03    -11.8741E+06     39.0941E+06     30.3576E+06    -21.4033E+06    -89.9164E-03     133.797E-03    -43.8805E-03     173.084E-03    -91.9281E-03     135.820E-03    -43.7682E-03     170.659E-03
            1221     15.4704E-03     113.412E-03    -8.47392E+06     69.8543E+06     50.0116E+06    -11.4531E+06    -96.7414E-03     143.055E-03    -46.3138E-03     159.484E-03    -98.9306E-03     145.320E-03    -46.1528E-03     156.904E-03
            1222     16.2871E-03     113.564E-03    -5.12190E+06     87.1109E+06     74.7715E+06    -5.32037E+06    -100.467E-03     149.373E-03    -48.9058E-03     116.743E-03    -102.070E-03     151.052E-03    -48.6508E-03     114.575E-03
            1223     875.366E-06     112.929E-03    -124.525E+06    -71.7124E+06    -124.806E+06    -197.943E+03    -27.6673E-03     55.2280E-03    -27.5607E-03     11.2431E-03    -28.0052E-03     55.2306E-03    -27.9002E-03     11.2415E-03
            1224     1.75074E-03     112.940E-03    -116.634E+06    -66.4160E+06    -115.317E+06    -1.18965E+06    -27.9369E-03     55.6053E-03    -27.6683E-03     20.9454E-03    -28.2567E-03     55.6089E-03    -27.9795E-03     20.9316E-03
            1225     2.62575E-03     112.958E-03    -105.768E+06    -62.4371E+06    -101.078E+06    -3.47677E+06    -28.4754E-03     56.3097E-03    -27.8343E-03     31.4792E-03    -28.7672E-03     56.2968E-03    -28.0958E-03     31.4357E-03
            1226     3.50033E-03     112.984E-03    -93.2439E+06    -60.3075E+06    -83.8959E+06    -6.64686E+06    -29.3075E-03     57.3874E-03    -28.0799E-03     42.4800E-03    -29.5650E-03     57.3426E-03    -28.2767E-03     42.3941E-03
            1227     4.37422E-03     113.018E-03    -80.2652E+06    -55.8486E+06    -66.9128E+06    -10.5796E+06    -30.4589E-03     58.8520E-03    -28.3931E-03     53.9540E-03    -30.6838E-03     58.7873E-03    -28.5303E-03     53.8132E-03
            1228     5.24726E-03     113.062E-03    -68.0044E+06    -50.2416E+06    -51.1736E+06    -14.4187E+06    -31.9682E-03     60.7474E-03    -28.7792E-03     65.9058E-03    -32.1660E-03     60.6736E-03    -28.8636E-03     65.7073E-03
            1229     6.11917E-03     113.116E-03    -57.0587E+06    -46.5158E+06     -37.364E+06    -17.4321E+06    -33.9292E-03     63.1800E-03    -29.2507E-03     78.3291E-03    -34.1047E-03     63.0959E-03    -29.2873E-03     78.0775E-03
            1230     6.98959E-03     113.181E-03    -47.8489E+06    -41.9381E+06    -25.1584E+06    -19.4797E+06    -36.4178E-03     66.2386E-03    -29.8209E-03     91.2695E-03    -36.5848E-03     66.1597E-03    -29.8165E-03     90.9679E-03
            1231     7.85813E-03     113.257E-03    -40.3369E+06    -35.4445E+06    -14.0897E+06    -21.0730E+06    -39.5045E-03     70.0106E-03    -30.5062E-03     104.681E-03    -39.6829E-03     69.9610E-03    -30.4667E-03     104.322E-03
            1232     8.72436E-03     113.346E-03    -33.9738E+06    -29.6239E+06    -4.36868E+06    -23.0212E+06    -43.3455E-03     74.6737E-03    -31.3282E-03     118.491E-03    -43.5550E-03     74.6703E-03    -31.2578E-03     118.048E-03
            1233     9.58761E-03     113.448E-03    -28.2654E+06    -26.1373E+06     3.54539E+06    -25.3605E+06    -48.0456E-03     80.3566E-03    -32.3110E-03     132.300E-03    -48.3087E-03     80.4167E-03    -32.2144E-03     131.738E-03
            1234     10.4470E-03     113.563E-03    -24.5148E+06    -21.2524E+06     9.45810E+06    -28.1036E+06    -53.6198E-03     87.0943E-03    -33.4744E-03     145.544E-03    -53.9824E-03     87.2676E-03    -33.3608E-03     144.815E-03
            1235     11.3024E-03     113.691E-03    -22.9903E+06    -22.0092E+06     12.0170E+06    -31.2038E+06    -60.2632E-03     95.1116E-03    -34.8484E-03     158.574E-03    -60.7837E-03     95.4385E-03    -34.7231E-03     157.606E-03
            1236     12.1521E-03     113.833E-03    -20.6082E+06    -19.9579E+06     13.9463E+06    -32.9759E+06    -68.0838E-03     104.541E-03    -36.4570E-03     172.075E-03    -68.8611E-03     105.135E-03    -36.3284E-03     170.784E-03
            1237     12.9959E-03     113.990E-03    -18.3738E+06    -21.6095E+06     14.3737E+06    -35.3715E+06    -77.0286E-03     115.359E-03    -38.3300E-03     185.389E-03    -78.2093E-03     116.358E-03    -38.2002E-03     183.618E-03
            1238     13.8324E-03     114.163E-03    -16.5472E+06    -6.86015E+06     16.3379E+06    -33.8909E+06    -86.4602E-03     126.932E-03    -40.4718E-03     192.825E-03    -88.1862E-03     128.530E-03    -40.3562E-03     190.502E-03
            1239     14.6604E-03     114.342E-03    -12.9874E+06     24.3943E+06     27.5161E+06    -23.2814E+06    -95.0328E-03     137.951E-03    -42.9178E-03     183.664E-03    -97.1422E-03     140.024E-03    -42.7968E-03     180.993E-03
            1240     15.4807E-03     114.506E-03    -8.79534E+06     60.1942E+06     48.4990E+06    -12.2481E+06    -102.282E-03     147.917E-03    -45.6344E-03     169.392E-03    -104.595E-03     150.273E-03    -45.4664E-03     166.531E-03
            1241     16.2959E-03     114.667E-03    -4.44174E+06     79.0667E+06     74.0524E+06    -5.98398E+06    -107.019E-03     155.549E-03    -48.5292E-03     124.595E-03    -108.699E-03     157.280E-03    -48.2672E-03     122.162E-03
            1242     877.813E-06     113.928E-03    -118.699E+06    -66.5743E+06    -118.648E+06    -4.86775E+06    -25.1179E-03     50.1148E-03    -24.9969E-03     10.6001E-03    -25.4429E-03     50.1259E-03    -25.3215E-03     10.5381E-03
            1243     1.75537E-03     113.940E-03    -114.514E+06    -60.2212E+06    -113.727E+06    -9.10203E+06    -25.5139E-03     50.6388E-03    -25.1249E-03     19.8402E-03    -25.8342E-03     50.6683E-03    -25.4401E-03     19.7241E-03
            1244     2.63257E-03     113.958E-03    -107.722E+06    -55.4404E+06    -104.413E+06    -13.4338E+06    -26.2078E-03     51.5469E-03    -25.3392E-03     29.9890E-03    -26.5145E-03     51.5769E-03    -25.6247E-03     29.8170E-03
            1245     3.50910E-03     113.985E-03    -98.6335E+06    -52.6537E+06    -92.0848E+06    -17.8320E+06    -27.2073E-03     52.8509E-03    -25.6436E-03     40.8162E-03    -27.4906E-03     52.8639E-03    -25.8847E-03     40.5865E-03
            1246     4.38478E-03     114.021E-03    -88.2570E+06    -47.9680E+06    -79.4035E+06    -21.9664E+06    -28.5397E-03     54.5630E-03    -26.0233E-03     52.3194E-03    -28.7972E-03     54.5670E-03    -26.2228E-03     52.0336E-03
            1247     5.25937E-03     114.067E-03    -77.2659E+06    -43.0854E+06    -65.6566E+06    -25.5052E+06    -30.2725E-03     56.7650E-03    -26.4926E-03     64.4939E-03    -30.5046E-03     56.7601E-03    -26.6463E-03     64.1564E-03
            1248     6.13262E-03     114.123E-03    -65.5499E+06    -40.9314E+06    -49.5640E+06    -28.0711E+06    -32.4817E-03     59.5550E-03    -27.0732E-03     77.3015E-03    -32.6874E-03     59.5262E-03    -27.1667E-03     76.9193E-03
            1249     7.00419E-03     114.191E-03    -53.2100E+06    -38.3856E+06    -32.9663E+06    -28.8990E+06    -35.1905E-03     62.9528E-03    -27.7623E-03     90.6878E-03    -35.3735E-03     62.9062E-03    -27.7943E-03     90.2749E-03
            1250     7.87381E-03     114.271E-03    -41.4549E+06    -32.4320E+06    -17.6203E+06    -28.3273E+06    -38.5038E-03     67.0637E-03    -28.5599E-03     104.733E-03    -38.6796E-03     67.0284E-03    -28.5409E-03     104.295E-03
            1251     8.74083E-03     114.364E-03    -32.3871E+06    -26.4352E+06    -4.43285E+06    -27.2247E+06    -42.5770E-03     72.0653E-03    -29.4883E-03     119.419E-03    -42.7715E-03     72.0641E-03    -29.4252E-03     118.943E-03
            1252     9.60478E-03     114.472E-03    -27.1114E+06    -21.4218E+06     5.46319E+06    -27.2033E+06    -47.4977E-03     78.0664E-03    -30.5687E-03     134.302E-03    -47.7478E-03     78.1288E-03    -30.4710E-03     133.745E-03
            1253     10.4651E-03     114.593E-03    -23.2065E+06    -16.1059E+06     12.7118E+06    -28.3025E+06    -53.4314E-03     85.2584E-03    -31.8270E-03     148.886E-03    -53.7772E-03     85.4285E-03    -31.7064E-03     148.189E-03
            1254     11.3205E-03     114.729E-03    -18.9676E+06    -15.3360E+06     17.8786E+06    -30.4803E+06    -60.6419E-03     93.9477E-03    -33.3058E-03     163.515E-03    -61.1330E-03     94.2663E-03    -33.1667E-03     162.594E-03
            1255     12.1704E-03     114.880E-03    -16.0603E+06    -16.2080E+06     20.0962E+06    -32.6136E+06    -69.2348E-03     104.270E-03    -35.0355E-03     178.696E-03    -69.9732E-03     104.837E-03    -34.8882E-03     177.440E-03
            1256     13.0133E-03     115.049E-03    -14.4582E+06    -15.3505E+06     21.6115E+06    -33.3676E+06    -79.0189E-03     116.068E-03    -37.0488E-03     193.818E-03    -80.1703E-03     117.053E-03    -36.8975E-03     192.086E-03
            1257     13.8484E-03     115.234E-03    -13.4638E+06    -8.06565E+06     21.8513E+06    -33.1801E+06    -89.4663E-03     128.820E-03    -39.3537E-03     203.676E-03    -91.1872E-03     130.404E-03    -39.2132E-03     201.315E-03
            1258     14.6748E-03     115.428E-03    -10.3639E+06     7.07737E+06     26.1426E+06    -25.4512E+06    -99.2378E-03     141.219E-03    -41.9813E-03     196.392E-03    -101.400E-03     143.298E-03    -41.8459E-03     193.517E-03
            1259     15.4919E-03     115.604E-03    -5.69970E+06     49.4220E+06     48.5982E+06    -13.1053E+06    -107.659E-03     152.592E-03    -44.9333E-03     180.853E-03    -110.098E-03     155.049E-03    -44.7537E-03     177.689E-03
            1260     16.3014E-03     115.775E-03    -1.87055E+06     72.4432E+06     77.4197E+06    -5.11961E+06    -114.238E-03     162.381E-03    -48.1429E-03     134.858E-03    -116.023E-03     164.195E-03    -47.8582E-03     132.135E-03
            1261     879.092E-06     114.923E-03    -86.3952E+06    -54.8168E+06    -85.0492E+06    -6.56982E+06    -23.8368E-03     47.5790E-03    -23.7422E-03     9.55989E-03    -24.0659E-03     47.5536E-03    -23.9627E-03     9.47489E-03
            1262     1.75792E-03     114.935E-03    -84.1498E+06    -49.1069E+06    -79.6792E+06    -11.6537E+06    -24.2829E-03     48.1643E-03    -23.8815E-03     17.9888E-03    -24.5170E-03     48.1564E-03    -24.0866E-03     17.8379E-03
            1263     2.63627E-03     114.955E-03    -81.7600E+06    -44.6588E+06    -73.9683E+06    -16.6025E+06    -24.9685E-03     49.0739E-03    -24.1054E-03     27.3581E-03    -25.2055E-03     49.0766E-03    -24.2919E-03     27.1427E-03
            1264     3.51406E-03     114.983E-03    -79.3747E+06    -41.4372E+06    -68.9926E+06    -21.8682E+06    -25.9271E-03     50.3228E-03    -24.3957E-03     37.5203E-03    -26.1645E-03     50.3313E-03    -24.5655E-03     37.2358E-03
            1265     4.39104E-03     115.020E-03    -76.2302E+06    -37.4890E+06    -63.6202E+06    -27.2311E+06    -27.2138E-03     51.9725E-03    -24.7586E-03     48.5880E-03    -27.4498E-03     51.9893E-03    -24.9119E-03     48.2321E-03
            1266     5.26696E-03     115.068E-03    -71.8386E+06    -33.7442E+06    -56.3797E+06    -31.8704E+06    -28.9397E-03     54.1543E-03    -25.2146E-03     60.6361E-03    -29.1718E-03     54.1750E-03    -25.3434E-03     60.2158E-03
            1267     6.14137E-03     115.127E-03    -66.4154E+06    -33.2145E+06    -46.9943E+06    -35.6025E+06    -31.1670E-03     56.9517E-03    -25.7847E-03     73.6097E-03    -31.3907E-03     56.9581E-03    -25.8752E-03     73.1325E-03
            1268     7.01398E-03     115.198E-03    -59.5998E+06    -33.5112E+06    -37.1830E+06    -38.0493E+06    -33.9483E-03     60.4170E-03    -26.4686E-03     87.4353E-03    -34.1607E-03     60.4067E-03    -26.5195E-03     86.9109E-03
            1269     7.88440E-03     115.281E-03    -50.5105E+06    -29.9203E+06    -25.4698E+06    -38.6389E+06    -37.3834E-03     64.6620E-03    -27.2786E-03     102.189E-03    -37.5892E-03     64.6564E-03    -27.2893E-03     101.630E-03
            1270     8.75236E-03     115.379E-03    -39.0190E+06    -27.0479E+06    -10.1872E+06    -36.1686E+06    -41.5943E-03     69.8407E-03    -28.2464E-03     117.689E-03    -41.7994E-03     69.8411E-03    -28.2015E-03     117.118E-03
            1271     9.61715E-03     115.492E-03    -27.8123E+06    -20.9131E+06     5.31244E+06    -31.6401E+06    -46.6673E-03     76.0411E-03    -29.3737E-03     133.526E-03    -46.8995E-03     76.0854E-03    -29.2765E-03     132.942E-03
            1272     10.4780E-03     115.620E-03    -20.5983E+06    -12.6596E+06     16.9351E+06    -29.5926E+06    -52.8602E-03     83.5368E-03    -30.6766E-03     149.523E-03    -53.1712E-03     83.6814E-03    -30.5437E-03     148.852E-03
            1273     11.3342E-03     115.765E-03    -17.8820E+06    -10.3180E+06     23.4381E+06    -29.9278E+06    -60.5288E-03     92.7329E-03    -32.2040E-03     165.916E-03    -60.9835E-03     93.0206E-03    -32.0460E-03     165.056E-03
            1274     12.1841E-03     115.926E-03    -16.7298E+06    -10.4108E+06     26.5867E+06    -31.5335E+06    -69.5961E-03     103.591E-03    -33.9945E-03     182.972E-03    -70.2911E-03     104.114E-03    -33.8222E-03     181.797E-03
            1275     13.0272E-03     116.106E-03    -15.2042E+06    -12.6708E+06     27.5172E+06    -32.4943E+06    -79.7730E-03     115.841E-03    -36.0676E-03     200.365E-03    -80.8551E-03     116.746E-03    -35.8896E-03     198.720E-03
            1276     13.8625E-03     116.305E-03    -13.4675E+06    -6.42853E+06     28.8128E+06    -31.7116E+06    -90.8093E-03     129.246E-03    -38.4366E-03     213.311E-03    -92.4596E-03     130.745E-03    -38.2636E-03     211.025E-03
            1277     14.6889E-03     116.514E-03    -12.0932E+06    -5.96908E+06     27.6788E+06    -27.3881E+06    -102.330E-03     143.489E-03    -41.1598E-03     208.567E-03    -104.503E-03     145.523E-03    -40.9952E-03     205.572E-03
            1278     15.5044E-03     116.707E-03    -9.85829E+06     33.9179E+06     42.1729E+06    -15.8539E+06    -113.989E-03     158.293E-03    -44.3040E-03     191.055E-03    -116.621E-03     160.894E-03    -44.1280E-03     187.420E-03
            1279     16.3102E-03     116.890E-03    -7.41363E+06     65.8800E+06     74.6452E+06    -5.18964E+06    -120.675E-03     168.510E-03    -47.8344E-03     141.287E-03    -122.667E-03     170.495E-03    -47.5460E-03     138.101E-03
            1280     878.968E-06     115.917E-03    -54.9465E+06    -41.7195E+06    -53.1673E+06    -6.49015E+06    -24.0951E-03     48.1165E-03    -24.0214E-03     8.20658E-03    -24.2324E-03     48.0649E-03    -24.1471E-03     8.12086E-03
            1281     1.75771E-03     115.929E-03    -53.6115E+06    -37.2728E+06    -48.7190E+06    -11.0214E+06    -24.5063E-03     48.6562E-03    -24.1499E-03     15.4255E-03    -24.6501E-03     48.6185E-03    -24.2617E-03     15.2795E-03
            1282     2.63608E-03     115.950E-03    -51.3495E+06    -33.1831E+06    -42.3869E+06    -15.6046E+06    -25.1385E-03     49.5070E-03    -24.3685E-03     23.5005E-03    -25.2867E-03     49.4779E-03    -24.4579E-03     23.2932E-03
            1283     3.51387E-03     115.979E-03    -48.3600E+06    -29.3691E+06    -34.9464E+06    -20.5063E+06    -25.9922E-03     50.6476E-03    -24.6554E-03     32.3514E-03    -26.1427E-03     50.6234E-03    -24.7174E-03     32.0783E-03
            1284     4.39097E-03     116.018E-03    -46.0566E+06    -25.8726E+06    -27.9925E+06    -25.3695E+06    -27.1022E-03     52.1054E-03    -25.0032E-03     42.1880E-03    -27.2577E-03     52.0866E-03    -25.0389E-03     41.8489E-03
            1285     5.26712E-03     116.067E-03    -45.2568E+06    -23.3506E+06    -23.4351E+06    -29.5678E+06    -28.5212E-03     53.9298E-03    -25.4086E-03     53.2390E-03    -28.6851E-03     53.9181E-03    -25.4263E-03     52.8415E-03
            1286     6.14214E-03     116.128E-03    -45.5603E+06    -23.2871E+06    -21.2138E+06    -33.3992E+06    -30.3831E-03     56.2675E-03    -25.8844E-03     65.6303E-03    -30.5554E-03     56.2570E-03    -25.8907E-03     65.1769E-03
            1287     7.01560E-03     116.202E-03    -45.8268E+06    -24.3718E+06    -19.6059E+06    -37.7630E+06    -32.8820E-03     59.3396E-03    -26.4577E-03     79.4111E-03    -33.0631E-03     59.3285E-03    -26.4539E-03     78.8903E-03
            1288     7.88702E-03     116.289E-03    -44.8060E+06    -23.5020E+06    -16.1944E+06    -41.6544E+06    -36.1458E-03     63.3068E-03    -27.1610E-03     94.5982E-03    -36.3402E-03     63.3058E-03    -27.1429E-03     94.0080E-03
            1289     8.75566E-03     116.392E-03    -41.5264E+06    -26.1491E+06    -10.2114E+06    -42.9257E+06    -40.2648E-03     68.2932E-03    -28.0284E-03     110.940E-03    -40.4698E-03     68.2879E-03    -27.9813E-03     110.301E-03
            1290     9.62116E-03     116.510E-03    -34.0137E+06    -23.4226E+06     579.988E+03    -40.7491E+06    -45.3591E-03     74.4376E-03    -29.0785E-03     127.961E-03    -45.5854E-03     74.4589E-03    -28.9923E-03     127.294E-03
            1291     10.4830E-03     116.645E-03    -24.2915E+06    -14.8971E+06     15.3363E+06    -34.6591E+06    -51.7288E-03     82.0709E-03    -30.3421E-03     145.466E-03    -52.0093E-03     82.1687E-03    -30.2086E-03     144.782E-03
            1292     11.3397E-03     116.797E-03    -17.8063E+06    -8.91657E+06     27.4301E+06    -28.9591E+06    -59.5827E-03     91.4303E-03    -31.8475E-03     163.642E-03    -59.9769E-03     91.6512E-03    -31.6716E-03     162.872E-03
            1293     12.1905E-03     116.969E-03    -15.7944E+06    -4.52369E+06     34.5516E+06    -28.1488E+06    -68.6883E-03     102.300E-03    -33.6118E-03     182.553E-03    -69.2932E-03     102.734E-03    -33.4096E-03     181.532E-03
            1294     13.0345E-03     117.160E-03    -15.5874E+06    -8.89875E+06     36.8732E+06    -30.2479E+06    -79.0968E-03     114.753E-03    -35.6566E-03     202.036E-03    -80.0455E-03     115.510E-03    -35.4367E-03     200.568E-03
            1295     13.8711E-03     117.372E-03    -13.4999E+06    -4.60556E+06     38.2811E+06    -31.4840E+06    -90.5364E-03     128.529E-03    -37.9927E-03     217.440E-03    -92.0079E-03     129.828E-03    -37.7751E-03     215.326E-03
            1296     14.6984E-03     117.598E-03    -8.93365E+06    -13.9120E+06     35.2736E+06    -27.6590E+06    -103.435E-03     144.141E-03    -40.7054E-03     218.228E-03    -105.459E-03     145.985E-03    -40.4960E-03     215.320E-03
            1297     15.5105E-03     117.814E-03    -7.41701E+06     16.2755E+06     39.5392E+06    -15.7840E+06    -116.807E-03     160.661E-03    -43.8544E-03     207.446E-03    -119.508E-03     163.284E-03    -43.6696E-03     203.629E-03
            1298     16.3047E-03     118.017E-03    -3.63774E+06     55.3297E+06     72.8430E+06    -4.25677E+06    -125.871E-03     173.385E-03    -47.5135E-03     157.674E-03    -128.043E-03     175.534E-03    -47.2243E-03     154.110E-03
            1299     877.264E-06     116.913E-03    -26.7969E+06    -29.6387E+06    -25.3633E+06    -5.56298E+06    -26.1733E-03     52.2373E-03    -26.0641E-03     6.53190E-03    -26.2280E-03     52.1647E-03    -26.1090E-03     6.45578E-03
            1300     1.75437E-03     116.926E-03    -25.5389E+06    -26.1510E+06    -21.4409E+06    -10.0362E+06    -26.5618E-03     52.7817E-03    -26.2199E-03     12.1647E-03    -26.6217E-03     52.7194E-03    -26.2522E-03     12.0270E-03
            1301     2.63098E-03     116.947E-03    -23.5467E+06    -22.4376E+06    -14.5622E+06    -14.4153E+06    -27.1448E-03     53.5951E-03    -26.4504E-03     18.4858E-03    -27.2110E-03     53.5395E-03    -26.4565E-03     18.2871E-03
            1302     3.50711E-03     116.977E-03    -21.8751E+06    -19.1378E+06    -7.28601E+06    -18.0647E+06    -27.9067E-03     54.6490E-03    -26.7423E-03     25.4465E-03    -27.9814E-03     54.5983E-03    -26.7192E-03     25.1956E-03
            1303     4.38252E-03     117.017E-03    -21.0139E+06    -16.1822E+06    -1.54909E+06    -21.1130E+06    -28.7805E-03     55.8567E-03    -27.0761E-03     33.3002E-03    -28.8655E-03     55.8133E-03    -27.0300E-03     33.0044E-03
            1304     5.25726E-03     117.067E-03    -20.6069E+06    -14.1776E+06     2.44175E+06    -23.9818E+06    -29.7791E-03     57.2186E-03    -27.4396E-03     42.3644E-03    -29.8735E-03     57.1817E-03    -27.3769E-03     42.0257E-03
            1305     6.13132E-03     117.130E-03    -20.3776E+06    -13.8957E+06     5.78687E+06    -27.0219E+06    -31.0559E-03     58.8973E-03    -27.8414E-03     52.9068E-03    -31.1582E-03     58.8604E-03    -27.7628E-03     52.5223E-03
            1306     7.00436E-03     117.206E-03    -20.9140E+06    -13.8198E+06     8.78894E+06    -30.7013E+06    -32.8235E-03     61.1256E-03    -28.3021E-03     65.1948E-03    -32.9382E-03     61.0910E-03    -28.2078E-03     64.7543E-03
            1307     7.87580E-03     117.296E-03    -23.5460E+06    -14.5846E+06     9.52108E+06    -33.9826E+06    -35.2872E-03     64.1317E-03    -28.8445E-03     79.4791E-03    -35.4233E-03     64.1046E-03    -28.7416E-03     78.9838E-03
            1308     8.74525E-03     117.402E-03    -27.5381E+06    -18.4168E+06     7.64551E+06    -37.5338E+06    -38.6806E-03     68.1838E-03    -29.5033E-03     95.7649E-03    -38.8421E-03     68.1602E-03    -29.3984E-03     95.2034E-03
            1309     9.61179E-03     117.525E-03    -30.6670E+06    -19.8911E+06     7.82241E+06    -40.9474E+06    -43.3189E-03     73.6514E-03    -30.3325E-03     113.726E-03    -43.5188E-03     73.6497E-03    -30.2201E-03     113.085E-03
            1310     10.4742E-03     117.666E-03    -29.5080E+06    -19.8075E+06     13.2835E+06    -39.6447E+06    -49.5084E-03     80.9036E-03    -31.3952E-03     132.951E-03    -49.7563E-03     80.9388E-03    -31.2573E-03     132.259E-03
            1311     11.3320E-03     117.827E-03    -22.9365E+06    -13.8110E+06     26.2274E+06    -33.2470E+06    -57.1399E-03     89.8758E-03    -32.7359E-03     153.015E-03    -57.4652E-03     89.9958E-03    -32.5515E-03     152.288E-03
            1312     12.1840E-03     118.008E-03    -15.8069E+06    -3.84891E+06     42.2508E+06    -27.2428E+06    -66.2585E-03     100.629E-03    -34.3706E-03     173.566E-03    -66.7372E-03     100.917E-03    -34.1308E-03     172.707E-03
            1313     13.0298E-03     118.210E-03    -11.8173E+06    -2.86643E+06     49.8730E+06    -25.7483E+06    -76.6473E-03     112.930E-03    -36.2824E-03     194.578E-03    -77.3876E-03     113.475E-03    -36.0117E-03     193.387E-03
            1314     13.8668E-03     118.436E-03    -12.0314E+06     119.878E+03     49.0865E+06    -27.2194E+06    -87.8853E-03     126.345E-03    -38.4599E-03     213.291E-03    -89.0543E-03     127.332E-03    -38.1972E-03     211.542E-03
            1315     14.6958E-03     118.675E-03    -14.4764E+06    -17.8098E+06     42.8135E+06    -28.5127E+06    -98.5432E-03     139.477E-03    -40.9340E-03     222.416E-03    -100.218E-03     140.916E-03    -40.6732E-03     219.961E-03
            1316     15.5149E-03     118.918E-03    -8.21787E+06    -5.57499E+06     41.6981E+06    -19.9245E+06    -111.412E-03     155.135E-03    -43.7222E-03     222.563E-03    -113.858E-03     157.416E-03    -43.4938E-03     219.117E-03
            1317     16.3317E-03     119.138E-03     203.706E+03     40.1662E+06     73.5629E+06    -4.13891E+06    -129.019E-03     176.226E-03    -47.2070E-03     176.702E-03    -131.201E-03     178.347E-03    -46.8977E-03     173.056E-03
            1318     873.892E-06     117.915E-03    -1.79046E+06    -18.7964E+06    -528.538E+03    -4.74530E+06    -30.3067E-03     60.5131E-03    -30.2064E-03     4.51498E-03    -30.2890E-03     60.4217E-03    -30.1792E-03     4.44642E-03
            1319     1.74726E-03     117.928E-03    -1.25210E+06    -15.8901E+06     3.49953E+06    -8.74170E+06    -30.7659E-03     61.1591E-03    -30.3933E-03     8.24007E-03    -30.7562E-03     61.0761E-03    -30.3509E-03     8.11326E-03
            1320     2.62036E-03     117.950E-03    -452.335E+03    -13.3522E+06     8.95894E+06    -12.0227E+06    -31.3608E-03     62.0274E-03    -30.6666E-03     12.3905E-03    -31.3599E-03     61.9490E-03    -30.6018E-03     12.2137E-03
            1321     3.49269E-03     117.981E-03     403.194E+03    -11.2978E+06     14.3029E+06    -14.4739E+06    -32.0225E-03     63.0103E-03    -30.9878E-03     17.0169E-03    -32.0297E-03     62.9348E-03    -30.9005E-03     16.8002E-03
            1322     4.36442E-03     118.021E-03     1.39313E+06    -8.80672E+06     19.4575E+06    -16.5908E+06    -32.7202E-03     64.0588E-03    -31.3386E-03     22.3963E-03    -32.7359E-03     63.9892E-03    -31.2306E-03     22.1435E-03
            1323     5.23555E-03     118.073E-03     1.93470E+06    -7.29609E+06     24.4731E+06    -18.4360E+06    -33.4614E-03     65.1750E-03    -31.7136E-03     28.7402E-03    -33.4869E-03     65.1078E-03    -31.5835E-03     28.4545E-03
            1324     6.10596E-03     118.136E-03     1.17203E+06    -6.58227E+06     28.1928E+06    -20.2147E+06    -34.2493E-03     66.3532E-03    -32.1039E-03     36.3645E-03    -34.2891E-03     66.2893E-03    -31.9551E-03     36.0468E-03
            1325     6.97571E-03     118.212E-03    -1.34600E+06    -6.35031E+06     30.1501E+06    -21.7800E+06    -35.1754E-03     67.6838E-03    -32.5085E-03     45.6214E-03    -35.2359E-03     67.6270E-03    -32.3466E-03     45.2742E-03
            1326     7.84489E-03     118.304E-03    -4.48412E+06    -7.23579E+06     31.4326E+06    -23.3962E+06    -36.4590E-03     69.4040E-03    -32.9450E-03     56.8451E-03    -36.5422E-03     69.3521E-03    -32.7709E-03     56.4669E-03
            1327     8.71296E-03     118.411E-03    -7.72686E+06    -8.76079E+06     32.3513E+06    -25.9159E+06    -38.4178E-03     71.8600E-03    -33.4422E-03     70.3873E-03    -38.5252E-03     71.8131E-03    -33.2566E-03     69.9636E-03
            1328     9.57934E-03     118.538E-03    -12.6607E+06    -11.4216E+06     31.1312E+06    -28.6769E+06    -41.5000E-03     75.5393E-03    -34.0393E-03     86.6284E-03    -41.6400E-03     75.5024E-03    -33.8487E-03     86.1491E-03
            1329     10.4429E-03     118.684E-03    -19.3227E+06    -15.7058E+06     28.3776E+06    -31.5659E+06    -46.0978E-03     80.8939E-03    -34.7961E-03     105.656E-03    -46.2840E-03     80.8734E-03    -34.6034E-03     105.105E-03
            1330     11.3019E-03     118.851E-03    -22.8496E+06    -15.6930E+06     31.1823E+06    -33.1607E+06    -52.5525E-03     88.3450E-03    -35.7925E-03     126.775E-03    -52.8039E-03     88.3701E-03    -35.5807E-03     126.137E-03
            1331     12.1558E-03     119.041E-03    -19.2525E+06    -8.00427E+06     42.6662E+06    -30.3918E+06    -60.9596E-03     98.0470E-03    -37.0874E-03     149.543E-03    -61.3060E-03     98.1750E-03    -36.8346E-03     148.812E-03
            1332     13.0015E-03     119.254E-03    -13.2500E+06    -2.29658E+06     52.3607E+06    -25.7594E+06    -70.9148E-03     109.595E-03    -38.6801E-03     172.748E-03    -71.4156E-03     109.891E-03    -38.3958E-03     171.841E-03
            1333     13.8430E-03     119.488E-03    -11.9905E+06    -1.38625E+06     58.9838E+06    -19.4233E+06    -80.4681E-03     121.010E-03    -40.5421E-03     194.066E-03    -81.2393E-03     121.566E-03    -40.2278E-03     192.879E-03
            1334     14.6764E-03     119.747E-03    -14.6687E+06    -6.62482E+06     61.4914E+06    -20.0065E+06    -86.9209E-03     129.467E-03    -42.5464E-03     205.415E-03    -88.0448E-03     130.340E-03    -42.2081E-03     203.795E-03
            1335     15.5132E-03     119.991E-03    -17.5054E+06    -17.2784E+06     46.1813E+06    -25.2757E+06    -100.118E-03     144.825E-03    -44.7070E-03     217.528E-03    -101.965E-03     146.422E-03    -44.4256E-03     214.836E-03
            1336     16.3164E-03     120.264E-03    -14.2534E+06     13.2963E+06     57.3027E+06    -14.2402E+06    -120.875E-03     168.448E-03    -47.5727E-03     190.282E-03    -122.890E-03     170.304E-03    -47.2848E-03     186.872E-03
            1337     868.185E-06     118.927E-03     20.0775E+06    -9.71196E+06     21.2937E+06    -3.50613E+06    -36.8353E-03     73.6942E-03    -36.8589E-03     2.14040E-03    -36.7545E-03     73.5833E-03    -36.7675E-03     2.08490E-03
            1338     1.73620E-03     118.941E-03     19.6288E+06    -7.63169E+06     24.1829E+06    -6.38109E+06    -37.4465E-03     74.4748E-03    -37.0283E-03     3.47193E-03    -37.3757E-03     74.3710E-03    -36.9248E-03     3.36987E-03
            1339     2.60322E-03     118.964E-03     19.7675E+06    -6.60212E+06     28.0167E+06    -8.62477E+06    -37.9915E-03     75.3420E-03    -37.3505E-03     5.04816E-03    -37.9278E-03     75.2383E-03    -37.2295E-03     4.90650E-03
            1340     3.46976E-03     118.995E-03     19.9354E+06    -5.17662E+06     32.4424E+06    -10.4837E+06    -38.5694E-03     76.2773E-03    -37.7079E-03     7.09832E-03    -38.5145E-03     76.1752E-03    -37.5671E-03     6.92155E-03
            1341     4.33563E-03     119.037E-03     19.6732E+06    -3.68291E+06     37.3581E+06    -11.7533E+06    -39.2336E-03     77.3389E-03    -38.1053E-03     9.67691E-03    -39.1910E-03     77.2390E-03    -37.9417E-03     9.47200E-03
            1342     5.20059E-03     119.088E-03     18.6914E+06    -2.73215E+06     41.7509E+06    -12.3009E+06    -39.9200E-03     78.4616E-03    -38.5415E-03     12.8915E-03    -39.8925E-03     78.3636E-03    -38.3559E-03     12.6672E-03
            1343     6.06475E-03     119.152E-03     17.0696E+06    -2.21957E+06     45.0879E+06    -12.4388E+06    -40.5476E-03     79.5524E-03    -39.0048E-03     16.9484E-03    -40.5369E-03     79.4572E-03    -38.8009E-03     16.7095E-03
            1344     6.92820E-03     119.228E-03     15.3303E+06    -1.88455E+06     48.4432E+06    -12.6514E+06    -41.0942E-03     80.5832E-03    -39.4889E-03     22.0708E-03    -41.1017E-03     80.4908E-03    -39.2662E-03     21.8163E-03
            1345     7.79080E-03     119.319E-03     13.2473E+06    -2.10989E+06     51.8222E+06    -13.4203E+06    -41.6136E-03     81.6046E-03    -39.9910E-03     28.5151E-03    -41.6412E-03     81.5140E-03    -39.7481E-03     28.2374E-03
            1346     8.65273E-03     119.427E-03     9.86549E+06    -2.91193E+06     53.8853E+06    -14.1229E+06    -42.2326E-03     82.7438E-03    -40.5113E-03     36.6687E-03    -42.2855E-03     82.6574E-03    -40.2519E-03     36.3680E-03
            1347     9.51382E-03     119.553E-03     5.64908E+06    -5.39824E+06     54.1116E+06    -14.6634E+06    -43.1636E-03     84.2259E-03    -41.0623E-03     47.1996E-03    -43.2429E-03     84.1415E-03    -40.7921E-03     46.8767E-03
            1348     10.3738E-03     119.700E-03     2.06144E+06    -6.99319E+06     53.9656E+06    -16.6065E+06    -44.7772E-03     86.4483E-03    -41.6711E-03     60.6252E-03    -44.8836E-03     86.3735E-03    -41.3941E-03     60.2585E-03
            1349     11.2327E-03     119.871E-03    -1.22368E+06    -8.19245E+06     53.5136E+06    -20.3333E+06    -47.6897E-03     90.0705E-03    -42.3808E-03     77.6707E-03    -47.8284E-03     90.0159E-03    -42.0996E-03     77.2268E-03
            1350     12.0869E-03     120.067E-03    -6.24544E+06    -7.03476E+06     53.7653E+06    -22.5490E+06    -52.5204E-03     95.7750E-03    -43.2546E-03     98.3440E-03    -52.7190E-03     95.7681E-03    -42.9665E-03     97.8195E-03
            1351     12.9388E-03     120.286E-03    -10.3213E+06    -4.26657E+06     57.9895E+06    -21.0051E+06    -59.1258E-03     103.476E-03    -44.3505E-03     121.678E-03    -59.4169E-03     103.549E-03    -44.0394E-03     121.074E-03
            1352     13.7798E-03     120.534E-03    -8.52464E+06    -7.62652E+06     65.0161E+06    -16.0711E+06    -64.4519E-03     110.048E-03    -45.5961E-03     143.703E-03    -64.8403E-03     110.195E-03    -45.2476E-03     143.021E-03
            1353     14.6237E-03     120.789E-03    -2.27236E+06     1.51977E+06     73.2169E+06    -11.4812E+06    -70.0057E-03     116.891E-03    -46.8852E-03     158.176E-03    -70.5371E-03     117.213E-03    -46.5180E-03     157.343E-03
            1354     15.4571E-03     121.052E-03    -776.966E+03    -7.48832E+06     65.6019E+06    -11.8969E+06    -78.6242E-03     126.859E-03    -48.2343E-03     182.815E-03    -79.5709E-03     127.594E-03    -47.8944E-03     181.420E-03
            1355     16.2951E-03     121.354E-03    -2.85109E+06    -2.28153E+06     50.2416E+06    -13.4050E+06    -84.4533E-03     134.052E-03    -49.5991E-03     189.420E-03    -85.6667E-03     135.116E-03    -49.3405E-03     187.470E-03
            1356     860.414E-06     119.956E-03     37.7845E+06    -3.24547E+06     38.0561E+06    -2.25293E+06    -46.4009E-03     92.9974E-03    -46.5966E-03    -1.51118E-03    -46.2678E-03     92.8658E-03    -46.4564E-03    -1.55075E-03
            1357     1.71972E-03     119.971E-03     36.6699E+06    -2.52682E+06     39.4314E+06    -3.47688E+06    -46.6565E-03     93.2829E-03    -46.6264E-03    -2.54667E-03    -46.5317E-03     93.1551E-03    -46.4788E-03    -2.61083E-03
            1358     2.57893E-03     119.994E-03     35.5115E+06    -2.16355E+06     42.6000E+06    -4.52901E+06    -47.1598E-03     94.0214E-03    -46.8616E-03    -3.45033E-03    -47.0460E-03     93.8925E-03    -46.6970E-03    -3.53758E-03
            1359     3.43741E-03     120.026E-03     34.0127E+06    -1.27726E+06     46.7170E+06    -5.23634E+06    -47.8700E-03     95.0995E-03    -47.2295E-03    -4.25383E-03    -47.7713E-03     94.9712E-03    -47.0434E-03    -4.36041E-03
            1360     4.29482E-03     120.068E-03     32.3013E+06    -801.805E+03     50.8892E+06    -5.43040E+06    -48.6825E-03     96.3895E-03    -47.7070E-03    -4.97563E-03    -48.5998E-03     96.2600E-03    -47.4983E-03    -5.09570E-03
            1361     5.15118E-03     120.120E-03     30.6710E+06    -554.099E+03     55.0313E+06    -5.21627E+06    -49.5446E-03     97.8208E-03    -48.2762E-03    -5.53588E-03    -49.4773E-03     97.6889E-03    -48.0447E-03    -5.66504E-03
            1362     6.00621E-03     120.184E-03     29.5284E+06    -298.553E+03     60.2113E+06    -4.85649E+06    -50.4116E-03     99.3434E-03    -48.9318E-03    -5.90131E-03    -50.3591E-03     99.2070E-03    -48.6731E-03    -6.03880E-03
            1363     6.85968E-03     120.261E-03     28.4976E+06     315.290E+03     65.6882E+06    -4.50654E+06    -51.1510E-03     100.811E-03    -49.6604E-03    -6.00264E-03    -51.1142E-03     100.672E-03    -49.3737E-03    -6.14964E-03
            1364     7.71180E-03     120.351E-03     27.0223E+06     493.843E+03     69.8179E+06    -3.98962E+06    -51.6215E-03     102.062E-03    -50.4409E-03    -5.68133E-03    -51.6006E-03     101.920E-03    -50.1317E-03    -5.83669E-03
            1365     8.56235E-03     120.458E-03     25.5618E+06    -700.833E+03     72.6893E+06    -3.41355E+06    -51.7272E-03     102.986E-03    -51.2592E-03    -4.70193E-03    -51.7190E-03     102.837E-03    -50.9318E-03    -4.86556E-03
            1366     9.41154E-03     120.582E-03     24.6442E+06    -1.91912E+06     75.0047E+06    -3.45629E+06    -51.3395E-03     103.441E-03    -52.1012E-03    -2.70819E-03    -51.3414E-03     103.285E-03    -51.7591E-03    -2.88867E-03
            1367     10.2597E-03     120.726E-03     23.3534E+06    -2.28242E+06     76.4015E+06    -4.30353E+06    -50.2797E-03     103.223E-03    -52.9436E-03     1.02755E-03    -50.2946E-03     103.069E-03    -52.5921E-03     819.756E-06
            1368     11.1062E-03     120.894E-03     19.9335E+06    -1.57892E+06     77.4768E+06    -5.28011E+06    -48.7465E-03     102.520E-03    -53.7735E-03     7.56994E-03    -48.7882E-03     102.378E-03    -53.4127E-03     7.33520E-03
            1369     11.9548E-03     121.086E-03     15.8205E+06    -2.37957E+06     78.4343E+06    -5.72538E+06    -47.2677E-03     101.860E-03    -54.5921E-03     18.0484E-03    -47.3398E-03     101.730E-03    -54.2194E-03     17.7926E-03
            1370     12.7984E-03     121.308E-03     12.2295E+06    -1.69478E+06     79.0088E+06    -5.69336E+06    -44.7759E-03     100.109E-03    -55.3332E-03     33.2754E-03    -44.8802E-03     100.006E-03    -54.9534E-03     33.0108E-03
            1371     13.6494E-03     121.552E-03     9.38499E+06    -3.23666E+06     78.0120E+06    -7.00026E+06    -41.6239E-03     97.5138E-03    -55.8899E-03     49.7218E-03    -41.7529E-03     97.4297E-03    -55.5087E-03     49.4382E-03
            1372     14.4990E-03     121.812E-03     7.67677E+06    -1.85117E+06     73.7992E+06    -6.44660E+06    -42.9138E-03     99.2318E-03    -56.3180E-03     66.9159E-03    -43.0793E-03     99.2039E-03    -55.9575E-03     66.5939E-03
            1373     15.3446E-03     122.091E-03     10.9405E+06    -4.86543E+06     68.9119E+06    -1.88226E+06    -40.5642E-03     97.1578E-03    -56.5937E-03     85.7600E-03    -40.8077E-03     97.2301E-03    -56.2579E-03     85.4067E-03
            1374     16.2008E-03     122.366E-03     10.2277E+06    -242.405E+03     46.6233E+06    -3.79528E+06    -22.5556E-03     78.5904E-03    -56.0348E-03     92.9745E-03    -22.8412E-03     78.7836E-03    -55.8162E-03     92.5822E-03
            1375     16.2188E-03     60.6688E-03    -4.58017E+06     124.337E+06     86.9133E+06    -95.8522E+03    -52.9818E-03     106.091E-03    -53.1092E-03     78.2102E-03    -54.1235E-03     107.406E-03    -52.8483E-03     77.5607E-03
            1376     15.3654E-03     60.5637E-03    -9.27412E+06     122.383E+06     81.6341E+06     991.228E+03    -53.8551E-03     106.978E-03    -53.1226E-03     105.266E-03    -55.4167E-03     108.704E-03    -52.8784E-03     104.355E-03
            1377     14.5119E-03     60.4589E-03    -13.8156E+06     112.601E+06     62.9005E+06     645.070E+03    -54.2825E-03     107.362E-03    -53.0796E-03     111.609E-03    -55.7907E-03     109.039E-03    -52.9084E-03     110.551E-03
            1378     13.6570E-03     60.3409E-03    -17.8371E+06     97.2322E+06     31.6873E+06     126.018E+03    -54.7054E-03     107.688E-03    -52.9824E-03     114.790E-03    -56.0780E-03     109.250E-03    -52.9391E-03     113.649E-03
            1379     12.8038E-03     60.2304E-03    -20.6090E+06     47.5527E+06     9.17904E+06     367.461E+03    -54.6328E-03     107.606E-03    -52.9732E-03     105.726E-03    -55.6567E-03     108.699E-03    -52.9664E-03     104.659E-03
            1380     11.9494E-03     60.1302E-03    -22.6016E+06    -9.24352E+06     5.85343E+06     444.110E+03    -54.5465E-03     107.611E-03    -53.0644E-03     96.4000E-03    -55.2572E-03     108.192E-03    -52.9889E-03     95.4688E-03
            1381     11.0961E-03     60.0384E-03    -24.6242E+06    -43.0120E+06     2.53019E+06     252.860E+03    -54.5154E-03     107.632E-03    -53.1171E-03     89.7641E-03    -55.0240E-03     107.894E-03    -53.0064E-03     88.9562E-03
            1382     10.2423E-03     59.9514E-03    -26.7298E+06    -67.1077E+06     1.53927E+06     112.904E+03    -54.4609E-03     107.625E-03    -53.1645E-03     84.9483E-03    -54.8349E-03     107.662E-03    -53.0208E-03     84.2506E-03
            1383     9.38867E-03     59.8688E-03    -29.1537E+06    -83.9114E+06     335.572E+03     160.408E+03    -54.3555E-03     107.557E-03    -53.2010E-03     80.1372E-03    -54.6342E-03     107.433E-03    -53.0354E-03     79.5409E-03
            1384     8.53494E-03     59.7914E-03    -32.0456E+06    -99.2258E+06    -1.63768E+06     141.880E+03    -54.2347E-03     107.467E-03    -53.2326E-03     74.6530E-03    -54.4389E-03     107.210E-03    -53.0505E-03     74.1475E-03
            1385     7.68139E-03     59.7196E-03    -35.3498E+06    -111.989E+06    -3.77373E+06     90.3696E+03    -54.1001E-03     107.359E-03    -53.2592E-03     68.7100E-03    -54.2493E-03     106.996E-03    -53.0644E-03     68.2858E-03
            1386     6.82778E-03     59.6541E-03    -39.0736E+06    -123.433E+06    -7.57351E+06     45.0718E+03    -53.9486E-03     107.223E-03    -53.2749E-03     62.3881E-03    -54.0555E-03     106.775E-03    -53.0771E-03     62.0363E-03
            1387     5.97429E-03     59.5949E-03    -43.1127E+06    -132.544E+06    -13.7259E+06     102.398E+03    -53.7902E-03     107.065E-03    -53.2751E-03     55.6533E-03    -53.8653E-03     106.557E-03    -53.0891E-03     55.3670E-03
            1388     5.12072E-03     59.5428E-03    -47.1835E+06    -138.764E+06    -22.7409E+06     151.529E+03    -53.6256E-03     106.883E-03    -53.2576E-03     48.5681E-03    -53.6760E-03     106.339E-03    -53.1016E-03     48.3395E-03
            1389     4.26723E-03     59.4977E-03    -51.1334E+06    -146.268E+06    -31.6764E+06     89.6983E+03    -53.4817E-03     106.726E-03    -53.2439E-03     41.1299E-03    -53.5110E-03     106.146E-03    -53.1160E-03     40.9507E-03
            1390     3.41370E-03     59.4604E-03    -54.9242E+06    -157.453E+06    -39.5120E+06     128.504E+03    -53.3744E-03     106.616E-03    -53.2417E-03     33.3774E-03    -53.3827E-03     105.985E-03    -53.1313E-03     33.2426E-03
            1391     2.56026E-03     59.4310E-03    -58.5052E+06    -167.774E+06    -47.9510E+06     82.0795E+03    -53.3033E-03     106.536E-03    -53.2329E-03     25.3878E-03    -53.2935E-03     105.862E-03    -53.1446E-03     25.2909E-03
            1392     1.70680E-03     59.4096E-03    -61.6823E+06    -173.258E+06    -56.0103E+06     4.24733E+03    -53.2553E-03     106.467E-03    -53.2112E-03     17.2486E-03    -53.2360E-03     105.776E-03    -53.1506E-03     17.1849E-03
            1393     853.455E-06     59.3964E-03    -64.0340E+06    -172.573E+06    -62.1762E+06      50.408E+03    -53.2319E-03     106.381E-03    -53.1496E-03     9.43341E-03    -53.2131E-03     105.703E-03    -53.1174E-03     9.40021E-03
            1394     16.2193E-03     59.6141E-03    -4.83850E+06     123.704E+06     86.3148E+06    -59.1841E+03    -53.0143E-03     106.121E-03    -53.1066E-03     77.2711E-03    -54.1488E-03     107.427E-03    -52.8474E-03     76.6224E-03
            1395     15.3658E-03     59.5090E-03    -9.75624E+06     121.612E+06     81.0273E+06    -139.365E+03    -53.7484E-03     106.869E-03    -53.1201E-03     104.451E-03    -55.3065E-03     108.589E-03    -52.8772E-03     103.527E-03
            1396     14.5112E-03     59.4056E-03    -13.8163E+06     113.083E+06     63.3739E+06       565.7E+03    -54.2607E-03     107.343E-03    -53.0824E-03     111.625E-03    -55.7709E-03     109.022E-03    -52.9094E-03     110.566E-03
            1397     13.6578E-03     59.2867E-03    -17.9133E+06     97.6356E+06     31.7221E+06     843.702E+03    -54.6780E-03     107.663E-03    -52.9847E-03     114.740E-03    -56.0508E-03     109.226E-03    -52.9417E-03     113.608E-03
            1398     12.8033E-03     59.1766E-03    -20.8575E+06     47.6855E+06     8.87591E+06     322.137E+03    -54.6493E-03     107.624E-03    -52.9747E-03     105.685E-03    -55.6748E-03     108.719E-03    -52.9692E-03     104.617E-03
            1399     11.9499E-03     59.0763E-03    -22.6973E+06    -9.14785E+06     5.93227E+06     112.387E+03    -54.5807E-03     107.646E-03    -53.0657E-03     96.3410E-03    -55.2924E-03     108.228E-03    -52.9898E-03     95.4043E-03
            1400     11.0958E-03     58.9843E-03    -24.4426E+06    -42.7452E+06     2.70574E+06     119.467E+03    -54.4992E-03     107.617E-03    -53.1174E-03     89.7204E-03    -55.0074E-03     107.878E-03    -53.0065E-03     88.9108E-03
            1401     10.2423E-03     58.8974E-03    -26.6216E+06    -67.1371E+06     1.48379E+06     57.4283E+03    -54.4665E-03     107.631E-03    -53.1646E-03     84.9683E-03    -54.8400E-03     107.667E-03    -53.0213E-03     84.2698E-03
            1402     9.38858E-03     58.8149E-03    -29.1133E+06    -83.9803E+06     272.680E+03     115.655E+03    -54.3737E-03     107.574E-03    -53.2002E-03     80.1176E-03    -54.6521E-03     107.450E-03    -53.0349E-03     79.5202E-03
            1403     8.53504E-03     58.7373E-03    -31.9596E+06    -99.0328E+06    -1.56491E+06     194.343E+03    -54.2428E-03     107.473E-03    -53.2307E-03     74.6530E-03    -54.4470E-03     107.217E-03    -53.0485E-03     74.1482E-03
            1404     7.68137E-03     58.6657E-03    -35.2783E+06    -111.898E+06    -3.75288E+06     146.902E+03    -54.0990E-03     107.356E-03    -53.2565E-03     68.6881E-03    -54.2480E-03     106.993E-03    -53.0619E-03     68.2646E-03
            1405     6.82784E-03     58.6000E-03    -39.0449E+06    -123.345E+06    -7.67217E+06     82.5501E+03    -53.9400E-03     107.212E-03    -53.2719E-03     62.3745E-03    -54.0468E-03     106.764E-03    -53.0748E-03     62.0233E-03
            1406     5.97425E-03     58.5410E-03    -43.1111E+06    -132.607E+06    -13.8723E+06     28.8884E+03    -53.7743E-03     107.048E-03    -53.2737E-03     55.6548E-03    -53.8490E-03     106.539E-03    -53.0883E-03     55.3677E-03
            1407     5.12073E-03     58.4887E-03    -47.1838E+06    -138.707E+06    -22.8009E+06     57.8701E+03    -53.6210E-03     106.879E-03    -53.2579E-03     48.5663E-03    -53.6714E-03     106.336E-03    -53.1024E-03     48.3366E-03
            1408     4.26720E-03     58.4438E-03    -51.0797E+06    -146.195E+06    -31.7462E+06     76.2511E+03    -53.4827E-03     106.727E-03    -53.2446E-03     41.1240E-03    -53.5117E-03     106.148E-03    -53.1173E-03     40.9446E-03
            1409     3.41371E-03     58.4064E-03    -54.9132E+06    -157.414E+06    -39.5089E+06     5.16560E+03    -53.3806E-03     106.623E-03    -53.2422E-03     33.3792E-03    -53.3888E-03     105.992E-03    -53.1319E-03     33.2427E-03
            1410     2.56025E-03     58.3770E-03    -58.5925E+06    -167.668E+06    -47.8537E+06     14.8445E+03    -53.3101E-03     106.542E-03    -53.2317E-03     25.3864E-03    -53.3010E-03     105.868E-03    -53.1429E-03     25.2886E-03
            1411     1.70684E-03     58.3556E-03    -61.7825E+06    -173.246E+06    -56.0836E+06     35.6516E+03    -53.2462E-03     106.456E-03    -53.2096E-03     17.2494E-03    -53.2273E-03     105.765E-03    -53.1493E-03     17.1862E-03
            1412     853.398E-06     58.3424E-03    -64.1289E+06    -172.442E+06    -62.2424E+06    -20.3174E+03    -53.2163E-03     106.382E-03    -53.1652E-03     9.45711E-03    -53.1981E-03     105.704E-03    -53.1334E-03     9.42299E-03
            1413     16.2216E-03     58.5608E-03    -4.47688E+06     124.088E+06     86.7833E+06     135.842E+03    -53.1310E-03     106.233E-03    -53.1017E-03     77.9546E-03    -54.2692E-03     107.544E-03    -52.8412E-03     77.3097E-03
            1414     15.3656E-03     58.4564E-03    -9.45741E+06     121.870E+06     81.1077E+06     260.240E+03    -53.6252E-03     106.741E-03    -53.1157E-03     105.199E-03    -55.1863E-03     108.466E-03    -52.8731E-03     104.284E-03
            1415     14.5117E-03     58.3508E-03    -14.8206E+06     112.185E+06     62.6443E+06     131.843E+03    -54.2033E-03     107.287E-03    -53.0838E-03     111.741E-03    -55.7159E-03     108.964E-03    -52.9117E-03     110.678E-03
            1416     13.6572E-03     58.2334E-03    -17.9655E+06     97.9557E+06     32.4063E+06     462.158E+03    -54.6954E-03     107.687E-03    -52.9918E-03     114.946E-03    -56.0712E-03     109.253E-03    -52.9458E-03     113.809E-03
            1417     12.8036E-03     58.1223E-03    -19.8817E+06     48.2423E+06     9.70670E+06     426.775E+03    -54.7213E-03     107.700E-03    -52.9784E-03     105.744E-03    -55.7455E-03     108.796E-03    -52.9710E-03     104.675E-03
            1418     11.9496E-03     58.0223E-03    -21.8769E+06    -9.06842E+06     6.24755E+06     129.900E+03    -54.6005E-03     107.665E-03    -53.0649E-03     96.3156E-03    -55.3090E-03     108.246E-03    -52.9888E-03     95.3785E-03
            1419     11.0961E-03     57.9305E-03    -24.1715E+06    -42.8229E+06     2.69787E+06     151.277E+03    -54.4971E-03     107.613E-03    -53.1155E-03     89.7340E-03    -55.0040E-03     107.874E-03    -53.0048E-03     88.9249E-03
            1420     10.2422E-03     57.8433E-03    -26.4964E+06    -67.1759E+06     1.45511E+06     135.428E+03    -54.4601E-03     107.623E-03    -53.1630E-03     84.9379E-03    -54.8329E-03     107.659E-03    -53.0199E-03     84.2403E-03
            1421     9.38871E-03     57.7609E-03    -29.0592E+06    -83.8857E+06     304.393E+03     126.995E+03    -54.3866E-03     107.585E-03    -53.1983E-03     80.0780E-03    -54.6651E-03     107.461E-03    -53.0330E-03     79.4805E-03
            1422     8.53498E-03     57.6834E-03    -31.9292E+06    -98.9158E+06    -1.47718E+06     217.475E+03    -54.2493E-03     107.477E-03    -53.2277E-03     74.6444E-03    -54.4537E-03     107.221E-03    -53.0454E-03     74.1397E-03
            1423     7.68147E-03     57.6116E-03    -35.1998E+06    -111.745E+06    -3.69685E+06     177.597E+03    -54.0864E-03     107.340E-03    -53.2534E-03     68.7110E-03    -54.2353E-03     106.978E-03    -53.0588E-03     68.2881E-03
            1424     6.82783E-03     57.5461E-03    -38.9349E+06    -123.312E+06    -7.68557E+06     146.856E+03    -53.9252E-03     107.195E-03    -53.2700E-03     62.3875E-03    -54.0314E-03     106.748E-03    -53.0732E-03     62.0373E-03
            1425     5.97427E-03     57.4869E-03     -43.001E+06    -132.462E+06    -13.8214E+06     49.1624E+03    -53.7673E-03     107.041E-03    -53.2734E-03     55.6626E-03    -53.8417E-03     106.532E-03    -53.0881E-03     55.3758E-03
            1426     5.12072E-03     57.4348E-03    -47.1556E+06    -138.734E+06    -22.6574E+06    -10.3264E+03    -53.6201E-03     106.879E-03    -53.2590E-03     48.5598E-03    -53.6706E-03     106.335E-03    -53.1028E-03     48.3293E-03
            1427     4.26720E-03     57.3898E-03    -51.1299E+06    -146.091E+06    -31.7633E+06     36.9141E+03    -53.4886E-03     106.733E-03    -53.2442E-03     41.1088E-03    -53.5180E-03     106.154E-03    -53.1171E-03     40.9288E-03
            1428     3.41371E-03     57.3525E-03    -54.9764E+06    -157.289E+06    -39.7774E+06     9.43873E+03    -53.3840E-03     106.623E-03    -53.2393E-03     33.3737E-03    -53.3923E-03     105.993E-03    -53.1304E-03     33.2373E-03
            1429     2.56026E-03     57.3230E-03    -58.6644E+06    -167.723E+06    -48.0106E+06    -25.2933E+03    -53.3020E-03     106.532E-03    -53.2302E-03     25.3919E-03    -53.2930E-03     105.859E-03    -53.1419E-03     25.2936E-03
            1430     1.70683E-03     57.3017E-03    -61.8630E+06    -173.156E+06    -56.0438E+06    -11.7730E+03    -53.2389E-03     106.451E-03    -53.2124E-03     17.2545E-03    -53.2205E-03     105.761E-03    -53.1518E-03     17.1907E-03
            1431     853.391E-06     57.2885E-03    -64.2530E+06    -172.402E+06    -62.3823E+06    -3.05656E+03    -53.2053E-03     106.390E-03    -53.1849E-03     9.44431E-03    -53.1876E-03     105.713E-03    -53.1537E-03     9.41044E-03
            1432     16.2176E-03     57.5073E-03    -5.00200E+06     123.511E+06     86.2046E+06     54.0601E+03    -52.9623E-03     106.085E-03    -53.1228E-03     78.1158E-03    -54.1048E-03     107.398E-03    -52.8636E-03     77.4670E-03
            1433     15.3657E-03     57.4011E-03    -9.59686E+06     121.775E+06     81.2435E+06     287.560E+03    -53.9904E-03     107.125E-03    -53.1344E-03     105.184E-03    -55.5572E-03     108.854E-03    -52.8908E-03     104.258E-03
            1434     14.5113E-03     57.2983E-03    -13.8063E+06     112.724E+06     63.1071E+06     194.863E+03    -54.3088E-03     107.398E-03    -53.0887E-03     111.704E-03    -55.8192E-03     109.076E-03    -52.9166E-03     110.638E-03
            1435     13.6572E-03     57.1786E-03    -17.8716E+06     97.7148E+06     32.0267E+06    -136.373E+03    -54.7147E-03     107.706E-03    -52.9914E-03     114.918E-03    -56.0899E-03     109.272E-03    -52.9471E-03     113.772E-03
            1436     12.8035E-03     57.0684E-03    -20.2025E+06     48.1688E+06     9.52128E+06    -63.7244E+03    -54.7262E-03     107.705E-03    -52.9785E-03     105.709E-03    -55.7523E-03     108.802E-03    -52.9714E-03     104.632E-03
            1437     11.9498E-03     56.9684E-03    -22.0547E+06    -9.19856E+06     6.02960E+06     313.435E+03    -54.6238E-03     107.687E-03    -53.0633E-03     96.2179E-03    -55.3327E-03     108.268E-03    -52.9878E-03     95.2824E-03
            1438     11.0958E-03     56.8764E-03    -24.1381E+06    -42.7145E+06     2.81609E+06     388.888E+03    -54.5198E-03     107.633E-03    -53.1127E-03     89.6648E-03    -55.0269E-03     107.894E-03    -53.0017E-03     88.8579E-03
            1439     10.2425E-03     56.7895E-03    -26.4753E+06    -66.8600E+06     1.56138E+06     273.880E+03    -54.4579E-03     107.617E-03    -53.1587E-03     84.9357E-03    -54.8311E-03     107.654E-03    -53.0155E-03     84.2399E-03
            1440     9.38859E-03     56.7068E-03    -29.0624E+06    -83.8304E+06     277.986E+03     210.715E+03    -54.3580E-03     107.553E-03    -53.1947E-03     80.0827E-03    -54.6363E-03     107.429E-03    -53.0296E-03     79.4869E-03
            1441     8.53513E-03     56.6295E-03    -31.9569E+06    -98.9379E+06    -1.55331E+06     192.547E+03    -54.2342E-03     107.460E-03    -53.2259E-03     74.6661E-03    -54.4386E-03     107.204E-03    -53.0439E-03     74.1613E-03
            1442     7.68139E-03     56.5577E-03    -35.2494E+06    -111.647E+06    -3.68934E+06     194.642E+03    -54.0794E-03     107.332E-03    -53.2530E-03     68.7439E-03    -54.2287E-03     106.971E-03    -53.0585E-03     68.3214E-03
            1443     6.82783E-03     56.4921E-03    -38.9235E+06    -123.171E+06    -7.64354E+06     112.873E+03    -53.9237E-03     107.194E-03    -53.2703E-03     62.3960E-03    -54.0301E-03     106.747E-03    -53.0734E-03     62.0455E-03
            1444     5.97427E-03     56.4330E-03    -42.9488E+06    -132.315E+06    -13.7321E+06     81.1251E+03    -53.7702E-03     107.044E-03    -53.2737E-03     55.6750E-03    -53.8447E-03     106.536E-03    -53.0882E-03     55.3888E-03
            1445     5.12072E-03     56.3808E-03    -47.1022E+06    -138.676E+06    -22.5645E+06     37.1478E+03    -53.6228E-03     106.882E-03    -53.2591E-03     48.5648E-03    -53.6732E-03     106.338E-03    -53.1026E-03     48.3349E-03
            1446     4.26722E-03     56.3358E-03    -51.1122E+06    -146.113E+06    -31.6636E+06     1.36392E+03    -53.4907E-03     106.735E-03    -53.2440E-03     41.1167E-03    -53.5201E-03     106.156E-03    -53.1164E-03     40.9364E-03
            1447     3.41373E-03     56.2985E-03    -54.9367E+06    -157.223E+06    -39.6623E+06     36.1577E+03    -53.3818E-03     106.621E-03    -53.2389E-03     33.3776E-03    -53.3901E-03     105.991E-03    -53.1296E-03     33.2417E-03
            1448     2.56026E-03     56.2690E-03    -58.6234E+06    -167.669E+06    -48.0431E+06     9.09837E+03    -53.2935E-03     106.524E-03    -53.2309E-03     25.3876E-03    -53.2842E-03     105.851E-03    -53.1430E-03     25.2898E-03
            1449     1.70679E-03     56.2477E-03    -61.8370E+06    -173.140E+06    -56.1621E+06    -25.7461E+03    -53.2446E-03     106.458E-03    -53.2135E-03     17.2671E-03    -53.2260E-03     105.768E-03    -53.1536E-03     17.2031E-03
            1450     853.433E-06     56.2345E-03    -64.1996E+06    -172.455E+06    -62.2779E+06    -18.7271E+03    -53.2263E-03     106.393E-03    -53.1665E-03     9.42822E-03    -53.2083E-03     105.715E-03    -53.1347E-03     9.39425E-03
            1451     16.2206E-03     56.4518E-03    -4.09832E+06     123.657E+06     86.4545E+06     16.8551E+03    -52.9945E-03     106.116E-03    -53.1218E-03     77.8169E-03    -54.1318E-03     107.427E-03    -52.8629E-03     77.1677E-03
            1452     15.3650E-03     56.3481E-03    -9.22883E+06     121.365E+06     80.7537E+06    -410.308E+03    -53.8447E-03     106.978E-03    -53.1328E-03     104.459E-03    -55.4059E-03     108.703E-03    -52.8917E-03     103.526E-03
            1453     14.5114E-03     56.2430E-03    -13.7727E+06     112.856E+06     63.1125E+06     18.3290E+03    -54.4176E-03     107.506E-03    -53.0887E-03     111.464E-03    -55.9297E-03     109.187E-03    -52.9169E-03     110.392E-03
            1454     13.6578E-03     56.1257E-03    -17.2652E+06     97.8871E+06     31.9399E+06     96.1494E+03    -54.7787E-03     107.763E-03    -52.9843E-03     114.881E-03    -56.1521E-03     109.330E-03    -52.9415E-03     113.736E-03
            1455     12.8033E-03     56.0140E-03    -20.1344E+06     47.6612E+06     8.93883E+06     42.2391E+03    -54.6617E-03     107.632E-03    -52.9704E-03     105.660E-03    -55.6842E-03     108.726E-03    -52.9656E-03     104.587E-03
            1456     11.9498E-03     55.9144E-03    -22.2943E+06    -9.36985E+06     6.03726E+06     257.245E+03    -54.6005E-03     107.661E-03    -53.0607E-03     96.1709E-03    -55.3098E-03     108.241E-03    -52.9846E-03     95.2352E-03
            1457     11.0962E-03     55.8225E-03    -24.3468E+06    -42.5046E+06     2.84350E+06     405.310E+03    -54.5230E-03     107.633E-03    -53.1100E-03     89.6780E-03    -55.0317E-03     107.896E-03    -52.9988E-03     88.8712E-03
            1458     10.2423E-03     55.7354E-03    -26.5000E+06    -66.5035E+06     1.72939E+06     383.658E+03    -54.4312E-03     107.588E-03    -53.1570E-03     84.9746E-03    -54.8051E-03     107.627E-03    -53.0135E-03     84.2810E-03
            1459     9.38882E-03     55.6530E-03    -29.0542E+06    -83.8160E+06     236.954E+03     256.831E+03    -54.3374E-03     107.532E-03    -53.1946E-03     80.1743E-03    -54.6155E-03     107.409E-03    -53.0298E-03     79.5797E-03
            1460     8.53493E-03     55.5755E-03    -31.9628E+06    -99.0118E+06    -1.60336E+06     211.763E+03    -54.2328E-03     107.460E-03    -53.2273E-03     74.7064E-03    -54.4370E-03     107.204E-03    -53.0454E-03     74.2021E-03
            1461     7.68145E-03     55.5038E-03    -35.1903E+06    -111.488E+06    -3.64824E+06     180.923E+03    -54.0903E-03     107.344E-03    -53.2541E-03     68.7336E-03    -54.2395E-03     106.983E-03    -53.0597E-03     68.3108E-03
            1462     6.82783E-03     55.4381E-03    -38.9003E+06    -123.048E+06    -7.59687E+06     104.932E+03    -53.9291E-03     107.200E-03    -53.2706E-03     62.3954E-03    -54.0355E-03     106.753E-03    -53.0738E-03     62.0448E-03
            1463     5.97425E-03     55.3790E-03    -42.9675E+06    -132.254E+06    -13.7387E+06     91.7629E+03    -53.7731E-03     107.046E-03    -53.2734E-03     55.6698E-03    -53.8477E-03     106.539E-03    -53.0880E-03     55.3838E-03
            1464     5.12073E-03     55.3268E-03    -47.1085E+06    -138.547E+06    -22.6452E+06     64.4718E+03    -53.6192E-03     106.878E-03    -53.2584E-03     48.5623E-03    -53.6697E-03     106.335E-03    -53.1024E-03     48.3329E-03
            1465     4.26720E-03     55.2819E-03    -51.1117E+06    -146.102E+06    -31.7136E+06     11.8857E+03    -53.4842E-03     106.729E-03    -53.2446E-03     41.1231E-03    -53.5135E-03     106.150E-03    -53.1172E-03     40.9431E-03
            1466     3.41371E-03     55.2445E-03    -54.9894E+06    -157.275E+06    -39.6195E+06     23.1399E+03    -53.3808E-03     106.622E-03    -53.2412E-03     33.3783E-03    -53.3894E-03     105.992E-03    -53.1315E-03     33.2422E-03
            1467     2.56025E-03     55.2151E-03    -58.6061E+06    -167.558E+06    -47.9896E+06     65.2724E+03    -53.3049E-03     106.536E-03    -53.2313E-03     25.3814E-03    -53.2958E-03     105.863E-03    -53.1433E-03     25.2844E-03
            1468     1.70684E-03     55.1937E-03    -61.7901E+06    -173.087E+06    -56.2241E+06     30.9645E+03    -53.2472E-03     106.457E-03    -53.2102E-03     17.2738E-03    -53.2284E-03     105.768E-03    -53.1508E-03     17.2106E-03
            1469     853.394E-06     55.1805E-03    -64.2138E+06    -172.458E+06    -62.4280E+06    -77.9395E+03    -53.2286E-03     106.384E-03    -53.1552E-03     9.40859E-03    -53.2106E-03     105.707E-03    -53.1242E-03     9.37381E-03
            1470     16.2193E-03     55.3996E-03    -4.34375E+06     123.917E+06     86.6690E+06    -112.993E+03    -53.0845E-03     106.187E-03    -53.1029E-03     77.7599E-03    -54.2215E-03     107.498E-03    -52.8430E-03     77.1112E-03
            1471     15.3660E-03     55.2932E-03    -9.19093E+06     121.337E+06     80.6821E+06     47.7546E+03    -53.6057E-03     106.722E-03    -53.1165E-03     104.744E-03    -55.1631E-03     108.444E-03    -52.8757E-03     103.826E-03
            1472     14.5115E-03     55.1900E-03    -14.6443E+06     112.568E+06     62.1368E+06    -310.590E+03    -54.3131E-03     107.393E-03    -53.0794E-03     111.598E-03    -55.8264E-03     109.073E-03    -52.9107E-03     110.525E-03
            1473     13.6571E-03     55.0706E-03    -18.2024E+06     97.7480E+06     31.7617E+06    -362.650E+03    -54.8045E-03     107.785E-03    -52.9807E-03     114.821E-03    -56.1812E-03     109.352E-03    -52.9372E-03     113.669E-03
            1474     12.8041E-03     54.9608E-03    -20.2440E+06     47.4389E+06     9.17056E+06     314.540E+03    -54.6593E-03     107.626E-03    -52.9667E-03     105.752E-03    -55.6818E-03     108.718E-03    -52.9603E-03     104.684E-03
            1475     11.9497E-03     54.8601E-03    -22.4184E+06    -9.44441E+06     5.83986E+06     395.810E+03    -54.5305E-03     107.588E-03    -53.0574E-03     96.2776E-03    -55.2393E-03     108.167E-03    -52.9820E-03     95.3461E-03
            1476     11.0960E-03     54.7685E-03    -24.4955E+06    -42.3839E+06     2.74064E+06     279.652E+03    -54.4817E-03     107.593E-03    -53.1112E-03     89.7056E-03    -54.9908E-03     107.857E-03    -53.0005E-03     88.8983E-03
            1477     10.2425E-03     54.6816E-03    -26.6369E+06    -66.6329E+06     1.52804E+06     298.162E+03    -54.4351E-03     107.595E-03    -53.1598E-03     85.0246E-03    -54.8093E-03     107.634E-03    -53.0169E-03     84.3300E-03
            1478     9.38848E-03     54.5990E-03    -29.1157E+06    -83.5802E+06     252.386E+03     300.814E+03    -54.3551E-03     107.552E-03    -53.1973E-03     80.1800E-03    -54.6339E-03     107.430E-03    -53.0326E-03     79.5858E-03
            1479     8.53510E-03     54.5215E-03    -31.9096E+06    -98.8194E+06    -1.64937E+06     207.907E+03    -54.2435E-03     107.472E-03    -53.2284E-03     74.7017E-03    -54.4475E-03     107.217E-03    -53.0471E-03     74.1973E-03
            1480     7.68138E-03     54.4498E-03    -35.2376E+06    -111.446E+06    -3.74867E+06     178.657E+03    -54.0955E-03     107.350E-03    -53.2546E-03     68.7364E-03    -54.2448E-03     106.990E-03    -53.0607E-03     68.3136E-03
            1481     6.82782E-03     54.3842E-03    -38.9886E+06    -122.901E+06    -7.63151E+06     154.266E+03    -53.9426E-03     107.213E-03    -53.2702E-03     62.3918E-03    -54.0497E-03     106.767E-03    -53.0736E-03     62.0418E-03
            1482     5.97429E-03     54.3250E-03    -43.0268E+06    -132.233E+06    -13.7911E+06     103.388E+03    -53.7754E-03     107.047E-03    -53.2718E-03     55.6583E-03    -53.8503E-03     106.540E-03    -53.0866E-03     55.3725E-03
            1483     5.12072E-03     54.2728E-03    -47.1218E+06    -138.439E+06    -22.7124E+06     76.9972E+03    -53.6133E-03     106.870E-03    -53.2565E-03     48.5488E-03    -53.6639E-03     106.328E-03    -53.1010E-03     48.3197E-03
            1484     4.26721E-03     54.2279E-03    -51.0873E+06    -146.031E+06    -31.6983E+06     28.9547E+03    -53.4801E-03     106.724E-03    -53.2438E-03     41.1079E-03    -53.5094E-03     106.145E-03    -53.1165E-03     40.9281E-03
            1485     3.41370E-03     54.1906E-03    -54.9457E+06    -157.278E+06    -39.6379E+06     32.9568E+03    -53.3806E-03     106.621E-03    -53.2406E-03     33.3558E-03    -53.3890E-03     105.991E-03    -53.1311E-03     33.2198E-03
            1486     2.56025E-03     54.1611E-03    -58.6282E+06    -167.476E+06    -47.9999E+06     42.5004E+03    -53.3126E-03     106.542E-03    -53.2290E-03     25.3760E-03    -53.3038E-03     105.869E-03    -53.1411E-03     25.2787E-03
            1487     1.70683E-03     54.1397E-03    -61.8196E+06    -172.968E+06    -56.0956E+06     44.4719E+03    -53.2534E-03     106.457E-03    -53.2032E-03     17.2528E-03    -53.2351E-03     105.768E-03    -53.1433E-03     17.1897E-03
            1488     853.425E-06     54.1265E-03    -64.2185E+06    -172.462E+06    -62.3895E+06     48.2875E+03    -53.1995E-03     106.362E-03    -53.1622E-03     9.38958E-03    -53.1815E-03     105.685E-03    -53.1310E-03     9.35641E-03
            1489     16.2208E-03     54.3443E-03    -4.64562E+06     123.613E+06     86.4538E+06    -21.6082E+03    -52.9712E-03     106.076E-03    -53.1047E-03     78.1640E-03    -54.1110E-03     107.387E-03    -52.8449E-03     77.5170E-03
            1490     15.3657E-03     54.2412E-03    -9.54742E+06     121.291E+06     81.0039E+06     139.719E+03    -53.8365E-03     106.955E-03    -53.1186E-03     105.299E-03    -55.3993E-03     108.680E-03    -52.8756E-03     104.377E-03
            1491     14.5114E-03     54.1347E-03    -14.1002E+06     113.344E+06     62.6470E+06    -27.7944E+03    -54.3278E-03     107.402E-03    -53.0739E-03     111.721E-03    -55.8398E-03     109.084E-03    -52.9045E-03     110.652E-03
            1492     13.6581E-03     54.0176E-03    -18.5258E+06     97.3794E+06     30.8447E+06    -160.551E+03    -54.6934E-03     107.667E-03    -52.9739E-03     114.790E-03    -56.0685E-03     109.233E-03    -52.9340E-03     113.644E-03
            1493     12.8030E-03     53.9060E-03    -21.5523E+06     47.1242E+06     8.21060E+06    -191.175E+03    -54.6432E-03     107.608E-03    -52.9648E-03     105.751E-03    -55.6707E-03     108.702E-03    -52.9608E-03     104.677E-03
            1494     11.9500E-03     53.8067E-03    -22.8968E+06    -9.39541E+06     5.54173E+06    -24.4161E+03    -54.5113E-03     107.570E-03    -53.0582E-03     96.3449E-03    -55.2220E-03     108.149E-03    -52.9837E-03     95.4088E-03
            1495     11.0960E-03     53.7144E-03    -24.5184E+06    -42.5318E+06     2.63281E+06     159.526E+03    -54.4607E-03     107.575E-03    -53.1145E-03     89.7624E-03    -54.9694E-03     107.838E-03    -53.0041E-03     88.9541E-03
            1496     10.2421E-03     53.6277E-03    -26.6750E+06    -66.5044E+06     1.48188E+06     217.114E+03    -54.4785E-03     107.641E-03    -53.1622E-03     84.9511E-03    -54.8532E-03     107.680E-03    -53.0197E-03     84.2545E-03
            1497     9.38881E-03     53.5449E-03    -29.1276E+06    -83.5428E+06     202.411E+03     234.005E+03    -54.3774E-03     107.574E-03    -53.1967E-03     80.1223E-03    -54.6562E-03     107.452E-03    -53.0324E-03     79.5268E-03
            1498     8.53494E-03     53.4676E-03    -32.0595E+06    -98.6707E+06    -1.76706E+06     252.862E+03    -54.2330E-03     107.460E-03    -53.2268E-03     74.6822E-03    -54.4377E-03     107.206E-03    -53.0461E-03     74.1787E-03
            1499     7.68141E-03     53.3957E-03    -35.2936E+06    -111.434E+06    -3.90979E+06     165.093E+03    -54.0972E-03     107.350E-03    -53.2531E-03     68.7229E-03    -54.2466E-03     106.990E-03    -53.0599E-03     68.3000E-03
            1500     6.82785E-03     53.3302E-03    -38.9388E+06    -122.845E+06    -7.63203E+06     160.041E+03    -53.9462E-03     107.215E-03    -53.2688E-03     62.3726E-03    -54.0531E-03     106.770E-03    -53.0724E-03     62.0227E-03
            1501     5.97427E-03     53.2710E-03    -43.0152E+06    -132.052E+06    -13.7173E+06     138.133E+03    -53.7796E-03     107.049E-03    -53.2698E-03     55.6366E-03    -53.8548E-03     106.543E-03    -53.0845E-03     55.3513E-03
            1502     5.12076E-03     53.2189E-03    -47.1597E+06    -138.309E+06    -22.7522E+06     76.9358E+03    -53.6182E-03     106.871E-03    -53.2529E-03     48.5348E-03    -53.6691E-03     106.330E-03    -53.0977E-03     48.3057E-03
            1503     4.26722E-03     53.1739E-03    -51.1247E+06    -146.017E+06    -31.8102E+06     46.2486E+03    -53.4820E-03     106.721E-03    -53.2385E-03     41.0898E-03    -53.5114E-03     106.142E-03    -53.1117E-03     40.9102E-03
            1504     3.41374E-03     53.1366E-03    -54.9573E+06    -157.238E+06    -39.6462E+06     28.1184E+03    -53.3800E-03     106.614E-03    -53.2342E-03     33.3431E-03    -53.3884E-03     105.984E-03    -53.1248E-03     33.2072E-03
            1505     2.56027E-03     53.1071E-03    -58.7199E+06    -167.439E+06    -48.0012E+06     22.3410E+03    -53.3048E-03     106.527E-03    -53.2221E-03     25.3606E-03    -53.2964E-03     105.855E-03    -53.1341E-03     25.2629E-03
            1506     1.70685E-03     53.0857E-03    -61.9719E+06    -172.980E+06    -56.1265E+06     29.5866E+03    -53.2423E-03     106.440E-03    -53.1975E-03     17.2424E-03    -53.2246E-03     105.751E-03    -53.1374E-03     17.1791E-03
            1507     853.456E-06     53.0726E-03    -64.0881E+06    -172.323E+06    -62.2753E+06     25.8253E+03    -53.1635E-03     106.353E-03    -53.1892E-03     9.38276E-03    -53.1452E-03     105.676E-03    -53.1578E-03     9.34936E-03
            1508     16.2182E-03     53.2922E-03    -4.65499E+06     123.607E+06     86.5722E+06    -33.5811E+03    -53.0731E-03     106.181E-03    -53.1080E-03     77.8354E-03    -54.2132E-03     107.492E-03    -52.8476E-03     77.1834E-03
            1509     15.3653E-03     53.1849E-03    -9.69813E+06     121.199E+06     80.7204E+06    -311.634E+03    -53.8785E-03     106.993E-03    -53.1148E-03     104.714E-03    -55.4411E-03     108.718E-03    -52.8728E-03     103.783E-03
            1510     14.5122E-03     53.0823E-03    -14.2852E+06     113.114E+06     62.6081E+06     158.262E+03    -54.2868E-03     107.357E-03    -53.0704E-03     111.704E-03    -55.7994E-03     109.039E-03    -52.9007E-03     110.638E-03
            1511     13.6569E-03     52.9628E-03    -18.0472E+06     97.7746E+06     31.4435E+06     286.312E+03    -54.6690E-03     107.643E-03    -52.9738E-03     114.867E-03    -56.0430E-03     109.209E-03    -52.9322E-03     113.728E-03
            1512     12.8042E-03     52.8529E-03    -20.2659E+06     47.4473E+06     8.92811E+06    -257.028E+03    -54.5766E-03     107.544E-03    -52.9675E-03     105.731E-03    -55.5980E-03     108.636E-03    -52.9623E-03     104.658E-03
            1513     11.9494E-03     52.7523E-03    -22.5051E+06    -9.79262E+06     5.50932E+06    -281.515E+03    -54.5304E-03     107.592E-03    -53.0615E-03     96.3671E-03    -55.2387E-03     108.170E-03    -52.9872E-03     95.4271E-03
            1514     11.0960E-03     52.6608E-03    -24.7362E+06    -42.6347E+06     2.42083E+06     75.7965E+03    -54.5214E-03     107.636E-03    -53.1145E-03     89.7488E-03    -55.0310E-03     107.899E-03    -53.0047E-03     88.9383E-03
            1515     10.2424E-03     52.5733E-03    -26.9000E+06    -66.5378E+06     1.26896E+06     171.953E+03    -54.4711E-03     107.631E-03    -53.1600E-03     84.9479E-03    -54.8464E-03     107.671E-03    -53.0182E-03     84.2510E-03
            1516     9.38858E-03     52.4912E-03    -29.4162E+06    -83.7173E+06    -122.520E+03     150.937E+03    -54.3879E-03     107.582E-03    -53.1939E-03     80.1088E-03    -54.6677E-03     107.460E-03    -53.0305E-03     79.5118E-03
            1517     8.53510E-03     52.4135E-03    -32.1068E+06    -98.4927E+06    -1.69256E+06     217.494E+03    -54.2499E-03     107.473E-03    -53.2234E-03     74.6552E-03    -54.4553E-03     107.220E-03    -53.0425E-03     74.1509E-03
            1518     7.68145E-03     52.3419E-03    -35.3565E+06    -111.224E+06    -3.95197E+06     199.610E+03    -54.0890E-03     107.337E-03    -53.2481E-03     68.7035E-03    -54.2389E-03     106.978E-03    -53.0553E-03     68.2812E-03
            1519     6.82783E-03     52.2761E-03    -39.0786E+06    -122.928E+06    -7.80907E+06     95.4349E+03    -53.9415E-03     107.205E-03    -53.2636E-03     62.3409E-03    -54.0486E-03     106.760E-03    -53.0678E-03     61.9903E-03
            1520     5.97433E-03     52.2171E-03    -43.0352E+06    -131.917E+06    -13.7639E+06     118.022E+03    -53.7813E-03     107.045E-03    -53.2641E-03     55.5875E-03    -53.8567E-03     106.540E-03    -53.0793E-03     55.3017E-03
            1521     5.12076E-03     52.1649E-03    -47.1811E+06    -138.211E+06    -22.7429E+06     94.9543E+03    -53.6230E-03     106.869E-03    -53.2458E-03     48.4976E-03    -53.6742E-03     106.328E-03    -53.0907E-03     48.2686E-03
            1522     4.26728E-03     52.1200E-03    -51.1794E+06    -145.893E+06    -31.7990E+06     53.5995E+03    -53.4810E-03     106.710E-03    -53.2295E-03     41.0615E-03    -53.5108E-03     106.133E-03    -53.1027E-03     40.8820E-03
            1523     3.41375E-03     52.0826E-03    -55.0684E+06    -157.208E+06    -39.7046E+06     25.6475E+03    -53.3728E-03     106.596E-03    -53.2237E-03     33.3336E-03    -53.3817E-03     105.967E-03    -53.1144E-03     33.1976E-03
            1524     2.56032E-03     52.0531E-03    -58.7728E+06    -167.451E+06    -48.0948E+06     19.6854E+03    -53.2877E-03     106.500E-03    -53.2120E-03     25.3498E-03    -53.2795E-03     105.828E-03    -53.1245E-03     25.2523E-03
            1525     1.70684E-03     52.0318E-03    -61.8890E+06    -172.900E+06    -56.2122E+06    -3.92116E+03    -53.2191E-03     106.412E-03    -53.1934E-03     17.2373E-03    -53.2010E-03     105.724E-03    -53.1340E-03     17.1736E-03
            1526     853.382E-06     52.0186E-03    -64.2426E+06    -172.313E+06    -62.4119E+06    -60.2906E+03    -53.1825E-03     106.355E-03    -53.1722E-03     9.34430E-03    -53.1648E-03     105.678E-03    -53.1413E-03     9.30976E-03
            1527     16.2215E-03     52.2360E-03    -4.33239E+06     123.975E+06     86.9188E+06     77.9207E+03    -53.0885E-03     106.188E-03    -53.0997E-03     77.8635E-03    -54.2270E-03     107.499E-03    -52.8385E-03     77.2164E-03
            1528     15.3668E-03     52.1333E-03    -9.82823E+06     121.281E+06     80.4800E+06     402.622E+03    -53.6432E-03     106.755E-03    -53.1116E-03     105.311E-03    -55.2053E-03     108.479E-03    -52.8708E-03     104.396E-03
            1529     14.5108E-03     52.0271E-03    -15.1356E+06     112.986E+06     62.2036E+06    -136.522E+03    -54.2932E-03     107.369E-03    -53.0757E-03     112.046E-03    -55.8099E-03     109.053E-03    -52.9065E-03     110.977E-03
            1530     13.6584E-03     51.9097E-03    -18.0554E+06     98.0595E+06     31.9678E+06    -651.485E+03    -54.7120E-03     107.693E-03    -52.9812E-03     114.976E-03    -56.0872E-03     109.260E-03    -52.9374E-03     113.825E-03
            1531     12.8029E-03     51.7985E-03    -20.2082E+06     47.2008E+06     8.87988E+06    -7.75881E+03    -54.6674E-03     107.636E-03    -52.9689E-03     105.768E-03    -55.6884E-03     108.727E-03    -52.9636E-03     104.696E-03
            1532     11.9500E-03     51.6988E-03    -22.5574E+06    -9.73210E+06     5.34019E+06     297.709E+03    -54.5806E-03     107.638E-03    -53.0570E-03     96.2164E-03    -55.2886E-03     108.215E-03    -52.9835E-03     95.2832E-03
            1533     11.0960E-03     51.6063E-03    -24.8739E+06    -42.7790E+06     2.12554E+06     43.1311E+03    -54.4801E-03     107.589E-03    -53.1089E-03     89.6823E-03    -54.9892E-03     107.852E-03    -53.0001E-03     88.8724E-03
            1534     10.2423E-03     51.5198E-03    -27.0888E+06    -66.7699E+06     1.03789E+06     79.5457E+03    -54.4557E-03     107.612E-03    -53.1567E-03     84.9663E-03    -54.8313E-03     107.652E-03    -53.0154E-03     84.2683E-03
            1535     9.38872E-03     51.4369E-03    -29.4555E+06    -83.4419E+06    -102.719E+03     92.6022E+03    -54.4016E-03     107.592E-03    -53.1906E-03     80.0979E-03    -54.6821E-03     107.472E-03    -53.0274E-03     79.4999E-03
            1536     8.53511E-03     51.3597E-03    -32.2762E+06    -98.5605E+06    -1.88980E+06     85.3630E+03    -54.2778E-03     107.495E-03    -53.2171E-03     74.6016E-03    -54.4838E-03     107.242E-03    -53.0368E-03     74.0950E-03
            1537     7.68148E-03     51.2878E-03    -35.5087E+06    -111.037E+06    -3.92390E+06     180.170E+03    -54.1028E-03     107.342E-03    -53.2393E-03     68.6672E-03    -54.2537E-03     106.984E-03    -53.0464E-03     68.2447E-03
            1538     6.82796E-03     51.2222E-03    -39.1638E+06    -122.658E+06    -7.87907E+06     83.4168E+03    -53.9317E-03     107.184E-03    -53.2525E-03     62.2855E-03    -54.0394E-03     106.740E-03    -53.0573E-03     61.9349E-03
            1539     5.97435E-03     51.1631E-03    -43.1726E+06    -132.083E+06    -13.9748E+06    -27.8825E+03    -53.7722E-03     107.025E-03    -53.2526E-03     55.5512E-03    -53.8477E-03     106.519E-03    -53.0684E-03     55.2637E-03
            1540     5.12087E-03     51.1109E-03    -47.1495E+06    -138.172E+06    -22.6660E+06     60.4439E+03    -53.6157E-03     106.850E-03    -53.2345E-03     48.4616E-03    -53.6668E-03     106.309E-03    -53.0791E-03     48.2322E-03
            1541     4.26730E-03     51.0660E-03    -51.1320E+06    -145.787E+06    -31.6082E+06     79.4862E+03    -53.4736E-03     106.691E-03    -53.2176E-03     41.0379E-03    -53.5036E-03     106.114E-03    -53.0901E-03     40.8588E-03
            1542     3.41384E-03     51.0287E-03    -55.0279E+06    -157.129E+06    -39.6375E+06     47.9954E+03    -53.3583E-03     106.569E-03    -53.2108E-03     33.3117E-03    -53.3672E-03     105.940E-03    -53.1013E-03     33.1761E-03
            1543     2.56031E-03     50.9993E-03    -58.6954E+06    -167.374E+06    -48.1542E+06    -7.88081E+03    -53.2730E-03     106.472E-03    -53.1989E-03     25.3285E-03    -53.2643E-03     105.800E-03    -53.1119E-03     25.2306E-03
            1544     1.70688E-03     50.9779E-03    -61.8622E+06    -172.849E+06    -56.2697E+06    -38.4270E+03    -53.2116E-03     106.391E-03    -53.1791E-03     17.2036E-03    -53.1933E-03     105.702E-03    -53.1202E-03     17.1395E-03
            1545     853.446E-06     50.9647E-03    -64.2631E+06    -172.367E+06    -62.4010E+06     12.2282E+03    -53.1949E-03     106.324E-03    -53.1291E-03     9.37648E-03    -53.1772E-03     105.647E-03    -53.0980E-03     9.34295E-03
            1546     16.2190E-03     51.1847E-03    -4.55978E+06     123.262E+06     86.1171E+06     398.344E+03    -52.8331E-03     105.950E-03    -53.1173E-03     78.8896E-03    -53.9736E-03     107.263E-03    -52.8588E-03     78.2477E-03
            1547     15.3640E-03     51.0779E-03    -9.34706E+06     121.840E+06     81.2409E+06     593.673E+03    -54.0380E-03     107.171E-03    -53.1327E-03     105.627E-03    -55.6022E-03     108.899E-03    -52.8896E-03     104.705E-03
            1548     14.5123E-03     50.9739E-03    -13.3530E+06     114.252E+06     63.2716E+06    -465.066E+03    -54.4241E-03     107.505E-03    -53.0812E-03     111.584E-03    -55.9342E-03     109.190E-03    -52.9111E-03     110.508E-03
            1549     13.6563E-03     50.8553E-03    -17.8992E+06     97.3128E+06     30.8457E+06    -306.082E+03    -54.7402E-03     107.716E-03    -52.9754E-03     114.698E-03    -56.1113E-03     109.279E-03    -52.9363E-03     113.549E-03
            1550     12.8042E-03     50.7447E-03    -21.4604E+06     46.7527E+06     7.96005E+06     196.875E+03    -54.7400E-03     107.701E-03    -52.9612E-03     105.557E-03    -55.7657E-03     108.794E-03    -52.9581E-03     104.485E-03
            1551     11.9498E-03     50.6446E-03    -23.1552E+06    -9.40769E+06     5.13716E+06     121.374E+03    -54.5671E-03     107.615E-03    -53.0476E-03     96.1703E-03    -55.2784E-03     108.195E-03    -52.9747E-03     95.2347E-03
            1552     11.0961E-03     50.5529E-03    -24.7221E+06    -42.8041E+06     2.23920E+06     26.5552E+03    -54.4575E-03     107.558E-03    -53.1010E-03     89.6814E-03    -54.9661E-03     107.821E-03    -52.9919E-03     88.8714E-03
            1553     10.2424E-03     50.4655E-03    -26.9481E+06    -66.5445E+06     1.22659E+06     42.0613E+03    -54.4506E-03     107.600E-03    -53.1492E-03     84.9250E-03    -54.8260E-03     107.640E-03    -53.0075E-03     84.2265E-03
            1554     9.38876E-03     50.3831E-03    -29.4994E+06    -83.5267E+06    -192.244E+03     2.89391E+03    -54.3918E-03     107.574E-03    -53.1822E-03     80.0375E-03    -54.6720E-03     107.454E-03    -53.0193E-03     79.4384E-03
            1555     8.53511E-03     50.3055E-03    -32.2982E+06    -98.7297E+06    -1.94074E+06     13.9899E+03    -54.2849E-03     107.493E-03    -53.2081E-03     74.5646E-03    -54.4906E-03     107.239E-03    -53.0278E-03     74.0569E-03
            1556     7.68169E-03     50.2339E-03    -35.4385E+06    -110.832E+06    -3.83997E+06     76.1385E+03    -54.1246E-03     107.352E-03    -53.2274E-03     68.6025E-03    -54.2756E-03     106.995E-03    -53.0345E-03     68.1783E-03
            1557     6.82801E-03     50.1683E-03    -39.1074E+06    -122.441E+06    -7.78428E+06     36.2935E+03    -53.9270E-03     107.165E-03    -53.2380E-03     62.2653E-03    -54.0348E-03     106.722E-03    -53.0427E-03     61.9143E-03
            1558     5.97451E-03     50.1092E-03    -43.1461E+06    -132.055E+06    -13.9857E+06    -19.9942E+03    -53.7569E-03     106.994E-03    -53.2372E-03     55.5289E-03    -53.8322E-03     106.488E-03    -53.0531E-03     55.2418E-03
            1559     5.12088E-03     50.0570E-03    -47.3045E+06    -138.229E+06    -22.9841E+06    -81.2745E+03    -53.6031E-03     106.821E-03    -53.2176E-03     48.4351E-03    -53.6544E-03     106.280E-03    -53.0635E-03     48.2041E-03
            1560     4.26742E-03     50.0121E-03    -51.1170E+06    -145.796E+06    -31.6606E+06     2.14454E+03    -53.4594E-03     106.660E-03    -53.2010E-03     40.9999E-03    -53.4892E-03     106.083E-03    -53.0738E-03     40.8199E-03
            1561     3.41384E-03     49.9748E-03    -54.9309E+06    -157.073E+06    -39.5002E+06     74.2999E+03    -53.3444E-03     106.539E-03    -53.1942E-03     33.2812E-03    -53.3531E-03     105.909E-03    -53.0843E-03     33.1460E-03
            1562     2.56040E-03     49.9453E-03    -58.7114E+06    -167.247E+06    -48.0788E+06     49.3616E+03    -53.2613E-03     106.442E-03    -53.1804E-03     25.3039E-03    -53.2530E-03     105.771E-03    -53.0932E-03     25.2069E-03
            1563     1.70691E-03     49.9240E-03    -62.0014E+06    -172.859E+06    -56.2875E+06    -4.28264E+03    -53.1983E-03     106.355E-03    -53.1568E-03     17.1993E-03    -53.1807E-03     105.667E-03    -53.0977E-03     17.1357E-03
            1564     853.459E-06     49.9108E-03    -64.2895E+06    -172.353E+06    -62.4982E+06    -14.8209E+03    -53.1505E-03     106.274E-03    -53.1231E-03     9.37909E-03    -53.1329E-03     105.597E-03    -53.0924E-03     9.34521E-03
            1565     16.2183E-03     50.1295E-03    -4.41288E+06     123.534E+06     86.3632E+06     28.3793E+03    -53.2557E-03     106.369E-03    -53.1133E-03     77.6147E-03    -54.3934E-03     107.679E-03    -52.8542E-03     76.9600E-03
            1566     15.3668E-03     50.0233E-03    -8.56825E+06     122.200E+06     81.2615E+06    -814.449E+03    -53.9247E-03     107.039E-03    -53.1142E-03     104.187E-03    -55.4816E-03     108.764E-03    -52.8726E-03     103.246E-03
            1567     14.5108E-03     49.9201E-03    -13.6192E+06     113.716E+06     62.7771E+06     200.473E+03    -54.3302E-03     107.395E-03    -53.0650E-03     111.149E-03    -55.8393E-03     109.078E-03    -52.8962E-03     110.080E-03
            1568     13.6589E-03     49.8013E-03    -18.2788E+06     97.4582E+06     31.4529E+06     776.790E+03    -54.7663E-03     107.730E-03    -52.9640E-03     114.646E-03    -56.1419E-03     109.296E-03    -52.9216E-03     113.509E-03
            1569     12.8033E-03     49.6908E-03    -20.5931E+06     47.4041E+06     8.98929E+06     124.541E+03    -54.6060E-03     107.558E-03    -52.9520E-03     105.527E-03    -55.6287E-03     108.650E-03    -52.9459E-03     104.458E-03
            1570     11.9500E-03     49.5906E-03    -22.4670E+06    -9.52515E+06     5.52886E+06    -159.825E+03    -54.5185E-03     107.561E-03    -53.0423E-03     96.2174E-03    -55.2269E-03     108.140E-03    -52.9683E-03     95.2787E-03
            1571     11.0962E-03     49.4990E-03    -24.7268E+06    -42.7984E+06     2.31689E+06     24.1755E+03    -54.5250E-03     107.619E-03    -53.0939E-03     89.7346E-03    -55.0343E-03     107.882E-03    -52.9844E-03     88.9232E-03
            1572     10.2426E-03     49.4116E-03    -26.8871E+06    -66.4531E+06     1.28200E+06    -7.34264E+03    -54.4708E-03     107.608E-03    -53.1377E-03     84.9598E-03    -54.8460E-03     107.649E-03    -52.9960E-03     84.2607E-03
            1573     9.38887E-03     49.3292E-03    -29.2831E+06    -83.5550E+06    -88.8463E+03    -11.4297E+03    -54.3851E-03     107.555E-03    -53.1694E-03     80.0401E-03    -54.6642E-03     107.433E-03    -53.0063E-03     79.4412E-03
            1574     8.53534E-03     49.2515E-03    -32.0896E+06    -98.6161E+06    -1.87824E+06    -12.0621E+03    -54.2823E-03     107.476E-03    -53.1941E-03     74.5313E-03    -54.4870E-03     107.223E-03    -53.0139E-03     74.0237E-03
            1575     7.68164E-03     49.1799E-03    -35.3472E+06    -110.986E+06    -3.88802E+06    -30.8998E+03    -54.1118E-03     107.324E-03    -53.2126E-03     68.5301E-03    -54.2618E-03     106.966E-03    -53.0198E-03     68.1048E-03
            1576     6.82819E-03     49.1143E-03    -39.0596E+06    -122.349E+06    -7.71331E+06     69.2511E+03    -53.9304E-03     107.152E-03    -53.2220E-03     62.2154E-03    -54.0382E-03     106.710E-03    -53.0265E-03     61.8650E-03
            1577     5.97454E-03     49.0553E-03    -43.1986E+06    -131.905E+06    -14.0370E+06     18.6453E+03    -53.7550E-03     106.973E-03    -53.2180E-03     55.4977E-03    -53.8306E-03     106.468E-03    -53.0343E-03     55.2114E-03
            1578     5.12106E-03     49.0030E-03    -47.3001E+06    -138.170E+06    -23.0605E+06    -60.0197E+03    -53.5904E-03     106.787E-03    -53.1962E-03     48.3849E-03    -53.6416E-03     106.246E-03    -53.0426E-03     48.1544E-03
            1579     4.26746E-03     48.9582E-03    -51.3530E+06    -145.897E+06    -32.0443E+06    -83.3911E+03    -53.4407E-03     106.618E-03    -53.1774E-03     40.9487E-03    -53.4709E-03     106.041E-03    -53.0516E-03     40.7679E-03
            1580     3.41397E-03     48.9209E-03    -55.1677E+06    -157.092E+06    -39.7018E+06    -3.98610E+03    -53.3243E-03     106.495E-03    -53.1703E-03     33.2429E-03    -53.3339E-03     105.866E-03    -53.0611E-03     33.1069E-03
            1581     2.56043E-03     48.8915E-03    -58.7746E+06    -167.188E+06    -48.0496E+06     47.6947E+03    -53.2342E-03     106.391E-03    -53.1572E-03     25.2804E-03    -53.2263E-03     105.721E-03    -53.0698E-03     25.1834E-03
            1582     1.70695E-03     48.8702E-03    -61.9757E+06    -172.760E+06    -56.2632E+06     45.9298E+03    -53.1766E-03     106.310E-03    -53.1333E-03     17.1991E-03    -53.1591E-03     105.622E-03    -53.0743E-03     17.1363E-03
            1583     853.483E-06     48.8570E-03    -64.3545E+06    -172.362E+06    -62.4883E+06    -41.4843E+03    -53.1247E-03     106.226E-03    -53.1009E-03     9.31007E-03    -53.1073E-03     105.549E-03    -53.0701E-03     9.27596E-03
            1584     16.2229E-03     49.0754E-03    -4.50116E+06     124.325E+06     86.9948E+06    -395.568E+03    -53.5009E-03     106.583E-03    -53.0825E-03     77.6587E-03    -54.6399E-03     107.895E-03    -52.8212E-03     77.0016E-03
            1585     15.3655E-03     48.9708E-03    -9.54921E+06     121.653E+06     80.7126E+06     231.426E+03    -53.4794E-03     106.566E-03    -53.0865E-03     105.113E-03    -55.0380E-03     108.288E-03    -52.8455E-03     104.202E-03
            1586     14.5127E-03     48.8655E-03    -15.3607E+06     112.570E+06     61.9443E+06     586.037E+03    -54.2228E-03     107.278E-03    -53.0551E-03     112.003E-03    -55.7391E-03     108.960E-03    -52.8863E-03     110.944E-03
            1587     13.6569E-03     48.7476E-03    -18.0907E+06     98.3651E+06     32.2906E+06     7.67870E+03    -54.7604E-03     107.722E-03    -52.9612E-03     114.836E-03    -56.1370E-03     109.289E-03    -52.9162E-03     113.692E-03
            1588     12.8045E-03     48.6367E-03    -19.9914E+06     47.4508E+06     9.13403E+06     31.5209E+03    -54.5783E-03     107.526E-03    -52.9479E-03     105.706E-03    -55.5976E-03     108.617E-03    -52.9421E-03     104.637E-03
            1589     11.9499E-03     48.5372E-03    -22.3491E+06    -9.46066E+06     5.46182E+06     292.418E+03    -54.5481E-03     107.586E-03    -53.0383E-03     96.3889E-03    -55.2564E-03     108.166E-03    -52.9649E-03     95.4558E-03
            1590     11.0962E-03     48.4445E-03    -24.5725E+06    -42.5418E+06     2.20781E+06     44.1418E+03    -54.5581E-03     107.645E-03    -53.0871E-03     89.7682E-03    -55.0667E-03     107.909E-03    -52.9787E-03     88.9570E-03
            1591     10.2426E-03     48.3580E-03    -26.7331E+06    -66.5107E+06     1.26976E+06    -65.2943E+03    -54.5277E-03     107.655E-03    -53.1277E-03     84.9458E-03    -54.9022E-03     107.695E-03    -52.9862E-03     84.2451E-03
            1592     9.38903E-03     48.2750E-03    -29.2606E+06    -83.2964E+06    -74.6408E+03     21.2518E+03    -54.4280E-03     107.582E-03    -53.1539E-03     80.0349E-03    -54.7073E-03     107.462E-03    -52.9910E-03     79.4364E-03
            1593     8.53541E-03     48.1977E-03    -32.1254E+06    -98.6820E+06    -2.13703E+06    -52.4638E+03    -54.2748E-03     107.449E-03    -53.1744E-03     74.4640E-03    -54.4789E-03     107.195E-03    -52.9954E-03     73.9565E-03
            1594     7.68193E-03     48.1259E-03    -35.3609E+06    -111.196E+06    -4.05849E+06    -45.9780E+03    -54.0974E-03     107.290E-03    -53.1924E-03     68.4552E-03    -54.2467E-03     106.931E-03    -53.0002E-03     68.0302E-03
            1595     6.82823E-03     48.0605E-03    -39.0413E+06    -122.409E+06    -7.75447E+06     92.5883E+03    -53.9286E-03     107.129E-03    -53.2004E-03     62.1288E-03    -54.0360E-03     106.686E-03    -53.0051E-03     61.7788E-03
            1596     5.97475E-03     48.0013E-03    -43.0368E+06    -131.671E+06    -13.8679E+06     67.4201E+03    -53.7543E-03     106.948E-03    -53.1936E-03     55.4185E-03    -53.8296E-03     106.443E-03    -53.0096E-03     55.1329E-03
            1597     5.12114E-03     47.9493E-03    -47.2323E+06    -138.157E+06    -22.8405E+06    -4.42541E+03    -53.5696E-03     106.740E-03    -53.1700E-03     48.3171E-03    -53.6207E-03     106.199E-03    -53.0154E-03     48.0876E-03
            1598     4.26762E-03     47.9043E-03    -51.2108E+06    -145.869E+06    -31.8195E+06    -6.58988E+03    -53.4142E-03     106.564E-03    -53.1502E-03     40.9101E-03    -53.4440E-03     105.987E-03    -53.0235E-03     40.7304E-03
            1599     3.41405E-03     47.8671E-03    -55.1192E+06    -157.125E+06    -39.8283E+06    -63.9761E+03    -53.2967E-03     106.438E-03    -53.1412E-03     33.2145E-03    -53.3057E-03     105.809E-03    -53.0326E-03     33.0779E-03
            1600     2.56052E-03     47.8377E-03    -58.8057E+06    -167.214E+06    -48.1702E+06    -36.3312E+03    -53.2128E-03     106.339E-03    -53.1266E-03     25.2527E-03    -53.2049E-03     105.669E-03    -53.0398E-03     25.1548E-03
            1601     1.70699E-03     47.8164E-03    -61.9307E+06    -172.689E+06    -56.3057E+06     17.6149E+03    -53.1426E-03     106.245E-03    -53.1022E-03     17.1604E-03    -53.1248E-03     105.557E-03    -53.0435E-03     17.0973E-03
            1602     853.512E-06     47.8031E-03    -64.1842E+06    -172.313E+06    -62.4024E+06    -6.07485E+03    -53.0942E-03     106.166E-03    -53.0721E-03     9.31184E-03    -53.0762E-03     105.490E-03    -53.0412E-03     9.27832E-03
            1603     16.2181E-03     48.0210E-03    -5.13494E+06     123.599E+06     86.0716E+06    -60.0097E+03    -52.9925E-03     106.093E-03    -53.1004E-03     78.2687E-03    -54.1330E-03     107.404E-03    -52.8419E-03     77.6197E-03
            1604     15.3668E-03     47.9176E-03    -10.1575E+06     121.195E+06     80.8361E+06     439.300E+03    -54.0172E-03     107.128E-03    -53.1104E-03     105.746E-03    -55.5863E-03     108.856E-03    -52.8672E-03     104.824E-03
            1605     14.5107E-03     47.8118E-03    -13.4835E+06     113.825E+06     63.5783E+06     50.5513E+03    -54.4231E-03     107.484E-03    -53.0611E-03     111.997E-03    -55.9355E-03     109.168E-03    -52.8887E-03     110.927E-03
            1606     13.6587E-03     47.6932E-03    -17.6238E+06     97.7440E+06     31.3833E+06     39.9326E+03    -54.6010E-03     107.559E-03    -52.9583E-03     114.580E-03    -55.9680E-03     109.120E-03    -52.9176E-03     113.442E-03
            1607     12.8032E-03     47.5835E-03    -21.1063E+06     47.0476E+06     8.03331E+06     305.390E+03    -54.6619E-03     107.610E-03    -52.9482E-03     105.804E-03    -55.6869E-03     108.704E-03    -52.9456E-03     104.735E-03
            1608     11.9500E-03     47.4826E-03    -22.9080E+06    -9.04653E+06     5.24260E+06     116.457E+03    -54.6674E-03     107.701E-03    -53.0337E-03     96.3665E-03    -55.3796E-03     108.285E-03    -52.9612E-03     95.4283E-03
            1609     11.0964E-03     47.3911E-03    -24.6445E+06    -42.4054E+06     2.20544E+06    -21.7864E+03    -54.5813E-03     107.659E-03    -53.0773E-03     89.6688E-03    -55.0902E-03     107.923E-03    -52.9690E-03     88.8562E-03
            1610     10.2427E-03     47.3034E-03    -26.9323E+06    -66.5556E+06     1.01533E+06     3.61391E+03    -54.5653E-03     107.679E-03    -53.1134E-03     84.8676E-03    -54.9401E-03     107.719E-03    -52.9727E-03     84.1676E-03
            1611     9.38926E-03     47.2213E-03    -29.4123E+06    -83.3368E+06    -259.322E+03    -42.7583E+03    -54.4636E-03     107.598E-03    -53.1348E-03     79.9152E-03    -54.7430E-03     107.478E-03    -52.9726E-03     79.3157E-03
            1612     8.53567E-03     47.1435E-03    -32.1627E+06    -98.5670E+06    -2.11322E+06    -49.7898E+03    -54.2799E-03     107.432E-03    -53.1517E-03     74.3902E-03    -54.4841E-03     107.178E-03    -52.9727E-03     73.8831E-03
            1613     7.68200E-03     47.0722E-03    -35.4207E+06    -111.211E+06    -4.09384E+06    -12.6834E+03    -54.1011E-03     107.267E-03    -53.1663E-03     68.3752E-03    -54.2504E-03     106.908E-03    -52.9741E-03     67.9509E-03
            1614     6.82852E-03     47.0064E-03    -39.1044E+06    -122.445E+06    -7.79217E+06        -961.660    -53.9177E-03     107.089E-03    -53.1712E-03     62.0480E-03    -54.0252E-03     106.645E-03    -52.9759E-03     61.6971E-03
            1615     5.97491E-03     46.9476E-03    -43.0736E+06    -131.627E+06    -13.7718E+06     64.2233E+03    -53.7214E-03     106.885E-03    -53.1635E-03     55.3489E-03    -53.7969E-03     106.380E-03    -52.9790E-03     55.0636E-03
            1616     5.12135E-03     46.8954E-03    -47.1533E+06    -138.067E+06    -22.6744E+06     28.5165E+03    -53.5416E-03     106.681E-03    -53.1397E-03     48.2807E-03    -53.5926E-03     106.141E-03    -52.9845E-03     48.0520E-03
            1617     4.26774E-03     46.8506E-03    -51.1730E+06    -145.892E+06    -31.6886E+06     2.53152E+03    -53.3896E-03     106.508E-03    -53.1188E-03     40.8746E-03    -53.4193E-03     105.930E-03    -52.9915E-03     40.6954E-03
            1618     3.41415E-03     46.8133E-03    -55.0674E+06    -157.016E+06    -39.7713E+06     43.6219E+03    -53.2743E-03     106.381E-03    -53.1068E-03     33.1671E-03    -53.2833E-03     105.753E-03    -52.9982E-03     33.0320E-03
            1619     2.56061E-03     46.7840E-03    -58.8309E+06    -167.233E+06    -48.2857E+06    -25.4415E+03    -53.1867E-03     106.275E-03    -53.0880E-03     25.2163E-03    -53.1787E-03     105.604E-03    -53.0016E-03     25.1186E-03
            1620     1.70711E-03     46.7626E-03    -62.0244E+06    -172.688E+06    -56.3701E+06    -30.7083E+03    -53.1027E-03     106.164E-03    -53.0614E-03     17.1171E-03    -53.0853E-03     105.477E-03    -53.0029E-03     17.0535E-03
            1621     853.497E-06     46.7496E-03    -64.2919E+06    -172.249E+06    -62.5760E+06     33.5295E+03    -53.0506E-03     106.083E-03    -53.0325E-03     9.31386E-03    -53.0330E-03     105.407E-03    -53.0024E-03     9.28081E-03
            1622     16.2202E-03     46.9680E-03    -4.51133E+06     123.899E+06     86.2912E+06     171.132E+03    -53.1754E-03     106.297E-03    -53.1213E-03     77.9068E-03    -54.3178E-03     107.613E-03    -52.8629E-03     77.2511E-03
            1623     15.3639E-03     46.8618E-03    -9.23028E+06     122.043E+06     81.0818E+06    -921.383E+03    -54.3232E-03     107.438E-03    -53.1149E-03     104.464E-03    -55.8897E-03     109.170E-03    -52.8731E-03     103.510E-03
            1624     14.5135E-03     46.7575E-03    -13.8352E+06     112.946E+06     62.6234E+06    -258.121E+03    -54.3140E-03     107.370E-03    -53.0558E-03     111.340E-03    -55.8217E-03     109.048E-03    -52.8864E-03     110.268E-03
            1625     13.6569E-03     46.6404E-03    -17.9301E+06     97.0786E+06     31.1213E+06     992.194E+03    -54.5951E-03     107.554E-03    -52.9592E-03     114.949E-03    -55.9646E-03     109.115E-03    -52.9183E-03     113.822E-03
            1626     12.8042E-03     46.5287E-03    -20.3557E+06     47.8797E+06     9.03972E+06     503.331E+03    -54.8047E-03     107.752E-03    -52.9477E-03     105.771E-03    -55.8297E-03     108.849E-03    -52.9424E-03     104.701E-03
            1627     11.9502E-03     46.4290E-03    -22.3165E+06    -8.89308E+06     5.75028E+06    -102.285E+03    -54.7259E-03     107.750E-03    -53.0243E-03     96.1660E-03    -55.4354E-03     108.332E-03    -52.9503E-03     95.2240E-03
            1628     11.0965E-03     46.3367E-03    -24.5289E+06    -42.5635E+06     2.33872E+06     51.1816E+03    -54.6473E-03     107.708E-03    -53.0610E-03     89.5981E-03    -55.1556E-03     107.972E-03    -52.9520E-03     88.7855E-03
            1629     10.2430E-03     46.2498E-03    -26.7425E+06    -66.3487E+06     1.26057E+06     31.6981E+03    -54.5808E-03     107.673E-03    -53.0920E-03     84.7550E-03    -54.9548E-03     107.713E-03    -52.9507E-03     84.0558E-03
            1630     9.38938E-03     46.1669E-03    -29.2074E+06    -83.4402E+06    -71.0560E+03    -96.3752E+03    -54.4568E-03     107.568E-03    -53.1108E-03     79.7870E-03    -54.7348E-03     107.446E-03    -52.9478E-03     79.1874E-03
            1631     8.53586E-03     46.0899E-03    -32.0727E+06    -98.4725E+06    -1.86196E+06     10.0827E+03    -54.2934E-03     107.418E-03    -53.1245E-03     74.2488E-03    -54.4975E-03     107.164E-03    -52.9445E-03     73.7425E-03
            1632     7.68236E-03     46.0180E-03    -35.3176E+06    -111.124E+06    -3.98227E+06    -22.8510E+03    -54.0879E-03     107.223E-03    -53.1349E-03     68.3035E-03    -54.2368E-03     106.863E-03    -52.9424E-03     67.8797E-03
            1633     6.82873E-03     45.9528E-03    -39.0153E+06    -122.528E+06    -7.73784E+06         564.395    -53.8902E-03     107.028E-03    -53.1381E-03     61.9863E-03    -53.9970E-03     106.584E-03    -52.9426E-03     61.6359E-03
            1634     5.97512E-03     45.8937E-03    -43.1196E+06    -131.601E+06    -13.9139E+06     38.7941E+03    -53.6906E-03     106.819E-03    -53.1286E-03     55.2887E-03    -53.7660E-03     106.315E-03    -52.9449E-03     55.0037E-03
            1635     5.12147E-03     45.8417E-03    -47.2788E+06    -138.033E+06    -22.9349E+06     65.4732E+03    -53.5181E-03     106.621E-03    -53.1028E-03     48.2117E-03    -53.5693E-03     106.081E-03    -52.9488E-03     47.9838E-03
            1636     4.26789E-03     45.7968E-03    -51.3161E+06    -145.805E+06    -31.9837E+06     59.7114E+03    -53.3716E-03     106.450E-03    -53.0782E-03     40.7949E-03    -53.4017E-03     105.873E-03    -52.9523E-03     40.6166E-03
            1637     3.41433E-03     45.7597E-03    -55.1997E+06    -156.990E+06    -39.7695E+06     16.3694E+03    -53.2427E-03     106.306E-03    -53.0637E-03     33.1070E-03    -53.2523E-03     105.678E-03    -52.9549E-03     32.9718E-03
            1638     2.56074E-03     45.7302E-03    -58.8198E+06    -167.135E+06    -48.2201E+06     47.2941E+03    -53.1369E-03     106.181E-03    -53.0440E-03     25.1715E-03    -53.1290E-03     105.511E-03    -52.9575E-03     25.0751E-03
            1639     1.70712E-03     45.7091E-03    -62.0707E+06    -172.684E+06    -56.4421E+06     21.1815E+03    -53.0694E-03     106.084E-03    -53.0144E-03     17.0891E-03    -53.0522E-03     105.397E-03    -52.9562E-03     17.0262E-03
            1640     853.632E-06     45.6959E-03    -64.5149E+06    -172.230E+06    -62.6267E+06     64.2357E+03    -53.0098E-03     105.981E-03    -52.9717E-03     9.27873E-03    -52.9932E-03     105.306E-03    -52.9416E-03     9.24623E-03
            1641     16.2186E-03     45.9128E-03    -4.12664E+06     124.703E+06     87.1649E+06    -318.456E+03    -53.4848E-03     106.577E-03    -53.0917E-03     77.4783E-03    -54.6244E-03     107.891E-03    -52.8307E-03     76.8145E-03
            1642     15.3685E-03     45.8073E-03    -9.00207E+06     122.001E+06     80.7358E+06     52.9667E+03    -53.5719E-03     106.663E-03    -53.0912E-03     104.154E-03    -55.1208E-03     108.379E-03    -52.8513E-03     103.237E-03
            1643     14.5103E-03     45.7049E-03    -15.3705E+06     111.750E+06     61.2389E+06     323.194E+03    -54.0852E-03     107.144E-03    -53.0590E-03     111.805E-03    -55.5936E-03     108.817E-03    -52.8926E-03     110.748E-03
            1644     13.6583E-03     45.5857E-03    -18.5183E+06     97.5939E+06     31.8815E+06    -172.345E+03    -54.9453E-03     107.912E-03    -52.9662E-03     115.105E-03    -56.3243E-03     109.479E-03    -52.9214E-03     113.953E-03
            1645     12.8037E-03     45.4748E-03    -19.9424E+06     47.9027E+06     9.56282E+06     121.198E+03    -54.8949E-03     107.834E-03    -52.9386E-03     105.755E-03    -55.9168E-03     108.927E-03    -52.9314E-03     104.680E-03
            1646     11.9503E-03     45.3748E-03    -22.0441E+06    -9.00848E+06     5.88573E+06     427.684E+03    -54.7836E-03     107.791E-03    -53.0077E-03     96.0910E-03    -55.4919E-03     108.372E-03    -52.9332E-03     95.1547E-03
            1647     11.0969E-03     45.2827E-03    -24.3187E+06    -42.0953E+06     2.64940E+06     158.876E+03    -54.7061E-03     107.745E-03    -53.0384E-03     89.4858E-03    -55.2143E-03     108.009E-03    -52.9289E-03     88.6741E-03
            1648     10.2433E-03     45.1956E-03    -26.5626E+06    -66.2014E+06     1.46435E+06     44.1868E+03    -54.6006E-03     107.664E-03    -53.0637E-03     84.6059E-03    -54.9738E-03     107.704E-03    -52.9219E-03     83.9069E-03
            1649     9.38977E-03     45.1132E-03    -29.2079E+06    -83.3951E+06    -154.829E+03     60.7105E+03    -54.4435E-03     107.522E-03    -53.0781E-03     79.6745E-03    -54.7210E-03     107.400E-03    -52.9156E-03     79.0777E-03
            1650     8.53621E-03     45.0357E-03    -32.0626E+06    -98.6818E+06    -2.03890E+06    -47.5186E+03    -54.2644E-03     107.355E-03    -53.0903E-03     74.1414E-03    -54.4675E-03     107.100E-03    -52.9109E-03     73.6351E-03
            1651     7.68257E-03     44.9645E-03    -35.3299E+06    -111.084E+06    -4.03102E+06     65.3241E+03    -54.0634E-03     107.163E-03    -53.0999E-03     68.2373E-03    -54.2121E-03     106.804E-03    -52.9077E-03     67.8151E-03
            1652     6.82894E-03     44.8988E-03    -39.0727E+06    -122.517E+06    -7.99559E+06     17.9807E+03    -53.8702E-03     106.970E-03    -53.1003E-03     61.9030E-03    -53.9766E-03     106.526E-03    -52.9059E-03     61.5535E-03
            1653     5.97536E-03     44.8401E-03    -43.1104E+06    -131.577E+06    -14.0368E+06     44.1852E+03    -53.6867E-03     106.774E-03    -53.0873E-03     55.1782E-03    -53.7617E-03     106.270E-03    -52.9042E-03     54.8936E-03
            1654     5.12174E-03     44.7879E-03    -47.2377E+06    -138.032E+06    -22.8141E+06     95.5696E+03    -53.4970E-03     106.555E-03    -53.0576E-03     48.1102E-03    -53.5481E-03     106.014E-03    -52.9030E-03     47.8831E-03
            1655     4.26814E-03     44.7433E-03    -51.1724E+06    -145.715E+06    -31.7286E+06     97.9575E+03    -53.3301E-03     106.360E-03    -53.0302E-03     40.7202E-03    -53.3598E-03     105.783E-03    -52.9033E-03     40.5429E-03
            1656     3.41448E-03     44.7060E-03    -55.0663E+06    -156.906E+06    -39.8542E+06     73.0236E+03    -53.1947E-03     106.208E-03    -53.0129E-03     33.0414E-03    -53.2036E-03     105.580E-03    -52.9048E-03     32.9074E-03
            1657     2.56085E-03     44.6768E-03    -58.8877E+06    -167.131E+06    -48.2728E+06     68.1060E+03    -53.0863E-03     106.080E-03    -52.9932E-03     25.1202E-03    -53.0787E-03     105.410E-03    -52.9069E-03     25.0243E-03
            1658     1.70726E-03     44.6554E-03    -62.0888E+06     -172.62E+06    -56.4148E+06     119.274E+03    -53.0088E-03     105.976E-03    -52.9668E-03     17.0748E-03    -52.9918E-03     105.289E-03    -52.9085E-03     17.0135E-03
            1659     853.617E-06     44.6424E-03    -64.3903E+06    -172.120E+06    -62.5665E+06     8.77603E+03    -52.9625E-03     105.893E-03    -52.9302E-03     9.25924E-03    -52.9456E-03     105.218E-03    -52.9001E-03     9.22615E-03
            1660     16.2232E-03     44.8565E-03    -4.60872E+06     123.680E+06     86.2831E+06    -70.5369E+03    -52.8249E-03     105.909E-03    -53.0843E-03     78.4874E-03    -53.9580E-03     107.215E-03    -52.8255E-03     77.8456E-03
            1661     15.3641E-03     44.7570E-03    -9.86521E+06     121.241E+06     80.6225E+06     727.315E+03    -53.4980E-03     106.609E-03    -53.1109E-03     105.389E-03    -55.0500E-03     108.322E-03    -52.8693E-03     104.488E-03
            1662     14.5122E-03     44.6494E-03    -14.1452E+06     113.571E+06     63.3228E+06     226.864E+03    -54.6114E-03     107.684E-03    -53.0723E-03     111.985E-03    -56.1249E-03     109.367E-03    -52.8999E-03     110.914E-03
            1663     13.6574E-03     44.5319E-03    -18.1251E+06     97.6728E+06     31.3593E+06    -494.714E+03    -55.0717E-03     108.021E-03    -52.9498E-03     114.611E-03    -56.4476E-03     109.589E-03    -52.9083E-03     113.452E-03
            1664     12.8043E-03     44.4205E-03    -21.4454E+06     47.0831E+06     7.81864E+06    -176.410E+03    -54.9458E-03     107.858E-03    -52.9118E-03     105.442E-03    -55.9713E-03     108.951E-03    -52.9099E-03     104.362E-03
            1665     11.9507E-03     44.3207E-03    -22.8648E+06    -9.01772E+06     5.46921E+06    -12.2768E+03    -54.8119E-03     107.791E-03    -52.9796E-03     95.8382E-03    -55.5236E-03     108.374E-03    -52.9060E-03     94.8950E-03
            1666     11.0971E-03     44.2285E-03    -24.3581E+06    -41.9337E+06     2.60857E+06     100.636E+03    -54.7060E-03     107.713E-03    -53.0066E-03     89.2848E-03    -55.2141E-03     107.978E-03    -52.8974E-03     88.4722E-03
            1667     10.2436E-03     44.1417E-03    -26.6024E+06    -66.1501E+06     1.34344E+06     142.638E+03    -54.5817E-03     107.611E-03    -53.0292E-03     84.4525E-03    -54.9545E-03     107.651E-03    -52.8880E-03     83.7552E-03
            1668     9.39012E-03     44.0592E-03    -29.0179E+06    -83.1469E+06    -32.7543E+03     152.370E+03    -54.4104E-03     107.454E-03    -53.0431E-03     79.5956E-03    -54.6870E-03     107.332E-03    -52.8806E-03     79.0010E-03
            1669     8.53644E-03     43.9822E-03    -31.9423E+06    -98.6653E+06    -2.08613E+06     90.9130E+03    -54.2403E-03     107.294E-03    -53.0540E-03     74.1009E-03    -54.4422E-03     107.039E-03    -52.8750E-03     73.5974E-03
            1670     7.68287E-03     43.9105E-03    -35.2417E+06    -111.222E+06    -4.04141E+06     58.5408E+03    -54.0647E-03     107.126E-03    -53.0610E-03     68.1110E-03    -54.2124E-03     106.765E-03    -52.8688E-03     67.6892E-03
            1671     6.82929E-03     43.8453E-03    -38.9605E+06    -122.318E+06    -7.85052E+06     157.312E+03    -53.8632E-03     106.920E-03    -53.0566E-03     61.7890E-03    -53.9693E-03     106.476E-03    -52.8620E-03     61.4419E-03
            1672     5.97564E-03     43.7863E-03    -43.1134E+06    -131.623E+06    -14.0641E+06     92.9916E+03    -53.6649E-03     106.704E-03    -53.0387E-03     55.0842E-03    -53.7397E-03     106.199E-03    -52.8557E-03     54.8009E-03
            1673     5.12205E-03     43.7345E-03    -47.2687E+06    -137.938E+06    -22.8129E+06     93.5012E+03    -53.4640E-03     106.469E-03    -53.0051E-03     48.0345E-03    -53.5152E-03     105.929E-03    -52.8506E-03     47.8080E-03
            1674     4.26832E-03     43.6897E-03    -51.3033E+06    -145.739E+06    -31.8485E+06     113.306E+03    -53.2826E-03     106.257E-03    -52.9746E-03     40.6586E-03    -53.3127E-03     105.680E-03    -52.8482E-03     40.4822E-03
            1675     3.41469E-03     43.6526E-03    -55.1683E+06    -156.862E+06    -39.8512E+06     166.547E+03    -53.1437E-03     106.100E-03    -52.9559E-03     32.9611E-03    -53.1531E-03     105.472E-03    -52.8477E-03     32.8287E-03
            1676     2.56102E-03     43.6233E-03    -58.8745E+06    -167.036E+06    -48.2630E+06     148.373E+03    -53.0304E-03     105.965E-03    -52.9344E-03     25.0553E-03    -53.0228E-03     105.295E-03    -52.8481E-03     24.9608E-03
            1677     1.70732E-03     43.6021E-03    -62.1126E+06    -172.530E+06    -56.3752E+06     79.2337E+03    -52.9345E-03     105.847E-03    -52.9122E-03     17.0267E-03    -52.9177E-03     105.160E-03    -52.8539E-03     16.9651E-03
            1678     853.616E-06     43.5890E-03    -64.3994E+06    -171.910E+06    -62.6616E+06     67.3551E+03    -52.9117E-03     105.792E-03    -52.8801E-03     9.27158E-03    -52.8950E-03     105.118E-03    -52.8508E-03     9.23932E-03
            1679     16.2167E-03     43.8083E-03    -4.84514E+06     123.224E+06     85.6630E+06     490.552E+03    -53.0590E-03     106.174E-03    -53.1154E-03     77.9747E-03    -54.1964E-03     107.484E-03    -52.8587E-03     77.3258E-03
            1680     15.3656E-03     43.6992E-03    -9.78932E+06     121.667E+06     80.6770E+06    -367.466E+03    -54.3412E-03     107.454E-03    -53.1124E-03     104.309E-03    -55.9043E-03     109.180E-03    -52.8713E-03     103.362E-03
            1681     14.5117E-03     43.5964E-03    -13.6640E+06     113.858E+06     63.3071E+06    -366.606E+03    -54.7959E-03     107.835E-03    -53.0393E-03     110.859E-03    -56.3104E-03     109.522E-03    -52.8681E-03     109.769E-03
            1682     13.6586E-03     43.4770E-03    -17.9955E+06     97.5015E+06     31.3935E+06     364.394E+03    -54.9750E-03     107.886E-03    -52.9110E-03     114.199E-03    -56.3482E-03     109.450E-03    -52.8693E-03     113.052E-03
            1683     12.8047E-03     43.3667E-03    -20.3500E+06     47.5773E+06     8.90578E+06    -134.824E+03    -54.8796E-03     107.757E-03    -52.8775E-03     105.191E-03    -55.9018E-03     108.850E-03    -52.8724E-03     104.110E-03
            1684     11.9512E-03     43.2664E-03    -22.3353E+06    -9.36240E+06     5.49405E+06    -468.106E+03    -54.7662E-03     107.709E-03    -52.9430E-03     95.8377E-03    -55.4737E-03     108.288E-03    -52.8695E-03     94.8903E-03
            1685     11.0977E-03     43.1747E-03    -24.4259E+06    -42.3437E+06     2.40149E+06     4.03917E+03    -54.6556E-03     107.626E-03    -52.9708E-03     89.2041E-03    -55.1620E-03     107.889E-03    -52.8620E-03     88.3919E-03
            1686     10.2441E-03     43.0876E-03    -26.4750E+06    -65.9711E+06     1.54871E+06     156.880E+03    -54.5320E-03     107.527E-03    -52.9954E-03     84.4194E-03    -54.9038E-03     107.567E-03    -52.8536E-03     83.7242E-03
            1687     9.39037E-03     43.0056E-03    -29.0768E+06    -83.1491E+06     31.8402E+03     186.387E+03    -54.4043E-03     107.412E-03    -53.0082E-03     79.5106E-03    -54.6806E-03     107.290E-03    -52.8453E-03     78.9172E-03
            1688     8.53681E-03     42.9282E-03    -31.9286E+06    -98.4909E+06    -1.94922E+06     178.593E+03    -54.2550E-03     107.270E-03    -53.0147E-03     74.0001E-03    -54.4569E-03     107.014E-03    -52.8353E-03     73.4985E-03
            1689     7.68324E-03     42.8570E-03    -35.2050E+06    -111.185E+06    -4.01629E+06     127.327E+03    -54.0696E-03     107.085E-03    -53.0154E-03     67.9942E-03    -54.2167E-03     106.724E-03    -52.8232E-03     67.5741E-03
            1690     6.82960E-03     42.7915E-03    -38.9519E+06    -122.387E+06    -7.71611E+06     181.384E+03    -53.8546E-03     106.860E-03    -53.0058E-03     61.6568E-03    -53.9604E-03     106.416E-03    -52.8105E-03     61.3108E-03
            1691     5.97600E-03     42.7329E-03    -42.9623E+06    -131.436E+06    -13.9441E+06     245.330E+03    -53.6246E-03     106.608E-03    -52.9830E-03     54.9556E-03    -53.6987E-03     106.103E-03    -52.7998E-03     54.6752E-03
            1692     5.12225E-03     42.6809E-03    -47.1611E+06    -137.912E+06    -23.0198E+06     161.251E+03    -53.4235E-03     106.368E-03    -52.9449E-03     47.9044E-03    -53.4736E-03     105.828E-03    -52.7916E-03     47.6795E-03
            1693     4.26865E-03     42.6363E-03    -51.1691E+06    -145.668E+06    -31.7480E+06     166.159E+03    -53.2413E-03     106.153E-03    -52.9117E-03     40.5345E-03    -53.2708E-03     105.576E-03    -52.7851E-03     40.3593E-03
            1694     3.41488E-03     42.5992E-03    -55.0800E+06    -156.885E+06    -39.6207E+06     176.168E+03    -53.0863E-03     105.976E-03    -52.8900E-03     32.8710E-03    -53.0954E-03     105.348E-03    -52.7808E-03     32.7392E-03
            1695     2.56119E-03     42.5700E-03    -58.7785E+06    -166.818E+06    -48.1095E+06     171.277E+03    -52.9680E-03     105.833E-03    -52.8650E-03     24.9668E-03    -52.9604E-03     105.164E-03    -52.7784E-03     24.8729E-03
            1696     1.70745E-03     42.5488E-03    -62.0017E+06    -172.378E+06    -56.3116E+06     104.683E+03    -52.8768E-03     105.713E-03    -52.8364E-03     16.9574E-03    -52.8597E-03     105.027E-03    -52.7781E-03     16.8964E-03
            1697     853.746E-06     42.5357E-03    -64.4833E+06    -171.791E+06    -62.5328E+06     141.368E+03    -52.8415E-03     105.631E-03    -52.7893E-03     9.28196E-03    -52.8255E-03     104.958E-03    -52.7593E-03     9.25077E-03
            1698     16.2212E-03     42.7497E-03    -4.43069E+06     124.143E+06     86.5438E+06     15.0428E+03    -53.9259E-03     107.013E-03    -53.0869E-03     76.0860E-03    -55.0633E-03     108.324E-03    -52.8278E-03     75.4175E-03
            1699     15.3674E-03     42.6467E-03    -8.54644E+06     122.464E+06     81.1017E+06    -244.748E+03    -54.1833E-03     107.241E-03    -53.0575E-03     103.901E-03    -55.7405E-03     108.967E-03    -52.8172E-03     102.959E-03
            1700     14.5132E-03     42.5414E-03    -13.9693E+06     112.985E+06     62.2425E+06     312.761E+03    -54.4822E-03     107.475E-03    -52.9930E-03     111.338E-03    -55.9920E-03     109.156E-03    -52.8254E-03     110.267E-03
            1701     13.6592E-03     42.4236E-03    -17.4891E+06     97.8536E+06     31.8839E+06     25.3176E+03    -54.9422E-03     107.822E-03    -52.8794E-03     114.684E-03    -56.3130E-03     109.385E-03    -52.8365E-03     113.535E-03
            1702     12.8052E-03     42.3126E-03    -19.6878E+06     47.8065E+06     9.13151E+06    -172.831E+03    -54.8521E-03     107.698E-03    -52.8463E-03     105.552E-03    -55.8699E-03     108.790E-03    -52.8415E-03     104.475E-03
            1703     11.9515E-03     42.2125E-03    -21.9891E+06    -9.52455E+06     5.56246E+06     101.432E+03    -54.7361E-03     107.649E-03    -52.9132E-03     95.9688E-03    -55.4400E-03     108.225E-03    -52.8397E-03     95.0318E-03
            1704     11.0979E-03     42.1206E-03    -24.4136E+06    -42.4869E+06     2.35735E+06     18.9848E+03    -54.6213E-03     107.563E-03    -52.9417E-03     89.2710E-03    -55.1260E-03     107.823E-03    -52.8329E-03     88.4617E-03
            1705     10.2442E-03     42.0340E-03    -26.6969E+06    -66.2200E+06     1.36959E+06     155.752E+03    -54.5689E-03     107.533E-03    -52.9636E-03     84.3945E-03    -54.9405E-03     107.570E-03    -52.8221E-03     83.7001E-03
            1706     9.39078E-03     41.9516E-03    -29.1621E+06    -82.9649E+06     61.0627E+03     231.832E+03    -54.4611E-03     107.430E-03    -52.9692E-03     79.3876E-03    -54.7377E-03     107.309E-03    -52.8063E-03     78.7952E-03
            1707     8.53722E-03     41.8746E-03    -32.0601E+06    -98.3167E+06    -2.01547E+06     213.731E+03    -54.2791E-03     107.246E-03    -52.9668E-03     73.8358E-03    -54.4812E-03     106.991E-03    -52.7878E-03     73.3353E-03
            1708     7.68359E-03     41.8031E-03    -35.3323E+06    -111.167E+06    -4.16453E+06     183.164E+03    -54.0626E-03     107.023E-03    -52.9604E-03     67.8254E-03    -54.2096E-03     106.662E-03    -52.7688E-03     67.4070E-03
            1709     6.83007E-03     41.7381E-03    -38.9828E+06    -122.375E+06    -8.06359E+06     176.830E+03    -53.8349E-03     106.779E-03    -52.9438E-03     61.4642E-03    -53.9399E-03     106.334E-03    -52.7502E-03     61.1191E-03
            1710     5.97635E-03     41.6793E-03    -42.9940E+06    -131.453E+06    -14.0867E+06     232.521E+03    -53.6008E-03     106.517E-03    -52.9157E-03     54.7809E-03    -53.6745E-03     106.012E-03    -52.7332E-03     54.5011E-03
            1711     5.12272E-03     41.6276E-03    -47.0427E+06    -137.700E+06    -22.8728E+06     294.605E+03    -53.3783E-03     106.251E-03    -52.8724E-03     47.7361E-03    -53.4281E-03     105.711E-03    -52.7189E-03     47.5137E-03
            1712     4.26891E-03     41.5830E-03    -51.0850E+06    -145.647E+06    -31.6593E+06     222.270E+03    -53.1773E-03     106.012E-03    -52.8351E-03     40.3749E-03    -53.2064E-03     105.435E-03    -52.7081E-03     40.2011E-03
            1713     3.41520E-03     41.5460E-03    -54.9880E+06    -156.760E+06    -39.5368E+06     199.515E+03    -53.0136E-03     105.824E-03    -52.8104E-03     32.7520E-03    -53.0225E-03     105.196E-03    -52.7011E-03     32.6211E-03
            1714     2.56139E-03     41.5168E-03    -58.6962E+06    -166.694E+06    -48.0709E+06     147.074E+03    -52.8985E-03     105.680E-03    -52.7816E-03     24.8842E-03    -52.8907E-03     105.012E-03    -52.6951E-03     24.7905E-03
            1715     1.70763E-03     41.4957E-03    -61.8996E+06    -172.164E+06    -56.1232E+06     150.224E+03    -52.8165E-03     105.559E-03    -52.7424E-03     16.8938E-03    -52.7995E-03     104.874E-03    -52.6836E-03     16.8336E-03
            1716     853.809E-06     41.4826E-03    -64.3164E+06    -171.647E+06    -62.3524E+06     69.8952E+03    -52.7276E-03     105.425E-03    -52.6974E-03     9.24570E-03    -52.7113E-03     104.752E-03    -52.6670E-03     9.21372E-03
            1717     16.2215E-03     41.6973E-03    -4.56433E+06     123.839E+06     86.3367E+06    -324.543E+03    -53.3662E-03     106.429E-03    -53.0632E-03     77.8989E-03    -54.5054E-03     107.742E-03    -52.8044E-03     77.2399E-03
            1718     15.3665E-03     41.5922E-03    -9.32201E+06     122.022E+06     81.1893E+06     691.793E+03    -54.0541E-03     107.113E-03    -53.0592E-03     105.818E-03    -55.6166E-03     108.840E-03    -52.8167E-03     104.898E-03
            1719     14.5127E-03     41.4879E-03    -14.1100E+06     113.177E+06     62.4426E+06     79.9281E+03    -54.6762E-03     107.672E-03    -52.9959E-03     112.216E-03    -56.1856E-03     109.352E-03    -52.8273E-03     111.143E-03
            1720     13.6586E-03     41.3692E-03    -17.4474E+06     97.8153E+06     31.1491E+06    -50.9605E+03    -55.0606E-03     107.931E-03    -52.8703E-03     114.917E-03    -56.4282E-03     109.494E-03    -52.8311E-03     113.768E-03
            1721     12.8053E-03     41.2585E-03    -20.4547E+06     47.9133E+06     8.50747E+06     304.228E+03    -54.9839E-03     107.815E-03    -52.8307E-03     105.603E-03    -56.0043E-03     108.908E-03    -52.8280E-03     104.531E-03
            1722     11.9518E-03     41.1585E-03    -22.7508E+06    -9.09047E+06     5.22697E+06     204.378E+03    -54.8024E-03     107.693E-03    -52.8904E-03     95.9024E-03    -55.5091E-03     108.271E-03    -52.8181E-03     94.9672E-03
            1723     11.0981E-03     41.0669E-03    -24.5734E+06    -42.4748E+06     2.20621E+06     81.8368E+03    -54.7025E-03     107.614E-03    -52.9117E-03     89.0955E-03    -55.2069E-03     107.874E-03    -52.8034E-03     88.2869E-03
            1724     10.2447E-03     40.9799E-03    -26.7915E+06    -66.4455E+06     1.10828E+06     110.545E+03    -54.6488E-03     107.572E-03    -52.9233E-03     84.1426E-03    -55.0194E-03     107.609E-03    -52.7825E-03     83.4471E-03
            1725     9.39118E-03     40.8979E-03    -29.2901E+06    -83.0174E+06    -72.2132E+03     190.776E+03    -54.5083E-03     107.427E-03    -52.9190E-03     79.1351E-03    -54.7844E-03     107.305E-03    -52.7565E-03     78.5425E-03
            1726     8.53768E-03     40.8208E-03    -32.0788E+06    -98.1539E+06    -2.00380E+06     264.524E+03    -54.2993E-03     107.207E-03    -52.9074E-03     73.5686E-03    -54.5010E-03     106.952E-03    -52.7286E-03     73.0694E-03
            1727     7.68421E-03     40.7496E-03    -35.3572E+06    -111.044E+06    -4.21821E+06     194.279E+03    -54.0423E-03     106.936E-03    -52.8932E-03     67.5977E-03    -54.1889E-03     106.575E-03    -52.7020E-03     67.1807E-03
            1728     6.83047E-03     40.6845E-03    -39.0130E+06    -122.399E+06    -8.12627E+06     172.676E+03    -53.8050E-03     106.676E-03    -52.8707E-03     61.2584E-03    -53.9095E-03     106.231E-03    -52.6773E-03     60.9143E-03
            1729     5.97689E-03     40.6260E-03    -42.9610E+06    -131.441E+06    -14.1803E+06     222.340E+03    -53.5717E-03     106.407E-03    -52.8351E-03     54.5707E-03    -53.6448E-03     105.902E-03    -52.6531E-03     54.2917E-03
            1730     5.12310E-03     40.5743E-03    -47.0422E+06    -137.676E+06    -22.8574E+06     287.148E+03    -53.3241E-03     106.109E-03    -52.7852E-03     47.5515E-03    -53.3736E-03     105.569E-03    -52.6317E-03     47.3300E-03
            1731     4.26938E-03     40.5299E-03    -50.9670E+06    -145.484E+06    -31.6167E+06     340.153E+03    -53.1044E-03     105.847E-03    -52.7422E-03     40.2052E-03    -53.1330E-03     105.269E-03    -52.6154E-03     40.0337E-03
            1732     3.41548E-03     40.4929E-03    -54.9226E+06    -156.587E+06    -39.4507E+06     244.747E+03    -52.9300E-03     105.643E-03    -52.7135E-03     32.6000E-03    -52.9388E-03     105.016E-03    -52.6040E-03     32.4705E-03
            1733     2.56165E-03     40.4639E-03    -58.6882E+06    -166.537E+06    -47.9259E+06     166.024E+03    -52.8017E-03     105.484E-03    -52.6822E-03     24.7821E-03    -52.7942E-03     104.816E-03    -52.5952E-03     24.6891E-03
            1734     1.70778E-03     40.4427E-03    -61.8597E+06    -171.998E+06    -56.0598E+06     8.93319E+03    -52.7116E-03     105.354E-03    -52.6429E-03     16.8402E-03    -52.6947E-03     104.670E-03    -52.5841E-03     16.7785E-03
            1735     853.978E-06     40.4298E-03    -64.0220E+06    -171.516E+06    -62.1616E+06    -92.3637E+03    -52.6322E-03     105.229E-03    -52.5971E-03     9.15900E-03    -52.6149E-03     104.556E-03    -52.5664E-03     9.12502E-03
            1736     16.2181E-03     40.6424E-03    -4.65210E+06     123.425E+06     85.8548E+06     59.1376E+03    -53.0548E-03     106.150E-03    -53.0954E-03     78.5117E-03    -54.1939E-03     107.462E-03    -52.8384E-03     77.8521E-03
            1737     15.3656E-03     40.5378E-03    -10.3815E+06     121.467E+06     80.4944E+06    -344.038E+03    -54.6004E-03     107.685E-03    -53.0850E-03     104.668E-03    -56.1646E-03     109.410E-03    -52.8436E-03     103.715E-03
            1738     14.5123E-03     40.4330E-03    -14.3637E+06     113.482E+06     62.9940E+06    -497.759E+03    -54.9026E-03     107.903E-03    -53.0005E-03     111.129E-03    -56.4138E-03     109.583E-03    -52.8293E-03     110.039E-03
            1739     13.6593E-03     40.3152E-03    -18.5591E+06     97.2244E+06     30.9567E+06     218.883E+03    -55.1514E-03     108.012E-03    -52.8609E-03     114.394E-03    -56.5232E-03     109.574E-03    -52.8201E-03     113.244E-03
            1740     12.8054E-03     40.2042E-03    -21.0647E+06     48.2199E+06     8.79194E+06     345.353E+03    -55.0517E-03     107.865E-03    -52.8136E-03     105.255E-03    -56.0757E-03     108.960E-03    -52.8090E-03     104.181E-03
            1741     11.9520E-03     40.1046E-03    -22.7356E+06    -8.75143E+06     5.43601E+06     24.0565E+03    -54.9557E-03     107.817E-03    -52.8610E-03     95.5448E-03    -55.6627E-03     108.396E-03    -52.7882E-03     94.6040E-03
            1742     11.0988E-03     40.0127E-03    -24.8076E+06    -42.5908E+06     2.09845E+06     52.4280E+03    -54.8304E-03     107.698E-03    -52.8673E-03     88.7831E-03    -55.3349E-03     107.957E-03    -52.7591E-03     87.9723E-03
            1743     10.2453E-03     39.9261E-03    -26.9836E+06    -66.2058E+06     1.13777E+06     104.188E+03    -54.6929E-03     107.560E-03    -52.8671E-03     83.8696E-03    -55.0637E-03     107.597E-03    -52.7263E-03     83.1745E-03
            1744     9.39184E-03     39.8440E-03    -29.4113E+06    -83.2969E+06    -261.797E+03     122.875E+03    -54.5124E-03     107.366E-03    -52.8540E-03     78.8622E-03    -54.7873E-03     107.242E-03    -52.6919E-03     78.2698E-03
            1745     8.53840E-03     39.7671E-03     -32.183E+06    -98.2250E+06    -1.98870E+06     194.451E+03    -54.2861E-03     107.122E-03    -52.8361E-03     73.3337E-03    -54.4874E-03     106.866E-03    -52.6570E-03     72.8349E-03
            1746     7.68471E-03     39.6961E-03    -35.3741E+06    -110.796E+06    -4.10489E+06     221.449E+03    -54.0414E-03     106.855E-03    -52.8135E-03     67.3411E-03    -54.1880E-03     106.494E-03    -52.6221E-03     66.9255E-03
            1747     6.83116E-03     39.6312E-03    -39.0587E+06    -122.398E+06    -7.96419E+06     140.967E+03    -53.7751E-03     106.558E-03    -52.7824E-03     60.9955E-03    -53.8795E-03     106.112E-03    -52.5881E-03     60.6522E-03
            1748     5.97739E-03     39.5727E-03    -43.0035E+06    -131.386E+06    -14.1337E+06     126.781E+03    -53.5101E-03     106.249E-03    -52.7389E-03     54.3128E-03    -53.5831E-03     105.744E-03    -52.5567E-03     54.0338E-03
            1749     5.12368E-03     39.5212E-03    -46.9655E+06    -137.824E+06    -22.8670E+06     237.966E+03    -53.2555E-03     105.938E-03    -52.6825E-03     47.3125E-03    -53.3041E-03     105.397E-03    -52.5289E-03     47.0914E-03
            1750     4.26977E-03     39.4769E-03    -50.9141E+06    -145.406E+06    -31.6998E+06     412.665E+03    -53.0245E-03     105.657E-03    -52.6321E-03     40.0081E-03    -53.0525E-03     105.080E-03    -52.5059E-03     39.8385E-03
            1751     3.41594E-03     39.4401E-03    -54.8604E+06    -156.186E+06    -39.4684E+06     400.763E+03    -52.8364E-03     105.433E-03    -52.5967E-03     32.4349E-03    -52.8453E-03     104.807E-03    -52.4880E-03     32.3080E-03
            1752     2.56196E-03     39.4111E-03    -58.6565E+06    -166.212E+06    -47.7053E+06     92.1026E+03    -52.6820E-03     105.245E-03    -52.5631E-03     24.6547E-03    -52.6750E-03     104.578E-03    -52.4756E-03     24.5613E-03
            1753     1.70798E-03     39.3901E-03    -61.7928E+06    -171.849E+06    -56.0096E+06    -158.156E+03    -52.5683E-03     105.099E-03    -52.5303E-03     16.7513E-03    -52.5513E-03     104.415E-03    -52.4716E-03     16.6878E-03
            1754     853.905E-06     39.3771E-03    -64.1187E+06    -171.782E+06    -62.2846E+06    -240.068E+03    -52.5573E-03     105.019E-03    -52.4616E-03     9.10457E-03    -52.5398E-03     104.345E-03    -52.4309E-03     9.06877E-03
            1755     16.2205E-03     39.5877E-03    -4.34594E+06     124.213E+06     86.7135E+06     170.425E+03    -53.7822E-03     106.854E-03    -53.0720E-03     77.0741E-03    -54.9152E-03     108.161E-03    -52.8123E-03     76.4085E-03
            1756     15.3669E-03     39.4824E-03    -9.33982E+06     122.021E+06     80.6318E+06    -609.448E+03    -54.2043E-03     107.248E-03    -53.0442E-03     103.487E-03    -55.7555E-03     108.966E-03    -52.8044E-03     102.538E-03
            1757     14.5136E-03     39.3792E-03    -14.7738E+06     112.699E+06     62.4820E+06    -63.0261E+03    -54.7443E-03     107.717E-03    -52.9725E-03     110.925E-03    -56.2528E-03     109.392E-03    -52.8021E-03     109.843E-03
            1758     13.6593E-03     39.2606E-03    -18.4556E+06     97.1962E+06      31.817E+06    -74.1500E+03    -55.2351E-03     108.073E-03    -52.8378E-03     114.324E-03    -56.6075E-03     109.633E-03    -52.7929E-03     113.167E-03
            1759     12.8060E-03     39.1503E-03    -20.5232E+06     48.1016E+06     9.07890E+06    -159.193E+03    -55.1632E-03     107.941E-03    -52.7782E-03     104.964E-03    -56.1826E-03     109.032E-03    -52.7728E-03     103.881E-03
            1760     11.9527E-03     39.0500E-03    -22.5162E+06    -8.71459E+06     5.58709E+06     257.494E+03    -55.0205E-03     107.836E-03    -52.8157E-03     95.3317E-03    -55.7247E-03     108.413E-03    -52.7424E-03     94.3942E-03
            1761     11.0993E-03     38.9589E-03    -24.7059E+06    -42.5393E+06     2.06664E+06     137.362E+03    -54.9096E-03     107.721E-03    -52.8114E-03     88.5578E-03    -55.4128E-03     107.979E-03    -52.7035E-03     87.7475E-03
            1762     10.2460E-03     38.8721E-03    -26.9633E+06    -66.1829E+06     1.21708E+06     172.384E+03    -54.7324E-03     107.534E-03    -52.8016E-03     83.6629E-03    -55.1020E-03     107.569E-03    -52.6604E-03     82.9698E-03
            1763     9.39259E-03     38.7903E-03    -29.5633E+06    -83.1008E+06    -263.113E+03     121.391E+03    -54.5189E-03     107.298E-03    -52.7793E-03     78.6530E-03    -54.7937E-03     107.174E-03    -52.6172E-03     78.0622E-03
            1764     8.53894E-03     38.7136E-03    -32.3633E+06    -98.3589E+06    -2.17703E+06     44.4872E+03    -54.3038E-03     107.055E-03    -52.7512E-03     73.0515E-03    -54.5046E-03     106.798E-03    -52.5726E-03     72.5520E-03
            1765     7.68554E-03     38.6426E-03    -35.5366E+06    -110.764E+06    -4.16795E+06     183.603E+03    -54.0365E-03     106.754E-03    -52.7176E-03     67.0119E-03    -54.1830E-03     106.393E-03    -52.5263E-03     66.5969E-03
            1766     6.83186E-03     38.5780E-03    -39.2094E+06    -122.167E+06    -8.03380E+06     151.166E+03    -53.7368E-03     106.412E-03    -52.6755E-03     60.6853E-03    -53.8415E-03     105.967E-03    -52.4817E-03     60.3435E-03
            1767     5.97814E-03     38.5197E-03    -43.2995E+06    -131.438E+06    -14.2872E+06     85.8394E+03    -53.4392E-03     106.063E-03    -52.6234E-03     54.0356E-03    -53.5128E-03     105.557E-03    -52.4415E-03     53.7575E-03
            1768     5.12425E-03     38.4683E-03    -47.4634E+06     -137.96E+06    -23.2582E+06     183.442E+03    -53.1680E-03     105.727E-03    -52.5587E-03     47.0362E-03    -53.2180E-03     105.186E-03    -52.4061E-03     46.8156E-03
            1769     4.27039E-03     38.4242E-03    -51.3965E+06    -145.569E+06    -32.0695E+06     427.488E+03    -52.9206E-03     105.422E-03    -52.5015E-03     39.7675E-03    -52.9500E-03     104.845E-03    -52.3763E-03     39.5991E-03
            1770     3.41634E-03     38.3875E-03    -55.1888E+06    -155.652E+06    -40.0383E+06     437.220E+03    -52.7126E-03     105.171E-03    -52.4586E-03     32.2435E-03    -52.7229E-03     104.549E-03    -52.3530E-03     32.1180E-03
            1771     2.56233E-03     38.3586E-03    -58.7564E+06    -165.596E+06    -48.3338E+06    -1.13131E+03    -52.5532E-03     104.973E-03    -52.4201E-03     24.5104E-03    -52.5466E-03     104.310E-03    -52.3365E-03     24.4165E-03
            1772     1.70822E-03     38.3377E-03    -61.8917E+06    -171.992E+06    -56.2622E+06    -223.055E+03    -52.4392E-03     104.823E-03    -52.3838E-03     16.6428E-03    -52.4221E-03     104.139E-03    -52.3260E-03     16.5789E-03
            1773     854.161E-06     38.3247E-03    -64.3671E+06    -172.056E+06    -62.5045E+06    -102.233E+03    -52.4037E-03     104.718E-03    -52.3140E-03     9.06371E-03    -52.3868E-03     104.043E-03    -52.2837E-03     9.03014E-03
            1774     16.2228E-03     38.5343E-03    -4.27802E+06     124.276E+06     86.8109E+06    -48.8076E+03    -53.8329E-03     106.882E-03    -53.0488E-03     78.2802E-03    -54.9717E-03     108.195E-03    -52.7887E-03     77.6134E-03
            1775     15.3675E-03     38.4292E-03    -8.90951E+06     121.980E+06     81.0108E+06     856.367E+03    -54.1518E-03     107.177E-03    -53.0256E-03     105.332E-03    -55.7054E-03     108.897E-03    -52.7845E-03     104.409E-03
            1776     14.5128E-03     38.3247E-03    -14.1709E+06     112.800E+06     62.3103E+06     163.524E+03    -54.9176E-03     107.867E-03    -52.9498E-03     111.414E-03    -56.4215E-03     109.541E-03    -52.7812E-03     110.332E-03
            1777     13.6600E-03     38.2063E-03    -17.8644E+06     97.6131E+06     31.7215E+06    -409.579E+03    -55.4503E-03     108.253E-03    -52.8023E-03     114.076E-03    -56.8172E-03     109.811E-03    -52.7593E-03     112.911E-03
            1778     12.8067E-03     38.0957E-03    -20.6217E+06     47.8063E+06     8.71249E+06    -11.5351E+03    -55.2461E-03     107.977E-03    -52.7305E-03     104.683E-03    -56.2621E-03     109.064E-03    -52.7264E-03     103.603E-03
            1779     11.9532E-03     37.9963E-03    -22.7466E+06    -8.70138E+06     5.32778E+06     296.063E+03    -55.0588E-03     107.819E-03    -52.7600E-03     95.1930E-03    -55.7618E-03     108.395E-03    -52.6877E-03     94.2575E-03
            1780     11.1000E-03     37.9044E-03    -24.7685E+06    -42.1679E+06     2.05376E+06     315.400E+03    -54.9485E-03     107.697E-03    -52.7483E-03     88.3126E-03    -55.4507E-03     107.955E-03    -52.6410E-03     87.5059E-03
            1781     10.2467E-03     37.8185E-03    -27.1482E+06    -66.3347E+06     915.809E+03     178.476E+03    -54.7993E-03     107.527E-03    -52.7272E-03     83.2973E-03    -55.1681E-03     107.561E-03    -52.5871E-03     82.6045E-03
            1782     9.39320E-03     37.7366E-03    -29.6224E+06    -82.9014E+06    -350.220E+03     112.716E+03    -54.5847E-03     107.276E-03    -52.6911E-03     78.2993E-03    -54.8588E-03     107.152E-03    -52.5297E-03     77.7091E-03
            1783     8.54003E-03     37.6601E-03    -32.4928E+06    -98.2956E+06    -2.36882E+06     66.4568E+03    -54.3237E-03     106.972E-03    -52.6484E-03     72.6525E-03    -54.5239E-03     106.715E-03    -52.4706E-03     72.1543E-03
            1784     7.68634E-03     37.5894E-03    -35.7732E+06    -110.829E+06    -4.34444E+06     97.2289E+03    -53.9968E-03     106.600E-03    -52.6034E-03     66.6548E-03    -54.1432E-03     106.239E-03    -52.4125E-03     66.2406E-03
            1785     6.83271E-03     37.5248E-03    -39.3918E+06    -122.024E+06    -8.22768E+06     130.021E+03    -53.6839E-03     106.235E-03    -52.5508E-03     60.3384E-03    -53.7887E-03     105.790E-03    -52.3579E-03     59.9980E-03
            1786     5.97891E-03     37.4669E-03    -43.4552E+06    -131.477E+06    -14.3590E+06     238.835E+03    -53.3715E-03     105.860E-03    -52.4889E-03     53.7004E-03    -53.4451E-03     105.355E-03    -52.3070E-03     53.4258E-03
            1787     5.12504E-03     37.4156E-03    -47.6752E+06    -137.887E+06    -23.1988E+06     260.866E+03    -53.0625E-03     105.478E-03    -52.4153E-03     46.7407E-03    -53.1133E-03     104.937E-03    -52.2623E-03     46.5226E-03
            1788     4.27100E-03     37.3717E-03    -51.7641E+06    -145.882E+06    -31.8765E+06     365.789E+03    -52.7937E-03     105.146E-03    -52.3525E-03     39.5095E-03    -52.8245E-03     104.568E-03    -52.2253E-03     39.3416E-03
            1789     3.41693E-03     37.3352E-03    -55.5880E+06    -155.071E+06    -40.7554E+06     424.930E+03    -52.5726E-03     104.870E-03    -52.2979E-03     32.0274E-03    -52.5845E-03     104.253E-03    -52.1962E-03     31.9028E-03
            1790     2.56271E-03     37.3064E-03    -59.1259E+06    -164.954E+06    -49.5557E+06     1.85011E+03    -52.4119E-03     104.662E-03    -52.2496E-03     24.3252E-03    -52.4063E-03     104.004E-03    -52.1724E-03     24.2320E-03
            1791     1.70853E-03     37.2856E-03    -62.1255E+06    -172.342E+06    -56.7619E+06    -183.883E+03    -52.2922E-03     104.498E-03    -52.2062E-03     16.5194E-03    -52.2750E-03     103.813E-03    -52.1500E-03     16.4565E-03
            1792     854.270E-06     37.2727E-03    -64.3112E+06    -172.088E+06    -62.6026E+06    -21.4720E+03    -52.1800E-03     104.350E-03    -52.1704E-03     9.01964E-03    -52.1626E-03     103.675E-03    -52.1407E-03     8.98752E-03
            1793     16.2178E-03     37.4786E-03    -4.72256E+06     123.419E+06     85.8478E+06    -76.9074E+03    -53.6003E-03     106.676E-03    -53.0754E-03     78.3280E-03    -54.7384E-03     107.986E-03    -52.8182E-03     77.6541E-03
            1794     15.3661E-03     37.3748E-03    -9.83939E+06     121.624E+06     80.9083E+06    -65.4048E+03    -54.9969E-03     108.035E-03    -53.0384E-03     104.517E-03    -56.5552E-03     109.756E-03    -52.7960E-03     103.556E-03
            1795     14.5140E-03     37.2697E-03    -13.5860E+06     113.827E+06     63.0900E+06     193.155E+03    -55.3181E-03     108.243E-03    -52.9248E-03     110.860E-03    -56.8212E-03     109.919E-03    -52.7547E-03     109.768E-03
            1796     13.6606E-03     37.1517E-03    -18.1170E+06     97.4331E+06     30.5575E+06     355.131E+03    -55.5002E-03     108.254E-03    -52.7536E-03     113.732E-03    -56.8640E-03     109.811E-03    -52.7158E-03     112.575E-03
            1797     12.8072E-03     37.0416E-03    -21.2013E+06     47.7835E+06     8.13291E+06     192.772E+03    -55.3444E-03     108.020E-03    -52.6760E-03     104.427E-03    -56.3614E-03     109.108E-03    -52.6738E-03     103.347E-03
            1798     11.9541E-03     36.9420E-03    -23.0101E+06    -8.72696E+06     5.26173E+06     146.937E+03    -55.1747E-03     107.870E-03    -52.6949E-03     94.8489E-03    -55.8775E-03     108.445E-03    -52.6226E-03     93.9097E-03
            1799     11.1008E-03     36.8506E-03    -25.0063E+06    -42.1144E+06     2.00868E+06     175.348E+03    -55.0028E-03     107.673E-03    -52.6703E-03     87.9124E-03    -55.5039E-03     107.930E-03    -52.5629E-03     87.1049E-03
            1800     10.2475E-03     36.7645E-03    -26.9901E+06    -66.1129E+06     980.722E+03     72.9978E+03    -54.8767E-03     107.512E-03    -52.6352E-03     82.8214E-03    -55.2434E-03     107.545E-03    -52.4953E-03     82.1276E-03
            1801     9.39452E-03     36.6830E-03    -29.4446E+06    -82.8816E+06    -233.736E+03     150.515E+03    -54.6244E-03     107.209E-03    -52.5843E-03     77.8298E-03    -54.8964E-03     107.083E-03    -52.4226E-03     77.2410E-03
            1802     8.54084E-03     36.6067E-03    -32.4094E+06    -98.1552E+06    -2.25269E+06     216.946E+03    -54.2922E-03     106.821E-03    -52.5288E-03     72.2676E-03    -54.4909E-03     106.563E-03    -52.3508E-03     71.7738E-03
            1803     7.68743E-03     36.5363E-03    -35.6715E+06    -110.819E+06    -4.29114E+06     102.949E+03    -53.9689E-03     106.441E-03    -52.4721E-03     66.2466E-03    -54.1138E-03     106.078E-03    -52.2811E-03     65.8343E-03
            1804     6.83367E-03     36.4720E-03    -39.4745E+06    -122.086E+06    -8.16545E+06     177.213E+03    -53.6216E-03     106.029E-03    -52.4075E-03     59.9397E-03    -53.7259E-03     105.584E-03    -52.2141E-03     59.6019E-03
            1805     5.97987E-03     36.4142E-03    -43.5517E+06    -131.532E+06    -14.3466E+06     289.349E+03    -53.2774E-03     105.612E-03    -52.3342E-03     53.3122E-03    -53.3508E-03     105.105E-03    -52.1521E-03     53.0400E-03
            1806     5.12586E-03     36.3633E-03    -47.6958E+06    -137.756E+06    -23.1011E+06     347.209E+03    -52.9442E-03     105.195E-03    -52.2510E-03     46.4048E-03    -52.9949E-03     104.655E-03    -52.0976E-03     46.1895E-03
            1807     4.27175E-03     36.3196E-03    -51.8113E+06    -146.018E+06    -31.8466E+06     416.722E+03    -52.6566E-03     104.836E-03    -52.1794E-03     39.2086E-03    -52.6871E-03     104.257E-03    -52.0518E-03     39.0427E-03
            1808     3.41750E-03     36.2832E-03    -55.7529E+06    -154.638E+06    -40.9398E+06     414.911E+03    -52.4215E-03     104.536E-03    -52.1141E-03     31.7736E-03    -52.4345E-03     103.920E-03    -52.0137E-03     31.6499E-03
            1809     2.56325E-03     36.2546E-03    -59.2126E+06    -164.334E+06    -49.7643E+06     169.414E+03    -52.2376E-03     104.295E-03    -52.0574E-03     24.1401E-03    -52.2328E-03     103.641E-03    -51.9820E-03     24.0499E-03
            1810     1.70888E-03     36.2338E-03    -62.3476E+06    -172.520E+06    -56.9496E+06    -50.2394E+03    -52.0993E-03     104.111E-03    -52.0113E-03     16.3912E-03    -52.0826E-03     103.425E-03    -51.9555E-03     16.3306E-03
            1811     854.468E-06     36.2211E-03    -64.5902E+06    -172.115E+06    -62.9782E+06    -44.7386E+03    -51.9662E-03     103.957E-03    -51.9908E-03     8.91049E-03    -51.9495E-03     103.283E-03    -51.9625E-03     8.87817E-03
            1812     16.2215E-03     36.4244E-03    -4.60293E+06     124.086E+06     86.5891E+06     119.630E+03    -54.2658E-03     107.313E-03    -53.0468E-03     76.6644E-03    -55.3946E-03     108.614E-03    -52.7871E-03     75.9851E-03
            1813     15.3678E-03     36.3183E-03    -9.67691E+06     121.737E+06     80.3571E+06    -617.981E+03    -54.7132E-03     107.702E-03    -52.9888E-03     103.187E-03    -56.2602E-03     109.414E-03    -52.7495E-03     102.221E-03
            1814     14.5145E-03     36.2156E-03    -14.8076E+06     112.704E+06     62.0843E+06    -2.37833E+03    -55.2379E-03     108.120E-03    -52.8821E-03     110.644E-03    -56.7419E-03     109.792E-03    -52.7137E-03     109.550E-03
            1815     13.6611E-03     36.0971E-03    -18.1329E+06     97.5690E+06     31.5675E+06     609.379E+03    -55.6197E-03     108.333E-03    -52.7129E-03     113.661E-03    -56.9834E-03     109.887E-03    -52.6702E-03     112.505E-03
            1816     12.8081E-03     35.9873E-03    -20.4011E+06     48.3263E+06     8.86408E+06     445.467E+03    -55.5424E-03     108.160E-03    -52.6180E-03     104.190E-03    -56.5554E-03     109.247E-03    -52.6141E-03     103.110E-03
            1817     11.9550E-03     35.8875E-03    -22.7729E+06    -8.70760E+06     5.33972E+06     137.216E+03    -55.3455E-03     107.962E-03    -52.6168E-03     94.4477E-03    -56.0455E-03     108.535E-03    -52.5445E-03     93.5062E-03
            1818     11.1019E-03     35.7968E-03    -24.6695E+06    -41.9697E+06      2.1745E+06     26.5991E+03    -55.1041E-03     107.679E-03    -52.5746E-03     87.5453E-03    -55.6018E-03     107.934E-03    -52.4671E-03     86.7365E-03
            1819     10.2489E-03     35.7104E-03    -26.8368E+06    -66.1697E+06     1.02697E+06     115.638E+03    -54.9014E-03     107.427E-03    -52.5253E-03     82.4836E-03    -55.2650E-03     107.457E-03    -52.3853E-03     81.7929E-03
            1820     9.39543E-03     35.6295E-03    -29.4706E+06    -82.9588E+06    -239.545E+03     225.822E+03    -54.6310E-03     107.093E-03    -52.4616E-03     77.3921E-03    -54.9013E-03     106.965E-03    -52.2998E-03     76.8064E-03
            1821     8.54218E-03     35.5534E-03    -32.2640E+06    -97.8749E+06    -2.10605E+06     259.290E+03    -54.2964E-03     106.688E-03    -52.3916E-03     71.7982E-03    -54.4934E-03     106.429E-03    -52.2134E-03     71.3071E-03
            1822     7.68849E-03     35.4833E-03    -35.6701E+06    -110.840E+06    -4.35771E+06     244.234E+03    -53.9209E-03     106.241E-03    -52.3198E-03     65.7557E-03    -54.0643E-03     105.877E-03    -52.1291E-03     65.3476E-03
            1823     6.83486E-03     35.4194E-03    -39.5143E+06    -122.145E+06    -8.03491E+06     339.286E+03    -53.5420E-03     105.785E-03    -52.2433E-03     59.4881E-03    -53.6457E-03     105.338E-03    -52.0491E-03     59.1547E-03
            1824     5.98090E-03     35.3619E-03    -43.7068E+06    -131.427E+06    -14.3693E+06     295.739E+03    -53.1669E-03     105.324E-03    -52.1573E-03     52.8911E-03    -53.2404E-03     104.818E-03    -51.9753E-03     52.6211E-03
            1825     5.12683E-03     35.3113E-03    -47.9001E+06    -137.875E+06    -23.3576E+06     373.050E+03    -52.8186E-03     104.880E-03    -52.0615E-03     45.9990E-03    -52.8693E-03     104.339E-03    -51.9090E-03     45.7858E-03
            1826     4.27260E-03     35.2677E-03    -51.9709E+06    -145.863E+06    -32.2894E+06     506.498E+03    -52.5046E-03     104.481E-03    -51.9768E-03     38.8560E-03    -52.5351E-03     103.903E-03    -51.8514E-03     38.6928E-03
            1827     3.41828E-03     35.2316E-03    -55.7465E+06    -154.275E+06    -41.0717E+06     352.149E+03    -52.2330E-03     104.137E-03    -51.9036E-03     31.4893E-03    -52.2460E-03     103.523E-03    -51.8044E-03     31.3660E-03
            1828     2.56376E-03     35.2032E-03    -59.1771E+06    -164.054E+06    -49.4661E+06     264.561E+03    -52.0227E-03     103.868E-03    -51.8456E-03     23.9281E-03    -52.0184E-03     103.215E-03    -51.7693E-03     23.8402E-03
            1829     1.70920E-03     35.1826E-03    -62.2394E+06    -172.252E+06    -56.6962E+06     206.048E+03    -51.8814E-03     103.682E-03    -51.8002E-03     16.2507E-03    -51.8649E-03     102.997E-03    -51.7436E-03     16.1941E-03
            1830     854.626E-06     35.1699E-03    -64.7495E+06    -172.090E+06    -62.8668E+06     33.7289E+03    -51.7997E-03     103.535E-03    -51.7350E-03     8.80171E-03    -51.7840E-03     102.861E-03    -51.7059E-03     8.77064E-03
            1831     16.2227E-03     35.3689E-03    -4.52169E+06     124.206E+06     86.5958E+06    -5.00135E+03    -54.5050E-03     107.525E-03    -53.0196E-03     77.9153E-03    -55.6397E-03     108.833E-03    -52.7601E-03     77.2307E-03
            1832     15.3686E-03     35.2659E-03    -9.00404E+06     121.895E+06     80.8453E+06     821.784E+03    -54.7585E-03     107.717E-03    -52.9584E-03     104.902E-03    -56.3064E-03     109.431E-03    -52.7178E-03     103.959E-03
            1833     14.5145E-03     35.1598E-03    -14.5028E+06     112.459E+06     61.8649E+06     316.278E+03    -55.3409E-03     108.187E-03    -52.8465E-03     110.917E-03    -56.8388E-03     109.854E-03    -52.6792E-03     109.826E-03
            1834     13.6619E-03     35.0430E-03    -18.4504E+06     97.4350E+06     31.4828E+06    -173.538E+03    -55.8798E-03     108.545E-03    -52.6652E-03     113.402E-03    -57.2403E-03     110.095E-03    -52.6223E-03     112.232E-03
            1835     12.8088E-03     34.9322E-03    -20.6054E+06      48.426E+06     8.96018E+06     247.906E+03    -55.7656E-03     108.316E-03    -52.5505E-03     103.890E-03    -56.7768E-03     109.400E-03    -52.5460E-03     102.805E-03
            1836     11.9561E-03     34.8336E-03    -22.2210E+06    -8.26377E+06     5.38545E+06     312.763E+03    -55.5033E-03     108.031E-03    -52.5279E-03     94.0058E-03    -56.1982E-03     108.602E-03    -52.4568E-03     93.0663E-03
            1837     11.1031E-03     34.7424E-03    -24.5059E+06    -41.8979E+06     2.06890E+06     294.858E+03    -55.2176E-03     107.685E-03    -52.4677E-03     87.1483E-03    -55.7120E-03     107.938E-03    -52.3610E-03     86.3440E-03
            1838     10.2500E-03     34.6571E-03    -26.9784E+06    -66.1202E+06     768.716E+03     295.098E+03    -54.9522E-03     107.353E-03    -52.4010E-03     82.0279E-03    -55.3138E-03     107.382E-03    -52.2621E-03     81.3416E-03
            1839     9.39682E-03     34.5759E-03    -29.4356E+06    -83.0144E+06    -459.561E+03     242.520E+03    -54.6670E-03     106.987E-03    -52.3204E-03     76.8545E-03    -54.9347E-03     106.857E-03    -52.1597E-03     76.2710E-03
            1840     8.54344E-03     34.5004E-03    -32.4058E+06    -97.9042E+06    -2.27163E+06     387.301E+03    -54.2926E-03     106.526E-03    -52.2331E-03     71.2115E-03    -54.4885E-03     106.266E-03    -52.0555E-03     70.7241E-03
            1841     7.68996E-03     34.4306E-03    -35.7463E+06    -110.628E+06    -4.48136E+06     408.190E+03    -53.8583E-03     106.003E-03    -52.1451E-03     65.2426E-03    -54.0008E-03     105.639E-03    -51.9552E-03     64.8395E-03
            1842     6.83606E-03     34.3670E-03    -39.4982E+06    -122.173E+06    -8.27383E+06     395.425E+03    -53.4533E-03     105.507E-03    -52.0539E-03     58.9618E-03    -53.5553E-03     105.059E-03    -51.8608E-03     58.6316E-03
            1843     5.98212E-03     34.3099E-03    -43.5604E+06    -131.207E+06    -14.2216E+06     417.172E+03    -53.0522E-03     105.007E-03    -51.9547E-03     52.3768E-03    -53.1247E-03     104.500E-03    -51.7724E-03     52.1108E-03
            1844     5.12794E-03     34.2596E-03    -47.7966E+06    -137.978E+06    -23.1024E+06     431.028E+03    -52.6651E-03     104.512E-03    -51.8466E-03     45.5473E-03    -52.7148E-03     103.969E-03    -51.6927E-03     45.3369E-03
            1845     4.27360E-03     34.2163E-03    -51.7840E+06    -145.676E+06    -32.0308E+06     477.975E+03    -52.3197E-03     104.070E-03    -51.7501E-03     38.4743E-03    -52.3495E-03     103.492E-03    -51.6239E-03     38.3126E-03
            1846     3.41904E-03     34.1805E-03    -55.5765E+06    -153.872E+06    -41.0930E+06     398.711E+03    -52.0228E-03     103.689E-03    -51.6662E-03     31.1661E-03    -52.0352E-03     103.077E-03    -51.5680E-03     31.0449E-03
            1847     2.56439E-03     34.1522E-03    -59.0853E+06    -163.931E+06    -49.4404E+06     286.261E+03    -51.7949E-03     103.397E-03    -51.6019E-03     23.6576E-03    -51.7903E-03     102.744E-03    -51.5257E-03     23.5711E-03
            1848     1.70965E-03     34.1318E-03    -62.0442E+06    -171.931E+06    -56.4846E+06     253.731E+03    -51.6323E-03     103.186E-03    -51.5539E-03     16.0558E-03    -51.6156E-03     102.503E-03    -51.4971E-03     16.0005E-03
            1849     854.831E-06     34.1191E-03    -64.2477E+06    -171.845E+06    -62.5563E+06     144.762E+03    -51.5505E-03     103.044E-03    -51.4934E-03     8.74158E-03    -51.5331E-03     102.370E-03    -51.4638E-03     8.71248E-03
            1850     16.2187E-03     34.3137E-03    -4.50187E+06     123.660E+06     85.9097E+06    -66.0040E+03    -54.2834E-03     107.328E-03    -53.0442E-03     77.9986E-03    -55.4175E-03     108.636E-03    -52.7874E-03     77.3042E-03
            1851     15.3673E-03     34.2094E-03    -9.81779E+06     121.209E+06     80.5890E+06     98.0785E+03    -55.6676E-03     108.634E-03    -52.9664E-03     104.086E-03    -57.2190E-03     110.347E-03    -52.7250E-03     103.104E-03
            1852     14.5157E-03     34.1059E-03    -13.6374E+06     113.315E+06     62.8664E+06     661.510E+03    -55.8821E-03     108.694E-03    -52.8121E-03     110.372E-03    -57.3754E-03     110.359E-03    -52.6423E-03     109.271E-03
            1853     13.6623E-03     33.9874E-03    -17.7535E+06     97.7022E+06      30.872E+06     397.531E+03    -56.0894E-03     108.686E-03    -52.5970E-03     112.997E-03    -57.4420E-03     110.233E-03    -52.5586E-03     111.830E-03
            1854     12.8101E-03     33.8779E-03    -20.7246E+06     48.1062E+06     8.22488E+06    -84.6231E+03    -55.9414E-03     108.407E-03    -52.4651E-03     103.315E-03    -56.9481E-03     109.487E-03    -52.4637E-03     102.223E-03
            1855     11.9572E-03     33.7788E-03    -22.8243E+06    -8.26943E+06     5.00629E+06     369.951E+03    -55.6304E-03     108.056E-03    -52.4259E-03     93.4277E-03    -56.3244E-03     108.625E-03    -52.3558E-03     92.4888E-03
            1856     11.1044E-03     33.6887E-03    -24.8837E+06    -41.7630E+06     1.82054E+06     452.050E+03    -55.3459E-03     107.692E-03    -52.3459E-03     86.5030E-03    -55.8393E-03     107.943E-03    -52.2401E-03     85.7007E-03
            1857     10.2515E-03     33.6031E-03    -26.9749E+06    -65.8065E+06     829.145E+03     332.003E+03    -55.0519E-03     107.310E-03    -52.2579E-03     81.3851E-03    -55.4116E-03     107.338E-03    -52.1193E-03     80.7005E-03
            1858     9.39839E-03     33.5227E-03    -29.5659E+06    -83.0076E+06    -701.779E+03     391.472E+03    -54.6681E-03     106.825E-03    -52.1568E-03     76.2402E-03    -54.9336E-03     106.693E-03    -51.9970E-03     75.6618E-03
            1859     8.54502E-03     33.4474E-03    -32.3944E+06    -98.1620E+06    -2.43389E+06     416.264E+03    -54.2473E-03     106.301E-03    -52.0538E-03     70.6082E-03    -54.4405E-03     106.038E-03    -51.8766E-03     70.1244E-03
            1860     7.69134E-03     33.3782E-03    -35.6347E+06    -110.416E+06    -4.36519E+06     551.724E+03    -53.8213E-03     105.770E-03    -51.9485E-03     64.6300E-03    -53.9622E-03     105.405E-03    -51.7586E-03     64.2315E-03
            1861     6.83761E-03     33.3149E-03    -39.3921E+06    -121.991E+06    -8.37496E+06     438.429E+03    -53.3638E-03     105.201E-03    -51.8372E-03     58.3505E-03    -53.4642E-03     104.753E-03    -51.6451E-03     58.0238E-03
            1862     5.98352E-03     33.2582E-03    -43.4434E+06    -131.191E+06    -14.2508E+06     467.091E+03    -52.9042E-03     104.627E-03    -51.7226E-03     51.8108E-03    -52.9750E-03     104.119E-03    -51.5406E-03     51.5483E-03
            1863     5.12920E-03     33.2083E-03    -47.5666E+06    -137.758E+06    -22.9185E+06     470.135E+03    -52.4819E-03     104.084E-03    -51.6018E-03     45.0442E-03    -52.5303E-03     103.541E-03    -51.4476E-03     44.8369E-03
            1864     4.27466E-03     33.1654E-03    -51.5980E+06    -145.637E+06    -31.7980E+06     412.216E+03    -52.1087E-03     103.603E-03    -51.4943E-03     38.0241E-03    -52.1375E-03     103.024E-03    -51.3673E-03     37.8636E-03
            1865     3.41998E-03     33.1298E-03    -55.4134E+06    -153.590E+06    -40.6653E+06     493.991E+03    -51.7937E-03     103.194E-03    -51.3999E-03     30.7847E-03    -51.8061E-03     102.582E-03    -51.3002E-03     30.6664E-03
            1866     2.56513E-03     33.1018E-03    -58.8874E+06    -163.554E+06    -49.2509E+06     379.887E+03    -51.5458E-03     102.869E-03    -51.3230E-03     23.3658E-03    -51.5409E-03     102.217E-03    -51.2467E-03     23.2817E-03
            1867     1.71015E-03     33.0815E-03    -61.9403E+06    -171.754E+06    -56.4983E+06     194.451E+03    -51.3584E-03     102.623E-03    -51.2647E-03     15.8586E-03    -51.3413E-03     101.940E-03    -51.2084E-03     15.8035E-03
            1868     855.080E-06     33.0690E-03    -64.0976E+06    -171.451E+06    -62.4575E+06     185.349E+03    -51.2312E-03     102.457E-03    -51.2261E-03     8.63917E-03    -51.2137E-03     101.785E-03    -51.1969E-03     8.61099E-03
            1869     16.2217E-03     33.2581E-03    -4.39597E+06     124.082E+06     86.4297E+06     269.898E+03    -54.8651E-03     107.887E-03    -53.0222E-03     76.9943E-03    -55.9918E-03     109.188E-03    -52.7636E-03     76.2935E-03
            1870     15.3687E-03     33.1531E-03    -9.81131E+06     121.102E+06     80.0470E+06    -263.223E+03    -55.6653E-03     108.586E-03    -52.9202E-03     102.731E-03    -57.2026E-03     110.286E-03    -52.6813E-03     101.738E-03
            1871     14.5159E-03     33.0502E-03    -14.7026E+06     112.752E+06     62.4775E+06    -164.211E+03    -56.1736E-03     108.928E-03    -52.7541E-03     109.470E-03    -57.6649E-03     110.586E-03    -52.5839E-03     108.349E-03
            1872     13.6640E-03     32.9327E-03    -17.5833E+06     98.1069E+06     31.9445E+06     523.273E+03    -56.3580E-03     108.878E-03    -52.5196E-03     112.507E-03    -57.7076E-03     110.420E-03    -52.4766E-03     111.336E-03
            1873     12.8111E-03     32.8228E-03    -20.3259E+06     48.0728E+06     8.33271E+06     825.326E+03    -56.0621E-03     108.425E-03    -52.3631E-03     102.697E-03    -57.0609E-03     109.498E-03    -52.3617E-03     101.617E-03
            1874     11.9588E-03     32.7247E-03    -22.9471E+06    -8.29285E+06     4.98714E+06     384.230E+03    -55.7575E-03     108.063E-03    -52.3058E-03     92.7864E-03    -56.4482E-03     108.629E-03    -52.2355E-03     91.8477E-03
            1875     11.1060E-03     32.6343E-03    -24.8441E+06    -41.5454E+06     1.91878E+06     310.837E+03    -55.4615E-03     107.666E-03    -52.2050E-03     85.8989E-03    -55.9518E-03     107.916E-03    -52.0992E-03     85.0962E-03
            1876     10.2532E-03     32.5497E-03    -27.0660E+06    -65.8488E+06     795.096E+03     481.433E+03    -55.1112E-03     107.207E-03    -52.0959E-03     80.7499E-03    -55.4683E-03     107.232E-03    -51.9572E-03     80.0696E-03
            1877     9.40008E-03     32.4695E-03    -29.6068E+06    -82.8205E+06    -600.469E+03     438.788E+03    -54.6721E-03     106.647E-03    -51.9751E-03     75.5989E-03    -54.9355E-03     106.513E-03    -51.8151E-03     75.0246E-03
            1878     8.54667E-03     32.3949E-03    -32.4195E+06    -98.1138E+06    -2.58608E+06     406.023E+03    -54.2420E-03     106.092E-03    -51.8504E-03     69.9360E-03    -54.4329E-03     105.827E-03    -51.6740E-03     69.4553E-03
            1879     7.69316E-03     32.3258E-03    -35.5719E+06    -110.491E+06    -4.37653E+06     466.482E+03    -53.7608E-03     105.485E-03    -51.7244E-03     63.9070E-03    -53.8995E-03     105.118E-03    -51.5345E-03     63.5105E-03
            1880     6.83927E-03     32.2633E-03    -39.2142E+06    -121.739E+06    -8.18026E+06     620.611E+03    -53.2378E-03     104.832E-03    -51.5944E-03     57.6726E-03    -53.3364E-03     104.383E-03    -51.4020E-03     57.3517E-03
            1881     5.98506E-03     32.2070E-03    -43.3602E+06    -131.090E+06    -14.5531E+06     515.873E+03    -52.7417E-03     104.203E-03    -51.4610E-03     51.2114E-03    -52.8107E-03     103.695E-03    -51.2808E-03     50.9526E-03
            1882     5.13062E-03     32.1575E-03    -47.4957E+06    -137.582E+06    -23.2267E+06     502.130E+03    -52.2864E-03     103.611E-03    -51.3242E-03     44.4743E-03    -52.3335E-03     103.068E-03    -51.1720E-03     44.2701E-03
            1883     4.27594E-03     32.1150E-03    -51.5927E+06    -145.459E+06    -31.9694E+06     515.495E+03    -51.8781E-03     103.081E-03    -51.2027E-03     37.5218E-03    -51.9064E-03     102.502E-03    -51.0768E-03     37.3649E-03
            1884     3.42100E-03     32.0797E-03    -55.4364E+06    -153.453E+06    -40.6503E+06     434.433E+03    -51.5276E-03     102.624E-03    -51.0968E-03     30.3643E-03    -51.5399E-03     102.013E-03    -50.9972E-03     30.2471E-03
            1885     2.56591E-03     32.0520E-03    -58.8289E+06    -163.167E+06    -49.1261E+06     399.384E+03    -51.2515E-03     102.262E-03    -51.0105E-03     23.0379E-03    -51.2468E-03     101.612E-03    -50.9343E-03     22.9555E-03
            1886     1.71070E-03     32.0319E-03    -61.8689E+06    -171.452E+06    -56.3367E+06     334.214E+03    -51.0538E-03     101.998E-03    -50.9441E-03     15.6419E-03    -51.0369E-03     101.316E-03    -50.8875E-03     15.5894E-03
            1887     855.392E-06     32.0195E-03    -64.3795E+06    -171.034E+06    -62.5336E+06     257.935E+03    -50.9216E-03     101.803E-03    -50.8818E-03     8.56094E-03    -50.9060E-03     101.134E-03    -50.8531E-03     8.53424E-03
            1888     16.2224E-03     32.2027E-03    -4.53602E+06     123.851E+06     86.2376E+06     340.597E+03    -55.4387E-03     108.415E-03    -52.9764E-03     77.3500E-03    -56.5623E-03     109.712E-03    -52.7183E-03     76.6403E-03
            1889     15.3696E-03     32.0981E-03    -8.94896E+06     121.805E+06     81.0019E+06     789.021E+03    -55.7801E-03     108.638E-03    -52.8579E-03     103.190E-03    -57.3078E-03     110.331E-03    -52.6165E-03     102.213E-03
            1890     14.5174E-03     31.9943E-03    -14.4221E+06     112.892E+06     62.2628E+06    -38.5329E+03    -56.2917E-03     108.969E-03    -52.6778E-03     109.225E-03    -57.7747E-03     110.622E-03    -52.5092E-03     108.104E-03
            1891     13.6649E-03     31.8774E-03    -19.0101E+06     97.1692E+06     31.2586E+06     24.4170E+03    -56.6150E-03     109.042E-03    -52.4271E-03     111.911E-03    -57.9633E-03     110.577E-03    -52.3841E-03     110.730E-03
            1892     12.8129E-03     31.7681E-03    -21.0188E+06     48.4056E+06     8.82764E+06     604.814E+03    -56.2196E-03     108.471E-03    -52.2517E-03     102.241E-03    -57.2173E-03     109.541E-03    -52.2473E-03     101.159E-03
            1893     11.9603E-03     31.6701E-03    -22.2874E+06    -7.63980E+06     5.32515E+06     602.237E+03    -55.9154E-03     108.086E-03    -52.1702E-03     92.3037E-03    -56.5998E-03     108.648E-03    -52.1002E-03     91.3692E-03
            1894     11.1078E-03     31.5805E-03    -24.6330E+06    -41.7135E+06     1.87356E+06     528.256E+03    -55.5688E-03     107.616E-03    -52.0471E-03     85.1944E-03    -56.0538E-03     107.860E-03    -51.9415E-03     84.3965E-03
            1895     10.2550E-03     31.4960E-03    -27.0072E+06    -65.7416E+06     744.583E+03     500.814E+03    -55.1502E-03     107.066E-03    -51.9162E-03     80.0084E-03    -55.5036E-03     107.088E-03    -51.7780E-03     79.3318E-03
            1896     9.40195E-03     31.4167E-03    -29.4767E+06     -82.638E+06    -594.788E+03     491.430E+03    -54.7373E-03     106.509E-03    -51.7716E-03     74.8269E-03    -54.9977E-03     106.373E-03    -51.6120E-03     74.2559E-03
            1897     8.54873E-03     31.3423E-03    -32.3463E+06    -97.8414E+06    -2.67928E+06     432.777E+03    -54.2333E-03     105.854E-03    -51.6204E-03     69.1602E-03    -54.4218E-03     105.588E-03    -51.4451E-03     68.6833E-03
            1898     7.69509E-03     31.2741E-03    -35.6250E+06    -110.604E+06    -4.75153E+06     439.361E+03    -53.6593E-03     105.131E-03    -51.4717E-03     63.1423E-03    -53.7953E-03     104.762E-03    -51.2835E-03     62.7497E-03
            1899     6.84108E-03     31.2119E-03    -39.2647E+06    -121.763E+06    -8.35862E+06     594.342E+03    -53.0980E-03     104.421E-03    -51.3234E-03     56.9338E-03    -53.1950E-03     103.971E-03    -51.1317E-03     56.6163E-03
            1900     5.98682E-03     31.1562E-03    -43.1997E+06    -130.707E+06    -14.5089E+06     677.211E+03    -52.5657E-03     103.737E-03    -51.1712E-03     50.5121E-03    -52.6333E-03     103.229E-03    -50.9916E-03     50.2587E-03
            1901     5.13220E-03     31.1071E-03    -47.3850E+06    -137.546E+06    -23.2645E+06     598.598E+03    -52.0703E-03     103.087E-03    -51.0164E-03     43.8573E-03    -52.1160E-03     102.543E-03    -50.8646E-03     43.6573E-03
            1902     4.27731E-03     31.0651E-03    -51.3739E+06    -145.205E+06    -31.7682E+06     612.927E+03    -51.6250E-03     102.504E-03    -50.8786E-03     36.9680E-03    -51.6522E-03     101.925E-03    -50.7524E-03     36.8148E-03
            1903     3.42219E-03     31.0302E-03    -55.2189E+06    -153.131E+06    -40.7782E+06     497.025E+03    -51.2294E-03     101.986E-03    -50.7568E-03     29.8924E-03    -51.2405E-03     101.376E-03    -50.6586E-03     29.7780E-03
            1904     2.56682E-03     31.0029E-03    -58.7552E+06    -162.968E+06    -49.1855E+06     413.869E+03    -50.9245E-03     101.586E-03    -50.6610E-03     22.6746E-03    -50.9195E-03     100.936E-03    -50.5854E-03     22.5938E-03
            1905     1.71129E-03     30.9830E-03    -61.8039E+06    -171.101E+06    -56.1527E+06     441.103E+03    -50.7101E-03     101.297E-03    -50.5871E-03     15.3795E-03    -50.6935E-03     100.617E-03    -50.5302E-03     15.3294E-03
            1906     855.668E-06     30.9707E-03    -64.1284E+06    -170.421E+06    -62.2845E+06     336.367E+03    -50.5646E-03     101.080E-03    -50.5150E-03     8.41423E-03    -50.5490E-03     100.412E-03    -50.4863E-03     8.38919E-03
            1907     16.2215E-03     31.1457E-03    -4.70314E+06     123.313E+06     85.7024E+06        -543.625    -55.8779E-03     108.834E-03    -52.9563E-03     76.8729E-03    -56.9992E-03     110.128E-03    -52.6997E-03     76.1437E-03
            1908     15.3706E-03     31.0420E-03    -9.17119E+06     121.615E+06     80.9318E+06     203.779E+03    -56.2925E-03     109.103E-03    -52.8107E-03     102.727E-03    -57.8202E-03     110.795E-03    -52.5691E-03     101.725E-03
            1909     14.5183E-03     30.9391E-03    -13.6497E+06     113.212E+06     63.0806E+06     1.09659E+06    -56.5475E-03     109.155E-03    -52.6073E-03     109.261E-03    -58.0235E-03     110.801E-03    -52.4363E-03     108.149E-03
            1910     13.6665E-03     30.8214E-03    -18.0247E+06     97.5145E+06     31.2819E+06     719.704E+03    -56.8538E-03     109.186E-03    -52.3324E-03     111.577E-03    -58.1925E-03     110.716E-03    -52.2912E-03     110.400E-03
            1911     12.8142E-03     30.7138E-03    -20.9147E+06     48.4801E+06     8.18431E+06    -63.3656E+03    -56.5595E-03     108.688E-03    -52.1284E-03     101.618E-03    -57.5520E-03     109.755E-03    -52.1275E-03     100.522E-03
            1912     11.9620E-03     30.6152E-03    -22.9137E+06    -7.77314E+06     4.90944E+06     466.353E+03    -56.1103E-03     108.130E-03    -52.0198E-03     91.6272E-03    -56.7918E-03     108.688E-03    -51.9507E-03     90.6916E-03
            1913     11.1098E-03     30.5266E-03    -24.7306E+06    -41.2908E+06     1.82045E+06     674.145E+03    -55.6757E-03     107.547E-03    -51.8712E-03     84.3441E-03    -56.1575E-03     107.789E-03    -51.7664E-03     83.5500E-03
            1914     10.2570E-03     30.4428E-03    -26.9154E+06       -65.6E+06     516.995E+03     528.655E+03    -55.2549E-03     106.968E-03    -51.7133E-03     79.1903E-03    -55.6038E-03     106.987E-03    -51.5766E-03     78.5170E-03
            1915     9.40416E-03     30.3637E-03    -29.4164E+06    -82.6227E+06    -887.898E+03     549.344E+03    -54.7662E-03     106.308E-03    -51.5415E-03     73.9753E-03    -55.0227E-03     106.169E-03    -51.3835E-03     73.4086E-03
            1916     8.55088E-03     30.2902E-03    -32.2071E+06    -97.6675E+06    -2.81722E+06     577.182E+03    -54.1849E-03     105.551E-03    -51.3659E-03     68.2850E-03    -54.3699E-03     105.283E-03    -51.1916E-03     67.8143E-03
            1917     7.69718E-03     30.2225E-03    -35.5273E+06    -110.488E+06    -4.92089E+06     600.341E+03    -53.5645E-03     104.758E-03    -51.1937E-03     62.2840E-03    -53.6978E-03     104.387E-03    -51.0066E-03     61.8978E-03
            1918     6.84319E-03     30.1610E-03    -39.2611E+06    -121.779E+06    -8.59830E+06     574.115E+03    -52.9581E-03     103.980E-03    -51.0222E-03     56.0977E-03    -53.0530E-03     103.529E-03    -50.8317E-03     55.7837E-03
            1919     5.98873E-03     30.1059E-03    -43.2566E+06    -130.628E+06    -14.4737E+06     689.049E+03    -52.3672E-03     103.217E-03    -50.8494E-03     49.7346E-03    -52.4340E-03     102.708E-03    -50.6697E-03     49.4850E-03
            1920     5.13394E-03     30.0575E-03    -47.3253E+06    -137.213E+06    -23.3560E+06     752.153E+03    -51.8248E-03     102.498E-03    -50.6737E-03     43.1456E-03    -51.8696E-03     101.956E-03    -50.5229E-03     42.9507E-03
            1921     4.27887E-03     30.0158E-03    -51.3911E+06    -144.991E+06    -32.1455E+06     625.340E+03    -51.3254E-03     101.844E-03    -50.5183E-03     36.3410E-03    -51.3518E-03     101.266E-03    -50.3943E-03     36.1908E-03
            1922     3.42345E-03     29.9815E-03    -55.1788E+06    -152.791E+06    -40.6693E+06     624.409E+03    -50.8966E-03     101.282E-03    -50.3857E-03     29.3954E-03    -50.9078E-03     100.673E-03    -50.2875E-03     29.2849E-03
            1923     2.56780E-03     29.9544E-03    -58.6281E+06    -162.658E+06    -49.0886E+06     544.651E+03    -50.5740E-03     100.852E-03    -50.2777E-03     22.3032E-03    -50.5687E-03     100.203E-03    -50.2022E-03     22.2257E-03
            1924     1.71201E-03     29.9348E-03    -61.6242E+06    -170.760E+06    -56.1285E+06     407.870E+03    -50.3407E-03     100.530E-03    -50.1897E-03     15.1087E-03    -50.3237E-03     99.8512E-03    -50.1334E-03     15.0593E-03
            1925     856.061E-06     29.9227E-03    -63.8066E+06    -169.732E+06    -62.0654E+06     379.639E+03    -50.1792E-03     100.270E-03    -50.0912E-03     8.21412E-03    -50.1633E-03     99.6055E-03    -50.0629E-03     8.19019E-03
            1926     16.2234E-03     30.0889E-03    -4.44133E+06     123.495E+06     85.9484E+06     5.19266E+03    -56.2077E-03     109.156E-03    -52.9478E-03     76.6719E-03    -57.3253E-03     110.446E-03    -52.6907E-03     75.9328E-03
            1927     15.3708E-03     29.9858E-03    -9.49865E+06     121.227E+06      80.466E+06     357.130E+03    -56.7638E-03     109.541E-03    -52.7777E-03     102.757E-03    -58.2890E-03     111.230E-03    -52.5373E-03     101.740E-03
            1928     14.5196E-03     29.8830E-03    -14.1959E+06     112.713E+06     63.0877E+06     647.826E+03    -57.0973E-03     109.642E-03    -52.5448E-03     108.924E-03    -58.5713E-03     111.283E-03    -52.3722E-03     107.793E-03
            1929     13.6672E-03     29.7662E-03    -17.1479E+06     98.1763E+06     32.2140E+06     835.215E+03    -57.2462E-03     109.482E-03    -52.2360E-03     110.974E-03    -58.5757E-03     111.006E-03    -52.1924E-03     109.792E-03
            1930     12.8160E-03     29.6578E-03     -19.984E+06     48.7881E+06     8.34242E+06     908.836E+03    -56.9198E-03     108.915E-03    -51.9948E-03     100.709E-03    -57.9020E-03     109.975E-03    -51.9949E-03     99.6204E-03
            1931     11.9643E-03     29.5613E-03    -22.6406E+06    -7.85606E+06     4.70346E+06     540.080E+03    -56.3412E-03     108.194E-03    -51.8526E-03     90.6989E-03    -57.0159E-03     108.747E-03    -51.7849E-03     89.7633E-03
            1932     11.1117E-03     29.4724E-03    -24.7228E+06    -41.2576E+06     1.47713E+06     501.455E+03    -55.8038E-03     107.478E-03    -51.6744E-03     83.5304E-03    -56.2801E-03     107.716E-03    -51.5713E-03     82.7372E-03
            1933     10.2595E-03     29.3895E-03    -26.8221E+06    -65.3744E+06     351.191E+03     733.649E+03    -55.3633E-03     106.851E-03    -51.4879E-03     78.2682E-03    -55.7081E-03     106.868E-03    -51.3525E-03     77.6002E-03
            1934     9.40651E-03     29.3111E-03    -29.4236E+06    -82.5905E+06    -1.10083E+06     637.689E+03    -54.7757E-03     106.063E-03    -51.2875E-03     73.0497E-03    -55.0283E-03     105.921E-03    -51.1306E-03     72.4886E-03
            1935     8.55324E-03     29.2383E-03    -32.3159E+06    -97.5596E+06    -2.96404E+06     725.158E+03    -54.1336E-03     105.219E-03    -51.0857E-03     67.2751E-03    -54.3161E-03     104.949E-03    -50.9121E-03     66.8109E-03
            1936     7.69959E-03     29.1714E-03    -35.5393E+06    -110.217E+06    -4.95912E+06     757.764E+03    -53.4563E-03     104.344E-03    -50.8878E-03     61.3246E-03    -53.5875E-03     103.972E-03    -50.7013E-03     60.9450E-03
            1937     6.84543E-03     29.1106E-03    -39.2747E+06    -121.596E+06    -8.68909E+06     693.884E+03    -52.7906E-03     103.482E-03    -50.6917E-03     55.2067E-03    -52.8839E-03     103.030E-03    -50.5019E-03     54.8987E-03
            1938     5.99087E-03     29.0562E-03    -43.3056E+06    -130.615E+06    -14.6652E+06     688.473E+03    -52.1596E-03     102.655E-03    -50.4950E-03     48.9083E-03    -52.2250E-03     102.145E-03    -50.3161E-03     48.6626E-03
            1939     5.13594E-03     29.0083E-03    -47.2909E+06    -137.055E+06    -23.6635E+06     784.816E+03    -51.5431E-03     101.840E-03    -50.2971E-03     42.3813E-03    -51.5864E-03     101.298E-03    -50.1482E-03     42.1905E-03
            1940     4.28053E-03     28.9674E-03    -51.1522E+06    -144.622E+06    -32.3582E+06     813.577E+03    -50.9884E-03     101.114E-03    -50.1259E-03     35.6834E-03    -51.0131E-03     100.538E-03    -50.0038E-03     35.5388E-03
            1941     3.42483E-03     28.9335E-03    -54.9746E+06    -152.522E+06    -40.5986E+06     685.774E+03    -50.5352E-03     100.517E-03    -49.9821E-03     28.8496E-03    -50.5454E-03     99.9087E-03    -49.8842E-03     28.7423E-03
            1942     2.56888E-03     28.9068E-03    -58.4062E+06    -162.183E+06    -48.8712E+06     610.208E+03    -50.1800E-03     100.044E-03    -49.8641E-03     21.8819E-03    -50.1744E-03     99.3970E-03    -49.7886E-03     21.8071E-03
            1943     1.71271E-03     28.8875E-03    -61.4718E+06    -170.375E+06    -56.0002E+06     540.634E+03    -49.9271E-03     99.6967E-03    -49.7696E-03     14.8492E-03    -49.9099E-03     99.0189E-03    -49.7135E-03     14.8027E-03
            1944     856.427E-06     28.8757E-03    -64.0060E+06    -168.932E+06    -62.0982E+06     435.284E+03    -49.7562E-03     99.4223E-03    -49.6661E-03     8.04234E-03    -49.7424E-03     98.7618E-03    -49.6389E-03     8.01976E-03
            1945     16.2211E-03     29.0316E-03    -4.69512E+06     123.070E+06     85.5372E+06     248.144E+03    -56.3991E-03     109.342E-03    -52.9430E-03     76.6669E-03    -57.5124E-03     110.628E-03    -52.6870E-03     75.9193E-03
            1946     15.3710E-03     28.9286E-03    -9.65157E+06     121.032E+06     80.3365E+06     225.251E+03    -57.4865E-03     110.233E-03    -52.7469E-03     102.019E-03    -59.0046E-03     111.914E-03    -52.5067E-03     100.978E-03
            1947     14.5200E-03     28.8260E-03    -14.0376E+06     112.832E+06     62.8516E+06    -10.3487E+03    -57.7891E-03     110.255E-03    -52.4663E-03     107.695E-03    -59.2546E-03     111.889E-03    -52.2953E-03     106.534E-03
            1948     13.6697E-03     28.7103E-03    -18.0387E+06     97.6479E+06     31.8767E+06     610.851E+03    -57.6674E-03     109.784E-03    -52.1163E-03     109.909E-03    -58.9906E-03     111.297E-03    -52.0724E-03     108.716E-03
            1949     12.8178E-03     28.6023E-03    -20.3905E+06     48.9842E+06     8.75951E+06     1.15282E+06    -57.1037E-03     108.950E-03    -51.8459E-03     99.8513E-03    -58.0800E-03     110.002E-03    -51.8436E-03     98.7666E-03
            1950     11.9661E-03     28.5065E-03    -22.1195E+06    -7.22268E+06     4.84237E+06     967.382E+03    -56.5883E-03     108.259E-03    -51.6711E-03     89.6521E-03    -57.2554E-03     108.808E-03    -51.6043E-03     88.7217E-03
            1951     11.1145E-03     28.4187E-03    -24.5365E+06    -41.1873E+06     1.36395E+06     841.854E+03    -56.0092E-03     107.468E-03    -51.4585E-03     82.5846E-03    -56.4790E-03     107.700E-03    -51.3564E-03     81.7979E-03
            1952     10.2618E-03     28.3362E-03    -27.0480E+06    -65.4804E+06     43.3126E+03     801.810E+03    -55.4401E-03     106.679E-03    -51.2393E-03     77.2292E-03    -55.7808E-03     106.692E-03    -51.1049E-03     76.5658E-03
            1953     9.40917E-03     28.2588E-03    -29.5026E+06    -82.3272E+06    -1.19909E+06     867.945E+03    -54.7894E-03     105.798E-03    -51.0088E-03     71.9151E-03    -55.0387E-03     105.654E-03    -50.8526E-03     71.3617E-03
            1954     8.55592E-03     28.1868E-03    -32.3903E+06    -97.4351E+06    -3.12416E+06     805.861E+03    -54.0529E-03     104.831E-03    -50.7786E-03     66.2433E-03    -54.2323E-03     104.559E-03    -50.6060E-03     65.7857E-03
            1955     7.70215E-03     28.1208E-03    -35.6390E+06    -110.099E+06    -5.13980E+06     825.715E+03    -53.3225E-03     103.877E-03    -50.5549E-03     60.3133E-03    -53.4516E-03     103.504E-03    -50.3692E-03     59.9396E-03
            1956     6.84787E-03     28.0608E-03    -39.2328E+06    -121.291E+06    -8.78967E+06     807.351E+03    -52.6073E-03     102.941E-03    -50.3333E-03     54.2609E-03    -52.6986E-03     102.488E-03    -50.1445E-03     53.9593E-03
            1957     5.99319E-03     28.0071E-03    -43.2098E+06    -130.439E+06    -14.7691E+06     729.034E+03    -51.9094E-03     102.022E-03    -50.1131E-03     48.0111E-03    -51.9729E-03     101.512E-03    -49.9352E-03     47.7704E-03
            1958     5.13796E-03     27.9600E-03    -47.2561E+06    -137.089E+06    -23.5989E+06     785.635E+03    -51.2335E-03     101.130E-03    -49.8964E-03     41.5684E-03    -51.2757E-03     100.586E-03    -49.7471E-03     41.3815E-03
            1959     4.28234E-03     27.9197E-03    -51.1363E+06    -144.379E+06    -32.3448E+06     936.762E+03    -50.6430E-03     100.350E-03    -49.7067E-03     34.9950E-03    -50.6673E-03     99.7737E-03    -49.5849E-03     34.8551E-03
            1960     3.42635E-03     27.8863E-03    -54.8410E+06    -151.988E+06    -40.9712E+06     885.861E+03    -50.1483E-03     99.6930E-03    -49.5447E-03     28.2687E-03    -50.1577E-03     99.0869E-03    -49.4497E-03     28.1665E-03
            1961     2.57003E-03     27.8601E-03    -58.3323E+06    -161.825E+06    -49.0352E+06     725.876E+03    -49.7500E-03     99.1675E-03    -49.4176E-03     21.4169E-03    -49.7439E-03     98.5221E-03    -49.3435E-03     21.3455E-03
            1962     1.71347E-03     27.8411E-03    -61.3537E+06    -169.760E+06    -55.5805E+06     579.338E+03    -49.4589E-03     98.7865E-03    -49.3276E-03     14.5397E-03    -49.4426E-03     98.1109E-03    -49.2704E-03     14.4950E-03
            1963     856.766E-06     27.8294E-03    -63.5661E+06    -168.106E+06    -61.4632E+06     152.817E+03    -49.3040E-03     98.5475E-03    -49.2435E-03     7.86394E-03    -49.2900E-03     97.8894E-03    -49.2149E-03     7.83828E-03
            1964     16.2231E-03     27.9739E-03    -4.42294E+06     123.329E+06     85.9269E+06     327.878E+03    -57.3042E-03     110.211E-03    -52.9072E-03     75.6589E-03    -58.4101E-03     111.490E-03    -52.6499E-03     74.8895E-03
            1965     15.3723E-03     27.8705E-03    -9.40485E+06     121.131E+06     80.2079E+06    -269.961E+03    -57.8748E-03     110.543E-03    -52.6677E-03     100.423E-03    -59.3772E-03     112.209E-03    -52.4287E-03     99.3589E-03
            1966     14.5223E-03     27.7689E-03    -14.5631E+06     112.145E+06     61.8736E+06     272.838E+03    -58.0433E-03     110.402E-03    -52.3583E-03     106.642E-03    -59.4947E-03     112.020E-03    -52.1904E-03     105.480E-03
            1967     13.6710E-03     27.6538E-03    -18.3600E+06     97.3075E+06     31.4103E+06      617.56E+03    -58.0003E-03     109.983E-03    -51.9823E-03     109.014E-03    -59.3138E-03     111.485E-03    -51.9397E-03     107.816E-03
            1968     12.8201E-03     27.5473E-03    -20.6849E+06     49.0346E+06     8.44292E+06     770.685E+03    -57.3909E-03     109.071E-03    -51.6799E-03     98.9751E-03    -58.3598E-03     110.116E-03    -51.6788E-03     97.8843E-03
            1969     11.9687E-03     27.4514E-03    -22.8014E+06    -7.02756E+06     4.60437E+06     1.17492E+06    -56.8143E-03     108.287E-03    -51.4727E-03     88.6336E-03    -57.4766E-03     108.830E-03    -51.4064E-03     87.7082E-03
            1970     11.1167E-03     27.3650E-03    -24.9315E+06    -40.7668E+06     1.25544E+06     1.17798E+06    -56.2375E-03     107.461E-03    -51.2237E-03     81.4215E-03    -56.7044E-03     107.691E-03    -51.1222E-03     80.6406E-03
            1971     10.2648E-03     27.2831E-03    -27.0915E+06    -65.2290E+06    -88.4290E+03     959.761E+03    -55.5230E-03     106.491E-03    -50.9680E-03     76.1006E-03    -55.8589E-03     106.499E-03    -50.8345E-03     75.4442E-03
            1972     9.41205E-03     27.2068E-03    -29.5829E+06    -82.1452E+06    -1.37031E+06     950.617E+03    -54.7435E-03     105.451E-03    -50.7076E-03     70.7986E-03    -54.9887E-03     105.304E-03    -50.5524E-03     70.2525E-03
            1973     8.55871E-03     27.1357E-03    -32.3359E+06    -97.2266E+06    -3.34394E+06     941.799E+03    -53.9695E-03     104.419E-03    -50.4496E-03     65.1704E-03    -54.1452E-03     104.145E-03    -50.2784E-03     64.7205E-03
            1974     7.70486E-03     27.0706E-03    -35.5187E+06    -109.989E+06    -5.30826E+06     861.429E+03    -53.1830E-03     103.381E-03    -50.1984E-03     59.2436E-03    -53.3087E-03     103.006E-03    -50.0140E-03     58.8760E-03
            1975     6.85056E-03     27.0115E-03    -39.1898E+06    -121.048E+06    -8.90834E+06     921.138E+03    -52.3973E-03     102.348E-03    -49.9507E-03     53.2429E-03    -52.4865E-03     101.894E-03    -49.7629E-03     52.9479E-03
            1976     5.99560E-03     26.9587E-03    -43.2141E+06    -130.225E+06    -14.9815E+06     876.557E+03    -51.6204E-03     101.328E-03    -49.7077E-03     47.0525E-03    -51.6824E-03     100.818E-03    -49.5312E-03     46.8185E-03
            1977     5.14018E-03     26.9124E-03    -47.3586E+06    -137.010E+06    -23.7073E+06     879.504E+03    -50.9086E-03     100.381E-03    -49.4721E-03     40.7046E-03    -50.9502E-03     99.8366E-03    -49.3233E-03     40.5229E-03
            1978     4.28425E-03     26.8728E-03    -51.3018E+06    -144.190E+06    -32.3735E+06     947.166E+03    -50.2772E-03     99.5409E-03    -49.2637E-03     34.2595E-03    -50.3019E-03     98.9654E-03    -49.1421E-03     34.1230E-03
            1979     3.42792E-03     26.8400E-03    -54.9170E+06    -151.589E+06    -40.9957E+06     1.00274E+06    -49.7346E-03     98.8198E-03    -49.0851E-03     27.6573E-03    -49.7444E-03     98.2153E-03    -48.9907E-03     27.5593E-03
            1980     2.57125E-03     26.8143E-03    -58.1769E+06    -161.118E+06    -48.8153E+06     817.491E+03    -49.3096E-03     98.2548E-03    -48.9451E-03     20.9371E-03    -49.3039E-03     97.6121E-03    -48.8712E-03     20.8688E-03
            1981     1.71433E-03     26.7957E-03    -60.9803E+06    -168.929E+06    -55.1888E+06     242.944E+03    -48.9932E-03     97.8371E-03    -48.8440E-03     14.1873E-03    -48.9766E-03     97.1644E-03    -48.7865E-03     14.1395E-03
            1982     857.138E-06     26.7843E-03    -63.1611E+06    -167.917E+06    -61.2747E+06    -84.6923E+03    -48.8310E-03     97.5699E-03    -48.7389E-03     7.71055E-03    -48.8156E-03     96.9119E-03    -48.7102E-03     7.68256E-03
            1983     16.2243E-03     26.9148E-03    -4.26729E+06     123.277E+06     85.9645E+06     214.929E+03    -58.0895E-03     110.937E-03    -52.8471E-03     75.1875E-03    -59.1832E-03     112.203E-03    -52.5898E-03     74.4022E-03
            1984     15.3747E-03     26.8133E-03    -9.04220E+06     121.194E+06     80.5517E+06     952.883E+03    -58.1277E-03     110.705E-03    -52.5776E-03     100.463E-03    -59.6134E-03     112.356E-03    -52.3375E-03     99.4118E-03
            1985     14.5232E-03     26.7116E-03    -14.4841E+06     111.963E+06     61.7774E+06     696.908E+03    -58.3043E-03     110.551E-03    -52.2466E-03     106.230E-03    -59.7409E-03     112.154E-03    -52.0791E-03     105.071E-03
            1986     13.6730E-03     26.5974E-03    -18.4052E+06     97.0386E+06     31.0271E+06     347.620E+03    -58.3517E-03     110.193E-03    -51.8416E-03     107.984E-03    -59.6509E-03     111.682E-03    -51.8005E-03     106.779E-03
            1987     12.8223E-03     26.4913E-03    -21.0682E+06     48.9103E+06     8.03432E+06     938.199E+03    -57.7822E-03     109.284E-03    -51.5020E-03     97.8530E-03    -58.7425E-03     110.320E-03    -51.5022E-03     96.7620E-03
            1988     11.9711E-03     26.3970E-03    -23.1387E+06    -6.90445E+06     4.20549E+06     1.23064E+06    -57.1035E-03     108.358E-03    -51.2542E-03     87.5391E-03    -57.7594E-03     108.895E-03    -51.1896E-03     86.6156E-03
            1989     11.1198E-03     26.3106E-03    -24.9432E+06    -40.4903E+06     1.08697E+06     1.11837E+06    -56.3707E-03     107.340E-03    -50.9694E-03     80.1661E-03    -56.8312E-03     107.565E-03    -50.8690E-03     79.3883E-03
            1990     10.2677E-03     26.2306E-03    -27.0246E+06    -64.6715E+06    -117.362E+03     1.09627E+06    -55.5492E-03     106.231E-03    -50.6822E-03     74.8843E-03    -55.8800E-03     106.237E-03    -50.5498E-03     74.2355E-03
            1991     9.41491E-03     26.1550E-03    -29.4844E+06    -81.9374E+06    -1.55659E+06     1.03463E+06    -54.7165E-03     105.108E-03    -50.3920E-03     69.6974E-03    -54.9569E-03     104.958E-03    -50.2382E-03     69.1586E-03
            1992     8.56171E-03     26.0851E-03    -32.2895E+06    -97.0308E+06    -3.55244E+06     1.04194E+06    -53.8922E-03     103.996E-03    -50.1040E-03     64.0148E-03    -54.0642E-03     103.719E-03    -49.9342E-03     63.5717E-03
            1993     7.70783E-03     26.0209E-03    -35.5378E+06    -109.725E+06    -5.55256E+06     1.03721E+06    -53.0234E-03     102.847E-03    -49.8237E-03     58.1531E-03    -53.1464E-03     102.471E-03    -49.6409E-03     57.7935E-03
            1994     6.85326E-03     25.9628E-03    -39.2289E+06    -120.930E+06    -9.11659E+06     1.03903E+06    -52.1588E-03     101.710E-03    -49.5510E-03     52.1783E-03    -52.2458E-03     101.255E-03    -49.3643E-03     51.8903E-03
            1995     5.99817E-03     25.9109E-03    -43.2471E+06    -129.927E+06    -15.0127E+06     1.09196E+06    -51.3256E-03     100.612E-03    -49.2860E-03     46.0649E-03    -51.3865E-03     100.101E-03    -49.1100E-03     45.8385E-03
            1996     5.14244E-03     25.8656E-03    -47.3540E+06    -136.796E+06    -23.8176E+06     1.04148E+06    -50.5666E-03     99.5960E-03    -49.0294E-03     39.8279E-03    -50.6072E-03     99.0519E-03    -48.8815E-03     39.6523E-03
            1997     4.28625E-03     25.8267E-03    -51.3406E+06    -143.919E+06    -32.2732E+06     1.00714E+06    -49.8882E-03     98.6917E-03    -48.8034E-03     33.4833E-03    -49.9129E-03     98.1167E-03    -48.6817E-03     33.3509E-03
            1998     3.42957E-03     25.7947E-03    -55.2042E+06    -151.426E+06    -40.8261E+06     1.10489E+06    -49.3051E-03     97.9150E-03    -48.6099E-03     27.0164E-03    -49.3164E-03     97.3111E-03    -48.5144E-03     26.9223E-03
            1999     2.57252E-03     25.7694E-03    -58.7405E+06    -159.870E+06    -49.4598E+06     854.849E+03    -48.8503E-03     97.3010E-03    -48.4506E-03     20.4456E-03    -48.8480E-03     96.6660E-03    -48.3810E-03     20.3798E-03
            2000     1.71518E-03     25.7513E-03    -61.7214E+06    -168.042E+06    -56.4542E+06     11.7978E+03    -48.5295E-03     96.8568E-03    -48.3273E-03     13.8596E-03    -48.5160E-03     96.1914E-03    -48.2765E-03     13.8101E-03
            2001     857.746E-06     25.7400E-03    -63.7781E+06    -168.374E+06    -61.9465E+06    -266.360E+03    -48.2959E-03     96.5196E-03    -48.2237E-03     7.55989E-03    -48.2819E-03     95.8612E-03    -48.1968E-03     7.53027E-03
            2002     16.2247E-03     25.8561E-03    -4.73584E+06     122.465E+06     85.0973E+06     285.100E+03    -58.4845E-03     111.313E-03    -52.8281E-03     75.7570E-03    -59.5781E-03     112.577E-03    -52.5733E-03     74.9530E-03
            2003     15.3742E-03     25.7549E-03    -9.63720E+06     120.541E+06     80.2451E+06     637.740E+03    -59.1244E-03     111.646E-03    -52.5220E-03     100.193E-03    -60.6078E-03     113.291E-03    -52.2816E-03     99.1055E-03
            2004     14.5254E-03     25.6540E-03    -13.6225E+06     112.699E+06     62.9850E+06     981.825E+03    -59.0353E-03     111.174E-03    -52.1389E-03     105.110E-03    -60.4591E-03     112.767E-03    -51.9676E-03     103.937E-03
            2005     13.6752E-03     25.5404E-03    -18.0738E+06     97.0280E+06     31.1113E+06     1.16406E+06    -58.7760E-03     110.460E-03    -51.6842E-03     106.808E-03    -60.0611E-03     111.935E-03    -51.6431E-03     105.607E-03
            2006     12.8247E-03     25.4356E-03    -21.2580E+06     48.8258E+06     7.61948E+06     1.04118E+06    -58.1457E-03     109.448E-03    -51.3024E-03     96.4241E-03    -59.0955E-03     110.474E-03    -51.3043E-03     95.3317E-03
            2007     11.9742E-03     25.3418E-03    -23.0178E+06    -6.57271E+06     4.01347E+06     1.01941E+06    -57.2945E-03     108.311E-03    -51.0166E-03     86.1484E-03    -57.9410E-03     108.841E-03    -50.9536E-03     85.2251E-03
            2008     11.1227E-03     25.2571E-03    -24.7849E+06    -40.4363E+06     878.895E+03     1.05922E+06    -56.3954E-03     107.097E-03    -50.7018E-03     78.9221E-03    -56.8473E-03     107.315E-03    -50.6029E-03     78.1506E-03
            2009     10.2706E-03     25.1780E-03    -26.8290E+06    -64.4187E+06    -194.615E+03     1.14454E+06    -55.5713E-03     105.958E-03    -50.3871E-03     73.6251E-03    -55.8959E-03     105.960E-03    -50.2557E-03     72.9826E-03
            2010     9.41813E-03     25.1037E-03    -29.3601E+06    -81.6245E+06    -1.63252E+06     1.23579E+06    -54.7029E-03     104.769E-03    -50.0658E-03     68.4651E-03    -54.9387E-03     104.615E-03    -49.9130E-03     67.9344E-03
            2011     8.56475E-03     25.0347E-03    -32.2720E+06    -96.8688E+06    -3.79078E+06     1.19988E+06    -53.7792E-03     103.527E-03    -49.7473E-03     62.8443E-03    -53.9474E-03     103.247E-03    -49.5790E-03     62.4096E-03
            2012     7.71075E-03     24.9718E-03    -35.4390E+06    -109.511E+06    -5.67763E+06     1.23441E+06    -52.8421E-03     102.283E-03    -49.4405E-03     57.0055E-03    -52.9619E-03     101.904E-03    -49.2587E-03     56.6544E-03
            2013     6.85612E-03     24.9148E-03    -39.1298E+06    -120.701E+06    -9.28441E+06     1.26435E+06    -51.9069E-03     101.050E-03    -49.1431E-03     51.0958E-03    -51.9913E-03     100.594E-03    -48.9578E-03     50.8163E-03
            2014     6.00075E-03     24.8641E-03    -43.1919E+06    -129.681E+06    -15.1732E+06     1.24159E+06    -51.0254E-03     99.8813E-03    -48.8559E-03     45.0759E-03    -51.0845E-03     99.3708E-03    -48.6811E-03     44.8563E-03
            2015     5.14482E-03     24.8195E-03    -47.3318E+06    -136.483E+06    -23.8295E+06     1.28919E+06    -50.2126E-03     98.7923E-03    -48.5797E-03     38.9427E-03    -50.2523E-03     98.2486E-03    -48.4323E-03     38.7745E-03
            2016     4.28827E-03     24.7817E-03    -51.5158E+06    -143.588E+06    -32.5247E+06     1.32756E+06    -49.4852E-03     97.8208E-03    -48.3356E-03     32.7117E-03    -49.5101E-03     97.2474E-03    -48.2153E-03     32.5869E-03
            2017     3.43125E-03     24.7502E-03    -55.5757E+06    -151.174E+06    -41.0665E+06     1.36926E+06    -48.8677E-03     96.9955E-03    -48.1279E-03     26.3884E-03    -48.8803E-03     96.3933E-03    -48.0334E-03     26.3004E-03
            2018     2.57381E-03     24.7257E-03    -59.1658E+06    -158.530E+06    -50.0964E+06     1.12454E+06    -48.3814E-03     96.3344E-03    -47.9530E-03     19.9716E-03    -48.3820E-03     95.7074E-03    -47.8878E-03     19.9113E-03
            2019     1.71608E-03     24.7079E-03    -62.2877E+06    -166.813E+06    -57.2905E+06     232.557E+03    -48.0306E-03     95.8523E-03    -47.8218E-03     13.5399E-03    -48.0203E-03     95.1949E-03    -47.7760E-03     13.4946E-03
            2020     858.075E-06     24.6970E-03    -64.7037E+06    -169.113E+06    -62.8215E+06    -490.692E+03    -47.7849E-03     95.5099E-03    -47.7251E-03     7.32853E-03    -47.7731E-03     94.8504E-03    -47.7002E-03     7.29666E-03
            2021     16.2228E-03     24.7965E-03    -4.50929E+06     122.546E+06     85.4582E+06     530.745E+03    -59.4604E-03     112.266E-03    -52.8060E-03     74.0434E-03    -60.5411E-03     113.518E-03    -52.5499E-03     73.2167E-03
            2022     15.3760E-03     24.6940E-03    -9.53809E+06     120.445E+06     79.8111E+06     115.785E+03    -59.8105E-03     112.255E-03    -52.4446E-03     98.0355E-03    -61.2730E-03     113.880E-03    -52.2064E-03     96.9165E-03
            2023     14.5270E-03     24.5962E-03    -14.4004E+06     111.836E+06     62.0375E+06     749.396E+03    -59.6264E-03     111.641E-03    -52.0150E-03     103.786E-03    -61.0378E-03     113.219E-03    -51.8461E-03     102.594E-03
            2024     13.6775E-03     24.4832E-03    -17.7096E+06     97.3531E+06     31.7957E+06     1.59497E+06    -59.3701E-03     110.887E-03    -51.5172E-03     105.728E-03    -60.6435E-03     112.351E-03    -51.4737E-03     104.523E-03
            2025     12.8279E-03     24.3793E-03    -20.0148E+06     49.4905E+06     8.33785E+06     1.39753E+06    -58.4505E-03     109.540E-03    -51.0896E-03     95.1358E-03    -59.3836E-03     110.554E-03    -51.0907E-03     94.0486E-03
            2026     11.9771E-03     24.2871E-03    -22.2375E+06    -6.54902E+06     4.09770E+06     1.10029E+06    -57.3772E-03     108.147E-03    -50.7699E-03     84.8093E-03    -58.0103E-03     108.666E-03    -50.7077E-03     83.8929E-03
            2027     11.1258E-03     24.2037E-03    -24.4348E+06    -40.2792E+06     828.681E+03     1.22931E+06    -56.4276E-03     106.856E-03    -50.4281E-03     77.6616E-03    -56.8702E-03     107.066E-03    -50.3301E-03     76.8994E-03
            2028     10.2739E-03     24.1256E-03    -26.8156E+06    -64.4044E+06    -438.780E+03     1.35493E+06    -55.5807E-03     105.666E-03    -50.0849E-03     72.3899E-03    -55.8992E-03     105.662E-03    -49.9549E-03     71.7564E-03
            2029     9.42118E-03     24.0526E-03    -29.3667E+06    -81.5093E+06    -1.83872E+06     1.43727E+06    -54.6458E-03     104.381E-03    -49.7348E-03     67.2313E-03    -54.8771E-03     104.224E-03    -49.5832E-03     66.7094E-03
            2030     8.56786E-03     23.9850E-03    -32.1193E+06    -96.4000E+06    -3.90706E+06     1.43483E+06    -53.6482E-03     103.037E-03    -49.3887E-03     61.6525E-03    -53.8124E-03     102.756E-03    -49.2219E-03     61.2274E-03
            2031     7.71379E-03     23.9232E-03    -35.4100E+06    -109.465E+06    -6.02019E+06     1.43124E+06    -52.6310E-03     101.688E-03    -49.0572E-03     55.8515E-03    -52.7473E-03     101.308E-03    -48.8772E-03     55.5093E-03
            2032     6.85888E-03     23.8675E-03    -39.0805E+06    -120.449E+06    -9.62092E+06     1.54797E+06    -51.6465E-03     100.384E-03    -48.7376E-03     50.0274E-03    -51.7284E-03     99.9276E-03    -48.5544E-03     49.7571E-03
            2033     6.00334E-03     23.8178E-03    -43.1562E+06    -129.306E+06    -15.6627E+06     1.55147E+06    -50.7115E-03     99.1410E-03    -48.4295E-03     44.1004E-03    -50.7687E-03     98.6314E-03    -48.2578E-03     43.8897E-03
            2034     5.14709E-03     23.7745E-03    -47.3693E+06    -136.330E+06    -24.2389E+06     1.60686E+06    -49.8544E-03     97.9909E-03    -48.1365E-03     38.0806E-03    -49.8928E-03     97.4475E-03    -47.9913E-03     37.9206E-03
            2035     4.29026E-03     23.7373E-03    -51.3898E+06    -143.148E+06    -32.7101E+06     1.71932E+06    -49.0906E-03     96.9676E-03    -47.8770E-03     31.9534E-03    -49.1144E-03     96.3957E-03    -47.7585E-03     31.8371E-03
            2036     3.43286E-03     23.7069E-03    -55.1816E+06    -150.531E+06    -40.9610E+06     1.59270E+06    -48.4375E-03     96.0942E-03    -47.6567E-03     25.7535E-03    -48.4488E-03     95.4940E-03    -47.5632E-03     25.6711E-03
            2037     2.57505E-03     23.6828E-03    -58.4550E+06    -157.367E+06    -49.4849E+06     1.23562E+06    -47.9160E-03     95.3901E-03    -47.4741E-03     19.4886E-03    -47.9154E-03     94.7668E-03    -47.4086E-03     19.4317E-03
            2038     1.71689E-03     23.6656E-03    -61.0776E+06    -165.290E+06    -56.6082E+06     583.487E+03    -47.5402E-03     94.8820E-03    -47.3419E-03     13.1931E-03    -47.5269E-03     94.2293E-03    -47.2967E-03     13.1537E-03
            2039     858.518E-06     23.6549E-03    -63.1491E+06    -169.488E+06    -61.7991E+06    -268.035E+03    -47.3205E-03     94.5663E-03    -47.2457E-03     7.13062E-03    -47.3019E-03     93.9011E-03    -47.2174E-03     7.10230E-03
            2040     16.2276E-03     23.7339E-03    -4.33722E+06     122.162E+06     85.3286E+06     395.920E+03    -60.3185E-03     113.064E-03    -52.7454E-03     73.1775E-03    -61.3813E-03     114.298E-03    -52.4896E-03     72.3335E-03
            2041     15.3779E-03     23.6362E-03    -9.06011E+06     120.526E+06     80.1046E+06     1.24554E+06    -60.1151E-03     112.464E-03    -52.3492E-03     97.3982E-03    -61.5529E-03     114.065E-03    -52.1103E-03     96.2901E-03
            2042     14.5284E-03     23.5365E-03    -14.3081E+06     111.583E+06     61.5037E+06     938.510E+03    -60.1653E-03     112.050E-03    -51.8846E-03     102.804E-03    -61.5559E-03     113.608E-03    -51.7181E-03     101.607E-03
            2043     13.6802E-03     23.4256E-03    -17.9348E+06     97.0682E+06     31.4648E+06     651.553E+03    -59.8058E-03     111.153E-03    -51.3470E-03     104.350E-03    -61.0613E-03     112.598E-03    -51.3044E-03     103.130E-03
            2044     12.8302E-03     23.3229E-03    -19.9218E+06     49.5785E+06     8.45555E+06     1.47373E+06    -58.6697E-03     109.554E-03    -50.8844E-03     93.9314E-03    -59.5894E-03     110.555E-03    -50.8851E-03     92.8500E-03
            2045     11.9801E-03     23.2326E-03    -21.8919E+06    -6.04251E+06     3.99349E+06     1.85127E+06    -57.5741E-03     108.104E-03    -50.5298E-03     83.5315E-03    -58.1967E-03     108.616E-03    -50.4693E-03     82.6292E-03
            2046     11.1289E-03     23.1503E-03    -24.4306E+06    -39.8820E+06     528.279E+03     1.71713E+06    -56.5245E-03     106.679E-03    -50.1546E-03     76.4118E-03    -56.9600E-03     106.885E-03    -50.0587E-03     75.6619E-03
            2047     10.2769E-03     23.0736E-03    -26.8462E+06    -64.3108E+06    -886.793E+03     1.60697E+06    -55.5397E-03     105.323E-03    -49.7829E-03     71.1787E-03    -55.8520E-03     105.314E-03    -49.6552E-03     70.5558E-03
            2048     9.42431E-03     23.0019E-03    -29.2499E+06    -81.3421E+06    -2.10789E+06     1.60642E+06    -54.5516E-03     103.960E-03    -49.4087E-03     65.9970E-03    -54.7777E-03     103.800E-03    -49.2589E-03     65.4839E-03
            2049     8.57091E-03     22.9356E-03    -32.1050E+06    -96.1094E+06    -4.20550E+06     1.70126E+06    -53.4821E-03     102.521E-03    -49.0393E-03     60.4619E-03    -53.6426E-03     102.239E-03    -48.8745E-03     60.0469E-03
            2050     7.71658E-03     22.8753E-03    -35.3106E+06    -109.205E+06    -6.33474E+06     1.70458E+06    -52.4145E-03     101.101E-03    -48.6868E-03     54.7480E-03    -52.5273E-03     100.720E-03    -48.5089E-03     54.4157E-03
            2051     6.86161E-03     22.8207E-03    -38.9026E+06    -120.331E+06    -10.0434E+06     1.76732E+06    -51.3862E-03     99.7334E-03    -48.3472E-03     48.9642E-03    -51.4646E-03     99.2757E-03    -48.1666E-03     48.7023E-03
            2052     6.00578E-03     22.7724E-03    -42.8272E+06    -128.974E+06    -15.8413E+06     1.94753E+06    -50.4007E-03     98.4228E-03    -48.0221E-03     43.1124E-03    -50.4549E-03     97.9130E-03    -47.8522E-03     42.9117E-03
            2053     5.14926E-03     22.7300E-03    -46.9535E+06    -135.990E+06    -24.3026E+06     2.00724E+06    -49.5020E-03     97.2163E-03    -47.7142E-03     37.1936E-03    -49.5376E-03     96.6729E-03    -47.5705E-03     37.0430E-03
            2054     4.29212E-03     22.6940E-03    -50.9659E+06    -142.615E+06    -32.4429E+06     1.93953E+06    -48.7038E-03     96.1472E-03    -47.4434E-03     31.1941E-03    -48.7260E-03     95.5762E-03    -47.3249E-03     31.0840E-03
            2055     3.43444E-03     22.6643E-03    -54.6387E+06    -149.538E+06    -40.6865E+06     1.66206E+06    -48.0254E-03     95.2368E-03    -47.2114E-03     25.1413E-03    -48.0353E-03     94.6399E-03    -47.1188E-03     25.0625E-03
            2056     2.57625E-03     22.6410E-03    -57.7378E+06    -156.314E+06    -49.4551E+06     1.18338E+06    -47.4809E-03     94.4999E-03    -47.0190E-03     19.0057E-03    -47.4780E-03     93.8805E-03    -46.9558E-03     18.9500E-03
            2057     1.71768E-03     22.6242E-03    -60.0115E+06    -163.953E+06    -56.3429E+06     686.362E+03    -47.0881E-03     93.9705E-03    -46.8824E-03     12.8465E-03    -47.0717E-03     93.3225E-03    -46.8394E-03     12.8096E-03
            2058     858.900E-06     22.6139E-03    -61.4677E+06    -169.229E+06    -60.6261E+06     133.100E+03    -46.8549E-03     93.6580E-03    -46.8031E-03     6.96381E-03    -46.8299E-03     92.9899E-03    -46.7717E-03     6.94137E-03
            2059     16.2249E-03     22.6741E-03    -4.41018E+06     121.309E+06     84.4872E+06     477.495E+03    -60.9324E-03     113.656E-03    -52.7232E-03     73.4579E-03    -61.9886E-03     114.882E-03    -52.4703E-03     72.5908E-03
            2060     15.3779E-03     22.5748E-03    -9.39391E+06     120.056E+06     79.9793E+06     906.765E+03    -61.3152E-03     113.594E-03    -52.2787E-03     96.6744E-03    -62.7434E-03     115.183E-03    -52.0393E-03     95.5261E-03
            2061     14.5313E-03     22.4776E-03    -13.3149E+06     112.273E+06     62.5117E+06     1.05314E+06    -60.7952E-03     112.552E-03    -51.7565E-03     101.362E-03    -62.1642E-03     114.091E-03    -51.5875E-03     100.155E-03
            2062     13.6820E-03     22.3673E-03    -17.4843E+06     96.5910E+06     30.7847E+06     1.18075E+06    -60.0174E-03     111.193E-03    -51.1754E-03     102.816E-03    -61.2501E-03     112.617E-03    -51.1362E-03     101.606E-03
            2063     12.8330E-03     22.2670E-03    -20.8357E+06     49.1005E+06     7.19751E+06     1.53628E+06    -58.8797E-03     109.562E-03    -50.6821E-03     92.2760E-03    -59.7882E-03     110.550E-03    -50.6871E-03     91.1979E-03
            2064     11.9826E-03     22.1774E-03    -22.9951E+06    -5.52408E+06     3.29347E+06     2.07659E+06    -57.7119E-03     108.010E-03    -50.2980E-03     82.0875E-03    -58.3296E-03     108.517E-03    -50.2401E-03     81.1938E-03
            2065     11.1319E-03     22.0973E-03    -24.7885E+06    -39.2993E+06     193.018E+03     2.01290E+06    -56.6024E-03     106.496E-03    -49.8934E-03     75.0517E-03    -57.0331E-03     106.698E-03    -49.7995E-03     74.3109E-03
            2066     10.2800E-03     22.0219E-03    -26.7724E+06    -63.9069E+06    -1.16667E+06     1.77061E+06    -55.5049E-03     105.000E-03    -49.4948E-03     70.0094E-03    -55.8113E-03     104.988E-03    -49.3691E-03     69.3958E-03
            2067     9.42727E-03     21.9515E-03    -29.2457E+06    -81.2975E+06    -2.50741E+06     1.80112E+06    -54.4166E-03     103.516E-03    -49.0990E-03     64.8294E-03    -54.6376E-03     103.351E-03    -48.9513E-03     64.3262E-03
            2068     8.57365E-03     21.8869E-03    -31.9601E+06    -95.8636E+06    -4.39821E+06     1.92388E+06    -53.3117E-03     102.023E-03    -48.7113E-03     59.2821E-03    -53.4679E-03     101.738E-03    -48.5479E-03     58.8768E-03
            2069     7.71933E-03     21.8278E-03    -35.1050E+06    -108.852E+06    -6.41982E+06     1.98473E+06    -52.2037E-03     100.544E-03    -48.3405E-03     53.6136E-03    -52.3131E-03     100.161E-03    -48.1639E-03     53.2910E-03
            2070     6.86407E-03     21.7747E-03    -38.7173E+06    -120.096E+06    -10.2862E+06     2.01329E+06    -51.1259E-03     99.1092E-03    -47.9833E-03     47.8893E-03    -51.2012E-03     98.6506E-03    -47.8045E-03     47.6362E-03
            2071     6.00808E-03     21.7275E-03    -42.5813E+06    -128.898E+06    -16.3465E+06     2.21728E+06    -50.1114E-03     97.7529E-03    -47.6414E-03     42.1329E-03    -50.1621E-03     97.2422E-03    -47.4745E-03     41.9406E-03
            2072     5.15133E-03     21.6865E-03    -46.5195E+06    -135.486E+06    -24.5287E+06     2.42997E+06    -49.1735E-03     96.4934E-03    -47.3199E-03     36.2946E-03    -49.2061E-03     95.9511E-03    -47.1786E-03     36.1535E-03
            2073     4.29386E-03     21.6514E-03    -50.4161E+06    -141.722E+06    -32.3134E+06     2.19399E+06    -48.3356E-03     95.3746E-03    -47.0390E-03     30.4103E-03    -48.3557E-03     94.8064E-03    -46.9220E-03     30.3069E-03
            2074     3.43580E-03     21.6226E-03    -54.1129E+06    -148.462E+06    -40.5865E+06     1.75022E+06    -47.6386E-03     94.4366E-03    -46.7981E-03     24.4748E-03    -47.6471E-03     93.8437E-03    -46.7073E-03     24.3997E-03
            2075     2.57729E-03     21.6000E-03    -57.3272E+06    -155.259E+06    -49.3792E+06     1.34702E+06    -47.0798E-03     93.6776E-03    -46.5978E-03     18.4825E-03    -47.0762E-03     93.0625E-03    -46.5364E-03     18.4307E-03
            2076     1.71845E-03     21.5838E-03    -59.8671E+06    -162.774E+06    -56.1277E+06     907.048E+03    -46.6659E-03     93.1226E-03    -46.4567E-03     12.4972E-03    -46.6507E-03     92.4798E-03    -46.4145E-03     12.4644E-03
            2077     859.264E-06     21.5738E-03    -61.7539E+06    -168.438E+06    -60.6212E+06     475.113E+03    -46.4615E-03     92.8010E-03    -46.3396E-03     6.79457E-03    -46.4390E-03     92.1373E-03    -46.3089E-03     6.77727E-03
            2078     16.2256E-03     21.6105E-03    -4.38309E+06     121.219E+06     84.5749E+06     535.186E+03    -62.0742E-03     114.767E-03    -52.6929E-03     71.0616E-03    -63.1106E-03     115.973E-03    -52.4394E-03     70.1705E-03
            2079     15.3804E-03     21.5123E-03    -9.05233E+06     120.115E+06     79.8281E+06     172.750E+03    -61.9342E-03     114.126E-03    -52.1914E-03     94.2178E-03    -63.3344E-03     115.689E-03    -51.9533E-03     93.0402E-03
            2080     14.5325E-03     21.4181E-03    -13.8881E+06     111.464E+06     61.8478E+06     808.831E+03    -61.2330E-03     112.861E-03    -51.6284E-03     99.6957E-03    -62.5827E-03     114.378E-03    -51.4606E-03     98.4771E-03
            2081     13.6847E-03     21.3093E-03    -17.6808E+06     96.0600E+06     30.8825E+06     2.05824E+06    -60.3445E-03     111.359E-03    -51.0142E-03     101.270E-03    -61.5595E-03     112.762E-03    -50.9734E-03     100.070E-03
            2082     12.8354E-03     21.2104E-03    -20.5534E+06     49.2804E+06     7.21870E+06     2.46434E+06    -59.0346E-03     109.523E-03    -50.4880E-03     90.7525E-03    -59.9269E-03     110.496E-03    -50.4935E-03     89.6920E-03
            2083     11.9856E-03     21.1230E-03    -22.8561E+06    -4.96038E+06      3.1334E+06     1.99283E+06    -57.7609E-03     107.839E-03    -50.0777E-03     80.6616E-03    -58.3680E-03     108.338E-03    -50.0217E-03     79.7741E-03
            2084     11.1344E-03     21.0439E-03    -24.6277E+06    -38.9733E+06     44.8533E+03     1.87965E+06    -56.5710E-03     106.224E-03    -49.6525E-03     73.7606E-03    -56.9933E-03     106.420E-03    -49.5601E-03     73.0259E-03
            2085     10.2827E-03     20.9706E-03    -26.7363E+06    -63.6756E+06    -1.44554E+06     2.00922E+06    -55.4691E-03     104.702E-03    -49.2330E-03     68.7935E-03    -55.7697E-03     104.686E-03    -49.1091E-03     68.1897E-03
            2086     9.42984E-03     20.9016E-03    -29.1647E+06    -81.0935E+06    -2.74346E+06     2.03050E+06    -54.3168E-03     103.133E-03    -48.8167E-03     63.6492E-03    -54.5323E-03     102.966E-03    -48.6706E-03     63.1567E-03
            2087     8.57631E-03     20.8384E-03    -31.8699E+06    -95.6462E+06    -4.70987E+06     2.17631E+06    -53.1747E-03     101.584E-03    -48.4089E-03     58.0571E-03    -53.3264E-03     101.296E-03    -48.2476E-03     57.6618E-03
            2088     7.72174E-03     20.7809E-03    -35.0836E+06    -108.641E+06    -6.73606E+06     2.30515E+06    -52.0103E-03     100.030E-03    -48.0197E-03     52.3808E-03    -52.1163E-03     99.6453E-03    -47.8449E-03     52.0687E-03
            2089     6.86637E-03     20.7293E-03    -38.7747E+06    -119.799E+06    -10.6370E+06     2.46913E+06    -50.8851E-03     98.5310E-03    -47.6459E-03     46.7066E-03    -50.9581E-03     98.0719E-03    -47.4692E-03     46.4653E-03
            2090     6.01013E-03     20.6834E-03    -42.8509E+06    -128.652E+06    -17.1988E+06     2.57640E+06    -49.8424E-03     97.1291E-03    -47.2868E-03     41.0130E-03    -49.8917E-03     96.6195E-03    -47.1241E-03     40.8304E-03
            2091     5.15313E-03     20.6435E-03    -46.7304E+06    -134.941E+06    -25.2744E+06     2.59545E+06    -48.8745E-03     95.8251E-03    -46.9506E-03     35.2546E-03    -48.9066E-03     95.2856E-03    -46.8136E-03     35.1200E-03
            2092     4.29546E-03     20.6096E-03    -50.2766E+06    -140.554E+06    -32.6663E+06     2.35459E+06    -48.0106E-03     94.6669E-03    -46.6563E-03     29.4939E-03    -48.0303E-03     94.1039E-03    -46.5429E-03     29.3961E-03
            2093     3.43716E-03     20.5817E-03    -53.8145E+06    -147.530E+06    -40.6140E+06     2.03705E+06    -47.2808E-03     93.6856E-03    -46.4048E-03     23.6882E-03    -47.2886E-03     93.0964E-03    -46.3159E-03     23.6195E-03
            2094     2.57834E-03     20.5599E-03    -57.2323E+06    -154.100E+06    -49.0604E+06     1.77884E+06    -46.6928E-03     92.8901E-03    -46.1973E-03     17.8425E-03    -46.6906E-03     92.2799E-03    -46.1362E-03     17.7984E-03
            2095     1.71906E-03     20.5442E-03    -59.9281E+06    -161.355E+06    -55.8528E+06     1.20577E+06    -46.2756E-03     92.3215E-03    -46.0459E-03     12.0469E-03    -46.2630E-03     91.6853E-03    -46.0043E-03     12.0193E-03
            2096     859.611E-06     20.5345E-03    -61.6546E+06    -167.224E+06    -60.3404E+06     621.231E+03    -46.0430E-03     91.9647E-03    -45.9217E-03     6.57746E-03    -46.0221E-03     91.3064E-03    -45.8916E-03     6.56287E-03
            2097     16.2293E-03     20.5464E-03    -4.25265E+06     121.006E+06     84.6680E+06     270.183E+03    -62.9344E-03     115.580E-03    -52.6455E-03     70.7643E-03    -63.9548E-03     116.769E-03    -52.3915E-03     69.8532E-03
            2098     15.3812E-03     20.4521E-03    -8.78500E+06     119.897E+06     80.0917E+06     1.11905E+06    -62.3479E-03     114.455E-03    -52.1069E-03     93.4045E-03    -63.7202E-03     115.989E-03    -51.8676E-03     92.2354E-03
            2099     14.5344E-03     20.3566E-03    -14.3791E+06     110.494E+06     61.0225E+06     1.49515E+06    -61.5721E-03     113.084E-03    -51.5116E-03     98.0950E-03    -62.8956E-03     114.571E-03    -51.3458E-03     96.8865E-03
            2100     13.6867E-03     20.2516E-03    -18.6193E+06     95.2666E+06     30.5259E+06     1.94253E+06    -60.5889E-03     111.460E-03    -50.8709E-03     99.6860E-03    -61.7851E-03     112.840E-03    -50.8294E-03     98.4899E-03
            2101     12.8377E-03     20.1537E-03    -20.7568E+06     49.9362E+06     7.59985E+06     2.39048E+06    -59.1695E-03     109.489E-03    -50.3193E-03     89.4695E-03    -60.0489E-03     110.450E-03    -50.3237E-03     88.4165E-03
            2102     11.9877E-03     20.0684E-03    -22.2184E+06    -4.18271E+06     2.95343E+06     2.30234E+06    -57.8239E-03     107.706E-03    -49.8825E-03     79.3074E-03    -58.4177E-03     108.198E-03    -49.8295E-03     78.4317E-03
            2103     11.1369E-03     19.9913E-03    -24.4592E+06    -39.0287E+06    -560.638E+03     2.11160E+06    -56.5808E-03     106.017E-03    -49.4364E-03     72.4896E-03    -56.9933E-03     106.206E-03    -49.3472E-03     71.7655E-03
            2104     10.2849E-03     19.9192E-03    -26.6188E+06    -63.3177E+06    -1.79556E+06     2.17705E+06    -55.4483E-03     104.445E-03    -48.9969E-03     67.4373E-03    -55.7418E-03     104.425E-03    -48.8755E-03     66.8428E-03
            2105     9.43235E-03     19.8521E-03    -28.9590E+06    -80.8308E+06    -3.07156E+06     2.36236E+06    -54.2913E-03     102.849E-03    -48.5578E-03     62.2397E-03    -54.5004E-03     102.677E-03    -48.4140E-03     61.7582E-03
            2106     8.57857E-03     19.7903E-03    -31.7990E+06    -95.5379E+06    -5.32624E+06     2.47318E+06    -53.0771E-03     101.203E-03    -48.1257E-03     56.6308E-03    -53.2231E-03     100.912E-03    -47.9677E-03     56.2466E-03
            2107     7.72408E-03     19.7345E-03    -34.9184E+06    -108.561E+06    -7.24471E+06     2.75408E+06    -51.8742E-03     99.5888E-03    -47.7146E-03     50.8965E-03    -51.9749E-03     99.2013E-03    -47.5428E-03     50.5970E-03
            2108     6.86852E-03     19.6843E-03    -38.6687E+06    -119.590E+06    -11.1873E+06     3.11286E+06    -50.7055E-03     98.0238E-03    -47.3183E-03     45.2573E-03    -50.7745E-03     97.5635E-03    -47.1448E-03     45.0307E-03
            2109     6.01217E-03     19.6399E-03    -42.6458E+06    -127.966E+06    -17.5245E+06     3.13537E+06    -49.6117E-03     96.5499E-03    -46.9382E-03     39.6014E-03    -49.6583E-03     96.0416E-03    -46.7784E-03     39.4316E-03
            2110     5.15500E-03     19.6013E-03    -46.5695E+06    -134.024E+06    -25.4439E+06     2.79394E+06    -48.6028E-03     95.1853E-03    -46.5824E-03     33.9300E-03    -48.6336E-03     94.6488E-03    -46.4478E-03     33.8028E-03
            2111     4.29705E-03     19.5685E-03    -50.3424E+06    -139.522E+06    -33.0485E+06     2.47678E+06    -47.6908E-03     93.9598E-03    -46.2690E-03     28.3149E-03    -47.7107E-03     93.4015E-03    -46.1589E-03     28.2227E-03
            2112     3.43847E-03     19.5415E-03    -53.8979E+06    -146.704E+06    -40.8264E+06     2.32875E+06    -46.9159E-03     92.9205E-03    -46.0046E-03     22.7168E-03    -46.9243E-03     92.3352E-03    -45.9178E-03     22.6550E-03
            2113     2.57935E-03     19.5205E-03    -56.8736E+06    -152.754E+06    -48.9507E+06     2.08236E+06    -46.3088E-03     92.0949E-03    -45.7860E-03     17.1006E-03    -46.3065E-03     91.4903E-03    -45.7268E-03     17.0628E-03
            2114     1.71986E-03     19.5054E-03    -59.2679E+06    -159.653E+06    -55.7378E+06     1.56948E+06    -45.8752E-03     91.4978E-03    -45.6226E-03     11.5486E-03    -45.8618E-03     90.8688E-03    -45.5839E-03     11.5272E-03
            2115     860.052E-06     19.4960E-03    -61.0625E+06    -165.607E+06    -60.1784E+06     867.055E+03    -45.5508E-03     91.1094E-03    -45.5586E-03     6.27086E-03    -45.5295E-03     90.4580E-03    -45.5308E-03     6.26014E-03
            2116     16.2251E-03     19.4824E-03    -4.48462E+06     120.121E+06     84.0947E+06     319.638E+03    -63.5930E-03     116.218E-03    -52.6247E-03     69.0204E-03    -64.5929E-03     117.384E-03    -52.3719E-03     68.0933E-03
            2117     15.3824E-03     19.3878E-03    -9.69006E+06     118.554E+06     79.3128E+06     1.02866E+06    -62.9960E-03     115.042E-03    -52.0461E-03     91.3002E-03    -64.3428E-03     116.545E-03    -51.8074E-03     90.1132E-03
            2118     14.5362E-03     19.2974E-03    -14.0980E+06     110.367E+06     61.7584E+06     2.00233E+06    -61.8852E-03     113.305E-03    -51.4193E-03     96.4011E-03    -63.1823E-03     114.764E-03    -51.2501E-03     95.1996E-03
            2119     13.6879E-03     19.1922E-03    -17.8319E+06     95.4204E+06     31.1688E+06     2.08429E+06    -60.7547E-03     111.507E-03    -50.7525E-03     98.0241E-03    -61.9264E-03     112.864E-03    -50.7091E-03     96.8357E-03
            2120     12.8396E-03     19.0978E-03    -20.4338E+06     49.9337E+06     7.05843E+06     2.12476E+06    -59.3068E-03     109.480E-03    -50.1736E-03     87.7661E-03    -60.1676E-03     110.426E-03    -50.1811E-03     86.7161E-03
            2121     11.9897E-03     19.0136E-03    -22.6429E+06    -4.05148E+06     2.09785E+06     2.54004E+06    -57.9149E-03     107.629E-03    -49.7137E-03     77.7517E-03    -58.4980E-03     108.111E-03    -49.6645E-03     76.8862E-03
            2122     11.1389E-03     18.9387E-03    -24.5174E+06    -38.1400E+06    -799.278E+03     2.47684E+06    -56.7028E-03     105.947E-03    -49.2440E-03     70.9341E-03    -57.1079E-03     106.132E-03    -49.1571E-03     70.2203E-03
            2123     10.2873E-03     18.8681E-03    -26.5597E+06    -63.1989E+06    -2.42628E+06     2.34072E+06    -55.5352E-03     104.310E-03    -48.7749E-03     65.8827E-03    -55.8202E-03     104.284E-03    -48.6569E-03     65.2969E-03
            2124     9.43450E-03     18.8027E-03    -28.8725E+06    -80.9966E+06    -3.71284E+06     2.64178E+06    -54.3408E-03     102.647E-03    -48.3057E-03     60.5219E-03    -54.5419E-03     102.468E-03    -48.1650E-03     60.0507E-03
            2125     8.58103E-03     18.7427E-03    -31.4913E+06    -95.1939E+06    -5.84853E+06     2.86620E+06    -53.0868E-03     100.927E-03    -47.8404E-03     54.7825E-03    -53.2254E-03     100.633E-03    -47.6860E-03     54.4106E-03
            2126     7.72633E-03     18.6884E-03    -34.6485E+06    -108.831E+06    -7.87662E+06     3.22056E+06    -51.8165E-03     99.2125E-03    -47.3960E-03     48.9875E-03    -51.9101E-03     98.8196E-03    -47.2273E-03     48.7012E-03
            2127     6.87087E-03     18.6399E-03    -38.1492E+06    -119.329E+06    -11.5403E+06     3.75230E+06    -50.5960E-03     97.5616E-03    -46.9656E-03     43.3391E-03    -50.6587E-03     97.0988E-03    -46.7949E-03     43.1274E-03
            2128     6.01436E-03     18.5969E-03    -42.0405E+06    -126.957E+06    -17.6697E+06     3.76125E+06    -49.4172E-03     95.9689E-03    -46.5517E-03     37.7413E-03    -49.4593E-03     95.4623E-03    -46.3950E-03     37.5859E-03
            2129     5.15703E-03     18.5596E-03    -46.0118E+06    -132.845E+06    -25.1891E+06     3.37901E+06    -48.3242E-03     94.4923E-03    -46.1681E-03     32.2079E-03    -48.3523E-03     93.9585E-03    -46.0347E-03     32.0939E-03
            2130     4.29890E-03     18.5281E-03    -50.0115E+06    -138.446E+06    -33.0494E+06     2.96270E+06    -47.3483E-03     93.1767E-03    -45.8284E-03     26.7693E-03    -47.3667E-03     92.6220E-03    -45.7204E-03     26.6882E-03
            2131     3.43999E-03     18.5022E-03    -53.6235E+06    -145.541E+06    -41.1988E+06     2.53228E+06    -46.5169E-03     92.0575E-03    -45.5406E-03     21.3928E-03    -46.5242E-03     91.4773E-03    -45.4578E-03     21.3375E-03
            2132     2.58051E-03     18.4819E-03    -56.5285E+06    -151.434E+06    -49.2128E+06     2.11649E+06    -45.8599E-03     91.1665E-03    -45.3067E-03     16.0768E-03    -45.8569E-03     90.5680E-03    -45.2512E-03     16.0422E-03
            2133     1.72056E-03     18.4674E-03    -58.5674E+06    -158.046E+06    -55.5634E+06     1.82790E+06    -45.3944E-03     90.5314E-03    -45.1370E-03     10.8265E-03    -45.3799E-03     89.9091E-03    -45.1008E-03     10.8104E-03
            2134     860.305E-06     18.4585E-03    -59.6410E+06    -163.184E+06    -59.0711E+06     1.32308E+06    -45.1010E-03     90.1404E-03    -45.0394E-03     5.79493E-03    -45.0776E-03     89.4974E-03    -45.0117E-03     5.79101E-03
            2135     16.2307E-03     18.4169E-03    -4.58530E+06     119.680E+06     83.7717E+06     809.938E+03    -64.3599E-03     116.973E-03    -52.6131E-03     67.4377E-03    -65.3357E-03     118.114E-03    -52.3611E-03     66.5085E-03
            2136     15.3832E-03     18.3256E-03    -9.44850E+06     118.266E+06     79.4653E+06     1.46504E+06    -63.3720E-03     115.374E-03    -52.0022E-03     89.7710E-03    -64.6856E-03     116.844E-03    -51.7627E-03     88.5876E-03
            2137     14.5366E-03     18.2357E-03    -14.1911E+06     109.823E+06     61.8920E+06     1.31334E+06    -62.2501E-03     113.599E-03    -51.3486E-03     94.4526E-03    -63.5198E-03     115.029E-03    -51.1778E-03     93.2423E-03
            2138     13.6899E-03     18.1342E-03    -17.3076E+06     95.1086E+06     31.1859E+06     2.18172E+06    -60.9839E-03     111.637E-03    -50.6526E-03     96.2091E-03    -62.1294E-03     112.968E-03    -50.6095E-03     95.0271E-03
            2139     12.8409E-03     18.0407E-03    -20.2987E+06     49.8880E+06     6.40408E+06     3.10234E+06    -59.4962E-03     109.542E-03    -50.0457E-03     85.9762E-03    -60.3382E-03     110.470E-03    -50.0565E-03     84.9442E-03
            2140     11.9915E-03     17.9594E-03    -22.6161E+06    -3.21177E+06     1.77209E+06     2.69268E+06    -58.1541E-03     107.712E-03    -49.5575E-03     75.9238E-03    -58.7248E-03     108.186E-03    -49.5112E-03     75.0645E-03
            2141     11.1409E-03     17.8855E-03    -24.3239E+06    -37.7920E+06    -1.17982E+06     2.43281E+06    -56.9386E-03     105.992E-03    -49.0533E-03     69.0278E-03    -57.3316E-03     106.168E-03    -48.9691E-03     68.3190E-03
            2142     10.2894E-03     17.8172E-03    -26.2326E+06    -63.1405E+06    -2.85143E+06     2.67734E+06    -55.8135E-03     104.355E-03    -48.5419E-03     63.7667E-03    -56.0873E-03     104.320E-03    -48.4266E-03     63.1902E-03
            2143     9.43703E-03     17.7533E-03    -28.5898E+06    -81.0704E+06    -4.13146E+06     2.89782E+06    -54.5750E-03     102.598E-03    -48.0229E-03     58.1217E-03    -54.7655E-03     102.411E-03    -47.8846E-03     57.6606E-03
            2144     8.58358E-03     17.6951E-03    -31.2233E+06    -95.0582E+06    -6.28787E+06     3.32756E+06    -53.2317E-03     100.735E-03    -47.5035E-03     52.1204E-03    -53.3612E-03     100.435E-03    -47.3518E-03     51.7624E-03
            2145     7.72924E-03     17.6427E-03    -34.2998E+06    -108.885E+06    -8.27375E+06     3.75672E+06    -51.8714E-03     98.8753E-03    -47.0038E-03     46.2532E-03    -51.9564E-03     98.4760E-03    -46.8376E-03     45.9825E-03
            2146     6.87367E-03     17.5958E-03    -37.8122E+06    -119.213E+06    -11.9148E+06     4.28329E+06    -50.5230E-03     97.0412E-03    -46.5182E-03     40.5682E-03    -50.5787E-03     96.5741E-03    -46.3500E-03     40.3722E-03
            2147     6.01723E-03     17.5545E-03    -41.5281E+06    -125.809E+06    -17.8601E+06     4.45177E+06    -49.2087E-03     95.2610E-03    -46.0524E-03     35.0635E-03    -49.2457E-03     94.7559E-03    -45.8990E-03     34.9256E-03
            2148     5.15966E-03     17.5187E-03    -45.4106E+06    -131.491E+06    -24.9957E+06     4.02597E+06    -47.9901E-03     93.6156E-03    -45.6255E-03     29.7412E-03    -48.0147E-03     93.0847E-03    -45.4940E-03     29.6433E-03
            2149     4.30119E-03     17.4885E-03    -49.0989E+06    -137.023E+06    -32.4554E+06     3.50121E+06    -46.9238E-03     92.1718E-03    -45.2480E-03     24.5809E-03    -46.9387E-03     91.6201E-03    -45.1404E-03     24.5132E-03
            2150     3.44201E-03     17.4638E-03    -52.6809E+06    -144.107E+06    -40.8914E+06     3.02970E+06    -46.0227E-03     90.9453E-03    -44.9226E-03     19.5390E-03    -46.0267E-03     90.3692E-03    -44.8417E-03     19.4954E-03
            2151     2.58212E-03     17.4445E-03    -55.9670E+06    -149.872E+06    -48.8041E+06     2.50892E+06    -45.2779E-03     89.9368E-03    -44.6589E-03     14.6130E-03    -45.2744E-03     89.3440E-03    -44.6044E-03     14.5875E-03
            2152     1.72170E-03     17.4306E-03    -58.5390E+06    -156.517E+06    -54.8672E+06     2.02755E+06    -44.7490E-03     89.2195E-03    -44.4706E-03     9.80385E-03    -44.7372E-03     88.6034E-03    -44.4331E-03     9.79304E-03
            2153     861.018E-06     17.4221E-03    -60.4261E+06    -160.194E+06    -59.1940E+06     1.67098E+06    -44.4742E-03     88.7751E-03    -44.3009E-03     5.24806E-03    -44.4588E-03     88.1483E-03    -44.2770E-03     5.25016E-03
            2154     16.2250E-03     17.3512E-03    -4.85965E+06     118.489E+06     82.8121E+06     919.177E+03    -64.9877E-03     117.613E-03    -52.6253E-03     66.2456E-03    -65.9425E-03     118.731E-03    -52.3760E-03     65.3019E-03
            2155     15.3831E-03     17.2612E-03    -9.18804E+06     118.191E+06     79.6895E+06     1.28304E+06    -64.1231E-03     116.100E-03    -51.9772E-03     87.1342E-03    -65.4044E-03     117.538E-03    -51.7368E-03     85.9334E-03
            2156     14.5382E-03     17.1747E-03    -13.4908E+06     109.874E+06     61.8992E+06     1.53902E+06    -62.4983E-03     113.784E-03    -51.2862E-03     92.0392E-03    -63.7345E-03     115.183E-03    -51.1164E-03     90.8330E-03
            2157     13.6904E-03     17.0750E-03    -18.4379E+06     93.3890E+06     30.4419E+06     2.63459E+06    -61.2980E-03     111.863E-03    -50.5649E-03     94.0742E-03    -62.4206E-03     113.163E-03    -50.5214E-03     92.8990E-03
            2158     12.8425E-03     16.9842E-03    -20.9208E+06     50.3297E+06     6.54435E+06     3.13171E+06    -59.8946E-03     109.818E-03    -49.9232E-03     83.7590E-03    -60.7205E-03     110.729E-03    -49.9331E-03     82.7278E-03
            2159     11.9932E-03     16.9041E-03    -22.2122E+06    -1.78810E+06     1.45106E+06     2.74374E+06    -58.6262E-03     108.010E-03    -49.3841E-03     73.5591E-03    -59.1799E-03     108.475E-03    -49.3421E-03     72.7024E-03
            2160     11.1433E-03     16.8329E-03    -24.0379E+06    -37.8541E+06    -1.65253E+06     2.52338E+06    -57.5144E-03     106.336E-03    -48.8219E-03     66.3652E-03    -57.8914E-03     106.499E-03    -48.7405E-03     65.6594E-03
            2161     10.2922E-03     16.7657E-03    -25.9902E+06    -63.2703E+06    -3.32069E+06     2.88062E+06    -56.3970E-03     104.633E-03    -48.2362E-03     60.6413E-03    -56.6558E-03     104.585E-03    -48.1234E-03     60.0722E-03
            2162     9.44045E-03     16.7039E-03    -28.1579E+06    -80.9550E+06    -4.28954E+06     3.29452E+06    -55.0743E-03     102.707E-03    -47.6326E-03     54.4469E-03    -55.2507E-03     102.509E-03    -47.4959E-03     53.9987E-03
            2163     8.58750E-03     16.6478E-03    -30.7440E+06    -95.1500E+06    -6.54902E+06     3.73124E+06    -53.5782E-03     100.600E-03    -47.0218E-03     48.1607E-03    -53.6941E-03     100.288E-03    -46.8720E-03     47.8190E-03
            2164     7.73327E-03     16.5972E-03    -33.6839E+06    -108.955E+06    -8.44137E+06     4.48019E+06    -52.0346E-03     98.4647E-03    -46.4301E-03     42.0827E-03    -52.1072E-03     98.0555E-03    -46.2654E-03     41.8339E-03
            2165     6.87803E-03     16.5524E-03    -37.1898E+06    -118.846E+06    -12.0791E+06     4.89304E+06    -50.4369E-03     96.2934E-03    -45.8565E-03     36.4026E-03    -50.4826E-03     95.8203E-03    -45.6906E-03     36.2277E-03
            2166     6.02133E-03     16.5129E-03    -40.7984E+06    -124.805E+06    -17.8740E+06     4.95645E+06    -48.9026E-03     94.2158E-03    -45.3132E-03     31.1198E-03    -48.9321E-03     93.7093E-03    -45.1625E-03     31.0011E-03
            2167     5.16361E-03     16.4789E-03    -44.3738E+06    -129.770E+06    -24.6549E+06     4.63414E+06    -47.5129E-03     92.3316E-03    -44.8186E-03     26.1413E-03    -47.5315E-03     91.8035E-03    -44.6894E-03     26.0623E-03
            2168     4.30477E-03     16.4502E-03    -48.1069E+06    -135.409E+06    -32.0568E+06     4.01341E+06    -46.2813E-03     90.6647E-03    -44.3834E-03     21.4312E-03    -46.2917E-03     90.1165E-03    -44.2776E-03     21.3794E-03
            2169     3.44498E-03     16.4268E-03    -51.6216E+06    -142.643E+06    -40.1687E+06     3.64337E+06    -45.2410E-03     89.2551E-03    -44.0142E-03     16.9347E-03    -45.2413E-03     88.6823E-03    -43.9333E-03     16.9063E-03
            2170     2.58448E-03     16.4086E-03    -54.8478E+06    -148.002E+06    -47.9466E+06     3.39017E+06    -44.4123E-03     88.1280E-03    -43.7157E-03     12.6604E-03    -44.4063E-03     87.5408E-03    -43.6613E-03     12.6517E-03
            2171     1.72333E-03     16.3955E-03    -57.9035E+06    -154.431E+06    -54.0262E+06     2.90465E+06    -43.8153E-03     87.3163E-03    -43.5010E-03     8.51294E-03    -43.8043E-03     86.7081E-03    -43.4632E-03     8.51716E-03
            2172     861.708E-06     16.3874E-03    -60.4359E+06    -156.507E+06    -58.8750E+06     2.00558E+06    -43.4550E-03     86.8009E-03    -43.3458E-03     4.55709E-03    -43.4454E-03     86.1919E-03    -43.3256E-03     4.56548E-03
            2173     16.2288E-03     16.2822E-03    -4.63658E+06     118.373E+06     83.1603E+06     815.970E+03    -65.8608E-03     118.482E-03    -52.6215E-03     63.0423E-03    -66.7854E-03     119.570E-03    -52.3706E-03     62.0861E-03
            2174     15.3848E-03     16.1968E-03    -9.27390E+06     117.545E+06     79.0232E+06     618.118E+03    -64.2504E-03     116.186E-03    -51.9359E-03     83.5735E-03    -65.4895E-03     117.581E-03    -51.6978E-03     82.3614E-03
            2175     14.5383E-03     16.1138E-03    -14.2362E+06     108.510E+06     61.3343E+06     2.33552E+06    -62.8626E-03     114.087E-03    -51.2243E-03     89.6885E-03    -64.0665E-03     115.448E-03    -51.0544E-03     88.4918E-03
            2176     13.6921E-03     16.0153E-03    -17.9541E+06     93.0160E+06     31.4887E+06     3.17699E+06    -61.9243E-03     112.392E-03    -50.4675E-03     91.5623E-03    -63.0155E-03     113.658E-03    -50.4189E-03     90.3886E-03
            2177     12.8443E-03     15.9271E-03    -20.6333E+06     51.0009E+06     6.50410E+06     2.92926E+06    -60.7458E-03     110.502E-03    -49.7563E-03     80.7395E-03    -61.5447E-03     111.390E-03    -49.7678E-03     79.6994E-03
            2178     11.9959E-03     15.8488E-03    -22.6875E+06    -933.116E+03     774.508E+03     2.65716E+06    -59.6344E-03     108.763E-03    -49.1287E-03     69.9664E-03    -60.1675E-03     109.210E-03    -49.0906E-03     69.1054E-03
            2179     11.1466E-03     15.7791E-03    -24.2164E+06    -37.5905E+06    -2.02760E+06     2.58710E+06    -58.5947E-03     107.054E-03    -48.4591E-03     62.0327E-03    -58.9510E-03     107.197E-03    -48.3796E-03     61.3291E-03
            2180     10.2969E-03     15.7140E-03    -25.8519E+06    -63.5424E+06    -3.95859E+06     2.96070E+06    -57.3633E-03     105.109E-03    -47.7456E-03     55.6212E-03    -57.6002E-03     105.040E-03    -47.6357E-03     55.0611E-03
            2181     9.44583E-03     15.6543E-03    -27.8303E+06    -81.1659E+06    -4.74293E+06     3.54376E+06    -55.8374E-03     102.844E-03    -47.0065E-03     48.8741E-03    -55.9932E-03     102.627E-03    -46.8722E-03     48.4427E-03
            2182     8.59362E-03     15.6005E-03    -30.2636E+06      -95.26E+06    -6.79916E+06     4.31123E+06    -54.0884E-03     100.344E-03    -46.2558E-03     42.2445E-03    -54.1863E-03     100.016E-03    -46.1077E-03     41.9268E-03
            2183     7.74012E-03     15.5523E-03    -33.2333E+06    -109.202E+06    -8.83440E+06     5.02326E+06    -52.1388E-03     97.6685E-03    -45.5296E-03     36.1725E-03    -52.1963E-03     97.2461E-03    -45.3673E-03     35.9493E-03
            2184     6.88481E-03     15.5099E-03    -36.3314E+06    -118.113E+06    -11.9662E+06     5.49303E+06    -50.1925E-03     95.0309E-03    -44.8384E-03     30.8047E-03    -50.2263E-03     94.5512E-03    -44.6743E-03     30.6557E-03
            2185     6.02810E-03     15.4727E-03    -39.7585E+06    -123.541E+06    -17.9237E+06     5.38056E+06    -48.3671E-03     92.5569E-03    -44.1898E-03     26.0065E-03    -48.3869E-03     92.0490E-03    -44.0427E-03     25.9095E-03
            2186     5.16980E-03     15.4407E-03    -43.1352E+06    -128.188E+06    -24.8283E+06     5.10849E+06    -46.7090E-03     90.3155E-03    -43.6065E-03     21.6162E-03    -46.7192E-03     89.7894E-03    -43.4822E-03     21.5574E-03
            2187     4.31029E-03     15.4138E-03    -46.6937E+06    -133.721E+06    -31.6930E+06     4.88383E+06    -45.2553E-03     88.3598E-03    -43.1045E-03     17.5953E-03    -45.2589E-03     87.8147E-03    -43.0014E-03     17.5663E-03
            2188     3.44962E-03     15.3919E-03    -50.6183E+06    -141.052E+06    -39.5989E+06     4.61246E+06    -44.0462E-03     86.7331E-03    -42.6869E-03     13.8287E-03    -44.0431E-03     86.1643E-03    -42.6070E-03     13.8219E-03
            2189     2.58793E-03     15.3749E-03    -54.0001E+06    -145.932E+06    -47.5608E+06     4.29573E+06    -43.1212E-03     85.4729E-03    -42.3517E-03     10.3025E-03    -43.1136E-03     84.8934E-03    -42.2996E-03     10.3122E-03
            2190     1.72567E-03     15.3626E-03    -56.2514E+06    -151.304E+06    -53.0295E+06     3.49963E+06    -42.4696E-03     84.5793E-03    -42.1096E-03     6.86641E-03    -42.4560E-03     83.9824E-03    -42.0738E-03     6.88265E-03
            2191     863.019E-06     15.3551E-03    -57.6204E+06    -152.154E+06    -56.3287E+06     2.04099E+06    -42.0425E-03     83.9998E-03    -41.9573E-03     3.65778E-03    -42.0287E-03     83.4046E-03    -41.9348E-03     3.66903E-03
            2192     16.2285E-03     15.2153E-03    -3.79041E+06     117.814E+06     83.2136E+06     991.101E+03    -66.1962E-03     118.819E-03    -52.6225E-03     61.6616E-03    -67.0858E-03     119.872E-03    -52.3718E-03     60.7104E-03
            2193     15.3838E-03     15.1332E-03    -8.99521E+06     116.930E+06     79.2643E+06     2.35399E+06    -64.8056E-03     116.719E-03    -51.9131E-03     81.9101E-03    -66.0004E-03     118.067E-03    -51.6733E-03     80.7206E-03
            2194     14.5398E-03     15.0509E-03    -14.9667E+06     106.990E+06     60.8385E+06     2.68672E+06    -63.9609E-03     115.108E-03    -51.1470E-03     87.0563E-03    -65.1293E-03     116.427E-03    -50.9763E-03     85.8462E-03
            2195     13.6936E-03     14.9558E-03    -19.0506E+06     93.2828E+06     30.4139E+06     3.04371E+06    -63.3014E-03     113.598E-03    -50.2963E-03     88.1425E-03    -64.3593E-03     114.831E-03    -50.2519E-03     86.9466E-03
            2196     12.8473E-03     14.8681E-03    -21.4082E+06     52.3399E+06     5.47507E+06     2.89067E+06    -62.4301E-03     111.891E-03    -49.4608E-03     76.2750E-03    -63.1974E-03     112.752E-03    -49.4783E-03     75.2168E-03
            2197     12.0008E-03     14.7927E-03    -22.4455E+06    -189.257E+03     285.899E+03     2.33407E+06    -61.4306E-03     110.109E-03    -48.6786E-03     64.3727E-03    -61.9301E-03     110.528E-03    -48.6444E-03     63.4978E-03
            2198     11.1534E-03     14.7242E-03    -23.7950E+06    -37.6371E+06    -2.52163E+06     2.56013E+06    -60.1499E-03     107.983E-03    -47.8334E-03     55.7137E-03    -60.4734E-03     108.096E-03    -47.7569E-03     55.0134E-03
            2199     10.3049E-03     14.6618E-03    -25.5334E+06    -63.8168E+06    -4.52917E+06     3.04376E+06    -58.6344E-03     105.569E-03    -46.9350E-03     48.6482E-03    -58.8426E-03     105.474E-03    -46.8281E-03     48.1014E-03
            2200     9.45518E-03     14.6046E-03    -27.4628E+06    -81.5201E+06    -5.28871E+06     3.76417E+06    -56.7131E-03     102.721E-03    -46.0082E-03     41.5288E-03    -56.8440E-03     102.481E-03    -45.8766E-03     41.1194E-03
            2201     8.60395E-03     14.5535E-03    -29.8283E+06    -95.7542E+06    -7.11137E+06     4.80669E+06    -54.4094E-03     99.4916E-03    -45.0822E-03     34.8723E-03    -54.4872E-03     99.1445E-03    -44.9357E-03     34.5834E-03
            2202     7.75045E-03     14.5087E-03    -32.5814E+06    -108.789E+06     -8.7295E+06     5.53303E+06    -51.9779E-03     96.1784E-03    -44.2005E-03     29.2143E-03    -52.0204E-03     95.7446E-03    -44.0392E-03     29.0204E-03
            2203     6.89504E-03     14.4691E-03    -35.6464E+06    -117.347E+06    -12.0968E+06     5.70507E+06    -49.6284E-03     92.9993E-03    -43.3709E-03     24.4138E-03    -49.6508E-03     92.5137E-03    -43.2095E-03     24.2884E-03
            2204     6.03764E-03     14.4347E-03    -38.6032E+06    -122.131E+06    -18.0667E+06     5.73440E+06    -47.4423E-03     90.0456E-03    -42.6033E-03     20.2544E-03    -47.4521E-03     89.5372E-03    -42.4605E-03     20.1803E-03
            2205     5.17858E-03     14.4051E-03    -41.7565E+06    -126.771E+06    -25.1425E+06     5.54743E+06    -45.4632E-03     87.3867E-03    -41.9235E-03     16.6175E-03    -45.4641E-03     86.8621E-03    -41.8048E-03     16.5799E-03
            2206     4.31781E-03     14.3803E-03    -44.8896E+06    -132.485E+06    -31.4022E+06     5.65702E+06    -43.7733E-03     85.1245E-03    -41.3512E-03     13.3775E-03    -43.7675E-03     84.5799E-03    -41.2510E-03     13.3710E-03
            2207     3.45575E-03     14.3601E-03    -47.8926E+06    -138.885E+06    -37.4874E+06     5.64565E+06    -42.4270E-03     83.3085E-03    -40.8815E-03     10.4205E-03    -42.4150E-03     82.7419E-03    -40.7981E-03     10.4366E-03
            2208     2.59280E-03     14.3444E-03    -50.6894E+06    -143.146E+06    -43.6435E+06     4.82076E+06    -41.3789E-03     81.8841E-03    -40.5052E-03     7.70221E-03    -41.3637E-03     81.3071E-03    -40.4424E-03     7.72562E-03
            2209     1.72898E-03     14.3330E-03    -53.0197E+06    -147.486E+06    -49.2747E+06     3.64969E+06    -40.6223E-03     80.8499E-03    -40.2276E-03     5.10764E-03    -40.6032E-03     80.2616E-03    -40.1832E-03     5.13039E-03
            2210     864.601E-06     14.3262E-03    -54.9022E+06    -147.736E+06    -53.7196E+06     2.03826E+06    -40.1851E-03     80.1976E-03    -40.0125E-03     2.68309E-03    -40.1679E-03     79.6166E-03    -39.9873E-03     2.69680E-03
            2211     16.2254E-03     14.1466E-03    -4.07936E+06     115.975E+06     81.8662E+06     1.29856E+06    -67.0483E-03     119.685E-03    -52.6370E-03     58.2620E-03    -67.8999E-03     120.697E-03    -52.3900E-03     57.2997E-03
            2212     15.3848E-03     14.0671E-03    -9.45805E+06     115.763E+06     78.7604E+06     2.55247E+06    -66.2898E-03     118.151E-03    -51.8610E-03     77.6402E-03    -67.4395E-03     119.450E-03    -51.6214E-03     76.4176E-03
            2213     14.5408E-03     13.9876E-03    -13.7415E+06     107.382E+06     62.6189E+06     3.31932E+06    -65.9111E-03     116.901E-03    -50.9897E-03     82.9692E-03    -67.0356E-03     118.176E-03    -50.8124E-03     81.7214E-03
            2214     13.6977E-03     13.8935E-03    -17.7664E+06     93.6257E+06     32.5556E+06     2.94699E+06    -65.7819E-03     115.764E-03    -49.9820E-03     82.9866E-03    -66.7931E-03     116.950E-03    -49.9293E-03     81.7400E-03
            2215     12.8540E-03     13.8082E-03    -19.7158E+06     53.6204E+06     7.05319E+06     2.36100E+06    -64.9700E-03     113.910E-03    -48.9405E-03     70.0341E-03    -65.6902E-03     114.731E-03    -48.9544E-03     68.9357E-03
            2216     12.0097E-03     13.7339E-03    -21.2684E+06     498.488E+03     251.566E+03     2.45445E+06    -63.6731E-03     111.603E-03    -47.9299E-03     57.2150E-03    -64.1281E-03     111.984E-03    -47.8985E-03     56.3316E-03
            2217     11.1644E-03     13.6692E-03    -23.1142E+06    -37.6438E+06    -2.63912E+06     2.78328E+06    -62.0144E-03     108.870E-03    -46.8554E-03     48.1279E-03    -62.3020E-03     108.950E-03    -46.7805E-03     47.4344E-03
            2218     10.3174E-03     13.6089E-03    -24.9503E+06    -63.7581E+06    -4.60980E+06     3.27743E+06    -59.9337E-03     105.662E-03    -45.7280E-03     40.6922E-03    -60.1122E-03     105.539E-03    -45.6224E-03     40.1643E-03
            2219     9.46908E-03     13.5552E-03    -27.0311E+06    -82.0385E+06    -5.45975E+06     4.04243E+06    -57.2748E-03     101.866E-03    -44.5913E-03     33.5168E-03    -57.3817E-03     101.602E-03    -44.4604E-03     33.1342E-03
            2220     8.61782E-03     13.5082E-03    -29.2381E+06    -96.2350E+06    -7.28218E+06     5.00087E+06    -54.3495E-03     97.8319E-03    -43.4823E-03     27.2889E-03    -54.4079E-03     97.4663E-03    -43.3368E-03     27.0284E-03
            2221     7.76437E-03     13.4668E-03    -31.6521E+06    -108.317E+06    -8.31709E+06     5.83378E+06    -51.4720E-03     93.9124E-03    -42.4405E-03     22.1245E-03    -51.5001E-03     93.4681E-03    -42.2791E-03     21.9584E-03
            2222     6.90841E-03     13.4309E-03    -34.5420E+06    -116.153E+06    -11.7353E+06     6.01673E+06    -48.6881E-03     90.1541E-03    -41.4660E-03     17.9458E-03    -48.6996E-03     89.6648E-03    -41.3061E-03     17.8458E-03
            2223     6.05021E-03     13.3996E-03    -37.6354E+06    -121.032E+06    -18.0729E+06     5.86951E+06    -46.0981E-03     86.6742E-03    -40.5761E-03     14.5159E-03    -46.0994E-03     86.1647E-03    -40.4364E-03     14.4618E-03
            2224     5.18975E-03     13.3730E-03    -40.5490E+06    -125.452E+06    -24.3870E+06     5.97450E+06    -43.8178E-03     83.6183E-03    -39.8006E-03     11.6486E-03    -43.8123E-03     83.0941E-03    -39.6818E-03     11.6315E-03
            2225     4.32758E-03     13.3506E-03    -43.4098E+06    -131.218E+06    -30.1573E+06     6.00841E+06    -41.9030E-03     81.0512E-03    -39.1482E-03     9.22661E-03    -41.8914E-03     80.5069E-03    -39.0458E-03     9.23649E-03
            2226     3.46388E-03     13.3324E-03    -45.8511E+06    -136.341E+06    -35.7634E+06     5.65357E+06    -40.3619E-03     78.9738E-03    -38.6119E-03     7.11518E-03    -40.3447E-03     78.4132E-03    -38.5265E-03     7.14034E-03
            2227     2.59896E-03     13.3180E-03    -47.9036E+06    -139.937E+06    -40.6216E+06     4.79005E+06    -39.1619E-03     77.3540E-03    -38.1921E-03     5.22303E-03    -39.1413E-03     76.7839E-03    -38.1229E-03     5.25241E-03
            2228     1.73312E-03     13.3080E-03    -49.9811E+06    -143.654E+06    -45.4160E+06     3.67667E+06    -38.3157E-03     76.2023E-03    -37.8866E-03     3.48087E-03    -38.2924E-03     75.6228E-03    -37.8329E-03     3.50817E-03
            2229     866.748E-06     13.3015E-03    -51.6093E+06    -143.125E+06    -50.2104E+06     2.10080E+06    -37.8565E-03     75.4816E-03    -37.6251E-03     1.75411E-03    -37.8346E-03     74.9136E-03    -37.5938E-03     1.77087E-03
            2230     16.2296E-03     13.0768E-03    -4.19461E+06     114.999E+06     81.6045E+06     1.61069E+06    -69.2446E-03     121.850E-03    -52.6049E-03     54.9387E-03    -70.0618E-03     122.824E-03    -52.3576E-03     53.9455E-03
            2231     15.3867E-03     13.0006E-03    -8.83875E+06     115.488E+06     79.2813E+06     2.59490E+06    -68.5654E-03     120.266E-03    -51.7011E-03     73.7390E-03    -69.6672E-03     121.517E-03    -51.4593E-03     72.4614E-03
            2232     14.5460E-03     12.9212E-03    -13.2105E+06     107.107E+06     63.7424E+06     2.73641E+06    -68.8068E-03     119.471E-03    -50.6645E-03     78.4630E-03    -69.8866E-03     120.700E-03    -50.4819E-03     77.1397E-03
            2233     13.7051E-03     12.8290E-03    -15.9480E+06     94.5433E+06     34.6879E+06     2.61397E+06    -69.0619E-03     118.497E-03    -49.4351E-03     77.2943E-03    -70.0214E-03     119.635E-03    -49.3756E-03     75.9792E-03
            2234     12.8647E-03     12.7451E-03    -18.4840E+06     54.5781E+06     7.98285E+06     2.68047E+06    -68.0040E-03     116.133E-03    -48.1293E-03     63.0388E-03    -68.6749E-03     116.910E-03    -48.1417E-03     61.9076E-03
            2235     12.0229E-03     12.6747E-03    -20.6556E+06     1.08068E+06     457.393E+03     2.96928E+06    -66.0814E-03     112.933E-03    -46.8512E-03     49.5076E-03    -66.4946E-03     113.276E-03    -46.8206E-03     48.6234E-03
            2236     11.1794E-03     12.6124E-03    -22.4534E+06    -37.2683E+06    -2.39236E+06     3.19634E+06    -63.7562E-03     109.277E-03    -45.5212E-03     40.2180E-03    -64.0103E-03     109.327E-03    -45.4466E-03     39.5391E-03
            2237     10.3345E-03     12.5564E-03    -24.3440E+06    -63.5879E+06    -4.41988E+06     3.66772E+06    -60.8113E-03     104.972E-03    -44.1604E-03     32.7730E-03    -60.9630E-03     104.825E-03    -44.0550E-03     32.2720E-03
            2238     9.48605E-03     12.5074E-03    -26.3860E+06    -82.3843E+06    -5.21813E+06     4.32077E+06    -57.3709E-03     100.196E-03    -42.8255E-03     25.9060E-03    -57.4562E-03     99.9113E-03    -42.6938E-03     25.5544E-03
            2239     8.63512E-03     12.4647E-03    -28.5163E+06    -96.3643E+06    -6.96520E+06     5.11399E+06    -53.9055E-03     95.4513E-03    -41.5458E-03     20.2612E-03    -53.9479E-03     95.0710E-03    -41.3996E-03     20.0283E-03
            2240     7.78107E-03     12.4278E-03    -30.9424E+06    -108.093E+06    -8.03031E+06     5.86802E+06    -50.5490E-03     90.9032E-03    -40.3542E-03     15.8006E-03    -50.5658E-03     90.4500E-03    -40.1927E-03     15.6582E-03
            2241     6.92430E-03     12.3959E-03    -33.6282E+06    -114.970E+06    -11.0626E+06     6.30506E+06    -47.3499E-03     86.6022E-03    -39.2523E-03     12.3618E-03    -47.3540E-03     86.1109E-03    -39.0921E-03     12.2849E-03
            2242     6.06469E-03     12.3686E-03    -36.5631E+06    -119.729E+06    -17.1768E+06     6.16255E+06    -44.4262E-03     82.6814E-03    -38.2552E-03     9.75758E-03    -44.4219E-03     82.1720E-03    -38.1145E-03     9.72272E-03
            2243     5.20281E-03     12.3451E-03    -39.4790E+06    -124.399E+06    -22.9083E+06     6.10025E+06    -41.8812E-03     79.2725E-03    -37.3913E-03     7.69227E-03    -41.8719E-03     78.7477E-03    -37.2682E-03     7.68865E-03
            2244     4.33877E-03     12.3255E-03    -42.1651E+06    -129.309E+06    -28.2307E+06     6.02086E+06    -39.7423E-03     76.4049E-03    -36.6626E-03     6.05211E-03    -39.7288E-03     75.8642E-03    -36.5551E-03     6.07104E-03
            2245     3.47307E-03     12.3094E-03    -44.6909E+06    -133.707E+06    -34.3184E+06     5.30436E+06    -37.9964E-03     74.0597E-03    -36.0633E-03     4.66117E-03    -37.9786E-03     73.5077E-03    -35.9763E-03     4.68841E-03
            2246     2.60593E-03     12.2970E-03    -46.7985E+06    -136.847E+06    -39.8798E+06     4.28334E+06    -36.6606E-03     72.2593E-03    -35.5987E-03     3.41633E-03    -36.6397E-03     71.7016E-03    -35.5318E-03     3.44377E-03
            2247     1.73785E-03     12.2878E-03    -48.2350E+06    -139.939E+06    -44.1317E+06     2.95938E+06    -35.7313E-03     71.0010E-03    -35.2697E-03     2.29411E-03    -35.7064E-03     70.4355E-03    -35.2175E-03     2.31497E-03
            2248     869.094E-06     12.2824E-03    -49.1980E+06    -139.162E+06    -47.5615E+06     1.49469E+06    -35.2252E-03     70.2399E-03    -35.0147E-03     1.18072E-03    -35.2009E-03     69.6843E-03    -34.9794E-03     1.19113E-03
            2249     16.2267E-03     12.0046E-03    -4.34272E+06     113.323E+06     80.7353E+06     1.31808E+06    -72.0401E-03     124.562E-03    -52.5222E-03     52.0168E-03    -72.8277E-03     125.503E-03    -52.2766E-03     50.9610E-03
            2250     15.3912E-03     11.9300E-03    -8.09105E+06     115.468E+06     80.3481E+06     2.11339E+06    -72.2038E-03     123.642E-03    -51.4387E-03     70.1217E-03    -73.2694E-03     124.856E-03    -51.1927E-03     68.7399E-03
            2251     14.5530E-03     11.8527E-03    -12.4843E+06     107.045E+06     64.6057E+06     2.44494E+06    -72.7910E-03     122.949E-03    -50.1577E-03     74.4572E-03    -73.8334E-03     124.140E-03    -49.9717E-03     73.0305E-03
            2252     13.7161E-03     11.7605E-03    -16.9928E+06     94.8792E+06     33.5868E+06     2.67283E+06    -72.8190E-03     121.459E-03    -48.6401E-03     71.3843E-03    -73.7353E-03     122.555E-03    -48.5851E-03     69.9995E-03
            2253     12.8788E-03     11.6801E-03    -19.2983E+06     55.5963E+06     6.89691E+06     2.76624E+06    -71.0423E-03     118.087E-03    -47.0443E-03     55.6917E-03    -71.6699E-03     118.824E-03    -47.0624E-03     54.5324E-03
            2254     12.0397E-03     11.6135E-03    -20.5169E+06     1.78025E+06    -12.7184E+03     3.14576E+06    -68.3054E-03     113.799E-03    -45.4934E-03     42.0547E-03    -68.6818E-03     114.110E-03    -45.4663E-03     41.1726E-03
            2255     11.1984E-03     11.5558E-03    -22.1558E+06    -36.8097E+06    -2.50190E+06     3.63283E+06    -64.9170E-03     108.840E-03    -43.9226E-03     32.9380E-03    -65.1423E-03     108.864E-03    -43.8496E-03     32.2843E-03
            2256     10.3533E-03     11.5051E-03    -24.0378E+06    -63.5850E+06    -4.39444E+06     4.10809E+06    -61.0461E-03     103.411E-03    -42.3646E-03     25.8062E-03    -61.1760E-03     103.243E-03    -42.2595E-03     25.3390E-03
            2257     9.50556E-03     11.4614E-03    -26.0695E+06    -82.0683E+06    -4.68778E+06     4.65231E+06    -56.9848E-03     97.8540E-03    -40.8692E-03     19.5995E-03    -57.0559E-03     97.5554E-03    -40.7359E-03     19.2801E-03
            2258     8.65382E-03     11.4242E-03    -28.4129E+06    -96.3932E+06    -6.23368E+06     5.27688E+06    -52.9547E-03     92.4130E-03    -39.4583E-03     14.8317E-03    -52.9887E-03     92.0224E-03    -39.3085E-03     14.6256E-03
            2259     7.79892E-03     11.3921E-03    -30.9035E+06    -107.753E+06    -7.56986E+06     5.91626E+06    -49.1362E-03     87.2978E-03    -38.1616E-03     11.2950E-03    -49.1486E-03     86.8401E-03    -37.9984E-03     11.1736E-03
            2260     6.94065E-03     11.3650E-03    -33.5479E+06    -114.102E+06    -10.9776E+06     6.14298E+06    -45.6451E-03     82.6218E-03    -36.9767E-03     8.72506E-03    -45.6471E-03     82.1315E-03    -36.8175E-03     8.66139E-03
            2261     6.07960E-03     11.3416E-03    -36.1166E+06    -118.231E+06    -15.9585E+06     6.16280E+06    -42.5199E-03     78.4370E-03    -35.9172E-03     6.90000E-03    -42.5156E-03     77.9311E-03    -35.7731E-03     6.87635E-03
            2262     5.21582E-03     11.3220E-03    -38.7425E+06    -123.087E+06    -20.9974E+06     5.93362E+06    -39.7951E-03     74.7956E-03    -35.0005E-03     5.56830E-03    -39.7860E-03     74.2727E-03    -34.8708E-03     5.57064E-03
            2263     4.34992E-03     11.3052E-03    -41.2390E+06    -127.295E+06    -26.4740E+06     5.54075E+06    -37.5038E-03     71.7287E-03    -34.2249E-03     4.51011E-03    -37.4908E-03     71.1939E-03    -34.1129E-03     4.52850E-03
            2264     3.48207E-03     11.2917E-03    -43.3289E+06    -130.929E+06    -32.1167E+06     4.71202E+06    -35.6520E-03     69.2428E-03    -33.5908E-03     3.57792E-03    -35.6345E-03     68.6995E-03    -33.4987E-03     3.60134E-03
            2265     2.61285E-03     11.2810E-03    -45.1121E+06    -133.972E+06    -37.8374E+06     3.52421E+06    -34.2370E-03     67.3332E-03    -33.0962E-03     2.71461E-03    -34.2147E-03     66.7845E-03    -33.0257E-03     2.73472E-03
            2266     1.74248E-03     11.2734E-03    -46.5019E+06    -136.498E+06    -43.0047E+06     2.15065E+06    -33.2383E-03     65.9803E-03    -32.7420E-03     1.85398E-03    -33.2112E-03     65.4278E-03    -32.6917E-03     1.86588E-03
            2267     871.354E-06     11.2685E-03    -47.4826E+06    -136.678E+06    -46.4342E+06     783.081E+03    -32.6742E-03     65.1778E-03    -32.5036E-03     1.00380E-03    -32.6464E-03     64.6306E-03    -32.4687E-03     1.00577E-03
            2268     16.2323E-03     10.9277E-03    -4.02051E+06     112.663E+06     80.8207E+06     795.264E+03    -75.8497E-03     128.233E-03    -52.3832E-03     49.3942E-03    -76.6174E-03     129.152E-03    -52.1367E-03     48.2446E-03
            2269     15.3962E-03     10.8565E-03    -8.44401E+06     114.474E+06     79.9440E+06     1.31247E+06    -76.6990E-03     127.759E-03    -51.0595E-03     66.3942E-03    -77.7363E-03     128.941E-03    -50.8136E-03     64.8739E-03
            2270     14.5630E-03     10.7787E-03    -12.7848E+06     106.522E+06     65.4042E+06     2.46185E+06    -77.3870E-03     126.879E-03    -49.4922E-03     70.1282E-03    -78.3945E-03     128.030E-03    -49.3011E-03     68.5938E-03
            2271     13.7304E-03     10.6891E-03    -15.5624E+06     95.6231E+06     35.6467E+06     2.63734E+06    -76.6424E-03     124.311E-03    -47.6684E-03     65.5160E-03    -77.5094E-03     125.359E-03    -47.6062E-03     64.0677E-03
            2272     12.8958E-03     10.6134E-03    -17.9213E+06     56.3718E+06     7.46639E+06     3.03787E+06    -73.7449E-03     119.523E-03    -45.7778E-03     48.7490E-03    -74.3234E-03     120.217E-03    -45.7962E-03     47.5786E-03
            2273     12.0587E-03     10.5515E-03    -20.2276E+06     2.30395E+06    -409.716E+03     3.67833E+06    -69.6971E-03     113.681E-03    -43.9834E-03     35.2701E-03    -70.0391E-03     113.961E-03    -43.9595E-03     34.4121E-03
            2274     11.2177E-03     10.5003E-03    -22.3162E+06    -36.3634E+06    -2.40299E+06     4.22792E+06    -65.2314E-03     107.463E-03    -42.2317E-03     26.8583E-03    -65.4356E-03     107.467E-03    -42.1586E-03     26.2422E-03
            2275     10.3734E-03     10.4555E-03    -24.5177E+06    -63.0041E+06    -4.02749E+06     4.66623E+06    -60.5543E-03     101.095E-03    -40.5408E-03     20.5660E-03    -60.6729E-03     100.915E-03    -40.4340E-03     20.1380E-03
            2276     9.52434E-03     10.4183E-03    -26.8247E+06    -81.7404E+06    -4.10472E+06     4.95941E+06    -55.8485E-03     94.8047E-03    -38.9562E-03     15.4362E-03    -55.9157E-03     94.4990E-03    -38.8193E-03     15.1494E-03
            2277     8.67182E-03     10.3867E-03    -29.2675E+06    -96.2110E+06    -5.23749E+06     5.43143E+06    -51.3748E-03     88.8694E-03    -37.4946E-03     11.8012E-03    -51.4101E-03     88.4748E-03    -37.3388E-03     11.6196E-03
            2278     7.81516E-03     10.3605E-03    -31.8369E+06    -107.196E+06    -7.06920E+06     5.71674E+06    -47.2763E-03     83.4478E-03    -36.1716E-03     9.36243E-03    -47.2927E-03     82.9914E-03    -36.0053E-03     9.25508E-03
            2279     6.95526E-03     10.3379E-03    -34.2068E+06    -112.970E+06    -10.6895E+06     5.58939E+06    -43.6644E-03     78.6450E-03    -34.9806E-03     7.69738E-03    -43.6709E-03     78.1602E-03    -34.8207E-03     7.63822E-03
            2280     6.09229E-03     10.3192E-03    -36.4233E+06    -117.079E+06    -14.6055E+06     5.37434E+06    -40.5143E-03     74.4456E-03    -33.9313E-03     6.55209E-03    -40.5151E-03     73.9439E-03    -33.7817E-03     6.52601E-03
            2281     5.22680E-03     10.3030E-03    -38.6948E+06    -121.542E+06    -18.4801E+06     5.23001E+06    -37.7919E-03     70.8195E-03    -33.0275E-03     5.71258E-03    -37.7886E-03     70.3008E-03    -32.8876E-03     5.71087E-03
            2282     4.35895E-03     10.2897E-03    -41.0713E+06    -125.169E+06    -24.3206E+06     4.50956E+06    -35.5135E-03     67.7711E-03    -32.2575E-03     4.96556E-03    -35.5060E-03     67.2439E-03    -32.1381E-03     4.97385E-03
            2283     3.48936E-03     10.2785E-03    -43.0858E+06    -128.409E+06    -30.6201E+06     3.40036E+06    -33.6856E-03     65.3109E-03    -31.6253E-03     4.17457E-03    -33.6728E-03     64.7779E-03    -31.5297E-03     4.18302E-03
            2284     2.61825E-03     10.2699E-03    -44.5786E+06    -131.512E+06    -36.7115E+06     2.33049E+06    -32.2862E-03     63.4153E-03    -31.1292E-03     3.28942E-03    -32.2664E-03     62.8768E-03    -31.0574E-03     3.29528E-03
            2285     1.74610E-03     10.2634E-03    -45.6238E+06    -134.003E+06    -41.9452E+06     1.31051E+06    -31.2937E-03     62.0602E-03    -30.7665E-03     2.29662E-03    -31.2673E-03     61.5176E-03    -30.7158E-03     2.29833E-03
            2286     873.323E-06     10.2596E-03    -46.2654E+06    -135.175E+06    -45.2038E+06     487.646E+03    -30.6957E-03     61.2197E-03    -30.5240E-03     1.29785E-03    -30.6657E-03     60.6766E-03    -30.4869E-03     1.29630E-03
            2287     16.2323E-03     9.84830E-03    -4.10000E+06     111.483E+06     80.7018E+06     758.967E+03    -80.1655E-03     132.344E-03    -52.1789E-03     47.7368E-03    -80.9167E-03     133.243E-03    -51.9311E-03     46.4931E-03
            2288     15.4041E-03     9.77634E-03    -8.57965E+06     113.585E+06     80.2072E+06     1.69860E+06    -81.7625E-03     132.351E-03    -50.5885E-03     63.7625E-03    -82.7730E-03     133.502E-03    -50.3397E-03     62.1166E-03
            2289     14.5753E-03     9.70100E-03    -12.3564E+06     106.412E+06     65.8010E+06     1.12960E+06    -81.9733E-03     130.685E-03    -48.7114E-03     66.0620E-03    -82.9440E-03     131.799E-03    -48.5188E-03     64.4100E-03
            2290     13.7451E-03     9.61493E-03    -15.2806E+06     95.0779E+06     35.8176E+06     1.92294E+06    -79.9965E-03     126.588E-03    -46.5914E-03     59.8796E-03    -80.8166E-03     127.589E-03    -46.5280E-03     58.3816E-03
            2291     12.9138E-03     9.54423E-03    -17.8289E+06     56.3763E+06     7.59444E+06     4.12614E+06    -75.4707E-03     119.930E-03    -44.4588E-03     42.1626E-03    -76.0064E-03     120.581E-03    -44.4767E-03     41.0192E-03
            2292     12.0775E-03     9.49111E-03    -20.5656E+06     3.28426E+06    -376.350E+03     5.20075E+06    -69.9202E-03     112.420E-03    -42.5000E-03     29.8250E-03    -70.2370E-03     112.678E-03    -42.4768E-03     29.0242E-03
            2293     11.2366E-03     9.44587E-03    -23.4418E+06    -35.4507E+06    -1.86456E+06     5.22945E+06    -64.4653E-03     105.127E-03    -40.6612E-03     22.7479E-03    -64.6604E-03     105.119E-03    -40.5851E-03     22.1854E-03
            2294     10.3906E-03     9.40910E-03    -25.9150E+06    -61.9917E+06    -3.08366E+06     5.11272E+06    -59.0494E-03     97.9894E-03    -38.9400E-03     17.6736E-03    -59.1682E-03     97.8058E-03    -38.8280E-03     17.2883E-03
            2295     9.54060E-03     9.37818E-03    -28.1481E+06    -81.1635E+06    -2.76955E+06      5.0422E+06    -53.8208E-03     91.1989E-03    -37.3781E-03     14.0612E-03    -53.8929E-03     90.8915E-03    -37.2334E-03     13.8052E-03
            2296     8.68568E-03     9.35344E-03    -30.3425E+06    -95.9338E+06    -3.45154E+06     5.11998E+06    -49.1625E-03     85.1415E-03    -35.9790E-03     11.7901E-03    -49.2048E-03     84.7459E-03    -35.8131E-03     11.6257E-03
            2297     7.82721E-03     9.33241E-03    -32.4675E+06    -106.045E+06    -5.05877E+06     5.01754E+06    -45.1077E-03     79.8441E-03    -34.7364E-03     10.4095E-03    -45.1321E-03     79.3917E-03    -34.5608E-03     10.3071E-03
            2298     6.96523E-03     9.31513E-03    -34.5937E+06    -111.627E+06    -8.49245E+06     4.42698E+06    -41.5996E-03     75.2371E-03    -33.6375E-03     9.51918E-03    -41.6139E-03     74.7572E-03    -33.4679E-03     9.45424E-03
            2299     6.10047E-03     9.30018E-03    -36.7621E+06    -116.279E+06    -12.0825E+06     4.10479E+06    -38.6426E-03     71.3283E-03    -32.6857E-03     8.82290E-03    -38.6507E-03     70.8283E-03    -32.5242E-03     8.78625E-03
            2300     5.23326E-03     9.28792E-03    -39.0451E+06    -119.992E+06    -15.9400E+06     3.73797E+06    -36.1656E-03     68.0348E-03    -31.8692E-03     8.16539E-03    -36.1706E-03     67.5215E-03    -31.7183E-03     8.14787E-03
            2301     4.36409E-03     9.27728E-03    -41.0615E+06    -122.923E+06    -22.0708E+06     2.71376E+06    -34.1141E-03     65.2843E-03    -31.1702E-03     7.37504E-03    -34.1136E-03     64.7657E-03    -31.0427E-03     7.36221E-03
            2302     3.49321E-03     9.26873E-03    -42.7945E+06    -126.524E+06    -28.9932E+06     1.58016E+06    -32.4680E-03     63.0606E-03    -30.5926E-03     6.33836E-03    -32.4591E-03     62.5348E-03    -30.4921E-03     6.32459E-03
            2303     2.62109E-03     9.26176E-03    -44.3352E+06    -129.928E+06    -35.4974E+06     709.510E+03    -31.2000E-03     61.3363E-03    -30.1364E-03     5.05115E-03    -31.1832E-03     60.8038E-03    -30.0612E-03     5.03689E-03
            2304     1.74799E-03     9.25687E-03    -45.5878E+06    -132.814E+06    -41.1400E+06     107.373E+03    -30.2806E-03     60.0822E-03    -29.8016E-03     3.56673E-03    -30.2570E-03     59.5445E-03    -29.7486E-03     3.55340E-03
            2305     874.096E-06     9.25368E-03    -46.4406E+06    -134.723E+06    -44.8425E+06    -120.325E+03    -29.7403E-03     59.3118E-03    -29.5715E-03     2.04906E-03    -29.7124E-03     58.7708E-03    -29.5330E-03     2.03991E-03
            2306     16.2387E-03     8.76361E-03    -4.10165E+06     110.797E+06     80.9734E+06     779.097E+03    -85.1786E-03     137.104E-03    -51.9253E-03     47.2520E-03    -85.9197E-03     137.989E-03    -51.6752E-03     45.8951E-03
            2307     15.4121E-03     8.69054E-03    -8.32248E+06     113.366E+06     80.7730E+06     217.097E+03    -86.5803E-03     136.634E-03    -50.0539E-03     60.4959E-03    -87.5659E-03     137.759E-03    -49.8023E-03     58.7036E-03
            2308     14.5868E-03     8.61977E-03    -12.0301E+06     105.953E+06     65.7121E+06     407.967E+03    -85.9068E-03     133.796E-03    -47.8890E-03     61.9032E-03    -86.8441E-03     134.877E-03    -47.6966E-03     60.1594E-03
            2309     13.7616E-03     8.53692E-03    -16.8973E+06     92.1740E+06     33.4934E+06     2.84987E+06    -82.1384E-03     127.664E-03    -45.5257E-03     53.9138E-03    -82.9123E-03     128.610E-03    -45.4674E-03     52.4248E-03
            2310     12.9304E-03     8.47694E-03    -21.0309E+06     55.1856E+06     5.57723E+06     5.58713E+06    -75.3945E-03     118.651E-03    -43.2566E-03     36.6654E-03    -75.9012E-03     119.264E-03    -43.2783E-03     35.5950E-03
            2311     12.0933E-03     8.43110E-03    -24.0189E+06     5.11055E+06    -493.692E+03     6.61444E+06    -68.6759E-03     109.943E-03    -41.2671E-03     26.6158E-03    -68.9908E-03     110.193E-03    -41.2421E-03     25.8924E-03
            2312     11.2509E-03     8.39529E-03    -26.4323E+06    -33.6790E+06    -694.865E+03     5.83051E+06    -62.3455E-03     101.818E-03    -39.4728E-03     21.3707E-03    -62.5487E-03     101.811E-03    -39.3891E-03     20.8690E-03
            2313     10.4033E-03     8.36532E-03    -28.3780E+06    -60.7170E+06    -1.27934E+06     4.94693E+06    -56.3366E-03     94.1983E-03    -37.8617E-03     18.0664E-03    -56.4671E-03     94.0170E-03    -37.7389E-03     17.7229E-03
            2314     9.55015E-03     8.34272E-03    -30.1905E+06    -80.0883E+06    -306.760E+03     4.37561E+06    -51.0357E-03     87.4948E-03    -36.4591E-03     16.1480E-03    -51.1223E-03     87.1914E-03    -36.3007E-03     15.9144E-03
            2315     8.69295E-03     8.32332E-03    -31.8789E+06    -95.1677E+06    -301.073E+03     3.81886E+06    -46.5766E-03     81.8203E-03    -35.2437E-03     15.1396E-03    -46.6331E-03     81.4271E-03    -35.0610E-03     14.9791E-03
            2316     7.83207E-03     8.30812E-03    -33.4084E+06    -104.784E+06    -1.87118E+06     3.24106E+06    -42.8708E-03     77.0597E-03    -34.1888E-03     14.5079E-03    -42.9078E-03     76.6118E-03    -33.9978E-03     14.3958E-03
            2317     6.96827E-03     8.29484E-03    -35.1418E+06    -110.473E+06    -5.11484E+06     2.71823E+06    -39.7916E-03     73.0686E-03    -33.2769E-03     14.0276E-03    -39.8167E-03     72.5918E-03    -33.0914E-03     13.9488E-03
            2318     6.10194E-03     8.28404E-03    -37.1855E+06    -115.380E+06    -8.96262E+06     2.15330E+06    -37.2711E-03     69.7716E-03    -32.5005E-03     13.4087E-03    -37.2883E-03     69.2733E-03    -32.3241E-03     13.3520E-03
            2319     5.23365E-03     8.27444E-03    -38.8975E+06    -118.373E+06    -13.6536E+06     1.19073E+06    -35.2437E-03     67.0817E-03    -31.8380E-03     12.5289E-03    -35.2545E-03     66.5738E-03    -31.6782E-03     12.4817E-03
            2320     4.36376E-03     8.26666E-03    -40.4985E+06    -121.487E+06    -20.1525E+06     224.876E+03    -33.6045E-03     64.8779E-03    -31.2734E-03     11.2997E-03    -33.6065E-03     64.3633E-03    -31.1392E-03     11.2569E-03
            2321     3.49260E-03     8.25992E-03    -42.3259E+06    -125.447E+06    -27.2738E+06    -473.364E+03    -32.2843E-03     63.0915E-03    -30.8072E-03     9.70193E-03    -32.2774E-03     62.5681E-03    -30.7003E-03     9.66333E-03
            2322     2.62037E-03     8.25478E-03    -44.0986E+06    -129.428E+06    -34.2340E+06    -1.00228E+06    -31.2620E-03     61.7018E-03    -30.4397E-03     7.71465E-03    -31.2468E-03     61.1697E-03    -30.3593E-03     7.67956E-03
            2323     1.74731E-03     8.25089E-03    -45.6684E+06    -133.035E+06    -40.6370E+06    -1.09245E+06    -30.5428E-03     60.7112E-03    -30.1684E-03     5.42237E-03    -30.5201E-03     60.1718E-03    -30.1125E-03     5.39445E-03
            2324     873.858E-06     8.24859E-03    -46.8692E+06    -135.652E+06    -45.3191E+06    -742.378E+03    -30.1057E-03     60.0915E-03    -29.9858E-03     3.04308E-03    -30.0778E-03     59.5471E-03    -29.9477E-03     3.02639E-03
            2325     16.2417E-03     7.66824E-03    -3.66443E+06     111.283E+06     82.1205E+06     189.209E+03    -90.4121E-03     142.064E-03    -51.6523E-03     46.7752E-03    -91.1501E-03     142.947E-03    -51.3977E-03     45.2939E-03
            2326     15.4221E-03     7.60478E-03    -8.12472E+06     113.237E+06     81.0354E+06    -549.972E+03    -90.6638E-03     140.176E-03    -49.5119E-03     58.0869E-03    -91.6301E-03     141.281E-03    -49.2591E-03     56.1816E-03
            2327     14.5997E-03     7.53191E-03    -14.1037E+06     103.153E+06     63.8354E+06     1.68592E+06    -88.1987E-03     135.329E-03    -47.1307E-03     58.4156E-03    -89.1031E-03     136.366E-03    -46.9406E-03     56.6710E-03
            2328     13.7746E-03     7.46050E-03    -19.9783E+06     88.0451E+06     32.1945E+06     5.24283E+06    -81.8112E-03     126.480E-03    -44.6687E-03     48.9679E-03    -82.5415E-03     127.360E-03    -44.6065E-03     47.5828E-03
            2329     12.9424E-03     7.41064E-03    -24.8432E+06     54.4606E+06     6.29987E+06     7.84109E+06    -73.3187E-03     115.749E-03    -42.4301E-03     33.8486E-03    -73.8094E-03     116.328E-03    -42.4415E-03     32.9056E-03
            2330     12.1033E-03     7.37525E-03    -28.1223E+06     7.93302E+06     1.75996E+06     7.16997E+06    -65.5316E-03     106.104E-03    -40.5720E-03     26.8298E-03    -65.8583E-03     106.355E-03    -40.5339E-03     26.1995E-03
            2331     11.2580E-03     7.34734E-03    -30.0707E+06    -31.2166E+06     2.49349E+06     5.20696E+06    -58.6858E-03     97.6767E-03    -38.9909E-03     23.9161E-03    -58.9088E-03     97.6759E-03    -38.8896E-03     23.4743E-03
            2332     10.4064E-03     7.32693E-03    -31.4693E+06    -58.9397E+06     2.33248E+06     3.65365E+06    -52.7558E-03     90.3987E-03    -37.6429E-03     22.6137E-03    -52.9082E-03     90.2241E-03    -37.5001E-03     22.3019E-03
            2333     9.55042E-03     7.30980E-03    -32.5430E+06    -78.8191E+06     3.78873E+06     2.31852E+06    -47.9532E-03     84.4762E-03    -36.5230E-03     22.0636E-03    -48.0603E-03     84.1776E-03    -36.3426E-03     21.8350E-03
            2334     8.69060E-03     7.29687E-03    -33.5699E+06    -93.9841E+06     4.53626E+06     1.26985E+06    -44.1310E-03     79.7204E-03    -35.5894E-03     21.7449E-03    -44.2064E-03     79.3303E-03    -35.3818E-03     21.5714E-03
            2335     7.82770E-03     7.28540E-03     -34.756E+06    -103.687E+06     2.27740E+06     318.329E+03    -41.0910E-03     75.8892E-03    -34.7983E-03     21.3352E-03    -41.1438E-03     75.4443E-03    -34.5862E-03     21.1983E-03
            2336     6.96250E-03     7.27632E-03    -35.8367E+06    -109.882E+06    -1.19896E+06    -331.320E+03    -38.7174E-03     72.8505E-03    -34.1331E-03     20.6263E-03    -38.7537E-03     72.3731E-03    -33.9278E-03     20.5163E-03
            2337     6.09544E-03     7.26801E-03    -36.7672E+06    -114.280E+06    -5.02450E+06    -1.12028E+06    -36.8505E-03     70.4272E-03    -33.5767E-03     19.5491E-03    -36.8738E-03     69.9288E-03    -33.3828E-03     19.4557E-03
            2338     5.22699E-03     7.26111E-03    -38.0719E+06    -117.423E+06    -11.4415E+06    -2.08721E+06    -35.3806E-03     68.4820E-03    -33.1014E-03     17.9828E-03    -35.3923E-03     67.9748E-03    -32.9331E-03     17.8974E-03
            2339     4.35738E-03     7.25491E-03    -39.6603E+06    -121.400E+06    -18.8878E+06    -2.53595E+06    -34.2285E-03     66.9331E-03    -32.7046E-03     15.9513E-03    -34.2286E-03     66.4160E-03    -32.5655E-03     15.8760E-03
            2340     3.48691E-03     7.24998E-03    -41.3733E+06    -125.513E+06    -26.0094E+06    -2.61607E+06    -33.3273E-03     65.7106E-03    -32.3833E-03     13.4728E-03    -33.3176E-03     65.1835E-03    -32.2713E-03     13.4089E-03
            2341     2.61572E-03     7.24584E-03    -43.3968E+06    -130.208E+06    -33.5853E+06    -2.47419E+06    -32.6476E-03     64.7770E-03    -32.1294E-03     10.5656E-03    -32.6288E-03     64.2389E-03    -32.0456E-03     10.5134E-03
            2342     1.74413E-03     7.24296E-03    -45.3908E+06    -134.581E+06    -40.6374E+06    -1.84480E+06    -32.1773E-03     64.1180E-03    -31.9408E-03     7.36207E-03    -32.1511E-03     63.5703E-03    -31.8830E-03     7.32571E-03
            2343     872.134E-06     7.24098E-03    -46.8410E+06    -137.482E+06    -45.4228E+06    -902.686E+03    -31.8721E-03     63.7050E-03    -31.8329E-03     4.08921E-03    -31.8415E-03     63.1514E-03    -31.7927E-03     4.07119E-03
            2344     16.2485E-03     6.57588E-03    -3.85740E+06     110.927E+06     82.1200E+06    -32.0498E+03    -94.3915E-03     145.832E-03    -51.4407E-03     47.1594E-03    -95.1267E-03     146.710E-03    -51.1853E-03     45.5990E-03
            2345     15.4279E-03     6.50882E-03    -9.53119E+06     111.150E+06     80.0347E+06     1.17921E+06    -93.0638E-03     142.185E-03    -49.1210E-03     57.8827E-03    -94.0110E-03     143.262E-03    -48.8682E-03     55.9802E-03
            2346     14.6089E-03     6.44667E-03    -16.3274E+06     99.5895E+06     62.8209E+06     4.51989E+06    -87.8568E-03     134.524E-03    -46.6674E-03     56.6098E-03    -88.7203E-03     135.503E-03    -46.4740E-03     54.9863E-03
            2347     13.7813E-03     6.38500E-03    -22.7646E+06     83.8308E+06     33.9304E+06     8.07929E+06    -78.6434E-03     122.947E-03    -44.3035E-03     46.8733E-03    -79.3302E-03     123.754E-03    -44.2224E-03     45.6816E-03
            2348     12.9462E-03     6.34882E-03    -27.5208E+06     55.3215E+06     11.5093E+06     9.87034E+06    -68.7549E-03     111.059E-03    -42.3040E-03     35.2158E-03    -69.2364E-03     111.608E-03    -42.2867E-03     34.4457E-03
            2349     12.1027E-03     6.32320E-03    -30.8004E+06     12.5786E+06     7.75429E+06     7.37293E+06    -60.5753E-03     101.344E-03    -40.7683E-03     31.9998E-03    -60.9190E-03     101.602E-03    -40.7031E-03     31.4809E-03
            2350     11.2523E-03     6.30509E-03    -33.0015E+06    -27.9979E+06     8.46409E+06     3.36744E+06    -54.1329E-03     93.6938E-03    -39.5610E-03     31.2244E-03    -54.3796E-03     93.7006E-03    -39.4302E-03     30.8344E-03
            2351     10.3974E-03     6.29095E-03    -33.6503E+06    -56.5678E+06     8.48972E+06     442.684E+03    -49.1531E-03     87.7423E-03    -38.5892E-03     31.1377E-03    -49.3280E-03     87.5731E-03    -38.4159E-03     30.8321E-03
            2352     9.53841E-03     6.28016E-03    -33.8284E+06    -77.7281E+06     10.0425E+06    -1.33120E+06    -45.3701E-03     83.1940E-03    -37.8240E-03     31.1195E-03    -45.4947E-03     82.8940E-03    -37.6120E-03     30.8741E-03
            2353     8.67657E-03     6.27078E-03    -34.2982E+06    -92.7793E+06     10.1861E+06    -2.66397E+06    -42.5686E-03     79.7776E-03    -37.2091E-03     30.6251E-03    -42.6581E-03     79.3867E-03    -36.9739E-03     30.4202E-03
            2354     7.81278E-03     6.26328E-03    -34.7112E+06    -102.877E+06     7.67776E+06    -4.03075E+06    -40.4997E-03     77.2007E-03    -36.7010E-03     29.6103E-03    -40.5617E-03     76.7520E-03    -36.4631E-03     29.4299E-03
            2355     6.94731E-03     6.25623E-03    -34.9845E+06    -109.815E+06     3.49190E+06    -4.99896E+06    -38.9578E-03     75.2357E-03    -36.2779E-03     27.9971E-03    -38.9968E-03     74.7503E-03    -36.0505E-03     27.8356E-03
            2356     6.08083E-03     6.25027E-03    -35.4933E+06    -114.108E+06    -2.61192E+06    -5.46463E+06    -37.7889E-03     73.7076E-03    -35.9187E-03     25.8591E-03    -37.8094E-03     73.2042E-03    -35.7148E-03     25.7160E-03
            2357     5.21340E-03     6.24465E-03    -36.4235E+06    -117.999E+06    -10.5345E+06    -5.53280E+06    -36.8832E-03     72.4970E-03    -35.6138E-03     23.2094E-03    -36.8870E-03     71.9826E-03    -35.4425E-03     23.0843E-03
            2358     4.34535E-03     6.23997E-03    -37.8152E+06    -122.601E+06    -18.4863E+06    -5.20841E+06    -36.1863E-03     71.5513E-03    -35.3650E-03     20.1024E-03    -36.1760E-03     71.0243E-03    -35.2248E-03     19.9963E-03
            2359     3.47677E-03     6.23576E-03    -39.7200E+06    -127.313E+06    -26.1188E+06    -4.41090E+06    -35.6604E-03     70.8265E-03    -35.1662E-03     16.6221E-03    -35.6397E-03     70.2878E-03    -35.0545E-03     16.5378E-03
            2360     2.60793E-03     6.23254E-03    -42.1014E+06    -132.430E+06    -33.7732E+06    -3.12654E+06    -35.2827E-03     70.2919E-03    -35.0092E-03     12.8240E-03    -35.2541E-03     69.7407E-03    -34.9250E-03     12.7652E-03
            2361     1.73871E-03     6.23001E-03    -44.4760E+06    -136.847E+06    -40.5127E+06    -1.89917E+06    -35.0101E-03     69.9036E-03    -34.8935E-03     8.80554E-03    -34.9764E-03     69.3427E-03    -34.8331E-03     8.76968E-03
            2362     869.390E-06     6.22855E-03    -46.0611E+06     -139.58E+06    -45.0237E+06    -880.846E+03    -34.8038E-03     69.6738E-03    -34.8700E-03     4.85521E-03    -34.7671E-03     69.1078E-03    -34.8260E-03     4.83808E-03
            2363     16.2465E-03     5.47332E-03    -4.10251E+06     109.318E+06     80.7637E+06     1.03524E+06    -96.4722E-03     147.917E-03    -51.4444E-03     49.0940E-03    -97.1914E-03     148.776E-03    -51.1931E-03     47.5456E-03
            2364     15.4318E-03     5.41625E-03    -10.7830E+06     107.393E+06     78.1503E+06     4.11624E+06    -92.1869E-03     141.288E-03    -49.1011E-03     59.0406E-03    -93.0906E-03     142.310E-03    -48.8505E-03     57.2973E-03
            2365     14.6078E-03     5.35986E-03    -17.9076E+06     95.5826E+06     63.4392E+06     7.39985E+06    -83.7336E-03     130.541E-03    -46.8073E-03     57.1766E-03    -84.5437E-03     131.445E-03    -46.6028E-03     55.7961E-03
            2366     13.7779E-03     5.31629E-03    -24.0004E+06     79.9120E+06     39.3370E+06     11.0503E+06    -72.4018E-03     117.192E-03    -44.7899E-03     49.0493E-03    -73.0401E-03     117.917E-03    -44.6743E-03     48.1230E-03
            2367     12.9355E-03     5.29205E-03    -29.3612E+06     58.3051E+06     20.5571E+06     11.4755E+06    -62.0598E-03     105.305E-03    -43.2456E-03     42.3205E-03    -62.5395E-03     105.830E-03    -43.1848E-03     41.7469E-03
            2368     12.0861E-03     5.27706E-03    -32.6971E+06     19.7765E+06     16.9003E+06     5.85409E+06    -54.9914E-03     97.1793E-03    -42.1878E-03     41.9142E-03    -55.3563E-03     97.4507E-03    -42.0846E-03     41.4875E-03
            2369     11.2318E-03     5.26544E-03    -33.1630E+06    -23.8611E+06     17.0418E+06    -479.133E+03    -50.1405E-03     91.5738E-03    -41.4332E-03     42.1978E-03    -50.3998E-03     91.5821E-03    -41.2653E-03     41.8290E-03
            2370     10.3736E-03     5.25722E-03    -33.1078E+06    -54.5181E+06     16.4293E+06    -4.03155E+06    -46.7563E-03     87.6148E-03    -40.8585E-03     41.9478E-03    -46.9388E-03     87.4390E-03    -40.6493E-03     41.6286E-03
            2371     9.51318E-03     5.24978E-03    -33.4305E+06    -76.8828E+06     17.4848E+06    -6.17771E+06    -44.3925E-03     84.8218E-03    -40.4292E-03     41.0741E-03    -44.5242E-03     84.5110E-03    -40.1818E-03     40.7946E-03
            2372     8.65109E-03     5.24363E-03    -33.4039E+06    -91.6671E+06     15.5505E+06    -8.12298E+06    -42.7854E-03     82.8652E-03    -40.0798E-03     39.3586E-03    -42.8775E-03     82.4678E-03    -39.8207E-03     39.1023E-03
            2373     7.78779E-03     5.23763E-03    -33.0657E+06    -102.711E+06     11.1629E+06    -9.79414E+06    -41.7008E-03     81.4855E-03    -39.7847E-03     36.9325E-03    -41.7579E-03     81.0276E-03    -39.5320E-03     36.6907E-03
            2374     6.92398E-03     5.23245E-03    -32.8703E+06    -110.823E+06     5.18544E+06    -10.3989E+06    -40.9079E-03     80.4358E-03    -39.5279E-03     33.9369E-03    -40.9359E-03     79.9377E-03    -39.2936E-03     33.7152E-03
            2375     6.05944E-03     5.22734E-03    -33.0159E+06    -115.870E+06    -3.50667E+06    -10.0043E+06    -40.2853E-03     79.5781E-03    -39.2928E-03     30.4969E-03    -40.2886E-03     79.0620E-03    -39.0945E-03     30.3020E-03
            2376     5.19458E-03     5.22293E-03    -33.7368E+06    -120.680E+06    -12.0034E+06    -8.77525E+06    -39.7951E-03     78.8874E-03    -39.0924E-03     26.7282E-03    -39.7788E-03     78.3566E-03    -38.9285E-03     26.5663E-03
            2377     4.32930E-03     5.21873E-03    -35.2663E+06    -125.641E+06    -19.9652E+06    -6.93813E+06    -39.4030E-03     78.3277E-03    -38.9247E-03     22.6571E-03    -39.3729E-03     77.7831E-03    -38.7912E-03     22.5322E-03
            2378     3.46379E-03     5.21534E-03    -37.7063E+06    -130.768E+06    -27.5212E+06    -4.82265E+06    -39.0786E-03     77.8670E-03    -38.7883E-03     18.3938E-03    -39.0406E-03     77.3094E-03    -38.6817E-03     18.3067E-03
            2379     2.59795E-03     5.21232E-03    -40.3570E+06    -135.445E+06    -34.2428E+06    -2.88454E+06    -38.8395E-03     77.5220E-03    -38.6825E-03     14.0013E-03    -38.7971E-03     76.9535E-03    -38.5988E-03     13.9474E-03
            2380     1.73212E-03     5.21029E-03    -42.6203E+06    -139.145E+06    -39.6183E+06    -1.49212E+06    -38.6873E-03     77.2884E-03    -38.6011E-03     9.49567E-03    -38.6424E-03     76.7118E-03    -38.5356E-03     9.46603E-03
            2381     866.086E-06     5.20886E-03    -44.1293E+06    -141.337E+06    -43.3131E+06    -682.461E+03    -38.5334E-03     77.1120E-03    -38.5786E-03     5.15247E-03    -38.4871E-03     76.5317E-03    -38.5262E-03     5.13826E-03
            2382     16.2448E-03     4.37142E-03    -4.79453E+06     105.913E+06     77.8187E+06     2.74777E+06    -94.6667E-03     146.575E-03    -51.9085E-03     53.6131E-03    -95.3643E-03     147.408E-03    -51.6660E-03     52.2071E-03
            2383     15.4225E-03     4.32419E-03    -10.7386E+06     102.943E+06     76.2143E+06     7.30546E+06    -86.9185E-03     136.707E-03    -49.7889E-03     64.9212E-03    -87.7764E-03     137.674E-03    -49.5415E-03     63.4609E-03
            2384     14.5956E-03     4.28084E-03    -17.2531E+06     91.8705E+06     65.2755E+06     9.97061E+06    -75.8337E-03     123.758E-03    -47.9243E-03     62.3586E-03    -76.5748E-03     124.578E-03    -47.7061E-03     61.2971E-03
            2385     13.7549E-03     4.25411E-03    -22.7530E+06     77.1494E+06     47.2139E+06     12.4269E+06    -63.8529E-03     110.344E-03    -46.4907E-03     56.6302E-03    -64.4300E-03     110.980E-03    -46.3335E-03     55.9812E-03
            2386     12.9065E-03     4.24213E-03    -25.4577E+06     64.3459E+06     33.2775E+06     10.3649E+06    -55.6496E-03     101.180E-03    -45.5309E-03     54.0866E-03    -56.1060E-03     101.680E-03    -45.4209E-03     53.6596E-03
            2387     12.0522E-03     4.23324E-03    -26.6730E+06     28.6171E+06     27.6062E+06     2.70419E+06    -51.1663E-03     96.1168E-03    -44.9505E-03     54.1031E-03    -51.5096E-03     96.3876E-03    -44.8153E-03     53.7341E-03
            2388     11.1949E-03     4.22684E-03    -28.4113E+06    -20.2740E+06     24.0854E+06    -4.28261E+06    -48.5627E-03     93.1407E-03    -44.5780E-03     52.9484E-03    -48.7991E-03     93.1344E-03    -44.3870E-03     52.5929E-03
            2389     10.3365E-03     4.22098E-03    -30.1010E+06    -52.5438E+06     21.2301E+06    -8.29333E+06    -46.9368E-03     91.2295E-03    -44.2927E-03     50.8489E-03    -47.1034E-03     91.0405E-03    -44.0667E-03     50.5156E-03
            2390     9.47697E-03     4.21610E-03    -30.4016E+06    -75.4169E+06     20.3053E+06    -11.9266E+06    -45.9488E-03     90.0164E-03    -44.0677E-03     48.0243E-03    -46.0636E-03     89.6957E-03    -43.8127E-03     47.6978E-03
            2391     8.61680E-03     4.21085E-03    -29.5944E+06    -91.2657E+06     16.1335E+06    -14.5972E+06    -45.2984E-03     89.1521E-03    -43.8537E-03     44.5136E-03    -45.3669E-03     88.7435E-03    -43.5978E-03     44.1931E-03
            2392     7.75642E-03     4.20621E-03    -28.8611E+06    -103.970E+06     9.03919E+06    -15.6538E+06    -44.8322E-03     88.4767E-03    -43.6445E-03     40.5223E-03    -44.8592E-03     88.0045E-03    -43.4067E-03     40.2190E-03
            2393     6.89552E-03     4.20145E-03    -28.7730E+06    -113.756E+06     1.24351E+06    -15.2549E+06    -44.4400E-03     87.8842E-03    -43.4443E-03     36.2605E-03    -44.4345E-03     87.3678E-03    -43.2314E-03     35.9862E-03
            2394     6.03452E-03     4.19736E-03    -29.4514E+06    -120.142E+06    -7.92959E+06    -13.3428E+06    -44.0719E-03     87.3193E-03    -43.2474E-03     31.8767E-03    -44.0428E-03     86.7807E-03    -43.0701E-03     31.6460E-03
            2395     5.17306E-03     4.19329E-03    -31.0455E+06    -125.721E+06    -16.1398E+06    -10.3531E+06    -43.7227E-03     86.7934E-03    -43.0707E-03     27.4361E-03    -43.6784E-03     86.2379E-03    -42.9240E-03     27.2590E-03
            2396     4.31142E-03     4.18982E-03    -33.3959E+06    -130.644E+06    -23.1892E+06    -7.01228E+06    -43.4026E-03     86.3190E-03    -42.9165E-03     22.9154E-03    -43.3505E-03     85.7504E-03    -42.7945E-03     22.7931E-03
            2397     3.44947E-03     4.18670E-03    -35.9277E+06    -134.903E+06    -29.1479E+06    -4.11166E+06    -43.1152E-03     85.9005E-03    -42.7853E-03     18.3760E-03    -43.0595E-03     85.3215E-03    -42.6833E-03     18.3005E-03
            2398     2.58737E-03     4.18427E-03    -38.1918E+06    -138.345E+06    -34.2796E+06    -2.11915E+06    -42.8692E-03     85.5474E-03    -42.6783E-03     13.8619E-03    -42.8115E-03     84.9611E-03    -42.5937E-03     13.8193E-03
            2399     1.72495E-03     4.18223E-03    -39.9987E+06    -140.982E+06    -38.2225E+06    -900.203E+03    -42.6901E-03     85.2882E-03    -42.5982E-03     9.34579E-03    -42.6313E-03     84.6965E-03    -42.5269E-03     9.32463E-03
            2400     862.586E-06     4.18119E-03    -41.1487E+06    -142.369E+06    -40.7808E+06    -317.827E+03    -42.5758E-03     85.1169E-03    -42.5412E-03     5.05803E-03    -42.5167E-03     84.5234E-03    -42.4790E-03     5.04898E-03
            2401     16.2235E-03     3.27848E-03    -6.09448E+06     101.755E+06     74.4081E+06     4.04072E+06    -87.6512E-03     140.885E-03    -53.2340E-03     64.7065E-03    -88.3452E-03     141.706E-03    -53.0007E-03     63.5205E-03
            2402     15.3967E-03     3.23543E-03    -10.6079E+06     97.6911E+06     74.2358E+06     8.07487E+06    -78.1329E-03     129.741E-03    -51.6080E-03     75.4578E-03    -78.9331E-03     130.639E-03    -51.3630E-03     74.3091E-03
            2403     14.5595E-03     3.21155E-03    -13.9414E+06     89.5590E+06     68.6132E+06     11.1366E+06    -66.1994E-03     116.571E-03    -50.3717E-03     71.0610E-03    -66.8379E-03     117.283E-03    -50.1383E-03     70.3235E-03
            2404     13.7122E-03     3.19961E-03    -17.1198E+06     79.0707E+06     54.5615E+06     10.0070E+06    -57.3239E-03     106.885E-03    -49.5611E-03     68.1491E-03    -57.8190E-03     107.443E-03    -49.3781E-03     67.6868E-03
            2405     12.8580E-03     3.19351E-03    -17.4934E+06     70.3532E+06     37.7425E+06     5.88363E+06    -53.4139E-03     102.450E-03    -49.0358E-03     64.6748E-03    -53.8023E-03     102.916E-03    -48.9238E-03     64.3174E-03
            2406     12.0030E-03     3.18801E-03    -18.7031E+06     34.8476E+06     25.1561E+06     1.14738E+06    -51.6453E-03     100.355E-03    -48.7092E-03     61.2439E-03    -51.9219E-03     100.614E-03    -48.6068E-03     60.9373E-03
            2407     11.1480E-03     3.18322E-03    -22.0326E+06    -15.4644E+06     17.5169E+06    -5.42252E+06    -50.7413E-03     99.2367E-03    -48.4954E-03     57.0154E-03    -50.9195E-03     99.2295E-03    -48.3534E-03     56.7020E-03
            2408     10.2919E-03     3.17905E-03    -23.7509E+06    -49.1441E+06     11.2860E+06    -12.1942E+06    -50.2768E-03     98.5654E-03    -48.2886E-03     52.5566E-03    -50.3852E-03     98.3806E-03    -48.1264E-03     52.2128E-03
            2409     9.43598E-03     3.17439E-03    -23.4534E+06    -73.4842E+06     6.88959E+06    -17.1360E+06    -49.9576E-03     98.0390E-03    -48.0813E-03     47.8632E-03    -50.0089E-03     97.7244E-03    -47.9063E-03     47.4985E-03
            2410     8.57995E-03     3.17027E-03    -23.0434E+06    -92.3855E+06     1.75667E+06    -19.5583E+06    -49.6233E-03     97.4869E-03    -47.8636E-03     43.1001E-03    -49.6280E-03     97.0751E-03    -47.6875E-03     42.7372E-03
            2411     7.72340E-03     3.16591E-03    -23.3358E+06    -107.781E+06    -4.99155E+06    -19.1406E+06    -49.2443E-03     96.8810E-03    -47.6366E-03     38.3672E-03    -49.2118E-03     96.3959E-03    -47.4715E-03     38.0350E-03
            2412     6.86675E-03     3.16216E-03    -24.7658E+06    -118.819E+06    -11.1831E+06    -16.8826E+06    -48.8334E-03     96.2469E-03    -47.4135E-03     33.6957E-03    -48.7785E-03     95.7133E-03    -47.2613E-03     33.4125E-03
            2413     6.00947E-03     3.15844E-03    -27.2295E+06    -126.614E+06    -17.0108E+06    -13.6596E+06    -48.4073E-03     95.6047E-03    -47.1974E-03     29.1745E-03    -48.3418E-03     95.0410E-03    -47.0594E-03     28.9485E-03
            2414     5.15201E-03     3.15524E-03    -29.8308E+06    -132.455E+06    -22.4174E+06    -9.58197E+06    -47.9647E-03     94.9579E-03    -46.9932E-03     24.7746E-03    -47.8937E-03     94.3745E-03    -46.8699E-03     24.6137E-03
            2415     4.29401E-03     3.15219E-03    -32.3095E+06    -136.124E+06    -27.1474E+06    -5.80536E+06    -47.5197E-03     94.3282E-03    -46.8085E-03     20.4915E-03    -47.4474E-03     93.7355E-03    -46.7000E-03     20.3893E-03
            2416     3.43574E-03     3.14972E-03      -34.44E+06    -138.821E+06    -30.9955E+06    -3.10883E+06    -47.1357E-03     93.7860E-03    -46.6502E-03     16.3453E-03    -47.0636E-03     93.1875E-03    -46.5540E-03     16.2857E-03
            2417     2.57710E-03     3.14759E-03    -36.0510E+06    -140.840E+06    -34.1384E+06    -1.20256E+06    -46.8084E-03     93.3286E-03    -46.5201E-03     12.2879E-03    -46.7362E-03     92.7262E-03    -46.4343E-03     12.2591E-03
            2418     1.71830E-03     3.14610E-03    -37.0895E+06    -142.006E+06    -36.4113E+06    -229.350E+03    -46.5399E-03     92.9685E-03    -46.4286E-03     8.28555E-03    -46.4675E-03     92.3648E-03    -46.3510E-03     8.27439E-03
            2419     859.072E-06     3.14509E-03    -37.9145E+06    -142.717E+06    -37.8787E+06     61.6559E+03    -46.4166E-03     92.7827E-03    -46.3661E-03     4.48353E-03    -46.3448E-03     92.1787E-03    -46.2936E-03     4.48012E-03
            2420     16.1823E-03     2.18518E-03    -5.32389E+06     98.7083E+06     74.2758E+06     5.18652E+06    -77.5117E-03     133.241E-03    -55.7291E-03     79.0108E-03    -78.1697E-03     134.018E-03    -55.4931E-03     78.0858E-03
            2421     15.3479E-03     2.15702E-03    -8.35774E+06     93.2951E+06     74.3804E+06     6.75763E+06    -69.8977E-03     124.607E-03    -54.7090E-03     83.0341E-03    -70.5607E-03     125.358E-03    -54.4603E-03     82.1952E-03
            2422     14.5019E-03     2.15102E-03    -9.61503E+06     89.9036E+06     72.2174E+06     7.61629E+06    -61.7446E-03     115.736E-03    -53.9912E-03     74.7330E-03    -62.2424E-03     116.309E-03    -53.7465E-03     74.2247E-03
            2423     13.6498E-03     2.14346E-03    -9.51296E+06     84.2633E+06     55.8244E+06     4.96614E+06    -58.1713E-03     111.638E-03    -53.4669E-03     69.1443E-03    -58.5563E-03     112.125E-03    -53.2962E-03     68.7807E-03
            2424     12.8011E-03     2.13860E-03    -11.0247E+06     71.6079E+06     25.9055E+06     3.39491E+06    -57.1783E-03     110.163E-03    -52.9846E-03     61.2403E-03    -57.4598E-03     110.582E-03    -52.9429E-03     60.9644E-03
            2425     11.9515E-03     2.13481E-03    -13.1613E+06     38.2424E+06     3.61097E+06     1.36897E+06    -56.4515E-03     109.046E-03    -52.5944E-03     54.8912E-03    -56.6335E-03     109.305E-03    -52.6127E-03     54.6685E-03
            2426     11.1006E-03     2.13111E-03    -14.0196E+06    -7.39776E+06    -7.75027E+06    -5.79042E+06    -55.9655E-03     108.251E-03    -52.2859E-03     49.1009E-03    -56.0503E-03     108.281E-03    -52.2936E-03     48.8451E-03
            2427     10.2501E-03     2.12722E-03    -14.5040E+06    -44.6367E+06    -16.5559E+06    -13.5915E+06    -55.5637E-03     107.540E-03    -51.9764E-03     43.7195E-03    -55.5723E-03     107.385E-03    -51.9734E-03     43.4050E-03
            2428     9.39896E-03     2.12370E-03    -15.6972E+06    -72.4841E+06    -22.6772E+06    -17.7975E+06    -55.0321E-03     106.697E-03    -51.6651E-03     38.7529E-03    -54.9893E-03     106.406E-03    -51.6506E-03     38.4161E-03
            2429     8.54713E-03     2.12013E-03    -17.8881E+06    -95.0202E+06    -26.2024E+06    -18.9853E+06    -54.3939E-03     105.759E-03    -51.3649E-03     34.1737E-03    -54.3190E-03     105.358E-03    -51.3322E-03     33.8460E-03
            2430     7.69492E-03     2.11702E-03    -20.6864E+06    -113.712E+06    -28.2937E+06    -17.4523E+06    -53.7072E-03     104.786E-03    -51.0784E-03     29.9493E-03    -53.6125E-03     104.295E-03    -51.0250E-03     29.6604E-03
            2431     6.84182E-03     2.11392E-03    -23.7601E+06    -125.304E+06    -29.3677E+06    -14.1435E+06    -53.0177E-03     103.820E-03    -50.8024E-03     26.0149E-03    -52.9176E-03     103.275E-03    -50.7331E-03     25.7834E-03
            2432     5.98839E-03     2.11131E-03    -26.8489E+06    -133.205E+06    -29.0970E+06    -10.6814E+06    -52.3534E-03     102.899E-03    -50.5453E-03     22.3300E-03    -52.2560E-03     102.317E-03    -50.4587E-03     22.1547E-03
            2433     5.13418E-03     2.10877E-03    -29.6710E+06    -139.098E+06    -29.4315E+06    -7.25215E+06    -51.7054E-03     102.008E-03    -50.3031E-03     18.8349E-03    -51.6118E-03     101.400E-03    -50.2055E-03     18.7132E-03
            2434     4.27955E-03     2.10678E-03    -31.6893E+06    -140.864E+06    -31.1702E+06    -4.04286E+06    -51.0911E-03     101.166E-03    -50.0745E-03     15.5034E-03    -51.0017E-03     100.553E-03    -49.9801E-03     15.4305E-03
            2435     3.42424E-03     2.10486E-03    -33.2247E+06    -141.984E+06    -32.9226E+06    -1.76039E+06    -50.5455E-03     100.425E-03    -49.8791E-03     12.3168E-03    -50.4590E-03     99.8109E-03    -49.7896E-03     12.2793E-03
            2436     2.56861E-03     2.10340E-03    -34.2839E+06    -142.511E+06    -33.9704E+06    -469.860E+03    -50.1018E-03     99.8277E-03    -49.7259E-03     9.21343E-03    -50.0180E-03     99.2141E-03    -49.6394E-03     9.19724E-03
            2437     1.71249E-03     2.10229E-03    -34.7914E+06    -142.484E+06    -34.5126E+06     99.6080E+03    -49.7826E-03     99.3988E-03    -49.6162E-03     6.21010E-03    -49.7004E-03     98.7867E-03    -49.5317E-03     6.20507E-03
            2438     856.395E-06     2.10155E-03    -35.0673E+06    -142.455E+06    -34.9918E+06     270.657E+03    -49.6082E-03     99.1402E-03    -49.5320E-03     3.38823E-03    -49.5264E-03     98.5294E-03    -49.4496E-03     3.38858E-03
            2439     16.1230E-03     1.10036E-03    -1.33101E+06     98.9653E+06     79.2133E+06     4.90050E+06    -78.9832E-03     138.172E-03    -59.1891E-03     83.4526E-03    -79.5145E-03     138.817E-03    -58.9346E-03     82.7485E-03
            2440     15.2802E-03     1.08367E-03    -3.30712E+06     94.5187E+06     79.1142E+06     3.77442E+06    -71.4795E-03     129.734E-03    -58.2542E-03     66.5911E-03    -71.9237E-03     130.271E-03    -57.9908E-03     66.0933E-03
            2441     14.4391E-03     1.08325E-03    -5.36828E+06     91.7342E+06     71.6076E+06     1.52693E+06    -67.0626E-03     124.580E-03    -57.5170E-03     52.8279E-03    -67.4084E-03     125.022E-03    -57.2842E-03     52.5077E-03
            2442     13.5996E-03     1.07618E-03    -6.21164E+06     85.1799E+06     47.6425E+06     1.55933E+06    -64.9390E-03     121.761E-03    -56.8221E-03     45.4395E-03    -65.2127E-03     122.175E-03    -56.6984E-03     45.2114E-03
            2443     12.7560E-03     1.07344E-03    -7.04678E+06     70.0701E+06     13.2516E+06     2.85081E+06    -63.3574E-03     119.502E-03    -56.1444E-03     37.6888E-03    -63.5428E-03     119.872E-03    -56.1696E-03     37.5479E-03
            2444     11.9113E-03     1.07117E-03    -6.35615E+06     42.2059E+06    -17.3638E+06     958.193E+03    -62.2765E-03     117.808E-03    -55.5314E-03     32.6052E-03    -62.3636E-03     118.072E-03    -55.6702E-03     32.4838E-03
            2445     11.0667E-03     1.06875E-03    -5.77941E+06     385.865E+03    -36.8843E+06    -4.36478E+06    -61.2910E-03     116.300E-03    -55.0087E-03     28.4504E-03    -61.2795E-03     116.375E-03    -55.1853E-03     28.2941E-03
            2446     10.2203E-03     1.06642E-03    -7.56456E+06    -41.1366E+06    -46.2882E+06    -9.23564E+06    -60.2321E-03     114.787E-03    -54.5548E-03     24.8351E-03    -60.1514E-03     114.667E-03    -54.7156E-03     24.6397E-03
            2447     9.37304E-03     1.06427E-03    -11.2648E+06    -72.7519E+06    -50.8080E+06    -11.3822E+06    -59.1357E-03     113.270E-03    -54.1340E-03     21.6924E-03    -59.0184E-03     113.001E-03    -54.2662E-03     21.4869E-03
            2448     8.52486E-03     1.06236E-03    -15.9552E+06    -97.9646E+06    -50.9461E+06    -11.5046E+06    -58.0473E-03     111.799E-03    -53.7514E-03     18.9294E-03    -57.9149E-03     111.409E-03    -53.8410E-03     18.7361E-03
            2449     7.67545E-03     1.06056E-03    -20.6923E+06    -118.851E+06    -47.9960E+06    -10.3524E+06    -57.0003E-03     110.405E-03    -53.4050E-03     16.4274E-03    -56.8644E-03     109.913E-03    -53.4427E-03     16.2591E-03
            2450     6.82533E-03     1.05897E-03    -24.6937E+06    -131.125E+06    -44.0847E+06    -8.11604E+06    -55.9989E-03     109.079E-03    -53.0797E-03     14.1703E-03    -55.8701E-03     108.524E-03    -53.0742E-03     14.0390E-03
            2451     5.97411E-03     1.05737E-03    -27.8882E+06    -137.937E+06    -40.1466E+06    -5.70215E+06    -55.0658E-03     107.844E-03    -52.7784E-03     12.0832E-03    -54.9482E-03     107.254E-03    -52.7387E-03     11.9893E-03
            2452     5.12233E-03     1.05617E-03    -30.2626E+06    -143.465E+06    -36.7338E+06    -3.93364E+06    -54.2309E-03     106.737E-03    -52.5064E-03     10.1677E-03    -54.1217E-03     106.118E-03    -52.4382E-03     10.1015E-03
            2453     4.26970E-03     1.05498E-03    -31.9329E+06    -144.640E+06    -34.9733E+06    -2.05986E+06    -53.4968E-03     105.752E-03    -52.2547E-03     8.37386E-03    -53.3965E-03     105.126E-03    -52.1736E-03     8.33589E-03
            2454     3.41667E-03     1.05413E-03    -32.6868E+06    -143.828E+06    -33.9359E+06    -562.528E+03    -52.8563E-03     104.890E-03    -52.0342E-03     6.64751E-03    -52.7623E-03     104.268E-03    -51.9479E-03     6.63210E-03
            2455     2.56290E-03     1.05331E-03    -32.9517E+06    -143.143E+06    -33.2955E+06    -50.9185E+03    -52.3325E-03     104.187E-03    -51.8544E-03     4.95438E-03    -52.2416E-03     103.567E-03    -51.7656E-03     4.94814E-03
            2456     1.70894E-03     1.05271E-03    -33.1054E+06    -142.625E+06    -33.0032E+06     107.599E+03    -51.9486E-03     103.666E-03    -51.7172E-03     3.31488E-03    -51.8596E-03     103.048E-03    -51.6274E-03     3.31278E-03
            2457     854.468E-06     1.05227E-03    -33.0589E+06    -142.055E+06    -33.0255E+06     187.894E+03    -51.7212E-03     103.315E-03    -51.5939E-03     1.80137E-03    -51.6325E-03     102.701E-03    -51.5051E-03     1.80203E-03


