********************************************************************************
Field Output Report, written Tue May 28 19:21:27 2024

Source 1
---------

   ODB: G:/Abaqus_calc_2019/1740/Vel_20/odb/zeides_2a_32_red_2000_cal_30_vel_20_fric_050.odb
   Step: Step-1
   Frame: Increment   7588644: Step Time =   0.7467

Loc 1 : Nodal values from source 1

Output sorted by column "Nodal Label".

Field Output reported at nodes for region: DIE_2A_32_D0_36-1.Region_1
   Computation algorithm: EXTRAPOLATE_COMPUTE_AVERAGE
   Averaged at nodes
   Averaging regions: ODB_REGIONS

      Node Label     COORD.COOR1     COORD.COOR2
                          @Loc 1          @Loc 1
-------------------------------------------------
               1     18.3692E-03     176.630E-03


Field Output reported at nodes for region: DIE_2A_32_D0_36-1.Region_2
   Computation algorithm: EXTRAPOLATE_COMPUTE_AVERAGE
   Averaged at nodes
   Averaging regions: ODB_REGIONS

      Node Label     COORD.COOR1     COORD.COOR2
                          @Loc 1          @Loc 1
-------------------------------------------------
               1     18.3692E-03     176.630E-03


Field Output reported at nodes for part: WIRE-1
   Computation algorithm: EXTRAPOLATE_COMPUTE_AVERAGE
   Averaged at nodes
   Averaging regions: ODB_REGIONS

      Node Label     COORD.COOR1     COORD.COOR2           S.S11           S.S22           S.S33           S.S12         PE.PE11         PE.PE22         PE.PE33         PE.PE12         LE.LE11         LE.LE22         LE.LE33         LE.LE12
                          @Loc 1          @Loc 1          @Loc 1          @Loc 1          @Loc 1          @Loc 1          @Loc 1          @Loc 1          @Loc 1          @Loc 1          @Loc 1          @Loc 1          @Loc 1          @Loc 1
-------------------------------------------------------------------------------------------------------------------------------------------------------------------------------------------------------------------------------------------------
               1     14.6821E-09     84.5208E-03    -144.647E+06    -307.134E+06    -142.223E+06     -54.622E+03    -228.248E-03     456.447E-03    -228.199E-03     13.6782E-03    -228.344E-03     455.353E-03    -228.255E-03     12.0726E-03
               2     14.3375E-03     88.1886E-03    -2.96990E+06     73.9449E+06     86.8271E+06     761.802E+03    -226.076E-03     453.972E-03    -227.897E-03     71.1484E-03    -228.242E-03     456.139E-03    -227.565E-03     54.6742E-03
               3     14.3997E-03     175.548E-03    -66.0184E+06     68.2914E+06     42.1153E+06    -37.4777E+06     18.8276E-03     210.302E-03    -229.129E-03    -26.4942E-03     18.5421E-03     210.876E-03    -228.922E-03    -26.9912E-03
               4    -20.2555E-06     169.214E-03     6.02602E+06    -17.4311E+06    -9.82496E+06    -5.92271E+06    -222.236E-03     457.973E-03    -235.738E-03    -51.3216E-03    -222.476E-03     457.547E-03    -235.770E-03    -51.8712E-03
               5     1.14868E-06     5.21805E-15    -84.4508E+06    -273.070E+06    -84.6732E+06    -513.284E+03    -206.664E-03     413.285E-03    -206.621E-03     1.84497E-03    -206.567E-03     412.165E-03    -206.526E-03     1.70244E-03
               6     14.0890E-03     5.21805E-15     11.8504E+06     101.369E+06     102.755E+06     9.94123E+06    -491.438E-03     724.269E-03    -232.831E-03     231.928E-03    -496.217E-03     729.078E-03    -232.481E-03     199.382E-03
               7     716.592E-06     84.5392E-03    -141.924E+06    -302.464E+06    -138.056E+06     50.2817E+03    -228.272E-03     456.469E-03    -228.198E-03     23.0573E-03    -228.423E-03     455.444E-03    -228.244E-03     20.3820E-03
               8     1.43262E-03     84.5836E-03    -136.672E+06    -288.334E+06    -127.332E+06     85.6137E+03    -228.375E-03     456.557E-03    -228.182E-03     42.5636E-03    -228.705E-03     455.748E-03    -228.202E-03     37.6228E-03
               9     2.14890E-03     84.6542E-03    -130.872E+06    -271.487E+06    -111.313E+06     97.7656E+03    -228.683E-03     456.860E-03    -228.176E-03     62.7114E-03    -229.320E-03     456.391E-03    -228.149E-03     55.3255E-03
              10     2.86569E-03     84.7529E-03    -123.824E+06    -247.622E+06    -92.8454E+06     235.356E+03    -229.163E-03     457.350E-03    -228.186E-03     82.7215E-03    -230.238E-03     457.375E-03    -228.112E-03     72.7929E-03
              11     3.58216E-03     84.8781E-03    -115.434E+06    -215.839E+06    -72.9998E+06     485.114E+03    -229.608E-03     457.799E-03    -228.191E-03     102.409E-03    -231.260E-03     458.487E-03    -228.076E-03     89.8436E-03
              12     4.29909E-03     85.0286E-03    -106.397E+06    -184.318E+06    -52.2653E+06     981.512E+03    -230.055E-03     458.241E-03    -228.185E-03     121.506E-03    -232.420E-03     459.725E-03    -228.025E-03     106.220E-03
              13     5.01577E-03     85.2034E-03    -97.2148E+06    -157.112E+06    -33.1702E+06     900.101E+03    -230.610E-03     458.782E-03    -228.172E-03     139.934E-03    -233.828E-03     461.194E-03    -227.970E-03     121.807E-03
              14     5.73248E-03     85.4023E-03    -87.8000E+06    -123.067E+06    -14.4260E+06     177.300E+03    -231.046E-03     459.193E-03    -228.148E-03     157.314E-03    -235.259E-03     462.699E-03    -227.914E-03     136.320E-03
              15     6.44987E-03     85.6228E-03    -78.6890E+06    -80.8611E+06     3.71605E+06     42.5588E+03    -231.435E-03     459.542E-03    -228.107E-03     173.384E-03    -236.765E-03     464.295E-03    -227.857E-03     149.591E-03
              16     7.16653E-03     85.8640E-03    -69.6589E+06    -39.5420E+06     21.2486E+06     131.357E+03    -231.903E-03     459.978E-03    -228.076E-03     188.028E-03    -238.418E-03     466.044E-03    -227.811E-03     161.569E-03
              17     7.88333E-03     86.1235E-03    -60.8658E+06     3.11912E+06     37.6902E+06     228.569E+03    -232.134E-03     460.183E-03    -228.049E-03     200.183E-03    -239.803E-03     467.537E-03    -227.777E-03     171.408E-03
              18     8.59971E-03     86.3946E-03    -52.6725E+06     27.9917E+06     47.7165E+06     587.860E+03    -232.077E-03     460.096E-03    -228.019E-03     208.571E-03    -240.699E-03     468.493E-03    -227.745E-03     178.011E-03
              19     9.31731E-03     86.6757E-03    -44.5813E+06     34.3851E+06     54.2302E+06     571.274E+03    -231.643E-03     459.637E-03    -227.994E-03     212.107E-03    -240.887E-03     468.688E-03    -227.708E-03     180.405E-03
              20     10.0354E-03     86.9534E-03    -36.5069E+06     49.4168E+06     66.6575E+06     588.434E+03    -230.876E-03     458.858E-03    -227.981E-03     209.767E-03    -240.346E-03     468.180E-03    -227.667E-03     177.631E-03
              21     10.7519E-03     87.2252E-03    -28.7660E+06     60.0679E+06     79.2946E+06     560.069E+03    -230.113E-03     458.095E-03    -227.982E-03     201.755E-03    -239.348E-03     467.211E-03    -227.631E-03     169.864E-03
              22     11.4685E-03     87.4790E-03    -21.9100E+06     61.1299E+06     85.1161E+06    -392.275E+03    -229.415E-03     457.395E-03    -227.980E-03     190.282E-03    -238.082E-03     465.954E-03    -227.611E-03     159.074E-03
              23     12.1850E-03     87.7179E-03    -15.7897E+06     65.3280E+06     87.3345E+06    -602.805E+03    -228.355E-03     456.319E-03    -227.964E-03     171.565E-03    -235.908E-03     463.795E-03    -227.599E-03     142.118E-03
              24     12.9035E-03     87.9185E-03    -9.89627E+06     75.0294E+06     89.1875E+06    -660.371E+03    -227.420E-03     455.359E-03    -227.939E-03     154.888E-03    -234.107E-03     462.018E-03    -227.587E-03     126.687E-03
              25     13.6179E-03     88.1074E-03    -5.00868E+06     78.9531E+06     88.6335E+06    -244.552E+03    -226.641E-03     454.550E-03    -227.909E-03     110.949E-03    -231.027E-03     458.942E-03    -227.573E-03     88.5564E-03
              26     14.3361E-03     89.6831E-03    -2.61685E+06     75.6119E+06     87.9305E+06    -100.115E+03    -226.462E-03     454.339E-03    -227.878E-03     68.6351E-03    -228.582E-03     456.463E-03    -227.544E-03     52.2288E-03
              27     14.3375E-03     91.1769E-03    -1.27484E+06     74.1449E+06     88.8504E+06    -557.681E+03    -226.160E-03     454.039E-03    -227.880E-03     68.4064E-03    -228.277E-03     456.158E-03    -227.541E-03     51.9622E-03
              28     14.3367E-03     92.6744E-03    -2.18348E+06     73.8401E+06     88.1202E+06     673.201E+03    -225.968E-03     453.843E-03    -227.875E-03     69.9285E-03    -228.116E-03     455.990E-03    -227.539E-03     53.4754E-03
              29     14.3373E-03     94.1675E-03    -2.44607E+06     75.8916E+06     88.2246E+06    -55.1215E+03    -225.889E-03     453.745E-03    -227.857E-03     69.6742E-03    -228.036E-03     455.898E-03    -227.522E-03     53.2104E-03
              30     14.3379E-03     95.6595E-03    -1.32545E+06     75.7941E+06     87.7619E+06    -1.16620E+06    -226.220E-03     454.069E-03    -227.850E-03     68.0848E-03    -228.356E-03     456.216E-03    -227.519E-03     51.5021E-03
              31     14.3358E-03     97.1575E-03    -3.23489E+06     73.4197E+06     87.8162E+06     52.4925E+03    -226.407E-03     454.275E-03    -227.868E-03     68.3455E-03    -228.550E-03     456.413E-03    -227.531E-03     51.7945E-03
              32     14.3385E-03     98.6497E-03    -1.52303E+06     74.4342E+06     90.1321E+06    -201.078E+03    -226.182E-03     454.055E-03    -227.873E-03     69.0663E-03    -228.307E-03     456.177E-03    -227.528E-03     52.6507E-03
              33     14.3357E-03     100.148E-03    -1.73835E+06     75.2417E+06     87.9852E+06     858.014E+03    -226.561E-03     454.411E-03    -227.850E-03     69.3211E-03    -228.685E-03     456.541E-03    -227.517E-03     52.8954E-03
              34     14.3387E-03     101.640E-03    -2.89095E+06     76.7532E+06     87.2734E+06     453.731E+03    -226.480E-03     454.328E-03    -227.849E-03     68.9902E-03    -228.619E-03     456.477E-03    -227.519E-03     52.5068E-03
              35     14.3355E-03     103.139E-03    -2.55484E+06     75.7610E+06     87.8756E+06    -945.733E+03    -226.455E-03     454.322E-03    -227.867E-03     69.3284E-03    -228.612E-03     456.484E-03    -227.534E-03     52.7547E-03
              36     14.3381E-03     104.630E-03    -1.77284E+06     74.9754E+06     88.5509E+06     183.553E+03    -226.103E-03     453.974E-03    -227.871E-03     70.3301E-03    -228.252E-03     456.125E-03    -227.534E-03     53.8752E-03
              37     14.3367E-03     106.130E-03    -2.33453E+06     74.5512E+06     87.4894E+06     88.3345E+03    -225.977E-03     453.851E-03    -227.874E-03     69.8503E-03    -228.111E-03     455.988E-03    -227.541E-03     53.4506E-03
              38     14.3367E-03     107.618E-03    -2.30550E+06     75.2072E+06     88.1022E+06     878.066E+03    -226.121E-03     453.999E-03    -227.878E-03     69.0098E-03    -228.256E-03     456.138E-03    -227.544E-03     52.5579E-03
              39     14.3377E-03     109.114E-03    -2.76494E+06     75.8100E+06      88.782E+06    -1.00580E+06    -226.242E-03     454.102E-03    -227.860E-03     68.7227E-03    -228.382E-03     456.244E-03    -227.522E-03     52.2203E-03
              40     14.3367E-03     110.613E-03    -2.32977E+06     70.8054E+06     87.0332E+06    -1.36819E+06    -226.522E-03     454.370E-03    -227.848E-03     70.1754E-03    -228.664E-03     456.503E-03    -227.513E-03     53.6587E-03
              41     14.3378E-03     112.105E-03    -1.98360E+06     69.5632E+06     87.3108E+06     996.207E+03    -226.237E-03     454.113E-03    -227.876E-03     68.7475E-03    -228.346E-03     456.208E-03    -227.537E-03     52.3665E-03
              42     14.3355E-03     113.600E-03    -2.91298E+06     72.2127E+06     87.4891E+06     307.946E+03    -226.149E-03     454.036E-03    -227.888E-03     68.7418E-03    -228.282E-03     456.162E-03    -227.551E-03     52.2672E-03
              43     14.3384E-03     115.092E-03    -1.31925E+06     74.6437E+06     89.4266E+06     361.799E+03    -225.924E-03     453.785E-03    -227.861E-03     68.7904E-03    -228.054E-03     455.916E-03    -227.520E-03     52.3286E-03
              44     14.3370E-03     116.590E-03    -3.27638E+06     75.1498E+06     89.9156E+06    -90.1691E+03    -226.307E-03     454.165E-03    -227.858E-03     68.7346E-03    -228.448E-03     456.301E-03    -227.513E-03     52.2630E-03
              45     14.3367E-03     118.083E-03    -1.53236E+06     76.0948E+06     90.3718E+06     493.125E+03    -226.265E-03     454.127E-03    -227.863E-03     69.9907E-03    -228.403E-03     456.269E-03    -227.519E-03     53.5831E-03
              46     14.3385E-03     119.580E-03    -1.70695E+06     78.0849E+06     90.2342E+06     822.041E+03    -226.034E-03     453.893E-03    -227.859E-03     69.9976E-03    -228.171E-03     456.040E-03    -227.519E-03     53.6350E-03
              47     14.3356E-03     121.073E-03    -2.76481E+06     77.9828E+06     89.9671E+06     345.351E+03    -226.497E-03     454.370E-03    -227.873E-03     69.3968E-03    -228.628E-03     456.508E-03    -227.533E-03     53.0335E-03
              48     14.3382E-03     122.568E-03    -1.69664E+06     77.4498E+06     90.0185E+06     503.042E+03    -225.564E-03     453.465E-03    -227.901E-03     68.6336E-03    -227.678E-03     455.586E-03    -227.561E-03     52.3301E-03
              49     14.3357E-03     124.061E-03    -3.53051E+06     77.4761E+06     89.6291E+06    -165.487E+03    -225.285E-03     453.188E-03    -227.902E-03     69.3736E-03    -227.453E-03     455.358E-03    -227.562E-03     52.8848E-03
              50     14.3384E-03     125.552E-03    -1.16969E+06     79.2302E+06     91.3810E+06    -664.244E+03    -225.398E-03     453.255E-03    -227.856E-03     68.5742E-03    -227.544E-03     455.413E-03    -227.513E-03     52.0914E-03
              51     14.3380E-03     127.048E-03    -2.07520E+06     78.7888E+06     89.8122E+06    -796.776E+03    -225.986E-03     453.799E-03    -227.813E-03     68.6245E-03    -228.128E-03     455.952E-03    -227.475E-03     52.1352E-03
              52     14.3373E-03     128.544E-03    -4.20284E+06     77.8547E+06     89.6617E+06     323.830E+03    -226.229E-03     454.085E-03    -227.857E-03     68.0343E-03    -228.370E-03     456.228E-03    -227.515E-03     51.5903E-03
              53     14.3365E-03     130.039E-03    -1.86004E+06     81.7284E+06     93.3375E+06     934.950E+03    -224.797E-03     452.704E-03    -227.907E-03     69.2399E-03    -226.956E-03     454.876E-03    -227.556E-03     52.8619E-03
              54     14.3386E-03     131.527E-03    -2.09464E+06     85.0357E+06     94.3202E+06     971.663E+03    -224.709E-03     452.589E-03    -227.881E-03     68.9645E-03    -226.848E-03     454.750E-03    -227.529E-03     52.7238E-03
              55     14.3368E-03     133.025E-03    -2.46286E+06     87.1132E+06     94.0592E+06     511.474E+03    -224.865E-03     452.760E-03    -227.895E-03     68.6402E-03    -227.004E-03     454.926E-03    -227.547E-03     52.4105E-03
              56     14.3371E-03     134.517E-03    -2.22788E+06     85.6030E+06     94.0578E+06     43.4285E+03    -223.776E-03     451.689E-03    -227.912E-03     70.7339E-03    -225.956E-03     453.891E-03    -227.563E-03     54.4387E-03
              57     14.3391E-03     136.002E-03    -2.12414E+06     84.3484E+06     95.2128E+06    -325.295E+03    -223.465E-03     451.384E-03    -227.918E-03     67.1819E-03    -225.590E-03     453.525E-03    -227.562E-03     50.9763E-03
              58     14.3352E-03     137.497E-03    -2.47714E+06     86.5734E+06     96.8890E+06     540.826E+03    -223.036E-03     450.999E-03    -227.964E-03     67.3353E-03    -225.174E-03     453.155E-03    -227.601E-03     51.1617E-03
              59     14.3394E-03     138.984E-03    -2.43832E+06     90.0505E+06     98.9839E+06     1.02242E+06    -221.292E-03     449.244E-03    -227.953E-03     68.6642E-03    -223.443E-03     451.420E-03    -227.585E-03     52.6407E-03
              60     14.3383E-03     140.470E-03    -3.54600E+06     94.5238E+06     99.3577E+06     621.819E+03    -220.400E-03     448.294E-03    -227.894E-03     67.1719E-03    -222.538E-03     450.467E-03    -227.529E-03     51.2488E-03
              61     14.3406E-03     141.956E-03    -3.46982E+06     98.4892E+06     101.158E+06     1.37940E+06    -218.916E-03     446.739E-03    -227.823E-03     67.4865E-03    -221.052E-03     448.919E-03    -227.454E-03     51.7326E-03
              62     14.3435E-03     143.437E-03    -1.72096E+06     101.795E+06     103.854E+06     584.045E+03    -216.289E-03     443.926E-03    -227.637E-03     68.9701E-03    -218.449E-03     446.140E-03    -227.263E-03     53.2835E-03
              63     14.3499E-03     144.913E-03    -1.02283E+06     104.718E+06     107.363E+06      971.69E+03    -215.080E-03     442.369E-03    -227.289E-03     71.9277E-03    -217.299E-03     444.644E-03    -226.903E-03     56.1974E-03
              64     14.3562E-03     146.395E-03    -2.60880E+06     109.014E+06     110.666E+06     1.00804E+06    -215.709E-03     442.540E-03    -226.831E-03     75.1317E-03    -217.984E-03     444.872E-03    -226.432E-03     59.3427E-03
              65     14.3628E-03     147.874E-03    -3.66257E+06     109.245E+06     110.745E+06     1.65469E+06    -217.278E-03     443.572E-03    -226.293E-03     76.9560E-03    -219.582E-03     445.929E-03    -225.892E-03     60.9950E-03
              66     14.3712E-03     149.352E-03    -3.85522E+06     110.965E+06     113.461E+06     1.23871E+06    -219.743E-03     445.362E-03    -225.619E-03     78.9900E-03    -222.080E-03     447.751E-03    -225.207E-03     62.7800E-03
              67     14.3826E-03     150.837E-03    -262.453E+03     116.616E+06     118.557E+06     2.29453E+06    -225.156E-03     449.963E-03    -224.807E-03     82.3018E-03    -227.546E-03     452.422E-03    -224.383E-03     65.6315E-03
              68     14.3900E-03     152.339E-03    -6.01577E+06     119.656E+06     121.000E+06     686.588E+03    -233.322E-03     457.346E-03    -224.025E-03     86.6911E-03    -235.822E-03     459.900E-03    -223.585E-03     69.3399E-03
              69     14.3971E-03     153.850E-03    -1.35113E+06     121.208E+06     126.978E+06     1.72199E+06    -243.110E-03     466.445E-03    -223.335E-03     92.1992E-03    -245.664E-03     469.057E-03    -222.874E-03     74.2019E-03
              70     14.4020E-03     155.375E-03    -5.59413E+06     120.794E+06     128.434E+06     1.05029E+06    -256.565E-03     479.283E-03    -222.718E-03     97.0400E-03    -259.143E-03     481.900E-03    -222.243E-03     78.4806E-03
              71     14.4023E-03     156.930E-03    -1.94827E+06     117.984E+06     125.970E+06    -316.542E+03    -271.020E-03     493.249E-03    -222.229E-03     99.5964E-03    -273.565E-03     495.843E-03    -221.768E-03     80.3168E-03
              72     14.4038E-03     158.488E-03    -5.47924E+06     108.948E+06     117.458E+06    -2.36446E+06    -283.073E-03     504.948E-03    -221.876E-03     100.352E-03    -285.618E-03     507.521E-03    -221.438E-03     80.2933E-03
              73     14.4027E-03     160.075E-03    -736.553E+03     103.376E+06     116.032E+06    -1.51598E+06    -294.791E-03     516.372E-03    -221.581E-03     104.011E-03    -297.343E-03     518.954E-03    -221.150E-03     83.1863E-03
              74     14.4043E-03     161.678E-03    -5.18642E+06     92.9380E+06     111.494E+06    -3.22206E+06    -304.889E-03     526.232E-03    -221.343E-03     107.934E-03    -307.518E-03     528.852E-03    -220.913E-03     86.1639E-03
              75     14.4023E-03     163.292E-03     746.864E+03     82.8056E+06     112.582E+06     716.773E+03    -311.452E-03     532.647E-03    -221.195E-03     109.650E-03    -314.098E-03     535.264E-03    -220.753E-03     87.1940E-03
              76     14.4051E-03     164.906E-03    -7.25963E+06     70.0859E+06     111.935E+06    -4.80463E+06    -317.334E-03     538.396E-03    -221.062E-03     110.064E-03    -320.010E-03     540.970E-03    -220.593E-03     87.0579E-03
              77     14.4027E-03     166.538E-03     2.51173E+06     57.0965E+06     121.342E+06    -3.03447E+06    -321.953E-03     542.918E-03    -220.965E-03     108.627E-03    -324.483E-03     545.309E-03    -220.445E-03     85.8388E-03
              78     14.4071E-03     168.169E-03    -6.68912E+06     40.0123E+06     127.524E+06    -2.65382E+06    -321.151E-03     542.134E-03    -220.983E-03     107.476E-03    -323.583E-03     544.315E-03    -220.394E-03     85.5456E-03
              79     14.4047E-03     169.799E-03     2.81479E+06     24.8893E+06     146.897E+06    -1.48283E+06    -307.502E-03     528.784E-03    -221.282E-03     101.118E-03    -309.714E-03     530.669E-03    -220.587E-03     80.8973E-03
              80     14.4119E-03     171.378E-03    -3.87494E+06     25.4991E+06     166.344E+06     2.27159E+06    -284.341E-03     506.114E-03    -221.773E-03     101.147E-03    -286.500E-03     507.868E-03    -220.973E-03     83.4675E-03
              81     14.4095E-03     172.942E-03     7.68376E+06     23.7281E+06     162.023E+06     2.03941E+06    -245.749E-03     468.172E-03    -222.423E-03     104.140E-03    -247.830E-03     469.904E-03    -221.659E-03     89.1303E-03
              82     14.4224E-03     174.423E-03     19.3176E+06     46.3150E+06     109.293E+06    -8.72101E+06    -99.9650E-03     325.951E-03    -225.986E-03     37.3869E-03    -100.913E-03     327.024E-03    -225.535E-03     30.4313E-03
              83     13.3542E-03     175.425E-03    -45.1154E+06    -26.4315E+06     72.4684E+06    -19.6831E+06    -3.86000E-03     238.561E-03    -234.701E-03    -36.3004E-03    -4.01554E-03     238.609E-03    -234.235E-03    -37.1163E-03
              84     12.4921E-03     174.987E-03    -20.5479E+06    -35.2947E+06     136.306E+06    -13.1277E+06    -5.13359E-03     249.606E-03    -244.472E-03    -68.1621E-03    -5.31025E-03     249.455E-03    -243.710E-03    -69.4054E-03
              85     11.6486E-03     174.541E-03    -6.70449E+06     1.45827E+06     158.815E+06    -5.70335E+06     21.1896E-03     232.013E-03    -253.202E-03    -96.1757E-03     21.0102E-03     231.904E-03    -252.401E-03    -97.3291E-03
              86     10.8285E-03     174.070E-03     5.95841E+06    -7.19247E+06     156.780E+06    -913.954E+03     24.3945E-03     237.527E-03    -261.921E-03    -121.210E-03     24.3776E-03     237.250E-03    -261.136E-03    -122.480E-03
              87     10.0324E-03     173.589E-03     944.073E+03     6.02008E+06     154.455E+06    -6.74319E+06     17.1056E-03     252.298E-03    -269.404E-03    -168.083E-03     17.2432E-03     251.898E-03    -268.641E-03    -169.795E-03
              88     9.27308E-03     173.098E-03    -4.28517E+06    -3.24939E+06     145.094E+06    -8.43813E+06     6.04158E-03     268.710E-03    -274.752E-03    -224.523E-03     6.45203E-03     267.970E-03    -274.016E-03    -226.755E-03
              89     8.54895E-03     172.609E-03    -6.49036E+06    -1.68700E+06     134.979E+06    -13.5556E+06    -6.41365E-03     284.022E-03    -277.608E-03    -280.207E-03    -5.68199E-03     282.909E-03    -276.922E-03    -283.059E-03
              90     7.85465E-03     172.132E-03    -11.5604E+06    -8.88316E+06     118.012E+06    -14.3933E+06    -21.5405E-03     299.603E-03    -278.063E-03    -330.530E-03    -20.4964E-03     298.060E-03    -277.443E-03    -333.938E-03
              91     7.18535E-03     171.679E-03    -15.1728E+06    -7.78836E+06     103.838E+06    -18.9971E+06    -40.7208E-03     317.097E-03    -276.376E-03    -373.297E-03    -39.4226E-03     315.188E-03    -275.824E-03    -377.302E-03
              92     6.53139E-03     171.257E-03    -18.3479E+06    -12.2182E+06     90.6525E+06    -21.6125E+06    -64.0593E-03     336.931E-03    -272.872E-03    -405.025E-03    -62.6147E-03     334.724E-03    -272.374E-03    -409.533E-03
              93     5.89252E-03     170.869E-03    -19.1288E+06    -13.7726E+06     79.7879E+06    -24.9002E+06    -89.9245E-03     357.944E-03    -268.020E-03    -420.470E-03    -88.4754E-03     355.584E-03    -267.573E-03    -425.396E-03
              94     5.25561E-03     170.525E-03    -19.0072E+06    -17.1861E+06     68.9553E+06    -25.9451E+06    -117.086E-03     379.460E-03    -262.374E-03    -417.954E-03    -115.764E-03     377.114E-03    -261.977E-03    -423.097E-03
              95     4.62067E-03     170.217E-03    -17.6796E+06    -18.9458E+06     58.6639E+06    -25.9456E+06    -143.149E-03     399.559E-03    -256.410E-03    -398.419E-03    -142.080E-03     397.387E-03    -256.064E-03    -403.515E-03
              96     3.97938E-03     169.955E-03    -15.2546E+06    -20.8150E+06     47.2619E+06    -24.6082E+06    -167.176E-03     417.693E-03    -250.518E-03    -363.802E-03    -166.414E-03     415.774E-03    -250.229E-03    -368.657E-03
              97     3.33447E-03     169.731E-03    -11.5717E+06    -18.2601E+06     37.1952E+06    -23.1335E+06    -187.586E-03     432.600E-03    -245.014E-03    -316.414E-03    -187.141E-03     431.004E-03    -244.785E-03    -320.847E-03
              98     2.67967E-03     169.550E-03    -8.15419E+06    -15.3739E+06     26.5379E+06    -19.6771E+06    -203.725E-03     443.895E-03    -240.170E-03    -260.261E-03    -203.586E-03     442.631E-03    -240.004E-03    -264.039E-03
              99     2.01918E-03     169.410E-03    -4.89248E+06    -14.3536E+06     16.2811E+06    -15.7972E+06    -216.070E-03     452.189E-03    -236.118E-03    -197.847E-03    -216.185E-03     451.204E-03    -236.009E-03    -200.880E-03
             100     1.35205E-03     169.308E-03    -1.64926E+06    -12.5300E+06     8.50821E+06    -12.0125E+06    -223.986E-03     456.917E-03    -232.931E-03    -131.840E-03    -224.267E-03     456.164E-03    -232.868E-03    -134.080E-03
             101     679.602E-06     169.248E-03     2.96708E+06    -13.5524E+06    -2.23045E+06    -7.96999E+06    -224.546E-03     458.199E-03    -233.654E-03    -75.0014E-03    -224.843E-03     457.665E-03    -233.650E-03    -76.1750E-03
             102     12.0441E-06     167.722E-03    -50.7623E+06    -35.6182E+06    -48.3369E+06    -7.12113E+06    -189.689E-03     381.431E-03    -191.742E-03    -29.0223E-03    -190.033E-03     381.166E-03    -191.859E-03    -29.5664E-03
             103    -4.28269E-06     166.433E-03    -141.615E+06    -82.9785E+06    -136.164E+06    -12.1323E+06    -134.579E-03     266.024E-03    -131.445E-03     811.226E-06    -135.036E-03     265.947E-03    -131.800E-03     349.986E-06
             104     1.82705E-06     165.245E-03    -219.499E+06    -137.943E+06    -222.486E+06    -12.2940E+06    -107.332E-03     213.848E-03    -106.517E-03     13.8009E-03    -107.918E-03     213.794E-03    -107.111E-03     13.5185E-03
             105     1.97680E-06     164.089E-03    -301.934E+06    -190.579E+06    -300.398E+06    -12.2161E+06    -103.461E-03     202.941E-03    -99.4800E-03     22.6021E-03    -104.262E-03     202.862E-03    -100.268E-03     22.3972E-03
             106     475.457E-09     162.926E-03    -306.485E+06    -230.398E+06    -304.127E+06    -5.69404E+06    -111.004E-03     219.725E-03    -108.721E-03     26.1526E-03    -111.770E-03     219.451E-03    -109.464E-03     26.0545E-03
             107     527.891E-09     161.732E-03    -222.295E+06    -234.828E+06    -221.109E+06     3.43654E+06    -127.761E-03     254.668E-03    -126.907E-03     26.1451E-03    -128.229E-03     254.121E-03    -127.350E-03     26.1460E-03
             108    -349.225E-09     160.484E-03    -160.701E+06    -225.785E+06    -160.971E+06     793.957E+03    -149.791E-03     299.102E-03    -149.311E-03     25.5894E-03    -150.061E-03     298.420E-03    -149.555E-03     25.4599E-03
             109     779.921E-09     159.177E-03    -138.882E+06    -226.592E+06    -139.644E+06    -947.731E+03    -172.767E-03     345.222E-03    -172.455E-03     23.5295E-03    -172.960E-03     344.481E-03    -172.623E-03     23.1507E-03
             110    -838.615E-09     157.807E-03    -128.766E+06    -232.841E+06    -130.593E+06    -1.47291E+06    -192.605E-03     385.251E-03    -192.646E-03     20.8675E-03    -192.748E-03     384.463E-03    -192.775E-03     20.2402E-03
             111     720.793E-09     156.389E-03    -126.505E+06    -242.494E+06    -130.666E+06    -1.96432E+06    -208.647E-03     416.753E-03    -208.106E-03     19.4820E-03    -208.763E-03     415.922E-03    -208.224E-03     18.5805E-03
             112     32.8954E-09     154.928E-03    -132.615E+06    -254.487E+06    -130.055E+06    -1.25008E+06    -219.980E-03     439.533E-03    -219.553E-03     18.2316E-03    -220.110E-03     438.659E-03    -219.641E-03     17.0676E-03
             113    -250.805E-09     153.447E-03    -134.649E+06    -262.436E+06    -137.381E+06    -1.68774E+06    -227.964E-03     455.583E-03    -227.619E-03     16.7248E-03    -228.082E-03     454.686E-03    -227.730E-03     15.3643E-03
             114     842.007E-09     151.941E-03    -140.450E+06    -270.547E+06    -142.566E+06    -1.51916E+06    -233.849E-03     466.182E-03    -232.333E-03     14.7899E-03    -233.975E-03     465.262E-03    -232.450E-03     13.2435E-03
             115     638.049E-09     150.426E-03    -150.324E+06    -283.054E+06    -148.933E+06    -2.21921E+06    -235.649E-03     470.176E-03    -234.526E-03     13.6569E-03    -235.798E-03     469.219E-03    -234.642E-03     11.9806E-03
             116    -559.432E-09     148.909E-03    -151.357E+06    -290.402E+06    -152.798E+06    -723.826E+03    -235.255E-03     470.268E-03    -235.013E-03     13.2670E-03    -235.393E-03     469.282E-03    -235.137E-03     11.5778E-03
             117     765.346E-09     147.393E-03    -153.439E+06    -299.975E+06    -151.788E+06    -2.69494E+06    -235.285E-03     470.031E-03    -234.746E-03     13.4753E-03    -235.421E-03     468.998E-03    -234.847E-03     11.7606E-03
             118    -237.455E-09     145.879E-03    -151.361E+06    -316.745E+06    -153.688E+06    -2.40437E+06    -235.007E-03     469.542E-03    -234.535E-03     13.0712E-03    -235.106E-03     468.425E-03    -234.624E-03     11.3427E-03
             119     318.642E-09     144.363E-03    -150.833E+06    -321.783E+06    -150.143E+06     1.27353E+06    -233.811E-03     467.435E-03    -233.624E-03     12.9901E-03    -233.905E-03     466.287E-03    -233.689E-03     11.3477E-03
             120    -169.514E-09     142.854E-03    -149.594E+06    -319.378E+06    -150.129E+06    -291.924E+03    -232.486E-03     464.528E-03    -232.043E-03     13.6002E-03    -232.577E-03     463.391E-03    -232.113E-03     11.9448E-03
             121     597.854E-09     141.349E-03    -150.675E+06    -323.799E+06    -149.295E+06    -131.374E+03    -230.933E-03     462.040E-03    -231.107E-03     13.8612E-03    -231.026E-03     460.882E-03    -231.165E-03     12.1748E-03
             122    -1.31421E-06     139.848E-03    -147.343E+06    -322.606E+06    -147.499E+06     203.819E+03    -229.798E-03     460.682E-03    -230.884E-03     13.9724E-03    -229.879E-03     459.523E-03    -230.940E-03     12.3119E-03
             123     421.934E-09     138.347E-03    -144.135E+06    -320.269E+06    -144.058E+06    -259.599E+03    -230.405E-03     460.247E-03    -229.842E-03     13.4409E-03    -230.476E-03     459.088E-03    -229.889E-03     11.8131E-03
             124     1.22731E-06     136.846E-03    -145.858E+06    -324.607E+06    -146.663E+06    -800.539E+03    -230.467E-03     459.276E-03    -228.809E-03     13.7243E-03    -230.539E-03     458.104E-03    -228.860E-03     12.0502E-03
             125    -562.741E-09     135.349E-03    -143.963E+06    -324.313E+06    -144.046E+06     943.228E+03    -229.250E-03     458.210E-03    -228.960E-03     13.5445E-03    -229.316E-03     457.032E-03    -229.001E-03     11.8961E-03
             126     263.908E-09     133.851E-03    -145.307E+06    -323.118E+06    -142.109E+06    -192.173E+03    -229.067E-03     457.738E-03    -228.671E-03     13.5688E-03    -229.144E-03     456.565E-03    -228.702E-03     11.9437E-03
             127     581.922E-09     132.354E-03    -140.856E+06    -321.938E+06    -144.526E+06     250.322E+03    -229.325E-03     457.385E-03    -228.059E-03     14.1777E-03    -229.379E-03     456.215E-03    -228.111E-03     12.5434E-03
             128     294.283E-09     130.858E-03    -139.430E+06    -317.105E+06    -139.837E+06     607.223E+03    -228.775E-03     457.042E-03    -228.267E-03     14.2890E-03    -228.835E-03     455.888E-03    -228.305E-03     12.6664E-03
             129    -506.392E-09     129.363E-03    -141.966E+06    -318.287E+06    -141.062E+06    -770.667E+03    -228.464E-03     456.891E-03    -228.428E-03     13.8403E-03    -228.532E-03     455.736E-03    -228.466E-03     12.2078E-03
             130     725.082E-09     127.867E-03    -141.211E+06    -318.446E+06    -141.850E+06     901.958E+03    -228.784E-03     456.676E-03    -227.893E-03     13.5476E-03    -228.847E-03     455.520E-03    -227.936E-03     11.9509E-03
             131     276.179E-09     126.372E-03    -140.550E+06    -315.088E+06    -139.888E+06     498.817E+03    -228.712E-03     456.430E-03    -227.718E-03     14.0550E-03    -228.780E-03     455.286E-03    -227.756E-03     12.4726E-03
             132     96.4187E-09     124.877E-03    -140.121E+06    -316.474E+06    -140.534E+06    -630.820E+03    -228.392E-03     456.120E-03    -227.727E-03     13.7522E-03    -228.456E-03     454.970E-03    -227.768E-03     12.1031E-03
             133     429.037E-09     123.384E-03    -140.840E+06    -317.162E+06    -141.211E+06     150.166E+03    -228.597E-03     456.057E-03    -227.460E-03     13.2974E-03    -228.662E-03     454.906E-03    -227.502E-03     11.6563E-03
             134     626.728E-09     121.890E-03    -140.005E+06    -313.988E+06    -140.053E+06     99.5102E+03    -228.751E-03     456.606E-03    -227.856E-03     13.6966E-03    -228.816E-03     455.467E-03    -227.898E-03     12.1358E-03
             135    -454.196E-09     120.391E-03    -141.745E+06    -313.660E+06    -141.922E+06    -185.998E+03    -228.065E-03     456.500E-03    -228.435E-03     14.3235E-03    -228.138E-03     455.368E-03    -228.484E-03     12.7583E-03
             136    -312.255E-09     118.897E-03    -143.054E+06    -312.612E+06    -142.757E+06     706.005E+03    -227.811E-03     455.904E-03    -228.093E-03     13.8857E-03    -227.890E-03     454.780E-03    -228.146E-03     12.3294E-03
             137     621.526E-09     117.406E-03    -140.719E+06    -310.515E+06    -140.837E+06    -172.064E+03    -228.350E-03     456.209E-03    -227.859E-03     13.8365E-03    -228.425E-03     455.092E-03    -227.909E-03     12.1477E-03
             138    -279.280E-09     115.908E-03    -142.712E+06    -311.014E+06    -140.321E+06     498.435E+03    -228.667E-03     456.892E-03    -228.225E-03     14.1216E-03    -228.753E-03     455.775E-03    -228.268E-03     12.4416E-03
             139     539.248E-09     114.413E-03    -139.462E+06    -311.098E+06    -141.009E+06    -590.999E+03    -228.885E-03     456.390E-03    -227.505E-03     13.3606E-03    -228.951E-03     455.265E-03    -227.556E-03     11.7660E-03
             140     1.11656E-06     112.919E-03    -139.244E+06    -311.378E+06    -141.630E+06    -203.174E+03    -228.448E-03     455.901E-03    -227.452E-03     14.2637E-03    -228.513E-03     454.777E-03    -227.507E-03     12.6299E-03
             141    -1.42489E-06     111.425E-03    -141.851E+06    -308.783E+06    -140.344E+06     1.05705E+06    -227.685E-03     456.297E-03    -228.612E-03     13.7964E-03    -227.768E-03     455.188E-03    -228.660E-03     12.1855E-03
             142     366.988E-09     109.929E-03    -139.774E+06    -307.401E+06    -139.560E+06    -21.5926E+03    -228.156E-03     456.163E-03    -228.007E-03     13.0682E-03    -228.230E-03     455.055E-03    -228.056E-03     11.5006E-03
             143     861.403E-09     108.435E-03    -139.724E+06    -308.204E+06    -139.989E+06     192.919E+03    -228.954E-03     456.099E-03    -227.144E-03     14.0098E-03    -229.027E-03     454.988E-03    -227.195E-03     12.4505E-03
             144     442.758E-09     106.939E-03    -139.781E+06    -308.714E+06    -140.808E+06    -160.438E+03    -228.802E-03     456.169E-03    -227.366E-03     14.0521E-03    -228.874E-03     455.057E-03    -227.420E-03     12.4457E-03
             145     244.228E-09     105.446E-03    -141.742E+06    -308.768E+06    -141.232E+06     87.7829E+03    -228.245E-03     456.019E-03    -227.774E-03     14.0512E-03    -228.326E-03     454.911E-03    -227.827E-03     12.4453E-03
             146    -308.771E-09     103.951E-03    -137.903E+06    -306.446E+06    -138.296E+06     324.080E+03    -228.083E-03     456.017E-03    -227.935E-03     14.0276E-03    -228.153E-03     454.912E-03    -227.982E-03     12.4077E-03
             147     527.025E-09     102.456E-03    -139.140E+06    -307.540E+06    -138.826E+06    -960.227E+03    -228.309E-03     456.034E-03    -227.725E-03     14.1558E-03    -228.382E-03     454.925E-03    -227.772E-03     12.5467E-03
             148     35.9026E-09     100.963E-03    -142.286E+06    -310.210E+06    -143.092E+06     56.5605E+03    -228.152E-03     456.188E-03    -228.036E-03     14.2781E-03    -228.233E-03     455.078E-03    -228.096E-03     12.6117E-03
             149    -497.574E-09     99.4668E-03    -142.798E+06    -307.281E+06    -141.245E+06     1.35602E+06    -227.962E-03     456.111E-03    -228.149E-03     13.3770E-03    -228.052E-03     455.013E-03    -228.203E-03     11.7211E-03
             150     660.302E-09     97.9751E-03    -139.809E+06    -304.918E+06    -140.332E+06    -737.302E+03    -228.244E-03     456.025E-03    -227.781E-03     13.4738E-03    -228.322E-03     454.932E-03    -227.838E-03     11.8623E-03
             151    -212.682E-09     96.4770E-03    -138.713E+06    -306.945E+06    -140.059E+06    -393.426E+03    -228.213E-03     456.113E-03    -227.900E-03     14.2907E-03    -228.285E-03     455.009E-03    -227.954E-03     12.6496E-03
             152     144.151E-09     94.9840E-03    -142.647E+06    -308.454E+06    -141.438E+06     53.4915E+03    -227.622E-03     456.031E-03    -228.409E-03     14.1555E-03    -227.708E-03     454.926E-03    -228.462E-03     12.5621E-03
             153    -1.24981E-06     93.4910E-03    -141.236E+06    -307.029E+06    -140.277E+06     494.591E+03    -227.807E-03     456.473E-03    -228.666E-03     13.5882E-03    -227.889E-03     455.371E-03    -228.717E-03     11.9741E-03
             154     1.08399E-06     91.9929E-03    -141.225E+06    -307.643E+06    -140.116E+06    -791.237E+03    -228.877E-03     456.419E-03    -227.542E-03     13.1297E-03    -228.957E-03     455.313E-03    -227.592E-03     11.5781E-03
             155     958.332E-09     90.4999E-03    -140.355E+06    -309.437E+06    -143.099E+06     488.911E+03    -228.940E-03     456.115E-03    -227.175E-03     14.2604E-03    -229.010E-03     455.005E-03    -227.239E-03     12.6734E-03
             156    -556.666E-09     89.0054E-03    -141.037E+06    -305.286E+06    -138.157E+06     1.05234E+06    -228.420E-03     456.306E-03    -227.887E-03     13.6111E-03    -228.507E-03     455.211E-03    -227.930E-03     11.9757E-03
             157     897.136E-09     87.5094E-03    -138.841E+06    -306.293E+06    -141.192E+06    -1.67299E+06    -228.397E-03     456.039E-03    -227.643E-03     13.7545E-03    -228.466E-03     454.939E-03    -227.703E-03     12.1453E-03
             158    -231.525E-09     86.0157E-03    -141.600E+06    -308.682E+06    -143.100E+06     641.619E+03    -228.271E-03     456.178E-03    -227.907E-03     14.3880E-03    -228.350E-03     455.074E-03    -227.969E-03     12.7683E-03
             159     242.678E-09     83.0254E-03    -140.857E+06    -307.064E+06    -143.099E+06     212.252E+03    -228.776E-03     456.288E-03    -227.513E-03     13.6976E-03    -228.851E-03     455.189E-03    -227.579E-03     12.1250E-03
             160     1.23631E-06     81.5305E-03    -140.627E+06    -305.729E+06    -140.281E+06     384.208E+03    -228.592E-03     456.084E-03    -227.492E-03     14.3605E-03    -228.674E-03     454.989E-03    -227.546E-03     12.7275E-03
             161    -1.19453E-06     80.0365E-03    -139.732E+06    -304.123E+06    -139.948E+06    -269.055E+03    -227.904E-03     456.177E-03    -228.273E-03     14.5566E-03    -227.985E-03     455.090E-03    -228.329E-03     12.8926E-03
             162     560.894E-09     78.5405E-03    -140.996E+06    -304.970E+06    -139.864E+06     -56.494E+03    -227.995E-03     455.920E-03    -227.925E-03     13.5786E-03    -228.078E-03     454.827E-03    -227.978E-03     12.0040E-03
             163     130.917E-09     77.0488E-03    -140.444E+06    -305.672E+06    -141.641E+06     175.325E+03    -228.217E-03     455.800E-03    -227.584E-03     13.9180E-03    -228.296E-03     454.707E-03    -227.645E-03     12.2836E-03
             164     20.3014E-09     75.5539E-03    -140.905E+06    -302.928E+06    -138.484E+06     818.305E+03    -228.136E-03     456.227E-03    -228.091E-03     13.8680E-03    -228.226E-03     455.143E-03    -228.140E-03     12.2516E-03
             165    -136.425E-09     74.0568E-03    -138.456E+06    -303.135E+06    -139.463E+06    -986.996E+03    -227.604E-03     455.664E-03    -228.060E-03     13.9103E-03    -227.679E-03     454.576E-03    -228.117E-03     12.3253E-03
             166    -466.308E-09     72.5668E-03    -140.974E+06    -305.752E+06    -140.713E+06    -8.08831E+03    -227.791E-03     455.765E-03    -227.974E-03     13.8385E-03    -227.874E-03     454.670E-03    -228.030E-03     12.2061E-03
             167     755.947E-09     71.0706E-03    -139.478E+06    -304.156E+06    -140.120E+06     351.417E+03    -229.100E-03     456.684E-03    -227.584E-03     13.5550E-03    -229.179E-03     455.594E-03    -227.641E-03     11.9216E-03
             168     1.07206E-06     69.5732E-03    -138.870E+06    -303.502E+06    -140.064E+06    -308.555E+03    -229.120E-03     456.306E-03    -227.186E-03     13.9298E-03    -229.195E-03     455.218E-03    -227.245E-03     12.3434E-03
             169    -196.166E-09     68.0821E-03    -139.402E+06    -304.674E+06    -139.226E+06     118.946E+03    -228.216E-03     455.853E-03    -227.637E-03     13.9446E-03    -228.294E-03     454.759E-03    -227.690E-03     12.3486E-03
             170     95.1513E-09     66.5852E-03    -139.233E+06    -304.178E+06    -139.249E+06     417.819E+03    -227.798E-03     455.546E-03    -227.748E-03     13.4935E-03    -227.875E-03     454.453E-03    -227.801E-03     11.9222E-03
             171     27.0910E-09     65.0938E-03    -138.895E+06    -303.233E+06    -138.526E+06     273.931E+03    -227.587E-03     455.346E-03    -227.759E-03     13.8793E-03    -227.666E-03     454.257E-03    -227.810E-03     12.2984E-03
             172    -446.424E-09     63.5997E-03    -139.096E+06    -303.190E+06    -138.578E+06    -683.565E+03    -227.776E-03     455.758E-03    -227.983E-03     13.5762E-03    -227.856E-03     454.671E-03    -228.034E-03     11.9282E-03
             173     525.600E-09     62.1049E-03    -139.327E+06    -304.477E+06    -139.721E+06    -494.922E+03    -228.413E-03     455.925E-03    -227.512E-03     13.2334E-03    -228.489E-03     454.831E-03    -227.567E-03     11.6596E-03
             174     636.046E-09     60.6118E-03    -139.172E+06    -304.149E+06    -140.032E+06     380.708E+03    -228.917E-03     456.095E-03    -227.178E-03     13.7947E-03    -228.993E-03     455.003E-03    -227.235E-03     12.2313E-03
             175     632.741E-09     59.1141E-03    -141.651E+06    -304.245E+06    -141.699E+06     79.1434E+03    -228.393E-03     455.950E-03    -227.558E-03     14.2865E-03    -228.479E-03     454.865E-03    -227.620E-03     12.6898E-03
             176    -766.040E-09     57.6229E-03    -139.805E+06    -302.301E+06    -140.494E+06     694.688E+03    -227.573E-03     455.563E-03    -227.990E-03     13.7425E-03    -227.655E-03     454.483E-03    -228.051E-03     12.1229E-03
             177     243.581E-09     56.1290E-03    -140.463E+06    -301.377E+06    -138.983E+06    -330.320E+03    -227.772E-03     455.590E-03    -227.818E-03     13.6022E-03    -227.861E-03     454.514E-03    -227.873E-03     11.9540E-03
             178     176.126E-09     54.6326E-03    -139.054E+06    -302.475E+06    -139.916E+06    -94.8465E+03    -228.304E-03     455.491E-03    -227.187E-03     14.1484E-03    -228.382E-03     454.409E-03    -227.247E-03     12.5824E-03
             179     937.618E-09     53.1413E-03    -140.754E+06    -304.029E+06    -140.800E+06    -317.644E+03    -227.861E-03     455.361E-03    -227.500E-03     14.4086E-03    -227.944E-03     454.275E-03    -227.559E-03     12.8112E-03
             180    -1.59679E-06     51.6478E-03    -140.395E+06    -302.884E+06    -140.334E+06     607.735E+03    -226.977E-03     455.007E-03    -228.030E-03     13.7173E-03    -227.061E-03     453.926E-03    -228.089E-03     12.0842E-03
             181     695.964E-09     50.1540E-03    -139.875E+06    -302.099E+06    -137.972E+06    -183.797E+03    -227.510E-03     454.488E-03    -226.978E-03     13.2446E-03    -227.595E-03     453.405E-03    -227.027E-03     11.6664E-03
             182     939.911E-09     48.6649E-03    -136.457E+06    -303.456E+06    -139.890E+06    -318.184E+03    -228.363E-03     454.633E-03    -226.270E-03     13.5409E-03    -228.427E-03     453.541E-03    -226.331E-03     11.9224E-03
             183     344.063E-09     47.1700E-03    -140.072E+06    -302.967E+06    -139.136E+06     356.144E+03    -227.575E-03     454.578E-03    -227.003E-03     13.4322E-03    -227.660E-03     453.494E-03    -227.056E-03     11.7988E-03
             184    -845.328E-09     45.6799E-03    -140.754E+06    -303.065E+06    -140.342E+06    -303.094E+03    -226.915E-03     454.262E-03    -227.346E-03     13.4268E-03    -227.000E-03     453.178E-03    -227.405E-03     11.8541E-03
             185     682.735E-09     44.1854E-03    -138.513E+06    -301.626E+06    -138.179E+06     637.781E+03    -227.247E-03     454.062E-03    -226.814E-03     13.4931E-03    -227.326E-03     452.979E-03    -226.867E-03     11.9285E-03
             186     53.2515E-09     42.6966E-03    -140.732E+06    -303.962E+06    -139.850E+06    -1.21892E+06    -227.019E-03     453.500E-03    -226.480E-03     13.3357E-03    -227.103E-03     452.411E-03    -226.535E-03     11.7337E-03
             187    -56.1094E-09     41.2061E-03    -138.932E+06    -302.572E+06    -141.283E+06     715.561E+03    -226.447E-03     453.021E-03    -226.574E-03     13.2542E-03    -226.522E-03     451.940E-03    -226.640E-03     11.6645E-03
             188    -191.488E-09     39.7149E-03    -140.689E+06    -301.724E+06    -139.145E+06    -336.253E+03    -226.228E-03     452.718E-03    -226.490E-03     13.6549E-03    -226.316E-03     451.639E-03    -226.544E-03     12.0860E-03
             189     25.2546E-09     38.2266E-03    -140.418E+06    -304.077E+06    -141.513E+06     112.036E+03    -226.336E-03     452.292E-03    -225.956E-03     13.1570E-03    -226.415E-03     451.204E-03    -226.019E-03     11.6243E-03
             190     628.935E-09     36.7387E-03    -140.186E+06    -302.408E+06    -139.317E+06     311.418E+03    -225.393E-03     451.647E-03    -226.254E-03     13.6520E-03    -225.477E-03     450.565E-03    -226.309E-03     12.0936E-03
             191    -2.56530E-06     35.2496E-03    -139.772E+06    -302.927E+06    -140.099E+06    -685.224E+03    -224.137E-03     450.493E-03    -226.355E-03     13.3654E-03    -224.216E-03     449.409E-03    -226.414E-03     11.8013E-03
             192     1.26285E-06     33.7653E-03    -141.017E+06    -304.045E+06    -140.898E+06     540.328E+03    -224.961E-03     449.750E-03    -224.789E-03     13.1526E-03    -225.044E-03     448.663E-03    -224.848E-03     11.6064E-03
             193     242.122E-09     32.2812E-03    -140.007E+06    -301.991E+06    -138.810E+06     563.395E+03    -225.721E-03     449.419E-03    -223.698E-03     12.8460E-03    -225.804E-03     448.336E-03    -223.751E-03     11.3505E-03
             194     1.12789E-06     30.7968E-03    -138.241E+06    -300.910E+06    -138.865E+06    -415.900E+03    -224.614E-03     448.321E-03    -223.707E-03     12.8567E-03    -224.690E-03     447.241E-03    -223.764E-03     11.3249E-03
             195    -1.24271E-06     29.3145E-03    -138.747E+06    -302.005E+06    -138.624E+06     -51.449E+03    -224.233E-03     447.201E-03    -222.968E-03     12.7061E-03    -224.309E-03     446.117E-03    -223.022E-03     11.2137E-03
             196     3.13586E-06     27.8334E-03    -137.549E+06    -300.503E+06    -139.376E+06     619.025E+03    -223.368E-03     445.642E-03    -222.274E-03     12.9136E-03    -223.437E-03     444.565E-03    -222.336E-03     11.4726E-03
             197    -3.52095E-06     26.3578E-03    -138.058E+06    -297.711E+06    -137.221E+06     503.424E+03    -221.295E-03     443.862E-03    -222.568E-03     12.2883E-03    -221.373E-03     442.798E-03    -222.622E-03     10.8127E-03
             198     2.03482E-06     24.8824E-03    -137.086E+06    -295.052E+06    -136.874E+06     653.169E+03    -221.245E-03     442.064E-03    -220.819E-03     10.7497E-03    -221.321E-03     441.006E-03    -220.877E-03     9.34456E-03
             199     44.7125E-09     23.4089E-03    -134.011E+06    -292.750E+06    -134.997E+06    -35.2609E+03    -219.716E-03     438.433E-03    -218.718E-03     11.2025E-03    -219.784E-03     437.378E-03    -218.774E-03     9.83370E-03
             200    -723.325E-09     21.9474E-03    -133.672E+06    -293.105E+06    -133.438E+06    -279.483E+03    -216.800E-03     433.614E-03    -216.813E-03     9.45458E-03    -216.866E-03     432.551E-03    -216.861E-03     8.19133E-03
             201     1.37241E-06     20.4878E-03    -134.042E+06    -294.287E+06    -134.088E+06     463.813E+03    -214.255E-03     427.654E-03    -213.399E-03     8.92447E-03    -214.317E-03     426.585E-03    -213.449E-03     7.75079E-03
             202    -790.937E-09     19.0406E-03    -131.378E+06    -293.132E+06    -130.723E+06     97.0134E+03    -209.425E-03     418.938E-03    -209.513E-03     8.25317E-03    -209.479E-03     417.863E-03    -209.551E-03     7.19300E-03
             203     77.8924E-09     17.6087E-03    -129.103E+06    -293.584E+06    -129.810E+06    -665.158E+03    -202.831E-03     407.136E-03    -204.305E-03     6.27004E-03    -202.873E-03     406.051E-03    -204.341E-03     5.33092E-03
             204    -1.52707E-06     16.1969E-03    -128.490E+06    -294.034E+06    -128.086E+06     771.129E+03    -196.168E-03     393.248E-03    -197.080E-03     4.53584E-03    -196.207E-03     392.155E-03    -197.108E-03     3.71814E-03
             205     1.65927E-06     14.8024E-03    -126.148E+06    -291.169E+06    -127.087E+06     298.987E+03    -189.744E-03     378.394E-03    -188.650E-03     3.71703E-03    -189.775E-03     377.309E-03    -188.680E-03     2.99607E-03
             206    -140.059E-09     13.4327E-03    -126.957E+06    -289.200E+06    -126.958E+06     281.577E+03    -181.371E-03     361.855E-03    -180.484E-03     2.69151E-03    -181.410E-03     360.779E-03    -180.515E-03     2.04264E-03
             207    -24.5398E-09     12.0836E-03    -127.844E+06    -284.777E+06    -127.639E+06     1.46127E+06    -171.635E-03     343.468E-03    -171.833E-03     999.729E-06    -171.682E-03     342.414E-03    -171.873E-03     479.029E-06
             208    -72.9991E-09     10.7635E-03    -126.317E+06    -276.826E+06    -126.334E+06     1.39991E+06    -162.961E-03     325.981E-03    -163.020E-03     900.058E-06    -163.014E-03     324.964E-03    -163.067E-03     416.204E-06
             209     109.479E-09     9.46034E-03    -121.420E+06    -268.943E+06    -121.281E+06     1.54606E+06    -156.061E-03     312.692E-03    -156.631E-03     1.47568E-03    -156.107E-03     311.702E-03    -156.671E-03     982.638E-06
             210    -1.00790E-06     8.17647E-03    -118.464E+06    -262.357E+06    -117.031E+06     866.490E+03    -154.042E-03     308.309E-03    -154.267E-03     3.18500E-03    -154.089E-03     307.343E-03    -154.300E-03     2.67142E-03
             211     1.57939E-06     6.88372E-03    -119.449E+06    -262.625E+06    -118.655E+06    -1.16830E+06    -159.306E-03     317.177E-03    -157.871E-03     6.41935E-03    -159.358E-03     316.213E-03    -157.911E-03     5.88994E-03
             212     71.0481E-09     5.57621E-03    -116.486E+06    -268.849E+06    -116.349E+06    -1.13535E+06    -168.670E-03     337.866E-03    -169.196E-03     8.95831E-03    -168.706E-03     336.860E-03    -169.219E-03     8.43948E-03
             213    -2.45434E-06     4.22984E-03    -105.564E+06    -276.716E+06    -105.692E+06    -1.42961E+06    -181.342E-03     364.692E-03    -183.350E-03     8.21800E-03    -181.327E-03     363.613E-03    -183.325E-03     7.71581E-03
             214     1.85054E-06     2.84630E-03    -95.7145E+06    -280.313E+06    -96.6350E+06     270.165E+03    -194.974E-03     389.864E-03    -194.890E-03     6.71680E-03    -194.913E-03     388.740E-03    -194.828E-03     6.33590E-03
             215    -1.11839E-06     1.43194E-03    -89.5907E+06    -276.263E+06    -88.7206E+06     1.03059E+06    -203.800E-03     407.092E-03    -203.292E-03     4.04509E-03    -203.720E-03     405.970E-03    -203.205E-03     3.83593E-03
             216     730.445E-06     5.21805E-15    -84.9722E+06    -271.857E+06    -83.0410E+06     1.78601E+06    -206.632E-03     413.267E-03    -206.635E-03     3.27118E-03    -206.543E-03     412.152E-03    -206.532E-03     3.08766E-03
             217     1.46207E-03     5.21805E-15    -84.7444E+06    -268.976E+06    -79.9275E+06     1.40925E+06    -206.498E-03     413.127E-03    -206.629E-03     5.84474E-03    -206.418E-03     412.023E-03    -206.516E-03     5.49245E-03
             218     2.19296E-03     5.21805E-15    -82.4504E+06    -258.045E+06    -77.6017E+06    -1.64013E+06    -206.086E-03     412.619E-03    -206.533E-03     8.76703E-03    -206.017E-03     411.565E-03    -206.427E-03     8.18919E-03
             219     2.92392E-03     5.21805E-15    -79.4200E+06    -240.797E+06    -72.3054E+06    -879.174E+03    -205.427E-03     411.785E-03    -206.358E-03     11.8402E-03    -205.380E-03     410.810E-03    -206.255E-03     11.0913E-03
             220     3.65674E-03     5.21805E-15    -76.7278E+06    -216.841E+06    -64.3456E+06     105.088E+03    -204.782E-03     410.913E-03    -206.131E-03     14.4318E-03    -204.772E-03     410.047E-03    -206.027E-03     13.5259E-03
             221     4.38862E-03     5.21805E-15    -74.0068E+06    -182.288E+06    -57.5031E+06    -364.398E+03    -204.233E-03     410.101E-03    -205.868E-03     17.2215E-03    -204.276E-03     409.400E-03    -205.784E-03     16.1393E-03
             222     5.12183E-03     5.21805E-15    -69.5561E+06    -144.750E+06    -50.4601E+06    -3.33890E+06    -203.797E-03     409.404E-03    -205.607E-03     20.1187E-03    -203.890E-03     408.882E-03    -205.549E-03     18.8108E-03
             223     5.85449E-03     5.21805E-15    -61.2298E+06    -101.042E+06    -41.6201E+06    -7.76741E+06    -203.609E-03     408.975E-03    -205.367E-03     22.5052E-03    -203.744E-03     408.655E-03    -205.340E-03     20.9509E-03
             224     6.58875E-03     5.21805E-15    -50.0299E+06    -45.3556E+06    -30.6309E+06    -9.44609E+06    -203.938E-03     409.112E-03    -205.175E-03     24.5475E-03    -204.123E-03     409.047E-03    -205.190E-03     22.7813E-03
             225     7.32086E-03     5.21805E-15    -38.6872E+06    -2.30960E+06    -16.1230E+06    -8.72844E+06    -205.091E-03     410.217E-03    -205.126E-03     27.4619E-03    -205.316E-03     410.342E-03    -205.147E-03     25.4728E-03
             226     8.05213E-03     5.21805E-15    -28.9023E+06     15.9960E+06     2.12663E+06    -5.96413E+06    -207.084E-03     412.373E-03    -205.288E-03     31.2537E-03    -207.329E-03     412.564E-03    -205.259E-03     29.0612E-03
             227     8.78092E-03     5.21805E-15    -22.0783E+06     25.7893E+06     20.5988E+06    -722.291E+03    -210.091E-03     415.751E-03    -205.659E-03     35.4698E-03    -210.366E-03     415.978E-03    -205.562E-03     33.0020E-03
             228     9.50807E-03     5.21805E-15    -19.2667E+06     38.2657E+06     40.2630E+06     3.20987E+06    -214.689E-03     420.973E-03    -206.284E-03     38.1312E-03    -215.018E-03     421.253E-03    -206.110E-03     35.3306E-03
             229     10.2330E-03     5.21805E-15    -18.1996E+06     45.3981E+06     61.2665E+06     3.94914E+06    -222.445E-03     429.728E-03    -207.283E-03     42.1345E-03    -222.854E-03     430.056E-03    -207.016E-03     38.6761E-03
             230     10.9467E-03     5.21805E-15    -16.1148E+06     44.7041E+06     74.9778E+06     2.42523E+06    -234.846E-03     443.638E-03    -208.791E-03     46.3614E-03    -235.315E-03     443.993E-03    -208.458E-03     42.0253E-03
             231     11.6565E-03     5.21805E-15    -12.3952E+06     50.8304E+06     80.3658E+06     1.09942E+06    -254.992E-03     466.036E-03    -211.044E-03     58.4804E-03    -255.588E-03     466.539E-03    -210.698E-03     52.6994E-03
             232     12.3330E-03     5.21805E-15    -12.0513E+06     58.7092E+06     79.2515E+06     270.953E+03    -288.611E-03     503.102E-03    -214.491E-03     82.4919E-03    -289.507E-03     503.948E-03    -214.162E-03     73.8299E-03
             233     12.9947E-03     5.21805E-15    -10.2016E+06     69.2364E+06     80.0670E+06     692.230E+03    -345.539E-03     565.380E-03    -219.841E-03     94.9420E-03    -346.813E-03     566.683E-03    -219.526E-03     81.2781E-03
             234     13.6294E-03     5.21805E-15     2.80847E+06     89.1657E+06     93.3202E+06     5.99440E+06    -436.510E-03     664.476E-03    -227.966E-03     163.413E-03    -439.632E-03     667.657E-03    -227.633E-03     138.703E-03
             235     14.2843E-03     2.11404E-03    -1.39158E+06     96.6784E+06     88.6734E+06     189.679E+03    -428.975E-03     659.389E-03    -230.414E-03     220.440E-03    -434.766E-03     665.220E-03    -230.109E-03     185.656E-03
             236     14.2957E-03     3.78981E-03    -9.69464E+06     87.8502E+06     77.5710E+06    -2.60462E+06    -350.757E-03     578.429E-03    -227.672E-03     164.013E-03    -355.809E-03     583.528E-03    -227.398E-03     132.124E-03
             237     14.3189E-03     5.43870E-03    -2.31065E+06     83.7556E+06     81.4434E+06     1.16055E+06    -313.837E-03     541.185E-03    -227.348E-03     125.898E-03    -317.572E-03     544.967E-03    -227.059E-03     99.1093E-03
             238     14.3237E-03     7.00179E-03    -2.95882E+06     81.8726E+06     83.8935E+06    -1.79254E+06    -292.886E-03     520.036E-03    -227.150E-03     117.354E-03    -296.594E-03     523.779E-03    -226.845E-03     91.4887E-03
             239     14.3296E-03     8.61178E-03    -2.49471E+06     79.5999E+06     87.6112E+06    -1.35171E+06    -288.011E-03     514.993E-03    -226.983E-03     102.998E-03    -291.181E-03     518.184E-03    -226.656E-03     78.7720E-03
             240     14.3294E-03     10.1792E-03    -2.03495E+06     76.3929E+06     88.0910E+06    -821.859E+03    -278.375E-03     505.461E-03    -227.086E-03     97.3406E-03    -281.316E-03     508.409E-03    -226.753E-03     74.5140E-03
             241     14.3313E-03     11.7418E-03    -1.98480E+06     74.0957E+06     87.0577E+06    -605.451E+03    -268.555E-03     495.783E-03    -227.228E-03     91.6651E-03    -271.296E-03     498.527E-03    -226.897E-03     70.1679E-03
             242     14.3329E-03     13.2906E-03    -2.00438E+06     73.3344E+06     87.0482E+06    -360.886E+03    -258.767E-03     486.178E-03    -227.412E-03     87.8285E-03    -261.360E-03     488.772E-03    -227.080E-03     67.5717E-03
             243     14.3311E-03     14.8229E-03    -2.66866E+06     70.8107E+06     84.9454E+06    -361.483E+03    -249.525E-03     477.191E-03    -227.667E-03     80.7149E-03    -251.924E-03     479.586E-03    -227.341E-03     61.7130E-03
             244     14.3312E-03     16.3344E-03    -2.00825E+06     68.6415E+06     83.2776E+06    -140.406E+03    -241.093E-03     468.986E-03    -227.893E-03     74.5422E-03    -243.321E-03     471.208E-03    -227.573E-03     56.6717E-03
             245     14.3315E-03     17.8445E-03    -136.827E+03     69.3488E+06     85.5815E+06     53.4692E+03    -234.855E-03     462.891E-03    -228.037E-03     70.4232E-03    -236.974E-03     465.008E-03    -227.709E-03     53.3274E-03
             246     14.3319E-03     19.3463E-03    -1.75545E+06     68.9636E+06     84.5802E+06     77.0184E+03    -231.488E-03     459.599E-03    -228.111E-03     68.8367E-03    -233.572E-03     461.676E-03    -227.786E-03     52.1326E-03
             247     14.3313E-03     20.8464E-03    -3.88566E+06     70.2279E+06     84.0679E+06     800.895E+03    -230.519E-03     458.649E-03    -228.130E-03     67.2668E-03    -232.576E-03     460.698E-03    -227.806E-03     50.7747E-03
             248     14.3323E-03     22.3459E-03    -1.53346E+06     73.3946E+06     86.0053E+06     547.437E+03    -229.719E-03     457.809E-03    -228.090E-03     67.3054E-03    -231.768E-03     459.864E-03    -227.764E-03     50.8616E-03
             249     14.3343E-03     23.8474E-03    -2.27116E+06     73.8519E+06     85.9226E+06    -109.127E+03    -229.382E-03     457.393E-03    -228.010E-03     68.4358E-03    -231.459E-03     459.474E-03    -227.684E-03     51.9230E-03
             250     14.3342E-03     25.3481E-03    -2.41779E+06     73.7321E+06     85.7760E+06    -491.720E+03    -230.324E-03     458.285E-03    -227.961E-03     68.2140E-03    -232.397E-03     460.363E-03    -227.636E-03     51.6606E-03
             251     14.3338E-03     26.8500E-03    -2.53833E+06     72.8929E+06     85.9317E+06     318.626E+03    -230.441E-03     458.389E-03    -227.949E-03     67.6042E-03    -232.500E-03     460.449E-03    -227.621E-03     51.0957E-03
             252     14.3354E-03     28.3480E-03    -1.45866E+06     74.7341E+06     86.8617E+06     526.956E+03    -230.210E-03     458.128E-03    -227.918E-03     67.4303E-03    -232.261E-03     460.187E-03    -227.590E-03     50.9561E-03
             253     14.3347E-03     29.8521E-03    -2.51871E+06     73.8906E+06     84.4640E+06    -67.6096E+03    -230.160E-03     458.035E-03    -227.875E-03     67.8818E-03    -232.216E-03     460.099E-03    -227.556E-03     51.3990E-03
             254     14.3365E-03     31.3516E-03    -2.83166E+06     71.8405E+06     85.0636E+06    -648.405E+03    -229.143E-03     456.998E-03    -227.855E-03     68.5762E-03    -231.225E-03     459.078E-03    -227.530E-03     52.0633E-03
             255     14.3365E-03     32.8493E-03    -1.49449E+06     72.2843E+06     87.2484E+06    -267.458E+03    -228.910E-03     456.757E-03    -227.847E-03     67.9117E-03    -231.002E-03     458.847E-03    -227.513E-03     51.3374E-03
             256     14.3359E-03     34.3495E-03    -2.90429E+06     72.5235E+06     86.7380E+06     467.309E+03    -229.302E-03     457.151E-03    -227.849E-03     67.5297E-03    -231.399E-03     459.243E-03    -227.516E-03     50.9206E-03
             257     14.3364E-03     35.8469E-03    -1.95001E+06     73.1243E+06     87.0721E+06    -575.446E+03    -228.512E-03     456.359E-03    -227.847E-03     67.5499E-03    -230.604E-03     458.451E-03    -227.514E-03     50.9752E-03
             258     14.3372E-03     37.3459E-03    -1.78813E+06     70.8619E+06     85.4705E+06    -1.01427E+06    -228.032E-03     455.865E-03    -227.833E-03     68.3742E-03    -230.132E-03     457.963E-03    -227.506E-03     51.8065E-03
             259     14.3362E-03     38.8445E-03    -2.50500E+06     69.3217E+06     85.1381E+06     471.114E+03    -227.877E-03     455.706E-03    -227.829E-03     69.2509E-03    -229.994E-03     457.813E-03    -227.500E-03     52.7027E-03
             260     14.3380E-03     40.3401E-03    -1.35705E+06     72.6802E+06     88.1331E+06     1.11951E+06    -228.021E-03     455.858E-03    -227.837E-03     69.3163E-03    -230.128E-03     457.962E-03    -227.500E-03     52.8556E-03
             261     14.3354E-03     41.8402E-03    -2.73665E+06     73.2940E+06     85.9548E+06     220.154E+03    -228.171E-03     456.039E-03    -227.867E-03     68.1813E-03    -230.275E-03     458.143E-03    -227.540E-03     51.6575E-03
             262     14.3363E-03     43.3342E-03    -2.76067E+06     72.8693E+06     84.6531E+06     158.990E+03    -226.863E-03     454.720E-03    -227.857E-03     68.9044E-03    -228.998E-03     456.859E-03    -227.536E-03     52.3160E-03
             263     14.3391E-03     44.8263E-03    -555.862E+03     75.3815E+06     87.2603E+06    -447.800E+03    -227.199E-03     455.005E-03    -227.806E-03     67.9711E-03    -229.306E-03     457.125E-03    -227.478E-03     51.4516E-03
             264     14.3353E-03     46.3326E-03    -3.15006E+06     73.6616E+06     86.4322E+06    -124.272E+03    -227.552E-03     455.401E-03    -227.849E-03     68.6916E-03    -229.678E-03     457.527E-03    -227.519E-03     52.1557E-03
             265     14.3373E-03     47.8232E-03    -2.85867E+06     73.0005E+06     86.9351E+06     44.8313E+03    -226.774E-03     454.653E-03    -227.879E-03     70.9534E-03    -228.930E-03     456.805E-03    -227.546E-03     54.4463E-03
             266     14.3368E-03     49.3177E-03    -1.91738E+06     71.4682E+06      85.502E+06    -679.314E+03    -227.186E-03     455.035E-03    -227.849E-03     68.0520E-03    -229.279E-03     457.126E-03    -227.522E-03     51.6079E-03
             267     14.3365E-03     50.8168E-03    -2.10631E+06     68.8201E+06     84.2352E+06    -125.473E+03    -226.754E-03     454.629E-03    -227.875E-03     68.6475E-03    -228.868E-03     456.735E-03    -227.550E-03     52.1429E-03
             268     14.3367E-03     52.3103E-03    -2.16493E+06     69.8739E+06     85.6770E+06     651.516E+03    -226.343E-03     454.224E-03    -227.881E-03     69.7517E-03    -228.482E-03     456.355E-03    -227.551E-03     53.2406E-03
             269     14.3372E-03     53.8040E-03    -2.41451E+06     72.9991E+06     88.5014E+06     636.705E+03    -226.391E-03     454.262E-03    -227.871E-03     68.2344E-03    -228.505E-03     456.370E-03    -227.531E-03     51.8101E-03
             270     14.3370E-03     55.3010E-03    -1.13080E+06     74.9291E+06     88.3533E+06    -233.421E+03    -226.535E-03     454.406E-03    -227.871E-03     68.5836E-03    -228.654E-03     456.531E-03    -227.536E-03     52.1132E-03
             271     14.3363E-03     56.7952E-03    -2.83133E+06     73.1913E+06     84.4926E+06     314.273E+03    -226.618E-03     454.465E-03    -227.847E-03     68.9973E-03    -228.737E-03     456.589E-03    -227.527E-03     52.5529E-03
             272     14.3383E-03     58.2903E-03    -1.86270E+06     74.0644E+06     86.9360E+06    -264.773E+03    -226.120E-03     453.959E-03    -227.839E-03     68.8945E-03    -228.243E-03     456.087E-03    -227.509E-03     52.4501E-03
             273     14.3367E-03     59.7865E-03    -1.78667E+06     73.3457E+06     86.9184E+06    -690.684E+03    -226.639E-03     454.492E-03    -227.852E-03     68.4537E-03    -228.767E-03     456.621E-03    -227.522E-03     51.9235E-03
             274     14.3364E-03     61.2794E-03    -3.02914E+06     72.9174E+06     85.6601E+06     954.631E+03    -226.821E-03     454.684E-03    -227.863E-03     68.2256E-03    -228.936E-03     456.798E-03    -227.536E-03     51.7791E-03
             275     14.3375E-03     62.7774E-03    -1.88384E+06     74.6999E+06     86.4877E+06    -368.188E+03    -226.257E-03     454.113E-03    -227.856E-03     69.2618E-03    -228.381E-03     456.245E-03    -227.529E-03     52.8186E-03
             276     14.3369E-03     64.2719E-03    -2.80739E+06     72.1028E+06     85.6091E+06    -912.460E+03    -226.434E-03     454.311E-03    -227.877E-03     69.0076E-03    -228.561E-03     456.436E-03    -227.550E-03     52.5316E-03
             277     14.3357E-03     65.7669E-03    -2.77889E+06     70.6353E+06     86.2600E+06     737.394E+03    -226.596E-03     454.488E-03    -227.893E-03     69.5014E-03    -228.734E-03     456.618E-03    -227.560E-03     53.0107E-03
             278     14.3379E-03     67.2601E-03    -1.99817E+06     73.1630E+06     87.3596E+06     351.470E+03    -226.367E-03     454.230E-03    -227.862E-03     68.8715E-03    -228.486E-03     456.348E-03    -227.529E-03     52.4371E-03
             279     14.3367E-03     68.7579E-03    -1.60356E+06     73.9286E+06     86.8511E+06    -484.261E+03    -226.050E-03     453.922E-03    -227.871E-03     68.8075E-03    -228.180E-03     456.056E-03    -227.542E-03     52.3272E-03
             280     14.3367E-03     70.2519E-03    -2.11862E+06     73.2537E+06     85.5668E+06     160.894E+03    -225.870E-03     453.736E-03    -227.867E-03     70.5790E-03    -228.034E-03     455.905E-03    -227.542E-03     54.0380E-03
             281     14.3382E-03     71.7429E-03    -2.20280E+06     74.2494E+06     87.1275E+06    -45.7106E+03    -226.337E-03     454.171E-03    -227.834E-03     68.8967E-03    -228.459E-03     456.297E-03    -227.503E-03     52.4590E-03
             282     14.3366E-03     73.2423E-03    -2.26679E+06     74.2035E+06     87.7959E+06     19.0773E+03    -226.577E-03     454.444E-03    -227.867E-03     67.6485E-03    -228.686E-03     456.554E-03    -227.533E-03     51.2128E-03
             283     14.3363E-03     74.7345E-03    -3.29092E+06     73.9166E+06     86.2466E+06     414.304E+03    -226.404E-03     454.296E-03    -227.892E-03     68.8397E-03    -228.536E-03     456.429E-03    -227.563E-03     52.3748E-03
             284     14.3371E-03     76.2295E-03    -1.45212E+06     74.8391E+06     87.3723E+06    -493.990E+03    -226.054E-03     453.920E-03    -227.866E-03     68.7981E-03    -228.166E-03     456.039E-03    -227.535E-03     52.3982E-03
             285     14.3379E-03     77.7258E-03    -1.81991E+06     74.8563E+06     88.6673E+06     100.470E+03    -226.162E-03     454.023E-03    -227.861E-03     69.6715E-03    -228.304E-03     456.167E-03    -227.523E-03     53.2099E-03
             286     14.3360E-03     79.2215E-03    -3.18768E+06     75.1312E+06     87.3787E+06     644.812E+03    -226.584E-03     454.470E-03    -227.886E-03     69.2428E-03    -228.732E-03     456.620E-03    -227.554E-03     52.7408E-03
             287     14.3367E-03     80.7140E-03    -1.93553E+06     76.0029E+06     88.3771E+06    -50.2020E+03    -225.986E-03     453.868E-03    -227.882E-03     69.2019E-03    -228.121E-03     456.009E-03    -227.547E-03     52.7532E-03
             288     14.3384E-03     82.2071E-03    -1.40591E+06     76.1712E+06     89.1949E+06    -610.227E+03    -226.426E-03     454.284E-03    -227.858E-03     68.9132E-03    -228.556E-03     456.420E-03    -227.520E-03     52.4484E-03
             289     14.3351E-03     83.7103E-03    -2.75422E+06     74.7734E+06     87.3024E+06     425.649E+03    -226.423E-03     454.295E-03    -227.872E-03     69.6485E-03    -228.578E-03     456.452E-03    -227.540E-03     53.1189E-03
             290     14.3390E-03     85.1942E-03    -2.20523E+06     75.6779E+06     88.3256E+06     84.1131E+03    -226.001E-03     453.870E-03    -227.869E-03     69.6535E-03    -228.144E-03     456.017E-03    -227.534E-03     53.2136E-03
             291     14.3355E-03     86.6983E-03    -2.45916E+06     74.5484E+06     87.9032E+06    -338.835E+03    -226.180E-03     454.061E-03    -227.881E-03     69.0230E-03    -228.307E-03     456.189E-03    -227.546E-03     52.6080E-03
             292     715.977E-06     86.0346E-03    -140.470E+06    -302.219E+06    -138.478E+06     271.255E+03    -228.267E-03     456.264E-03    -227.997E-03     23.4549E-03    -228.410E-03     455.238E-03    -228.047E-03     20.7850E-03
             293     1.43292E-03     86.0779E-03    -137.065E+06    -287.940E+06    -127.560E+06    -211.527E+03    -228.412E-03     456.515E-03    -228.103E-03     42.6198E-03    -228.744E-03     455.708E-03    -228.124E-03     37.6944E-03
             294     2.14961E-03     86.1495E-03    -131.766E+06    -272.469E+06    -112.155E+06    -89.9204E+03    -228.761E-03     456.904E-03    -228.143E-03     62.8245E-03    -229.400E-03     456.433E-03    -228.118E-03     55.4364E-03
             295     2.86564E-03     86.2478E-03    -124.504E+06    -247.645E+06    -92.9654E+06     111.043E+03    -229.102E-03     457.269E-03    -228.167E-03     82.8536E-03    -230.180E-03     457.296E-03    -228.092E-03     72.9268E-03
             296     3.58246E-03     86.3726E-03    -116.237E+06    -215.997E+06    -73.2348E+06    -54.4804E+03    -229.452E-03     457.607E-03    -228.155E-03     102.333E-03    -231.106E-03     458.293E-03    -228.039E-03     89.7759E-03
             297     4.29918E-03     86.5229E-03    -107.352E+06    -185.788E+06    -53.5686E+06     12.6715E+03    -229.997E-03     458.133E-03    -228.136E-03     121.335E-03    -232.364E-03     459.614E-03    -227.978E-03     106.024E-03
             298     5.01603E-03     86.6983E-03    -97.9195E+06    -156.711E+06    -34.3673E+06     3.93907E+03    -230.626E-03     458.753E-03    -228.127E-03     139.738E-03    -233.846E-03     461.168E-03    -227.929E-03     121.589E-03
             299     5.73283E-03     86.8969E-03    -88.7693E+06    -122.355E+06    -15.3543E+06     108.530E+03    -231.171E-03     459.291E-03    -228.119E-03     157.135E-03    -235.387E-03     462.802E-03    -227.890E-03     136.131E-03
             300     6.44921E-03     87.1172E-03    -79.8191E+06    -81.7472E+06     3.32488E+06     181.384E+03    -231.691E-03     459.799E-03    -228.109E-03     173.583E-03    -237.033E-03     464.559E-03    -227.858E-03     149.750E-03
             301     7.16609E-03     87.3592E-03    -71.0723E+06    -39.5337E+06     20.9816E+06     82.2803E+03    -232.018E-03     460.112E-03    -228.094E-03     188.267E-03    -238.544E-03     466.184E-03    -227.829E-03     161.802E-03
             302     7.88333E-03     87.6175E-03    -61.9719E+06     2.96920E+06     37.3009E+06     275.599E+03    -232.119E-03     460.186E-03    -228.068E-03     200.312E-03    -239.793E-03     467.543E-03    -227.796E-03     171.549E-03
             303     8.60074E-03     87.8911E-03    -52.6294E+06     27.4436E+06     47.7133E+06     281.600E+03    -231.965E-03     459.998E-03    -228.033E-03     208.438E-03    -240.587E-03     468.391E-03    -227.758E-03     177.874E-03
             304     9.31752E-03     88.1686E-03    -44.4177E+06     35.2185E+06     54.5949E+06    -93.8715E+03    -231.562E-03     459.564E-03    -228.002E-03     211.687E-03    -240.797E-03     468.608E-03    -227.716E-03     179.983E-03
             305     10.0337E-03     88.4488E-03    -37.1346E+06     48.4256E+06     65.6249E+06    -164.144E+03    -230.989E-03     458.979E-03    -227.990E-03     209.447E-03    -240.456E-03     468.296E-03    -227.678E-03     177.273E-03
             306     10.7513E-03     88.7186E-03    -30.0492E+06     60.5061E+06     78.2992E+06     63.6868E+03    -230.191E-03     458.189E-03    -227.998E-03     201.704E-03    -239.441E-03     467.320E-03    -227.650E-03     169.756E-03
             307     11.4685E-03     88.9757E-03    -23.3021E+06     62.9311E+06     84.9592E+06    -205.189E+03    -229.295E-03     457.291E-03    -227.996E-03     190.504E-03    -237.977E-03     465.867E-03    -227.629E-03     159.304E-03
             308     12.1859E-03     89.2118E-03    -17.1390E+06     64.9741E+06     86.4512E+06    -993.076E+03    -228.000E-03     455.965E-03    -227.965E-03     171.446E-03    -235.541E-03     463.425E-03    -227.602E-03     142.079E-03
             309     12.9019E-03     89.4134E-03    -11.0239E+06     73.5198E+06     88.2542E+06    -1.33623E+06    -227.116E-03     455.036E-03    -227.920E-03     155.440E-03    -233.802E-03     461.688E-03    -227.569E-03     127.298E-03
             310     13.6216E-03     89.6027E-03    -5.17246E+06     77.9989E+06      88.764E+06    -614.728E+03    -226.764E-03     454.651E-03    -227.887E-03     110.468E-03    -231.138E-03     459.027E-03    -227.549E-03     88.1216E-03
             311     717.142E-06     87.5289E-03    -138.953E+06    -301.703E+06    -138.801E+06    -874.168E+03    -228.318E-03     456.150E-03    -227.831E-03     23.0319E-03    -228.454E-03     455.124E-03    -227.886E-03     20.3622E-03
             312     1.43292E-03     87.5729E-03    -137.046E+06    -288.340E+06    -128.343E+06     159.345E+03    -228.402E-03     456.455E-03    -228.053E-03     42.5129E-03    -228.733E-03     455.648E-03    -228.078E-03     37.5768E-03
             313     2.14897E-03     87.6441E-03    -131.403E+06    -271.989E+06    -111.096E+06     5.34729E+03    -228.716E-03     456.825E-03    -228.110E-03     62.7865E-03    -229.356E-03     456.355E-03    -228.080E-03     55.3902E-03
             314     2.86600E-03     87.7425E-03    -124.005E+06    -247.446E+06    -92.8340E+06    -97.0779E+03    -229.045E-03     457.173E-03    -228.127E-03     82.7149E-03    -230.122E-03     457.200E-03    -228.053E-03     72.7795E-03
             315     3.58250E-03     87.8671E-03    -115.950E+06    -216.174E+06    -73.4188E+06     231.011E+03    -229.509E-03     457.632E-03    -228.123E-03     102.199E-03    -231.162E-03     458.319E-03    -228.009E-03     89.6271E-03
             316     4.29927E-03     88.0173E-03    -107.248E+06    -185.639E+06    -53.4199E+06    -211.129E+03    -230.066E-03     458.189E-03    -228.123E-03     121.254E-03    -232.434E-03     459.672E-03    -227.965E-03     105.924E-03
             317     5.01593E-03     88.1929E-03    -98.1219E+06    -156.719E+06    -34.2289E+06    -366.619E+03    -230.611E-03     458.733E-03    -228.122E-03     139.566E-03    -233.824E-03     461.141E-03    -227.924E-03     121.436E-03
             318     5.73276E-03     88.3913E-03    -89.0739E+06    -123.824E+06    -15.8456E+06     60.9385E+03    -231.230E-03     459.348E-03    -228.118E-03     157.074E-03    -235.440E-03     462.848E-03    -227.888E-03     136.079E-03
             319     6.44985E-03     88.6128E-03    -80.0188E+06    -82.1143E+06     2.89730E+06     554.454E+03    -231.755E-03     459.868E-03    -228.113E-03     173.453E-03    -237.091E-03     464.620E-03    -227.863E-03     149.634E-03
             320     7.16657E-03     88.8539E-03    -70.7398E+06    -38.4246E+06     21.7043E+06     627.773E+03    -232.080E-03     460.188E-03    -228.108E-03     188.121E-03    -238.607E-03     466.265E-03    -227.841E-03     161.654E-03
             321     7.88295E-03     89.1129E-03    -61.4134E+06     3.23981E+06     37.8717E+06    -152.175E+03    -232.122E-03     460.208E-03    -228.086E-03     200.180E-03    -239.801E-03     467.571E-03    -227.813E-03     171.378E-03
             322     8.59959E-03     89.3846E-03    -52.4794E+06     27.2901E+06     47.7855E+06    -521.608E+03    -231.879E-03     459.927E-03    -228.047E-03     208.324E-03    -240.502E-03     468.321E-03    -227.772E-03     177.744E-03
             323     9.31689E-03     89.6639E-03    -44.3150E+06     35.2766E+06     54.8351E+06     29.2507E+03    -231.595E-03     459.608E-03    -228.014E-03     211.958E-03    -240.841E-03     468.663E-03    -227.726E-03     180.241E-03
             324     10.0348E-03     89.9431E-03    -36.7631E+06     48.6599E+06     66.9589E+06     225.223E+03    -231.088E-03     459.095E-03    -228.007E-03     210.043E-03    -240.571E-03     468.426E-03    -227.689E-03     177.857E-03
             325     10.7512E-03     90.2145E-03    -29.2833E+06     59.9731E+06     79.7503E+06     34.7012E+03    -230.292E-03     458.309E-03    -228.017E-03     202.172E-03    -239.551E-03     467.446E-03    -227.663E-03     170.216E-03
             326     11.4682E-03     90.4693E-03    -21.5689E+06     63.3503E+06     86.0963E+06     282.741E+03    -229.074E-03     457.079E-03    -228.005E-03     190.413E-03    -237.740E-03     465.643E-03    -227.635E-03     159.279E-03
             327     12.1851E-03     90.7072E-03    -14.8988E+06     67.9906E+06     88.3511E+06    -145.554E+03    -227.927E-03     455.890E-03    -227.963E-03     171.300E-03    -235.452E-03     463.348E-03    -227.598E-03     141.979E-03
             328     12.9042E-03     90.9060E-03    -9.77547E+06     74.0068E+06     89.1858E+06    -1.09052E+06    -227.279E-03     455.201E-03    -227.922E-03     155.010E-03    -233.950E-03     461.841E-03    -227.569E-03     126.864E-03
             329     13.6185E-03     91.0997E-03    -4.39996E+06     75.7795E+06     88.9565E+06    -995.893E+03    -226.580E-03     454.471E-03    -227.891E-03     109.900E-03    -230.939E-03     458.825E-03    -227.550E-03     87.5479E-03
             330     715.632E-06     89.0231E-03    -140.392E+06    -301.978E+06    -136.397E+06     624.207E+03    -228.300E-03     456.295E-03    -227.995E-03     23.0550E-03    -228.447E-03     455.268E-03    -228.036E-03     20.3646E-03
             331     1.43289E-03     89.0676E-03    -136.531E+06    -288.582E+06    -127.064E+06     66.0112E+03    -228.322E-03     456.422E-03    -228.100E-03     42.5446E-03    -228.652E-03     455.611E-03    -228.119E-03     37.5998E-03
             332     2.14979E-03     89.1389E-03    -130.165E+06    -271.401E+06    -110.285E+06     49.5434E+03    -228.652E-03     456.764E-03    -228.111E-03     62.5777E-03    -229.286E-03     456.292E-03    -228.081E-03     55.1951E-03
             333     2.86585E-03     89.2370E-03    -123.363E+06    -247.963E+06    -92.4414E+06     151.655E+03    -229.046E-03     457.168E-03    -228.122E-03     82.4482E-03    -230.117E-03     457.188E-03    -228.045E-03     72.5274E-03
             334     3.58266E-03     89.3616E-03    -115.069E+06    -216.435E+06    -72.8825E+06     151.717E+03    -229.567E-03     457.693E-03    -228.126E-03     102.089E-03    -231.216E-03     458.376E-03    -228.009E-03     89.5094E-03
             335     4.29912E-03     89.5123E-03    -105.836E+06    -184.244E+06    -51.7100E+06     37.4408E+03    -230.147E-03     458.288E-03    -228.140E-03     121.079E-03    -232.507E-03     459.768E-03    -227.978E-03     105.765E-03
             336     5.01595E-03     89.6871E-03    -96.9619E+06    -157.563E+06    -32.7111E+06     202.986E+03    -230.743E-03     458.900E-03    -228.157E-03     139.315E-03    -233.951E-03     461.299E-03    -227.952E-03     121.173E-03
             337     5.73271E-03     89.8862E-03    -88.1826E+06    -124.834E+06    -14.8240E+06     567.489E+03    -231.282E-03     459.445E-03    -228.162E-03     156.794E-03    -235.486E-03     462.935E-03    -227.927E-03     135.788E-03
             338     6.44897E-03     90.1075E-03    -78.9213E+06    -81.8331E+06     3.17912E+06     341.701E+03    -231.653E-03     459.801E-03    -228.148E-03     173.179E-03    -236.979E-03     464.547E-03    -227.899E-03     149.368E-03
             339     7.16580E-03     90.3486E-03    -69.0192E+06    -39.0858E+06     21.5850E+06     208.006E+03    -231.899E-03     460.023E-03    -228.124E-03     188.225E-03    -238.418E-03     466.095E-03    -227.859E-03     161.765E-03
             340     7.88299E-03     90.6083E-03    -59.5048E+06     4.08232E+06     38.8493E+06     598.802E+03    -231.920E-03     460.003E-03    -228.083E-03     200.545E-03    -239.595E-03     467.369E-03    -227.808E-03     171.794E-03
             341     8.60041E-03     90.8792E-03    -51.5088E+06     28.1969E+06     48.8057E+06     656.269E+03    -231.909E-03     459.941E-03    -228.032E-03     208.972E-03    -240.544E-03     468.352E-03    -227.754E-03     178.409E-03
             342     9.31760E-03     91.1586E-03    -44.0999E+06     35.1444E+06     55.1896E+06     186.804E+03    -231.785E-03     459.787E-03    -228.002E-03     212.359E-03    -241.045E-03     468.855E-03    -227.713E-03     180.605E-03
             343     10.0339E-03     91.4376E-03    -36.0840E+06     49.0369E+06     66.9731E+06    -374.413E+03    -231.200E-03     459.202E-03    -228.002E-03     210.011E-03    -240.683E-03     468.537E-03    -227.686E-03     177.793E-03
             344     10.7516E-03     91.7096E-03    -28.2328E+06     59.8237E+06     79.6170E+06    -597.347E+03    -230.145E-03     458.157E-03    -228.012E-03     202.162E-03    -239.397E-03     467.290E-03    -227.659E-03     170.223E-03
             345     11.4682E-03     91.9651E-03    -21.4146E+06     62.6818E+06     85.6995E+06    -342.225E+03    -229.042E-03     457.037E-03    -227.995E-03     190.285E-03    -237.705E-03     465.598E-03    -227.626E-03     159.145E-03
             346     12.1867E-03     92.1990E-03    -14.7472E+06     69.6453E+06     88.6638E+06    -420.369E+03    -228.271E-03     456.234E-03    -227.963E-03     171.601E-03    -235.815E-03     463.715E-03    -227.599E-03     142.212E-03
             347     12.9009E-03     92.4049E-03    -8.45778E+06     74.4480E+06     90.1435E+06    -436.032E+03    -227.321E-03     455.257E-03    -227.935E-03     155.109E-03    -233.990E-03     461.898E-03    -227.580E-03     126.966E-03
             348     13.6207E-03     92.5902E-03    -3.91432E+06     74.4455E+06     88.9249E+06     258.928E+03    -226.327E-03     454.224E-03    -227.897E-03     110.353E-03    -230.682E-03     458.572E-03    -227.555E-03     88.0387E-03
             349     717.099E-06     90.5183E-03    -138.893E+06    -302.716E+06    -137.443E+06     278.401E+03    -228.675E-03     456.323E-03    -227.647E-03     23.4005E-03    -228.812E-03     455.290E-03    -227.694E-03     20.7445E-03
             350     1.43273E-03     90.5621E-03    -135.514E+06    -288.201E+06    -126.070E+06     90.2105E+03    -228.468E-03     456.607E-03    -228.139E-03     42.4712E-03    -228.794E-03     455.794E-03    -228.155E-03     37.5430E-03
             351     2.14887E-03     90.6336E-03    -130.342E+06    -272.460E+06    -110.640E+06     375.912E+03    -228.664E-03     456.832E-03    -228.168E-03     62.3474E-03    -229.295E-03     456.354E-03    -228.137E-03     54.9747E-03
             352     2.86592E-03     90.7315E-03    -122.919E+06    -247.584E+06    -91.1307E+06     348.914E+03    -229.046E-03     457.219E-03    -228.173E-03     82.2549E-03    -230.116E-03     457.237E-03    -228.091E-03     72.3361E-03
             353     3.58232E-03     90.8563E-03    -114.581E+06    -216.116E+06    -71.6812E+06    -224.709E+03    -229.587E-03     457.757E-03    -228.170E-03     102.000E-03    -231.234E-03     458.438E-03    -228.049E-03     89.4182E-03
             354     4.29910E-03     91.0070E-03    -106.092E+06    -184.770E+06    -51.9548E+06     46.6413E+03    -230.222E-03     458.404E-03    -228.182E-03     121.004E-03    -232.583E-03     459.883E-03    -228.020E-03     105.677E-03
             355     5.01552E-03     91.1821E-03    -97.2122E+06    -158.445E+06    -33.0533E+06     417.621E+03    -230.824E-03     459.028E-03    -228.204E-03     139.357E-03    -234.036E-03     461.428E-03    -227.999E-03     121.193E-03
             356     5.73178E-03     91.3813E-03    -87.7751E+06    -124.912E+06    -14.4179E+06     569.585E+03    -231.185E-03     459.388E-03    -228.203E-03     157.091E-03    -235.392E-03     462.882E-03    -227.967E-03     136.089E-03
             357     6.44915E-03     91.6019E-03    -78.4348E+06    -81.2140E+06     4.02845E+06     435.211E+03    -231.459E-03     459.623E-03    -228.164E-03     173.813E-03    -236.797E-03     464.383E-03    -227.912E-03     150.018E-03
             358     7.16620E-03     91.8438E-03    -69.9274E+06    -38.5673E+06     21.6817E+06     19.9582E+03    -231.674E-03     459.784E-03    -228.110E-03     188.691E-03    -238.202E-03     465.864E-03    -227.845E-03     162.265E-03
             359     7.88351E-03     92.1018E-03    -61.4444E+06     3.36453E+06     37.9639E+06    -236.039E+03    -231.828E-03     459.879E-03    -228.051E-03     200.597E-03    -239.503E-03     467.238E-03    -227.777E-03     171.870E-03
             360     8.60077E-03     92.3742E-03    -51.7596E+06     27.0674E+06     48.4728E+06    -90.6958E+03    -232.017E-03     460.021E-03    -228.005E-03     208.693E-03    -240.640E-03     468.416E-03    -227.726E-03     178.120E-03
             361     9.31737E-03     92.6537E-03    -42.8313E+06     35.6614E+06     55.9104E+06     470.423E+03    -231.882E-03     459.869E-03    -227.987E-03     212.157E-03    -241.130E-03     468.929E-03    -227.697E-03     180.404E-03
             362     10.0347E-03     92.9333E-03    -35.9460E+06     50.8787E+06     67.3317E+06    -7.31797E+03    -231.142E-03     459.130E-03    -227.987E-03     210.317E-03    -240.636E-03     468.481E-03    -227.672E-03     178.113E-03
             363     10.7508E-03     93.2042E-03    -29.3475E+06     59.6245E+06     78.6634E+06    -418.082E+03    -230.081E-03     458.071E-03    -227.990E-03     202.373E-03    -239.341E-03     467.211E-03    -227.641E-03     170.449E-03
             364     11.4694E-03     93.4581E-03    -22.2149E+06     63.3685E+06     85.3933E+06    -988.132E+03    -229.324E-03     457.306E-03    -227.982E-03     190.395E-03    -238.000E-03     465.880E-03    -227.615E-03     159.195E-03
             365     12.1843E-03     93.6968E-03    -15.7873E+06     69.3383E+06     88.0136E+06    -1.31160E+06    -228.248E-03     456.206E-03    -227.958E-03     171.739E-03    -235.804E-03     463.697E-03    -227.596E-03     142.315E-03
             366     12.9042E-03     93.8972E-03    -10.5124E+06     71.4857E+06     87.9944E+06    -28.1005E+03    -227.084E-03     455.005E-03    -227.921E-03     155.284E-03    -233.757E-03     461.640E-03    -227.570E-03     127.177E-03
             367     13.6192E-03     94.0865E-03    -5.18757E+06     74.9546E+06     88.1020E+06     390.815E+03    -226.329E-03     454.206E-03    -227.877E-03     110.384E-03    -230.692E-03     458.561E-03    -227.538E-03     88.0703E-03
             368     715.957E-06     92.0131E-03    -139.652E+06    -302.771E+06    -136.979E+06    -312.424E+03    -228.581E-03     456.439E-03    -227.858E-03     22.7669E-03    -228.720E-03     455.405E-03    -227.901E-03     20.1327E-03
             369     1.43272E-03     92.0576E-03    -135.929E+06    -289.021E+06    -126.538E+06     351.728E+03    -228.400E-03     456.574E-03    -228.173E-03     42.4832E-03    -228.727E-03     455.759E-03    -228.190E-03     37.5528E-03
             370     2.14936E-03     92.1282E-03    -130.311E+06    -272.412E+06    -110.279E+06     73.8660E+03    -228.713E-03     456.896E-03    -228.183E-03     62.6621E-03    -229.348E-03     456.421E-03    -228.151E-03     55.2615E-03
             371     2.86546E-03     92.2263E-03    -122.726E+06    -247.760E+06    -91.4692E+06    -23.8111E+03    -229.161E-03     457.359E-03    -228.198E-03     82.6160E-03    -230.233E-03     457.380E-03    -228.118E-03     72.6680E-03
             372     3.58223E-03     92.3510E-03    -114.617E+06    -215.864E+06    -71.5432E+06     357.495E+03    -229.670E-03     457.879E-03    -228.209E-03     102.162E-03    -231.318E-03     458.562E-03    -228.088E-03     89.5839E-03
             373     4.29869E-03     92.5018E-03    -105.932E+06    -185.048E+06    -51.8319E+06     74.8593E+03    -230.158E-03     458.373E-03    -228.215E-03     121.338E-03    -232.524E-03     459.856E-03    -228.052E-03     106.004E-03
             374     5.01529E-03     92.6775E-03    -96.4462E+06    -158.786E+06    -32.8724E+06     142.293E+03    -230.613E-03     458.821E-03    -228.208E-03     139.848E-03    -233.823E-03     461.220E-03    -228.002E-03     121.709E-03
             375     5.73262E-03     92.8756E-03    -87.1295E+06    -125.437E+06    -14.2854E+06     376.159E+03    -231.041E-03     459.219E-03    -228.178E-03     157.499E-03    -235.250E-03     462.714E-03    -227.941E-03     136.514E-03
             376     6.44933E-03     93.0967E-03    -77.8732E+06    -81.3498E+06     4.50894E+06     873.069E+03    -231.425E-03     459.554E-03    -228.129E-03     173.904E-03    -236.761E-03     464.311E-03    -227.876E-03     150.122E-03
             377     7.16659E-03     93.3377E-03    -68.4875E+06    -37.5566E+06     23.1253E+06     1.29376E+06    -231.745E-03     459.828E-03    -228.083E-03     188.329E-03    -238.259E-03     465.898E-03    -227.814E-03     161.929E-03
             378     7.88368E-03     93.5966E-03    -59.5315E+06     4.69275E+06     39.3892E+06     734.441E+03    -231.996E-03     460.035E-03    -228.039E-03     200.366E-03    -239.663E-03     467.393E-03    -227.762E-03     171.627E-03
             379     8.60025E-03     93.8692E-03    -51.8864E+06     27.2608E+06     48.4866E+06    -384.304E+03    -232.073E-03     460.074E-03    -228.001E-03     208.804E-03    -240.692E-03     468.465E-03    -227.723E-03     178.244E-03
             380     9.31758E-03     94.1484E-03    -44.1047E+06     34.2025E+06     54.7145E+06    -895.058E+03    -231.745E-03     459.722E-03    -227.977E-03     212.263E-03    -240.991E-03     468.774E-03    -227.689E-03     180.530E-03
             381     10.0344E-03     94.4280E-03    -35.5464E+06     50.8447E+06     67.5608E+06     93.4171E+03    -230.978E-03     458.949E-03    -227.971E-03     209.942E-03    -240.456E-03     468.284E-03    -227.655E-03     177.777E-03
             382     10.7529E-03     94.6985E-03    -27.6314E+06     61.1829E+06     80.4039E+06    -64.8805E+03    -230.198E-03     458.176E-03    -227.978E-03     201.993E-03    -239.439E-03     467.303E-03    -227.625E-03     170.076E-03
             383     11.4678E-03     94.9548E-03    -20.6302E+06     64.0733E+06     86.6796E+06    -394.135E+03    -229.241E-03     457.212E-03    -227.971E-03     190.650E-03    -237.916E-03     465.790E-03    -227.601E-03     159.465E-03
             384     12.1868E-03     95.1907E-03    -15.1500E+06     67.6846E+06     88.3049E+06     1.02933E+06    -228.023E-03     455.961E-03    -227.938E-03     171.838E-03    -235.575E-03     463.443E-03    -227.573E-03     142.478E-03
             385     12.9019E-03     95.3912E-03    -10.2183E+06     71.2299E+06     88.3750E+06     980.648E+03    -227.250E-03     455.149E-03    -227.898E-03     155.483E-03    -233.928E-03     461.786E-03    -227.545E-03     127.374E-03
             386     13.6208E-03     95.5821E-03    -4.44295E+06     76.0832E+06     88.2780E+06    -548.527E+03    -226.634E-03     454.497E-03    -227.864E-03     109.948E-03    -231.003E-03     458.865E-03    -227.526E-03     87.5471E-03
             387     716.329E-06     93.5078E-03    -140.143E+06    -302.840E+06    -137.151E+06     173.877E+03    -228.006E-03     456.421E-03    -228.416E-03     23.1844E-03    -228.148E-03     455.390E-03    -228.459E-03     20.5157E-03
             388     1.43282E-03     93.5520E-03    -136.036E+06    -289.262E+06    -126.801E+06    -232.733E+03    -228.320E-03     456.468E-03    -228.148E-03     42.6030E-03    -228.647E-03     455.653E-03    -228.166E-03     37.6557E-03
             389     2.14925E-03     93.6230E-03    -129.799E+06    -272.093E+06    -110.221E+06    -79.3525E+03    -228.681E-03     456.826E-03    -228.145E-03     62.6056E-03    -229.313E-03     456.351E-03    -228.113E-03     55.2096E-03
             390     2.86600E-03     93.7213E-03    -122.967E+06    -248.160E+06    -91.8750E+06    -3.84702E+03    -229.190E-03     457.356E-03    -228.166E-03     82.7929E-03    -230.262E-03     457.376E-03    -228.087E-03     72.8597E-03
             391     3.58214E-03     93.8461E-03    -114.691E+06    -216.234E+06    -72.1337E+06     138.576E+03    -229.665E-03     457.847E-03    -228.182E-03     102.536E-03    -231.317E-03     458.534E-03    -228.063E-03     89.9506E-03
             392     4.29882E-03     93.9967E-03    -105.404E+06    -184.578E+06    -51.4283E+06    -55.7934E+03    -230.044E-03     458.224E-03    -228.181E-03     121.627E-03    -232.408E-03     459.709E-03    -228.017E-03     106.314E-03
             393     5.01608E-03     94.1716E-03    -96.2872E+06    -158.956E+06    -32.6547E+06    -312.244E+03    -230.507E-03     458.669E-03    -228.161E-03     139.857E-03    -233.716E-03     461.066E-03    -227.954E-03     121.726E-03
             394     5.73266E-03     94.3703E-03    -86.8934E+06    -125.729E+06    -14.2022E+06    -38.6810E+03    -231.069E-03     459.202E-03    -228.132E-03     157.262E-03    -235.273E-03     462.691E-03    -227.895E-03     136.270E-03
             395     6.44977E-03     94.5911E-03    -77.2047E+06    -82.3151E+06     4.32071E+06     1.88134E+03    -231.539E-03     459.637E-03    -228.098E-03     173.629E-03    -236.864E-03     464.383E-03    -227.845E-03     149.828E-03
             396     7.16647E-03     94.8324E-03    -67.3100E+06    -39.8463E+06     22.4957E+06     374.123E+03    -231.912E-03     459.982E-03    -228.069E-03     188.366E-03    -238.420E-03     466.044E-03    -227.802E-03     161.926E-03
             397     7.88321E-03     95.0913E-03    -57.6006E+06     4.57931E+06     39.9496E+06     1.43073E+06    -232.072E-03     460.109E-03    -228.037E-03     200.491E-03    -239.734E-03     467.467E-03    -227.761E-03     171.749E-03
             398     8.60089E-03     95.3636E-03    -48.7840E+06     30.1716E+06     50.8979E+06     2.12624E+06    -231.998E-03     460.000E-03    -228.002E-03     208.796E-03    -240.610E-03     468.398E-03    -227.720E-03     178.278E-03
             399     9.31759E-03     95.6436E-03    -41.4693E+06     36.5260E+06     57.5617E+06     878.556E+03    -231.707E-03     459.684E-03    -227.977E-03     212.091E-03    -240.940E-03     468.733E-03    -227.682E-03     180.399E-03
             400     10.0351E-03     95.9221E-03    -35.1996E+06     49.3645E+06     68.1952E+06    -461.179E+03    -231.121E-03     459.095E-03    -227.973E-03     209.848E-03    -240.594E-03     468.420E-03    -227.653E-03     177.658E-03
             401     10.7504E-03     96.1937E-03    -28.2853E+06     62.4258E+06     80.6939E+06    -148.101E+03    -230.035E-03     458.011E-03    -227.977E-03     202.082E-03    -239.285E-03     467.149E-03    -227.623E-03     170.170E-03
             402     11.4698E-03     96.4489E-03    -22.1887E+06     62.9237E+06     86.0181E+06     430.958E+03    -228.926E-03     456.882E-03    -227.956E-03     190.486E-03    -237.598E-03     465.448E-03    -227.585E-03     159.360E-03
             403     12.1857E-03     96.6846E-03    -15.8622E+06     65.2038E+06     87.6844E+06     956.848E+03    -228.193E-03     456.114E-03    -227.921E-03     171.426E-03    -235.736E-03     463.577E-03    -227.554E-03     142.045E-03
             404     12.9046E-03     96.8876E-03    -9.02654E+06     74.8851E+06     90.2608E+06     748.718E+03    -227.463E-03     455.360E-03    -227.897E-03     154.793E-03    -234.136E-03     462.004E-03    -227.541E-03     126.633E-03
             405     13.6198E-03     97.0757E-03    -4.70238E+06     76.6676E+06     89.2812E+06     120.583E+03    -226.748E-03     454.624E-03    -227.876E-03     109.640E-03    -231.114E-03     458.986E-03    -227.534E-03     87.2445E-03
             406     716.648E-06     95.0029E-03    -140.129E+06    -302.426E+06    -137.216E+06    -187.801E+03    -227.968E-03     456.200E-03    -228.233E-03     23.2417E-03    -228.111E-03     455.171E-03    -228.277E-03     20.5721E-03
             407     1.43279E-03     95.0468E-03    -135.978E+06    -288.623E+06    -126.716E+06    -403.376E+03    -228.381E-03     456.454E-03    -228.074E-03     42.4967E-03    -228.708E-03     455.642E-03    -228.091E-03     37.5455E-03
             408     2.14936E-03     95.1176E-03    -130.731E+06    -272.533E+06    -110.716E+06    -275.427E+03    -228.682E-03     456.791E-03    -228.110E-03     62.7466E-03    -229.317E-03     456.316E-03    -228.078E-03     55.3600E-03
             409     2.86574E-03     95.2160E-03    -122.884E+06    -247.638E+06    -91.5960E+06    -365.679E+03    -229.091E-03     457.221E-03    -228.129E-03     82.7519E-03    -230.162E-03     457.242E-03    -228.050E-03     72.8307E-03
             410     3.58271E-03     95.3410E-03    -114.521E+06    -216.406E+06    -72.3677E+06    -679.222E+03    -229.502E-03     457.628E-03    -228.126E-03     102.358E-03    -231.150E-03     458.311E-03    -228.008E-03     89.7778E-03
             411     4.29949E-03     95.4912E-03    -105.954E+06    -184.629E+06    -52.2591E+06    -288.283E+03    -230.030E-03     458.148E-03    -228.119E-03     121.345E-03    -232.391E-03     459.630E-03    -227.959E-03     106.040E-03
             412     5.01583E-03     95.6662E-03    -96.9114E+06    -158.265E+06    -33.0148E+06    -397.024E+03    -230.622E-03     458.741E-03    -228.119E-03     139.694E-03    -233.835E-03     461.144E-03    -227.914E-03     121.549E-03
             413     5.73287E-03     95.8648E-03    -87.7339E+06    -125.767E+06    -14.8188E+06    -927.242E+03    -231.144E-03     459.253E-03    -228.109E-03     157.229E-03    -235.351E-03     462.745E-03    -227.874E-03     136.211E-03
             414     6.44953E-03     96.0858E-03    -78.6471E+06    -82.5905E+06     3.30640E+06    -1.18987E+06    -231.570E-03     459.654E-03    -228.084E-03     173.639E-03    -236.900E-03     464.402E-03    -227.833E-03     149.820E-03
             415     7.16666E-03     96.3270E-03    -69.9164E+06    -41.1480E+06     20.7687E+06    -1.29289E+06    -231.913E-03     459.971E-03    -228.058E-03     188.447E-03    -238.431E-03     466.034E-03    -227.793E-03     161.982E-03
             416     7.88389E-03     96.5863E-03    -61.0332E+06     1.58807E+06     37.1798E+06    -645.841E+03    -232.156E-03     460.185E-03    -228.029E-03     200.542E-03    -239.830E-03     467.540E-03    -227.757E-03     171.757E-03
             417     8.60015E-03     96.8583E-03    -52.0804E+06     27.4605E+06     47.8227E+06     715.146E+03    -232.079E-03     460.080E-03    -228.001E-03     208.510E-03    -240.704E-03     468.479E-03    -227.727E-03     177.927E-03
             418     9.31776E-03     97.1379E-03    -44.3332E+06      39.253E+06     55.4585E+06     1.64456E+06    -231.638E-03     459.617E-03    -227.978E-03     211.813E-03    -240.885E-03     468.685E-03    -227.694E-03     180.112E-03
             419     10.0342E-03     97.4175E-03    -37.6940E+06     51.9857E+06     67.2005E+06     892.811E+03    -230.900E-03     458.871E-03    -227.971E-03     209.907E-03    -240.389E-03     468.215E-03    -227.656E-03     177.752E-03
             420     10.7529E-03     97.6887E-03    -31.1835E+06     60.9119E+06     79.5359E+06     23.6964E+03    -229.909E-03     457.878E-03    -227.970E-03     201.958E-03    -239.175E-03     467.020E-03    -227.615E-03     170.046E-03
             421     11.4686E-03     97.9419E-03    -23.6420E+06     62.8744E+06     85.8561E+06     48.3774E+03    -229.169E-03     457.124E-03    -227.955E-03     190.311E-03    -237.851E-03     465.697E-03    -227.583E-03     159.137E-03
             422     12.1866E-03     98.1813E-03    -16.5908E+06     64.6549E+06     87.4403E+06    -663.493E+03    -228.408E-03     456.343E-03    -227.935E-03     171.339E-03    -235.950E-03     463.802E-03    -227.567E-03     141.917E-03
             423     12.9015E-03     98.3809E-03    -10.7730E+06     74.0185E+06     89.2294E+06    -138.803E+03    -227.339E-03     455.250E-03    -227.911E-03     154.799E-03    -234.020E-03     461.897E-03    -227.557E-03     126.630E-03
             424     13.6198E-03     98.5722E-03    -4.66004E+06     77.3372E+06     90.2285E+06     536.694E+03    -226.493E-03     454.378E-03    -227.885E-03     110.074E-03    -230.861E-03     458.742E-03    -227.539E-03     87.7520E-03
             425     716.273E-06     96.4981E-03    -138.992E+06    -301.788E+06    -137.390E+06    -148.855E+03    -228.145E-03     456.093E-03    -227.948E-03     23.2933E-03    -228.284E-03     455.066E-03    -227.996E-03     20.6125E-03
             426     1.43304E-03     96.5409E-03    -136.757E+06    -288.174E+06    -126.964E+06    -75.7225E+03    -228.291E-03     456.303E-03    -228.012E-03     42.5270E-03    -228.622E-03     455.494E-03    -228.030E-03     37.5988E-03
             427     2.14952E-03     96.6125E-03    -130.659E+06    -271.955E+06    -110.383E+06    -428.445E+03    -228.715E-03     456.772E-03    -228.057E-03     62.8460E-03    -229.352E-03     456.300E-03    -228.025E-03     55.4525E-03
             428     2.86604E-03     96.7107E-03    -123.374E+06    -247.064E+06    -92.2483E+06    -562.874E+03    -229.089E-03     457.181E-03    -228.091E-03     82.7076E-03    -230.163E-03     457.207E-03    -228.016E-03     72.7731E-03
             429     3.58249E-03     96.8351E-03    -115.568E+06    -216.027E+06    -73.0594E+06    -730.830E+03    -229.482E-03     457.579E-03    -228.097E-03     102.162E-03    -231.131E-03     458.262E-03    -227.981E-03     89.5952E-03
             430     4.29920E-03     96.9858E-03    -107.010E+06    -184.891E+06    -53.2371E+06    -604.319E+03    -230.018E-03     458.111E-03    -228.093E-03     121.232E-03    -232.383E-03     459.594E-03    -227.936E-03     105.919E-03
             431     5.01633E-03     97.1608E-03    -98.0870E+06    -157.568E+06    -33.9020E+06    -314.417E+03    -230.630E-03     458.727E-03    -228.097E-03     139.614E-03    -233.845E-03     461.132E-03    -227.895E-03     121.481E-03
             432     5.73282E-03     97.3595E-03    -89.3863E+06    -124.857E+06    -15.4773E+06    -901.946E+03    -231.179E-03     459.273E-03    -228.095E-03     157.199E-03    -235.393E-03     462.772E-03    -227.861E-03     136.183E-03
             433     6.44988E-03     97.5803E-03    -80.8454E+06    -82.3200E+06     2.21768E+06    -1.02734E+06    -231.642E-03     459.719E-03    -228.078E-03     173.566E-03    -236.984E-03     464.475E-03    -227.830E-03     149.731E-03
             434     7.16660E-03     97.8218E-03    -72.2149E+06    -40.6260E+06     19.6106E+06    -913.360E+03    -232.019E-03     460.083E-03    -228.064E-03     188.168E-03    -238.546E-03     466.152E-03    -227.802E-03     161.689E-03
             435     7.88329E-03     98.0807E-03    -64.1039E+06     431.663E+03     35.1862E+06    -853.301E+03    -232.149E-03     460.192E-03    -228.043E-03     200.250E-03    -239.830E-03     467.544E-03    -227.775E-03     171.454E-03
             436     8.60066E-03     98.3542E-03    -56.2428E+06     25.1663E+06     44.7278E+06    -754.587E+03    -231.982E-03     459.992E-03    -228.010E-03     208.452E-03    -240.616E-03     468.386E-03    -227.741E-03     177.863E-03
             437     9.31686E-03     98.6317E-03    -47.5975E+06     37.1282E+06     52.9080E+06    -339.550E+03    -231.534E-03     459.514E-03    -227.980E-03     212.153E-03    -240.805E-03     468.594E-03    -227.700E-03     180.422E-03
             438     10.0349E-03     98.9122E-03    -38.2711E+06     52.7568E+06     65.9622E+06     286.841E+03    -230.763E-03     458.723E-03    -227.960E-03     210.056E-03    -240.260E-03     468.081E-03    -227.651E-03     177.901E-03
             439     10.7511E-03     99.1816E-03    -29.4511E+06     61.4605E+06     78.9759E+06     9.98231E+03    -230.119E-03     458.079E-03    -227.961E-03     201.998E-03    -239.378E-03     467.223E-03    -227.612E-03     170.060E-03
             440     11.4693E-03     99.4388E-03    -22.2822E+06     62.5576E+06     85.6270E+06    -291.859E+03    -229.444E-03     457.409E-03    -227.964E-03     190.376E-03    -238.123E-03     465.982E-03    -227.595E-03     159.152E-03
             441     12.1851E-03     99.6743E-03    -16.1706E+06     66.5142E+06     87.9419E+06    -816.442E+03    -228.100E-03     456.043E-03    -227.943E-03     171.613E-03    -235.637E-03     463.504E-03    -227.577E-03     142.261E-03
             442     12.9040E-03     99.8783E-03    -9.94360E+06     73.0615E+06     89.4598E+06    -845.926E+03    -227.045E-03     454.947E-03    -227.902E-03     155.504E-03    -233.728E-03     461.594E-03    -227.546E-03     127.401E-03
             443     13.6206E-03     100.064E-03    -4.23387E+06     76.2020E+06     88.9287E+06     217.737E+03    -226.701E-03     454.564E-03    -227.863E-03     110.530E-03    -231.074E-03     458.935E-03    -227.523E-03     88.1846E-03
             444     716.607E-06     97.9910E-03    -139.115E+06    -301.470E+06    -137.579E+06    -408.578E+03    -228.179E-03     456.061E-03    -227.882E-03     22.9014E-03    -228.318E-03     455.035E-03    -227.931E-03     20.2355E-03
             445     1.43314E-03     98.0359E-03    -136.273E+06    -288.312E+06    -127.270E+06     95.4514E+03    -228.276E-03     456.272E-03    -227.996E-03     42.4728E-03    -228.604E-03     455.462E-03    -228.016E-03     37.5433E-03
             446     2.14949E-03     98.1069E-03    -130.893E+06    -271.335E+06    -110.715E+06     11.4636E+03    -228.636E-03     456.668E-03    -228.032E-03     62.7196E-03    -229.274E-03     456.199E-03    -228.002E-03     55.3373E-03
             447     2.86608E-03     98.2054E-03    -123.884E+06    -247.017E+06    -92.6241E+06    -20.8361E+03    -229.058E-03     457.118E-03    -228.060E-03     82.6361E-03    -230.134E-03     457.145E-03    -227.985E-03     72.7107E-03
             448     3.58274E-03     98.3298E-03    -116.120E+06    -215.181E+06    -72.9691E+06     162.882E+03    -229.546E-03     457.621E-03    -228.076E-03     102.154E-03    -231.199E-03     458.310E-03    -227.960E-03     89.5978E-03
             449     4.29952E-03     98.4800E-03    -107.899E+06    -184.610E+06    -53.1429E+06    -170.048E+03    -230.072E-03     458.159E-03    -228.087E-03     121.255E-03    -232.442E-03     459.644E-03    -227.929E-03     105.946E-03
             450     5.01594E-03     98.6554E-03    -99.0721E+06    -158.108E+06    -34.6547E+06    -158.726E+03    -230.655E-03     458.751E-03    -228.096E-03     139.544E-03    -233.874E-03     461.158E-03    -227.896E-03     121.396E-03
             451     5.73302E-03     98.8539E-03    -90.2889E+06    -124.101E+06    -16.0078E+06     338.542E+03    -231.235E-03     459.335E-03    -228.100E-03     156.993E-03    -235.450E-03     462.836E-03    -227.869E-03     135.994E-03
             452     6.44952E-03     99.0753E-03    -81.8730E+06    -81.5854E+06     1.93521E+06    -65.8796E+03    -231.734E-03     459.828E-03    -228.094E-03     173.408E-03    -237.080E-03     464.588E-03    -227.848E-03     149.574E-03
             453     7.16631E-03     99.3165E-03    -73.0547E+06    -41.0293E+06     19.0586E+06    -159.838E+03    -232.081E-03     460.169E-03    -228.087E-03     188.229E-03    -238.614E-03     466.241E-03    -227.827E-03     161.748E-03
             454     7.88304E-03     99.5763E-03    -63.3931E+06     1.35894E+06     35.7120E+06    -13.5003E+03    -232.001E-03     460.062E-03    -228.061E-03     200.418E-03    -239.684E-03     467.422E-03    -227.792E-03     171.650E-03
             455     8.59993E-03     99.8472E-03    -53.4496E+06     27.1845E+06     46.8020E+06    -1.10138E+06    -231.772E-03     459.785E-03    -228.012E-03     208.780E-03    -240.407E-03     468.190E-03    -227.740E-03     178.210E-03
             456     9.31816E-03     100.128E-03    -44.0559E+06     35.3318E+06     54.7554E+06    -1.79324E+06    -231.521E-03     459.495E-03    -227.974E-03     212.102E-03    -240.771E-03     468.555E-03    -227.687E-03     180.366E-03
             457     10.0346E-03     100.405E-03    -35.5152E+06     50.7194E+06     66.9369E+06    -1.13266E+06    -231.005E-03     458.964E-03    -227.960E-03     209.884E-03    -240.479E-03     468.299E-03    -227.647E-03     177.699E-03
             458     10.7527E-03     100.678E-03    -28.5610E+06     61.8640E+06     78.5971E+06    -286.345E+03    -230.312E-03     458.278E-03    -227.967E-03     202.206E-03    -239.560E-03     467.417E-03    -227.622E-03     170.267E-03
             459     11.4682E-03     100.933E-03    -21.7710E+06     62.1545E+06     85.1259E+06    -88.4027E+03    -229.162E-03     457.129E-03    -227.966E-03     190.398E-03    -237.830E-03     465.693E-03    -227.599E-03     159.230E-03
             460     12.1863E-03     101.170E-03    -14.9759E+06     69.6663E+06     88.8818E+06    -125.756E+03    -227.877E-03     455.808E-03    -227.931E-03     171.456E-03    -235.414E-03     463.282E-03    -227.566E-03     142.132E-03
             461     12.9032E-03     101.369E-03    -10.1392E+06     72.7594E+06     88.1556E+06    -567.856E+03    -227.226E-03     455.111E-03    -227.886E-03     155.074E-03    -233.894E-03     461.747E-03    -227.536E-03     126.950E-03
             462     13.6202E-03     101.563E-03    -5.56538E+06     73.1242E+06     86.5416E+06    -271.130E+03    -226.788E-03     454.645E-03    -227.857E-03     110.046E-03    -231.150E-03     458.996E-03    -227.522E-03     87.6619E-03
             463     716.415E-06     99.4866E-03    -141.094E+06    -302.540E+06    -137.088E+06     964.423E+03    -228.094E-03     456.202E-03    -228.108E-03     22.7551E-03    -228.242E-03     455.173E-03    -228.150E-03     20.0837E-03
             464     1.43272E-03     99.5297E-03    -136.421E+06    -288.297E+06    -126.365E+06     299.385E+03    -228.305E-03     456.370E-03    -228.065E-03     42.3533E-03    -228.634E-03     455.558E-03    -228.081E-03     37.4410E-03
             465     2.14958E-03     99.6015E-03    -130.595E+06    -271.435E+06    -110.677E+06     298.848E+03    -228.571E-03     456.642E-03    -228.072E-03     62.5389E-03    -229.205E-03     456.170E-03    -228.042E-03     55.1707E-03
             466     2.86612E-03     99.6997E-03    -123.970E+06    -247.380E+06    -92.2840E+06     486.904E+03    -228.986E-03     457.062E-03    -228.076E-03     82.3879E-03    -230.059E-03     457.085E-03    -227.999E-03     72.4825E-03
             467     3.58280E-03     99.8244E-03    -115.791E+06    -215.614E+06    -72.6279E+06     823.945E+03    -229.513E-03     457.592E-03    -228.080E-03     101.953E-03    -231.162E-03     458.276E-03    -227.962E-03     89.4034E-03
             468     4.29923E-03     99.9748E-03    -106.869E+06    -184.037E+06    -52.0893E+06     996.738E+03    -230.121E-03     458.215E-03    -228.094E-03     121.134E-03    -232.486E-03     459.699E-03    -227.933E-03     105.838E-03
             469     5.01623E-03     100.150E-03    -98.2760E+06    -158.268E+06    -33.8066E+06     778.668E+03    -230.769E-03     458.883E-03    -228.114E-03     139.583E-03    -233.988E-03     461.290E-03    -227.911E-03     121.428E-03
             470     5.73250E-03     100.349E-03    -89.3770E+06    -125.066E+06    -15.8678E+06     1.16599E+06    -231.296E-03     459.420E-03    -228.124E-03     157.033E-03    -235.509E-03     462.918E-03    -227.893E-03     136.028E-03
             471     6.44946E-03     100.570E-03    -80.0160E+06    -80.7324E+06     3.27826E+06     1.51969E+06    -231.664E-03     459.779E-03    -228.115E-03     173.655E-03    -237.005E-03     464.540E-03    -227.866E-03     149.862E-03
             472     7.16613E-03     100.812E-03    -70.6398E+06    -39.4099E+06     21.3113E+06     535.860E+03    -231.875E-03     459.966E-03    -228.091E-03     188.621E-03    -238.405E-03     466.043E-03    -227.825E-03     162.183E-03
             473     7.88338E-03     101.070E-03    -60.6489E+06     3.25307E+06     38.1019E+06    -1.26677E+06    -231.913E-03     459.959E-03    -228.046E-03     200.639E-03    -239.592E-03     467.324E-03    -227.773E-03     171.870E-03
             474     8.60104E-03     101.342E-03    -51.1962E+06     28.6226E+06     49.0344E+06    -2.01037E+06    -231.887E-03     459.886E-03    -227.999E-03     208.815E-03    -240.517E-03     468.293E-03    -227.721E-03     178.224E-03
             475     9.31718E-03     101.621E-03    -43.5620E+06     35.4966E+06     55.5850E+06    -1.86750E+06    -231.759E-03     459.732E-03    -227.973E-03     212.025E-03    -241.006E-03     468.789E-03    -227.683E-03     180.258E-03
             476     10.0349E-03     101.901E-03    -37.1161E+06     49.4983E+06     66.1774E+06    -1.69050E+06    -231.290E-03     459.267E-03    -227.977E-03     209.671E-03    -240.771E-03     468.600E-03    -227.664E-03     177.417E-03
             477     10.7507E-03     102.172E-03    -29.4987E+06     60.7664E+06     78.7295E+06    -1.25769E+06    -230.060E-03     458.050E-03    -227.990E-03     201.883E-03    -239.312E-03     467.185E-03    -227.642E-03     169.932E-03
             478     11.4691E-03     102.429E-03    -21.8026E+06     61.9194E+06     84.8136E+06    -767.724E+03    -228.813E-03     456.781E-03    -227.968E-03     190.042E-03    -237.465E-03     465.329E-03    -227.602E-03     158.931E-03
             479     12.1864E-03     102.662E-03    -15.0607E+06     67.6320E+06     87.2614E+06     92.0921E+03    -228.100E-03     456.026E-03    -227.926E-03     171.217E-03    -235.627E-03     463.487E-03    -227.566E-03     141.866E-03
             480     12.9029E-03     102.868E-03    -9.10559E+06     72.9821E+06     88.6054E+06     877.301E+03    -227.440E-03     455.338E-03    -227.898E-03     155.244E-03    -234.108E-03     461.976E-03    -227.548E-03     127.107E-03
             481     13.6200E-03     103.053E-03    -4.63151E+06     74.5123E+06     87.8951E+06     13.0318E+03    -226.780E-03     454.656E-03    -227.876E-03     110.406E-03    -231.147E-03     459.016E-03    -227.538E-03     88.0150E-03
             482     716.328E-06     100.981E-03    -139.960E+06    -303.537E+06    -137.896E+06     97.6874E+03    -228.209E-03     456.276E-03    -228.067E-03     23.2413E-03    -228.350E-03     455.242E-03    -228.113E-03     20.5452E-03
             483     1.43297E-03     101.025E-03    -135.528E+06    -288.471E+06    -126.174E+06     363.777E+03    -228.364E-03     456.466E-03    -228.102E-03     42.4280E-03    -228.689E-03     455.652E-03    -228.118E-03     37.5036E-03
             484     2.14911E-03     101.096E-03    -130.287E+06    -272.426E+06    -110.360E+06     634.274E+03    -228.612E-03     456.726E-03    -228.114E-03     62.6039E-03    -229.243E-03     456.248E-03    -228.082E-03     55.2416E-03
             485     2.86585E-03     101.194E-03    -123.017E+06    -247.648E+06    -91.3459E+06     881.014E+03    -228.992E-03     457.106E-03    -228.114E-03     82.4926E-03    -230.062E-03     457.125E-03    -228.033E-03     72.5919E-03
             486     3.58245E-03     101.319E-03    -114.554E+06    -216.457E+06    -71.7626E+06     802.868E+03    -229.526E-03     457.636E-03    -228.110E-03     102.063E-03    -231.172E-03     458.315E-03    -227.989E-03     89.5020E-03
             487     4.29947E-03     101.469E-03    -105.614E+06    -185.308E+06    -51.8393E+06     1.16195E+06    -230.153E-03     458.273E-03    -228.120E-03     121.131E-03    -232.512E-03     459.749E-03    -227.957E-03     105.828E-03
             488     5.01576E-03     101.645E-03    -96.0590E+06    -158.146E+06    -32.2606E+06     1.44713E+06    -230.727E-03     458.864E-03    -228.138E-03     139.589E-03    -233.932E-03     461.261E-03    -227.930E-03     121.472E-03
             489     5.73270E-03     101.844E-03    -86.1672E+06    -125.220E+06    -13.5237E+06     1.01668E+06    -231.203E-03     459.339E-03    -228.136E-03     157.286E-03    -235.405E-03     462.831E-03    -227.897E-03     136.293E-03
             490     6.44936E-03     102.065E-03    -75.7105E+06    -81.7085E+06     5.40711E+06     1.31116E+06    -231.561E-03     459.671E-03    -228.110E-03     173.844E-03    -236.884E-03     464.420E-03    -227.855E-03     150.062E-03
             491     7.16677E-03     102.306E-03    -65.5713E+06    -36.9700E+06     24.8979E+06     1.33707E+06    -231.765E-03     459.840E-03    -228.075E-03     188.434E-03    -238.268E-03     465.906E-03    -227.801E-03     162.043E-03
             492     7.88387E-03     102.565E-03    -57.3139E+06     6.62337E+06     41.7176E+06     429.987E+03    -231.974E-03     460.006E-03    -228.031E-03     200.406E-03    -239.639E-03     467.369E-03    -227.749E-03     171.666E-03
             493     8.60024E-03     102.837E-03    -50.1109E+06     29.9657E+06     51.1908E+06    -333.898E+03    -232.152E-03     460.151E-03    -228.000E-03     208.526E-03    -240.776E-03     468.556E-03    -227.715E-03     177.924E-03
             494     9.31815E-03     103.116E-03    -42.8991E+06     36.8389E+06     57.5544E+06    -824.455E+03    -231.970E-03     459.964E-03    -227.995E-03     211.863E-03    -241.220E-03     469.026E-03    -227.698E-03     180.070E-03
             495     10.0339E-03     103.397E-03    -35.2310E+06     48.6659E+06     68.3066E+06    -449.709E+03    -231.083E-03     459.083E-03    -228.000E-03     209.952E-03    -240.567E-03     468.417E-03    -227.678E-03     177.732E-03
             496     10.7516E-03     103.667E-03    -28.3468E+06     60.7952E+06     79.7420E+06     46.6669E+03    -229.950E-03     457.943E-03    -227.993E-03     202.229E-03    -239.206E-03     467.083E-03    -227.642E-03     170.322E-03
             497     11.4688E-03     103.920E-03    -22.3109E+06     63.4275E+06     84.8672E+06    -1.05180E+06    -229.187E-03     457.160E-03    -227.973E-03     190.333E-03    -237.862E-03     465.734E-03    -227.608E-03     159.144E-03
             498     12.1852E-03     104.160E-03    -16.0449E+06     64.1453E+06     86.3933E+06    -1.07007E+06    -228.339E-03     456.291E-03    -227.952E-03     171.172E-03    -235.875E-03     463.747E-03    -227.590E-03     141.735E-03
             499     12.9032E-03     104.358E-03    -9.91471E+06     71.7323E+06     88.4629E+06     191.651E+03    -227.232E-03     455.158E-03    -227.926E-03     154.639E-03    -233.889E-03     461.778E-03    -227.573E-03     126.516E-03
             500     13.6199E-03     104.553E-03    -4.31955E+06     76.4283E+06     89.0375E+06     361.550E+03    -226.391E-03     454.280E-03    -227.889E-03     110.513E-03    -230.752E-03     458.639E-03    -227.548E-03     88.2030E-03
             501     716.601E-06     102.476E-03    -138.137E+06    -302.833E+06    -136.247E+06    -586.013E+03    -228.297E-03     456.179E-03    -227.882E-03     23.2414E-03    -228.431E-03     455.143E-03    -227.924E-03     20.5600E-03
             502     1.43269E-03     102.519E-03    -135.152E+06    -289.764E+06    -126.556E+06     11.8141E+03    -228.374E-03     456.433E-03    -228.059E-03     42.4980E-03    -228.695E-03     455.613E-03    -228.076E-03     37.5566E-03
             503     2.14957E-03     102.591E-03    -129.526E+06    -273.087E+06    -109.816E+06     441.300E+03    -228.644E-03     456.738E-03    -228.094E-03     62.7109E-03    -229.272E-03     456.255E-03    -228.059E-03     55.3506E-03
             504     2.86596E-03     102.689E-03    -121.845E+06    -248.187E+06    -90.8656E+06     445.371E+03    -229.070E-03     457.179E-03    -228.109E-03     82.6939E-03    -230.137E-03     457.196E-03    -228.027E-03     72.7729E-03
             505     3.58272E-03     102.813E-03    -113.416E+06    -216.844E+06    -71.0663E+06     574.679E+03    -229.622E-03     457.744E-03    -228.122E-03     102.270E-03    -231.266E-03     458.421E-03    -227.999E-03     89.6939E-03
             506     4.29887E-03     102.964E-03    -104.261E+06    -186.097E+06    -50.8939E+06     305.472E+03    -230.154E-03     458.291E-03    -228.137E-03     121.362E-03    -232.508E-03     459.761E-03    -227.970E-03     106.052E-03
             507     5.01590E-03     103.140E-03    -94.2853E+06    -158.778E+06    -31.3350E+06     217.428E+03    -230.627E-03     458.768E-03    -228.142E-03     139.783E-03    -233.826E-03     461.160E-03    -227.931E-03     121.658E-03
             508     5.73277E-03     103.338E-03    -84.3104E+06    -124.941E+06    -12.1213E+06     113.468E+03    -231.125E-03     459.253E-03    -228.128E-03     157.330E-03    -235.321E-03     462.741E-03    -227.885E-03     136.339E-03
             509     6.44987E-03     103.560E-03    -74.7591E+06    -82.3474E+06     6.47431E+06    -561.893E+03    -231.577E-03     459.678E-03    -228.101E-03     173.627E-03    -236.894E-03     464.418E-03    -227.840E-03     149.810E-03
             510     7.16642E-03     103.800E-03    -65.2546E+06    -38.3135E+06     25.2186E+06     68.9859E+03    -231.891E-03     459.966E-03    -228.075E-03     188.121E-03    -238.389E-03     466.024E-03    -227.799E-03     161.685E-03
             511     7.88345E-03     104.060E-03    -55.6214E+06     6.09593E+06     42.8803E+06     1.90344E+06    -232.135E-03     460.185E-03    -228.049E-03     200.174E-03    -239.793E-03     467.542E-03    -227.763E-03     171.418E-03
             512     8.60105E-03     104.332E-03    -46.8576E+06     31.4664E+06     53.4998E+06     2.94136E+06    -232.184E-03     460.211E-03    -228.027E-03     208.343E-03    -240.793E-03     468.610E-03    -227.737E-03     177.778E-03
             513     9.31638E-03     104.612E-03    -39.6247E+06     39.6079E+06     59.7488E+06     2.16319E+06    -231.660E-03     459.665E-03    -228.006E-03     212.081E-03    -240.898E-03     468.730E-03    -227.707E-03     180.388E-03
             514     10.0345E-03     104.891E-03    -33.3654E+06     47.6891E+06     68.8750E+06     1.51622E+06    -230.867E-03     458.854E-03    -227.987E-03     210.104E-03    -240.333E-03     468.171E-03    -227.663E-03     177.982E-03
             515     10.7524E-03     105.161E-03    -27.0899E+06     62.0976E+06     81.3690E+06     1.41477E+06    -230.183E-03     458.166E-03    -227.983E-03     202.021E-03    -239.430E-03     467.301E-03    -227.627E-03     170.115E-03
             516     11.4684E-03     105.418E-03    -20.4873E+06     66.7124E+06     87.8189E+06     1.05570E+06    -229.462E-03     457.445E-03    -227.982E-03     190.458E-03    -238.152E-03     466.044E-03    -227.610E-03     159.229E-03
             517     12.1860E-03     105.652E-03    -15.2265E+06     63.4855E+06     87.3558E+06     306.499E+03    -228.419E-03     456.387E-03    -227.968E-03     171.674E-03    -235.968E-03     463.854E-03    -227.601E-03     142.242E-03
             518     12.9012E-03     105.858E-03    -9.94870E+06     71.7655E+06     88.8460E+06     83.7320E+03    -227.239E-03     455.178E-03    -227.939E-03     155.204E-03    -233.919E-03     461.820E-03    -227.584E-03     127.057E-03
             519     13.6198E-03     106.041E-03    -4.53272E+06     76.4386E+06     88.7898E+06     232.782E+03    -226.346E-03     454.242E-03    -227.897E-03     110.534E-03    -230.716E-03     458.611E-03    -227.557E-03     88.2138E-03
             520     716.390E-06     103.970E-03    -137.681E+06    -302.786E+06    -135.493E+06     222.055E+03    -228.105E-03     456.065E-03    -227.960E-03     23.2426E-03    -228.238E-03     455.028E-03    -227.999E-03     20.5684E-03
             521     1.43322E-03     104.014E-03    -134.823E+06    -289.766E+06    -125.409E+06     8.16177E+03    -228.320E-03     456.326E-03    -228.006E-03     42.5126E-03    -228.640E-03     455.503E-03    -228.017E-03     37.5905E-03
             522     2.14934E-03     104.085E-03    -128.842E+06    -273.005E+06    -109.078E+06    -195.993E+03    -228.704E-03     456.761E-03    -228.056E-03     62.6156E-03    -229.330E-03     456.276E-03    -228.019E-03     55.2392E-03
             523     2.86610E-03     104.183E-03    -121.624E+06    -248.714E+06    -90.8245E+06    -101.318E+03    -229.127E-03     457.223E-03    -228.096E-03     82.6233E-03    -230.191E-03     457.235E-03    -228.013E-03     72.6940E-03
             524     3.58238E-03     104.308E-03    -113.206E+06    -217.117E+06    -71.0555E+06    -242.753E+03    -229.614E-03     457.730E-03    -228.116E-03     102.343E-03    -231.255E-03     458.405E-03    -227.993E-03     89.7642E-03
             525     4.29947E-03     104.459E-03    -104.028E+06    -185.526E+06    -50.3749E+06    -673.282E+03    -230.098E-03     458.226E-03    -228.128E-03     121.340E-03    -232.451E-03     459.697E-03    -227.960E-03     106.024E-03
             526     5.01608E-03     104.634E-03    -95.0104E+06    -158.887E+06    -31.4112E+06    -912.425E+03    -230.675E-03     458.809E-03    -228.134E-03     139.686E-03    -233.879E-03     461.203E-03    -227.923E-03     121.531E-03
             527     5.73278E-03     104.833E-03    -86.1164E+06    -125.300E+06    -12.8955E+06    -896.851E+03    -231.221E-03     459.352E-03    -228.132E-03     157.121E-03    -235.424E-03     462.842E-03    -227.890E-03     136.092E-03
             528     6.44944E-03     105.054E-03    -77.6109E+06    -81.4766E+06     5.65626E+06    -941.980E+03    -231.588E-03     459.702E-03    -228.114E-03     173.371E-03    -236.917E-03     464.450E-03    -227.855E-03     149.546E-03
             529     7.16658E-03     105.296E-03    -69.2129E+06    -39.6012E+06     23.1013E+06    -1.09341E+06    -232.008E-03     460.103E-03    -228.095E-03     188.126E-03    -238.528E-03     466.170E-03    -227.822E-03     161.637E-03
             530     7.88333E-03     105.554E-03    -60.2917E+06     1.82344E+06     38.8520E+06    -668.398E+03    -232.172E-03     460.243E-03    -228.071E-03     200.343E-03    -239.844E-03     467.595E-03    -227.792E-03     171.541E-03
             531     8.59926E-03     105.828E-03    -51.3395E+06     27.5064E+06     48.9388E+06     1.19380E+06    -231.820E-03     459.848E-03    -228.028E-03     208.777E-03    -240.444E-03     468.245E-03    -227.749E-03     178.241E-03
             532     9.31827E-03     106.106E-03    -43.7585E+06     40.1879E+06     56.1261E+06     3.00119E+06    -231.461E-03     459.440E-03    -227.980E-03     212.081E-03    -240.713E-03     468.517E-03    -227.694E-03     180.424E-03
             533     10.0354E-03     106.385E-03    -36.9591E+06     51.5073E+06     66.9915E+06     1.47352E+06    -231.065E-03     459.033E-03    -227.968E-03     209.785E-03    -240.552E-03     468.377E-03    -227.654E-03     177.603E-03
             534     10.7507E-03     106.657E-03    -29.2982E+06     61.3613E+06     80.5320E+06     98.8048E+03    -230.192E-03     458.177E-03    -227.985E-03     202.095E-03    -239.459E-03     467.324E-03    -227.629E-03     170.132E-03
             535     11.4692E-03     106.911E-03    -22.2466E+06     64.2740E+06     87.1661E+06     1.52291E+06    -229.247E-03     457.227E-03    -227.979E-03     190.856E-03    -237.940E-03     465.816E-03    -227.605E-03     159.691E-03
             536     12.1849E-03     107.151E-03    -15.7743E+06     66.7673E+06     88.7400E+06     1.84115E+06    -228.124E-03     456.072E-03    -227.948E-03     171.850E-03    -235.675E-03     463.547E-03    -227.579E-03     142.509E-03
             537     12.9044E-03     107.348E-03    -9.87588E+06     73.3313E+06     89.7821E+06    -22.9553E+03    -227.427E-03     455.342E-03    -227.915E-03     155.715E-03    -234.133E-03     462.012E-03    -227.558E-03     127.511E-03
             538     13.6196E-03     107.542E-03    -4.85653E+06     75.2243E+06     88.5103E+06    -189.990E+03    -226.802E-03     454.690E-03    -227.888E-03     110.747E-03    -231.196E-03     459.077E-03    -227.547E-03     88.3131E-03
             539     716.565E-06     105.464E-03    -139.316E+06    -303.452E+06    -136.418E+06    -48.2338E+03    -228.207E-03     456.100E-03    -227.893E-03     23.2069E-03    -228.346E-03     455.063E-03    -227.933E-03     20.5319E-03
             540     1.43293E-03     105.508E-03    -134.852E+06    -289.404E+06    -125.187E+06     13.1973E+03    -228.308E-03     456.330E-03    -228.022E-03     42.3890E-03    -228.629E-03     455.508E-03    -228.033E-03     37.4607E-03
             541     2.14968E-03     105.580E-03    -129.545E+06    -272.659E+06    -109.302E+06    -28.7230E+03    -228.670E-03     456.730E-03    -228.060E-03     62.5564E-03    -229.300E-03     456.249E-03    -228.023E-03     55.1821E-03
             542     2.86583E-03     105.678E-03    -122.222E+06    -248.274E+06    -90.6535E+06    -529.490E+03    -229.123E-03     457.218E-03    -228.095E-03     82.6899E-03    -230.191E-03     457.234E-03    -228.012E-03     72.7549E-03
             543     3.58280E-03     105.803E-03    -114.016E+06    -216.921E+06    -71.4470E+06    -853.835E+03    -229.610E-03     457.725E-03    -228.114E-03     102.294E-03    -231.256E-03     458.402E-03    -227.992E-03     89.7043E-03
             544     4.29908E-03     105.953E-03    -105.781E+06    -185.022E+06    -51.3655E+06    -535.966E+03    -230.174E-03     458.306E-03    -228.133E-03     121.111E-03    -232.535E-03     459.784E-03    -227.968E-03     105.779E-03
             545     5.01588E-03     106.129E-03    -97.3758E+06    -158.277E+06    -32.3216E+06    -545.893E+03    -230.729E-03     458.882E-03    -228.153E-03     139.453E-03    -233.945E-03     461.284E-03    -227.944E-03     121.285E-03
             546     5.73253E-03     106.328E-03    -88.5906E+06    -124.951E+06    -13.9647E+06    -726.295E+03    -231.163E-03     459.314E-03    -228.151E-03     157.117E-03    -235.377E-03     462.810E-03    -227.911E-03     136.096E-03
             547     6.44934E-03     106.549E-03    -79.8660E+06    -81.4848E+06     3.79185E+06    -324.665E+03    -231.636E-03     459.762E-03    -228.125E-03     173.619E-03    -236.975E-03     464.517E-03    -227.873E-03     149.804E-03
             548     7.16614E-03     106.790E-03    -71.4702E+06    -39.6221E+06     20.9484E+06     123.710E+03    -232.012E-03     460.115E-03    -228.103E-03     188.513E-03    -238.543E-03     466.191E-03    -227.837E-03     162.053E-03
             549     7.88273E-03     107.050E-03     -63.743E+06     1.42036E+06     36.4436E+06     251.665E+03    -231.921E-03     459.986E-03    -228.065E-03     200.553E-03    -239.608E-03     467.346E-03    -227.792E-03     171.804E-03
             550     8.60138E-03     107.320E-03    -56.5006E+06     24.9884E+06     45.3987E+06    -446.733E+03    -231.820E-03     459.831E-03    -228.011E-03     208.648E-03    -240.461E-03     468.228E-03    -227.738E-03     178.083E-03
             551     9.31735E-03     107.601E-03    -47.5508E+06     37.4726E+06     53.3386E+06    -667.795E+03    -231.667E-03     459.644E-03    -227.977E-03     211.858E-03    -240.930E-03     468.717E-03    -227.696E-03     180.105E-03
             552     10.0334E-03     107.880E-03    -37.8908E+06     53.5766E+06     66.7305E+06     276.799E+03    -230.948E-03     458.920E-03    -227.972E-03     209.916E-03    -240.443E-03     468.277E-03    -227.661E-03     177.736E-03
             553     10.7527E-03     108.151E-03    -30.6568E+06     60.3455E+06     78.7124E+06     772.628E+03    -230.096E-03     458.073E-03    -227.977E-03     202.352E-03    -239.363E-03     467.217E-03    -227.626E-03     170.434E-03
             554     11.4682E-03     108.407E-03    -24.0585E+06     61.4828E+06     84.8458E+06     1.11531E+06    -229.024E-03     456.986E-03    -227.962E-03     190.581E-03    -237.706E-03     465.554E-03    -227.592E-03     159.455E-03
             555     12.1874E-03     108.643E-03    -16.9806E+06     69.1107E+06     88.3577E+06     986.604E+03    -228.093E-03     456.021E-03    -227.927E-03     171.500E-03    -235.647E-03     463.504E-03    -227.561E-03     142.142E-03
             556     12.9022E-03     108.845E-03    -11.4537E+06     74.2260E+06     89.0692E+06    -246.464E+03    -227.424E-03     455.321E-03    -227.897E-03     155.253E-03    -234.117E-03     461.978E-03    -227.543E-03     127.072E-03
             557     13.6202E-03     109.036E-03    -6.02409E+06     74.9665E+06     88.4414E+06    -956.688E+03    -226.608E-03     454.480E-03    -227.872E-03     110.214E-03    -230.985E-03     458.845E-03    -227.530E-03     87.8314E-03
             558     716.401E-06     106.959E-03    -139.485E+06    -303.658E+06    -137.227E+06     99.6758E+03    -228.505E-03     456.221E-03    -227.716E-03     23.2016E-03    -228.643E-03     455.184E-03    -227.760E-03     20.5411E-03
             559     1.43282E-03     107.003E-03    -136.362E+06    -289.504E+06    -126.377E+06        -807.770    -228.310E-03     456.380E-03    -228.069E-03     42.4854E-03    -228.639E-03     455.563E-03    -228.083E-03     37.5492E-03
             560     2.14925E-03     107.074E-03    -129.984E+06    -272.441E+06    -109.802E+06    -159.596E+03    -228.625E-03     456.711E-03    -228.086E-03     62.6180E-03    -229.257E-03     456.233E-03    -228.051E-03     55.2320E-03
             561     2.86624E-03     107.173E-03    -122.855E+06    -247.850E+06    -91.1765E+06    -156.511E+03    -229.122E-03     457.230E-03    -228.108E-03     82.6111E-03    -230.193E-03     457.249E-03    -228.026E-03     72.6794E-03
             562     3.58235E-03     107.297E-03    -115.389E+06    -216.537E+06    -71.9790E+06     -45.952E+03    -229.661E-03     457.793E-03    -228.131E-03     102.176E-03    -231.312E-03     458.473E-03    -228.010E-03     89.5992E-03
             563     4.29923E-03     107.448E-03    -106.853E+06    -184.792E+06    -51.9299E+06     224.954E+03    -230.191E-03     458.344E-03    -228.153E-03     121.262E-03    -232.560E-03     459.828E-03    -227.990E-03     105.935E-03
             564     5.01553E-03     107.624E-03    -97.7298E+06    -157.736E+06    -32.8406E+06     328.032E+03    -230.684E-03     458.848E-03    -228.165E-03     139.679E-03    -233.903E-03     461.256E-03    -227.959E-03     121.526E-03
             565     5.73248E-03     107.822E-03    -89.0302E+06    -124.768E+06    -14.8045E+06     571.695E+03    -231.157E-03     459.311E-03    -228.154E-03     157.239E-03    -235.371E-03     462.809E-03    -227.918E-03     136.247E-03
             566     6.44968E-03     108.043E-03    -80.4335E+06    -82.2772E+06     2.80164E+06     742.937E+03    -231.659E-03     459.787E-03    -228.128E-03     173.727E-03    -236.999E-03     464.541E-03    -227.878E-03     149.925E-03
             567     7.16619E-03     108.286E-03    -71.8038E+06    -40.2844E+06     20.2617E+06     1.30271E+06    -231.808E-03     459.905E-03    -228.097E-03     188.352E-03    -238.332E-03     465.972E-03    -227.833E-03     161.943E-03
             568     7.88400E-03     108.543E-03    -62.5326E+06     2.04744E+06     37.0042E+06     1.54844E+06    -231.888E-03     459.940E-03    -228.052E-03     200.318E-03    -239.566E-03     467.295E-03    -227.779E-03     171.589E-03
             569     8.59980E-03     108.816E-03    -52.1880E+06     28.2425E+06     48.7264E+06     458.858E+03    -232.024E-03     460.037E-03    -228.012E-03     208.677E-03    -240.658E-03     468.444E-03    -227.734E-03     178.091E-03
             570     9.31702E-03     109.096E-03    -43.2932E+06     37.2095E+06     56.9775E+06    -644.205E+03    -231.609E-03     459.597E-03    -227.988E-03     212.264E-03    -240.861E-03     468.663E-03    -227.694E-03     180.543E-03
             571     10.0359E-03     109.374E-03    -36.4398E+06     50.2895E+06     67.8709E+06    -8.13900E+03    -230.978E-03     458.950E-03    -227.973E-03     210.209E-03    -240.459E-03     468.285E-03    -227.654E-03     178.056E-03
             572     10.7508E-03     109.646E-03    -28.8148E+06     59.5137E+06     79.2366E+06     1.57047E+06    -230.116E-03     458.087E-03    -227.970E-03     202.294E-03    -239.367E-03     467.217E-03    -227.619E-03     170.405E-03
             573     11.4695E-03     109.901E-03    -21.1363E+06     62.1206E+06     85.4376E+06     1.69873E+06    -229.258E-03     457.219E-03    -227.961E-03     190.222E-03    -237.925E-03     465.783E-03    -227.593E-03     159.056E-03
             574     12.1851E-03     110.137E-03    -15.2947E+06     68.6877E+06     87.8735E+06     1.22388E+06    -228.309E-03     456.248E-03    -227.939E-03     171.262E-03    -235.851E-03     463.725E-03    -227.577E-03     141.864E-03
             575     12.9035E-03     110.342E-03    -9.23221E+06     77.5367E+06     90.2168E+06     466.154E+03    -226.990E-03     454.895E-03    -227.906E-03     154.780E-03    -233.660E-03     461.547E-03    -227.554E-03     126.689E-03
             576     13.6206E-03     110.527E-03    -3.99862E+06     77.2275E+06     89.2935E+06    -870.355E+03    -226.444E-03     454.308E-03    -227.865E-03     110.412E-03    -230.807E-03     458.673E-03    -227.524E-03     88.0748E-03
             577     716.352E-06     108.454E-03    -138.936E+06    -303.084E+06    -137.045E+06    -6.17791E+03    -228.563E-03     456.147E-03    -227.584E-03     23.2833E-03    -228.700E-03     455.112E-03    -227.628E-03     20.6294E-03
             578     1.43300E-03     108.498E-03    -135.934E+06    -289.343E+06    -127.000E+06    -196.508E+03    -228.370E-03     456.416E-03    -228.045E-03     42.6586E-03    -228.697E-03     455.601E-03    -228.063E-03     37.7079E-03
             579     2.14954E-03     108.569E-03    -130.465E+06    -272.940E+06    -110.562E+06     55.9335E+03    -228.786E-03     456.890E-03    -228.105E-03     62.6669E-03    -229.419E-03     456.413E-03    -228.072E-03     55.2689E-03
             580     2.86561E-03     108.667E-03    -123.355E+06    -248.260E+06    -91.7151E+06     581.795E+03    -229.155E-03     457.305E-03    -228.150E-03     82.5427E-03    -230.226E-03     457.324E-03    -228.070E-03     72.6173E-03
             581     3.58256E-03     108.793E-03    -115.278E+06    -216.283E+06    -71.9004E+06     827.361E+03    -229.538E-03     457.697E-03    -228.159E-03     102.205E-03    -231.189E-03     458.379E-03    -228.037E-03     89.6473E-03
             582     4.29888E-03     108.943E-03    -106.461E+06    -185.185E+06    -52.0384E+06     676.697E+03    -230.057E-03     458.209E-03    -228.152E-03     121.422E-03    -232.423E-03     459.690E-03    -227.989E-03     106.122E-03
             583     5.01610E-03     109.119E-03    -97.5130E+06    -158.708E+06    -33.5044E+06     989.504E+03    -230.692E-03     458.842E-03    -228.150E-03     139.682E-03    -233.904E-03     461.242E-03    -227.946E-03     121.555E-03
             584     5.73275E-03     109.317E-03    -88.6703E+06    -125.398E+06    -15.1273E+06     1.42244E+06    -231.312E-03     459.463E-03    -228.151E-03     157.206E-03    -235.526E-03     462.962E-03    -227.917E-03     136.199E-03
             585     6.44891E-03     109.539E-03    -79.3623E+06    -82.3482E+06     3.52828E+06     1.53816E+06    -231.587E-03     459.721E-03    -228.135E-03     173.682E-03    -236.924E-03     464.475E-03    -227.883E-03     149.891E-03
             586     7.16641E-03     109.779E-03    -69.3409E+06    -40.7027E+06     21.7493E+06     1.57674E+06    -231.752E-03     459.852E-03    -228.100E-03     188.130E-03    -238.261E-03     465.907E-03    -227.832E-03     161.729E-03
             587     7.88297E-03     110.038E-03    -59.2211E+06     2.96559E+06     38.9415E+06     713.579E+03    -231.950E-03     460.004E-03    -228.053E-03     200.465E-03    -239.617E-03     467.358E-03    -227.777E-03     171.722E-03
             588     8.60078E-03     110.312E-03    -50.5188E+06     29.4746E+06     49.8591E+06         184.215    -231.835E-03     459.838E-03    -228.004E-03     208.848E-03    -240.456E-03     468.241E-03    -227.724E-03     178.308E-03
             589     9.31842E-03     110.589E-03    -43.3756E+06     36.7463E+06     56.3642E+06     898.464E+03    -231.640E-03     459.610E-03    -227.970E-03     212.076E-03    -240.887E-03     468.670E-03    -227.678E-03     180.369E-03
             590     10.0337E-03     110.870E-03    -36.5126E+06     50.3029E+06     67.8643E+06     1.22760E+06    -231.126E-03     459.092E-03    -227.966E-03     209.982E-03    -240.615E-03     468.433E-03    -227.647E-03     177.794E-03
             591     10.7527E-03     111.140E-03    -29.5739E+06     58.2687E+06     79.1812E+06     49.3043E+03    -230.244E-03     458.223E-03    -227.979E-03     201.947E-03    -239.493E-03     467.344E-03    -227.625E-03     170.010E-03
             592     11.4686E-03     111.396E-03    -22.4295E+06     60.6965E+06     84.9615E+06     76.9928E+03    -229.365E-03     457.342E-03    -227.977E-03     190.368E-03    -238.041E-03     465.908E-03    -227.608E-03     159.158E-03
             593     12.1857E-03     111.635E-03    -15.0429E+06     69.7323E+06     88.7344E+06     718.675E+03    -228.098E-03     456.050E-03    -227.951E-03     171.537E-03    -235.646E-03     463.534E-03    -227.587E-03     142.168E-03
             594     12.9024E-03     111.832E-03    -8.57433E+06     79.5495E+06     90.7795E+06     133.591E+03    -227.197E-03     455.110E-03    -227.913E-03     154.981E-03    -233.882E-03     461.783E-03    -227.562E-03     126.825E-03
             595     13.6200E-03     112.025E-03    -3.88098E+06     77.4663E+06     89.2564E+06     309.288E+03    -226.666E-03     454.549E-03    -227.883E-03     109.973E-03    -231.034E-03     458.920E-03    -227.544E-03     87.6083E-03
             596     716.717E-06     109.948E-03    -138.761E+06    -302.922E+06    -136.471E+06     100.642E+03    -228.205E-03     456.248E-03    -228.044E-03     22.6596E-03    -228.341E-03     455.213E-03    -228.086E-03     19.9986E-03
             597     1.43298E-03     109.992E-03    -135.616E+06    -289.769E+06    -126.433E+06     315.012E+03    -228.395E-03     456.492E-03    -228.097E-03     42.4145E-03    -228.719E-03     455.672E-03    -228.112E-03     37.4736E-03
             598     2.14919E-03     110.064E-03    -130.216E+06    -273.502E+06    -110.225E+06     480.070E+03    -228.744E-03     456.881E-03    -228.137E-03     62.7218E-03    -229.376E-03     456.400E-03    -228.103E-03     55.3352E-03
             599     2.86576E-03     110.162E-03    -122.982E+06    -248.774E+06    -91.6056E+06     646.877E+03    -229.115E-03     457.276E-03    -228.161E-03     82.7441E-03    -230.187E-03     457.293E-03    -228.080E-03     72.8190E-03
             600     3.58217E-03     110.287E-03    -114.533E+06    -217.166E+06    -72.0582E+06     844.739E+03    -229.531E-03     457.689E-03    -228.158E-03     102.324E-03    -231.177E-03     458.367E-03    -228.037E-03     89.7681E-03
             601     4.29946E-03     110.438E-03    -105.836E+06    -186.211E+06    -52.0400E+06     1.11658E+06    -230.086E-03     458.239E-03    -228.153E-03     121.257E-03    -232.443E-03     459.711E-03    -227.990E-03     105.970E-03
             602     5.01578E-03     110.613E-03    -97.0153E+06    -159.560E+06    -33.1628E+06     1.36881E+06    -230.705E-03     458.862E-03    -228.157E-03     139.562E-03    -233.914E-03     461.256E-03    -227.951E-03     121.438E-03
             603     5.73229E-03     110.812E-03    -87.6610E+06    -125.918E+06    -14.3689E+06     1.60936E+06    -231.194E-03     459.346E-03    -228.152E-03     157.312E-03    -235.404E-03     462.839E-03    -227.914E-03     136.323E-03
             604     6.44967E-03     111.033E-03    -78.3152E+06    -82.2893E+06     4.48733E+06     1.73790E+06    -231.532E-03     459.656E-03    -228.124E-03     173.724E-03    -236.861E-03     464.402E-03    -227.869E-03     149.964E-03
             605     7.16634E-03     111.274E-03     -69.207E+06    -39.9367E+06     22.6153E+06     550.199E+03    -231.859E-03     459.949E-03    -228.090E-03     188.488E-03    -238.381E-03     466.018E-03    -227.819E-03     162.049E-03
             606     7.88356E-03     111.533E-03    -60.3520E+06     3.61408E+06     39.3401E+06    -48.2418E+03    -231.951E-03     459.999E-03    -228.048E-03     200.526E-03    -239.629E-03     467.362E-03    -227.769E-03     171.759E-03
             607     8.60064E-03     111.804E-03    -52.4159E+06     28.9428E+06     49.1903E+06     973.428E+03    -231.907E-03     459.909E-03    -228.003E-03     208.448E-03    -240.529E-03     468.305E-03    -227.723E-03     177.909E-03
             608     9.31705E-03     112.085E-03    -45.1256E+06     35.1660E+06     55.0297E+06     1.41309E+06    -231.753E-03     459.730E-03    -227.977E-03     211.858E-03    -241.004E-03     468.786E-03    -227.687E-03     180.132E-03
             609     10.0355E-03     112.364E-03    -37.3018E+06     51.2514E+06     66.7789E+06     1.12269E+06    -231.196E-03     459.174E-03    -227.979E-03     209.711E-03    -240.685E-03     468.520E-03    -227.665E-03     177.501E-03
             610     10.7508E-03     112.635E-03    -29.6570E+06     60.6708E+06     79.1481E+06     273.843E+03    -230.248E-03     458.246E-03    -227.997E-03     201.873E-03    -239.509E-03     467.387E-03    -227.647E-03     169.900E-03
             611     11.4681E-03     112.892E-03    -23.0699E+06     59.9288E+06     84.6778E+06    -449.167E+03    -228.978E-03     456.965E-03    -227.987E-03     190.425E-03    -237.649E-03     465.521E-03    -227.617E-03     159.282E-03
             612     12.1862E-03     113.126E-03    -16.4408E+06     69.9631E+06     88.1904E+06    -946.500E+03    -227.935E-03     455.877E-03    -227.942E-03     171.544E-03    -235.483E-03     463.360E-03    -227.579E-03     142.191E-03
             613     12.9036E-03     113.331E-03    -10.7490E+06     78.5244E+06     90.0914E+06    -330.164E+03    -227.566E-03     455.477E-03    -227.911E-03     155.628E-03    -234.280E-03     462.170E-03    -227.558E-03     127.411E-03
             614     13.6190E-03     113.518E-03    -5.76626E+06     76.4702E+06     88.5929E+06     473.625E+03    -226.845E-03     454.739E-03    -227.894E-03     110.542E-03    -231.237E-03     459.125E-03    -227.553E-03     88.1344E-03
             615     715.930E-06     111.443E-03    -139.759E+06    -304.207E+06    -136.030E+06     785.932E+03    -227.981E-03     456.356E-03    -228.376E-03     23.3101E-03    -228.122E-03     455.317E-03    -228.412E-03     20.6243E-03
             616     1.43249E-03     111.487E-03    -135.396E+06    -290.475E+06    -125.360E+06     673.149E+03    -228.390E-03     456.529E-03    -228.139E-03     42.8106E-03    -228.715E-03     455.705E-03    -228.148E-03     37.8736E-03
             617     2.14932E-03     111.558E-03    -129.727E+06    -273.947E+06    -109.794E+06     639.964E+03    -228.665E-03     456.812E-03    -228.147E-03     62.8017E-03    -229.294E-03     456.326E-03    -228.111E-03     55.4423E-03
             618     2.86601E-03     111.657E-03    -122.364E+06    -249.754E+06    -91.3358E+06     755.168E+03    -229.092E-03     457.245E-03    -228.153E-03     82.5502E-03    -230.155E-03     457.253E-03    -228.071E-03     72.6434E-03
             619     3.58275E-03     111.781E-03    -114.399E+06    -218.277E+06    -71.8678E+06     1.02937E+06    -229.644E-03     457.806E-03    -228.162E-03     102.087E-03    -231.285E-03     458.475E-03    -228.039E-03     89.5332E-03
             620     4.29869E-03     111.932E-03    -105.611E+06    -186.815E+06    -51.5134E+06     1.18943E+06    -230.131E-03     458.304E-03    -228.173E-03     121.237E-03    -232.488E-03     459.772E-03    -228.006E-03     105.947E-03
             621     5.01567E-03     112.108E-03    -96.3032E+06    -160.121E+06    -32.3998E+06     1.23866E+06    -230.611E-03     458.782E-03    -228.171E-03     139.755E-03    -233.818E-03     461.173E-03    -227.961E-03     121.635E-03
             622     5.73288E-03     112.306E-03    -87.1720E+06    -126.848E+06    -13.8996E+06     1.46040E+06    -231.080E-03     459.230E-03    -228.150E-03     157.217E-03    -235.282E-03     462.712E-03    -227.909E-03     136.247E-03
             623     6.44951E-03     112.527E-03    -78.0913E+06    -82.6316E+06     4.93960E+06     1.78449E+06    -231.464E-03     459.577E-03    -228.113E-03     173.473E-03    -236.789E-03     464.317E-03    -227.855E-03     149.714E-03
             624     7.16660E-03     112.769E-03    -69.5833E+06    -38.1120E+06     23.4338E+06     1.93356E+06    -231.837E-03     459.914E-03    -228.077E-03     188.353E-03    -238.360E-03     465.987E-03    -227.804E-03     161.940E-03
             625     7.88358E-03     113.027E-03    -61.9988E+06     4.20636E+06     39.1050E+06     1.73682E+06    -232.126E-03     460.170E-03    -228.044E-03     200.322E-03    -239.812E-03     467.538E-03    -227.765E-03     171.554E-03
             626     8.60022E-03     113.300E-03    -53.9133E+06     28.1153E+06     48.3425E+06     1.21869E+06    -232.168E-03     460.186E-03    -228.018E-03     208.474E-03    -240.810E-03     468.596E-03    -227.739E-03     177.869E-03
             627     9.31780E-03     113.579E-03    -44.9745E+06     35.5918E+06     55.2007E+06     672.721E+03    -231.855E-03     459.863E-03    -228.008E-03     211.813E-03    -241.110E-03     468.924E-03    -227.718E-03     180.048E-03
             628     10.0334E-03     113.859E-03    -36.6926E+06     51.5788E+06     67.5324E+06     189.233E+03    -231.027E-03     459.034E-03    -228.008E-03     209.799E-03    -240.514E-03     468.379E-03    -227.692E-03     177.596E-03
             629     10.7514E-03     114.131E-03    -28.5860E+06     61.0317E+06     79.7252E+06     648.819E+03    -229.894E-03     457.897E-03    -228.003E-03     202.295E-03    -239.148E-03     467.035E-03    -227.651E-03     170.416E-03
             630     11.4692E-03     114.384E-03    -21.1460E+06     61.5016E+06     85.9684E+06     604.624E+03    -229.027E-03     457.006E-03    -227.980E-03     190.532E-03    -237.692E-03     465.566E-03    -227.608E-03     159.409E-03
             631     12.1856E-03     114.623E-03    -15.4948E+06     71.3883E+06     89.7256E+06    -142.762E+03    -228.263E-03     456.212E-03    -227.949E-03     171.579E-03    -235.820E-03     463.707E-03    -227.581E-03     142.173E-03
             632     12.9024E-03     114.823E-03    -9.82723E+06     76.4330E+06     90.5181E+06    -103.629E+03    -227.287E-03     455.205E-03    -227.918E-03     155.309E-03    -233.963E-03     461.855E-03    -227.562E-03     127.201E-03
             633     13.6208E-03     115.017E-03    -3.95734E+06     75.5203E+06     89.6231E+06     236.032E+03    -226.339E-03     454.219E-03    -227.880E-03     110.141E-03    -230.692E-03     458.566E-03    -227.536E-03     87.8442E-03
             634     716.945E-06     112.938E-03    -138.610E+06    -305.413E+06    -137.322E+06     69.5948E+03    -228.396E-03     456.130E-03    -227.734E-03     23.5997E-03    -228.528E-03     455.084E-03    -227.777E-03     20.9264E-03
             635     1.43326E-03     112.982E-03    -135.494E+06    -291.413E+06    -126.237E+06     417.052E+03    -228.502E-03     456.566E-03    -228.064E-03     42.7810E-03    -228.823E-03     455.738E-03    -228.076E-03     37.8624E-03
             636     2.14930E-03     113.053E-03    -129.885E+06    -275.035E+06    -110.102E+06     853.921E+03    -228.784E-03     456.927E-03    -228.143E-03     62.5858E-03    -229.410E-03     456.435E-03    -228.106E-03     55.2276E-03
             637     2.86563E-03     113.151E-03    -122.845E+06    -250.406E+06    -91.2274E+06     770.595E+03    -229.132E-03     457.308E-03    -228.176E-03     82.5527E-03    -230.197E-03     457.312E-03    -228.090E-03     72.6448E-03
             638     3.58198E-03     113.276E-03    -114.356E+06    -218.862E+06    -71.4387E+06     786.121E+03    -229.590E-03     457.771E-03    -228.180E-03     102.224E-03    -231.234E-03     458.438E-03    -228.054E-03     89.6613E-03
             639     4.29920E-03     113.427E-03    -105.425E+06    -187.109E+06    -51.1938E+06     1.04171E+06    -230.080E-03     458.257E-03    -228.177E-03     121.303E-03    -232.438E-03     459.725E-03    -228.009E-03     106.005E-03
             640     5.01596E-03     113.602E-03    -96.4500E+06    -160.807E+06    -32.2486E+06     1.01742E+06    -230.621E-03     458.793E-03    -228.172E-03     139.673E-03    -233.827E-03     461.180E-03    -227.960E-03     121.549E-03
             641     5.73237E-03     113.801E-03    -87.0485E+06    -127.643E+06    -13.7447E+06     1.16483E+06    -231.087E-03     459.240E-03    -228.153E-03     157.114E-03    -235.288E-03     462.718E-03    -227.910E-03     136.132E-03
             642     6.44945E-03     114.022E-03    -77.3185E+06    -83.9825E+06     4.87964E+06     1.63591E+06    -231.543E-03     459.663E-03    -228.120E-03     173.463E-03    -236.867E-03     464.400E-03    -227.862E-03     149.672E-03
             643     7.16661E-03     114.263E-03    -67.4580E+06    -40.6886E+06     23.1463E+06     3.07972E+06    -231.948E-03     460.041E-03    -228.093E-03     188.067E-03    -238.452E-03     466.094E-03    -227.821E-03     161.655E-03
             644     7.88335E-03     114.523E-03    -57.7837E+06     4.29579E+06     40.6545E+06     4.50562E+06    -232.098E-03     460.164E-03    -228.065E-03     200.132E-03    -239.757E-03     467.515E-03    -227.785E-03     171.423E-03
             645     8.60046E-03     114.795E-03    -49.2240E+06     31.2158E+06     51.6811E+06     3.87077E+06    -232.132E-03     460.168E-03    -228.037E-03     208.584E-03    -240.755E-03     468.577E-03    -227.752E-03     178.039E-03
             646     9.31646E-03     115.075E-03    -41.9710E+06     38.3761E+06     57.8290E+06     1.78363E+06    -231.811E-03     459.827E-03    -228.017E-03     212.371E-03    -241.070E-03     468.907E-03    -227.722E-03     180.631E-03
             647     10.0344E-03     115.354E-03    -35.0047E+06     51.6993E+06     68.8042E+06     864.166E+03    -230.923E-03     458.928E-03    -228.005E-03     210.252E-03    -240.414E-03     468.278E-03    -227.685E-03     178.088E-03
             648     10.7520E-03     115.623E-03    -28.7756E+06     60.9614E+06     80.5740E+06     768.429E+03    -229.937E-03     457.934E-03    -227.998E-03     202.021E-03    -239.187E-03     467.065E-03    -227.642E-03     170.138E-03
             649     11.4684E-03     115.881E-03    -22.3066E+06     62.6071E+06     86.7457E+06     393.102E+03    -229.230E-03     457.214E-03    -227.985E-03     190.329E-03    -237.906E-03     465.782E-03    -227.609E-03     159.147E-03
             650     12.1860E-03     116.116E-03    -15.5703E+06     71.4349E+06     90.4167E+06     344.943E+03    -228.263E-03     456.223E-03    -227.960E-03     171.654E-03    -235.820E-03     463.716E-03    -227.589E-03     142.261E-03
             651     12.9027E-03     116.321E-03    -10.0724E+06       76.55E+06     91.5484E+06     565.641E+03    -226.989E-03     454.912E-03    -227.923E-03     155.391E-03    -233.671E-03     461.564E-03    -227.561E-03     127.318E-03
             652     13.6196E-03     116.506E-03    -5.41936E+06     75.7296E+06     90.4231E+06     255.330E+03    -226.356E-03     454.234E-03    -227.878E-03     110.150E-03    -230.725E-03     458.590E-03    -227.528E-03     87.8483E-03
             653     716.293E-06     114.431E-03    -138.937E+06    -306.139E+06    -138.020E+06    -59.1691E+03    -228.605E-03     456.444E-03    -227.839E-03     22.7908E-03    -228.735E-03     455.394E-03    -227.883E-03     20.1346E-03
             654     1.43262E-03     114.477E-03    -136.099E+06    -292.021E+06    -127.000E+06     316.974E+03    -228.376E-03     456.546E-03    -228.170E-03     42.3313E-03    -228.697E-03     455.716E-03    -228.184E-03     37.4005E-03
             655     2.14918E-03     114.548E-03    -130.238E+06    -275.712E+06    -110.027E+06     51.2549E+03    -228.659E-03     456.832E-03    -228.172E-03     62.5865E-03    -229.288E-03     456.338E-03    -228.134E-03     55.2002E-03
             656     2.86583E-03     114.646E-03    -122.730E+06    -251.023E+06    -91.5631E+06     505.743E+03    -229.101E-03     457.274E-03    -228.172E-03     82.7480E-03    -230.167E-03     457.278E-03    -228.088E-03     72.8301E-03
             657     3.58267E-03     114.771E-03    -114.575E+06    -219.062E+06    -71.7504E+06     678.630E+03    -229.545E-03     457.713E-03    -228.168E-03     102.300E-03    -231.189E-03     458.381E-03    -228.043E-03     89.7350E-03
             658     4.29899E-03     114.921E-03    -105.823E+06    -187.754E+06    -51.6283E+06     639.370E+03    -230.102E-03     458.267E-03    -228.165E-03     121.332E-03    -232.462E-03     459.734E-03    -227.997E-03     106.019E-03
             659     5.01554E-03     115.097E-03    -96.4691E+06    -161.051E+06    -32.4742E+06     936.634E+03    -230.666E-03     458.831E-03    -228.165E-03     139.738E-03    -233.873E-03     461.219E-03    -227.954E-03     121.606E-03
             660     5.73272E-03     115.295E-03    -87.2943E+06    -128.260E+06    -14.1763E+06     926.108E+03    -231.206E-03     459.363E-03    -228.157E-03     157.150E-03    -235.409E-03     462.842E-03    -227.915E-03     136.148E-03
             661     6.44967E-03     115.517E-03    -78.5021E+06    -85.7442E+06     3.47442E+06     954.696E+03    -231.723E-03     459.861E-03    -228.139E-03     173.407E-03    -237.049E-03     464.594E-03    -227.883E-03     149.585E-03
             662     7.16578E-03     115.759E-03    -69.5202E+06    -44.1365E+06     21.0101E+06     1.32776E+06    -231.962E-03     460.083E-03    -228.120E-03     188.129E-03    -238.472E-03     466.128E-03    -227.851E-03     161.686E-03
             663     7.88299E-03     116.017E-03    -59.9160E+06     861.130E+03     38.5121E+06     2.01858E+06    -232.000E-03     460.085E-03    -228.085E-03     200.444E-03    -239.667E-03     467.430E-03    -227.807E-03     171.708E-03
             664     8.60007E-03     116.290E-03    -50.0234E+06     29.7784E+06     50.6190E+06     3.60694E+06    -231.894E-03     459.932E-03    -228.038E-03     208.801E-03    -240.515E-03     468.334E-03    -227.756E-03     178.292E-03
             665     9.31805E-03     116.569E-03    -42.4322E+06     42.5140E+06     58.7537E+06     4.19349E+06    -231.564E-03     459.565E-03    -228.000E-03     212.094E-03    -240.818E-03     468.648E-03    -227.707E-03     180.439E-03
             666     10.0349E-03     116.848E-03    -36.9491E+06     54.6454E+06     69.4991E+06     2.33034E+06    -231.006E-03     458.996E-03    -227.990E-03     209.708E-03    -240.497E-03     468.348E-03    -227.668E-03     177.558E-03
             667     10.7509E-03     117.120E-03    -30.0704E+06     61.0238E+06     81.1872E+06     1.37829E+06    -230.198E-03     458.199E-03    -228.001E-03     202.010E-03    -239.467E-03     467.343E-03    -227.640E-03     170.064E-03
             668     11.4688E-03     117.373E-03    -22.9017E+06     64.8814E+06     88.1671E+06     653.649E+03    -229.238E-03     457.234E-03    -227.996E-03     190.804E-03    -237.938E-03     465.828E-03    -227.617E-03     159.609E-03
             669     12.1851E-03     117.614E-03    -16.4630E+06     70.7305E+06     90.6693E+06    -95.9828E+03    -228.031E-03     455.994E-03    -227.963E-03     171.652E-03    -235.592E-03     463.484E-03    -227.588E-03     142.282E-03
             670     12.9034E-03     117.811E-03    -10.0082E+06     75.4743E+06     91.6295E+06     477.312E+03    -227.019E-03     454.939E-03    -227.920E-03     154.800E-03    -233.705E-03     461.592E-03    -227.557E-03     126.669E-03
             671     13.6211E-03     118.005E-03    -4.24312E+06     76.6615E+06     90.9131E+06      678.84E+03    -226.488E-03     454.368E-03    -227.879E-03     110.459E-03    -230.862E-03     458.735E-03    -227.530E-03     88.1309E-03
             672     715.872E-06     115.928E-03    -140.754E+06    -306.273E+06    -137.211E+06    -27.9779E+03    -228.449E-03     456.718E-03    -228.269E-03     23.4284E-03    -228.592E-03     455.672E-03    -228.307E-03     20.7037E-03
             673     1.43244E-03     115.971E-03    -136.378E+06    -292.444E+06    -127.111E+06    -216.110E+03    -228.298E-03     456.561E-03    -228.263E-03     42.6481E-03    -228.621E-03     455.730E-03    -228.276E-03     37.6954E-03
             674     2.14938E-03     116.043E-03    -130.639E+06    -275.658E+06    -110.554E+06     275.451E+03    -228.580E-03     456.781E-03    -228.200E-03     62.5730E-03    -229.210E-03     456.288E-03    -228.164E-03     55.1989E-03
             675     2.86582E-03     116.141E-03    -123.460E+06    -251.701E+06    -92.1371E+06     224.774E+03    -229.020E-03     457.196E-03    -228.175E-03     82.4984E-03    -230.086E-03     457.197E-03    -228.092E-03     72.5816E-03
             676     3.58224E-03     116.266E-03    -115.196E+06    -219.734E+06    -72.7777E+06     495.761E+03    -229.554E-03     457.717E-03    -228.162E-03     102.123E-03    -231.197E-03     458.382E-03    -228.041E-03     89.5602E-03
             677     4.29919E-03     116.416E-03    -106.526E+06    -188.086E+06    -52.5541E+06     701.836E+03    -230.133E-03     458.298E-03    -228.164E-03     121.203E-03    -232.493E-03     459.764E-03    -228.000E-03     105.892E-03
             678     5.01613E-03     116.591E-03    -97.9485E+06    -161.955E+06    -33.8311E+06     870.981E+03    -230.720E-03     458.893E-03    -228.174E-03     139.394E-03    -233.926E-03     461.275E-03    -227.966E-03     121.259E-03
             679     5.73259E-03     116.790E-03    -89.3716E+06    -129.095E+06    -15.6836E+06     1.03280E+06    -231.293E-03     459.469E-03    -228.176E-03     156.964E-03    -235.498E-03     462.944E-03    -227.937E-03     135.962E-03
             680     6.44865E-03     117.012E-03    -80.9020E+06    -85.7306E+06     2.41156E+06     1.15339E+06    -231.601E-03     459.757E-03    -228.156E-03     173.540E-03    -236.939E-03     464.497E-03    -227.903E-03     149.734E-03
             681     7.16638E-03     117.252E-03    -72.2241E+06    -44.4317E+06     19.8284E+06     1.09006E+06    -231.853E-03     459.977E-03    -228.123E-03     188.458E-03    -238.380E-03     466.032E-03    -227.855E-03     162.016E-03
             682     7.88324E-03     117.512E-03    -63.9404E+06    -760.052E+03     36.1592E+06     826.035E+03    -232.042E-03     460.123E-03    -228.081E-03     200.652E-03    -239.730E-03     467.476E-03    -227.806E-03     171.882E-03
             683     8.60032E-03     117.784E-03    -56.7642E+06     24.8710E+06     45.5858E+06     1.36991E+06    -231.925E-03     459.959E-03    -228.034E-03     208.549E-03    -240.560E-03     468.349E-03    -227.760E-03     178.007E-03
             684     9.31707E-03     118.063E-03    -48.5306E+06     42.6505E+06     54.9226E+06     1.76566E+06    -231.548E-03     459.547E-03    -228.000E-03     211.805E-03    -240.819E-03     468.638E-03    -227.716E-03     180.113E-03
             685     10.0338E-03     118.344E-03    -38.5395E+06     57.3611E+06     68.6954E+06     1.50146E+06    -230.941E-03     458.934E-03    -227.993E-03     209.697E-03    -240.441E-03     468.302E-03    -227.677E-03     177.531E-03
             686     10.7524E-03     118.613E-03    -29.3615E+06     60.2588E+06     81.1047E+06     694.719E+03    -230.192E-03     458.199E-03    -228.007E-03     201.938E-03    -239.445E-03     467.327E-03    -227.647E-03     170.008E-03
             687     11.4682E-03     118.871E-03    -21.3004E+06     66.7053E+06     89.5037E+06     667.854E+03    -229.112E-03     457.113E-03    -228.001E-03     190.334E-03    -237.794E-03     465.697E-03    -227.619E-03     159.170E-03
             688     12.1866E-03     119.105E-03    -14.3541E+06     70.0048E+06     91.6175E+06     908.776E+03    -227.973E-03     455.938E-03    -227.965E-03     171.456E-03    -235.526E-03     463.423E-03    -227.587E-03     142.089E-03
             689     12.9024E-03     119.310E-03    -9.42651E+06     74.3728E+06     91.3855E+06     986.019E+03    -227.158E-03     455.078E-03    -227.920E-03     155.026E-03    -233.840E-03     461.726E-03    -227.558E-03     126.901E-03
             690     13.6188E-03     119.495E-03    -4.57380E+06     78.2847E+06     90.6287E+06     1.05604E+06    -226.425E-03     454.303E-03    -227.878E-03     110.528E-03    -230.793E-03     458.669E-03    -227.532E-03     88.2454E-03
             691     716.638E-06     117.422E-03    -139.875E+06    -306.053E+06    -137.326E+06     52.2530E+03    -228.348E-03     456.341E-03    -227.993E-03     23.2430E-03    -228.486E-03     455.294E-03    -228.033E-03     20.5388E-03
             692     1.43300E-03     117.466E-03    -136.782E+06    -292.865E+06    -127.343E+06     277.275E+03    -228.475E-03     456.622E-03    -228.147E-03     42.6189E-03    -228.799E-03     455.790E-03    -228.161E-03     37.6972E-03
             693     2.14885E-03     117.537E-03    -131.195E+06    -276.514E+06    -111.499E+06     426.858E+03    -228.731E-03     456.913E-03    -228.182E-03     62.6924E-03    -229.362E-03     456.420E-03    -228.148E-03     55.3095E-03
             694     2.86565E-03     117.635E-03    -124.045E+06    -251.566E+06    -92.5362E+06     671.657E+03    -229.091E-03     457.283E-03    -228.192E-03     82.6028E-03    -230.161E-03     457.287E-03    -228.110E-03     72.6836E-03
             695     3.58254E-03     117.760E-03    -116.268E+06    -220.615E+06    -73.4950E+06     503.923E+03    -229.617E-03     457.807E-03    -228.190E-03     102.093E-03    -231.262E-03     458.469E-03    -228.069E-03     89.5289E-03
             696     4.29888E-03     117.911E-03    -107.708E+06    -189.360E+06    -53.6145E+06     1.04383E+06    -230.175E-03     458.372E-03    -228.197E-03     121.025E-03    -232.534E-03     459.831E-03    -228.034E-03     105.723E-03
             697     5.01524E-03     118.086E-03    -98.8413E+06    -162.851E+06    -34.5197E+06     1.39443E+06    -230.734E-03     458.941E-03    -228.207E-03     139.477E-03    -233.945E-03     461.323E-03    -228.000E-03     121.342E-03
             698     5.73188E-03     118.285E-03    -89.8263E+06    -129.651E+06    -16.0483E+06     1.73145E+06    -231.110E-03     459.304E-03    -228.193E-03     157.235E-03    -235.319E-03     462.779E-03    -227.955E-03     136.263E-03
             699     6.44973E-03     118.506E-03    -80.6403E+06    -86.4458E+06     2.18115E+06     2.34666E+06    -231.485E-03     459.637E-03    -228.152E-03     173.694E-03    -236.820E-03     464.372E-03    -227.899E-03     149.926E-03
             700     7.16612E-03     118.747E-03    -71.9270E+06    -44.6691E+06     19.8203E+06     2.45865E+06    -231.962E-03     460.079E-03    -228.118E-03     188.367E-03    -238.486E-03     466.132E-03    -227.849E-03     161.928E-03
             701     7.88314E-03     119.007E-03    -63.2053E+06    -272.774E+03     36.8254E+06     2.78251E+06    -232.104E-03     460.191E-03    -228.087E-03     200.252E-03    -239.780E-03     467.534E-03    -227.811E-03     171.516E-03
             702     8.60010E-03     119.279E-03    -53.6106E+06     26.5844E+06     47.8172E+06     1.86376E+06    -231.985E-03     460.035E-03    -228.050E-03     208.490E-03    -240.611E-03     468.426E-03    -227.771E-03     177.947E-03
             703     9.31698E-03     119.558E-03    -43.5070E+06     42.4166E+06     58.3298E+06     485.875E+03    -231.631E-03     459.654E-03    -228.023E-03     212.050E-03    -240.886E-03     468.736E-03    -227.730E-03     180.343E-03
             704     10.0351E-03     119.837E-03    -34.7737E+06     56.1381E+06     71.0423E+06     343.050E+03    -231.067E-03     459.085E-03    -228.018E-03     209.814E-03    -240.548E-03     468.436E-03    -227.694E-03     177.636E-03
             705     10.7503E-03     120.110E-03    -27.8797E+06     61.0486E+06     81.6897E+06     1.17460E+06    -230.174E-03     458.200E-03    -228.026E-03     201.748E-03    -239.421E-03     467.328E-03    -227.666E-03     169.819E-03
             706     11.4688E-03     120.363E-03    -22.5128E+06     66.1011E+06     87.8870E+06     1.46975E+06    -229.081E-03     457.096E-03    -228.014E-03     189.910E-03    -237.762E-03     465.676E-03    -227.638E-03     158.746E-03
             707     12.1848E-03     120.601E-03    -18.0497E+06     68.9627E+06     88.4455E+06     1.38826E+06    -227.837E-03     455.809E-03    -227.972E-03     170.965E-03    -235.384E-03     463.280E-03    -227.603E-03     141.634E-03
             708     12.9036E-03     120.802E-03    -11.8443E+06     75.5725E+06     89.9505E+06     797.680E+03    -226.937E-03     454.859E-03    -227.922E-03     154.876E-03    -233.626E-03     461.514E-03    -227.565E-03     126.760E-03
             709     13.6217E-03     120.993E-03    -5.30942E+06     80.3422E+06     90.9091E+06     188.355E+03    -226.646E-03     454.531E-03    -227.885E-03     110.342E-03    -231.027E-03     458.914E-03    -227.539E-03     88.0181E-03
             710     716.508E-06     118.917E-03    -141.031E+06    -307.411E+06    -138.023E+06     563.473E+03    -228.107E-03     456.178E-03    -228.071E-03     23.1184E-03    -228.245E-03     455.125E-03    -228.111E-03     20.4856E-03
             711     1.43270E-03     118.961E-03    -136.417E+06    -293.172E+06    -126.862E+06     535.642E+03    -228.474E-03     456.559E-03    -228.086E-03     42.3932E-03    -228.795E-03     455.724E-03    -228.097E-03     37.4721E-03
             712     2.14968E-03     119.032E-03    -131.092E+06    -277.183E+06    -111.520E+06     627.231E+03    -228.790E-03     456.942E-03    -228.152E-03     62.5678E-03    -229.419E-03     456.445E-03    -228.117E-03     55.1833E-03
             713     2.86581E-03     119.130E-03    -124.409E+06    -252.952E+06    -93.1406E+06     1.09075E+06    -229.239E-03     457.433E-03    -228.194E-03     82.5740E-03    -230.308E-03     457.433E-03    -228.112E-03     72.6420E-03
             714     3.58194E-03     119.255E-03    -116.345E+06    -220.587E+06    -72.9203E+06     1.57174E+06    -229.640E-03     457.854E-03    -228.213E-03     102.197E-03    -231.289E-03     458.518E-03    -228.089E-03     89.6399E-03
             715     4.29871E-03     119.406E-03    -107.842E+06    -190.372E+06    -53.2185E+06     1.22977E+06    -230.119E-03     458.331E-03    -228.212E-03     121.445E-03    -232.483E-03     459.790E-03    -228.046E-03     106.144E-03
             716     5.01568E-03     119.581E-03    -98.6523E+06    -164.033E+06    -34.7811E+06     1.63281E+06    -230.639E-03     458.840E-03    -228.201E-03     139.886E-03    -233.851E-03     461.221E-03    -227.994E-03     121.763E-03
             717     5.73279E-03     119.780E-03    -89.3520E+06    -130.672E+06    -16.0491E+06     2.24834E+06    -231.125E-03     459.306E-03    -228.181E-03     157.185E-03    -235.330E-03     462.777E-03    -227.942E-03     136.215E-03
             718     6.44906E-03     120.000E-03    -79.8232E+06    -88.1576E+06     2.31798E+06     1.97720E+06    -231.677E-03     459.831E-03    -228.154E-03     173.565E-03    -237.005E-03     464.555E-03    -227.899E-03     149.767E-03
             719     7.16622E-03     120.243E-03    -69.8759E+06    -46.3709E+06     20.3729E+06     2.83146E+06    -232.081E-03     460.218E-03    -228.136E-03     188.192E-03    -238.586E-03     466.250E-03    -227.866E-03     161.768E-03
             720     7.88288E-03     120.501E-03    -59.7745E+06     328.509E+03     38.8042E+06     2.95502E+06    -232.108E-03     460.220E-03    -228.112E-03     200.141E-03    -239.767E-03     467.555E-03    -227.832E-03     171.412E-03
             721     8.59989E-03     120.774E-03    -50.2997E+06     30.1630E+06     50.9977E+06     1.06689E+06    -231.989E-03     460.064E-03    -228.076E-03     208.294E-03    -240.605E-03     468.462E-03    -227.792E-03     177.728E-03
             722     9.31760E-03     121.052E-03    -42.7070E+06     43.4001E+06     59.0231E+06    -73.4710E+03    -231.748E-03     459.799E-03    -228.052E-03     211.482E-03    -240.998E-03     468.881E-03    -227.757E-03     179.716E-03
             723     10.0331E-03     121.333E-03    -36.2996E+06     53.9686E+06     70.0993E+06     881.946E+03    -230.985E-03     459.036E-03    -228.051E-03     209.422E-03    -240.467E-03     468.377E-03    -227.726E-03     177.241E-03
             724     10.7519E-03     121.603E-03    -30.3191E+06     58.7226E+06     80.7049E+06     2.54553E+06    -229.966E-03     458.016E-03    -228.050E-03     201.812E-03    -239.218E-03     467.135E-03    -227.688E-03     169.941E-03
             725     11.4676E-03     121.859E-03    -24.1992E+06     66.2831E+06     87.5583E+06     3.56570E+06    -229.019E-03     457.045E-03    -228.026E-03     190.298E-03    -237.718E-03     465.639E-03    -227.649E-03     159.168E-03
             726     12.1857E-03     122.095E-03    -16.9025E+06     73.8175E+06     90.6304E+06     2.25903E+06    -228.160E-03     456.150E-03    -227.990E-03     171.154E-03    -235.723E-03     463.652E-03    -227.619E-03     141.787E-03
             727     12.9021E-03     122.295E-03    -10.0139E+06     77.9317E+06     90.9918E+06    -410.858E+03    -227.357E-03     455.315E-03    -227.958E-03     154.387E-03    -234.041E-03     461.977E-03    -227.602E-03     126.186E-03
             728     13.6182E-03     122.487E-03    -4.43638E+06     78.3287E+06     90.1440E+06    -414.399E+03    -226.240E-03     454.162E-03    -227.922E-03     109.528E-03    -230.602E-03     458.525E-03    -227.578E-03     87.1992E-03
             729     716.433E-06     120.412E-03    -140.319E+06    -308.445E+06    -137.859E+06     152.445E+03    -228.104E-03     456.399E-03    -228.296E-03     23.2423E-03    -228.237E-03     455.340E-03    -228.334E-03     20.6095E-03
             730     1.43299E-03     120.456E-03    -137.000E+06    -294.773E+06    -127.331E+06     816.254E+03    -228.340E-03     456.486E-03    -228.146E-03     42.2796E-03    -228.661E-03     455.643E-03    -228.157E-03     37.3710E-03
             731     2.14896E-03     120.527E-03    -131.622E+06    -278.437E+06    -111.432E+06     1.08899E+06    -228.752E-03     456.911E-03    -228.159E-03     62.5743E-03    -229.381E-03     456.407E-03    -228.121E-03     55.2116E-03
             732     2.86556E-03     120.626E-03    -124.121E+06    -253.987E+06    -92.6656E+06     1.03659E+06    -229.180E-03     457.367E-03    -228.187E-03     82.7213E-03    -230.247E-03     457.361E-03    -228.102E-03     72.8025E-03
             733     3.58240E-03     120.750E-03    -115.496E+06    -222.053E+06    -72.9914E+06     1.65046E+06    -229.629E-03     457.825E-03    -228.195E-03     102.314E-03    -231.273E-03     458.482E-03    -228.071E-03     89.7521E-03
             734     4.29916E-03     120.900E-03    -106.780E+06    -190.695E+06    -52.5968E+06     2.18549E+06    -230.103E-03     458.299E-03    -228.196E-03     121.290E-03    -232.460E-03     459.753E-03    -228.028E-03     106.002E-03
             735     5.01576E-03     121.076E-03    -98.1954E+06    -164.692E+06    -33.9842E+06     2.05261E+06    -230.666E-03     458.859E-03    -228.193E-03     139.489E-03    -233.869E-03     461.227E-03    -227.982E-03     121.380E-03
             736     5.73225E-03     121.274E-03    -88.7668E+06    -131.400E+06    -15.6141E+06     1.73340E+06    -231.328E-03     459.518E-03    -228.190E-03     156.962E-03    -235.530E-03     462.983E-03    -227.948E-03     135.954E-03
             737     6.44929E-03     121.496E-03    -79.4464E+06    -88.4587E+06     3.02630E+06     1.90012E+06    -231.861E-03     460.047E-03    -228.186E-03     173.438E-03    -237.186E-03     464.767E-03    -227.928E-03     149.619E-03
             738     7.16570E-03     121.737E-03    -70.6510E+06    -47.1889E+06     20.6046E+06     1.28190E+06    -232.052E-03     460.228E-03    -228.177E-03     188.003E-03    -238.556E-03     466.255E-03    -227.903E-03     161.557E-03
             739     7.88277E-03     121.997E-03    -61.5154E+06     -741.28E+03     38.3578E+06     805.220E+03    -232.095E-03     460.244E-03    -228.149E-03     199.904E-03    -239.762E-03     467.578E-03    -227.867E-03     171.120E-03
             740     8.59994E-03     122.268E-03    -53.3210E+06     31.6618E+06     50.2631E+06     1.59958E+06    -232.105E-03     460.220E-03    -228.115E-03     208.139E-03    -240.746E-03     468.638E-03    -227.832E-03     177.530E-03
             741     9.31557E-03     122.548E-03    -47.0399E+06     44.9139E+06     57.8417E+06     1.62715E+06    -231.662E-03     459.752E-03    -228.090E-03     211.702E-03    -240.949E-03     468.864E-03    -227.798E-03     179.941E-03
             742     10.0341E-03     122.827E-03    -40.7800E+06     51.1102E+06     67.3048E+06     1.81874E+06    -230.854E-03     458.931E-03    -228.077E-03     209.648E-03    -240.357E-03     468.276E-03    -227.756E-03     177.488E-03
             743     10.7501E-03     123.098E-03    -33.0793E+06     57.0990E+06     78.8530E+06     1.92373E+06    -229.839E-03     457.905E-03    -228.067E-03     201.778E-03    -239.100E-03     467.023E-03    -227.707E-03     169.905E-03
             744     11.4688E-03     123.354E-03    -23.8076E+06     66.2064E+06     87.5905E+06     914.754E+03    -228.950E-03     456.988E-03    -228.038E-03     189.992E-03    -237.631E-03     465.566E-03    -227.662E-03     158.855E-03
             745     12.1855E-03     123.589E-03    -14.9327E+06     75.9028E+06     92.0147E+06     584.192E+03    -228.270E-03     456.275E-03    -228.005E-03     171.299E-03    -235.830E-03     463.784E-03    -227.633E-03     141.900E-03
             746     12.9015E-03     123.794E-03    -9.25203E+06     80.1275E+06     92.7120E+06     690.889E+03    -227.387E-03     455.363E-03    -227.977E-03     155.420E-03    -234.091E-03     462.051E-03    -227.616E-03     127.253E-03
             747     13.6194E-03     123.979E-03    -5.47117E+06     77.8801E+06     90.2948E+06     116.925E+03    -226.096E-03     454.027E-03    -227.931E-03     110.562E-03    -230.489E-03     458.415E-03    -227.584E-03     88.1958E-03
             748     715.879E-06     121.906E-03    -139.716E+06    -309.904E+06    -137.466E+06     578.656E+03    -228.428E-03     456.443E-03    -228.015E-03     23.0845E-03    -228.558E-03     455.376E-03    -228.050E-03     20.4455E-03
             749     1.43262E-03     121.950E-03    -136.974E+06    -296.422E+06    -127.489E+06     955.167E+03    -228.303E-03     456.456E-03    -228.152E-03     42.6673E-03    -228.624E-03     455.607E-03    -228.161E-03     37.7407E-03
             750     2.14948E-03     122.022E-03    -130.826E+06    -279.121E+06    -110.620E+06     940.856E+03    -228.713E-03     456.861E-03    -228.148E-03     62.7928E-03    -229.338E-03     456.352E-03    -228.107E-03     55.4246E-03
             751     2.86603E-03     122.120E-03    -123.303E+06    -254.922E+06    -92.1051E+06     1.17690E+06    -229.149E-03     457.317E-03    -228.168E-03     82.6284E-03    -230.210E-03     457.302E-03    -228.080E-03     72.7278E-03
             752     3.58242E-03     122.245E-03    -115.553E+06    -224.562E+06    -73.3257E+06     1.49046E+06    -229.687E-03     457.870E-03    -228.182E-03     102.118E-03    -231.326E-03     458.513E-03    -228.056E-03     89.5522E-03
             753     4.29870E-03     122.395E-03    -106.573E+06    -192.428E+06    -52.7223E+06     2.32570E+06    -230.239E-03     458.441E-03    -228.203E-03     121.038E-03    -232.589E-03     459.883E-03    -228.033E-03     105.747E-03
             754     5.01554E-03     122.570E-03    -96.8929E+06    -164.669E+06    -32.6519E+06     2.39149E+06    -230.826E-03     459.050E-03    -228.225E-03     139.441E-03    -234.027E-03     461.418E-03    -228.009E-03     121.313E-03
             755     5.73237E-03     122.769E-03    -88.3091E+06    -131.909E+06    -14.7122E+06     2.33337E+06    -231.481E-03     459.718E-03    -228.238E-03     156.981E-03    -235.683E-03     463.182E-03    -227.992E-03     135.955E-03
             756     6.44859E-03     122.991E-03    -80.1838E+06    -88.8233E+06     3.29582E+06     2.68022E+06    -231.881E-03     460.121E-03    -228.240E-03     173.219E-03    -237.208E-03     464.839E-03    -227.978E-03     149.399E-03
             757     7.16547E-03     123.233E-03    -71.9126E+06    -45.3257E+06     21.5192E+06     2.29348E+06    -232.048E-03     460.277E-03    -228.230E-03     187.788E-03    -238.564E-03     466.316E-03    -227.952E-03     161.331E-03
             758     7.88233E-03     123.491E-03    -64.2259E+06    -484.194E+03     37.8554E+06     1.81588E+06    -232.140E-03     460.339E-03    -228.199E-03     199.936E-03    -239.824E-03     467.683E-03    -227.916E-03     171.148E-03
             759     8.59865E-03     123.764E-03    -56.0607E+06     29.9799E+06     48.8349E+06     1.87141E+06    -231.946E-03     460.100E-03    -228.154E-03     208.294E-03    -240.594E-03     468.514E-03    -227.872E-03     177.717E-03
             760     9.31716E-03     124.043E-03    -46.9419E+06     43.4376E+06     57.5270E+06     3.27473E+06    -231.532E-03     459.648E-03    -228.116E-03     211.600E-03    -240.803E-03     468.740E-03    -227.823E-03     179.908E-03
             761     10.0332E-03     124.322E-03    -38.1727E+06     53.2470E+06     68.6147E+06     3.00038E+06    -230.866E-03     458.962E-03    -228.097E-03     209.348E-03    -240.354E-03     468.305E-03    -227.775E-03     177.203E-03
             762     10.7512E-03     124.593E-03    -29.6165E+06     59.2587E+06     79.3873E+06     697.207E+03    -229.971E-03     458.057E-03    -228.086E-03     201.553E-03    -239.215E-03     467.176E-03    -227.732E-03     169.644E-03
             763     11.4674E-03     124.847E-03    -22.1030E+06     66.8287E+06     87.3480E+06    -645.198E+03    -229.003E-03     457.066E-03    -228.063E-03     190.128E-03    -237.675E-03     465.643E-03    -227.691E-03     158.976E-03
             764     12.1842E-03     125.086E-03    -16.6835E+06     74.4896E+06     90.4260E+06    -428.290E+03    -227.746E-03     455.759E-03    -228.013E-03     171.660E-03    -235.308E-03     463.265E-03    -227.645E-03     142.329E-03
             765     12.9033E-03     125.285E-03    -10.6944E+06     78.0219E+06     91.1680E+06     1.13937E+06    -226.717E-03     454.667E-03    -227.950E-03     155.261E-03    -233.400E-03     461.325E-03    -227.592E-03     127.223E-03
             766     13.6200E-03     125.478E-03    -4.05050E+06     80.0696E+06     91.6924E+06     726.998E+03    -225.901E-03     453.788E-03    -227.887E-03     109.865E-03    -230.266E-03     458.157E-03    -227.539E-03     87.5722E-03
             767     716.920E-06     123.401E-03    -139.728E+06    -311.796E+06    -137.880E+06     231.122E+03    -228.481E-03     456.250E-03    -227.770E-03     22.7872E-03    -228.607E-03     455.174E-03    -227.804E-03     20.1051E-03
             768     1.43306E-03     123.445E-03    -135.737E+06    -297.308E+06    -127.001E+06     421.583E+03    -228.443E-03     456.549E-03    -228.105E-03     42.5033E-03    -228.757E-03     455.693E-03    -228.112E-03     37.5666E-03
             769     2.14930E-03     123.516E-03    -129.959E+06    -280.488E+06    -110.327E+06     1.14056E+06    -228.745E-03     456.899E-03    -228.154E-03     62.5869E-03    -229.364E-03     456.381E-03    -228.110E-03     55.2169E-03
             770     2.86561E-03     123.615E-03    -123.477E+06    -256.556E+06    -91.9570E+06     1.54870E+06    -229.208E-03     457.394E-03    -228.186E-03     82.4538E-03    -230.266E-03     457.370E-03    -228.095E-03     72.5512E-03
             771     3.58225E-03     123.740E-03    -115.077E+06    -225.249E+06    -72.1997E+06     1.45545E+06    -229.719E-03     457.930E-03    -228.210E-03     102.099E-03    -231.354E-03     458.565E-03    -228.078E-03     89.5426E-03
             772     4.29906E-03     123.890E-03    -105.812E+06    -194.207E+06    -52.3110E+06     1.41743E+06    -230.362E-03     458.599E-03    -228.237E-03     121.043E-03    -232.710E-03     460.034E-03    -228.063E-03     105.711E-03
             773     5.01537E-03     124.065E-03    -96.9744E+06    -167.239E+06    -33.3131E+06     2.61712E+06    -231.042E-03     459.318E-03    -228.276E-03     139.332E-03    -234.240E-03     461.675E-03    -228.059E-03     121.172E-03
             774     5.73163E-03     124.265E-03    -88.1852E+06    -133.367E+06    -14.2682E+06     3.61730E+06    -231.520E-03     459.823E-03    -228.303E-03     156.917E-03    -235.718E-03     463.276E-03    -228.054E-03     135.916E-03
             775     6.44836E-03     124.486E-03    -78.9676E+06    -89.3526E+06     4.46208E+06     3.78927E+06    -231.834E-03     460.133E-03    -228.299E-03     173.213E-03    -237.158E-03     464.846E-03    -228.032E-03     149.401E-03
             776     7.16513E-03     124.727E-03     -69.416E+06    -45.8805E+06     22.7352E+06     4.60826E+06    -232.100E-03     460.381E-03    -228.281E-03     187.838E-03    -238.607E-03     466.413E-03    -228.000E-03     161.404E-03
             777     7.88170E-03     124.987E-03     -59.935E+06     1.74966E+06     40.6949E+06     4.76868E+06    -232.099E-03     460.344E-03    -228.246E-03     199.953E-03    -239.766E-03     467.687E-03    -227.958E-03     171.217E-03
             778     8.59952E-03     125.258E-03    -51.2432E+06     30.8788E+06     52.1271E+06     3.88465E+06    -231.897E-03     460.093E-03    -228.196E-03     208.020E-03    -240.515E-03     468.488E-03    -227.906E-03     177.493E-03
             779     9.31541E-03     125.537E-03    -42.7465E+06     41.1233E+06     59.4350E+06     2.83550E+06    -231.549E-03     459.701E-03    -228.153E-03     211.413E-03    -240.787E-03     468.762E-03    -227.853E-03     179.732E-03
             780     10.0331E-03     125.817E-03    -33.9521E+06     55.0758E+06     70.8284E+06     2.49950E+06    -230.917E-03     459.045E-03    -228.128E-03     209.254E-03    -240.382E-03     468.379E-03    -227.805E-03     177.117E-03
             781     10.7500E-03     126.086E-03    -26.5298E+06     63.4969E+06     82.4781E+06     1.68672E+06    -229.960E-03     458.078E-03    -228.119E-03     201.490E-03    -239.194E-03     467.204E-03    -227.760E-03     169.605E-03
             782     11.4673E-03     126.344E-03    -20.2206E+06     67.4159E+06     89.2752E+06     1.46194E+06    -228.733E-03     456.818E-03    -228.086E-03     190.158E-03    -237.394E-03     465.389E-03    -227.708E-03     159.079E-03
             783     12.1860E-03     126.577E-03    -14.1261E+06     72.8041E+06     91.8735E+06     2.08871E+06    -227.477E-03     455.495E-03    -228.018E-03     171.438E-03    -235.008E-03     462.968E-03    -227.644E-03     142.219E-03
             784     12.9019E-03     126.783E-03    -9.19309E+06     79.8148E+06     92.5360E+06     2.19908E+06    -226.251E-03     454.182E-03    -227.931E-03     155.066E-03    -232.913E-03     460.826E-03    -227.570E-03     127.148E-03
             785     13.6204E-03     126.967E-03    -4.65058E+06     81.6300E+06     91.0413E+06     721.995E+03    -225.817E-03     453.664E-03    -227.847E-03     109.900E-03    -230.179E-03     458.035E-03    -227.503E-03     87.6701E-03
             786     716.174E-06     124.896E-03    -139.111E+06    -311.579E+06    -137.570E+06    -498.242E+03    -228.412E-03     456.336E-03    -227.924E-03     22.9485E-03    -228.537E-03     455.260E-03    -227.958E-03     20.2477E-03
             787     1.43259E-03     124.940E-03    -135.966E+06    -298.493E+06    -127.428E+06    -24.2329E+03    -228.545E-03     456.704E-03    -228.159E-03     42.3187E-03    -228.855E-03     455.842E-03    -228.167E-03     37.3807E-03
             788     2.14914E-03     125.011E-03    -130.249E+06    -282.894E+06    -110.692E+06     502.484E+03    -228.818E-03     457.041E-03    -228.223E-03     62.5094E-03    -229.434E-03     456.511E-03    -228.178E-03     55.1318E-03
             789     2.86582E-03     125.110E-03    -122.226E+06    -257.641E+06    -91.3308E+06     1.14946E+06    -229.230E-03     457.483E-03    -228.252E-03     82.3858E-03    -230.281E-03     457.450E-03    -228.158E-03     72.4717E-03
             790     3.58217E-03     125.235E-03    -113.996E+06    -226.101E+06    -71.8451E+06     1.43321E+06    -229.813E-03     458.087E-03    -228.273E-03     101.909E-03    -231.441E-03     458.716E-03    -228.140E-03     89.3383E-03
             791     4.29849E-03     125.385E-03    -106.130E+06    -195.770E+06    -52.1162E+06     2.02585E+06    -230.464E-03     458.774E-03    -228.310E-03     120.885E-03    -232.810E-03     460.199E-03    -228.133E-03     105.557E-03
             792     5.01483E-03     125.561E-03    -97.3332E+06    -169.489E+06    -33.2295E+06     2.52118E+06    -231.063E-03     459.413E-03    -228.350E-03     139.318E-03    -234.260E-03     461.759E-03    -228.129E-03     121.156E-03
             793     5.73137E-03     125.760E-03    -87.2984E+06    -135.392E+06    -14.3672E+06     2.77769E+06    -231.496E-03     459.861E-03    -228.365E-03     156.950E-03    -235.687E-03     463.303E-03    -228.114E-03     135.932E-03
             794     6.44820E-03     125.982E-03    -77.1865E+06    -91.7061E+06     4.34001E+06     3.42538E+06    -231.818E-03     460.167E-03    -228.349E-03     173.172E-03    -237.125E-03     464.862E-03    -228.082E-03     149.369E-03
             795     7.16471E-03     126.223E-03    -67.4078E+06    -48.3432E+06     22.8074E+06     4.25137E+06    -232.036E-03     460.357E-03    -228.322E-03     187.817E-03    -238.528E-03     466.372E-03    -228.040E-03     161.389E-03
             796     7.88191E-03     126.481E-03    -57.8145E+06     880.069E+03     41.5646E+06     4.73908E+06    -232.059E-03     460.337E-03    -228.279E-03     199.911E-03    -239.712E-03     467.668E-03    -227.988E-03     171.180E-03
             797     8.59812E-03     126.753E-03    -48.8883E+06     31.2872E+06     53.2623E+06     5.13322E+06    -231.972E-03     460.198E-03    -228.226E-03     208.162E-03    -240.586E-03     468.595E-03    -227.934E-03     177.634E-03
             798     9.31608E-03     127.033E-03    -41.8391E+06     43.9019E+06     61.2321E+06     4.65142E+06    -231.639E-03     459.826E-03    -228.187E-03     211.431E-03    -240.879E-03     468.896E-03    -227.884E-03     179.766E-03
             799     10.0331E-03     127.310E-03    -36.0618E+06     57.7967E+06     72.0565E+06     2.02594E+06    -230.908E-03     459.073E-03    -228.165E-03     209.252E-03    -240.386E-03     468.420E-03    -227.837E-03     177.108E-03
             800     10.7498E-03     127.584E-03    -28.6903E+06     63.3214E+06     82.3829E+06     1.25480E+06    -229.772E-03     457.918E-03    -228.146E-03     201.289E-03    -239.013E-03     467.043E-03    -227.785E-03     169.414E-03
             801     11.4679E-03     127.834E-03    -21.6186E+06     64.9218E+06     88.8390E+06     2.58369E+06    -228.605E-03     456.711E-03    -228.106E-03     189.603E-03    -237.258E-03     465.259E-03    -227.724E-03     158.549E-03
             802     12.1840E-03     128.075E-03    -16.2070E+06     71.5880E+06     91.7810E+06     3.74147E+06    -227.323E-03     455.357E-03    -228.034E-03     170.689E-03    -234.851E-03     462.816E-03    -227.656E-03     141.486E-03
             803     12.9037E-03     128.271E-03    -10.3711E+06     83.6617E+06     94.0329E+06     2.47492E+06    -226.298E-03     454.247E-03    -227.948E-03     153.725E-03    -232.957E-03     460.893E-03    -227.584E-03     125.770E-03
             804     13.6219E-03     128.463E-03    -5.70272E+06     84.7959E+06     92.3572E+06     473.633E+03    -226.148E-03     454.028E-03    -227.880E-03     108.815E-03    -230.508E-03     458.401E-03    -227.533E-03     86.5505E-03
             805     716.546E-06     126.391E-03    -139.608E+06    -311.654E+06    -136.507E+06     511.451E+03    -228.556E-03     456.525E-03    -227.969E-03     23.2998E-03    -228.685E-03     455.448E-03    -227.997E-03     20.6264E-03
             806     1.43281E-03     126.435E-03    -136.335E+06    -298.864E+06    -126.213E+06     362.920E+03    -228.589E-03     456.836E-03    -228.247E-03     42.5196E-03    -228.903E-03     455.972E-03    -228.247E-03     37.5720E-03
             807     2.14896E-03     126.506E-03    -130.572E+06    -282.596E+06    -110.483E+06    -185.110E+03    -228.962E-03     457.269E-03    -228.307E-03     62.4559E-03    -229.581E-03     456.741E-03    -228.260E-03     55.0649E-03
             808     2.86512E-03     126.605E-03    -123.376E+06    -260.261E+06    -92.7153E+06     200.307E+03    -229.373E-03     457.724E-03    -228.351E-03     82.2868E-03    -230.425E-03     457.683E-03    -228.258E-03     72.3411E-03
             809     3.58169E-03     126.730E-03     -115.58E+06    -228.807E+06    -73.1038E+06     1.90986E+06    -229.905E-03     458.284E-03    -228.379E-03     101.906E-03    -231.536E-03     458.904E-03    -228.245E-03     89.3275E-03
             810     4.29800E-03     126.881E-03    -106.664E+06    -196.223E+06    -52.1592E+06     2.21524E+06    -230.446E-03     458.851E-03    -228.405E-03     120.978E-03    -232.793E-03     460.274E-03    -228.227E-03     105.660E-03
             811     5.01464E-03     127.056E-03    -96.9976E+06    -169.793E+06    -33.2311E+06     1.51799E+06    -230.981E-03     459.404E-03    -228.422E-03     139.352E-03    -234.176E-03     461.748E-03    -228.202E-03     121.180E-03
             812     5.73124E-03     127.256E-03    -87.8708E+06    -136.981E+06    -15.6026E+06     1.61276E+06    -231.484E-03     459.903E-03    -228.420E-03     156.822E-03    -235.671E-03     463.338E-03    -228.172E-03     135.787E-03
             813     6.44749E-03     127.477E-03    -78.7642E+06    -93.6062E+06     2.72840E+06     1.88792E+06    -231.768E-03     460.163E-03    -228.395E-03     173.106E-03    -237.076E-03     464.851E-03    -228.132E-03     149.288E-03
             814     7.16466E-03     127.718E-03    -69.6377E+06    -51.6211E+06     20.5371E+06     2.45033E+06    -231.945E-03     460.302E-03    -228.357E-03     187.773E-03    -238.435E-03     466.302E-03    -228.078E-03     161.332E-03
             815     7.88131E-03     127.976E-03    -60.8298E+06    -2.94130E+06     38.7568E+06     3.88936E+06    -232.073E-03     460.379E-03    -228.307E-03     199.824E-03    -239.727E-03     467.694E-03    -228.020E-03     171.085E-03
             816     8.59910E-03     128.249E-03    -53.1154E+06     28.3934E+06     50.1735E+06      5.2903E+06    -232.091E-03     460.350E-03    -228.258E-03     207.748E-03    -240.704E-03     468.730E-03    -227.972E-03     177.216E-03
             817     9.31540E-03     128.527E-03    -45.6592E+06     46.2381E+06     58.5748E+06     5.33564E+06    -231.696E-03     459.920E-03    -228.224E-03     210.760E-03    -240.946E-03     469.002E-03    -227.932E-03     179.063E-03
             818     10.0318E-03     128.807E-03    -37.7571E+06     63.8988E+06     71.7208E+06     3.83612E+06    -230.690E-03     458.894E-03    -228.205E-03     208.618E-03    -240.178E-03     468.268E-03    -227.884E-03     176.488E-03
             819     10.7502E-03     129.075E-03    -31.9794E+06     62.1238E+06     80.9522E+06     2.36738E+06    -229.646E-03     457.831E-03    -228.185E-03     200.753E-03    -238.889E-03     466.946E-03    -227.823E-03     168.894E-03
             820     11.4663E-03     129.332E-03    -26.3589E+06     62.4110E+06     86.8397E+06     2.59172E+06    -228.613E-03     456.757E-03    -228.144E-03     189.050E-03    -237.284E-03     465.304E-03    -227.762E-03     157.958E-03
             821     12.1855E-03     129.565E-03    -18.7055E+06     72.4639E+06     91.3548E+06     1.95132E+06    -227.409E-03     455.489E-03    -228.079E-03     169.967E-03    -234.962E-03     462.967E-03    -227.700E-03     140.646E-03
             822     12.9013E-03     129.768E-03    -11.2173E+06     83.9620E+06     94.0815E+06     555.862E+03    -226.688E-03     454.697E-03    -228.009E-03     153.782E-03    -233.381E-03     461.376E-03    -227.644E-03     125.653E-03
             823     13.6167E-03     129.955E-03    -4.84182E+06     86.6070E+06     94.3454E+06     646.625E+03    -225.677E-03     453.618E-03    -227.941E-03     109.802E-03    -230.066E-03     458.024E-03    -227.588E-03     87.5020E-03
             824     716.106E-06     127.886E-03    -139.303E+06    -313.408E+06    -136.540E+06     756.273E+03    -228.642E-03     456.761E-03    -228.119E-03     22.9735E-03    -228.765E-03     455.673E-03    -228.145E-03     20.3163E-03
             825     1.43251E-03     127.930E-03    -134.835E+06    -299.417E+06    -124.857E+06     770.957E+03    -228.652E-03     457.009E-03    -228.357E-03     42.4299E-03    -228.960E-03     456.138E-03    -228.352E-03     37.5032E-03
             826     2.14878E-03     128.002E-03    -129.372E+06    -282.274E+06    -109.073E+06     967.004E+03    -229.028E-03     457.428E-03    -228.400E-03     62.4930E-03    -229.644E-03     456.899E-03    -228.349E-03     55.1083E-03
             827     2.86512E-03     128.100E-03    -122.938E+06    -262.359E+06    -90.3090E+06     1.38849E+06    -229.531E-03     457.986E-03    -228.456E-03     82.5260E-03    -230.584E-03     457.933E-03    -228.348E-03     72.5814E-03
             828     3.58117E-03     128.225E-03    -114.691E+06    -231.473E+06    -71.8556E+06     1.88450E+06    -229.972E-03     458.452E-03    -228.480E-03     102.096E-03    -231.598E-03     459.058E-03    -228.337E-03     89.5124E-03
             829     4.29781E-03     128.376E-03    -105.669E+06    -195.891E+06    -53.0236E+06     1.77087E+06    -230.430E-03     458.908E-03    -228.478E-03     121.078E-03    -232.773E-03     460.335E-03    -228.306E-03     105.747E-03
             830     5.01416E-03     128.552E-03    -97.4409E+06    -170.653E+06    -34.5753E+06     1.87327E+06    -231.009E-03     459.494E-03    -228.484E-03     139.402E-03    -234.202E-03     461.835E-03    -228.269E-03     121.236E-03
             831     5.73052E-03     128.751E-03    -89.2491E+06    -137.302E+06    -16.4268E+06     2.25209E+06    -231.433E-03     459.908E-03    -228.475E-03     156.829E-03    -235.624E-03     463.343E-03    -228.229E-03     135.814E-03
             832     6.44766E-03     128.972E-03    -81.1189E+06    -94.0342E+06     1.54489E+06     2.40959E+06    -231.779E-03     460.222E-03    -228.443E-03     172.998E-03    -237.097E-03     464.913E-03    -228.181E-03     149.170E-03
             833     7.16416E-03     129.213E-03    -73.2274E+06    -53.2398E+06     18.5660E+06     2.35594E+06    -232.107E-03     460.519E-03    -228.412E-03     187.368E-03    -238.605E-03     466.514E-03    -228.135E-03     160.892E-03
             834     7.88136E-03     129.472E-03    -64.9156E+06    -7.82895E+06     35.0365E+06     3.11828E+06    -232.311E-03     460.690E-03    -228.379E-03     199.112E-03    -239.962E-03     467.981E-03    -228.098E-03     170.317E-03
             835     8.59738E-03     129.744E-03    -55.2390E+06     24.7227E+06     47.2036E+06     4.63409E+06    -232.159E-03     460.504E-03    -228.345E-03     206.935E-03    -240.759E-03     468.859E-03    -228.065E-03     176.365E-03
             836     9.31413E-03     130.023E-03    -46.0992E+06     46.4416E+06     58.5269E+06     5.09286E+06    -231.457E-03     459.768E-03    -228.311E-03     210.201E-03    -240.698E-03     468.840E-03    -228.019E-03     178.517E-03
             837     10.0324E-03     130.300E-03    -39.3219E+06     64.2547E+06     72.0025E+06     5.80385E+06    -230.571E-03     458.853E-03    -228.281E-03     208.083E-03    -240.058E-03     468.219E-03    -227.957E-03     175.982E-03
             838     10.7483E-03     130.572E-03    -32.4261E+06      65.524E+06     82.1626E+06     5.74092E+06    -229.556E-03     457.809E-03    -228.252E-03     200.302E-03    -238.804E-03     466.935E-03    -227.890E-03     168.478E-03
             839     11.4671E-03     130.824E-03    -24.4984E+06     65.8777E+06     88.7201E+06     2.44062E+06    -228.600E-03     456.808E-03    -228.208E-03     188.648E-03    -237.267E-03     465.364E-03    -227.824E-03     157.536E-03
             840     12.1825E-03     131.061E-03    -16.8408E+06     74.3960E+06     92.9951E+06    -638.334E+03    -227.490E-03     455.635E-03    -228.144E-03     169.735E-03    -235.029E-03     463.108E-03    -227.763E-03     140.388E-03
             841     12.9012E-03     131.260E-03    -10.2756E+06     82.9301E+06     94.7426E+06    -166.026E+03    -225.951E-03     454.004E-03    -228.053E-03     154.455E-03    -232.639E-03     460.674E-03    -227.684E-03     126.445E-03
             842     13.6212E-03     131.452E-03    -4.69839E+06     86.1820E+06     94.6318E+06     983.337E+03    -224.936E-03     452.873E-03    -227.938E-03     110.294E-03    -229.318E-03     457.270E-03    -227.583E-03     88.1594E-03
             843     716.254E-06     129.381E-03    -139.395E+06    -314.288E+06    -136.797E+06    -410.050E+03    -228.545E-03     456.983E-03    -228.439E-03     23.2449E-03    -228.668E-03     455.893E-03    -228.465E-03     20.5602E-03
             844     1.43225E-03     129.426E-03    -135.202E+06    -301.615E+06    -126.060E+06     484.282E+03    -228.717E-03     457.170E-03    -228.454E-03     42.6272E-03    -229.022E-03     456.291E-03    -228.451E-03     37.6877E-03
             845     2.14863E-03     129.497E-03    -130.108E+06    -284.634E+06    -109.862E+06     1.83586E+06    -229.074E-03     457.556E-03    -228.482E-03     62.6256E-03    -229.690E-03     457.018E-03    -228.430E-03     55.2441E-03
             846     2.86485E-03     129.596E-03    -122.634E+06    -263.685E+06    -90.6719E+06     2.48663E+06    -229.573E-03     458.099E-03    -228.525E-03     82.5074E-03    -230.622E-03     458.039E-03    -228.419E-03     72.5785E-03
             847     3.58119E-03     129.721E-03    -114.871E+06    -231.998E+06    -71.9975E+06     2.05086E+06    -230.034E-03     458.580E-03    -228.547E-03     101.981E-03    -231.659E-03     459.183E-03    -228.404E-03     89.3947E-03
             848     4.29740E-03     129.872E-03    -107.103E+06    -197.573E+06    -53.6924E+06     2.42210E+06    -230.531E-03     459.081E-03    -228.549E-03     121.043E-03    -232.880E-03     460.503E-03    -228.376E-03     105.706E-03
             849     5.01397E-03     130.048E-03    -98.7199E+06    -172.021E+06    -35.1392E+06     3.32181E+06    -231.018E-03     459.574E-03    -228.556E-03     139.219E-03    -234.213E-03     461.910E-03    -228.339E-03     121.067E-03
             850     5.73070E-03     130.246E-03    -90.5041E+06    -138.754E+06    -17.0316E+06     3.80678E+06    -231.495E-03     460.040E-03    -228.545E-03     156.472E-03    -235.684E-03     463.464E-03    -228.298E-03     135.466E-03
             851     6.44697E-03     130.468E-03    -82.5209E+06    -95.3115E+06     678.328E+03     4.40561E+06    -232.015E-03     460.540E-03    -228.525E-03     172.533E-03    -237.330E-03     465.222E-03    -228.264E-03     148.698E-03
             852     7.16361E-03     130.709E-03    -74.5729E+06    -53.5104E+06     17.9397E+06     4.87685E+06    -232.498E-03     461.021E-03    -228.523E-03     186.755E-03    -239.000E-03     467.016E-03    -228.247E-03     160.238E-03
             853     7.87950E-03     130.967E-03    -66.7252E+06    -7.79585E+06     34.8245E+06     4.19870E+06    -232.503E-03     461.020E-03    -228.517E-03     198.604E-03    -240.162E-03     468.313E-03    -228.234E-03     169.764E-03
             854     8.59630E-03     131.240E-03    -58.9604E+06     24.2384E+06     46.4441E+06     2.49277E+06    -231.932E-03     460.410E-03    -228.478E-03     206.606E-03    -240.546E-03     468.766E-03    -228.195E-03     176.009E-03
             855     9.31396E-03     131.516E-03    -50.7720E+06     42.0752E+06     55.4965E+06     3.07428E+06    -231.306E-03     459.727E-03    -228.421E-03     209.798E-03    -240.554E-03     468.782E-03    -228.130E-03     178.083E-03
             856     10.0299E-03     131.796E-03    -41.2349E+06     60.9299E+06     69.1761E+06     4.80803E+06    -230.511E-03     458.887E-03    -228.375E-03     207.538E-03    -239.986E-03     468.231E-03    -228.058E-03     175.424E-03
             857     10.7486E-03     132.064E-03    -31.4108E+06     68.8425E+06     82.0788E+06     3.48775E+06    -229.560E-03     457.903E-03    -228.343E-03     199.663E-03    -238.787E-03     467.024E-03    -227.987E-03     167.817E-03
             858     11.4646E-03     132.319E-03    -22.4142E+06     71.4373E+06     90.5569E+06     982.746E+03    -228.212E-03     456.501E-03    -228.289E-03     188.148E-03    -236.858E-03     465.059E-03    -227.907E-03     157.070E-03
             859     12.1835E-03     132.555E-03    -15.8034E+06     75.6243E+06     93.9194E+06     531.581E+03    -226.754E-03     454.945E-03    -228.191E-03     170.046E-03    -234.279E-03     462.410E-03    -227.808E-03     140.846E-03
             860     12.9008E-03     132.753E-03    -10.9723E+06     81.2968E+06     94.4517E+06     774.363E+03    -225.684E-03     453.753E-03    -228.069E-03     153.610E-03    -232.350E-03     460.395E-03    -227.699E-03     125.663E-03
             861     13.6187E-03     132.940E-03    -5.48588E+06     86.6839E+06     94.4091E+06     508.565E+03    -225.009E-03     452.959E-03    -227.950E-03     108.832E-03    -229.374E-03     457.338E-03    -227.596E-03     86.6792E-03
             862     716.092E-06     130.877E-03    -140.166E+06    -314.904E+06    -137.418E+06     711.187E+03    -228.743E-03     457.141E-03    -228.397E-03     23.3486E-03    -228.869E-03     456.050E-03    -228.425E-03     20.6664E-03
             863     1.43244E-03     130.922E-03    -137.967E+06    -303.954E+06    -127.981E+06     1.02688E+06    -228.840E-03     457.384E-03    -228.543E-03     42.3781E-03    -229.152E-03     456.498E-03    -228.543E-03     37.4434E-03
             864     2.14848E-03     130.993E-03    -131.969E+06    -288.320E+06    -112.525E+06     1.73187E+06    -229.173E-03     457.753E-03    -228.580E-03     62.5241E-03    -229.788E-03     457.202E-03    -228.533E-03     55.1431E-03
             865     2.86454E-03     131.092E-03    -125.124E+06    -264.967E+06    -94.5756E+06     2.14900E+06    -229.607E-03     458.214E-03    -228.608E-03     82.4161E-03    -230.658E-03     458.156E-03    -228.515E-03     72.4836E-03
             866     3.58083E-03     131.217E-03    -117.003E+06    -232.705E+06    -74.3231E+06     2.31678E+06    -230.120E-03     458.751E-03    -228.631E-03     101.777E-03    -231.752E-03     459.357E-03    -228.495E-03     89.1727E-03
             867     4.29716E-03     131.368E-03    -108.177E+06    -200.429E+06    -53.4337E+06     3.23479E+06    -230.626E-03     459.278E-03    -228.652E-03     120.713E-03    -232.973E-03     460.685E-03    -228.472E-03     105.367E-03
             868     5.01335E-03     131.543E-03    -99.2571E+06    -174.984E+06    -35.1010E+06     4.28481E+06    -231.206E-03     459.874E-03    -228.667E-03     138.834E-03    -234.397E-03     462.192E-03    -228.445E-03     120.665E-03
             869     5.72965E-03     131.742E-03    -90.2005E+06    -141.546E+06    -17.0520E+06     5.23877E+06    -231.828E-03     460.508E-03    -228.679E-03     155.892E-03    -236.008E-03     463.914E-03    -228.428E-03     134.850E-03
             870     6.44615E-03     131.963E-03    -81.2672E+06    -97.7629E+06     1.25608E+06     6.22656E+06    -232.320E-03     461.008E-03    -228.688E-03     171.885E-03    -237.619E-03     465.668E-03    -228.422E-03     148.025E-03
             871     7.16213E-03     132.205E-03    -72.2952E+06    -55.5617E+06     19.1510E+06     7.10908E+06    -232.585E-03     461.281E-03    -228.696E-03     186.461E-03    -239.070E-03     467.256E-03    -228.414E-03     159.951E-03
             872     7.87842E-03     132.464E-03    -63.0075E+06    -5.27095E+06     38.5073E+06     7.28652E+06    -232.329E-03     461.006E-03    -228.677E-03     198.259E-03    -239.973E-03     468.296E-03    -228.385E-03     169.469E-03
             873     8.59554E-03     132.734E-03    -53.9588E+06     29.5936E+06     51.8066E+06     5.76478E+06    -231.883E-03     460.504E-03    -228.621E-03     206.206E-03    -240.481E-03     468.865E-03    -228.327E-03     175.645E-03
             874     9.31171E-03     133.013E-03    -45.1951E+06     40.2163E+06     59.4953E+06     3.88800E+06    -231.426E-03     459.986E-03    -228.560E-03     209.511E-03    -240.637E-03     469.007E-03    -228.256E-03     177.807E-03
             875     10.0300E-03     133.289E-03    -36.6542E+06     58.3886E+06     71.9824E+06     3.37236E+06    -230.660E-03     459.173E-03    -228.513E-03     207.117E-03    -240.096E-03     468.477E-03    -228.185E-03     174.982E-03
             876     10.7459E-03     133.560E-03    -28.5807E+06     72.9403E+06     85.4650E+06     2.62294E+06    -229.237E-03     457.701E-03    -228.464E-03     199.305E-03    -238.449E-03     466.823E-03    -228.101E-03     167.485E-03
             877     11.4641E-03     133.814E-03    -22.4365E+06     73.7670E+06     91.9572E+06     2.32159E+06    -227.601E-03     455.975E-03    -228.373E-03     187.789E-03    -236.237E-03     464.526E-03    -227.988E-03     156.822E-03
             878     12.1825E-03     134.044E-03    -17.2424E+06     75.8590E+06     93.6385E+06     2.56657E+06    -226.463E-03     454.707E-03    -228.244E-03     169.173E-03    -233.977E-03     462.158E-03    -227.860E-03     140.034E-03
             879     12.9016E-03     134.249E-03    -10.9774E+06     83.3054E+06     94.8977E+06     945.278E+03    -225.621E-03     453.733E-03    -228.112E-03     152.677E-03    -232.276E-03     460.369E-03    -227.743E-03     124.725E-03
             880     13.6184E-03     134.432E-03    -4.93234E+06     87.7764E+06     94.8675E+06    -147.361E+03    -224.509E-03     452.489E-03    -227.980E-03     109.544E-03    -228.884E-03     456.883E-03    -227.625E-03     87.3555E-03
             881     716.072E-06     132.374E-03    -140.883E+06    -317.875E+06    -140.724E+06     832.858E+03    -229.085E-03     457.454E-03    -228.369E-03     23.2197E-03    -229.204E-03     456.354E-03    -228.408E-03     20.5414E-03
             882     1.43182E-03     132.418E-03    -138.451E+06    -305.634E+06    -129.383E+06     1.27253E+06    -228.982E-03     457.678E-03    -228.696E-03     42.3581E-03    -229.292E-03     456.787E-03    -228.699E-03     37.4260E-03
             883     2.14794E-03     132.489E-03    -132.394E+06    -290.668E+06    -112.702E+06     1.09817E+06    -229.307E-03     458.040E-03    -228.733E-03     62.4209E-03    -229.919E-03     457.477E-03    -228.683E-03     55.0268E-03
             884     2.86434E-03     132.588E-03    -124.522E+06    -266.677E+06    -94.0712E+06     1.51967E+06    -229.729E-03     458.487E-03    -228.758E-03     82.2131E-03    -230.776E-03     458.418E-03    -228.661E-03     72.2497E-03
             885     3.58030E-03     132.714E-03    -116.168E+06    -235.221E+06    -74.5612E+06     2.42097E+06    -230.248E-03     459.023E-03    -228.775E-03     101.586E-03    -231.870E-03     459.614E-03    -228.639E-03     88.9693E-03
             886     4.29635E-03     132.864E-03    -107.544E+06    -204.287E+06    -54.2290E+06     3.59225E+06    -230.898E-03     459.704E-03    -228.806E-03     120.352E-03    -233.233E-03     461.090E-03    -228.625E-03     104.981E-03
             887     5.01283E-03     133.040E-03    -98.2970E+06    -177.811E+06    -34.8679E+06     4.28947E+06    -231.586E-03     460.440E-03    -228.854E-03     138.311E-03    -234.767E-03     462.741E-03    -228.628E-03     120.082E-03
             888     5.72860E-03     133.239E-03    -88.7213E+06    -144.790E+06    -16.7367E+06     4.92537E+06    -232.128E-03     461.019E-03    -228.891E-03     155.461E-03    -236.295E-03     464.406E-03    -228.636E-03     134.361E-03
             889     6.44429E-03     133.460E-03    -78.6319E+06    -101.523E+06     1.94002E+06     5.98279E+06    -232.458E-03     461.363E-03    -228.906E-03     171.718E-03    -237.743E-03     466.003E-03    -228.635E-03     147.810E-03
             890     7.16056E-03     133.702E-03    -68.0757E+06    -58.2069E+06     21.2774E+06     6.91084E+06    -232.416E-03     461.312E-03    -228.895E-03     186.107E-03    -238.870E-03     467.255E-03    -228.606E-03     159.608E-03
             891     7.87766E-03     133.959E-03    -57.4061E+06    -7.39285E+06     40.8589E+06     7.68781E+06    -232.210E-03     461.057E-03    -228.846E-03     197.647E-03    -239.806E-03     468.304E-03    -228.548E-03     168.885E-03
             892     8.59389E-03     134.231E-03    -48.2292E+06     30.2880E+06     54.8108E+06     8.72458E+06    -232.022E-03     460.802E-03    -228.780E-03     205.448E-03    -240.575E-03     469.133E-03    -228.480E-03     174.917E-03
             893     9.31166E-03     134.507E-03    -41.6160E+06     46.2876E+06     63.4405E+06     7.53704E+06    -231.565E-03     460.290E-03    -228.725E-03     208.509E-03    -240.745E-03     469.303E-03    -228.415E-03     176.835E-03
             894     10.0273E-03     134.786E-03    -35.4527E+06     60.6558E+06     74.5422E+06     4.19435E+06    -230.329E-03     458.999E-03    -228.670E-03     206.320E-03    -239.743E-03     468.286E-03    -228.333E-03     174.233E-03
             895     10.7453E-03     135.054E-03    -28.9486E+06     71.4675E+06     86.6356E+06     4.60904E+06    -228.654E-03     457.241E-03    -228.587E-03     198.512E-03    -237.837E-03     466.323E-03    -228.215E-03     166.826E-03
             896     11.4643E-03     135.304E-03    -22.9858E+06     74.6984E+06     93.3809E+06     5.71479E+06    -227.649E-03     456.124E-03    -228.475E-03     186.869E-03    -236.272E-03     464.659E-03    -228.083E-03     155.949E-03
             897     12.1812E-03     135.542E-03    -16.7524E+06     79.0199E+06     95.7710E+06     3.63678E+06    -226.378E-03     454.722E-03    -228.344E-03     168.132E-03    -233.882E-03     462.169E-03    -227.955E-03     138.993E-03
             898     12.8983E-03     135.737E-03    -10.2030E+06     87.6633E+06     97.3640E+06     958.571E+03    -224.717E-03     452.900E-03    -228.183E-03     152.494E-03    -231.355E-03     459.531E-03    -227.808E-03     124.693E-03
             899     13.6190E-03     135.927E-03    -4.57812E+06     88.6320E+06     96.5074E+06    -319.457E+03    -223.776E-03     451.780E-03    -228.005E-03     108.249E-03    -228.123E-03     456.147E-03    -227.644E-03     86.2103E-03
             900     715.770E-06     133.870E-03    -143.010E+06    -319.612E+06    -139.726E+06    -160.741E+03    -229.006E-03     457.758E-03    -228.752E-03     23.0511E-03    -229.136E-03     456.651E-03    -228.780E-03     20.3463E-03
             901     1.43200E-03     133.914E-03    -138.656E+06    -307.286E+06    -129.871E+06     304.508E+03    -229.174E-03     458.029E-03    -228.855E-03     42.4872E-03    -229.482E-03     457.131E-03    -228.858E-03     37.5247E-03
             902     2.14787E-03     133.986E-03    -133.146E+06    -291.116E+06    -112.954E+06     586.501E+03    -229.607E-03     458.527E-03    -228.920E-03     62.2914E-03    -230.222E-03     457.964E-03    -228.870E-03     54.8726E-03
             903     2.86337E-03     134.085E-03    -125.851E+06    -268.969E+06    -94.7680E+06     652.783E+03    -229.970E-03     458.943E-03    -228.973E-03     81.9150E-03    -231.019E-03     458.866E-03    -228.875E-03     71.9094E-03
             904     3.57966E-03     134.210E-03    -117.470E+06    -238.827E+06    -75.6461E+06     1.83040E+06    -230.502E-03     459.504E-03    -229.002E-03     101.189E-03    -232.120E-03     460.077E-03    -228.864E-03     88.5411E-03
             905     4.29578E-03     134.361E-03    -108.092E+06    -207.309E+06    -55.5732E+06     2.35238E+06    -231.243E-03     460.290E-03    -229.047E-03     119.975E-03    -233.573E-03     461.661E-03    -228.867E-03     104.549E-03
             906     5.01077E-03     134.537E-03    -98.1102E+06    -180.313E+06    -36.1882E+06     2.81570E+06    -231.861E-03     460.967E-03    -229.106E-03     138.040E-03    -235.034E-03     463.257E-03    -228.883E-03     119.749E-03
             907     5.72688E-03     134.736E-03    -88.4985E+06    -147.387E+06    -17.4554E+06     3.32436E+06    -232.280E-03     461.424E-03    -229.145E-03     155.273E-03    -236.441E-03     464.799E-03    -228.890E-03     134.112E-03
             908     6.44317E-03     134.958E-03    -78.8425E+06    -104.720E+06     1.11457E+06     3.54792E+06    -232.455E-03     461.599E-03    -229.144E-03     171.251E-03    -237.726E-03     466.215E-03    -228.872E-03     147.296E-03
             909     7.15948E-03     135.198E-03    -68.9976E+06    -61.9404E+06     19.5959E+06     4.18178E+06    -232.479E-03     461.596E-03    -229.118E-03     185.301E-03    -238.914E-03     467.510E-03    -228.830E-03     158.739E-03
             910     7.87547E-03     135.456E-03    -60.3549E+06    -13.4402E+06     37.8574E+06     5.72094E+06    -232.381E-03     461.450E-03    -229.068E-03     196.626E-03    -239.955E-03     468.651E-03    -228.772E-03     167.805E-03
             911     8.59273E-03     135.726E-03    -52.6282E+06     23.7638E+06     50.9936E+06     8.97854E+06    -232.144E-03     461.151E-03    -229.007E-03     204.191E-03    -240.672E-03     469.428E-03    -228.710E-03     173.638E-03
             912     9.30808E-03     136.004E-03    -44.6757E+06     51.5953E+06     62.0737E+06     9.42492E+06    -231.278E-03     460.212E-03    -228.934E-03     207.338E-03    -240.457E-03     469.235E-03    -228.634E-03     175.683E-03
             913     10.0260E-03     136.280E-03    -38.0658E+06     66.6535E+06     73.9618E+06     7.10582E+06    -229.766E-03     458.614E-03    -228.848E-03     204.858E-03    -239.164E-03     467.898E-03    -228.520E-03     172.869E-03
             914     10.7447E-03     136.545E-03    -32.0818E+06     68.3990E+06     85.1486E+06     5.61423E+06    -228.581E-03     457.335E-03    -228.754E-03     196.830E-03    -237.736E-03     466.371E-03    -228.381E-03     165.146E-03
             915     11.4607E-03     136.801E-03    -23.8931E+06     74.9310E+06     94.1956E+06     4.85985E+06    -227.250E-03     455.881E-03    -228.631E-03     185.718E-03    -235.848E-03     464.387E-03    -228.234E-03     154.823E-03
             916     12.1795E-03     137.031E-03    -15.6553E+06     83.3897E+06     99.0017E+06     3.37082E+06    -225.514E-03     453.977E-03    -228.463E-03     167.445E-03    -233.001E-03     461.417E-03    -228.066E-03     138.407E-03
             917     12.9002E-03     137.231E-03    -9.37241E+06     91.1654E+06     100.700E+06     2.08315E+06    -224.228E-03     452.492E-03    -228.265E-03     151.626E-03    -230.872E-03     459.135E-03    -227.880E-03     123.841E-03
             918     13.6180E-03     137.415E-03    -4.60012E+06     89.9941E+06     98.4869E+06     1.26682E+06    -223.400E-03     451.462E-03    -228.062E-03     107.735E-03    -227.757E-03     455.836E-03    -227.693E-03     85.7117E-03
             919     715.875E-06     135.366E-03    -142.634E+06    -319.947E+06    -139.590E+06     618.329E+03    -229.291E-03     458.338E-03    -229.047E-03     22.8808E-03    -229.418E-03     457.228E-03    -229.074E-03     20.1730E-03
             920     1.43148E-03     135.412E-03    -138.588E+06    -307.414E+06    -128.683E+06     56.7452E+03    -229.479E-03     458.636E-03    -229.157E-03     42.1153E-03    -229.787E-03     457.734E-03    -229.153E-03     37.1512E-03
             921     2.14697E-03     135.484E-03    -132.290E+06    -291.219E+06    -112.711E+06    -112.158E+03    -229.806E-03     459.014E-03    -229.208E-03     61.9513E-03    -230.416E-03     458.448E-03    -229.158E-03     54.5017E-03
             922     2.86294E-03     135.582E-03    -124.722E+06    -271.474E+06    -93.3941E+06     869.547E+03    -230.322E-03     459.588E-03    -229.266E-03     81.6482E-03    -231.362E-03     459.492E-03    -229.159E-03     71.6262E-03
             923     3.57837E-03     135.707E-03    -116.404E+06    -241.600E+06    -74.8992E+06     1.17985E+06    -230.978E-03     460.297E-03    -229.319E-03     101.067E-03    -232.592E-03     460.857E-03    -229.174E-03     88.3503E-03
             924     4.29356E-03     135.859E-03    -107.656E+06    -207.424E+06    -56.3677E+06     1.04782E+06    -231.487E-03     460.852E-03    -229.365E-03     119.744E-03    -233.813E-03     462.223E-03    -229.190E-03     104.256E-03
             925     5.01017E-03     136.035E-03    -99.1447E+06    -182.821E+06    -38.0353E+06     1.40285E+06    -231.993E-03     461.402E-03    -229.410E-03     137.708E-03    -235.161E-03     463.680E-03    -229.191E-03     119.374E-03
             926     5.72549E-03     136.235E-03    -90.1185E+06    -149.252E+06    -19.3747E+06     1.98640E+06    -232.459E-03     461.893E-03    -229.434E-03     154.766E-03    -236.616E-03     465.256E-03    -229.183E-03     133.553E-03
             927     6.44105E-03     136.454E-03    -81.2984E+06    -106.241E+06    -875.331E+03     2.38271E+06    -232.697E-03     462.130E-03    -229.433E-03     170.331E-03    -237.963E-03     466.733E-03    -229.166E-03     146.309E-03
             928     7.15706E-03     136.695E-03    -73.5522E+06    -65.9631E+06     15.9345E+06     3.19140E+06    -232.773E-03     462.189E-03    -229.416E-03     184.125E-03    -239.205E-03     468.079E-03    -229.134E-03     157.473E-03
             929     7.87347E-03     136.953E-03    -65.7706E+06    -20.8755E+06     32.3724E+06     5.79941E+06    -232.697E-03     462.076E-03    -229.379E-03     195.378E-03    -240.259E-03     469.236E-03    -229.091E-03     166.485E-03
             930     8.58884E-03     137.223E-03    -56.7292E+06     18.2468E+06     46.0362E+06     6.99023E+06    -232.066E-03     461.379E-03    -229.313E-03     203.039E-03    -240.582E-03     469.625E-03    -229.027E-03     172.415E-03
             931     9.30655E-03     137.500E-03    -47.4629E+06     50.0489E+06     59.5402E+06     7.66040E+06    -230.771E-03     459.984E-03    -229.212E-03     205.666E-03    -239.907E-03     468.956E-03    -228.919E-03     174.061E-03
             932     10.0241E-03     137.773E-03    -38.6278E+06     67.9719E+06     73.6963E+06     8.79950E+06    -229.640E-03     458.741E-03    -229.101E-03     203.176E-03    -238.992E-03     467.983E-03    -228.775E-03     171.234E-03
             933     10.7398E-03     138.042E-03    -30.3158E+06     71.9540E+06     86.1656E+06     7.39409E+06    -228.184E-03     457.167E-03    -228.983E-03     195.866E-03    -237.317E-03     466.197E-03    -228.612E-03     164.220E-03
             934     11.4597E-03     138.291E-03    -23.3485E+06     77.6964E+06     95.8976E+06     4.50199E+06    -226.404E-03     455.223E-03    -228.820E-03     184.876E-03    -234.980E-03     463.714E-03    -228.419E-03     154.079E-03
             935     12.1792E-03     138.524E-03    -16.6984E+06     85.6434E+06     100.999E+06     3.10165E+06    -224.856E-03     453.463E-03    -228.607E-03     166.083E-03    -232.321E-03     460.879E-03    -228.202E-03     137.129E-03
             936     12.8962E-03     138.720E-03    -11.2476E+06     92.2099E+06     101.606E+06     3.17054E+06    -223.310E-03     451.670E-03    -228.360E-03     150.662E-03    -229.934E-03     458.287E-03    -227.970E-03     123.032E-03
             937     13.6167E-03     138.907E-03    -5.77009E+06     92.5228E+06     99.8535E+06     2.16986E+06    -221.939E-03     450.029E-03    -228.090E-03     108.324E-03    -226.296E-03     454.405E-03    -227.717E-03     86.4854E-03
             938     715.293E-06     136.865E-03    -143.558E+06    -319.809E+06    -141.514E+06    -733.369E+03    -230.140E-03     459.369E-03    -229.229E-03     22.7949E-03    -230.268E-03     458.262E-03    -229.264E-03     20.0825E-03
             939     1.43052E-03     136.910E-03    -139.383E+06    -306.373E+06    -130.200E+06    -745.971E+03    -229.776E-03     459.404E-03    -229.628E-03     41.8313E-03    -230.088E-03     458.511E-03    -229.632E-03     36.8315E-03
             940     2.14635E-03     136.982E-03    -134.061E+06    -291.024E+06    -114.519E+06    -700.273E+03    -230.004E-03     459.611E-03    -229.607E-03     61.7263E-03    -230.621E-03     459.050E-03    -229.563E-03     54.2417E-03
             941     2.86175E-03     137.080E-03    -126.516E+06    -273.719E+06    -96.1283E+06    -493.404E+03    -230.685E-03     460.317E-03    -229.632E-03     81.5370E-03    -231.728E-03     460.218E-03    -229.532E-03     71.4623E-03
             942     3.57706E-03     137.207E-03    -118.292E+06    -242.827E+06    -77.1167E+06     409.716E+03    -231.331E-03     461.017E-03    -229.686E-03     100.845E-03    -232.948E-03     461.575E-03    -229.548E-03     88.0903E-03
             943     4.29279E-03     137.358E-03    -110.162E+06    -207.687E+06    -57.6670E+06     926.366E+03    -231.827E-03     461.564E-03    -229.737E-03     119.361E-03    -234.163E-03     462.938E-03    -229.564E-03     103.823E-03
             944     5.00738E-03     137.533E-03    -101.534E+06    -183.445E+06    -39.5579E+06     591.359E+03    -232.367E-03     462.154E-03    -229.786E-03     137.098E-03    -235.541E-03     464.430E-03    -229.571E-03     118.684E-03
             945     5.72329E-03     137.733E-03    -92.6318E+06    -151.710E+06    -22.2195E+06     883.386E+03    -232.793E-03     462.609E-03    -229.815E-03     153.698E-03    -236.943E-03     465.955E-03    -229.572E-03     132.407E-03
             946     6.43900E-03     137.954E-03    -83.8605E+06    -109.458E+06    -4.53287E+06     2.28299E+06    -233.052E-03     462.874E-03    -229.822E-03     169.078E-03    -238.306E-03     467.455E-03    -229.564E-03     144.973E-03
             947     7.15424E-03     138.194E-03    -74.9399E+06    -70.0399E+06     12.6686E+06     3.97428E+06    -233.179E-03     462.998E-03    -229.819E-03     182.870E-03    -239.588E-03     468.856E-03    -229.545E-03     156.147E-03
             948     7.86965E-03     138.450E-03    -65.6807E+06    -26.8277E+06     29.6322E+06     5.48200E+06    -232.829E-03     462.614E-03    -229.786E-03     194.118E-03    -240.357E-03     469.729E-03    -229.503E-03     165.157E-03
             949     8.58627E-03     138.721E-03    -56.7474E+06     17.9409E+06     45.5492E+06     5.74081E+06    -231.837E-03     461.537E-03    -229.700E-03     201.383E-03    -240.308E-03     469.738E-03    -229.416E-03     170.762E-03
             950     9.30268E-03     138.993E-03    -48.0869E+06     45.4122E+06     57.4425E+06     5.78930E+06    -230.660E-03     460.231E-03    -229.571E-03     203.916E-03    -239.743E-03     469.138E-03    -229.280E-03     172.288E-03
             951     10.0194E-03     139.270E-03    -39.3301E+06     63.3684E+06     70.5531E+06     7.41214E+06    -229.105E-03     458.522E-03    -229.418E-03     201.956E-03    -238.410E-03     467.709E-03    -229.100E-03     170.058E-03
             952     10.7392E-03     139.534E-03    -31.1677E+06     75.9956E+06     86.1537E+06     7.23234E+06    -227.309E-03     456.552E-03    -229.243E-03     194.488E-03    -236.399E-03     465.552E-03    -228.878E-03     162.984E-03
             953     11.4572E-03     139.783E-03    -23.5291E+06     80.2221E+06     97.1370E+06     5.93798E+06    -225.635E-03     454.663E-03    -229.028E-03     183.477E-03    -234.170E-03     463.118E-03    -228.624E-03     152.824E-03
             954     12.1749E-03     140.015E-03    -17.4796E+06     86.6562E+06     101.751E+06     5.53960E+06    -223.557E-03     452.304E-03    -228.747E-03     165.847E-03    -230.997E-03     459.695E-03    -228.338E-03     137.134E-03
             955     12.8972E-03     140.209E-03    -11.4851E+06     94.2582E+06     103.126E+06     4.25351E+06    -221.807E-03     450.221E-03    -228.414E-03     151.400E-03    -228.430E-03     456.838E-03    -228.018E-03     124.012E-03
             956     13.6186E-03     140.393E-03    -5.70647E+06     96.5442E+06     101.427E+06     1.90609E+06    -220.828E-03     448.894E-03    -228.066E-03     108.050E-03    -225.186E-03     453.281E-03    -227.690E-03     86.3426E-03
             957     714.808E-06     138.365E-03    -144.193E+06    -317.796E+06    -141.306E+06    -399.045E+03    -230.218E-03     460.159E-03    -229.942E-03     22.7238E-03    -230.353E-03     459.064E-03    -229.978E-03     20.0132E-03
             958     1.43003E-03     138.410E-03    -141.757E+06    -305.812E+06    -132.281E+06    -491.984E+03    -230.174E-03     460.194E-03    -230.020E-03     41.9497E-03    -230.497E-03     459.312E-03    -230.033E-03     36.9263E-03
             959     2.14516E-03     138.480E-03    -136.031E+06    -289.691E+06    -116.904E+06    -1.01431E+06    -230.623E-03     460.653E-03    -230.029E-03     61.8188E-03    -231.251E-03     460.108E-03    -229.997E-03     54.2818E-03
             960     2.86040E-03     138.580E-03    -129.289E+06    -273.897E+06    -98.6415E+06    -1.41458E+06    -231.205E-03     461.303E-03    -230.098E-03     81.3623E-03    -232.258E-03     461.211E-03    -230.007E-03     71.2230E-03
             961     3.57551E-03     138.706E-03    -121.378E+06    -244.720E+06    -79.8798E+06    -685.428E+03    -231.745E-03     461.907E-03    -230.162E-03     100.162E-03    -233.365E-03     462.459E-03    -230.030E-03     87.3448E-03
             962     4.29024E-03     138.858E-03    -112.163E+06    -208.637E+06    -60.1866E+06    -113.405E+03    -232.328E-03     462.546E-03    -230.218E-03     118.420E-03    -234.661E-03     463.915E-03    -230.054E-03     102.802E-03
             963     5.00590E-03     139.034E-03    -102.867E+06    -183.947E+06    -41.7715E+06    -60.5146E+03    -232.924E-03     463.210E-03    -230.286E-03     135.997E-03    -236.091E-03     465.480E-03    -230.079E-03     117.489E-03
             964     5.72024E-03     139.233E-03    -93.8619E+06    -153.363E+06    -24.5012E+06     98.7066E+03    -233.283E-03     463.616E-03    -230.334E-03     152.487E-03    -237.422E-03     466.949E-03    -230.098E-03     131.090E-03
             965     6.43497E-03     139.453E-03    -84.4204E+06    -113.563E+06    -7.29135E+06     816.449E+03    -233.454E-03     463.801E-03    -230.347E-03     167.774E-03    -238.683E-03     468.348E-03    -230.096E-03     143.563E-03
             966     7.15058E-03     139.693E-03    -74.5949E+06    -75.3543E+06     10.0649E+06     2.34995E+06    -233.343E-03     463.678E-03    -230.335E-03     181.453E-03    -239.708E-03     469.481E-03    -230.067E-03     154.667E-03
             967     7.86589E-03     139.950E-03    -65.1313E+06    -31.1606E+06     28.1014E+06     3.93666E+06    -232.654E-03     462.927E-03    -230.272E-03     192.619E-03    -240.131E-03     469.980E-03    -229.992E-03     163.656E-03
             968     8.58197E-03     140.216E-03    -55.8221E+06     16.4388E+06     44.9194E+06     5.33373E+06    -231.674E-03     461.817E-03    -230.143E-03     200.076E-03    -240.095E-03     469.968E-03    -229.862E-03     169.476E-03
             969     9.29871E-03     140.492E-03    -47.5920E+06     42.0487E+06     56.8623E+06     6.64581E+06    -230.364E-03     460.339E-03    -229.975E-03     202.900E-03    -239.408E-03     469.199E-03    -229.683E-03     171.312E-03
             970     10.0169E-03     140.761E-03    -40.7541E+06     59.8225E+06     69.6135E+06     7.30933E+06    -228.493E-03     458.264E-03    -229.772E-03     200.527E-03    -237.754E-03     467.391E-03    -229.451E-03     168.714E-03
             971     10.7344E-03     141.026E-03    -33.5428E+06     77.8577E+06     85.8642E+06     7.07344E+06    -226.426E-03     455.955E-03    -229.529E-03     193.424E-03    -235.477E-03     464.915E-03    -229.164E-03     162.077E-03
             972     11.4535E-03     141.275E-03    -26.6264E+06     80.5145E+06     96.5178E+06     6.27202E+06    -224.189E-03     453.418E-03    -229.229E-03     182.840E-03    -232.692E-03     461.833E-03    -228.825E-03     152.441E-03
             973     12.1764E-03     141.502E-03    -19.0610E+06     88.5537E+06     102.505E+06     5.72624E+06    -221.980E-03     450.832E-03    -228.852E-03     164.891E-03    -229.390E-03     458.192E-03    -228.440E-03     136.406E-03
             974     12.8971E-03     141.696E-03    -11.5766E+06     98.1155E+06     104.743E+06     3.83072E+06    -220.542E-03     448.980E-03    -228.438E-03     150.092E-03    -227.153E-03     455.595E-03    -228.040E-03     122.794E-03
             975     13.6179E-03     141.880E-03    -6.03090E+06     99.3562E+06     102.618E+06     1.69510E+06    -219.503E-03     447.529E-03    -228.025E-03     107.360E-03    -223.854E-03     451.913E-03    -227.648E-03     85.7617E-03
             976     714.974E-06     139.867E-03    -145.848E+06    -318.181E+06    -143.419E+06     421.497E+03    -230.237E-03     460.881E-03    -230.644E-03     22.7354E-03    -230.377E-03     459.790E-03    -230.689E-03     19.9960E-03
             977     1.42993E-03     139.910E-03    -142.191E+06    -304.059E+06    -132.880E+06    -66.6239E+03    -230.945E-03     461.414E-03    -230.469E-03     41.4249E-03    -231.270E-03     460.541E-03    -230.486E-03     36.3681E-03
             978     2.14445E-03     139.982E-03    -136.967E+06    -287.458E+06    -117.113E+06    -973.857E+03    -231.446E-03     462.057E-03    -230.611E-03     61.1018E-03    -232.078E-03     461.522E-03    -230.581E-03     53.5271E-03
             979     2.85867E-03     140.081E-03    -129.533E+06    -273.745E+06    -97.7868E+06    -1.15384E+06    -231.909E-03     462.657E-03    -230.747E-03     80.4608E-03    -232.961E-03     462.560E-03    -230.652E-03     70.2745E-03
             980     3.57310E-03     140.208E-03    -121.019E+06    -244.935E+06    -79.9790E+06    -1.66872E+06    -232.401E-03     463.227E-03    -230.826E-03     99.2629E-03    -234.017E-03     463.776E-03    -230.695E-03     86.3421E-03
             981     4.28777E-03     140.359E-03    -112.478E+06    -209.363E+06    -62.9702E+06    -1.75692E+06    -232.946E-03     463.825E-03    -230.878E-03     117.441E-03    -235.270E-03     465.188E-03    -230.726E-03     101.708E-03
             982     5.00148E-03     140.535E-03    -103.566E+06    -185.008E+06    -44.6907E+06    -1.27683E+06    -233.388E-03     464.330E-03    -230.942E-03     134.894E-03    -236.540E-03     466.587E-03    -230.747E-03     116.301E-03
             983     5.71640E-03     140.734E-03    -94.1483E+06    -153.361E+06    -26.2898E+06    -1.36729E+06    -233.673E-03     464.648E-03    -230.975E-03     151.451E-03    -237.794E-03     467.967E-03    -230.748E-03     129.974E-03
             984     6.43138E-03     140.954E-03    -84.6694E+06    -116.178E+06    -8.69440E+06    -1.36691E+06    -233.753E-03     464.723E-03    -230.970E-03     166.986E-03    -238.961E-03     469.243E-03    -230.722E-03     142.692E-03
             985     7.14548E-03     141.194E-03    -75.4041E+06    -79.8512E+06     8.05310E+06    -147.602E+03    -233.339E-03     464.259E-03    -230.920E-03     180.528E-03    -239.675E-03     470.020E-03    -230.655E-03     153.693E-03
             986     7.86176E-03     141.447E-03    -66.4177E+06    -37.4447E+06     25.1866E+06     2.42940E+06    -232.563E-03     463.370E-03    -230.808E-03     191.347E-03    -239.989E-03     470.355E-03    -230.531E-03     162.386E-03
             987     8.57798E-03     141.716E-03    -58.9240E+06     10.3752E+06     41.5686E+06     5.30115E+06    -231.298E-03     461.925E-03    -230.627E-03     198.546E-03    -239.666E-03     469.999E-03    -230.348E-03     168.013E-03
             988     9.29520E-03     141.986E-03    -52.0863E+06     38.7165E+06     53.5819E+06     7.01318E+06    -229.640E-03     460.030E-03    -230.389E-03     201.307E-03    -238.623E-03     468.810E-03    -230.102E-03     169.887E-03
             989     10.0126E-03     142.257E-03    -44.2077E+06     59.4147E+06     67.9356E+06     6.99736E+06    -227.720E-03     457.834E-03    -230.114E-03     199.297E-03    -236.929E-03     466.900E-03    -229.796E-03     167.654E-03
             990     10.7319E-03     142.517E-03    -35.8592E+06     78.2338E+06     84.8448E+06     6.16036E+06    -225.156E-03     454.942E-03    -229.786E-03     192.479E-03    -234.157E-03     463.848E-03    -229.424E-03     161.369E-03
             991     11.4537E-03     142.763E-03    -27.0880E+06     80.4135E+06     96.0081E+06     6.14120E+06    -222.754E-03     452.143E-03    -229.389E-03     181.747E-03    -231.193E-03     460.493E-03    -228.987E-03     151.630E-03
             992     12.1731E-03     142.989E-03    -19.2824E+06     90.6156E+06     103.368E+06     4.99737E+06    -220.766E-03     449.697E-03    -228.930E-03     164.094E-03    -228.139E-03     457.023E-03    -228.517E-03     135.804E-03
             993     12.8954E-03     143.182E-03    -12.3682E+06     101.322E+06     106.235E+06     3.24059E+06    -218.776E-03     447.206E-03    -228.431E-03     150.809E-03    -225.379E-03     453.817E-03    -228.028E-03     123.777E-03
             994     13.6194E-03     143.363E-03    -5.15872E+06     102.380E+06     104.966E+06     1.84647E+06    -217.055E-03     444.960E-03    -227.904E-03     108.970E-03    -221.419E-03     449.365E-03    -227.521E-03     87.5858E-03
             995     714.485E-06     141.368E-03    -148.535E+06    -317.648E+06    -145.922E+06      -625.5E+03    -231.291E-03     462.432E-03    -231.140E-03     22.6480E-03    -231.441E-03     461.350E-03    -231.194E-03     19.8822E-03
             996     1.42809E-03     141.413E-03    -144.068E+06    -303.024E+06    -135.593E+06    -934.672E+03    -231.885E-03     463.161E-03    -231.276E-03     41.1518E-03    -232.215E-03     462.298E-03    -231.306E-03     36.0662E-03
             997     2.14190E-03     141.485E-03    -138.923E+06    -285.751E+06    -119.714E+06    -963.255E+03    -232.273E-03     463.725E-03    -231.452E-03     60.5353E-03    -232.910E-03     463.202E-03    -231.435E-03     52.9226E-03
             998     2.85603E-03     141.585E-03    -131.997E+06    -271.342E+06    -101.390E+06    -2.27691E+06    -232.648E-03     464.225E-03    -231.577E-03     79.8001E-03    -233.707E-03     464.147E-03    -231.499E-03     69.5350E-03
             999     3.56997E-03     141.711E-03    -123.443E+06    -243.660E+06    -82.7462E+06    -2.96542E+06    -233.095E-03     464.740E-03    -231.645E-03     98.6669E-03    -234.717E-03     465.299E-03    -231.526E-03     85.6603E-03
            1000     4.28368E-03     141.863E-03    -114.350E+06    -208.982E+06    -64.2997E+06    -3.31611E+06    -233.508E-03     465.189E-03    -231.681E-03     116.865E-03    -235.835E-03     466.555E-03    -231.533E-03     101.040E-03
            1001     4.99829E-03     142.039E-03    -104.658E+06    -184.234E+06    -46.2880E+06    -3.90519E+06    -233.819E-03     465.524E-03    -231.706E-03     134.208E-03    -236.963E-03     467.777E-03    -231.518E-03     115.530E-03
            1002     5.71231E-03     142.237E-03    -94.9604E+06    -153.706E+06    -28.5380E+06    -4.01366E+06    -234.000E-03     465.695E-03    -231.696E-03     150.742E-03    -238.106E-03     469.002E-03    -231.478E-03     129.178E-03
            1003     6.42629E-03     142.457E-03    -85.5309E+06    -118.095E+06    -10.3966E+06    -3.43485E+06    -233.796E-03     465.441E-03    -231.645E-03     165.822E-03    -238.970E-03     469.922E-03    -231.402E-03     141.501E-03
            1004     7.14240E-03     142.694E-03    -76.4782E+06    -84.3444E+06     6.15278E+06    -1.96701E+06    -233.303E-03     464.845E-03    -231.542E-03     179.114E-03    -239.589E-03     470.542E-03    -231.278E-03     152.281E-03
            1005     7.85696E-03     142.949E-03    -67.9222E+06    -46.6408E+06     21.9590E+06     1.31431E+06    -232.386E-03     463.762E-03    -231.376E-03     189.917E-03    -239.750E-03     470.656E-03    -231.101E-03     160.986E-03
            1006     8.57313E-03     143.212E-03    -58.8277E+06     1.49525E+06     39.2894E+06     5.91467E+06    -230.743E-03     461.872E-03    -231.129E-03     197.048E-03    -239.018E-03     469.829E-03    -230.849E-03     166.684E-03
            1007     9.29062E-03     143.482E-03    -49.4846E+06     37.5115E+06     53.6614E+06     7.71234E+06    -228.695E-03     459.492E-03    -230.798E-03     200.206E-03    -237.578E-03     468.177E-03    -230.512E-03     169.051E-03
            1008     10.0098E-03     143.750E-03    -40.7538E+06     59.4223E+06     68.7233E+06     7.20856E+06    -226.304E-03     456.713E-03    -230.409E-03     198.532E-03    -235.404E-03     465.680E-03    -230.092E-03     167.261E-03
            1009     10.7299E-03     144.008E-03    -32.8940E+06     78.1514E+06     85.2299E+06     7.29182E+06    -223.706E-03     453.668E-03    -229.962E-03     191.640E-03    -232.597E-03     462.473E-03    -229.602E-03     160.941E-03
            1010     11.4501E-03     144.249E-03    -25.7131E+06     82.1535E+06     95.8624E+06     6.01979E+06    -221.129E-03     450.577E-03    -229.448E-03     182.308E-03    -229.497E-03     458.868E-03    -229.051E-03     152.606E-03
            1011     12.1745E-03     144.475E-03    -17.9513E+06     90.6642E+06     104.475E+06     4.96959E+06    -218.689E-03     447.560E-03    -228.871E-03     166.330E-03    -226.027E-03     454.854E-03    -228.454E-03     138.504E-03
            1012     12.8987E-03     144.662E-03    -10.9616E+06     104.817E+06     110.209E+06     4.38929E+06    -216.386E-03     444.629E-03    -228.243E-03     153.013E-03    -222.968E-03     451.225E-03    -227.828E-03     126.462E-03
            1013     13.6240E-03     144.843E-03    -4.61778E+06     106.649E+06     109.192E+06     2.05026E+06    -215.161E-03     442.764E-03    -227.604E-03     111.496E-03    -219.547E-03     447.196E-03    -227.206E-03     90.3212E-03
            1014     713.333E-06     142.874E-03    -149.430E+06    -314.585E+06    -147.855E+06    -554.204E+03    -232.479E-03     464.636E-03    -232.157E-03     22.6389E-03    -232.635E-03     463.573E-03    -232.223E-03     19.8816E-03
            1015     1.42709E-03     142.920E-03    -147.042E+06    -301.599E+06    -138.530E+06    -1.25764E+06    -232.661E-03     464.971E-03    -232.310E-03     41.2806E-03    -233.004E-03     464.123E-03    -232.352E-03     36.1776E-03
            1016     2.14029E-03     142.992E-03    -140.997E+06    -283.766E+06    -123.318E+06    -2.41783E+06    -233.052E-03     465.439E-03    -232.387E-03     60.5760E-03    -233.698E-03     464.935E-03    -232.388E-03     52.8998E-03
            1017     2.85336E-03     143.091E-03    -133.368E+06    -266.269E+06    -104.505E+06    -3.45668E+06    -233.464E-03     465.935E-03    -232.470E-03     79.7385E-03    -234.532E-03     465.887E-03    -232.414E-03     69.4057E-03
            1018     3.56671E-03     143.217E-03    -124.926E+06    -240.314E+06    -84.5672E+06    -5.18636E+06    -233.813E-03     466.334E-03    -232.522E-03     98.4834E-03    -235.443E-03     466.913E-03    -232.415E-03     85.3886E-03
            1019     4.28040E-03     143.369E-03    -115.320E+06    -207.975E+06    -65.4202E+06    -5.87078E+06    -234.088E-03     466.616E-03    -232.529E-03     116.456E-03    -236.412E-03     467.982E-03    -232.387E-03     100.545E-03
            1020     4.99364E-03     143.544E-03    -106.083E+06    -181.496E+06    -47.1419E+06    -6.20731E+06    -234.336E-03     466.853E-03    -232.516E-03     133.542E-03    -237.479E-03     469.111E-03    -232.335E-03     114.771E-03
            1021     5.70758E-03     143.742E-03    -97.0385E+06    -153.461E+06    -30.2714E+06    -7.01166E+06    -234.290E-03     466.755E-03    -232.465E-03     149.788E-03    -238.377E-03     470.041E-03    -232.253E-03     128.171E-03
            1022     6.42237E-03     143.960E-03     -87.585E+06    -121.550E+06    -13.4340E+06    -6.26093E+06    -233.895E-03     466.253E-03    -232.359E-03     164.636E-03    -239.027E-03     470.682E-03    -232.123E-03     140.308E-03
            1023     7.13605E-03     144.197E-03    -78.1776E+06    -89.3547E+06     3.35486E+06    -4.42976E+06    -233.092E-03     465.283E-03    -232.191E-03     177.923E-03    -239.317E-03     470.904E-03    -231.931E-03     151.150E-03
            1024     7.85245E-03     144.449E-03    -67.9387E+06    -54.9921E+06     19.5556E+06    -1.98860E+06    -231.708E-03     463.643E-03    -231.935E-03     188.822E-03    -238.979E-03     470.421E-03    -231.659E-03     160.060E-03
            1025     8.56948E-03     144.710E-03    -57.1677E+06    -10.8058E+06     35.8354E+06     1.88463E+06    -229.720E-03     461.288E-03    -231.569E-03     196.230E-03    -237.870E-03     469.093E-03    -231.291E-03     166.122E-03
            1026     9.28768E-03     144.977E-03    -47.1919E+06     33.7522E+06     51.6261E+06     5.56536E+06    -227.149E-03     458.241E-03    -231.092E-03     199.911E-03    -235.901E-03     466.796E-03    -230.814E-03     169.186E-03
            1027     10.0076E-03     145.241E-03    -39.0721E+06     56.3163E+06     65.8159E+06     7.92184E+06    -224.332E-03     454.869E-03    -230.537E-03     199.101E-03    -233.296E-03     463.703E-03    -230.233E-03     168.441E-03
            1028     10.7291E-03     145.497E-03    -32.6027E+06     75.9447E+06     81.1195E+06     9.78511E+06    -221.446E-03     451.356E-03    -229.910E-03     193.632E-03    -230.227E-03     460.056E-03    -229.567E-03     163.646E-03
            1029     11.4537E-03     145.735E-03    -26.4223E+06     88.9281E+06     96.2235E+06     8.17905E+06    -218.802E-03     448.038E-03    -229.237E-03     185.233E-03    -227.123E-03     456.303E-03    -228.846E-03     156.199E-03
            1030     12.1781E-03     145.955E-03    -20.3555E+06     92.2807E+06     106.145E+06     4.41415E+06    -216.542E-03     445.072E-03    -228.530E-03     169.356E-03    -223.859E-03     452.337E-03    -228.104E-03     142.081E-03
            1031     12.9041E-03     146.143E-03    -12.9833E+06     105.719E+06     112.651E+06     3.68744E+06    -214.892E-03     442.699E-03    -227.807E-03     155.038E-03    -221.471E-03     449.281E-03    -227.378E-03     128.819E-03
            1032     13.6316E-03     146.316E-03    -5.58399E+06     111.043E+06     113.294E+06     2.85510E+06    -215.020E-03     442.161E-03    -227.141E-03     113.556E-03    -219.436E-03     446.623E-03    -226.728E-03     92.4515E-03
            1033     712.555E-06     144.383E-03    -149.959E+06    -312.514E+06    -148.218E+06     41.7441E+03    -233.593E-03     467.172E-03    -233.579E-03     22.0499E-03    -233.753E-03     466.120E-03    -233.650E-03     19.2924E-03
            1034     1.42498E-03     144.428E-03    -147.154E+06    -296.378E+06    -139.805E+06    -2.37348E+06    -233.426E-03     466.900E-03    -233.474E-03     40.8042E-03    -233.775E-03     466.081E-03    -233.530E-03     35.6350E-03
            1035     2.13800E-03     144.501E-03    -142.233E+06    -279.630E+06    -124.545E+06    -3.74564E+06    -233.710E-03     467.112E-03    -233.401E-03     60.1275E-03    -234.365E-03     466.629E-03    -233.412E-03     52.3924E-03
            1036     2.85091E-03     144.600E-03    -134.780E+06    -259.992E+06    -106.162E+06    -5.46208E+06    -234.133E-03     467.527E-03    -233.394E-03     79.2977E-03    -235.209E-03     467.509E-03    -233.352E-03     68.9124E-03
            1037     3.56358E-03     144.726E-03    -126.033E+06    -234.466E+06    -86.5603E+06    -7.52508E+06    -234.460E-03     467.853E-03    -233.393E-03     98.0765E-03    -236.090E-03     468.454E-03    -233.303E-03     84.9342E-03
            1038     4.27640E-03     144.876E-03    -117.469E+06    -206.382E+06    -67.5732E+06    -8.44450E+06    -234.739E-03     468.109E-03    -233.371E-03     116.080E-03    -237.059E-03     469.476E-03    -233.239E-03     100.118E-03
            1039     4.98985E-03     145.052E-03    -108.147E+06    -178.836E+06    -49.0441E+06    -8.62173E+06    -234.794E-03     468.114E-03    -233.319E-03     133.134E-03    -237.928E-03     470.371E-03    -233.148E-03     114.331E-03
            1040     5.70316E-03     145.248E-03    -98.6142E+06    -151.415E+06    -31.3118E+06    -9.13457E+06    -234.415E-03     467.626E-03    -233.211E-03     149.248E-03    -238.476E-03     470.889E-03    -233.005E-03     127.672E-03
            1041     6.41688E-03     145.465E-03    -89.4617E+06    -122.951E+06    -15.3117E+06    -9.36143E+06    -233.666E-03     466.681E-03    -233.015E-03     164.566E-03    -238.759E-03     471.065E-03    -232.784E-03     140.338E-03
            1042     7.13273E-03     145.701E-03    -79.7226E+06    -92.3083E+06     698.462E+03    -8.31657E+06    -232.422E-03     465.148E-03    -232.726E-03     178.117E-03    -238.583E-03     470.696E-03    -232.473E-03     151.559E-03
            1043     7.84856E-03     145.948E-03    -70.2461E+06    -61.4201E+06     15.9031E+06    -6.85345E+06    -230.485E-03     462.807E-03    -232.322E-03     189.415E-03    -237.664E-03     469.472E-03    -232.051E-03     161.007E-03
            1044     8.56620E-03     146.208E-03    -61.6536E+06    -23.0652E+06     30.2528E+06    -3.40125E+06    -227.907E-03     459.682E-03    -231.775E-03     197.497E-03    -235.948E-03     467.334E-03    -231.501E-03     167.900E-03
            1045     9.28652E-03     146.468E-03    -54.2214E+06     23.0623E+06     44.4292E+06     2.42978E+06    -224.946E-03     456.036E-03    -231.090E-03     201.871E-03    -233.586E-03     464.437E-03    -230.823E-03     171.824E-03
            1046     10.0090E-03     146.731E-03    -47.5523E+06     50.2225E+06     56.3229E+06     6.36586E+06    -221.702E-03     452.012E-03    -230.310E-03     201.722E-03    -230.556E-03     460.712E-03    -230.033E-03     171.875E-03
            1047     10.7340E-03     146.979E-03    -39.4625E+06     73.3503E+06     72.0692E+06     7.00937E+06    -218.641E-03     448.114E-03    -229.473E-03     196.705E-03    -227.318E-03     456.703E-03    -229.162E-03     167.546E-03
            1048     11.4598E-03     147.216E-03    -29.7422E+06     92.7546E+06     92.3286E+06     6.52716E+06    -216.551E-03     445.193E-03    -228.643E-03     188.538E-03    -224.792E-03     453.390E-03    -228.272E-03     160.236E-03
            1049     12.1868E-03     147.434E-03    -20.9138E+06     97.2003E+06     107.832E+06     5.22136E+06    -215.275E-03     443.134E-03    -227.859E-03     172.627E-03    -222.553E-03     450.370E-03    -227.431E-03     145.885E-03
            1050     12.9143E-03     147.619E-03    -13.4660E+06     109.166E+06     116.511E+06     2.95689E+06    -215.411E-03     442.556E-03    -227.145E-03     158.568E-03    -222.041E-03     449.187E-03    -226.701E-03     132.400E-03
            1051     13.6389E-03     147.796E-03    -6.72430E+06     112.539E+06     115.009E+06     1.58664E+06    -216.680E-03     443.234E-03    -226.554E-03     116.273E-03    -221.165E-03     447.761E-03    -226.132E-03     94.9307E-03
            1052     711.116E-06     145.895E-03    -150.088E+06    -307.136E+06    -150.247E+06    -2.72910E+06    -234.726E-03     469.290E-03    -234.564E-03     22.1426E-03    -234.893E-03     468.270E-03    -234.652E-03     19.2974E-03
            1053     1.42343E-03     145.940E-03    -147.217E+06    -290.527E+06    -140.074E+06    -3.24505E+06    -234.410E-03     468.928E-03    -234.518E-03     40.9995E-03    -234.768E-03     468.139E-03    -234.584E-03     35.7892E-03
            1054     2.13556E-03     146.012E-03    -142.208E+06    -273.178E+06    -124.273E+06    -4.67640E+06    -234.492E-03     468.885E-03    -234.392E-03     60.4090E-03    -235.155E-03     468.433E-03    -234.411E-03     52.6471E-03
            1055     2.84778E-03     146.112E-03    -135.050E+06    -251.677E+06    -106.329E+06    -7.16401E+06    -234.749E-03     469.055E-03    -234.305E-03     79.3192E-03    -235.832E-03     469.072E-03    -234.276E-03     68.9179E-03
            1056     3.56046E-03     146.236E-03    -127.129E+06    -228.868E+06    -88.0667E+06    -9.04634E+06    -235.029E-03     469.265E-03    -234.236E-03     97.8728E-03    -236.654E-03     469.881E-03    -234.160E-03     84.7555E-03
            1057     4.27314E-03     146.387E-03    -118.503E+06    -202.256E+06    -68.7428E+06    -9.92915E+06    -235.059E-03     469.207E-03    -234.148E-03     115.950E-03    -237.364E-03     470.572E-03    -234.027E-03     100.053E-03
            1058     4.98559E-03     146.561E-03    -109.438E+06    -175.057E+06    -50.1397E+06    -11.0496E+06    -234.671E-03     468.666E-03    -233.995E-03     133.348E-03    -237.778E-03     470.908E-03    -233.833E-03     114.681E-03
            1059     5.69944E-03     146.756E-03    -100.028E+06    -149.112E+06    -32.8960E+06    -11.6109E+06    -233.942E-03     467.691E-03    -233.749E-03     150.076E-03    -237.966E-03     470.927E-03    -233.552E-03     128.711E-03
            1060     6.41446E-03     146.971E-03    -90.7561E+06    -120.825E+06    -16.2989E+06    -11.8010E+06    -232.671E-03     466.063E-03    -233.393E-03     165.870E-03    -237.708E-03     470.397E-03    -233.167E-03     141.997E-03
            1061     7.13002E-03     147.203E-03    -82.1129E+06    -94.0367E+06    -1.44734E+06    -11.5011E+06    -230.757E-03     463.658E-03    -232.901E-03     180.208E-03    -236.839E-03     469.119E-03    -232.653E-03     154.172E-03
            1062     7.84805E-03     147.448E-03    -73.8447E+06    -65.7538E+06     12.4677E+06    -9.46717E+06    -228.274E-03     460.533E-03    -232.259E-03     192.431E-03    -235.350E-03     467.078E-03    -231.995E-03     164.742E-03
            1063     8.56895E-03     147.701E-03    -65.4483E+06    -32.2255E+06     26.3318E+06    -6.13631E+06    -225.467E-03     456.940E-03    -231.473E-03     201.518E-03    -233.388E-03     464.438E-03    -231.200E-03     172.766E-03
            1064     9.29127E-03     147.960E-03    -55.7931E+06     7.38951E+06     40.7242E+06    -94.0138E+03    -222.353E-03     452.918E-03    -230.565E-03     206.143E-03    -230.842E-03     461.117E-03    -230.291E-03     177.016E-03
            1065     10.0161E-03     148.213E-03    -45.3597E+06     45.6518E+06     55.4831E+06     4.75091E+06    -219.210E-03     448.786E-03    -229.576E-03     206.086E-03    -227.907E-03     457.323E-03    -229.299E-03     177.191E-03
            1066     10.7428E-03     148.460E-03    -36.0177E+06     73.2399E+06     71.9449E+06     5.40113E+06    -216.812E-03     445.397E-03    -228.585E-03     201.287E-03    -225.350E-03     453.858E-03    -228.279E-03     172.977E-03
            1067     11.4710E-03     148.693E-03    -28.3793E+06     93.0617E+06     92.0866E+06     4.80115E+06    -215.336E-03     443.006E-03    -227.670E-03     192.885E-03    -223.463E-03     451.096E-03    -227.303E-03     165.315E-03
            1068     12.1995E-03     148.910E-03    -20.0195E+06     101.378E+06     108.108E+06     3.77060E+06    -215.369E-03     442.240E-03    -226.871E-03     176.875E-03    -222.592E-03     449.439E-03    -226.449E-03     150.568E-03
            1069     12.9253E-03     149.096E-03    -12.0721E+06     110.155E+06     117.573E+06     3.42178E+06    -217.241E-03     443.483E-03    -226.243E-03     163.974E-03    -223.913E-03     450.163E-03    -225.797E-03     137.804E-03
            1070     13.6491E-03     149.279E-03    -6.48408E+06     114.954E+06     117.653E+06     2.49640E+06    -219.149E-03     444.949E-03    -225.800E-03     120.668E-03    -223.711E-03     449.555E-03    -225.369E-03     99.1005E-03
            1071     711.729E-06     147.412E-03    -151.964E+06    -297.322E+06    -148.603E+06    -3.12918E+06    -235.308E-03     470.219E-03    -234.910E-03     22.4874E-03    -235.501E-03     469.248E-03    -235.002E-03     19.6414E-03
            1072     1.42254E-03     147.454E-03    -147.839E+06    -284.743E+06    -139.092E+06    -4.30784E+06    -235.362E-03     470.448E-03    -235.086E-03     41.4252E-03    -235.731E-03     469.685E-03    -235.154E-03     36.2266E-03
            1073     2.13408E-03     147.527E-03    -141.675E+06    -265.257E+06    -123.885E+06    -5.97150E+06    -235.390E-03     470.466E-03    -235.076E-03     60.8871E-03    -236.056E-03     470.047E-03    -235.105E-03     53.1692E-03
            1074     2.84596E-03     147.625E-03    -134.785E+06    -243.985E+06    -105.658E+06    -7.56457E+06    -235.362E-03     470.367E-03    -235.004E-03     79.8022E-03    -236.445E-03     470.410E-03    -234.983E-03     69.4741E-03
            1075     3.55764E-03     147.750E-03    -127.528E+06    -221.540E+06    -87.1591E+06    -9.61899E+06    -235.115E-03     469.973E-03    -234.858E-03     98.6763E-03    -236.737E-03     470.608E-03    -234.788E-03     85.6916E-03
            1076     4.26988E-03     147.899E-03    -119.068E+06    -196.585E+06    -68.9974E+06    -11.4923E+06    -234.538E-03     469.146E-03    -234.608E-03     117.436E-03    -236.824E-03     470.511E-03    -234.495E-03     101.778E-03
            1077     4.98401E-03     148.071E-03    -109.966E+06    -169.976E+06    -50.7557E+06    -12.4844E+06    -233.652E-03     467.897E-03    -234.245E-03     135.581E-03    -236.728E-03     470.127E-03    -234.093E-03     117.275E-03
            1078     5.69863E-03     148.263E-03    -101.083E+06    -145.218E+06    -33.4169E+06    -13.3110E+06    -232.378E-03     466.143E-03    -233.765E-03     153.173E-03    -236.354E-03     469.341E-03    -233.574E-03     132.332E-03
            1079     6.41448E-03     148.475E-03    -92.4193E+06    -118.981E+06    -17.2648E+06    -13.2949E+06    -230.558E-03     463.703E-03    -233.146E-03     169.879E-03    -235.522E-03     467.968E-03    -232.926E-03     146.717E-03
            1080     7.13322E-03     148.702E-03    -83.6296E+06    -94.2979E+06    -1.97366E+06    -12.6801E+06    -228.123E-03     460.501E-03    -232.378E-03     185.008E-03    -234.106E-03     465.858E-03    -232.130E-03     159.862E-03
            1081     7.85446E-03     148.942E-03    -74.5612E+06    -67.5145E+06     12.1833E+06    -11.6127E+06    -225.423E-03     456.885E-03    -231.462E-03     197.570E-03    -232.365E-03     463.287E-03    -231.195E-03     170.897E-03
            1082     8.57712E-03     149.192E-03    -64.7195E+06    -38.6886E+06     25.9986E+06    -9.53950E+06    -222.550E-03     452.979E-03    -230.429E-03     206.871E-03    -230.291E-03     460.277E-03    -230.149E-03     179.224E-03
            1083     9.30266E-03     149.445E-03    -54.3262E+06    -6.18976E+06     40.0427E+06    -6.03034E+06    -219.647E-03     448.963E-03    -229.316E-03     211.913E-03    -227.930E-03     456.915E-03    -229.028E-03     183.896E-03
            1084     10.0304E-03     149.694E-03    -43.5796E+06     37.4052E+06     55.1955E+06    -1.28096E+06    -217.487E-03     445.665E-03    -228.177E-03     212.303E-03    -226.001E-03     453.997E-03    -227.893E-03     184.394E-03
            1085     10.7590E-03     149.938E-03    -33.5120E+06     68.5736E+06     71.1391E+06     3.19788E+06    -216.138E-03     443.262E-03    -227.124E-03     207.422E-03    -224.517E-03     451.559E-03    -226.819E-03     179.979E-03
            1086     11.4874E-03     150.168E-03    -25.0079E+06     92.5055E+06     89.3839E+06     6.08880E+06    -215.923E-03     442.145E-03    -226.222E-03     198.996E-03    -223.933E-03     450.136E-03    -225.873E-03     172.092E-03
            1087     12.2149E-03     150.386E-03    -19.2116E+06     105.312E+06     105.967E+06     5.50923E+06    -217.395E-03     442.930E-03    -225.535E-03     183.688E-03    -224.596E-03     450.130E-03    -225.130E-03     157.703E-03
            1088     12.9406E-03     150.577E-03    -13.5416E+06     110.025E+06     118.425E+06     3.59095E+06    -219.878E-03     444.971E-03    -225.093E-03     170.689E-03    -226.586E-03     451.679E-03    -224.641E-03     144.570E-03
            1089     13.6634E-03     150.763E-03    -4.94035E+06     117.632E+06     121.586E+06     2.73822E+06    -223.195E-03     448.062E-03    -224.867E-03     125.488E-03    -227.802E-03     452.717E-03    -224.422E-03     103.678E-03
            1090     711.182E-06     148.927E-03    -150.869E+06    -287.773E+06    -149.027E+06    -2.08156E+06    -235.430E-03     470.556E-03    -235.126E-03     22.6148E-03    -235.628E-03     469.629E-03    -235.235E-03     19.8556E-03
            1091     1.42256E-03     148.972E-03    -147.153E+06    -275.974E+06    -138.262E+06    -4.85113E+06    -235.688E-03     470.969E-03    -235.281E-03     41.7176E-03    -236.060E-03     470.240E-03    -235.359E-03     36.6442E-03
            1092     2.13333E-03     149.042E-03    -141.258E+06    -257.260E+06    -123.245E+06    -7.00692E+06    -235.521E-03     470.799E-03    -235.278E-03     61.6241E-03    -236.186E-03     470.407E-03    -235.317E-03     54.0531E-03
            1093     2.84445E-03     149.141E-03    -134.612E+06    -237.052E+06    -105.469E+06    -8.31123E+06    -234.924E-03     470.024E-03    -235.100E-03     81.8376E-03    -236.005E-03     470.091E-03    -235.088E-03     71.7227E-03
            1094     3.55698E-03     149.263E-03    -126.134E+06    -213.513E+06    -85.4319E+06    -9.54854E+06    -234.098E-03     468.853E-03    -234.755E-03     101.737E-03    -235.707E-03     469.504E-03    -234.690E-03     89.1046E-03
            1095     4.27133E-03     149.410E-03    -117.626E+06    -189.154E+06    -66.6780E+06    -11.6524E+06    -232.979E-03     467.237E-03    -234.258E-03     121.283E-03    -235.239E-03     468.601E-03    -234.147E-03     106.124E-03
            1096     4.98598E-03     149.579E-03    -109.272E+06    -165.153E+06    -49.2529E+06    -12.8279E+06    -231.491E-03     465.106E-03    -233.615E-03     140.255E-03    -234.518E-03     467.302E-03    -233.464E-03     122.624E-03
            1097     5.70308E-03     149.768E-03    -100.742E+06    -139.882E+06    -31.5005E+06    -13.0956E+06    -229.587E-03     462.416E-03    -232.829E-03     158.724E-03    -233.491E-03     465.557E-03    -232.637E-03     138.775E-03
            1098     6.42280E-03     149.975E-03    -92.0183E+06    -115.119E+06    -14.9793E+06    -13.7990E+06    -227.286E-03     459.180E-03    -231.894E-03     176.078E-03    -232.144E-03     463.346E-03    -231.668E-03     153.992E-03
            1099     7.14415E-03     150.197E-03    -82.9683E+06    -92.4747E+06         537.875    -14.0283E+06    -224.783E-03     455.610E-03    -230.828E-03     191.700E-03    -230.619E-03     460.823E-03    -230.573E-03     167.772E-03
            1100     7.86752E-03     150.432E-03    -73.5090E+06    -66.9683E+06     14.2375E+06    -14.0925E+06    -222.212E-03     451.868E-03    -229.656E-03     205.274E-03    -228.988E-03     458.104E-03    -229.382E-03     179.882E-03
            1101     8.59397E-03     150.676E-03    -64.3340E+06    -42.0174E+06     27.3287E+06    -13.1545E+06    -219.688E-03     448.110E-03    -228.422E-03     215.000E-03    -227.239E-03     455.204E-03    -228.131E-03     188.671E-03
            1102     9.32273E-03     150.923E-03    -55.6984E+06    -12.5838E+06     40.5548E+06    -10.7570E+06    -217.845E-03     445.033E-03    -227.188E-03     220.116E-03    -225.932E-03     452.759E-03    -226.886E-03     193.316E-03
            1103     10.0521E-03     151.171E-03    -47.6428E+06     26.5561E+06     52.8386E+06    -6.55631E+06    -216.808E-03     442.828E-03    -226.019E-03     220.207E-03    -225.135E-03     450.927E-03    -225.725E-03     193.346E-03
            1104     10.7812E-03     151.412E-03    -40.1063E+06     59.7870E+06     64.1533E+06    -1.73042E+06    -216.802E-03     441.809E-03    -225.008E-03     215.299E-03    -225.035E-03     449.927E-03    -224.715E-03     188.680E-03
            1105     11.5103E-03     151.643E-03    -32.4669E+06     87.4147E+06     76.5889E+06     1.49716E+06    -218.491E-03     442.727E-03    -224.235E-03     207.165E-03    -226.436E-03     450.645E-03    -223.932E-03     180.680E-03
            1106     12.2366E-03     151.865E-03    -23.3389E+06     104.056E+06     95.9091E+06     4.22090E+06    -221.406E-03     445.207E-03    -223.801E-03     191.531E-03    -228.623E-03     452.433E-03    -223.439E-03     165.582E-03
            1107     12.9588E-03     152.060E-03    -14.3812E+06     113.681E+06     118.530E+06     4.09548E+06    -225.220E-03     448.929E-03    -223.709E-03     176.739E-03    -231.989E-03     455.707E-03    -223.260E-03     150.293E-03
            1108     13.6786E-03     152.250E-03    -8.40805E+06     120.252E+06     124.560E+06     1.54756E+06    -230.366E-03     454.244E-03    -223.878E-03     129.823E-03    -235.058E-03     458.973E-03    -223.418E-03     107.397E-03
            1109     711.289E-06     150.443E-03    -147.888E+06    -278.199E+06    -145.620E+06    -3.04730E+06    -235.212E-03     469.930E-03    -234.717E-03     23.4515E-03    -235.413E-03     469.040E-03    -234.828E-03     20.7551E-03
            1110     1.42227E-03     150.489E-03    -143.796E+06    -265.997E+06    -135.280E+06    -4.58031E+06    -234.521E-03     469.295E-03    -234.774E-03     43.4486E-03    -234.890E-03     468.602E-03    -234.856E-03     38.5665E-03
            1111     2.13414E-03     150.559E-03    -139.014E+06    -248.964E+06    -120.136E+06    -6.59851E+06    -233.866E-03     468.303E-03    -234.436E-03     64.4470E-03    -234.528E-03     467.935E-03    -234.474E-03     57.1918E-03
            1112     2.84767E-03     150.654E-03    -132.042E+06    -228.740E+06    -102.410E+06    -8.85392E+06    -232.934E-03     466.894E-03    -233.960E-03     85.7159E-03    -233.998E-03     466.975E-03    -233.949E-03     76.0548E-03
            1113     3.56223E-03     150.774E-03    -123.999E+06    -206.950E+06    -83.1103E+06    -10.2476E+06    -231.709E-03     465.051E-03    -233.342E-03     106.412E-03    -233.286E-03     465.693E-03    -233.278E-03     94.3877E-03
            1114     4.27734E-03     150.917E-03    -115.273E+06    -182.655E+06    -63.2810E+06    -10.8045E+06    -230.017E-03     462.582E-03    -232.565E-03     126.888E-03    -232.221E-03     463.911E-03    -232.450E-03     112.563E-03
            1115     4.99580E-03     151.081E-03    -106.433E+06    -158.584E+06    -44.1682E+06    -11.8428E+06    -227.968E-03     459.588E-03    -231.619E-03     147.106E-03    -230.917E-03     461.723E-03    -231.456E-03     130.519E-03
            1116     5.71602E-03     151.266E-03    -97.3246E+06    -134.228E+06    -26.6032E+06    -12.7390E+06    -225.659E-03     456.174E-03    -230.515E-03     166.436E-03    -229.449E-03     459.218E-03    -230.312E-03     147.710E-03
            1117     6.43832E-03     151.467E-03    -88.1053E+06    -110.380E+06    -10.0470E+06    -13.1157E+06    -223.141E-03     452.419E-03    -229.278E-03     184.740E-03    -227.842E-03     456.443E-03    -229.040E-03     164.088E-03
            1118     7.16381E-03     151.685E-03    -79.2750E+06    -87.5819E+06     5.15634E+06    -13.8532E+06    -220.843E-03     448.790E-03    -227.948E-03     201.600E-03    -226.497E-03     453.836E-03    -227.680E-03     179.221E-03
            1119     7.89210E-03     151.915E-03    -71.3698E+06    -64.1507E+06     18.4805E+06    -14.0648E+06    -218.893E-03     445.475E-03    -226.581E-03     215.530E-03    -225.457E-03     451.503E-03    -226.293E-03     191.743E-03
            1120     8.62203E-03     152.154E-03    -64.0955E+06    -41.8369E+06     30.4854E+06    -13.0759E+06    -217.629E-03     442.885E-03    -225.256E-03     225.298E-03    -224.961E-03     449.752E-03    -224.950E-03     200.465E-03
            1121     9.35209E-03     152.399E-03    -57.0070E+06    -13.9889E+06     42.3237E+06    -11.8166E+06    -217.237E-03     441.280E-03    -224.043E-03     230.711E-03    -225.125E-03     448.792E-03    -223.728E-03     205.197E-03
            1122     10.0821E-03     152.645E-03    -49.4434E+06     16.9904E+06     53.6989E+06    -8.15874E+06    -217.761E-03     440.770E-03    -223.009E-03     230.848E-03    -225.907E-03     448.645E-03    -222.693E-03     205.036E-03
            1123     10.8125E-03     152.885E-03    -41.0873E+06     54.7104E+06     66.5262E+06    -4.09842E+06    -219.788E-03     442.018E-03    -222.229E-03     225.727E-03    -227.904E-03     449.990E-03    -221.916E-03     199.767E-03
            1124     11.5387E-03     153.122E-03    -31.6371E+06     83.0115E+06     77.7572E+06    -2.53776E+06    -223.460E-03     445.242E-03    -221.782E-03     217.111E-03    -231.355E-03     453.095E-03    -221.468E-03     190.826E-03
            1125     12.2613E-03     153.347E-03    -22.7204E+06     96.4965E+06     92.2959E+06    -190.096E+03    -228.418E-03     450.171E-03    -221.753E-03     200.437E-03    -235.663E-03     457.412E-03    -221.399E-03     174.165E-03
            1126     12.9798E-03     153.551E-03    -14.0493E+06     115.296E+06     115.440E+06     1.91624E+06    -234.387E-03     456.546E-03    -222.159E-03     184.168E-03    -241.291E-03     463.476E-03    -221.728E-03     156.769E-03
            1127     13.6901E-03     153.752E-03    -5.14927E+06     123.347E+06     127.442E+06     2.08597E+06    -240.356E-03     463.255E-03    -222.899E-03     135.879E-03    -245.166E-03     468.116E-03    -222.433E-03     112.489E-03
            1128     711.755E-06     151.959E-03    -141.011E+06    -267.535E+06    -139.654E+06    -2.50995E+06    -232.980E-03     465.484E-03    -232.504E-03     25.0865E-03    -233.170E-03     464.627E-03    -232.610E-03     22.5537E-03
            1129     1.42544E-03     152.000E-03    -139.256E+06    -257.184E+06    -130.200E+06    -4.64850E+06    -231.560E-03     463.934E-03    -232.374E-03     46.5098E-03    -231.924E-03     463.266E-03    -232.450E-03     41.9112E-03
            1130     2.14040E-03     152.068E-03    -133.103E+06    -240.076E+06    -114.366E+06    -6.35107E+06    -230.532E-03     462.270E-03    -231.737E-03     68.5045E-03    -231.169E-03     461.912E-03    -231.768E-03     61.7494E-03
            1131     2.85556E-03     152.160E-03    -125.533E+06    -220.315E+06    -95.4027E+06    -8.14951E+06    -229.305E-03     460.313E-03    -231.008E-03     90.6441E-03    -230.323E-03     460.378E-03    -230.984E-03     81.7116E-03
            1132     3.57232E-03     152.277E-03    -117.389E+06    -200.171E+06    -75.4337E+06    -9.52698E+06    -227.502E-03     457.630E-03    -230.128E-03     112.764E-03    -229.010E-03     458.228E-03    -230.045E-03     101.678E-03
            1133     4.29248E-03     152.415E-03    -108.273E+06    -177.398E+06    -55.8545E+06    -10.2394E+06    -225.318E-03     454.371E-03    -229.053E-03     134.570E-03    -227.421E-03     455.620E-03    -228.918E-03     121.412E-03
            1134     5.01410E-03     152.574E-03    -98.7923E+06    -152.525E+06    -37.1728E+06    -10.6263E+06    -222.899E-03     450.697E-03    -227.798E-03     156.179E-03    -225.707E-03     452.718E-03    -227.619E-03     141.013E-03
            1135     5.73865E-03     152.754E-03    -89.8289E+06    -128.784E+06    -19.6536E+06    -10.9695E+06    -220.400E-03     446.800E-03    -226.400E-03     177.058E-03    -224.012E-03     449.689E-03    -226.181E-03     159.980E-03
            1136     6.46661E-03     152.949E-03    -81.3758E+06    -106.199E+06    -3.42564E+06    -10.9126E+06    -218.337E-03     443.256E-03    -224.919E-03     196.817E-03    -222.834E-03     447.095E-03    -224.664E-03     177.934E-03
            1137     7.19676E-03     153.162E-03    -73.9294E+06    -82.4196E+06     11.6134E+06    -10.3442E+06    -216.942E-03     440.380E-03    -223.438E-03     214.289E-03    -222.367E-03     445.215E-03    -223.153E-03     193.736E-03
            1138     7.92796E-03     153.388E-03    -67.6208E+06    -60.1616E+06     24.7448E+06    -9.88703E+06    -216.337E-03     438.377E-03    -222.040E-03     228.358E-03    -222.658E-03     444.171E-03    -221.731E-03     206.332E-03
            1139     8.65989E-03     153.625E-03    -61.3395E+06    -39.2242E+06      36.219E+06    -9.71291E+06    -216.727E-03     437.529E-03    -220.802E-03     238.704E-03    -223.834E-03     444.173E-03    -220.475E-03     215.429E-03
            1140     9.39209E-03     153.870E-03    -54.7840E+06    -12.9407E+06     47.3845E+06    -8.72143E+06    -218.216E-03     438.008E-03    -219.791E-03     243.886E-03    -225.896E-03     445.310E-03    -219.456E-03     219.681E-03
            1141     10.1238E-03     154.115E-03    -48.1577E+06     13.9602E+06     58.5000E+06    -7.87250E+06    -221.186E-03     440.277E-03    -219.092E-03     243.348E-03    -229.167E-03     447.969E-03    -218.750E-03     218.413E-03
            1142     10.8501E-03     154.363E-03    -39.8126E+06     53.6952E+06     73.7985E+06    -7.19095E+06    -225.646E-03     444.419E-03    -218.773E-03     237.586E-03    -233.672E-03     452.283E-03    -218.424E-03     212.008E-03
            1143     11.5737E-03     154.603E-03    -31.3999E+06     79.0469E+06     84.2197E+06    -5.31794E+06    -231.624E-03     450.502E-03    -218.879E-03     227.829E-03    -239.499E-03     458.305E-03    -218.527E-03     201.457E-03
            1144     12.2917E-03     154.841E-03    -23.9350E+06     90.7273E+06     94.5005E+06    -3.45136E+06    -238.814E-03     458.275E-03    -219.462E-03     209.958E-03    -246.117E-03     465.544E-03    -219.086E-03     183.054E-03
            1145     13.0003E-03     155.055E-03    -16.5603E+06     113.845E+06     113.418E+06    -2.28718E+06    -246.060E-03     466.572E-03    -220.511E-03     192.661E-03    -253.135E-03     473.666E-03    -220.085E-03     164.040E-03
            1146     13.7052E-03     155.269E-03    -9.47698E+06     121.836E+06     125.417E+06    -598.358E+03    -253.065E-03     474.994E-03    -221.929E-03     142.389E-03    -258.007E-03     479.974E-03    -221.465E-03     117.951E-03
            1147     716.454E-06     153.463E-03    -133.646E+06    -258.698E+06    -132.710E+06    -2.62832E+06    -227.669E-03     455.253E-03    -227.584E-03     27.0956E-03    -227.841E-03     454.414E-03    -227.679E-03     24.8341E-03
            1148     1.43285E-03     153.501E-03    -130.057E+06    -247.733E+06    -121.763E+06    -4.87325E+06    -226.697E-03     453.978E-03    -227.282E-03     49.5371E-03    -227.026E-03     453.316E-03    -227.343E-03     45.4165E-03
            1149     2.15025E-03     153.566E-03    -124.731E+06    -231.962E+06    -106.637E+06    -6.58203E+06    -225.193E-03     451.803E-03    -226.610E-03     73.5400E-03    -225.783E-03     451.432E-03    -226.626E-03     67.5024E-03
            1150     2.87018E-03     153.655E-03    -118.004E+06    -213.069E+06    -87.8939E+06    -7.74453E+06    -223.310E-03     448.993E-03    -225.683E-03     97.4737E-03    -224.259E-03     449.018E-03    -225.643E-03     89.5402E-03
            1151     3.59264E-03     153.766E-03    -109.464E+06    -193.766E+06     -68.301E+06    -8.95349E+06    -221.005E-03     445.534E-03    -224.529E-03     121.268E-03    -222.407E-03     446.053E-03    -224.431E-03     111.471E-03
            1152     4.31666E-03     153.899E-03    -100.616E+06    -171.977E+06    -49.1456E+06    -9.22043E+06    -218.547E-03     441.716E-03    -223.169E-03     145.169E-03    -220.510E-03     442.849E-03    -223.019E-03     133.555E-03
            1153     5.04429E-03     154.053E-03    -92.5036E+06    -148.021E+06    -31.3296E+06    -8.94742E+06    -216.191E-03     437.847E-03    -221.656E-03     168.612E-03    -218.819E-03     439.708E-03    -221.464E-03     155.242E-03
            1154     5.77527E-03     154.225E-03    -84.4522E+06    -124.814E+06    -14.0295E+06    -8.26768E+06    -214.353E-03     434.431E-03    -220.078E-03     190.781E-03    -217.748E-03     437.120E-03    -219.845E-03     175.658E-03
            1155     6.50813E-03     154.417E-03    -76.9274E+06    -103.101E+06     2.07336E+06    -7.77351E+06    -213.514E-03     432.048E-03    -218.534E-03     211.428E-03    -217.769E-03     435.654E-03    -218.263E-03     194.527E-03
            1156     7.24201E-03     154.627E-03    -69.3855E+06    -80.0140E+06     16.8880E+06    -6.57606E+06    -213.646E-03     430.761E-03    -217.115E-03     229.542E-03    -218.806E-03     435.339E-03    -216.814E-03     210.931E-03
            1157     7.97721E-03     154.851E-03    -61.4661E+06    -57.7586E+06     31.0697E+06    -4.73689E+06    -214.970E-03     430.876E-03    -215.906E-03     244.355E-03    -221.031E-03     436.422E-03    -215.578E-03     224.108E-03
            1158     8.71181E-03     155.090E-03    -54.8324E+06    -35.1191E+06     44.0158E+06    -3.64724E+06    -217.794E-03     432.786E-03    -214.992E-03     254.346E-03    -224.661E-03     439.207E-03    -214.642E-03     232.574E-03
            1159     9.44443E-03     155.336E-03    -48.9921E+06    -10.3533E+06     55.3579E+06    -3.49683E+06    -222.067E-03     436.520E-03    -214.453E-03     258.342E-03    -229.542E-03     443.626E-03    -214.090E-03     235.222E-03
            1160     10.1716E-03     155.590E-03    -42.3311E+06     19.3269E+06     68.1582E+06    -4.05749E+06    -227.792E-03     442.150E-03    -214.357E-03     256.774E-03    -235.629E-03     449.710E-03    -213.983E-03     232.451E-03
            1161     10.8962E-03     155.843E-03    -36.9318E+06     57.1218E+06     81.6431E+06    -4.68613E+06    -234.886E-03     449.626E-03    -214.740E-03     249.472E-03    -242.827E-03     457.406E-03    -214.361E-03     224.025E-03
            1162     11.6127E-03     156.097E-03    -31.5202E+06     76.8846E+06     87.9606E+06    -4.54317E+06    -243.316E-03     458.933E-03    -215.617E-03     238.307E-03    -251.175E-03     466.702E-03    -215.243E-03     211.524E-03
            1163     12.3208E-03     156.346E-03    -23.9523E+06     92.9609E+06     97.7894E+06    -5.51498E+06    -251.829E-03     468.830E-03    -217.001E-03     219.333E-03    -259.209E-03     476.176E-03    -216.612E-03     191.492E-03
            1164     13.0237E-03     156.577E-03    -15.8554E+06     110.464E+06     112.497E+06    -5.65271E+06    -260.579E-03     479.427E-03    -218.848E-03     200.343E-03    -267.768E-03     486.630E-03    -218.423E-03     170.277E-03
            1165     13.7174E-03     156.802E-03    -6.73837E+06     115.300E+06     122.027E+06    -2.26510E+06    -268.201E-03     489.254E-03    -221.053E-03     146.989E-03    -273.178E-03     494.265E-03    -220.600E-03     121.344E-03
            1166     721.799E-06     154.948E-03    -129.552E+06    -249.809E+06    -125.714E+06    -2.32933E+06    -219.642E-03     439.165E-03    -219.522E-03     29.3537E-03    -219.811E-03     438.344E-03    -219.601E-03     27.4541E-03
            1167     1.44380E-03     154.985E-03    -124.920E+06    -238.424E+06    -115.915E+06    -4.40913E+06    -218.615E-03     437.816E-03    -219.201E-03     53.6141E-03    -218.920E-03     437.159E-03    -219.254E-03     50.1724E-03
            1168     2.16797E-03     155.045E-03    -120.284E+06    -224.067E+06    -102.030E+06    -6.38221E+06    -216.836E-03     435.273E-03    -218.437E-03     80.0281E-03    -217.379E-03     434.881E-03    -218.448E-03     74.9517E-03
            1169     2.89393E-03     155.129E-03    -113.535E+06    -206.722E+06    -84.4594E+06    -7.59698E+06    -214.446E-03     431.777E-03    -217.331E-03     106.155E-03    -215.310E-03     431.740E-03    -217.289E-03     99.5011E-03
            1170     3.62224E-03     155.235E-03    -106.500E+06    -187.432E+06    -65.9172E+06    -8.14244E+06    -211.981E-03     427.939E-03    -215.958E-03     132.300E-03    -213.262E-03     428.359E-03    -215.862E-03     124.103E-03
            1171     4.35476E-03     155.362E-03    -99.1500E+06    -167.418E+06    -47.0331E+06    -8.29920E+06    -209.864E-03     424.295E-03    -214.431E-03     158.249E-03    -211.664E-03     425.277E-03    -214.280E-03     148.483E-03
            1172     5.08977E-03     155.510E-03    -90.3838E+06    -144.927E+06    -28.0691E+06    -7.62232E+06    -208.461E-03     421.318E-03    -212.857E-03     183.089E-03    -210.876E-03     422.972E-03    -212.656E-03     171.733E-03
            1173     5.82613E-03     155.679E-03    -81.6214E+06    -123.578E+06    -10.7484E+06    -6.48686E+06    -208.227E-03     419.575E-03    -211.349E-03     206.829E-03    -211.370E-03     422.015E-03    -211.105E-03     193.774E-03
            1174     6.56393E-03     155.869E-03    -73.3243E+06    -101.301E+06     5.74615E+06    -4.63668E+06    -209.198E-03     419.208E-03    -210.010E-03     228.707E-03    -213.171E-03     422.539E-03    -209.728E-03     213.886E-03
            1175     7.30273E-03     156.078E-03    -66.0269E+06    -79.1481E+06     20.8148E+06    -2.69458E+06    -211.643E-03     420.572E-03    -208.929E-03     247.444E-03    -216.524E-03     424.875E-03    -208.615E-03     230.763E-03
            1176     8.04000E-03     156.305E-03    -59.8767E+06    -58.2221E+06     34.2406E+06    -722.016E+03    -215.939E-03     424.148E-03    -208.209E-03     261.861E-03    -221.746E-03     429.437E-03    -207.867E-03     243.231E-03
            1177     8.77458E-03     156.548E-03    -53.7333E+06    -32.1557E+06     47.9840E+06     597.724E+03    -221.846E-03     429.785E-03    -207.939E-03     270.821E-03    -228.500E-03     435.998E-03    -207.575E-03     250.274E-03
            1178     9.50371E-03     156.804E-03    -47.1143E+06    -6.12457E+06     60.1916E+06     538.452E+03    -229.311E-03     437.488E-03    -208.177E-03     273.841E-03    -236.635E-03     444.453E-03    -207.799E-03     251.441E-03
            1179     10.2293E-03     157.066E-03    -40.6455E+06     25.2635E+06     72.2904E+06    -319.953E+03    -238.155E-03     447.118E-03    -208.963E-03     270.533E-03    -245.897E-03     454.601E-03    -208.579E-03     246.409E-03
            1180     10.9447E-03     157.335E-03    -33.4871E+06     59.8477E+06     83.9756E+06    -208.939E+03    -247.995E-03     458.300E-03    -210.305E-03     261.247E-03    -255.879E-03     466.041E-03    -209.923E-03     235.484E-03
            1181     11.6530E-03     157.601E-03    -25.6506E+06     84.8229E+06     91.8420E+06    -2.41248E+06    -258.143E-03     470.316E-03    -212.173E-03     248.130E-03    -266.006E-03     478.130E-03    -211.800E-03     220.490E-03
            1182     12.3539E-03     157.871E-03    -18.5735E+06     99.3512E+06     101.398E+06    -5.98961E+06    -267.861E-03     482.402E-03    -214.541E-03     226.536E-03    -275.305E-03     489.845E-03    -214.151E-03     197.284E-03
            1183     13.0443E-03     158.113E-03    -11.6084E+06     106.278E+06     111.352E+06    -5.61329E+06    -277.384E-03     494.709E-03    -217.325E-03     206.387E-03    -284.646E-03     501.990E-03    -216.905E-03     174.613E-03
            1184     13.7242E-03     158.369E-03    -6.84267E+06     108.834E+06     116.007E+06    -3.54691E+06    -282.627E-03     502.965E-03    -220.338E-03     150.493E-03    -287.636E-03     508.003E-03    -219.906E-03     123.591E-03
            1185     729.549E-06     156.403E-03    -126.977E+06    -239.933E+06    -126.769E+06    -2.84533E+06    -207.982E-03     415.972E-03    -207.990E-03     32.3412E-03    -208.145E-03     415.185E-03    -208.092E-03     30.8728E-03
            1186     1.46107E-03     156.439E-03    -125.054E+06    -230.390E+06    -116.122E+06    -4.04920E+06    -206.679E-03     414.183E-03    -207.504E-03     59.3494E-03    -206.971E-03     413.534E-03    -207.570E-03     56.6909E-03
            1187     2.19302E-03     156.496E-03    -119.739E+06    -216.283E+06    -101.188E+06    -5.67174E+06    -204.946E-03     411.565E-03    -206.618E-03     87.9932E-03    -205.439E-03     411.141E-03    -206.637E-03     84.0735E-03
            1188     2.92798E-03     156.575E-03    -113.332E+06    -200.375E+06    -83.5886E+06    -6.75741E+06    -202.753E-03     408.205E-03    -205.452E-03     116.669E-03    -203.525E-03     408.090E-03    -205.415E-03     111.492E-03
            1189     3.66664E-03     156.674E-03    -105.813E+06    -181.995E+06    -64.1641E+06    -6.85582E+06    -201.007E-03     405.101E-03    -204.094E-03     145.126E-03    -202.145E-03     405.390E-03    -203.998E-03     138.671E-03
            1190     4.40649E-03     156.798E-03    -97.6167E+06    -163.244E+06    -44.8857E+06    -6.88958E+06    -200.148E-03     402.844E-03    -202.696E-03     172.779E-03    -201.741E-03     403.629E-03    -202.542E-03     164.978E-03
            1191     5.14815E-03     156.942E-03    -90.1152E+06    -144.144E+06    -27.6526E+06    -5.88294E+06    -200.509E-03     401.887E-03    -201.378E-03     199.550E-03    -202.675E-03     403.291E-03    -201.177E-03     190.264E-03
            1192     5.89181E-03     157.111E-03    -83.4643E+06    -123.459E+06    -11.4464E+06    -3.91000E+06    -202.518E-03     402.780E-03    -200.261E-03     224.799E-03    -205.384E-03     404.937E-03    -200.018E-03     213.853E-03
            1193     6.63504E-03     157.302E-03    -77.6628E+06    -100.944E+06     4.10274E+06    -1.53229E+06    -206.321E-03     405.783E-03    -199.462E-03     246.982E-03    -210.009E-03     408.821E-03    -199.182E-03     234.172E-03
            1194     7.37634E-03     157.515E-03    -72.2924E+06    -79.8745E+06     18.5343E+06     669.178E+03    -212.139E-03     411.225E-03    -199.085E-03     265.654E-03    -216.756E-03     415.248E-03    -198.772E-03     250.709E-03
            1195     8.11409E-03     157.751E-03    -66.2079E+06    -58.4940E+06     31.7884E+06     1.77542E+06    -219.891E-03     419.106E-03    -199.215E-03     279.725E-03    -225.475E-03     424.158E-03    -198.875E-03     262.444E-03
            1196     8.84605E-03     158.004E-03    -59.0969E+06    -29.3657E+06     45.1320E+06     2.10712E+06    -229.340E-03     429.251E-03    -199.911E-03     287.883E-03    -235.837E-03     435.309E-03    -199.557E-03     268.174E-03
            1197     9.57303E-03     158.273E-03    -51.7380E+06    -1.73109E+06     56.9281E+06     1.22299E+06    -240.466E-03     441.694E-03    -201.227E-03     289.225E-03    -247.699E-03     448.581E-03    -200.865E-03     267.067E-03
            1198     10.2881E-03     158.554E-03    -43.8129E+06     30.2478E+06     68.7738E+06    -419.283E+03    -252.553E-03     455.734E-03    -203.181E-03     283.348E-03    -260.258E-03     463.202E-03    -202.818E-03     258.837E-03
            1199     10.9967E-03     158.838E-03    -35.2316E+06     64.9156E+06     80.6311E+06    -3.02677E+06    -264.499E-03     470.227E-03    -205.728E-03     271.416E-03    -272.391E-03     478.001E-03    -205.368E-03     244.686E-03
            1200     11.6938E-03     159.129E-03    -26.3668E+06     92.3831E+06     90.3381E+06    -5.50855E+06    -275.938E-03     484.718E-03    -208.780E-03     255.482E-03    -283.819E-03     492.581E-03    -208.424E-03     226.490E-03
            1201     12.3808E-03     159.410E-03    -18.8627E+06     103.603E+06     99.6523E+06    -6.53847E+06    -286.162E-03     498.424E-03    -212.262E-03     232.529E-03    -293.653E-03     505.935E-03    -211.887E-03     201.642E-03
            1202     13.0581E-03     159.683E-03    -12.3133E+06     100.360E+06     106.265E+06    -6.40514E+06    -292.958E-03     508.953E-03    -215.994E-03     212.040E-03    -300.297E-03     516.300E-03    -215.591E-03     178.667E-03
            1203     13.7332E-03     159.943E-03    -4.62156E+06     101.729E+06     112.355E+06    -3.54805E+06    -294.963E-03     514.696E-03    -219.733E-03     154.864E-03    -300.011E-03     519.766E-03    -219.312E-03     126.882E-03
            1204     741.820E-06     157.821E-03    -128.654E+06    -230.636E+06    -127.354E+06    -2.58355E+06    -192.144E-03     384.546E-03    -192.401E-03     35.3314E-03    -192.322E-03     383.791E-03    -192.517E-03     34.3138E-03
            1205     1.48373E-03     157.854E-03    -126.657E+06    -223.497E+06    -118.247E+06    -4.22795E+06    -191.016E-03     382.797E-03    -191.781E-03     65.5871E-03    -191.292E-03     382.146E-03    -191.864E-03     63.7346E-03
            1206     2.22840E-03     157.908E-03    -122.079E+06    -209.949E+06    -103.567E+06    -4.65428E+06    -189.743E-03     380.684E-03    -190.941E-03     96.9517E-03    -190.180E-03     380.218E-03    -190.977E-03     94.2231E-03
            1207     2.97483E-03     157.981E-03    -116.541E+06    -195.043E+06    -85.6029E+06    -5.11423E+06    -188.915E-03     378.902E-03    -189.987E-03     128.160E-03    -189.584E-03     378.692E-03    -189.963E-03     124.484E-03
            1208     3.72199E-03     158.079E-03    -110.770E+06    -178.897E+06    -67.8130E+06    -5.01616E+06    -188.917E-03     377.938E-03    -189.021E-03     159.020E-03    -189.898E-03     378.069E-03    -188.940E-03     154.304E-03
            1209     4.47164E-03     158.200E-03    -105.499E+06    -161.005E+06    -50.8891E+06    -3.46916E+06    -190.195E-03     378.344E-03    -188.149E-03     188.656E-03    -191.589E-03     378.925E-03    -188.017E-03     182.775E-03
            1210     5.22218E-03     158.346E-03    -100.914E+06    -143.281E+06    -34.4033E+06    -1.85899E+06    -193.370E-03     380.876E-03    -187.505E-03     216.769E-03    -195.305E-03     382.034E-03    -187.323E-03     209.466E-03
            1211     5.97087E-03     158.518E-03    -96.2668E+06    -123.264E+06    -18.7125E+06    -54.2023E+03    -198.603E-03     385.814E-03    -187.211E-03     242.360E-03    -201.213E-03     387.694E-03    -186.987E-03     233.361E-03
            1212     6.71731E-03     158.716E-03    -90.5279E+06    -100.853E+06    -3.51932E+06     1.48014E+06    -206.032E-03     393.404E-03    -187.372E-03     264.667E-03    -209.458E-03     396.161E-03    -187.112E-03     253.617E-03
            1213     7.45925E-03     158.940E-03    -82.9347E+06    -78.9728E+06     10.8327E+06     1.33828E+06    -215.603E-03     403.677E-03    -188.074E-03     283.293E-03    -219.973E-03     407.445E-03    -187.785E-03     269.779E-03
            1214     8.19540E-03     159.190E-03    -73.9444E+06    -56.2971E+06     23.9677E+06     598.754E+03    -227.153E-03     416.534E-03    -189.381E-03     296.600E-03    -232.524E-03     421.381E-03    -189.072E-03     280.306E-03
            1215     8.92479E-03     159.460E-03    -64.2401E+06    -25.7621E+06     37.6333E+06    -363.733E+03    -240.715E-03     432.069E-03    -191.354E-03     303.320E-03    -247.069E-03     438.006E-03    -191.035E-03     283.970E-03
            1216     9.64151E-03     159.751E-03    -54.4129E+06     4.29430E+06     51.0312E+06    -2.39806E+06    -255.467E-03     449.504E-03    -194.037E-03     302.677E-03    -262.642E-03     456.367E-03    -193.709E-03     280.177E-03
            1217     10.3505E-03     160.053E-03    -44.9880E+06     35.8032E+06     64.2066E+06    -4.72484E+06    -270.172E-03     467.561E-03    -197.389E-03     294.533E-03    -277.872E-03     475.057E-03    -197.055E-03     269.086E-03
            1218     11.0444E-03     160.364E-03    -35.3507E+06     74.2954E+06     78.7519E+06    -7.47091E+06    -283.812E-03     485.122E-03    -201.309E-03     279.862E-03    -291.726E-03     492.959E-03    -200.972E-03     251.721E-03
            1219     11.7298E-03     160.670E-03    -25.7894E+06     94.8448E+06     87.6975E+06    -10.1704E+06    -295.628E-03     501.280E-03    -205.652E-03     261.996E-03    -303.537E-03     509.192E-03    -205.313E-03     231.242E-03
            1220     12.4050E-03     160.984E-03    -16.8229E+06     97.6913E+06     96.1545E+06    -8.57873E+06    -303.567E-03     513.815E-03    -210.247E-03     237.920E-03    -311.061E-03     521.324E-03    -209.884E-03     205.411E-03
            1221     13.0745E-03     161.264E-03    -10.2991E+06     98.6123E+06     105.494E+06    -5.18206E+06    -306.536E-03     521.379E-03    -214.844E-03     214.758E-03    -313.861E-03     528.716E-03    -214.444E-03     180.032E-03
            1222     13.7401E-03     161.536E-03    -6.71513E+06     95.3990E+06     109.615E+06    -3.83403E+06    -305.924E-03     525.145E-03    -219.221E-03     157.266E-03    -311.006E-03     530.227E-03    -218.802E-03     128.127E-03
            1223     755.910E-06     159.189E-03    -138.506E+06    -224.229E+06    -136.343E+06    -1.36805E+06    -172.583E-03     345.001E-03    -172.417E-03     39.3548E-03    -172.800E-03     344.285E-03    -172.573E-03     38.7605E-03
            1224     1.51372E-03     159.220E-03    -137.095E+06    -218.740E+06    -127.257E+06    -1.73444E+06    -172.310E-03     344.516E-03    -172.206E-03     72.2283E-03    -172.595E-03     343.872E-03    -172.327E-03     71.1566E-03
            1225     2.27192E-03     159.271E-03    -134.573E+06    -205.965E+06    -114.826E+06    -1.72082E+06    -172.566E-03     344.408E-03    -171.842E-03     106.096E-03    -172.976E-03     343.911E-03    -171.923E-03     104.451E-03
            1226     3.03068E-03     159.346E-03    -131.537E+06    -191.998E+06    -99.6383E+06    -1.33133E+06    -173.923E-03     345.458E-03    -171.535E-03     139.722E-03    -174.518E-03     345.168E-03    -171.564E-03     137.403E-03
            1227     3.79048E-03     159.444E-03    -128.218E+06    -178.004E+06    -82.0215E+06     102.793E+03    -176.691E-03     348.095E-03    -171.404E-03     172.347E-03    -177.550E-03     348.086E-03    -171.370E-03     169.209E-03
            1228     4.54897E-03     159.568E-03    -123.982E+06    -160.287E+06    -63.8827E+06     1.46110E+06    -181.366E-03     352.902E-03    -171.536E-03     203.279E-03    -182.596E-03     353.295E-03    -171.443E-03     199.070E-03
            1229     5.30478E-03     159.721E-03    -118.025E+06    -141.857E+06    -45.8518E+06     1.86940E+06    -188.258E-03     360.300E-03    -172.042E-03     232.110E-03    -189.979E-03     361.225E-03    -171.895E-03     226.511E-03
            1230     6.05795E-03     159.903E-03    -109.799E+06    -121.141E+06    -28.8917E+06     1.18112E+06    -197.336E-03     370.341E-03    -173.005E-03     258.058E-03    -199.693E-03     371.961E-03    -172.814E-03     250.667E-03
            1231     6.80590E-03     160.114E-03     -98.919E+06    -98.4249E+06    -12.9587E+06    -473.381E+03    -208.673E-03     383.169E-03    -174.496E-03     280.557E-03    -211.824E-03     385.662E-03    -174.275E-03     270.894E-03
            1232     7.54739E-03     160.356E-03    -86.8994E+06    -75.1729E+06     1.80081E+06    -2.39916E+06    -222.379E-03     398.975E-03    -176.596E-03     298.430E-03    -226.475E-03     402.501E-03    -176.352E-03     285.975E-03
            1233     8.28026E-03     160.624E-03    -74.7618E+06    -51.1475E+06     16.1159E+06    -4.85286E+06    -238.290E-03     417.677E-03    -179.387E-03     310.369E-03    -243.436E-03     422.344E-03    -179.124E-03     294.595E-03
            1234     9.00066E-03     160.921E-03    -62.8667E+06    -20.7627E+06     31.4571E+06    -7.01902E+06    -255.498E-03     438.403E-03    -182.905E-03     315.512E-03    -261.696E-03     444.230E-03    -182.626E-03     296.055E-03
            1235     9.71143E-03     161.238E-03    -51.6367E+06     8.59801E+06     46.1597E+06    -8.04595E+06    -272.923E-03     460.049E-03    -187.126E-03     313.134E-03    -280.002E-03     466.860E-03    -186.833E-03     289.955E-03
            1236     10.4055E-03     161.570E-03    -41.0310E+06     42.3561E+06     61.4758E+06    -9.38069E+06    -289.436E-03     481.399E-03    -191.964E-03     303.247E-03    -297.087E-03     488.895E-03    -191.658E-03     276.620E-03
            1237     11.0909E-03     161.906E-03    -31.7701E+06     80.7253E+06     77.0215E+06    -11.0178E+06    -303.842E-03     501.117E-03    -197.275E-03     287.127E-03    -311.731E-03     508.973E-03    -196.961E-03     257.475E-03
            1238     11.7617E-03     162.244E-03    -24.8460E+06     96.6907E+06     85.3531E+06    -11.2239E+06    -314.593E-03     517.454E-03    -202.861E-03     267.978E-03    -322.514E-03     525.394E-03    -202.538E-03     235.521E-03
            1239     12.4258E-03     162.569E-03    -19.3380E+06     93.1347E+06     93.8918E+06    -11.6628E+06    -319.629E-03     528.123E-03    -208.494E-03     241.210E-03    -327.123E-03     535.615E-03    -208.132E-03     207.103E-03
            1240     13.0854E-03     162.867E-03    -12.2715E+06     90.5943E+06     104.020E+06    -9.42239E+06    -319.432E-03     533.328E-03    -213.896E-03     214.890E-03    -326.704E-03     540.580E-03    -213.489E-03     178.772E-03
            1241     13.7439E-03     163.142E-03    -3.64689E+06     86.8159E+06     109.718E+06    -2.81477E+06    -314.926E-03     533.771E-03    -218.845E-03     157.628E-03    -319.986E-03     538.809E-03    -218.417E-03     127.458E-03
            1242     775.418E-06     160.499E-03    -161.732E+06    -226.014E+06    -158.190E+06     2.63750E+06    -150.413E-03     299.997E-03    -149.584E-03     42.5963E-03    -150.700E-03     299.322E-03    -149.813E-03     42.3867E-03
            1243     1.54893E-03     160.530E-03    -162.437E+06    -218.978E+06    -150.434E+06     4.36735E+06    -152.112E-03     302.224E-03    -150.112E-03     77.7254E-03    -152.453E-03     301.609E-03    -150.311E-03     77.2908E-03
            1244     2.32213E-03     160.584E-03    -161.459E+06    -204.015E+06    -138.433E+06     4.02720E+06    -154.927E-03     305.631E-03    -150.703E-03     113.907E-03    -155.366E-03     305.142E-03    -150.866E-03     113.118E-03
            1245     3.09445E-03     160.662E-03    -158.286E+06    -190.777E+06    -121.125E+06     3.45892E+06    -159.373E-03     310.897E-03    -151.524E-03     149.293E-03    -159.951E-03     310.564E-03    -151.623E-03     148.013E-03
            1246     3.86377E-03     160.768E-03    -151.158E+06    -176.620E+06    -99.7363E+06     2.34253E+06    -165.890E-03     318.565E-03    -152.675E-03     182.982E-03    -166.668E-03     318.454E-03    -152.699E-03     181.003E-03
            1247     4.62994E-03     160.902E-03    -140.158E+06    -158.441E+06    -77.5736E+06     765.438E+03    -174.587E-03     328.810E-03    -154.224E-03     214.908E-03    -175.661E-03     329.042E-03    -154.178E-03     211.930E-03
            1248     5.39203E-03     161.068E-03    -126.723E+06    -138.132E+06    -57.1833E+06    -1.37027E+06    -185.515E-03     341.733E-03    -156.218E-03     244.351E-03    -187.007E-03     342.450E-03    -156.120E-03     240.008E-03
            1249     6.14727E-03     161.266E-03    -112.057E+06    -116.108E+06    -38.8734E+06    -4.48395E+06    -198.818E-03     357.542E-03    -158.724E-03     270.393E-03    -200.895E-03     358.927E-03    -158.587E-03     264.176E-03
            1250     6.89508E-03     161.498E-03    -97.6632E+06    -92.6376E+06    -21.7273E+06    -7.96029E+06    -214.607E-03     376.431E-03    -161.824E-03     292.080E-03    -217.458E-03     378.682E-03    -161.657E-03     283.391E-03
            1251     7.63317E-03     161.762E-03    -84.5625E+06    -68.9400E+06    -5.93683E+06    -10.9548E+06    -232.652E-03     398.247E-03    -165.595E-03     308.439E-03    -236.451E-03     401.536E-03    -165.402E-03     296.646E-03
            1252     8.35872E-03     162.061E-03    -72.3262E+06    -44.0510E+06     9.76063E+06    -13.9641E+06    -252.150E-03     422.225E-03    -170.075E-03     318.929E-03    -257.028E-03     426.681E-03    -169.857E-03     303.396E-03
            1253     9.07248E-03     162.387E-03    -60.5198E+06    -17.4908E+06     25.4819E+06    -16.1673E+06    -271.979E-03     447.220E-03    -175.240E-03     322.693E-03    -277.936E-03     452.847E-03    -175.000E-03     303.017E-03
            1254     9.76978E-03     162.738E-03    -48.8009E+06     7.68882E+06     40.3370E+06    -16.1723E+06    -291.133E-03     472.152E-03    -181.019E-03     319.168E-03    -298.010E-03     478.787E-03    -180.758E-03     295.275E-03
            1255     10.4571E-03     163.102E-03    -37.7367E+06     43.6727E+06     57.7760E+06    -14.9981E+06    -308.419E-03     495.716E-03    -187.297E-03     307.953E-03    -315.920E-03     503.091E-03    -187.017E-03     280.182E-03
            1256     11.1271E-03     163.472E-03    -29.1612E+06     82.9637E+06     75.7168E+06    -13.4485E+06    -322.122E-03     516.023E-03    -193.902E-03     290.242E-03    -329.907E-03     523.797E-03    -193.601E-03     259.176E-03
            1257     11.7903E-03     163.833E-03    -21.7960E+06     94.7202E+06     85.4495E+06    -11.3868E+06    -330.636E-03     531.219E-03    -200.583E-03     268.452E-03    -338.379E-03     538.984E-03    -200.261E-03     234.827E-03
            1258     12.4447E-03     164.182E-03    -15.0695E+06     92.2995E+06     96.2785E+06    -8.22128E+06    -332.814E-03     539.900E-03    -207.086E-03     240.295E-03    -340.120E-03     547.208E-03    -206.717E-03     205.271E-03
            1259     13.0952E-03     164.484E-03    -11.7640E+06     87.0831E+06     106.338E+06    -6.78020E+06    -329.439E-03     542.575E-03    -213.137E-03     214.394E-03    -336.577E-03     549.676E-03    -212.714E-03     177.567E-03
            1260     13.7470E-03     164.764E-03    -9.20561E+06     75.4102E+06     109.762E+06    -6.05531E+06    -322.008E-03     540.543E-03    -218.534E-03     157.529E-03    -326.997E-03     545.448E-03    -218.082E-03     126.885E-03
            1261     792.788E-06     161.747E-03    -218.778E+06    -233.063E+06    -215.175E+06     3.01976E+06    -128.831E-03     256.259E-03    -127.428E-03     43.5360E-03    -129.297E-03     255.711E-03    -127.848E-03     43.5013E-03
            1262     1.58449E-03     161.785E-03    -209.956E+06    -220.898E+06    -198.973E+06     2.48366E+06    -132.321E-03     260.905E-03    -128.583E-03     79.8484E-03    -132.799E-03     260.399E-03    -128.954E-03     79.6930E-03
            1263     2.37289E-03     161.845E-03    -197.680E+06    -202.551E+06    -173.515E+06     1.32830E+06    -138.310E-03     268.460E-03    -130.150E-03     117.460E-03    -138.825E-03     268.033E-03    -130.437E-03     117.087E-03
            1264     3.15682E-03     161.935E-03    -182.284E+06    -187.303E+06    -143.686E+06    -1.62491E+06    -146.541E-03     278.801E-03    -132.260E-03     154.156E-03    -147.121E-03     278.469E-03    -132.442E-03     153.408E-03
            1265     3.93623E-03     162.053E-03    -164.841E+06    -170.693E+06    -116.181E+06    -6.00450E+06    -157.056E-03     291.911E-03    -134.854E-03     189.106E-03    -157.760E-03     291.751E-03    -134.948E-03     187.744E-03
            1266     4.70899E-03     162.205E-03    -146.833E+06    -152.828E+06    -92.7293E+06    -10.6488E+06    -169.967E-03     307.909E-03    -137.942E-03     221.558E-03    -170.888E-03     308.035E-03    -137.971E-03     219.273E-03
            1267     5.47381E-03     162.389E-03    -129.167E+06    -132.159E+06    -71.5791E+06    -14.2789E+06    -185.262E-03     326.825E-03    -141.563E-03     250.631E-03    -186.542E-03     327.392E-03    -141.542E-03     247.016E-03
            1268     6.23029E-03     162.612E-03    -113.381E+06    -108.798E+06    -51.6760E+06    -17.6957E+06    -203.054E-03     348.830E-03    -145.776E-03     275.550E-03    -204.875E-03     350.026E-03    -145.712E-03     270.061E-03
            1269     6.97551E-03     162.869E-03    -99.4543E+06    -86.1552E+06    -33.2906E+06    -20.9844E+06    -223.191E-03     373.834E-03    -150.643E-03     295.709E-03    -225.743E-03     375.843E-03    -150.541E-03     287.680E-03
            1270     7.70717E-03     163.167E-03    -85.5067E+06    -62.3724E+06    -14.7714E+06    -24.3041E+06    -244.743E-03     400.931E-03    -156.188E-03     310.477E-03    -248.205E-03     403.933E-03    -156.048E-03     299.177E-03
            1271     8.42596E-03     163.497E-03    -71.1570E+06    -39.5170E+06     3.20829E+06    -27.0738E+06    -266.679E-03     429.052E-03    -162.372E-03     319.376E-03    -271.158E-03     433.152E-03    -162.196E-03     304.163E-03
            1272     9.12878E-03     163.862E-03    -57.3910E+06    -18.8511E+06     19.8582E+06    -26.9885E+06    -288.125E-03     457.252E-03    -169.126E-03     321.522E-03    -293.625E-03     462.447E-03    -168.917E-03     301.952E-03
            1273     9.81963E-03     164.247E-03    -46.1566E+06     2.68674E+06     36.0599E+06    -24.6052E+06    -307.965E-03     484.325E-03    -176.359E-03     316.616E-03    -314.378E-03     490.502E-03    -176.116E-03     292.539E-03
            1274     10.4919E-03     164.650E-03    -37.9638E+06     40.5066E+06     54.8139E+06    -21.3284E+06    -324.558E-03     508.473E-03    -183.915E-03     304.663E-03    -331.652E-03     515.437E-03    -183.645E-03     276.409E-03
            1275     11.1559E-03     165.051E-03    -30.7378E+06     76.1888E+06     73.5714E+06    -16.9394E+06    -336.280E-03     527.867E-03    -191.588E-03     286.532E-03    -343.718E-03     535.269E-03    -191.286E-03     254.827E-03
            1276     11.8064E-03     165.441E-03    -26.1817E+06     87.9187E+06     84.3726E+06    -12.1874E+06    -341.779E-03     540.877E-03    -199.097E-03     264.231E-03    -349.201E-03     548.283E-03    -198.765E-03     230.178E-03
            1277     12.4542E-03     165.799E-03    -22.7084E+06     89.5648E+06     96.4104E+06    -11.0204E+06    -340.686E-03     546.872E-03    -206.186E-03     236.227E-03    -347.689E-03     553.837E-03    -205.800E-03     201.148E-03
            1278     13.1028E-03     166.116E-03    -13.6613E+06     80.8588E+06     109.851E+06    -9.55764E+06    -334.746E-03     547.380E-03    -212.634E-03     209.575E-03    -341.558E-03     554.113E-03    -212.182E-03     172.869E-03
            1279     13.7537E-03     166.389E-03    -2.37183E+06     65.0670E+06     117.667E+06    -5.09222E+06    -326.431E-03     544.746E-03    -218.314E-03     153.773E-03    -331.170E-03     549.366E-03    -217.817E-03     123.305E-03
            1280     807.527E-06     162.946E-03    -298.195E+06    -224.331E+06    -294.978E+06    -9.23617E+06    -112.152E-03     221.874E-03    -109.723E-03     42.1322E-03    -112.901E-03     221.608E-03    -110.440E-03     41.9676E-03
            1281     1.61317E-03     162.989E-03    -279.870E+06    -210.391E+06    -268.125E+06    -16.5284E+06    -116.492E-03     228.121E-03    -111.629E-03     76.6176E-03    -117.218E-03     227.870E-03    -112.259E-03     76.2971E-03
            1282     2.41445E-03     163.064E-03    -255.630E+06    -191.696E+06    -229.207E+06    -24.1233E+06    -124.565E-03     238.410E-03    -113.845E-03     113.511E-03    -125.279E-03     238.189E-03    -114.342E-03     112.962E-03
            1283     3.20947E-03     163.167E-03    -225.692E+06    -177.143E+06    -188.293E+06    -30.7959E+06    -135.784E-03     252.636E-03    -116.852E-03     150.022E-03    -136.486E-03     252.448E-03    -117.209E-03     149.136E-03
            1284     3.99619E-03     163.306E-03    -195.064E+06    -160.890E+06    -152.158E+06    -35.9473E+06    -149.890E-03     270.466E-03    -120.576E-03     185.083E-03    -150.632E-03     270.385E-03    -120.820E-03     183.681E-03
            1285     4.77401E-03     163.478E-03    -166.790E+06    -145.192E+06    -122.819E+06    -40.0595E+06    -166.899E-03     291.890E-03    -124.991E-03     217.330E-03    -167.774E-03     292.020E-03    -125.153E-03     215.119E-03
            1286     5.54111E-03     163.691E-03    -141.419E+06    -129.830E+06    -96.7937E+06    -41.2954E+06    -186.661E-03     316.787E-03    -130.126E-03     245.515E-03    -187.805E-03     317.262E-03    -130.217E-03     242.096E-03
            1287     6.29508E-03     163.941E-03    -118.757E+06    -106.195E+06    -70.3298E+06    -40.0417E+06    -208.711E-03     344.701E-03    -135.990E-03     268.853E-03    -210.299E-03     345.713E-03    -136.015E-03     263.702E-03
            1288     7.03489E-03     164.235E-03    -99.5085E+06    -84.0451E+06    -44.9470E+06    -38.5138E+06    -232.153E-03     374.710E-03    -142.557E-03     286.816E-03    -234.353E-03     376.411E-03    -142.516E-03     279.293E-03
            1289     7.76078E-03     164.566E-03    -83.3116E+06    -58.1288E+06    -20.7117E+06    -38.2963E+06    -255.975E-03     405.726E-03    -149.751E-03     298.967E-03    -258.947E-03     408.280E-03    -149.650E-03     288.356E-03
            1290     8.47004E-03     164.937E-03    -71.1186E+06    -35.5123E+06    -88.4429E+03    -39.7405E+06    -279.416E-03     436.903E-03    -157.488E-03     305.079E-03    -283.266E-03     440.400E-03    -157.333E-03     290.685E-03
            1291     9.16553E-03     165.337E-03    -63.0309E+06    -24.2918E+06     15.5145E+06    -39.3798E+06    -301.220E-03     466.886E-03    -165.665E-03     304.570E-03    -305.952E-03     471.286E-03    -165.461E-03     285.936E-03
            1292     9.84255E-03     165.765E-03    -56.2553E+06    -7.11948E+06     32.0401E+06    -36.2275E+06    -319.767E-03     493.890E-03    -174.123E-03     298.247E-03    -325.300E-03     499.127E-03    -173.871E-03     275.294E-03
            1293     10.5103E-03     166.202E-03    -49.1339E+06     31.4455E+06     52.2884E+06    -32.4932E+06    -333.555E-03     516.181E-03    -182.626E-03     287.148E-03    -339.753E-03     522.182E-03    -182.339E-03     260.129E-03
            1294     11.1633E-03     166.639E-03    -42.2505E+06     55.0284E+06     68.0167E+06    -25.4928E+06    -341.689E-03     532.618E-03    -190.929E-03     271.832E-03    -348.310E-03     539.100E-03    -190.608E-03     241.337E-03
            1295     11.8136E-03     167.050E-03    -32.9297E+06     71.6905E+06     82.9872E+06    -16.9490E+06    -344.206E-03     543.005E-03    -198.799E-03     252.777E-03    -351.021E-03     549.726E-03    -198.441E-03     219.514E-03
            1296     12.4596E-03     167.428E-03    -20.7585E+06     94.7472E+06     107.376E+06    -14.3105E+06    -341.652E-03     547.738E-03    -206.086E-03     226.561E-03    -348.182E-03     554.224E-03    -205.656E-03     192.189E-03
            1297     13.1044E-03     167.745E-03    -12.8707E+06     74.1733E+06     118.685E+06    -15.3273E+06    -334.770E-03     547.397E-03    -212.627E-03     200.145E-03    -341.054E-03     553.555E-03    -212.122E-03     164.516E-03
            1298     13.7515E-03     168.022E-03    -8.77240E+06     44.4235E+06     121.634E+06    -9.15774E+06    -325.746E-03     544.076E-03    -218.330E-03     148.467E-03    -330.154E-03     548.258E-03    -217.773E-03     119.002E-03
            1299     815.527E-06     164.111E-03    -298.500E+06    -187.318E+06    -293.753E+06    -19.8190E+06    -104.441E-03     205.458E-03    -101.018E-03     36.1031E-03    -105.242E-03     205.385E-03    -101.782E-03     35.7615E-03
            1300     1.62734E-03     164.163E-03    -286.187E+06    -176.177E+06    -271.574E+06    -35.2668E+06    -108.790E-03     212.389E-03    -103.599E-03     65.6304E-03    -109.592E-03     212.335E-03    -104.286E-03     64.9959E-03
            1301     2.43548E-03     164.248E-03    -266.215E+06    -160.654E+06    -239.070E+06    -49.6730E+06    -117.235E-03     223.336E-03    -106.101E-03     97.7198E-03    -118.038E-03     223.316E-03    -106.677E-03     96.7423E-03
            1302     3.23676E-03     164.370E-03    -242.405E+06    -151.656E+06    -206.653E+06    -62.1168E+06    -129.274E-03     238.746E-03    -109.472E-03     129.770E-03    -130.077E-03     238.751E-03    -109.934E-03     128.372E-03
            1303     4.02911E-03     164.529E-03    -216.358E+06    -141.725E+06    -177.299E+06    -71.5058E+06    -144.981E-03     258.729E-03    -113.748E-03     161.206E-03    -145.812E-03     258.808E-03    -114.115E-03     159.272E-03
            1304     4.80944E-03     164.731E-03    -191.014E+06    -132.937E+06    -152.750E+06    -77.2002E+06    -164.210E-03     283.157E-03    -118.947E-03     190.535E-03    -165.132E-03     283.381E-03    -119.241E-03     187.856E-03
            1305     5.57573E-03     164.973E-03    -167.655E+06    -127.595E+06    -132.090E+06    -79.7922E+06    -186.587E-03     311.658E-03    -125.071E-03     216.298E-03    -187.685E-03     312.105E-03    -125.303E-03     212.564E-03
            1306     6.32644E-03     165.261E-03    -146.103E+06    -111.931E+06    -109.067E+06    -79.1660E+06    -211.114E-03     343.196E-03    -132.083E-03     237.341E-03    -212.514E-03     344.015E-03    -132.254E-03     232.145E-03
            1307     7.06093E-03     165.589E-03    -125.147E+06    -94.2165E+06    -77.3912E+06    -76.9049E+06    -236.517E-03     376.439E-03    -139.922E-03     252.386E-03    -238.344E-03     377.732E-03    -139.991E-03     245.188E-03
            1308     7.77750E-03     165.962E-03    -105.421E+06    -71.1295E+06    -42.3396E+06    -72.3028E+06    -261.579E-03     410.007E-03    -148.428E-03     260.762E-03    -263.941E-03     411.886E-03    -148.384E-03     250.984E-03
            1309     8.47878E-03     166.370E-03    -88.0207E+06    -48.3237E+06    -11.2187E+06    -64.6159E+06    -284.941E-03     442.352E-03    -157.411E-03     263.087E-03    -287.906E-03     444.886E-03    -157.269E-03     250.187E-03
            1310     9.16109E-03     166.814E-03    -71.9124E+06    -39.6377E+06     15.0699E+06    -55.5566E+06    -305.037E-03     471.708E-03    -166.671E-03     260.442E-03    -308.591E-03     474.841E-03    -166.434E-03     244.057E-03
            1311     9.83301E-03     167.275E-03    -55.6611E+06    -22.4406E+06     37.9167E+06    -47.0110E+06    -320.165E-03     496.069E-03    -175.904E-03     254.054E-03    -324.269E-03     499.802E-03    -175.601E-03     234.087E-03
            1312     10.4906E-03     167.749E-03    -40.6616E+06     11.9495E+06     59.1185E+06    -35.6447E+06    -329.164E-03     513.959E-03    -184.795E-03     245.212E-03    -333.773E-03     518.308E-03    -184.458E-03     221.883E-03
            1313     11.1469E-03     168.210E-03    -27.2341E+06     34.2020E+06     75.8379E+06    -22.9928E+06    -332.691E-03     525.793E-03    -193.102E-03     234.258E-03    -337.719E-03     530.637E-03    -192.733E-03     207.844E-03
            1314     11.7967E-03     168.648E-03    -15.2355E+06     64.2836E+06     99.5012E+06    -18.2826E+06    -332.470E-03     533.172E-03    -200.702E-03     221.225E-03    -337.876E-03     538.474E-03    -200.276E-03     191.847E-03
            1315     12.4456E-03     169.040E-03    -6.59656E+06     85.7078E+06     120.432E+06    -12.6348E+06    -329.972E-03     537.516E-03    -207.544E-03     202.760E-03    -335.535E-03     543.019E-03    -207.057E-03     171.031E-03
            1316     13.0957E-03     169.373E-03    -2.56607E+06     69.6485E+06     130.536E+06    -1.83011E+06    -324.177E-03     537.804E-03    -213.627E-03     180.067E-03    -329.739E-03     543.229E-03    -213.072E-03     146.616E-03
            1317     13.7510E-03     169.642E-03     322.022E+03     41.9303E+06     141.726E+06     733.266E+03    -313.769E-03     532.652E-03    -218.883E-03     134.974E-03    -317.675E-03     536.296E-03    -218.235E-03     107.727E-03
            1318     811.711E-06     165.271E-03    -217.665E+06     -134.15E+06    -214.616E+06    -21.4130E+06    -108.767E-03     216.057E-03    -107.290E-03     22.8591E-03    -109.368E-03     216.012E-03    -107.853E-03     22.3787E-03
            1319     1.62195E-03     165.329E-03    -210.879E+06    -125.698E+06    -197.319E+06    -38.9951E+06    -113.246E-03     222.374E-03    -109.128E-03     42.0825E-03    -113.870E-03     222.355E-03    -109.627E-03     41.1722E-03
            1320     2.42617E-03     165.426E-03    -199.895E+06    -116.750E+06    -177.123E+06    -54.0698E+06    -120.695E-03     232.412E-03    -111.717E-03     62.7170E-03    -121.343E-03     232.430E-03    -112.144E-03     61.3282E-03
            1321     3.22390E-03     165.561E-03    -188.255E+06    -109.835E+06    -157.783E+06    -67.2379E+06    -131.167E-03     246.402E-03    -115.235E-03     83.6790E-03    -131.857E-03     246.473E-03    -115.591E-03     81.7325E-03
            1322     4.01185E-03     165.742E-03    -177.303E+06    -106.406E+06    -142.414E+06    -79.1064E+06    -144.993E-03     264.724E-03    -119.731E-03     104.276E-03    -145.747E-03     264.868E-03    -120.031E-03     101.652E-03
            1323     4.78812E-03     165.967E-03    -166.217E+06    -105.844E+06    -129.644E+06    -87.6505E+06    -162.030E-03     287.283E-03    -125.252E-03     123.669E-03    -162.872E-03     287.523E-03    -125.506E-03     120.244E-03
            1324     5.54973E-03     166.241E-03    -154.700E+06    -107.186E+06    -117.994E+06    -93.5142E+06    -181.858E-03     313.649E-03    -131.792E-03     140.765E-03    -182.816E-03     314.012E-03    -132.002E-03     136.360E-03
            1325     6.29493E-03     166.561E-03    -141.775E+06    -100.591E+06    -103.160E+06    -97.8177E+06    -203.643E-03     342.930E-03    -139.288E-03     154.153E-03    -204.759E-03     343.483E-03    -139.452E-03     148.534E-03
            1326     7.02148E-03     166.930E-03    -127.392E+06    -89.6617E+06    -80.1727E+06    -99.9319E+06    -226.336E-03     373.989E-03    -147.653E-03     162.871E-03    -227.654E-03     374.772E-03    -147.740E-03     155.770E-03
            1327     7.73031E-03     167.340E-03    -111.747E+06    -81.6587E+06    -53.3815E+06    -97.7205E+06    -248.520E-03     405.217E-03    -156.697E-03     167.060E-03    -250.073E-03     406.247E-03    -156.684E-03     158.145E-03
            1328     8.41874E-03     167.790E-03    -95.0531E+06    -71.2527E+06    -26.7394E+06    -90.0617E+06    -268.123E-03     434.235E-03    -166.112E-03     167.910E-03    -269.930E-03     435.542E-03    -166.005E-03     156.970E-03
            1329     9.09577E-03     168.266E-03    -78.8812E+06    -66.2901E+06    -3.11918E+06    -80.6298E+06    -283.492E-03     459.016E-03    -175.524E-03     167.532E-03    -285.551E-03     460.587E-03    -175.329E-03     154.488E-03
            1330     9.75790E-03     168.764E-03    -65.6011E+06    -52.4312E+06     18.5269E+06    -72.6493E+06    -293.719E-03     478.236E-03    -184.517E-03     167.637E-03    -296.059E-03     480.127E-03    -184.253E-03     152.518E-03
            1331     10.4186E-03     169.259E-03    -53.7722E+06    -34.1837E+06     45.5187E+06    -62.2578E+06    -299.143E-03     491.934E-03    -192.791E-03     168.311E-03    -301.791E-03     494.164E-03    -192.436E-03     151.248E-03
            1332     11.0741E-03     169.745E-03    -40.7909E+06    -9.26443E+06     72.5107E+06    -50.3223E+06    -300.784E-03     500.898E-03    -200.115E-03     168.437E-03    -303.773E-03     503.527E-03    -199.680E-03     149.320E-03
            1333     11.7347E-03     170.199E-03    -30.2009E+06     30.2127E+06     108.625E+06    -33.8627E+06    -299.465E-03     505.928E-03    -206.463E-03     167.496E-03    -302.876E-03     509.048E-03    -205.920E-03     146.246E-03
            1334     12.3987E-03     170.616E-03    -26.1484E+06     51.9401E+06     130.718E+06    -14.4665E+06    -296.407E-03     508.212E-03    -211.806E-03     165.737E-03    -300.360E-03     511.900E-03    -211.190E-03     141.720E-03
            1335     13.0616E-03     170.967E-03    -19.3199E+06     55.0330E+06     133.573E+06    -5.91266E+06    -292.306E-03     508.519E-03    -216.212E-03     162.490E-03    -296.958E-03     512.924E-03    -215.596E-03     134.721E-03
            1336     13.7256E-03     171.239E-03    -8.18455E+06     40.0841E+06     152.541E+06    -1.56071E+06    -287.169E-03     507.172E-03    -220.003E-03     130.737E-03    -290.766E-03     510.445E-03    -219.287E-03     107.007E-03
            1337     794.156E-06     166.462E-03    -138.310E+06    -79.8698E+06    -132.073E+06    -19.1126E+06    -134.325E-03     267.100E-03    -132.774E-03    -1.13502E-03    -134.776E-03     267.024E-03    -133.118E-03    -1.86899E-03
            1338     1.58447E-03     166.525E-03    -131.977E+06    -74.1693E+06    -120.455E+06    -33.7046E+06    -135.613E-03     270.686E-03    -135.073E-03    -3.51017E-03    -136.058E-03     270.611E-03    -135.376E-03    -4.85087E-03
            1339     2.37122E-03     166.628E-03    -124.675E+06    -70.8929E+06    -105.296E+06    -46.9680E+06    -139.782E-03     277.344E-03    -137.562E-03    -3.70507E-03    -140.218E-03     277.257E-03    -137.805E-03    -5.74776E-03
            1340     3.15016E-03     166.775E-03    -116.210E+06    -68.0795E+06    -90.6180E+06    -56.6366E+06    -145.866E-03     287.025E-03    -141.160E-03    -3.52210E-03    -146.292E-03     286.926E-03    -141.345E-03    -6.31117E-03
            1341     3.91973E-03     166.968E-03    -108.570E+06    -66.1029E+06    -77.1235E+06    -64.0836E+06    -153.372E-03     299.213E-03    -145.841E-03    -3.50570E-03    -153.795E-03     299.108E-03    -145.973E-03    -7.11031E-03
            1342     4.67666E-03     167.210E-03    -101.297E+06    -68.4992E+06    -63.8836E+06    -70.2107E+06    -162.212E-03     313.776E-03    -151.564E-03    -3.53920E-03    -162.628E-03     313.648E-03    -151.637E-03    -8.04347E-03
            1343     5.41990E-03     167.502E-03    -93.2098E+06    -71.8727E+06    -50.0103E+06    -75.0152E+06    -171.962E-03     330.226E-03    -158.264E-03    -4.29236E-03    -172.368E-03     330.072E-03    -158.275E-03    -9.76103E-03
            1344     6.14689E-03     167.846E-03    -84.8763E+06    -68.2783E+06    -35.6084E+06    -79.1378E+06    -182.042E-03     347.850E-03    -165.808E-03    -5.61436E-03    -182.449E-03     347.710E-03    -165.764E-03    -12.1031E-03
            1345     6.85823E-03     168.238E-03    -77.9524E+06    -61.5384E+06    -22.8892E+06    -80.8056E+06    -192.066E-03     366.072E-03    -174.006E-03    -6.96578E-03    -192.477E-03     365.969E-03    -173.918E-03    -14.4827E-03
            1346     7.55172E-03     168.677E-03    -74.0867E+06    -59.7378E+06    -12.5734E+06    -80.5932E+06    -201.031E-03     383.617E-03    -182.585E-03    -7.46960E-03    -201.466E-03     383.552E-03    -182.454E-03    -15.9857E-03
            1347     8.23447E-03     169.152E-03    -72.4859E+06    -60.7867E+06    -2.58151E+06    -79.2596E+06    -207.902E-03     399.046E-03    -191.144E-03    -5.48388E-03    -208.391E-03     399.041E-03    -190.964E-03    -14.8903E-03
            1348     8.90385E-03     169.657E-03    -72.2987E+06    -61.1226E+06     7.40592E+06    -78.1319E+06    -211.779E-03     410.946E-03    -199.167E-03     1.36953E-03    -212.367E-03     411.046E-03    -198.937E-03    -8.71407E-03
            1349     9.57519E-03     170.173E-03    -70.7636E+06    -55.9513E+06     22.0265E+06    -76.2923E+06    -213.209E-03     419.391E-03    -206.182E-03     14.3450E-03    -213.948E-03     419.658E-03    -205.888E-03     3.89595E-03
            1350     10.2457E-03     170.694E-03    -67.6840E+06    -50.4163E+06     45.8707E+06    -73.8694E+06    -213.846E-03     425.742E-03    -211.897E-03     33.1363E-03    -214.783E-03     426.204E-03    -211.496E-03     22.5080E-03
            1351     10.9245E-03     171.200E-03    -63.7501E+06    -38.4303E+06     69.6826E+06    -69.5879E+06    -215.239E-03     431.357E-03    -216.118E-03     58.1769E-03    -216.439E-03     432.097E-03    -215.621E-03     47.2700E-03
            1352     11.6072E-03     171.679E-03    -56.7734E+06    -28.5689E+06     91.8179E+06    -52.7568E+06    -218.047E-03     436.929E-03    -218.882E-03     88.3455E-03    -219.560E-03     437.985E-03    -218.299E-03     76.8851E-03
            1353     12.2985E-03     172.109E-03    -36.7820E+06     1.15366E+06     128.010E+06    -33.9485E+06    -221.223E-03     441.651E-03    -220.427E-03     119.982E-03    -223.158E-03     443.172E-03    -219.736E-03     107.418E-03
            1354     13.0072E-03     172.482E-03    -17.1578E+06     32.9836E+06     150.841E+06    -15.6922E+06    -228.871E-03     450.063E-03    -221.192E-03     145.113E-03    -231.697E-03     452.549E-03    -220.460E-03     129.188E-03
            1355     13.7239E-03     172.778E-03    -2.82730E+06     28.7777E+06     155.981E+06    -706.455E+03    -240.392E-03     462.334E-03    -221.942E-03     129.369E-03    -243.163E-03     464.760E-03    -221.200E-03     112.590E-03
            1356     750.541E-06     167.746E-03    -49.8502E+06    -33.6937E+06    -45.9542E+06    -12.1370E+06    -189.479E-03     381.594E-03    -192.115E-03    -45.6872E-03    -189.833E-03     381.270E-03    -192.224E-03    -46.7237E-03
            1357     1.50173E-03     167.810E-03    -47.6910E+06    -30.9477E+06    -37.5474E+06    -21.0343E+06    -188.077E-03     381.681E-03    -193.603E-03    -82.4852E-03    -188.398E-03     381.236E-03    -193.677E-03    -84.4209E-03
            1358     2.24782E-03     167.914E-03    -45.8463E+06    -31.2410E+06    -26.3989E+06    -28.7186E+06    -185.031E-03     381.410E-03    -196.379E-03    -122.130E-03    -185.245E-03     380.821E-03    -196.399E-03    -124.880E-03
            1359     2.98658E-03     168.065E-03    -44.6928E+06    -32.4007E+06    -15.7959E+06    -34.9699E+06    -180.349E-03     380.555E-03    -200.207E-03    -159.970E-03    -180.406E-03     379.788E-03    -200.174E-03    -163.531E-03
            1360     3.71469E-03     168.261E-03    -42.8004E+06    -32.9624E+06    -3.93415E+06    -38.8566E+06    -173.803E-03     378.814E-03    -205.011E-03    -194.677E-03    -173.671E-03     377.843E-03    -204.921E-03    -199.004E-03
            1361     4.43229E-03     168.505E-03    -40.4245E+06    -35.1176E+06     9.09466E+06    -41.4526E+06    -165.186E-03     375.858E-03    -210.672E-03    -224.418E-03    -164.849E-03     374.671E-03    -210.517E-03    -229.429E-03
            1362     5.13545E-03     168.800E-03    -38.7169E+06    -36.5213E+06     21.8979E+06    -44.3130E+06    -154.504E-03     371.497E-03    -216.993E-03    -247.506E-03    -153.965E-03     370.121E-03    -216.774E-03    -253.122E-03
            1363     5.82662E-03     169.140E-03    -38.2085E+06    -34.1169E+06     33.6926E+06    -46.3853E+06    -142.275E-03     365.994E-03    -223.719E-03    -262.293E-03    -141.573E-03     364.494E-03    -223.446E-03    -268.397E-03
            1364     6.50383E-03     169.532E-03    -38.1597E+06    -30.7225E+06     44.1455E+06    -46.5184E+06    -129.010E-03     359.540E-03    -230.530E-03    -266.948E-03    -128.212E-03     358.009E-03    -230.209E-03    -273.385E-03
            1365     7.17371E-03     169.963E-03    -38.0901E+06    -27.1150E+06     54.2417E+06    -43.9429E+06    -115.587E-03     352.603E-03    -237.016E-03    -260.763E-03    -114.776E-03     351.145E-03    -236.650E-03    -267.311E-03
            1366     7.83532E-03     170.435E-03    -36.8953E+06    -25.6330E+06     64.9335E+06    -40.9516E+06    -102.597E-03     345.262E-03    -242.666E-03    -243.479E-03    -101.857E-03     343.966E-03    -242.250E-03    -249.942E-03
            1367     8.50396E-03     170.931E-03    -34.2745E+06    -24.6690E+06     78.5127E+06    -36.9205E+06    -90.8079E-03     337.770E-03    -246.963E-03    -216.497E-03    -90.2289E-03     336.710E-03    -246.485E-03    -222.681E-03
            1368     9.17921E-03     171.445E-03    -30.0446E+06    -19.9983E+06     94.2876E+06    -35.0762E+06    -80.9405E-03     330.433E-03    -249.492E-03    -181.517E-03    -80.5830E-03     329.669E-03    -248.948E-03    -187.244E-03
            1369     9.87373E-03     171.964E-03    -26.7813E+06    -17.8426E+06     107.053E+06    -31.1040E+06    -73.0613E-03     323.024E-03    -249.963E-03    -139.186E-03    -72.9512E-03     322.561E-03    -249.363E-03    -144.277E-03
            1370     10.5920E-03     172.480E-03    -23.6107E+06    -12.0070E+06     118.465E+06    -29.6624E+06    -67.8506E-03     316.105E-03    -248.255E-03    -90.5666E-03    -67.9807E-03     315.930E-03    -247.611E-03    -94.9696E-03
            1371     11.3427E-03     172.981E-03    -23.4759E+06    -28.4383E+06     118.785E+06    -26.4754E+06    -67.5501E-03     312.123E-03    -244.573E-03    -40.3737E-03    -67.8797E-03     312.102E-03    -243.904E-03    -44.3429E-03
            1372     12.1216E-03     173.449E-03    -18.1932E+06    -13.6517E+06     137.800E+06    -29.1173E+06    -74.2461E-03     313.871E-03    -239.625E-03    -236.260E-06    -74.7953E-03     314.072E-03    -238.889E-03    -4.18230E-03
            1373     12.9067E-03     173.858E-03    -8.13463E+06    -9.30288E+06     151.433E+06    -13.8071E+06    -96.7620E-03     331.213E-03    -234.451E-03     31.4464E-03    -97.6102E-03     331.723E-03    -233.669E-03     26.5332E-03
            1374     13.6602E-03     174.231E-03     6.62181E+06     1.82868E+06     124.705E+06     1.33803E+06    -107.021E-03     335.988E-03    -228.967E-03     42.3880E-03    -108.002E-03     336.826E-03    -228.355E-03     36.0275E-03
            1375     13.6204E-03     86.6093E-03    -4.84839E+06     79.1483E+06     89.0954E+06     24.9000E+03    -226.319E-03     454.218E-03    -227.899E-03     109.616E-03    -230.671E-03     458.576E-03    -227.562E-03     87.3369E-03
            1376     12.9016E-03     86.4251E-03    -10.0878E+06     75.3148E+06     88.8402E+06    -135.741E+03    -227.348E-03     455.283E-03    -227.934E-03     154.597E-03    -234.019E-03     461.927E-03    -227.584E-03     126.440E-03
            1377     12.1862E-03     86.2209E-03    -16.3596E+06     65.2926E+06     86.4082E+06    -560.337E+03    -228.542E-03     456.495E-03    -227.953E-03     171.500E-03    -236.092E-03     463.969E-03    -227.592E-03     142.039E-03
            1378     11.4692E-03     85.9858E-03    -23.0994E+06     60.1104E+06     84.3410E+06    -273.533E+03    -229.180E-03     457.155E-03    -227.975E-03     190.495E-03    -237.847E-03     465.709E-03    -227.606E-03     159.347E-03
            1379     10.7516E-03     85.7291E-03    -30.0170E+06     58.9861E+06     78.7384E+06     17.5658E+03    -229.975E-03     457.968E-03    -227.993E-03     202.254E-03    -239.221E-03     467.089E-03    -227.641E-03     170.386E-03
            1380     10.0335E-03     85.4601E-03    -36.9446E+06     49.1899E+06     66.6692E+06     522.152E+03    -231.088E-03     459.081E-03    -227.993E-03     210.024E-03    -240.573E-03     468.417E-03    -227.678E-03     177.841E-03
            1381     9.31718E-03     85.1794E-03    -44.0256E+06     35.0411E+06     55.2706E+06     665.410E+03    -231.900E-03     459.890E-03    -227.990E-03     211.809E-03    -241.145E-03     468.943E-03    -227.701E-03     180.057E-03
            1382     8.60116E-03     84.9010E-03    -51.8435E+06     28.4984E+06     48.5931E+06     396.899E+03    -232.060E-03     460.061E-03    -228.000E-03     208.288E-03    -240.676E-03     468.452E-03    -227.724E-03     177.720E-03
            1383     7.88354E-03     84.6282E-03    -60.5782E+06     3.14462E+06     37.9461E+06     186.168E+03    -231.988E-03     460.021E-03    -228.033E-03     200.313E-03    -239.658E-03     467.377E-03    -227.760E-03     171.552E-03
            1384     7.16683E-03     84.3693E-03    -69.8232E+06    -38.7959E+06     21.4101E+06     299.742E+03    -231.671E-03     459.751E-03    -228.080E-03     188.447E-03    -238.192E-03     465.824E-03    -227.816E-03     162.034E-03
            1385     6.44925E-03     84.1290E-03    -79.1726E+06    -80.7035E+06     3.28597E+06     316.494E+03    -231.373E-03     459.507E-03    -228.134E-03     174.014E-03    -236.711E-03     464.268E-03    -227.886E-03     150.248E-03
            1386     5.73242E-03     83.9076E-03    -88.7153E+06    -124.460E+06    -15.3804E+06     291.959E+03    -231.102E-03     459.285E-03    -228.184E-03     157.484E-03    -235.315E-03     462.786E-03    -227.951E-03     136.501E-03
            1387     5.01539E-03     83.7089E-03    -97.9489E+06    -157.353E+06    -33.6454E+06     653.335E+03    -230.629E-03     458.838E-03    -228.209E-03     139.662E-03    -233.844E-03     461.244E-03    -228.007E-03     121.543E-03
            1388     4.29844E-03     83.5336E-03    -106.868E+06    -183.963E+06    -52.6876E+06     753.909E+03    -230.205E-03     458.412E-03    -228.208E-03     121.168E-03    -232.571E-03     459.899E-03    -228.049E-03     105.854E-03
            1389     3.58223E-03     83.3830E-03    -115.373E+06    -215.254E+06    -72.8676E+06     538.951E+03    -229.764E-03     457.947E-03    -228.183E-03     102.068E-03    -231.416E-03     458.636E-03    -228.068E-03     89.4784E-03
            1390     2.86587E-03     83.2579E-03    -123.385E+06    -246.720E+06    -92.2212E+06     364.985E+03    -229.167E-03     457.320E-03    -228.153E-03     82.3868E-03    -230.241E-03     457.347E-03    -228.077E-03     72.4529E-03
            1391     2.14948E-03     83.1602E-03    -130.972E+06    -271.202E+06    -110.578E+06     559.164E+03    -228.645E-03     456.780E-03    -228.134E-03     62.3957E-03    -229.282E-03     456.309E-03    -228.104E-03     55.0178E-03
            1392     1.43272E-03     83.0882E-03    -136.724E+06    -287.723E+06    -126.673E+06     459.134E+03    -228.348E-03     456.473E-03    -228.125E-03     42.3222E-03    -228.680E-03     455.665E-03    -228.143E-03     37.3913E-03
            1393     716.115E-06     83.0445E-03    -139.854E+06    -301.905E+06    -138.360E+06     214.562E+03    -228.513E-03     456.333E-03    -227.819E-03     22.9404E-03    -228.654E-03     455.306E-03    -227.870E-03     20.2906E-03
            1394     13.6204E-03     85.1235E-03    -5.03641E+06     77.9241E+06     88.5794E+06     324.508E+03    -226.506E-03     454.389E-03    -227.883E-03     110.891E-03    -230.881E-03     458.766E-03    -227.546E-03     88.5623E-03
            1395     12.9030E-03     84.9259E-03    -10.2007E+06     75.3176E+06     88.6314E+06     334.285E+03    -227.262E-03     455.180E-03    -227.918E-03     155.241E-03    -233.942E-03     461.834E-03    -227.569E-03     127.102E-03
            1396     12.1856E-03     84.7277E-03    -15.8516E+06     66.3393E+06     87.0546E+06     393.965E+03    -228.091E-03     456.047E-03    -227.956E-03     171.415E-03    -235.634E-03     463.517E-03    -227.594E-03     142.042E-03
            1397     11.4681E-03     84.4896E-03    -22.6660E+06     61.3806E+06     84.4263E+06    -103.908E+03    -229.109E-03     457.100E-03    -227.991E-03     190.602E-03    -237.785E-03     465.668E-03    -227.625E-03     159.443E-03
            1398     10.7510E-03     84.2363E-03    -29.3894E+06     58.0891E+06     78.2619E+06    -745.371E+03    -230.232E-03     458.234E-03    -228.002E-03     201.877E-03    -239.482E-03     467.358E-03    -227.652E-03     169.914E-03
            1399     10.0348E-03     83.9638E-03    -36.6848E+06     47.2917E+06     66.2530E+06    -89.7733E+03    -231.266E-03     459.250E-03    -227.985E-03     209.502E-03    -240.737E-03     468.567E-03    -227.669E-03     177.283E-03
            1400     9.31815E-03     83.6847E-03    -44.2303E+06     35.6869E+06     55.1965E+06     214.287E+03    -231.730E-03     459.708E-03    -227.978E-03     211.874E-03    -240.972E-03     468.760E-03    -227.690E-03     180.149E-03
            1401     8.60020E-03     83.4061E-03    -52.0550E+06     27.8115E+06     48.2604E+06     424.601E+03    -231.910E-03     459.916E-03    -228.006E-03     209.034E-03    -240.543E-03     468.322E-03    -227.729E-03     178.480E-03
            1402     7.88374E-03     83.1334E-03    -60.8228E+06     3.99372E+06     37.8063E+06     1.13471E+06    -231.814E-03     459.874E-03    -228.060E-03     200.864E-03    -239.491E-03     467.240E-03    -227.789E-03     172.160E-03
            1403     7.16576E-03     82.8758E-03    -70.1382E+06    -38.3072E+06     20.9261E+06     727.822E+03    -231.698E-03     459.819E-03    -228.121E-03     188.555E-03    -238.216E-03     465.891E-03    -227.859E-03     162.166E-03
            1404     6.44882E-03     82.6339E-03    -79.5939E+06    -81.0305E+06     2.87154E+06     366.185E+03    -231.624E-03     459.788E-03    -228.164E-03     173.665E-03    -236.961E-03     464.546E-03    -227.916E-03     149.862E-03
            1405     5.73209E-03     82.4126E-03    -88.7332E+06    -124.164E+06    -15.4136E+06     630.648E+03    -231.277E-03     459.462E-03    -228.185E-03     156.887E-03    -235.483E-03     462.957E-03    -227.953E-03     135.890E-03
            1406     5.01558E-03     82.2143E-03    -97.8690E+06    -157.603E+06    -34.0659E+06     345.785E+03    -230.786E-03     458.963E-03    -228.178E-03     139.170E-03    -233.994E-03     461.364E-03    -227.978E-03     121.024E-03
            1407     4.29927E-03     82.0386E-03    -106.858E+06    -183.903E+06    -52.9767E+06     133.917E+03    -230.224E-03     458.376E-03    -228.152E-03     120.869E-03    -232.587E-03     459.860E-03    -227.995E-03     105.541E-03
            1408     3.58262E-03     81.8879E-03    -115.547E+06    -214.940E+06    -72.7529E+06     191.603E+03    -229.614E-03     457.743E-03    -228.129E-03     101.930E-03    -231.265E-03     458.432E-03    -228.014E-03     89.3500E-03
            1409     2.86596E-03     81.7633E-03    -123.811E+06    -246.473E+06    -92.0823E+06     356.895E+03    -229.095E-03     457.208E-03    -228.113E-03     82.4528E-03    -230.171E-03     457.236E-03    -228.036E-03     72.5294E-03
            1410     2.14938E-03     81.6653E-03    -130.976E+06    -271.142E+06    -110.549E+06     254.942E+03    -228.703E-03     456.783E-03    -228.080E-03     62.6551E-03    -229.341E-03     456.314E-03    -228.050E-03     55.2764E-03
            1411     1.43318E-03     81.5940E-03    -136.415E+06    -287.210E+06    -126.683E+06     258.091E+03    -228.336E-03     456.372E-03    -228.036E-03     42.5422E-03    -228.667E-03     455.567E-03    -228.055E-03     37.6167E-03
            1412     716.698E-06     81.5499E-03    -139.661E+06    -300.600E+06    -137.039E+06     426.126E+03    -228.374E-03     456.129E-03    -227.755E-03     23.3515E-03    -228.518E-03     455.108E-03    -227.802E-03     20.6819E-03
            1413     13.6183E-03     83.6193E-03    -4.46806E+06     78.3289E+06     89.0198E+06     504.115E+03    -226.713E-03     454.596E-03    -227.883E-03     110.153E-03    -231.079E-03     458.966E-03    -227.545E-03     87.7863E-03
            1414     12.9036E-03     83.4358E-03    -9.60878E+06     75.7103E+06     89.5966E+06     920.736E+03    -227.103E-03     455.020E-03    -227.917E-03     155.113E-03    -233.774E-03     461.666E-03    -227.565E-03     127.031E-03
            1415     12.1853E-03     83.2315E-03    -15.8822E+06     66.5249E+06     87.1775E+06     356.717E+03    -227.977E-03     455.938E-03    -227.961E-03     171.592E-03    -235.518E-03     463.405E-03    -227.598E-03     142.245E-03
            1416     11.4685E-03     82.9963E-03    -22.0525E+06     62.4707E+06     85.3599E+06    -230.939E+03    -229.317E-03     457.310E-03    -227.992E-03     189.979E-03    -237.983E-03     465.872E-03    -227.624E-03     158.775E-03
            1417     10.7517E-03     82.7398E-03    -29.8689E+06     57.6573E+06     78.5245E+06     18.2852E+03    -230.304E-03     458.296E-03    -227.992E-03     201.861E-03    -239.553E-03     467.416E-03    -227.640E-03     169.912E-03
            1418     10.0349E-03     82.4688E-03    -37.5422E+06     46.0381E+06     65.5159E+06    -149.529E+03    -230.962E-03     458.945E-03    -227.983E-03     210.095E-03    -240.438E-03     468.261E-03    -227.668E-03     177.942E-03
            1419     9.31694E-03     82.1911E-03    -44.6927E+06     35.1737E+06     54.3707E+06     141.383E+03    -231.517E-03     459.517E-03    -228.001E-03     212.519E-03    -240.770E-03     468.579E-03    -227.715E-03     180.828E-03
            1420     8.60040E-03     81.9107E-03    -52.8842E+06     27.3526E+06     47.1988E+06     386.307E+03    -231.850E-03     459.895E-03    -228.045E-03     208.994E-03    -240.480E-03     468.298E-03    -227.772E-03     178.451E-03
            1421     7.88234E-03     81.6398E-03    -61.6807E+06     3.54613E+06     37.2287E+06     309.036E+03    -231.992E-03     460.088E-03    -228.096E-03     200.335E-03    -239.665E-03     467.447E-03    -227.826E-03     171.587E-03
            1422     7.16589E-03     81.3804E-03    -70.3977E+06    -37.6026E+06     21.1616E+06     690.789E+03    -232.097E-03     460.222E-03    -228.125E-03     187.929E-03    -238.613E-03     466.293E-03    -227.862E-03     161.474E-03
            1423     6.44953E-03     81.1390E-03    -79.3526E+06    -80.4905E+06     3.14659E+06     619.143E+03    -231.786E-03     459.914E-03    -228.128E-03     173.033E-03    -237.115E-03     464.667E-03    -227.880E-03     149.210E-03
            1424     5.73277E-03     80.9180E-03    -88.6527E+06    -124.051E+06    -15.1890E+06     558.784E+03    -231.258E-03     459.389E-03    -228.131E-03     156.643E-03    -235.462E-03     462.882E-03    -227.898E-03     135.645E-03
            1425     5.01617E-03     80.7190E-03    -97.7898E+06    -157.190E+06    -33.6370E+06     423.429E+03    -230.738E-03     458.858E-03    -228.120E-03     139.324E-03    -233.948E-03     461.261E-03    -227.919E-03     121.191E-03
            1426     4.29938E-03     80.5441E-03    -106.809E+06    -183.858E+06    -52.8416E+06     4.46990E+03    -230.115E-03     458.215E-03    -228.101E-03     121.166E-03    -232.480E-03     459.702E-03    -227.943E-03     105.850E-03
            1427     3.58262E-03     80.3934E-03    -115.515E+06    -214.989E+06    -73.1235E+06     144.222E+03    -229.477E-03     457.571E-03    -228.094E-03     102.112E-03    -231.127E-03     458.261E-03    -227.981E-03     89.5493E-03
            1428     2.86593E-03     80.2689E-03    -123.567E+06    -246.387E+06    -92.6298E+06     171.755E+03    -229.009E-03     457.108E-03    -228.099E-03     82.5867E-03    -230.083E-03     457.137E-03    -228.026E-03     72.6683E-03
            1429     2.14943E-03     80.1704E-03    -130.490E+06    -270.849E+06    -111.308E+06     118.743E+03    -228.662E-03     456.747E-03    -228.085E-03     62.6949E-03    -229.298E-03     456.280E-03    -228.059E-03     55.3159E-03
            1430     1.43275E-03     80.0994E-03    -136.410E+06    -287.193E+06    -128.147E+06     158.320E+03    -228.332E-03     456.387E-03    -228.056E-03     42.6156E-03    -228.661E-03     455.584E-03    -228.082E-03     37.6881E-03
            1431     716.318E-06     80.0553E-03    -139.428E+06    -299.907E+06    -137.697E+06    -46.0820E+03    -228.041E-03     456.201E-03    -228.160E-03     23.6001E-03    -228.184E-03     455.185E-03    -228.212E-03     20.9062E-03
            1432     13.6227E-03     82.1305E-03    -4.43583E+06     77.9007E+06     89.4512E+06     16.7088E+03    -226.366E-03     454.242E-03    -227.876E-03     110.225E-03    -230.732E-03     458.609E-03    -227.535E-03     87.9241E-03
            1433     12.9015E-03     81.9393E-03    -9.80402E+06     74.3153E+06     89.1836E+06     1.03481E+06    -227.127E-03     455.044E-03    -227.917E-03     155.158E-03    -233.787E-03     461.674E-03    -227.565E-03     127.119E-03
            1434     12.1859E-03     81.7377E-03    -15.2967E+06     66.9768E+06     87.9058E+06     1.10665E+06    -228.321E-03     456.272E-03    -227.951E-03     171.174E-03    -235.840E-03     463.720E-03    -227.587E-03     141.841E-03
            1435     11.4687E-03     81.5004E-03    -22.3896E+06     62.5173E+06     85.1966E+06     861.444E+03    -229.113E-03     457.089E-03    -227.977E-03     190.294E-03    -237.775E-03     465.647E-03    -227.609E-03     159.166E-03
            1436     10.7519E-03     81.2451E-03    -29.2645E+06     58.0335E+06     78.2679E+06     850.703E+03    -229.869E-03     457.868E-03    -227.999E-03     202.295E-03    -239.109E-03     466.983E-03    -227.650E-03     170.453E-03
            1437     10.0336E-03     80.9756E-03    -36.3417E+06     46.9344E+06     65.6285E+06     705.184E+03    -230.858E-03     458.871E-03    -228.013E-03     210.203E-03    -240.332E-03     468.193E-03    -227.701E-03     178.059E-03
            1438     9.31711E-03     80.6951E-03    -44.5669E+06     35.1249E+06     54.0148E+06     368.898E+03    -231.748E-03     459.774E-03    -228.027E-03     212.018E-03    -240.994E-03     468.830E-03    -227.743E-03     180.282E-03
            1439     8.59949E-03     80.4170E-03    -52.6601E+06     27.5662E+06     47.4615E+06     128.715E+03    -232.083E-03     460.131E-03    -228.048E-03     208.129E-03    -240.697E-03     468.519E-03    -227.774E-03     177.547E-03
            1440     7.88333E-03     80.1442E-03    -60.9849E+06     3.53446E+06     37.6486E+06     208.504E+03    -232.243E-03     460.313E-03    -228.070E-03     199.792E-03    -239.905E-03     467.662E-03    -227.798E-03     171.006E-03
            1441     7.16668E-03     79.8853E-03    -70.2142E+06    -38.2722E+06     21.2639E+06     405.992E+03    -232.098E-03     460.177E-03    -228.079E-03     187.800E-03    -238.613E-03     466.245E-03    -227.816E-03     161.334E-03
            1442     6.44970E-03     79.6440E-03    -79.4075E+06    -80.4579E+06     3.05078E+06     809.827E+03    -231.651E-03     459.736E-03    -228.085E-03     173.332E-03    -236.985E-03     464.493E-03    -227.838E-03     149.528E-03
            1443     5.73305E-03     79.4234E-03    -88.2781E+06    -123.781E+06    -15.3621E+06     574.127E+03    -231.176E-03     459.276E-03    -228.099E-03     157.181E-03    -235.386E-03     462.778E-03    -227.869E-03     136.189E-03
            1444     5.01603E-03     79.2247E-03    -97.4241E+06    -156.502E+06    -33.3301E+06     467.838E+03    -230.647E-03     458.753E-03    -228.106E-03     139.727E-03    -233.862E-03     461.163E-03    -227.904E-03     121.602E-03
            1445     4.29929E-03     79.0493E-03    -106.860E+06    -182.869E+06    -52.3342E+06     367.552E+03    -230.085E-03     458.182E-03    -228.098E-03     121.210E-03    -232.452E-03     459.673E-03    -227.939E-03     105.906E-03
            1446     3.58268E-03     78.8992E-03    -115.697E+06    -215.179E+06    -73.2812E+06    -55.7396E+03    -229.538E-03     457.622E-03    -228.085E-03     102.039E-03    -231.188E-03     458.311E-03    -227.971E-03     89.4713E-03
            1447     2.86599E-03     78.7744E-03    -123.675E+06    -246.664E+06    -93.4182E+06     273.171E+03    -229.024E-03     457.098E-03    -228.074E-03     82.4920E-03    -230.096E-03     457.126E-03    -228.004E-03     72.5768E-03
            1448     2.14934E-03     78.6759E-03    -131.281E+06    -270.563E+06    -111.974E+06     552.532E+03    -228.607E-03     456.666E-03    -228.059E-03     62.5359E-03    -229.245E-03     456.202E-03    -228.036E-03     55.1621E-03
            1449     1.43297E-03     78.6048E-03    -136.351E+06    -286.437E+06    -127.681E+06     125.856E+03    -228.347E-03     456.369E-03    -228.022E-03     42.2880E-03    -228.677E-03     455.569E-03    -228.047E-03     37.3435E-03
            1450     716.361E-06     78.5608E-03    -139.416E+06    -299.958E+06    -137.150E+06    -182.436E+03    -228.131E-03     456.093E-03    -227.962E-03     22.8638E-03    -228.274E-03     455.075E-03    -228.011E-03     20.1979E-03
            1451     13.6171E-03     80.6356E-03    -4.77225E+06     76.6855E+06     88.5863E+06     80.5461E+03    -226.754E-03     454.645E-03    -227.891E-03     110.652E-03    -231.138E-03     459.028E-03    -227.553E-03     88.2558E-03
            1452     12.9040E-03     80.4441E-03    -10.1086E+06     73.6207E+06     88.8676E+06     172.395E+03    -227.583E-03     455.495E-03    -227.912E-03     155.290E-03    -234.265E-03     462.145E-03    -227.560E-03     127.121E-03
            1453     12.1861E-03     80.2428E-03    -15.3523E+06     66.4748E+06     87.6144E+06     976.189E+03    -228.064E-03     456.004E-03    -227.940E-03     171.362E-03    -235.590E-03     463.457E-03    -227.576E-03     142.044E-03
            1454     11.4690E-03     80.0063E-03    -21.2281E+06     62.9412E+06     85.2671E+06     1.56361E+06    -228.805E-03     456.788E-03    -227.983E-03     190.544E-03    -237.464E-03     465.347E-03    -227.617E-03     159.470E-03
            1455     10.7505E-03     79.7516E-03    -28.6301E+06     59.0082E+06     77.9106E+06     1.27300E+06    -229.917E-03     457.929E-03    -228.012E-03     202.085E-03    -239.153E-03     467.048E-03    -227.667E-03     170.217E-03
            1456     10.0342E-03     79.4800E-03    -36.6111E+06     47.5657E+06     65.2304E+06     1.14759E+06    -231.203E-03     459.214E-03    -228.011E-03     209.581E-03    -240.668E-03     468.529E-03    -227.701E-03     177.391E-03
            1457     9.31695E-03     79.2005E-03    -43.8550E+06     36.2778E+06     55.0343E+06     810.563E+03    -231.916E-03     459.919E-03    -228.003E-03     211.350E-03    -241.148E-03     468.965E-03    -227.717E-03     179.601E-03
            1458     8.60092E-03     78.9216E-03    -51.8369E+06     27.7889E+06     48.1085E+06     411.084E+03    -232.203E-03     460.208E-03    -228.005E-03     207.911E-03    -240.815E-03     468.594E-03    -227.729E-03     177.311E-03
            1459     7.88371E-03     78.6494E-03    -60.8274E+06     3.21477E+06     37.4774E+06     660.061E+03    -232.095E-03     460.118E-03    -228.022E-03     200.007E-03    -239.759E-03     467.468E-03    -227.751E-03     171.250E-03
            1460     7.16661E-03     78.3905E-03    -69.7329E+06    -38.7387E+06     20.8933E+06     834.742E+03    -231.819E-03     459.871E-03    -228.052E-03     188.226E-03    -238.332E-03     465.938E-03    -227.790E-03     161.814E-03
            1461     6.44973E-03     78.1496E-03    -78.6531E+06    -80.3451E+06     3.17459E+06     589.197E+03    -231.526E-03     459.608E-03    -228.083E-03     173.531E-03    -236.856E-03     464.365E-03    -227.836E-03     149.746E-03
            1462     5.73250E-03     77.9286E-03    -87.7547E+06    -123.043E+06    -15.2577E+06     536.014E+03    -231.164E-03     459.271E-03    -228.107E-03     157.152E-03    -235.371E-03     462.774E-03    -227.877E-03     136.165E-03
            1463     5.01601E-03     77.7300E-03    -96.6888E+06    -156.335E+06    -33.8617E+06     469.505E+03    -230.701E-03     458.808E-03    -228.108E-03     139.590E-03    -233.910E-03     461.218E-03    -227.910E-03     121.458E-03
            1464     4.29932E-03     77.5547E-03    -104.925E+06    -181.297E+06    -51.7799E+06     390.998E+03    -230.108E-03     458.203E-03    -228.095E-03     121.108E-03    -232.467E-03     459.696E-03    -227.939E-03     105.810E-03
            1465     3.58265E-03     77.4045E-03    -113.395E+06    -215.802E+06    -70.6416E+06     473.944E+03    -229.577E-03     457.668E-03    -228.090E-03     102.066E-03    -231.220E-03     458.346E-03    -227.966E-03     89.4977E-03
            1466     2.86623E-03     77.2799E-03    -122.008E+06    -247.607E+06    -90.0854E+06     1.10884E+06    -229.088E-03     457.159E-03    -228.072E-03     82.5831E-03    -230.156E-03     457.177E-03    -227.986E-03     72.6695E-03
            1467     2.14968E-03     77.1817E-03    -129.173E+06    -268.430E+06    -109.123E+06     867.574E+03    -228.632E-03     456.664E-03    -228.032E-03     62.6989E-03    -229.267E-03     456.204E-03    -228.001E-03     55.3311E-03
            1468     1.43303E-03     77.1100E-03    -134.918E+06    -285.591E+06    -125.071E+06     218.559E+03    -228.331E-03     456.314E-03    -227.983E-03     42.5845E-03    -228.660E-03     455.513E-03    -227.999E-03     37.6577E-03
            1469     717.013E-06     77.0663E-03    -138.967E+06    -299.944E+06    -136.630E+06     245.817E+03    -228.223E-03     455.993E-03    -227.770E-03     23.1981E-03    -228.365E-03     454.974E-03    -227.817E-03     20.5259E-03
            1470     13.6218E-03     79.1379E-03    -5.12703E+06     76.8837E+06     88.6248E+06     550.669E+03    -226.926E-03     454.818E-03    -227.892E-03     109.987E-03    -231.303E-03     459.192E-03    -227.553E-03     87.5757E-03
            1471     12.9024E-03     78.9495E-03    -10.3182E+06     73.3446E+06     88.7916E+06    -129.213E+03    -227.286E-03     455.200E-03    -227.913E-03     155.010E-03    -233.974E-03     461.854E-03    -227.561E-03     126.820E-03
            1472     12.1857E-03     78.7484E-03    -16.5956E+06     65.5842E+06     86.5868E+06    -262.887E+03    -227.857E-03     455.810E-03    -227.953E-03     171.649E-03    -235.402E-03     463.278E-03    -227.591E-03     142.299E-03
            1473     11.4679E-03     78.5122E-03    -22.9641E+06     61.1804E+06     84.3057E+06     636.576E+03    -229.132E-03     457.126E-03    -227.994E-03     190.348E-03    -237.795E-03     465.680E-03    -227.628E-03     159.215E-03
            1474     10.7518E-03     78.2572E-03    -29.5532E+06     59.0663E+06     78.5785E+06     1.43075E+06    -230.404E-03     458.403E-03    -227.999E-03     201.767E-03    -239.641E-03     467.517E-03    -227.649E-03     169.841E-03
            1475     10.0345E-03     77.9842E-03    -36.3234E+06     49.3363E+06     66.8835E+06     1.00055E+06    -231.274E-03     459.248E-03    -227.974E-03     209.334E-03    -240.736E-03     468.563E-03    -227.659E-03     177.146E-03
            1476     9.31815E-03     77.7064E-03    -43.5617E+06      36.041E+06     55.2421E+06     656.551E+03    -231.819E-03     459.780E-03    -227.960E-03     211.573E-03    -241.052E-03     468.825E-03    -227.673E-03     179.847E-03
            1477     8.60055E-03     77.4257E-03    -51.3940E+06     27.8508E+06     47.9202E+06     1.39555E+06    -231.943E-03     459.919E-03    -227.975E-03     208.335E-03    -240.551E-03     468.304E-03    -227.702E-03     177.810E-03
            1478     7.88387E-03     77.1555E-03    -60.1554E+06     3.14754E+06     37.5094E+06     1.23747E+06    -231.906E-03     459.924E-03    -228.018E-03     200.442E-03    -239.574E-03     467.280E-03    -227.747E-03     171.718E-03
            1479     7.16653E-03     76.8961E-03    -69.1446E+06    -37.6970E+06     21.5425E+06     996.946E+03    -231.848E-03     459.908E-03    -228.060E-03     188.382E-03    -238.363E-03     465.981E-03    -227.797E-03     161.972E-03
            1480     6.44946E-03     76.6549E-03    -78.2694E+06    -79.4369E+06     3.49804E+06     638.400E+03    -231.578E-03     459.664E-03    -228.086E-03     173.408E-03    -236.903E-03     464.419E-03    -227.840E-03     149.626E-03
            1481     5.73302E-03     76.4342E-03    -87.3075E+06    -123.064E+06    -15.0614E+06     201.273E+03    -231.211E-03     459.315E-03    -228.104E-03     157.059E-03    -235.415E-03     462.817E-03    -227.874E-03     136.057E-03
            1482     5.01606E-03     76.2351E-03    -95.8823E+06    -155.585E+06    -33.2749E+06     85.9038E+03    -230.661E-03     458.765E-03    -228.104E-03     139.530E-03    -233.866E-03     461.174E-03    -227.906E-03     121.400E-03
            1483     4.29939E-03     76.0603E-03    -104.893E+06    -181.786E+06    -52.1968E+06     77.5998E+03    -230.057E-03     458.154E-03    -228.097E-03     121.202E-03    -232.415E-03     459.646E-03    -227.942E-03     105.898E-03
            1484     3.58265E-03     75.9098E-03    -113.791E+06    -216.514E+06    -70.8702E+06     592.340E+03    -229.558E-03     457.661E-03    -228.103E-03     102.191E-03    -231.202E-03     458.338E-03    -227.978E-03     89.6246E-03
            1485     2.86590E-03     75.7853E-03    -121.776E+06    -247.246E+06    -89.2398E+06     391.513E+03    -229.138E-03     457.224E-03    -228.086E-03     82.6288E-03    -230.208E-03     457.243E-03    -227.997E-03     72.6958E-03
            1486     2.14941E-03     75.6869E-03    -128.634E+06    -267.318E+06    -107.923E+06     214.033E+03    -228.692E-03     456.722E-03    -228.030E-03     62.6160E-03    -229.327E-03     456.265E-03    -227.996E-03     55.2393E-03
            1487     1.43298E-03     75.6159E-03    -134.683E+06    -285.235E+06    -124.443E+06     545.055E+03    -228.203E-03     456.207E-03    -228.004E-03     42.4078E-03    -228.530E-03     455.405E-03    -228.018E-03     37.4953E-03
            1488     715.836E-06     75.5718E-03    -139.281E+06    -299.083E+06    -135.022E+06     704.182E+03    -228.051E-03     456.103E-03    -228.052E-03     23.1009E-03    -228.198E-03     455.086E-03    -228.092E-03     20.4363E-03
            1489     13.6186E-03     77.6427E-03    -4.03949E+06     76.1999E+06     88.8962E+06     196.400E+03    -226.276E-03     454.156E-03    -227.881E-03     110.428E-03    -230.638E-03     458.517E-03    -227.541E-03     88.1275E-03
            1490     12.9032E-03     77.4556E-03    -9.11921E+06     73.5277E+06     88.8156E+06     882.231E+03    -226.972E-03     454.901E-03    -227.928E-03     155.110E-03    -233.636E-03     461.535E-03    -227.577E-03     127.046E-03
            1491     12.1853E-03     77.2538E-03    -15.4790E+06     66.2228E+06     87.2225E+06     836.979E+03    -228.301E-03     456.268E-03    -227.968E-03     171.374E-03    -235.836E-03     463.731E-03    -227.605E-03     141.993E-03
            1492     11.4686E-03     77.0179E-03    -21.9342E+06     59.2195E+06     84.6424E+06     836.607E+03    -229.599E-03     457.581E-03    -227.982E-03     190.103E-03    -238.256E-03     466.125E-03    -227.613E-03     158.900E-03
            1493     10.7517E-03     76.7599E-03    -28.5773E+06     59.1011E+06     79.4556E+06     1.19205E+06    -230.451E-03     458.418E-03    -227.967E-03     201.767E-03    -239.688E-03     467.533E-03    -227.614E-03     169.835E-03
            1494     10.0352E-03     76.4913E-03    -35.8773E+06     50.8336E+06      67.607E+06     895.894E+03    -231.134E-03     459.078E-03    -227.944E-03     209.677E-03    -240.605E-03     468.406E-03    -227.627E-03     177.510E-03
            1495     9.31759E-03     76.2098E-03    -43.6500E+06     35.1527E+06     54.8451E+06     1.11532E+06    -231.539E-03     459.485E-03    -227.946E-03     211.840E-03    -240.767E-03     468.524E-03    -227.659E-03     180.183E-03
            1496     8.60106E-03     75.9331E-03    -51.7292E+06     27.2160E+06     47.6910E+06     1.38807E+06    -231.771E-03     459.754E-03    -227.983E-03     208.564E-03    -240.380E-03     468.137E-03    -227.709E-03     178.070E-03
            1497     7.88294E-03     75.6601E-03    -60.0608E+06     4.36918E+06     38.0530E+06     1.14086E+06    -232.013E-03     460.042E-03    -228.029E-03     200.300E-03    -239.678E-03     467.400E-03    -227.758E-03     171.561E-03
            1498     7.16655E-03     75.4013E-03    -69.0839E+06    -36.7643E+06     22.0096E+06     488.848E+03    -231.890E-03     459.953E-03    -228.063E-03     188.125E-03    -238.403E-03     466.026E-03    -227.799E-03     161.695E-03
            1499     6.44979E-03     75.1604E-03    -78.0745E+06    -78.6111E+06     4.43498E+06     401.779E+03    -231.594E-03     459.682E-03    -228.087E-03     173.535E-03    -236.924E-03     464.443E-03    -227.838E-03     149.745E-03
            1500     5.73268E-03     74.9391E-03    -87.1706E+06    -122.320E+06    -14.1839E+06     242.728E+03    -231.200E-03     459.306E-03    -228.106E-03     157.146E-03    -235.406E-03     462.809E-03    -227.873E-03     136.149E-03
            1501     5.01613E-03     74.7409E-03    -96.6811E+06    -155.755E+06    -32.7747E+06     85.7720E+03    -230.625E-03     458.735E-03    -228.110E-03     139.568E-03    -233.836E-03     461.145E-03    -227.908E-03     121.438E-03
            1502     4.29914E-03     74.5656E-03    -106.120E+06    -182.705E+06    -51.9184E+06     565.974E+03    -230.039E-03     458.147E-03    -228.108E-03     121.134E-03    -232.402E-03     459.635E-03    -227.949E-03     105.842E-03
            1503     3.58250E-03     74.4153E-03    -115.000E+06    -215.486E+06    -72.5406E+06     181.398E+03    -229.579E-03     457.678E-03    -228.100E-03     102.109E-03    -231.225E-03     458.362E-03    -227.983E-03     89.5507E-03
            1504     2.86609E-03     74.2905E-03    -123.057E+06    -246.271E+06    -91.7322E+06    -711.406E+03    -229.158E-03     457.231E-03    -228.073E-03     82.5049E-03    -230.230E-03     457.258E-03    -227.996E-03     72.5688E-03
            1505     2.14971E-03     74.1923E-03    -130.295E+06    -269.044E+06    -109.784E+06    -510.871E+03    -228.705E-03     456.720E-03    -228.015E-03     62.4540E-03    -229.342E-03     456.258E-03    -227.985E-03     55.0658E-03
            1506     1.43316E-03     74.1216E-03    -135.574E+06    -285.055E+06    -126.230E+06    -13.5858E+03    -228.328E-03     456.259E-03    -227.930E-03     42.1383E-03    -228.657E-03     455.460E-03    -227.952E-03     37.2219E-03
            1507     716.928E-06     74.0780E-03    -137.947E+06    -298.608E+06    -136.505E+06    -507.587E+03    -227.893E-03     455.867E-03    -227.973E-03     22.9180E-03    -228.031E-03     454.850E-03    -228.023E-03     20.2725E-03
            1508     13.6214E-03     76.1516E-03    -4.75649E+06     74.9680E+06     87.3488E+06    -25.5938E+03    -226.319E-03     454.206E-03    -227.887E-03     110.297E-03    -230.677E-03     458.560E-03    -227.552E-03     88.0136E-03
            1509     12.9015E-03     75.9596E-03    -10.1856E+06     72.6721E+06     87.8330E+06     320.008E+03    -227.285E-03     455.213E-03    -227.928E-03     154.990E-03    -233.952E-03     461.847E-03    -227.579E-03     126.878E-03
            1510     12.1854E-03     75.7593E-03    -14.8061E+06     66.7002E+06     87.5876E+06     775.447E+03    -228.636E-03     456.584E-03    -227.949E-03     170.946E-03    -236.161E-03     464.040E-03    -227.586E-03     141.525E-03
            1511     11.4692E-03     75.5204E-03    -21.1624E+06     58.0516E+06     84.3390E+06     1.36400E+06    -229.513E-03     457.465E-03    -227.952E-03     190.002E-03    -238.168E-03     466.007E-03    -227.584E-03     158.802E-03
            1512     10.7523E-03     75.2677E-03    -28.5981E+06     59.4684E+06     78.3913E+06     1.69926E+06    -230.194E-03     458.137E-03    -227.943E-03     201.913E-03    -239.437E-03     467.262E-03    -227.595E-03     170.006E-03
            1513     10.0347E-03     74.9941E-03    -36.2958E+06     52.3140E+06     66.7297E+06     1.55847E+06    -230.863E-03     458.800E-03    -227.937E-03     209.764E-03    -240.333E-03     468.134E-03    -227.627E-03     177.652E-03
            1514     9.31829E-03     74.7178E-03    -43.9987E+06     35.1452E+06     54.7089E+06     934.855E+03    -231.452E-03     459.412E-03    -227.960E-03     212.005E-03    -240.685E-03     468.455E-03    -227.674E-03     180.352E-03
            1515     8.59975E-03     74.4376E-03    -51.6998E+06     27.3764E+06     48.3171E+06     647.074E+03    -232.006E-03     460.001E-03    -227.996E-03     208.692E-03    -240.627E-03     468.396E-03    -227.719E-03     178.131E-03
            1516     7.88423E-03     74.1652E-03    -60.0666E+06     5.14957E+06     38.7780E+06     685.026E+03    -232.031E-03     460.062E-03    -228.031E-03     200.206E-03    -239.695E-03     467.418E-03    -227.757E-03     171.464E-03
            1517     7.16664E-03     73.9074E-03    -68.8270E+06    -36.0539E+06     22.4396E+06     270.474E+03    -231.873E-03     459.937E-03    -228.063E-03     188.345E-03    -238.390E-03     466.016E-03    -227.799E-03     161.913E-03
            1518     6.44945E-03     73.6652E-03    -77.9559E+06    -79.0852E+06     4.68737E+06     57.5816E+03    -231.646E-03     459.734E-03    -228.088E-03     173.526E-03    -236.976E-03     464.493E-03    -227.837E-03     149.727E-03
            1519     5.73291E-03     73.4449E-03    -87.1956E+06    -122.064E+06    -13.3455E+06     644.642E+03    -231.172E-03     459.278E-03    -228.106E-03     156.875E-03    -235.371E-03     462.773E-03    -227.869E-03     135.908E-03
            1520     5.01588E-03     73.2459E-03    -96.4241E+06    -155.867E+06    -32.2625E+06     757.890E+03    -230.628E-03     458.735E-03    -228.107E-03     139.320E-03    -233.834E-03     461.139E-03    -227.903E-03     121.206E-03
            1521     4.29946E-03     73.0713E-03    -105.358E+06    -182.642E+06    -51.3914E+06     545.337E+03    -230.097E-03     458.192E-03    -228.095E-03     121.001E-03    -232.454E-03     459.676E-03    -227.934E-03     105.714E-03
            1522     3.58270E-03     72.9206E-03    -113.772E+06    -213.801E+06    -71.4325E+06     291.553E+03    -229.597E-03     457.673E-03    -228.076E-03     102.029E-03    -231.241E-03     458.361E-03    -227.958E-03     89.4733E-03
            1523     2.86609E-03     72.7956E-03    -121.989E+06    -245.621E+06    -91.1770E+06    -29.6077E+03    -229.077E-03     457.128E-03    -228.051E-03     82.4212E-03    -230.145E-03     457.155E-03    -227.974E-03     72.5001E-03
            1524     2.14943E-03     72.6979E-03    -129.504E+06    -269.923E+06    -110.065E+06    -367.741E+03    -228.620E-03     456.634E-03    -228.014E-03     62.4677E-03    -229.253E-03     456.168E-03    -227.985E-03     55.0789E-03
            1525     1.43304E-03     72.6268E-03    -134.923E+06    -285.208E+06    -126.036E+06    -516.988E+03    -228.313E-03     456.271E-03    -227.958E-03     42.4594E-03    -228.640E-03     455.472E-03    -227.979E-03     37.5371E-03
            1526     716.739E-06     72.5836E-03    -138.968E+06    -299.388E+06    -136.703E+06    -255.909E+03    -228.000E-03     455.951E-03    -227.951E-03     23.1587E-03    -228.142E-03     454.934E-03    -227.999E-03     20.4916E-03
            1527     13.6182E-03     74.6559E-03    -5.11376E+06     75.3002E+06     87.3803E+06     164.106E+03    -227.023E-03     454.919E-03    -227.896E-03     110.152E-03    -231.399E-03     459.291E-03    -227.561E-03     87.7367E-03
            1528     12.9037E-03     74.4658E-03    -9.95822E+06     72.6528E+06     88.1437E+06    -98.9903E+03    -227.777E-03     455.680E-03    -227.903E-03     155.007E-03    -234.470E-03     462.340E-03    -227.553E-03     126.750E-03
            1529     12.1867E-03     74.2625E-03    -16.5115E+06     64.5778E+06     86.0831E+06     454.415E+03    -228.338E-03     456.251E-03    -227.914E-03     171.080E-03    -235.873E-03     463.708E-03    -227.553E-03     141.670E-03
            1530     11.4691E-03     74.0274E-03    -23.0313E+06     57.3843E+06     82.9895E+06     1.12838E+06    -229.229E-03     457.161E-03    -227.932E-03     190.101E-03    -237.885E-03     465.698E-03    -227.567E-03     158.948E-03
            1531     10.7519E-03     73.7712E-03    -29.5312E+06     59.6457E+06     78.2480E+06     1.02162E+06    -229.933E-03     457.877E-03    -227.944E-03     201.947E-03    -239.175E-03     466.998E-03    -227.596E-03     170.074E-03
            1532     10.0353E-03     73.5013E-03    -36.2140E+06     52.5909E+06     67.4076E+06     1.03881E+06    -230.696E-03     458.653E-03    -227.957E-03     209.874E-03    -240.163E-03     467.982E-03    -227.644E-03     177.787E-03
            1533     9.31649E-03     73.2230E-03    -43.0747E+06     36.3784E+06     55.8521E+06     890.650E+03    -231.705E-03     459.683E-03    -227.978E-03     212.109E-03    -240.944E-03     468.737E-03    -227.689E-03     180.405E-03
            1534     8.60146E-03     72.9418E-03    -50.8221E+06     28.0019E+06     49.1506E+06     454.994E+03    -232.017E-03     460.022E-03    -228.004E-03     208.655E-03    -240.630E-03     468.411E-03    -227.725E-03     178.107E-03
            1535     7.88295E-03     72.6718E-03    -59.2834E+06     5.03517E+06     39.3856E+06     312.066E+03    -232.028E-03     460.070E-03    -228.042E-03     200.449E-03    -239.693E-03     467.428E-03    -227.766E-03     171.706E-03
            1536     7.16621E-03     72.4116E-03    -68.4185E+06    -35.6992E+06     22.9900E+06     658.059E+03    -232.053E-03     460.119E-03    -228.066E-03     188.211E-03    -238.566E-03     466.196E-03    -227.800E-03     161.774E-03
            1537     6.44993E-03     72.1709E-03    -77.6985E+06    -78.9743E+06     4.44502E+06     675.165E+03    -231.653E-03     459.729E-03    -228.076E-03     173.292E-03    -236.973E-03     464.480E-03    -227.827E-03     149.515E-03
            1538     5.73285E-03     71.9498E-03    -86.8391E+06    -122.986E+06    -13.6711E+06     465.070E+03    -231.188E-03     459.279E-03    -228.091E-03     156.893E-03    -235.387E-03     462.773E-03    -227.855E-03     135.915E-03
            1539     5.01640E-03     71.7518E-03    -95.7716E+06    -155.466E+06    -31.7444E+06     679.281E+03    -230.680E-03     458.768E-03    -228.087E-03     139.306E-03    -233.884E-03     461.171E-03    -227.882E-03     121.188E-03
            1540     4.29927E-03     71.5765E-03    -104.761E+06    -181.775E+06    -50.9943E+06     474.756E+03    -230.122E-03     458.187E-03    -228.064E-03     120.990E-03    -232.480E-03     459.675E-03    -227.904E-03     105.690E-03
            1541     3.58291E-03     71.4259E-03    -113.743E+06    -213.468E+06    -71.1736E+06     361.269E+03    -229.528E-03     457.573E-03    -228.045E-03     102.017E-03    -231.174E-03     458.263E-03    -227.926E-03     89.4542E-03
            1542     2.86621E-03     71.3015E-03    -121.737E+06    -244.796E+06    -90.6018E+06     385.387E+03    -228.940E-03     456.978E-03    -228.039E-03     82.4412E-03    -230.009E-03     457.009E-03    -227.960E-03     72.5290E-03
            1543     2.14968E-03     71.2033E-03    -128.850E+06    -269.164E+06    -109.332E+06     19.7191E+03    -228.445E-03     456.499E-03    -228.054E-03     62.5535E-03    -229.076E-03     456.034E-03    -228.023E-03     55.1850E-03
            1544     1.43290E-03     71.1329E-03    -135.194E+06    -286.069E+06    -125.537E+06    -60.9886E+03    -228.128E-03     456.253E-03    -228.125E-03     42.6059E-03    -228.457E-03     455.450E-03    -228.142E-03     37.6727E-03
            1545     715.869E-06     71.0889E-03    -138.781E+06    -299.679E+06    -136.204E+06     250.044E+03    -228.569E-03     456.454E-03    -227.885E-03     23.0705E-03    -228.711E-03     455.435E-03    -227.930E-03     20.3872E-03
            1546     13.6207E-03     73.1583E-03    -4.83756E+06      75.426E+06     88.0561E+06     58.9703E+03    -226.905E-03     454.774E-03    -227.870E-03     109.298E-03    -231.261E-03     459.125E-03    -227.532E-03     86.9307E-03
            1547     12.9032E-03     72.9698E-03    -10.0967E+06     71.5871E+06     87.8307E+06     776.803E+03    -227.449E-03     455.334E-03    -227.885E-03     155.053E-03    -234.128E-03     461.976E-03    -227.535E-03     126.882E-03
            1548     12.1860E-03     72.7687E-03    -15.8183E+06     63.6008E+06     86.0404E+06     1.30742E+06    -228.193E-03     456.103E-03    -227.911E-03     171.675E-03    -235.732E-03     463.563E-03    -227.550E-03     142.301E-03
            1549     11.4692E-03     72.5321E-03    -21.9455E+06     58.1097E+06     83.7168E+06     813.304E+03    -229.065E-03     457.008E-03    -227.943E-03     190.537E-03    -237.725E-03     465.554E-03    -227.577E-03     159.406E-03
            1550     10.7524E-03     72.2769E-03    -27.9800E+06     59.5468E+06     79.3179E+06     493.993E+03    -229.848E-03     457.817E-03    -227.969E-03     202.038E-03    -239.085E-03     466.935E-03    -227.618E-03     170.175E-03
            1551     10.0336E-03     72.0084E-03    -34.7055E+06     52.2328E+06     68.3052E+06     608.287E+03    -231.046E-03     459.020E-03    -227.974E-03     209.976E-03    -240.514E-03     468.352E-03    -227.658E-03     177.824E-03
            1552     9.31857E-03     71.7257E-03    -42.2110E+06     36.8953E+06     56.4473E+06     747.396E+03    -231.754E-03     459.734E-03    -227.979E-03     211.903E-03    -240.978E-03     468.775E-03    -227.690E-03     180.215E-03
            1553     8.59969E-03     71.4495E-03    -50.1478E+06     28.3140E+06     49.3649E+06     760.577E+03    -231.961E-03     459.964E-03    -228.003E-03     208.378E-03    -240.557E-03     468.340E-03    -227.725E-03     177.866E-03
            1554     7.88345E-03     71.1755E-03    -59.0836E+06     4.82985E+06     39.1372E+06     622.090E+03    -232.215E-03     460.246E-03    -228.031E-03     200.086E-03    -239.871E-03     467.595E-03    -227.756E-03     171.330E-03
            1555     7.16711E-03     70.9172E-03    -68.2875E+06    -35.9238E+06     23.1810E+06     813.457E+03    -231.976E-03     460.023E-03    -228.047E-03     187.775E-03    -238.480E-03     466.090E-03    -227.780E-03     161.348E-03
            1556     6.44961E-03     70.6762E-03    -77.5037E+06    -78.0665E+06     5.12983E+06     1.04795E+06    -231.564E-03     459.625E-03    -228.062E-03     173.272E-03    -236.885E-03     464.380E-03    -227.810E-03     149.506E-03
            1557     5.73302E-03     70.4553E-03    -86.7439E+06    -122.280E+06    -13.7597E+06     590.354E+03    -231.171E-03     459.248E-03    -228.077E-03     156.874E-03    -235.372E-03     462.746E-03    -227.843E-03     135.891E-03
            1558     5.01600E-03     70.2569E-03    -95.9288E+06    -155.602E+06    -32.0273E+06     199.317E+03    -230.696E-03     458.768E-03    -228.072E-03     139.387E-03    -233.901E-03     461.173E-03    -227.867E-03     121.257E-03
            1559     4.29990E-03     70.0818E-03    -104.869E+06    -181.504E+06    -50.7665E+06     475.673E+03    -230.088E-03     458.139E-03    -228.051E-03     121.094E-03    -232.447E-03     459.629E-03    -227.890E-03     105.798E-03
            1560     3.58283E-03     69.9319E-03    -113.415E+06    -212.876E+06    -70.8815E+06     522.087E+03    -229.421E-03     457.465E-03    -228.045E-03     102.138E-03    -231.066E-03     458.158E-03    -227.926E-03     89.5874E-03
            1561     2.86616E-03     69.8069E-03    -121.730E+06    -244.462E+06    -90.2768E+06     392.195E+03    -228.859E-03     456.924E-03    -228.066E-03     82.6011E-03    -229.929E-03     456.957E-03    -227.986E-03     72.6979E-03
            1562     2.14923E-03     69.7097E-03    -129.156E+06    -268.762E+06    -108.882E+06     604.998E+03    -228.465E-03     456.566E-03    -228.101E-03     62.5696E-03    -229.098E-03     456.102E-03    -228.068E-03     55.2146E-03
            1563     1.43246E-03     69.6381E-03    -134.901E+06    -285.830E+06    -125.641E+06     283.212E+03    -228.307E-03     456.435E-03    -228.128E-03     42.4043E-03    -228.634E-03     455.633E-03    -228.147E-03     37.4725E-03
            1564     716.483E-06     69.5941E-03    -138.062E+06    -299.399E+06    -136.517E+06    -235.106E+03    -228.710E-03     456.374E-03    -227.664E-03     23.1139E-03    -228.849E-03     455.355E-03    -227.712E-03     20.4483E-03
            1565     13.6208E-03     71.6667E-03    -4.43939E+06     74.7670E+06     87.7212E+06     373.868E+03    -226.500E-03     454.351E-03    -227.851E-03     110.489E-03    -230.859E-03     458.706E-03    -227.515E-03     88.1913E-03
            1566     12.9030E-03     71.4745E-03    -9.21420E+06     70.3419E+06     87.7885E+06     562.925E+03    -227.098E-03     454.991E-03    -227.892E-03     155.454E-03    -233.760E-03     461.615E-03    -227.542E-03     127.376E-03
            1567     12.1861E-03     71.2745E-03    -14.1077E+06     63.7297E+06     86.8791E+06     299.960E+03    -228.066E-03     456.002E-03    -227.936E-03     171.658E-03    -235.593E-03     463.453E-03    -227.574E-03     142.305E-03
            1568     11.4688E-03     71.0366E-03    -19.7987E+06     58.5269E+06     84.8592E+06     635.339E+03    -229.012E-03     456.989E-03    -227.977E-03     190.517E-03    -237.665E-03     465.532E-03    -227.608E-03     159.387E-03
            1569     10.7505E-03     70.7844E-03    -26.9636E+06     59.3781E+06     79.7081E+06     961.899E+03    -230.262E-03     458.252E-03    -227.990E-03     201.955E-03    -239.496E-03     467.370E-03    -227.638E-03     170.035E-03
            1570     10.0355E-03     70.5105E-03    -34.5009E+06     52.3013E+06     68.5375E+06     908.696E+03    -231.270E-03     459.243E-03    -227.973E-03     209.701E-03    -240.735E-03     468.572E-03    -227.656E-03     177.519E-03
            1571     9.31688E-03     70.2334E-03    -42.1548E+06     37.0424E+06     56.3030E+06     906.785E+03    -231.718E-03     459.684E-03    -227.966E-03     211.626E-03    -240.935E-03     468.720E-03    -227.677E-03     179.947E-03
            1572     8.60100E-03     69.9535E-03    -50.5941E+06     28.5600E+06     48.9152E+06     859.359E+03    -232.188E-03     460.166E-03    -227.977E-03     208.307E-03    -240.793E-03     468.551E-03    -227.701E-03     177.744E-03
            1573     7.88420E-03     69.6807E-03    -59.4410E+06     5.32941E+06     39.1865E+06     1.07299E+06    -232.112E-03     460.110E-03    -227.998E-03     200.003E-03    -239.765E-03     467.457E-03    -227.724E-03     171.275E-03
            1574     7.16652E-03     69.4229E-03    -68.5251E+06    -35.9822E+06     22.9964E+06     816.556E+03    -231.811E-03     459.836E-03    -228.025E-03     187.992E-03    -238.317E-03     465.905E-03    -227.759E-03     161.585E-03
            1575     6.45010E-03     69.1813E-03    -77.3708E+06    -78.1136E+06     5.37297E+06     611.095E+03    -231.600E-03     459.647E-03    -228.047E-03     173.301E-03    -236.925E-03     464.404E-03    -227.795E-03     149.517E-03
            1576     5.73303E-03     68.9610E-03    -86.1123E+06    -121.207E+06    -12.9146E+06     790.216E+03    -231.163E-03     459.223E-03    -228.059E-03     156.744E-03    -235.356E-03     462.717E-03    -227.823E-03     135.782E-03
            1577     5.01653E-03     68.7622E-03    -95.2941E+06    -155.181E+06    -31.7471E+06     687.706E+03    -230.574E-03     458.633E-03    -228.059E-03     139.299E-03    -233.775E-03     461.036E-03    -227.854E-03     121.194E-03
            1578     4.29918E-03     68.5875E-03    -104.648E+06    -181.563E+06    -50.7219E+06     530.119E+03    -229.973E-03     458.029E-03    -228.055E-03     121.021E-03    -232.329E-03     459.516E-03    -227.894E-03     105.738E-03
            1579     3.58279E-03     68.4373E-03    -113.786E+06    -212.542E+06    -71.0072E+06     464.262E+03    -229.412E-03     457.470E-03    -228.059E-03     101.964E-03    -231.059E-03     458.165E-03    -227.941E-03     89.4113E-03
            1580     2.86582E-03     68.3132E-03    -122.110E+06    -244.310E+06    -90.5364E+06     493.770E+03    -228.936E-03     457.005E-03    -228.070E-03     82.3243E-03    -230.006E-03     457.037E-03    -227.991E-03     72.4186E-03
            1581     2.14939E-03     68.2146E-03    -129.043E+06    -268.560E+06    -108.977E+06     393.095E+03    -228.645E-03     456.699E-03    -228.054E-03     62.3088E-03    -229.276E-03     456.235E-03    -228.022E-03     54.9443E-03
            1582     1.43328E-03     68.1437E-03    -134.664E+06    -284.822E+06    -125.287E+06     269.751E+03    -228.370E-03     456.363E-03    -227.993E-03     42.3853E-03    -228.696E-03     455.563E-03    -228.011E-03     37.4718E-03
            1583     716.675E-06     68.0986E-03    -138.369E+06    -299.215E+06    -135.852E+06     131.691E+03    -228.211E-03     456.008E-03    -227.797E-03     23.2621E-03    -228.352E-03     454.990E-03    -227.842E-03     20.6054E-03
            1584     13.6193E-03     70.1690E-03    -4.02262E+06     74.2707E+06     86.9155E+06    -104.461E+03    -226.563E-03     454.448E-03    -227.885E-03     111.129E-03    -230.941E-03     458.824E-03    -227.553E-03     88.7264E-03
            1585     12.9031E-03     69.9820E-03    -8.80008E+06     70.8950E+06     88.0036E+06    -406.071E+03    -227.417E-03     455.339E-03    -227.921E-03     155.694E-03    -234.100E-03     461.986E-03    -227.571E-03     127.519E-03
            1586     12.1855E-03     69.7781E-03    -14.6942E+06     63.5136E+06     86.5067E+06    -399.205E+03    -228.073E-03     456.029E-03    -227.956E-03     171.511E-03    -235.602E-03     463.480E-03    -227.594E-03     142.139E-03
            1587     11.4679E-03     69.5444E-03    -21.0759E+06     56.8992E+06     83.4741E+06     255.221E+03    -229.285E-03     457.269E-03    -227.984E-03     189.967E-03    -237.916E-03     465.786E-03    -227.619E-03     158.829E-03
            1588     10.7524E-03     69.2866E-03    -28.4482E+06     59.4725E+06     77.8919E+06     835.476E+03    -230.412E-03     458.390E-03    -227.978E-03     201.852E-03    -239.644E-03     467.507E-03    -227.634E-03     169.922E-03
            1589     10.0342E-03     69.0171E-03    -35.7127E+06     52.5836E+06     67.0120E+06     512.427E+03    -231.182E-03     459.139E-03    -227.958E-03     209.469E-03    -240.650E-03     468.474E-03    -227.647E-03     177.282E-03
            1590     9.31826E-03     68.7384E-03    -42.7362E+06     36.3630E+06     55.8516E+06     682.530E+03    -231.919E-03     459.870E-03    -227.950E-03     211.771E-03    -241.152E-03     468.917E-03    -227.662E-03     180.038E-03
            1591     8.60099E-03     68.4578E-03    -50.4040E+06     28.7812E+06     49.3438E+06     1.14354E+06    -232.126E-03     460.084E-03    -227.958E-03     208.551E-03    -240.737E-03     468.475E-03    -227.680E-03     177.998E-03
            1592     7.88369E-03     68.1871E-03    -58.7430E+06     5.87848E+06     39.8693E+06     1.12047E+06    -231.990E-03     459.978E-03    -227.988E-03     200.175E-03    -239.646E-03     467.330E-03    -227.712E-03     171.459E-03
            1593     7.16710E-03     67.9279E-03    -67.5110E+06    -34.9126E+06     23.6754E+06     954.920E+03    -231.933E-03     459.946E-03    -228.013E-03     187.971E-03    -238.435E-03     466.016E-03    -227.746E-03     161.562E-03
            1594     6.44985E-03     67.6869E-03    -76.7345E+06    -78.3449E+06     5.05753E+06     540.065E+03    -231.613E-03     459.637E-03    -228.024E-03     173.156E-03    -236.928E-03     464.387E-03    -227.773E-03     149.379E-03
            1595     5.73334E-03     67.4660E-03    -86.1395E+06    -121.880E+06    -13.1455E+06     798.989E+03    -231.120E-03     459.156E-03    -228.036E-03     156.695E-03    -235.311E-03     462.647E-03    -227.801E-03     135.738E-03
            1596     5.01625E-03     67.2682E-03    -95.5579E+06    -154.413E+06    -31.3954E+06     1.14968E+06    -230.537E-03     458.575E-03    -228.038E-03     139.182E-03    -233.740E-03     460.982E-03    -227.833E-03     121.080E-03
            1597     4.29981E-03     67.0931E-03    -104.922E+06    -180.848E+06    -50.6540E+06     929.934E+03    -229.952E-03     457.984E-03    -228.032E-03     120.774E-03    -232.308E-03     459.472E-03    -227.871E-03     105.501E-03
            1598     3.58270E-03     66.9430E-03    -113.728E+06    -212.125E+06    -70.7710E+06     660.588E+03    -229.458E-03     457.482E-03    -228.024E-03     101.607E-03    -231.100E-03     458.172E-03    -227.906E-03     89.0728E-03
            1599     2.86640E-03     66.8186E-03    -121.869E+06    -243.783E+06    -90.5512E+06     209.537E+03    -229.051E-03     457.050E-03    -227.999E-03     82.1874E-03    -230.119E-03     457.083E-03    -227.922E-03     72.2789E-03
            1600     2.14980E-03     66.7202E-03    -129.325E+06    -268.361E+06    -109.180E+06    -17.8384E+03    -228.662E-03     456.600E-03    -227.938E-03     62.3615E-03    -229.295E-03     456.138E-03    -227.907E-03     54.9919E-03
            1601     1.43302E-03     66.6489E-03    -134.720E+06    -284.630E+06    -125.220E+06     130.919E+03    -228.250E-03     456.099E-03    -227.849E-03     42.1883E-03    -228.577E-03     455.300E-03    -227.867E-03     37.2764E-03
            1602     716.330E-06     66.6055E-03     -137.84E+06    -298.612E+06    -135.650E+06     351.470E+03    -227.922E-03     455.698E-03    -227.776E-03     22.7877E-03    -228.060E-03     454.681E-03    -227.822E-03     20.1551E-03
            1603     13.6193E-03     68.6745E-03    -4.96448E+06     74.6107E+06     86.6755E+06    -352.432E+03    -226.338E-03     454.228E-03    -227.890E-03     109.822E-03    -230.683E-03     458.569E-03    -227.558E-03     87.5217E-03
            1604     12.9020E-03     68.4852E-03    -11.0518E+06     70.9817E+06     86.4102E+06    -367.506E+03    -227.194E-03     455.126E-03    -227.931E-03     154.937E-03    -233.853E-03     461.746E-03    -227.586E-03     126.837E-03
            1605     12.1856E-03     68.2849E-03    -16.9104E+06     63.3702E+06     85.0668E+06    -439.501E+03    -228.440E-03     456.401E-03    -227.961E-03     171.309E-03    -235.974E-03     463.853E-03    -227.603E-03     141.894E-03
            1606     11.4693E-03     68.0479E-03    -23.2519E+06     56.0036E+06     81.9334E+06    -692.903E+03    -229.555E-03     457.525E-03    -227.970E-03     190.100E-03    -238.200E-03     466.049E-03    -227.608E-03     158.913E-03
            1607     10.7513E-03     67.7926E-03    -28.7047E+06     57.8285E+06     77.5672E+06    -649.841E+03    -230.255E-03     458.219E-03    -227.964E-03     201.756E-03    -239.483E-03     467.326E-03    -227.618E-03     169.833E-03
            1608     10.0350E-03     67.5221E-03    -34.8593E+06     52.0447E+06     67.1379E+06     438.850E+03    -231.158E-03     459.106E-03    -227.947E-03     209.509E-03    -240.621E-03     468.435E-03    -227.637E-03     177.323E-03
            1609     9.31769E-03     67.2424E-03    -42.5431E+06     36.3193E+06     55.4654E+06     683.244E+03    -231.898E-03     459.837E-03    -227.940E-03     211.826E-03    -241.126E-03     468.883E-03    -227.653E-03     180.100E-03
            1610     8.60092E-03     66.9642E-03    -50.1818E+06     28.1981E+06     49.2594E+06     545.011E+03    -232.049E-03     460.002E-03    -227.953E-03     208.365E-03    -240.652E-03     468.383E-03    -227.675E-03     177.821E-03
            1611     7.88392E-03     66.6919E-03    -58.2007E+06     5.82190E+06     39.8129E+06     780.089E+03    -232.128E-03     460.104E-03    -227.976E-03     199.941E-03    -239.777E-03     467.451E-03    -227.701E-03     171.204E-03
            1612     7.16693E-03     66.4332E-03    -67.3720E+06    -35.0131E+06     23.7055E+06     1.13095E+06    -231.969E-03     459.959E-03    -227.990E-03     187.776E-03    -238.467E-03     466.025E-03    -227.723E-03     161.369E-03
            1613     6.45049E-03     66.1924E-03    -77.2834E+06    -77.4550E+06     5.22243E+06     1.62512E+06    -231.531E-03     459.530E-03    -227.999E-03     173.078E-03    -236.848E-03     464.283E-03    -227.749E-03     149.326E-03
            1614     5.73324E-03     65.9718E-03    -87.2375E+06    -121.309E+06    -13.7314E+06     1.15516E+06    -231.060E-03     459.074E-03    -228.014E-03     156.684E-03    -235.260E-03     462.573E-03    -227.780E-03     135.725E-03
            1615     5.01668E-03     65.7737E-03    -96.6056E+06    -154.274E+06    -31.8549E+06     634.338E+03    -230.583E-03     458.597E-03    -228.013E-03     139.176E-03    -233.791E-03     461.006E-03    -227.809E-03     121.067E-03
            1616     4.29967E-03     65.5988E-03    -105.274E+06    -180.006E+06    -50.4593E+06     540.449E+03    -230.034E-03     458.027E-03    -227.993E-03     120.840E-03    -232.394E-03     459.520E-03    -227.832E-03     105.563E-03
            1617     3.58331E-03     65.4488E-03    -113.602E+06    -211.536E+06    -70.6263E+06     269.568E+03    -229.515E-03     457.479E-03    -227.964E-03     101.775E-03    -231.157E-03     458.172E-03    -227.846E-03     89.2406E-03
            1618     2.86636E-03     65.3241E-03    -121.749E+06    -243.281E+06    -90.3262E+06     115.258E+03    -229.061E-03     456.979E-03    -227.918E-03     82.2616E-03    -230.130E-03     457.014E-03    -227.841E-03     72.3548E-03
            1619     2.14990E-03     65.2260E-03    -128.838E+06    -268.155E+06    -108.957E+06    -83.1097E+03    -228.576E-03     456.421E-03    -227.845E-03     62.3337E-03    -229.207E-03     455.959E-03    -227.814E-03     54.9667E-03
            1620     1.43359E-03     65.1550E-03    -134.368E+06    -284.844E+06    -125.166E+06    -245.628E+03    -228.150E-03     455.908E-03    -227.758E-03     42.2058E-03    -228.474E-03     455.107E-03    -227.776E-03     37.2942E-03
            1621     717.261E-06     65.1115E-03    -137.943E+06    -298.409E+06    -135.446E+06     47.0018E+03    -227.786E-03     455.524E-03    -227.738E-03     23.0049E-03    -227.926E-03     454.508E-03    -227.782E-03     20.3607E-03
            1622     13.6212E-03     67.1832E-03    -4.61844E+06     74.7050E+06     87.3946E+06     533.478E+03    -226.539E-03     454.414E-03    -227.875E-03     110.314E-03    -230.895E-03     458.765E-03    -227.540E-03     88.0080E-03
            1623     12.9027E-03     66.9908E-03    -10.3634E+06     71.7261E+06     86.6753E+06     633.663E+03    -227.178E-03     455.085E-03    -227.908E-03     154.909E-03    -233.838E-03     461.712E-03    -227.563E-03     126.805E-03
            1624     12.1854E-03     66.7892E-03    -16.1837E+06     64.2466E+06     85.1336E+06    -24.0436E+03    -228.308E-03     456.246E-03    -227.938E-03     170.823E-03    -235.822E-03     463.684E-03    -227.582E-03     141.449E-03
            1625     11.4684E-03     66.5519E-03    -21.8094E+06     58.4765E+06     83.3540E+06    -1.47449E+06    -229.348E-03     457.305E-03    -227.958E-03     189.912E-03    -237.994E-03     465.840E-03    -227.594E-03     158.712E-03
            1626     10.7525E-03     66.2986E-03    -28.6724E+06     55.4003E+06     77.5746E+06    -1.94484E+06    -230.273E-03     458.231E-03    -227.957E-03     201.737E-03    -239.500E-03     467.327E-03    -227.608E-03     169.780E-03
            1627     10.0348E-03     66.0266E-03    -35.9491E+06     48.1960E+06     66.3722E+06    -680.385E+03    -231.188E-03     459.128E-03    -227.940E-03     209.695E-03    -240.639E-03     468.430E-03    -227.626E-03     177.527E-03
            1628     9.31811E-03     65.7483E-03    -42.8083E+06     36.9689E+06     55.6763E+06     282.542E+03    -231.846E-03     459.776E-03    -227.930E-03     211.614E-03    -241.071E-03     468.819E-03    -227.643E-03     179.889E-03
            1629     8.60094E-03     65.4689E-03    -50.6509E+06     27.8650E+06     48.6682E+06     269.082E+03    -232.189E-03     460.121E-03    -227.932E-03     208.035E-03    -240.791E-03     468.501E-03    -227.656E-03     177.455E-03
            1630     7.88432E-03     65.1972E-03    -60.0436E+06     4.50877E+06     38.4083E+06     735.534E+03    -232.104E-03     460.048E-03    -227.944E-03     199.789E-03    -239.753E-03     467.389E-03    -227.672E-03     171.062E-03
            1631     7.16750E-03     64.9387E-03    -69.8941E+06    -35.6150E+06     22.2766E+06     1.33341E+06    -231.818E-03     459.782E-03    -227.964E-03     187.797E-03    -238.325E-03     465.849E-03    -227.699E-03     161.412E-03
            1632     6.45013E-03     64.6979E-03    -78.9568E+06    -76.4476E+06     5.18987E+06     1.07276E+06    -231.475E-03     459.459E-03    -227.984E-03     173.127E-03    -236.803E-03     464.221E-03    -227.733E-03     149.373E-03
            1633     5.73353E-03     64.4776E-03    -87.3152E+06    -119.530E+06    -12.8537E+06     564.899E+03    -231.064E-03     459.065E-03    -228.001E-03     156.740E-03    -235.266E-03     462.570E-03    -227.765E-03     135.785E-03
            1634     5.01649E-03     64.2791E-03    -95.9416E+06    -153.398E+06    -31.3612E+06     193.202E+03    -230.571E-03     458.570E-03    -227.999E-03     139.278E-03    -233.776E-03     460.981E-03    -227.794E-03     121.179E-03
            1635     4.30002E-03     64.1045E-03    -104.832E+06    -180.222E+06    -50.4647E+06    -251.449E+03    -230.045E-03     458.022E-03    -227.977E-03     120.974E-03    -232.403E-03     459.514E-03    -227.816E-03     105.684E-03
            1636     3.58302E-03     63.9542E-03    -113.511E+06    -211.948E+06    -70.8012E+06    -254.032E+03    -229.569E-03     457.510E-03    -227.940E-03     102.018E-03    -231.216E-03     458.206E-03    -227.823E-03     89.4522E-03
            1637     2.86682E-03     63.8299E-03    -121.312E+06    -243.083E+06    -90.0252E+06    -9.41859E+03    -229.036E-03     456.926E-03    -227.889E-03     82.3840E-03    -230.105E-03     456.962E-03    -227.811E-03     72.4762E-03
            1638     2.15016E-03     63.7319E-03    -128.391E+06    -267.613E+06    -108.527E+06    -125.708E+03    -228.433E-03     456.274E-03    -227.841E-03     62.4853E-03    -229.063E-03     455.813E-03    -227.810E-03     55.1301E-03
            1639     1.43317E-03     63.6614E-03    -134.614E+06    -285.273E+06    -125.150E+06    -147.303E+03    -228.030E-03     455.857E-03    -227.827E-03     42.5044E-03    -228.356E-03     455.056E-03    -227.844E-03     37.5877E-03
            1640     716.036E-06     63.6179E-03    -138.160E+06    -298.897E+06    -135.444E+06    -396.938E+03    -227.849E-03     455.758E-03    -227.909E-03     22.9889E-03    -227.990E-03     454.741E-03    -227.953E-03     20.3036E-03
            1641     13.6187E-03     65.6855E-03    -4.50935E+06     73.2903E+06     87.5391E+06     111.742E+03    -227.197E-03     455.087E-03    -227.891E-03     110.627E-03    -231.587E-03     459.468E-03    -227.553E-03     88.1462E-03
            1642     12.9036E-03     65.4971E-03    -8.09365E+06     72.8198E+06     89.0439E+06     512.006E+03    -227.746E-03     455.639E-03    -227.893E-03     155.159E-03    -234.433E-03     462.297E-03    -227.542E-03     126.915E-03
            1643     12.1868E-03     65.2942E-03    -13.2418E+06     67.1756E+06     87.9457E+06     640.374E+03    -228.092E-03     456.004E-03    -227.912E-03     171.124E-03    -235.596E-03     463.445E-03    -227.551E-03     141.814E-03
            1644     11.4695E-03     65.0586E-03    -20.4587E+06     60.1882E+06     84.5000E+06    -229.036E+03    -229.110E-03     457.053E-03    -227.943E-03     190.096E-03    -237.737E-03     465.576E-03    -227.578E-03     158.992E-03
            1645     10.7513E-03     64.8023E-03    -28.4545E+06     55.5846E+06     77.6049E+06    -462.017E+03    -230.310E-03     458.259E-03    -227.949E-03     201.756E-03    -239.531E-03     467.351E-03    -227.600E-03     169.823E-03
            1646     10.0352E-03     64.5326E-03    -36.1886E+06     46.8283E+06     65.9485E+06    -1.09237E+06    -231.299E-03     459.224E-03    -227.925E-03     209.445E-03    -240.753E-03     468.524E-03    -227.610E-03     177.235E-03
            1647     9.31789E-03     64.2527E-03    -43.7181E+06     35.0877E+06     54.7520E+06    -718.242E+03    -231.911E-03     459.814E-03    -227.903E-03     211.462E-03    -241.132E-03     468.846E-03    -227.617E-03     179.721E-03
            1648     8.60164E-03     63.9740E-03    -52.2137E+06     26.5765E+06     47.4611E+06     912.801E+03    -232.090E-03     459.993E-03    -227.903E-03     208.010E-03    -240.689E-03     468.364E-03    -227.629E-03     177.467E-03
            1649     7.88444E-03     63.7027E-03    -61.5229E+06     4.45897E+06     37.7915E+06     1.52485E+06    -231.993E-03     459.917E-03    -227.924E-03     199.852E-03    -239.648E-03     467.260E-03    -227.652E-03     171.153E-03
            1650     7.16717E-03     63.4444E-03    -69.9098E+06    -33.9073E+06     22.9057E+06     193.000E+03    -231.793E-03     459.743E-03    -227.950E-03     187.837E-03    -238.302E-03     465.816E-03    -227.685E-03     161.446E-03
            1651     6.45053E-03     63.2036E-03    -77.6621E+06    -76.4899E+06     5.78173E+06     -992.82E+03    -231.455E-03     459.427E-03    -227.972E-03     173.060E-03    -236.774E-03     464.182E-03    -227.719E-03     149.288E-03
            1652     5.73340E-03     62.9831E-03    -86.0329E+06    -119.962E+06    -12.1893E+06    -535.104E+03    -231.026E-03     459.018E-03    -227.992E-03     156.712E-03    -235.219E-03     462.515E-03    -227.754E-03     135.758E-03
            1653     5.01677E-03     62.7851E-03    -94.8364E+06    -153.072E+06    -30.7485E+06    -107.709E+03    -230.538E-03     458.531E-03    -227.993E-03     139.315E-03    -233.739E-03     460.941E-03    -227.787E-03     121.215E-03
            1654     4.29966E-03     62.6099E-03    -103.965E+06    -180.435E+06    -50.0386E+06    -40.5403E+03    -229.999E-03     457.977E-03    -227.978E-03     120.995E-03    -232.353E-03     459.467E-03    -227.816E-03     105.712E-03
            1655     3.58331E-03     62.4601E-03    -112.931E+06    -211.995E+06    -70.2337E+06    -92.5257E+03    -229.439E-03     457.402E-03    -227.963E-03     102.166E-03    -231.084E-03     458.097E-03    -227.843E-03     89.6091E-03
            1656     2.86639E-03     62.3351E-03    -121.320E+06    -243.222E+06    -89.9233E+06    -132.692E+03    -228.879E-03     456.836E-03    -227.957E-03     82.6381E-03    -229.950E-03     456.873E-03    -227.878E-03     72.7337E-03
            1657     2.14967E-03     62.2386E-03    -128.849E+06    -267.892E+06    -108.597E+06     183.574E+03    -228.436E-03     456.393E-03    -227.958E-03     62.7003E-03    -229.069E-03     455.933E-03    -227.925E-03     55.3428E-03
            1658     1.43303E-03     62.1672E-03    -134.432E+06    -285.048E+06    -125.229E+06     113.992E+03    -228.189E-03     456.144E-03    -227.955E-03     42.5683E-03    -228.516E-03     455.345E-03    -227.973E-03     37.6283E-03
            1659     716.957E-06     62.1237E-03    -137.942E+06    -299.230E+06    -136.087E+06    -263.941E+03    -228.266E-03     455.999E-03    -227.733E-03     22.7655E-03    -228.404E-03     454.980E-03    -227.780E-03     20.1091E-03
            1660     13.6204E-03     64.1899E-03    -4.82782E+06     73.9939E+06     87.0176E+06    -854.834E+03    -226.827E-03     454.715E-03    -227.887E-03     110.152E-03    -231.185E-03     459.066E-03    -227.553E-03     87.7967E-03
            1661     12.9030E-03     63.9998E-03    -9.64413E+06     71.3867E+06     88.0421E+06    -637.054E+03    -227.548E-03     455.458E-03    -227.910E-03     155.359E-03    -234.215E-03     462.088E-03    -227.559E-03     127.231E-03
            1662     12.1860E-03     63.8011E-03    -15.5654E+06     65.5395E+06     86.6892E+06    -24.6351E+03    -228.473E-03     456.401E-03    -227.928E-03     171.967E-03    -236.011E-03     463.864E-03    -227.567E-03     142.589E-03
            1663     11.4685E-03     63.5630E-03    -21.1323E+06     60.7024E+06     84.7960E+06     356.430E+03    -229.528E-03     457.467E-03    -227.939E-03     190.407E-03    -238.177E-03     466.011E-03    -227.573E-03     159.236E-03
            1664     10.7526E-03     63.3084E-03    -26.7261E+06     56.4222E+06     78.7687E+06     411.824E+03    -230.435E-03     458.361E-03    -227.926E-03     201.409E-03    -239.644E-03     467.447E-03    -227.576E-03     169.472E-03
            1665     10.0351E-03     63.0365E-03    -34.0866E+06     47.2769E+06     66.2236E+06     1.15177E+06    -231.254E-03     459.145E-03    -227.891E-03     209.107E-03    -240.692E-03     468.438E-03    -227.579E-03     176.930E-03
            1666     9.31903E-03     62.7585E-03    -43.2187E+06     34.6225E+06     54.3390E+06     1.71296E+06    -231.737E-03     459.612E-03    -227.876E-03     211.468E-03    -240.948E-03     468.635E-03    -227.591E-03     179.802E-03
            1667     8.60125E-03     62.4793E-03    -52.1032E+06     25.8640E+06     47.4456E+06     1.26764E+06    -231.921E-03     459.814E-03    -227.893E-03     208.192E-03    -240.513E-03     468.175E-03    -227.618E-03     177.704E-03
            1668     7.88434E-03     62.2083E-03    -59.0832E+06     6.54982E+06     39.6320E+06    -261.715E+03    -232.013E-03     459.937E-03    -227.924E-03     199.937E-03    -239.660E-03     467.282E-03    -227.649E-03     171.219E-03
            1669     7.16762E-03     61.9499E-03    -66.2402E+06     -32.554E+06     24.9199E+06    -1.23262E+06    -231.865E-03     459.811E-03    -227.946E-03     187.828E-03    -238.360E-03     465.883E-03    -227.678E-03     161.405E-03
            1670     6.45047E-03     61.7092E-03    -75.3380E+06    -77.0679E+06     6.46473E+06    -561.197E+03    -231.451E-03     459.414E-03    -227.963E-03     173.087E-03    -236.757E-03     464.160E-03    -227.710E-03     149.329E-03
            1671     5.73363E-03     61.4891E-03    -85.2622E+06    -120.924E+06    -12.4444E+06    -211.646E+03    -231.027E-03     459.009E-03    -227.982E-03     156.787E-03    -235.215E-03     462.501E-03    -227.745E-03     135.837E-03
            1672     5.01654E-03     61.2905E-03    -94.7733E+06    -153.978E+06    -30.9531E+06    -84.2836E+03    -230.525E-03     458.510E-03    -227.985E-03     139.260E-03    -233.722E-03     460.913E-03    -227.779E-03     121.167E-03
            1673     4.30006E-03     61.1159E-03    -103.926E+06    -180.095E+06    -49.5516E+06     267.979E+03    -229.883E-03     457.864E-03    -227.982E-03     120.939E-03    -232.235E-03     459.352E-03    -227.818E-03     105.676E-03
            1674     3.58286E-03     60.9657E-03    -113.049E+06    -211.476E+06    -69.9542E+06     443.782E+03    -229.240E-03     457.238E-03    -227.998E-03     102.028E-03    -230.885E-03     457.933E-03    -227.877E-03     89.4984E-03
            1675     2.86601E-03     60.8417E-03    -121.770E+06    -243.285E+06    -90.2909E+06     530.454E+03    -228.783E-03     456.814E-03    -228.032E-03     82.4046E-03    -229.852E-03     456.850E-03    -227.954E-03     72.5162E-03
            1676     2.14925E-03     60.7436E-03    -128.945E+06    -268.149E+06    -109.181E+06     293.545E+03    -228.583E-03     456.622E-03    -228.039E-03     62.3940E-03    -229.215E-03     456.161E-03    -228.009E-03     55.0272E-03
            1677     1.43292E-03     60.6730E-03    -134.841E+06    -284.769E+06    -125.465E+06     180.889E+03    -228.295E-03     456.305E-03    -228.010E-03     42.2807E-03    -228.623E-03     455.507E-03    -228.029E-03     37.3562E-03
            1678     716.099E-06     60.6289E-03    -138.469E+06    -298.876E+06    -136.359E+06     332.524E+03    -228.494E-03     456.081E-03    -227.587E-03     23.0054E-03    -228.634E-03     455.064E-03    -227.634E-03     20.3714E-03
            1679     13.6198E-03     62.6951E-03    -5.51428E+06     74.7939E+06     85.9470E+06     198.786E+03    -226.417E-03     454.289E-03    -227.872E-03     110.426E-03    -230.778E-03     458.647E-03    -227.543E-03     88.1273E-03
            1680     12.9019E-03     62.5067E-03    -11.8365E+06     70.5707E+06     85.2988E+06    -838.708E+03    -227.271E-03     455.179E-03    -227.908E-03     154.766E-03    -233.930E-03     461.799E-03    -227.567E-03     126.650E-03
            1681     12.1851E-03     62.3036E-03    -16.4613E+06     64.8478E+06     85.4057E+06    -1.93137E+06    -228.642E-03     456.571E-03    -227.929E-03     170.735E-03    -236.165E-03     464.018E-03    -227.572E-03     141.280E-03
            1682     11.4697E-03     62.0682E-03    -21.5194E+06     59.8519E+06     83.9129E+06    -1.73957E+06    -229.720E-03     457.644E-03    -227.924E-03     189.927E-03    -238.378E-03     466.195E-03    -227.560E-03     158.652E-03
            1683     10.7524E-03     61.8123E-03    -28.5629E+06     52.9041E+06     76.3821E+06    -449.396E+03    -230.436E-03     458.337E-03    -227.901E-03     201.646E-03    -239.650E-03     467.415E-03    -227.554E-03     169.706E-03
            1684     10.0362E-03     61.5427E-03    -36.1847E+06     44.9260E+06     64.5965E+06     1.97882E+06    -231.095E-03     458.971E-03    -227.876E-03     209.632E-03    -240.535E-03     468.255E-03    -227.566E-03     177.530E-03
            1685     9.31809E-03     61.2635E-03    -42.5662E+06     36.4938E+06     55.5180E+06     2.14133E+06    -231.675E-03     459.552E-03    -227.877E-03     211.752E-03    -240.889E-03     468.584E-03    -227.591E-03     180.113E-03
            1686     8.60158E-03     60.9855E-03    -48.3614E+06     29.8123E+06     50.5777E+06    -97.7391E+03    -232.003E-03     459.901E-03    -227.898E-03     208.231E-03    -240.585E-03     468.270E-03    -227.618E-03     177.719E-03
            1687     7.88435E-03     60.7133E-03    -56.1485E+06     7.42110E+06     41.1827E+06    -1.72257E+06    -232.031E-03     459.954E-03    -227.923E-03     199.882E-03    -239.664E-03     467.294E-03    -227.646E-03     171.145E-03
            1688     7.16732E-03     60.4553E-03    -65.9072E+06    -34.6030E+06     24.2648E+06    -437.223E+03    -231.785E-03     459.730E-03    -227.945E-03     187.718E-03    -238.271E-03     465.789E-03    -227.678E-03     161.321E-03
            1689     6.45049E-03     60.2151E-03    -76.0112E+06    -77.7320E+06     5.42870E+06     892.980E+03    -231.469E-03     459.432E-03    -227.963E-03     173.120E-03    -236.775E-03     464.177E-03    -227.713E-03     149.389E-03
            1690     5.73345E-03     59.9947E-03    -85.7566E+06    -120.951E+06    -13.1993E+06     849.761E+03    -231.102E-03     459.079E-03    -227.977E-03     156.799E-03    -235.291E-03     462.573E-03    -227.743E-03     135.857E-03
            1691     5.01694E-03     59.7963E-03    -95.2944E+06    -153.474E+06    -31.2760E+06     679.387E+03    -230.508E-03     458.485E-03    -227.977E-03     139.209E-03    -233.706E-03     460.891E-03    -227.773E-03     121.131E-03
            1692     4.29970E-03     59.6219E-03    -104.926E+06    -180.135E+06    -50.4960E+06     544.214E+03    -229.857E-03     457.830E-03    -227.973E-03     120.802E-03    -232.211E-03     459.319E-03    -227.813E-03     105.551E-03
            1693     3.58304E-03     59.4718E-03    -114.037E+06    -211.371E+06    -70.9428E+06     707.761E+03    -229.304E-03     457.283E-03    -227.979E-03     101.647E-03    -230.948E-03     457.978E-03    -227.862E-03     89.1287E-03
            1694     2.86618E-03     59.3476E-03    -122.164E+06    -242.709E+06    -90.6102E+06     587.107E+03    -228.882E-03     456.866E-03    -227.984E-03     82.0364E-03    -229.951E-03     456.902E-03    -227.908E-03     72.1516E-03
            1695     2.14968E-03     59.2490E-03    -129.835E+06    -267.527E+06    -109.517E+06     545.303E+03    -228.512E-03     456.480E-03    -227.968E-03     62.1041E-03    -229.147E-03     456.022E-03    -227.940E-03     54.7504E-03
            1696     1.43316E-03     59.1783E-03    -135.384E+06    -283.977E+06    -125.451E+06     707.363E+03    -228.177E-03     456.127E-03    -227.950E-03     41.9536E-03    -228.507E-03     455.332E-03    -227.969E-03     37.0413E-03
            1697     716.656E-06     59.1355E-03    -139.378E+06    -298.344E+06    -136.840E+06     347.284E+03    -228.222E-03     455.975E-03    -227.753E-03     23.1182E-03    -228.367E-03     454.963E-03    -227.802E-03     20.4583E-03
            1698     13.6202E-03     61.2033E-03    -4.37255E+06     75.1791E+06     87.0160E+06     735.879E+03    -227.107E-03     454.969E-03    -227.862E-03     109.597E-03    -231.463E-03     459.324E-03    -227.530E-03     87.2150E-03
            1699     12.9037E-03     61.0097E-03    -8.03865E+06     74.7040E+06     88.3288E+06    -212.667E+03    -227.530E-03     455.399E-03    -227.869E-03     154.388E-03    -234.188E-03     462.037E-03    -227.524E-03     126.195E-03
            1700     12.1874E-03     60.8102E-03    -14.2512E+06     65.2968E+06     85.1583E+06    -1.48043E+06    -228.266E-03     456.148E-03    -227.882E-03     170.847E-03    -235.777E-03     463.593E-03    -227.530E-03     141.429E-03
            1701     11.4690E-03     60.5717E-03    -22.4525E+06     57.4264E+06     81.0052E+06    -815.675E+03    -229.254E-03     457.153E-03    -227.899E-03     190.170E-03    -237.891E-03     465.679E-03    -227.545E-03     159.015E-03
            1702     10.7528E-03     60.3183E-03    -30.3895E+06     50.8368E+06     74.7380E+06     33.8475E+03    -230.180E-03     458.089E-03    -227.910E-03     201.884E-03    -239.386E-03     467.152E-03    -227.566E-03     170.028E-03
            1703     10.0347E-03     60.0476E-03    -36.2772E+06     42.7609E+06     65.4478E+06    -660.628E+03    -231.164E-03     459.069E-03    -227.905E-03     209.782E-03    -240.604E-03     468.342E-03    -227.587E-03     177.647E-03
            1704     9.31864E-03     59.7691E-03    -41.4953E+06     37.7521E+06     57.6706E+06    -1.53738E+06    -231.855E-03     459.752E-03    -227.897E-03     211.729E-03    -241.072E-03     468.788E-03    -227.603E-03     180.008E-03
            1705     8.60127E-03     59.4903E-03    -48.7550E+06     31.3903E+06     51.0327E+06    -1.57038E+06    -232.086E-03     459.986E-03    -227.900E-03     208.188E-03    -240.679E-03     468.370E-03    -227.620E-03     177.623E-03
            1706     7.88463E-03     59.2188E-03    -58.7716E+06      6.2851E+06     39.4571E+06     46.5042E+03    -231.952E-03     459.872E-03    -227.920E-03     199.887E-03    -239.590E-03     467.210E-03    -227.647E-03     171.194E-03
            1707     7.16752E-03     58.9612E-03    -69.7154E+06    -36.5231E+06     21.4362E+06     834.337E+03    -231.780E-03     459.724E-03    -227.944E-03     187.712E-03    -238.271E-03     465.776E-03    -227.683E-03     161.358E-03
            1708     6.45027E-03     58.7206E-03    -79.5645E+06    -78.7631E+06     3.19811E+06      827.27E+03    -231.563E-03     459.521E-03    -227.957E-03     172.994E-03    -236.877E-03     464.264E-03    -227.712E-03     149.261E-03
            1709     5.73370E-03     58.5000E-03    -88.8948E+06    -119.638E+06    -15.0765E+06     703.841E+03    -231.103E-03     459.062E-03    -227.960E-03     156.537E-03    -235.302E-03     462.565E-03    -227.733E-03     135.597E-03
            1710     5.01654E-03     58.3023E-03    -98.0938E+06    -152.487E+06    -33.5377E+06     148.228E+03    -230.495E-03     458.447E-03    -227.951E-03     138.931E-03    -233.703E-03     460.862E-03    -227.756E-03     120.844E-03
            1711     4.30006E-03     58.1276E-03    -106.898E+06    -180.903E+06    -52.4357E+06     86.7401E+03    -229.936E-03     457.873E-03    -227.937E-03     120.580E-03    -232.294E-03     459.361E-03    -227.781E-03     105.323E-03
            1712     3.58323E-03     57.9778E-03    -115.221E+06    -211.452E+06    -72.2594E+06     34.2022E+03    -229.427E-03     457.340E-03    -227.913E-03     101.574E-03    -231.074E-03     458.037E-03    -227.800E-03     89.0441E-03
            1713     2.86677E-03     57.8532E-03    -123.150E+06    -242.713E+06    -91.3830E+06     98.9062E+03    -228.874E-03     456.764E-03    -227.890E-03     82.2058E-03    -229.949E-03     456.805E-03    -227.816E-03     72.3086E-03
            1714     2.15005E-03     57.7552E-03    -130.242E+06    -267.079E+06    -109.897E+06     342.905E+03    -228.364E-03     456.240E-03    -227.876E-03     62.3708E-03    -229.001E-03     455.786E-03    -227.850E-03     55.0304E-03
            1715     1.43302E-03     57.6846E-03    -135.671E+06    -283.349E+06    -125.891E+06     398.777E+03    -228.139E-03     455.996E-03    -227.856E-03     42.2182E-03    -228.471E-03     455.205E-03    -227.878E-03     37.3209E-03
            1716     716.592E-06     57.6403E-03    -138.867E+06    -297.104E+06    -136.496E+06     536.889E+03    -227.854E-03     455.770E-03    -227.917E-03     22.9510E-03    -227.999E-03     454.764E-03    -227.967E-03     20.2854E-03
            1717     13.6205E-03     59.7033E-03    -4.20450E+06     75.5888E+06     87.4398E+06    -713.180E+03    -227.025E-03     454.877E-03    -227.852E-03     110.071E-03    -231.391E-03     459.243E-03    -227.518E-03     87.6516E-03
            1718     12.9043E-03     59.5174E-03    -9.47143E+06     74.7847E+06     87.6403E+06    -503.411E+03    -227.617E-03     455.476E-03    -227.859E-03     155.694E-03    -234.307E-03     462.143E-03    -227.516E-03     127.489E-03
            1719     12.1859E-03     59.3141E-03    -15.8081E+06     64.1492E+06     84.3333E+06     642.197E+03    -228.302E-03     456.177E-03    -227.875E-03     171.801E-03    -235.831E-03     463.633E-03    -227.523E-03     142.422E-03
            1720     11.4700E-03     59.0787E-03    -22.2147E+06     57.4160E+06     81.5622E+06     1.50094E+06    -229.131E-03     457.031E-03    -227.901E-03     190.067E-03    -237.752E-03     465.541E-03    -227.544E-03     158.995E-03
            1721     10.7514E-03     58.8232E-03    -28.5263E+06     53.4818E+06     76.2126E+06     505.502E+03    -230.106E-03     458.021E-03    -227.914E-03     201.453E-03    -239.297E-03     467.079E-03    -227.570E-03     169.611E-03
            1722     10.0356E-03     58.5527E-03    -36.2645E+06     45.8013E+06     65.4117E+06    -1.89981E+06    -231.175E-03     459.077E-03    -227.902E-03     209.256E-03    -240.610E-03     468.357E-03    -227.589E-03     177.077E-03
            1723     9.31797E-03     58.2740E-03    -45.1880E+06     37.2804E+06     54.7982E+06    -3.46505E+06    -231.797E-03     459.685E-03    -227.888E-03     211.479E-03    -241.022E-03     468.723E-03    -227.602E-03     179.722E-03
            1724     8.60165E-03     57.9953E-03    -54.3923E+06     26.1843E+06     46.0854E+06    -1.75591E+06    -231.974E-03     459.868E-03    -227.894E-03     208.041E-03    -240.569E-03     468.230E-03    -227.623E-03     177.507E-03
            1725     7.88416E-03     57.7249E-03    -63.3513E+06     3.64947E+06     36.1288E+06     352.019E+03    -232.000E-03     459.918E-03    -227.917E-03     199.689E-03    -239.645E-03     467.246E-03    -227.650E-03     171.006E-03
            1726     7.16706E-03     57.4663E-03    -72.0403E+06    -35.7873E+06     20.4094E+06     568.898E+03    -231.928E-03     459.858E-03    -227.931E-03     187.421E-03    -238.424E-03     465.913E-03    -227.672E-03     161.050E-03
            1727     6.45074E-03     57.2261E-03    -80.9154E+06    -78.5854E+06     2.32678E+06     179.040E+03    -231.587E-03     459.516E-03    -227.929E-03     172.674E-03    -236.900E-03     464.257E-03    -227.686E-03     148.935E-03
            1728     5.73369E-03     57.0058E-03    -89.4880E+06    -118.743E+06    -15.5961E+06    -140.122E+03    -231.055E-03     458.981E-03    -227.926E-03     156.304E-03    -235.255E-03     462.486E-03    -227.702E-03     135.361E-03
            1729     5.01723E-03     56.8081E-03    -98.0171E+06    -151.956E+06    -33.7349E+06    -510.216E+03    -230.483E-03     458.399E-03    -227.916E-03     138.844E-03    -233.688E-03     460.814E-03    -227.722E-03     120.757E-03
            1730     4.30015E-03     56.6336E-03    -106.822E+06    -181.286E+06    -52.6548E+06    -667.257E+03    -229.932E-03     457.830E-03    -227.898E-03     120.731E-03    -232.291E-03     459.319E-03    -227.743E-03     105.455E-03
            1731     3.58355E-03     56.4835E-03    -115.405E+06    -211.775E+06    -72.6182E+06    -452.548E+03    -229.406E-03     457.277E-03    -227.871E-03     101.813E-03    -231.056E-03     457.976E-03    -227.759E-03     89.2668E-03
            1732     2.86664E-03     56.3594E-03    -123.440E+06    -243.330E+06    -92.1138E+06    -406.447E+03    -228.887E-03     456.725E-03    -227.839E-03     82.1836E-03    -229.960E-03     456.764E-03    -227.767E-03     72.2844E-03
            1733     2.14969E-03     56.2616E-03    -130.348E+06    -267.282E+06    -110.427E+06    -332.108E+03    -228.423E-03     456.216E-03    -227.793E-03     62.1754E-03    -229.059E-03     455.760E-03    -227.768E-03     54.8272E-03
            1734     1.43338E-03     56.1902E-03    -135.581E+06    -283.402E+06    -126.896E+06    -419.313E+03    -228.018E-03     455.767E-03    -227.750E-03     42.0438E-03    -228.347E-03     454.977E-03    -227.777E-03     37.1415E-03
            1735     716.717E-06     56.1467E-03    -139.075E+06    -296.929E+06    -136.643E+06    -438.591E+03    -227.793E-03     455.571E-03    -227.778E-03     22.7696E-03    -227.938E-03     454.565E-03    -227.829E-03     20.0989E-03
            1736     13.6200E-03     58.2109E-03    -5.05428E+06     75.5715E+06     86.6301E+06    -55.9437E+03    -226.507E-03     454.357E-03    -227.851E-03     110.051E-03    -230.864E-03     458.713E-03    -227.520E-03     87.7112E-03
            1737     12.9018E-03     58.0201E-03    -11.3168E+06     72.8752E+06     86.1765E+06     43.5199E+03    -227.463E-03     455.339E-03    -227.875E-03     154.954E-03    -234.130E-03     461.974E-03    -227.534E-03     126.792E-03
            1738     12.1870E-03     57.8196E-03    -16.6208E+06     64.4859E+06     85.7313E+06     129.151E+03    -228.496E-03     456.393E-03    -227.897E-03     171.082E-03    -236.017E-03     463.835E-03    -227.537E-03     141.686E-03
            1739     11.4689E-03     57.5837E-03    -22.3009E+06     57.2718E+06     83.9143E+06     101.986E+03    -229.387E-03     457.297E-03    -227.910E-03     189.798E-03    -238.019E-03     465.810E-03    -227.541E-03     158.652E-03
            1740     10.7534E-03     57.3289E-03    -29.2309E+06     54.1949E+06     77.5411E+06     311.091E+03    -230.239E-03     458.142E-03    -227.903E-03     201.507E-03    -239.445E-03     467.211E-03    -227.551E-03     169.623E-03
            1741     10.0352E-03     57.0582E-03    -36.9899E+06     50.3216E+06     65.6045E+06     555.325E+03    -231.084E-03     458.961E-03    -227.877E-03     209.390E-03    -240.529E-03     468.263E-03    -227.568E-03     177.254E-03
            1742     9.31894E-03     56.7791E-03    -46.1878E+06     38.6598E+06     52.6489E+06     306.364E+03    -231.702E-03     459.564E-03    -227.862E-03     211.286E-03    -240.915E-03     468.598E-03    -227.588E-03     179.615E-03
            1743     8.60109E-03     56.5015E-03    -55.7348E+06     24.6527E+06     44.0380E+06    -806.076E+03    -232.032E-03     459.902E-03    -227.871E-03     207.575E-03    -240.615E-03     468.247E-03    -227.606E-03     177.057E-03
            1744     7.88448E-03     56.2296E-03    -64.1314E+06     1.82762E+06     35.2203E+06    -1.65117E+06    -232.107E-03     459.991E-03    -227.885E-03     199.123E-03    -239.737E-03     467.299E-03    -227.618E-03     170.410E-03
            1745     7.16814E-03     55.9720E-03    -71.8303E+06    -36.7647E+06     20.5723E+06    -1.33897E+06    -231.888E-03     459.777E-03    -227.889E-03     187.118E-03    -238.375E-03     465.819E-03    -227.629E-03     160.728E-03
            1746     6.45078E-03     55.7316E-03    -79.8501E+06    -78.6523E+06     2.98746E+06    -1.10504E+06    -231.500E-03     459.388E-03    -227.888E-03     172.556E-03    -236.807E-03     464.124E-03    -227.643E-03     148.807E-03
            1747     5.73418E-03     55.5117E-03    -88.3463E+06    -118.842E+06    -14.9787E+06    -1.09171E+06    -230.983E-03     458.870E-03    -227.887E-03     156.194E-03    -235.172E-03     462.367E-03    -227.662E-03     135.256E-03
            1748     5.01690E-03     55.3140E-03    -97.2450E+06    -152.378E+06    -33.2448E+06    -1.04319E+06    -230.457E-03     458.336E-03    -227.879E-03     138.826E-03    -233.659E-03     460.748E-03    -227.683E-03     120.734E-03
            1749     4.30030E-03     55.1395E-03    -106.044E+06    -181.710E+06    -52.1698E+06    -709.329E+03    -229.950E-03     457.804E-03    -227.854E-03     120.511E-03    -232.303E-03     459.287E-03    -227.697E-03     105.229E-03
            1750     3.58329E-03     54.9895E-03    -114.784E+06    -212.138E+06    -72.2759E+06    -479.305E+03    -229.374E-03     457.189E-03    -227.815E-03     101.368E-03    -231.016E-03     457.880E-03    -227.702E-03     88.8336E-03
            1751     2.86680E-03     54.8652E-03    -123.178E+06    -243.611E+06    -92.1274E+06    -477.208E+03    -228.844E-03     456.615E-03    -227.771E-03     81.8481E-03    -229.912E-03     456.648E-03    -227.700E-03     71.9616E-03
            1752     2.15067E-03     54.7677E-03    -130.101E+06    -267.670E+06    -110.415E+06    -616.740E+03    -228.355E-03     456.075E-03    -227.720E-03     62.3076E-03    -228.992E-03     455.620E-03    -227.696E-03     54.9304E-03
            1753     1.43368E-03     54.6968E-03    -136.103E+06    -283.973E+06    -127.273E+06    -491.909E+03    -227.924E-03     455.608E-03    -227.684E-03     42.2924E-03    -228.256E-03     454.818E-03    -227.712E-03     37.3760E-03
            1754     716.489E-06     54.6540E-03    -139.096E+06    -297.887E+06    -137.556E+06    -189.400E+03    -228.029E-03     455.463E-03    -227.434E-03     23.0972E-03    -228.171E-03     454.453E-03    -227.488E-03     20.4702E-03
            1755     13.6205E-03     56.7163E-03    -3.63858E+06     75.1261E+06     87.4792E+06     89.5509E+03    -226.958E-03     454.817E-03    -227.859E-03     110.271E-03    -231.311E-03     459.170E-03    -227.526E-03     87.9147E-03
            1756     12.9048E-03     56.5258E-03    -7.59028E+06     73.4610E+06     90.0798E+06     1.01235E+06    -227.536E-03     455.419E-03    -227.882E-03     155.056E-03    -234.193E-03     462.048E-03    -227.527E-03     126.922E-03
            1757     12.1856E-03     56.3244E-03    -14.6387E+06     64.8294E+06     87.6137E+06     1.42222E+06    -228.333E-03     456.232E-03    -227.899E-03     170.923E-03    -235.838E-03     463.662E-03    -227.534E-03     141.586E-03
            1758     11.4702E-03     56.0882E-03    -21.9126E+06     57.8150E+06     84.5415E+06     387.568E+03    -229.366E-03     457.280E-03    -227.914E-03     190.015E-03    -238.002E-03     465.799E-03    -227.544E-03     158.869E-03
            1759     10.7519E-03     55.8343E-03    -28.5716E+06     53.8717E+06     78.1518E+06    -52.8289E+03    -230.423E-03     458.329E-03    -227.906E-03     201.940E-03    -239.635E-03     467.404E-03    -227.552E-03     170.029E-03
            1760     10.0360E-03     55.5631E-03    -35.1082E+06     47.5778E+06     66.6327E+06     1.46820E+06    -231.311E-03     459.183E-03    -227.872E-03     209.362E-03    -240.736E-03     468.458E-03    -227.557E-03     177.243E-03
            1761     9.31815E-03     55.2849E-03    -41.6439E+06     39.8922E+06     56.5433E+06     3.57539E+06    -231.883E-03     459.728E-03    -227.845E-03     210.937E-03    -241.069E-03     468.744E-03    -227.560E-03     179.316E-03
            1762     8.60218E-03     55.0062E-03    -49.2542E+06     31.0375E+06     49.6824E+06     2.47231E+06    -232.128E-03     459.965E-03    -227.838E-03     207.329E-03    -240.690E-03     468.319E-03    -227.563E-03     176.849E-03
            1763     7.88543E-03     54.7354E-03    -58.3803E+06     4.53128E+06     39.0240E+06     107.616E+03    -232.071E-03     459.915E-03    -227.844E-03     199.271E-03    -239.684E-03     467.224E-03    -227.571E-03     170.590E-03
            1764     7.16780E-03     54.4778E-03    -68.1589E+06    -37.8559E+06     22.3115E+06    -806.061E+03    -231.893E-03     459.740E-03    -227.847E-03     187.214E-03    -238.360E-03     465.766E-03    -227.582E-03     160.846E-03
            1765     6.45133E-03     54.2372E-03    -77.5770E+06     -78.654E+06     4.69543E+06    -948.999E+03    -231.442E-03     459.287E-03    -227.845E-03     172.366E-03    -236.734E-03     464.011E-03    -227.595E-03     148.637E-03
            1766     5.73414E-03     54.0178E-03    -86.8205E+06    -119.023E+06    -13.7153E+06    -914.565E+03    -230.965E-03     458.806E-03    -227.842E-03     156.026E-03    -235.145E-03     462.296E-03    -227.612E-03     135.098E-03
            1767     5.01757E-03     53.8200E-03    -96.3409E+06    -153.355E+06    -32.9396E+06    -628.094E+03    -230.557E-03     458.371E-03    -227.815E-03     138.564E-03    -233.749E-03     460.773E-03    -227.617E-03     120.468E-03
            1768     4.30069E-03     53.6453E-03    -105.666E+06    -182.348E+06    -52.2571E+06    -538.620E+03    -229.959E-03     457.723E-03    -227.765E-03     120.132E-03    -232.302E-03     459.196E-03    -227.609E-03     104.869E-03
            1769     3.58437E-03     53.4957E-03    -114.338E+06    -212.421E+06    -71.9677E+06    -488.795E+03    -229.224E-03     456.947E-03    -227.723E-03     101.243E-03    -230.859E-03     457.631E-03    -227.609E-03     88.7352E-03
            1770     2.86734E-03     53.3719E-03    -122.254E+06    -243.711E+06    -91.0785E+06    -327.169E+03    -228.624E-03     456.333E-03    -227.708E-03     82.0575E-03    -229.690E-03     456.363E-03    -227.633E-03     72.1855E-03
            1771     2.14980E-03     53.2741E-03    -130.040E+06    -268.264E+06    -110.032E+06    -157.204E+03    -228.194E-03     455.894E-03    -227.700E-03     62.2547E-03    -228.829E-03     455.434E-03    -227.673E-03     54.9015E-03
            1772     1.43305E-03     53.2036E-03    -135.566E+06    -284.355E+06    -125.914E+06     46.0328E+03    -227.931E-03     455.620E-03    -227.689E-03     42.2314E-03    -228.262E-03     454.825E-03    -227.709E-03     37.3240E-03
            1773     716.979E-06     53.1595E-03    -138.954E+06    -298.377E+06    -136.440E+06    -120.500E+03    -227.867E-03     455.461E-03    -227.594E-03     23.3556E-03    -228.011E-03     454.448E-03    -227.642E-03     20.7112E-03
            1774     13.6197E-03     55.2188E-03    -5.23448E+06     74.2797E+06      87.699E+06    -385.876E+03    -226.947E-03     454.821E-03    -227.874E-03     110.142E-03    -231.315E-03     459.179E-03    -227.535E-03     87.7517E-03
            1775     12.9021E-03     55.0313E-03    -11.5148E+06     71.0431E+06     87.4868E+06    -233.391E+03    -227.563E-03     455.451E-03    -227.887E-03     155.336E-03    -234.246E-03     462.092E-03    -227.536E-03     127.157E-03
            1776     12.1873E-03     54.8287E-03    -16.0800E+06     63.7760E+06     86.4545E+06     948.723E+03    -228.289E-03     456.197E-03    -227.909E-03     171.413E-03    -235.810E-03     463.637E-03    -227.546E-03     142.059E-03
            1777     11.4685E-03     54.5947E-03    -21.5120E+06     60.8660E+06     84.3898E+06     875.081E+03    -229.524E-03     457.443E-03    -227.919E-03     190.135E-03    -238.159E-03     465.972E-03    -227.554E-03     158.981E-03
            1778     10.7527E-03     54.3379E-03    -28.4581E+06     54.5908E+06     77.0739E+06    -272.212E+03    -230.668E-03     458.562E-03    -227.894E-03     201.263E-03    -239.859E-03     467.623E-03    -227.547E-03     169.328E-03
            1779     10.0354E-03     54.0685E-03    -35.5919E+06     43.3121E+06     65.1527E+06    -247.391E+03    -231.432E-03     459.280E-03    -227.847E-03     208.731E-03    -240.840E-03     468.526E-03    -227.533E-03     176.574E-03
            1780     9.31968E-03     53.7897E-03    -41.6475E+06     37.3923E+06     56.6885E+06     301.178E+03    -231.891E-03     459.708E-03    -227.817E-03     211.018E-03    -241.069E-03     468.706E-03    -227.527E-03     179.374E-03
            1781     8.60227E-03     53.5116E-03    -47.6725E+06     31.3677E+06     51.2959E+06     1.92866E+06    -232.110E-03     459.922E-03    -227.811E-03     207.605E-03    -240.659E-03     468.264E-03    -227.531E-03     177.165E-03
            1782     7.88473E-03     53.2413E-03    -55.7126E+06     7.72258E+06     41.3565E+06     2.83466E+06    -232.179E-03     459.989E-03    -227.810E-03     199.107E-03    -239.782E-03     467.302E-03    -227.534E-03     170.458E-03
            1783     7.16866E-03     52.9826E-03    -65.4671E+06    -34.3834E+06     24.9321E+06     2.02260E+06    -231.864E-03     459.669E-03    -227.805E-03     186.776E-03    -238.318E-03     465.696E-03    -227.536E-03     160.456E-03
            1784     6.45153E-03     52.7437E-03    -75.5429E+06    -76.6207E+06     6.29311E+06     742.206E+03    -231.419E-03     459.216E-03    -227.796E-03     172.203E-03    -236.702E-03     463.940E-03    -227.544E-03     148.507E-03
            1785     5.73470E-03     52.5237E-03    -85.4529E+06    -119.913E+06    -13.0310E+06     289.153E+03    -231.073E-03     458.853E-03    -227.781E-03     155.986E-03    -235.244E-03     462.334E-03    -227.548E-03     135.070E-03
            1786     5.01785E-03     52.3257E-03    -94.9216E+06    -153.722E+06    -31.6613E+06     665.879E+03    -230.489E-03     458.236E-03    -227.746E-03     138.603E-03    -233.671E-03     460.627E-03    -227.544E-03     120.553E-03
            1787     4.30140E-03     52.1515E-03    -104.263E+06    -181.038E+06    -50.8476E+06     454.235E+03    -229.745E-03     457.457E-03    -227.712E-03     120.505E-03    -232.087E-03     458.933E-03    -227.552E-03     105.285E-03
            1788     3.58394E-03     52.0026E-03    -113.379E+06    -212.396E+06    -70.8820E+06    -119.087E+03    -229.180E-03     456.870E-03    -227.690E-03     101.613E-03    -230.816E-03     457.555E-03    -227.572E-03     89.1140E-03
            1789     2.86691E-03     51.8787E-03    -121.904E+06    -244.267E+06    -90.4032E+06    -197.391E+03    -228.725E-03     456.384E-03    -227.659E-03     81.9333E-03    -229.789E-03     456.410E-03    -227.580E-03     72.0542E-03
            1790     2.15069E-03     51.7807E-03    -128.868E+06    -268.208E+06    -109.001E+06         82.0029    -228.258E-03     455.860E-03    -227.602E-03     61.7805E-03    -228.884E-03     455.393E-03    -227.571E-03     54.4562E-03
            1791     1.43388E-03     51.7103E-03    -134.640E+06    -284.683E+06    -124.673E+06    -118.223E+03    -227.860E-03     455.401E-03    -227.541E-03     41.8075E-03    -228.184E-03     454.598E-03    -227.556E-03     36.9171E-03
            1792     716.410E-06     51.6660E-03    -138.937E+06    -298.488E+06    -135.709E+06     244.942E+03    -227.331E-03     455.106E-03    -227.775E-03     22.8228E-03    -227.475E-03     454.091E-03    -227.819E-03     20.1568E-03
            1793     13.6202E-03     53.7266E-03    -4.90861E+06     74.9268E+06     88.5351E+06     1.10939E+06    -226.669E-03     454.547E-03    -227.879E-03     109.987E-03    -231.026E-03     458.896E-03    -227.538E-03     87.6734E-03
            1794     12.9040E-03     53.5339E-03    -10.5310E+06     71.8387E+06     87.1506E+06     541.846E+03    -227.370E-03     455.269E-03    -227.899E-03     155.044E-03    -234.029E-03     461.893E-03    -227.552E-03     126.916E-03
            1795     12.1849E-03     53.3363E-03    -16.3930E+06     63.5384E+06     84.7362E+06    -1.10852E+06    -228.666E-03     456.577E-03    -227.910E-03     171.072E-03    -236.182E-03     464.014E-03    -227.555E-03     141.614E-03
            1796     11.4697E-03     53.0968E-03    -22.3439E+06     60.6897E+06     83.2843E+06    -912.900E+03    -229.864E-03     457.762E-03    -227.898E-03     189.568E-03    -238.494E-03     466.287E-03    -227.538E-03     158.327E-03
            1797     10.7529E-03     52.8436E-03    -28.4704E+06     54.5160E+06     76.9183E+06    -89.3190E+03    -230.578E-03     458.443E-03    -227.865E-03     201.007E-03    -239.761E-03     467.496E-03    -227.518E-03     169.091E-03
            1798     10.0367E-03     52.5730E-03    -35.0071E+06     43.8364E+06     65.1458E+06    -615.845E+03    -231.354E-03     459.176E-03    -227.822E-03     209.068E-03    -240.762E-03     468.427E-03    -227.509E-03     176.922E-03
            1799     9.31891E-03     52.2953E-03    -42.7953E+06     35.8078E+06     55.0835E+06    -1.13185E+06    -231.963E-03     459.751E-03    -227.789E-03     210.931E-03    -241.134E-03     468.738E-03    -227.503E-03     179.268E-03
            1800     8.60192E-03     52.0174E-03    -51.5437E+06     26.7855E+06     48.1124E+06    -363.811E+03    -232.280E-03     460.048E-03    -227.768E-03     207.146E-03    -240.827E-03     468.367E-03    -227.491E-03     176.651E-03
            1801     7.88623E-03     51.7453E-03    -59.9536E+06     6.60008E+06     39.1040E+06     927.219E+03    -232.087E-03     459.841E-03    -227.754E-03     198.557E-03    -239.688E-03     467.139E-03    -227.481E-03     169.913E-03
            1802     7.16884E-03     51.4896E-03    -68.0439E+06    -32.2715E+06     23.7557E+06     1.16174E+06    -231.689E-03     459.440E-03    -227.750E-03     186.720E-03    -238.152E-03     465.477E-03    -227.486E-03     160.418E-03
            1803     6.45171E-03     51.2493E-03    -76.9604E+06    -75.5424E+06     5.79080E+06     1.11382E+06    -231.468E-03     459.213E-03    -227.745E-03     172.297E-03    -236.755E-03     463.942E-03    -227.495E-03     148.622E-03
            1804     5.73509E-03     51.0295E-03    -86.3323E+06    -119.479E+06    -12.8547E+06     951.514E+03    -231.022E-03     458.750E-03    -227.728E-03     155.992E-03    -235.192E-03     462.227E-03    -227.494E-03     135.112E-03
            1805     5.01833E-03     50.8322E-03    -95.4710E+06    -153.308E+06    -31.1211E+06     790.532E+03    -230.312E-03     458.017E-03    -227.705E-03     138.557E-03    -233.494E-03     460.406E-03    -227.500E-03     120.546E-03
            1806     4.30058E-03     50.6585E-03    -104.513E+06    -179.976E+06    -49.9829E+06     512.777E+03    -229.715E-03     457.392E-03    -227.677E-03     120.092E-03    -232.053E-03     458.865E-03    -227.514E-03     104.893E-03
            1807     3.58399E-03     50.5088E-03    -113.287E+06    -212.181E+06    -70.6006E+06     132.647E+03    -229.258E-03     456.890E-03    -227.632E-03     100.993E-03    -230.888E-03     457.569E-03    -227.513E-03     88.4997E-03
            1808     2.86781E-03     50.3847E-03    -121.232E+06    -244.224E+06    -90.0621E+06     62.5853E+03    -228.753E-03     456.319E-03    -227.566E-03     81.5581E-03    -229.810E-03     456.340E-03    -227.486E-03     71.6950E-03
            1809     2.15064E-03     50.2879E-03    -128.431E+06    -268.419E+06    -108.587E+06     10.7460E+03    -228.237E-03     455.711E-03    -227.475E-03     61.8945E-03    -228.861E-03     455.242E-03    -227.442E-03     54.5677E-03
            1810     1.43386E-03     50.2169E-03    -134.127E+06    -284.870E+06    -125.303E+06     15.1479E+03    -227.804E-03     455.168E-03    -227.364E-03     41.9783E-03    -228.125E-03     454.366E-03    -227.383E-03     37.0915E-03
            1811     717.553E-06     50.1744E-03    -138.148E+06    -298.159E+06    -135.348E+06    -175.157E+03    -227.565E-03     454.708E-03    -227.144E-03     22.6103E-03    -227.705E-03     453.693E-03    -227.188E-03     19.9694E-03
            1812     13.6201E-03     52.2294E-03    -3.82515E+06     74.3555E+06     87.5813E+06     462.080E+03    -226.917E-03     454.805E-03    -227.888E-03     110.601E-03    -231.272E-03     459.156E-03    -227.552E-03     88.2252E-03
            1813     12.9016E-03     52.0418E-03    -8.20768E+06     73.6503E+06     88.5121E+06     622.061E+03    -227.938E-03     455.830E-03    -227.892E-03     154.745E-03    -234.590E-03     462.458E-03    -227.544E-03     126.537E-03
            1814     12.1870E-03     51.8379E-03    -13.8622E+06     66.3846E+06     86.7095E+06     556.393E+03    -228.855E-03     456.735E-03    -227.880E-03     170.415E-03    -236.346E-03     464.161E-03    -227.522E-03     140.987E-03
            1815     11.4702E-03     51.6025E-03    -20.3325E+06     60.3624E+06     84.4259E+06    -258.412E+03    -229.579E-03     457.449E-03    -227.870E-03     189.451E-03    -238.178E-03     465.945E-03    -227.506E-03     158.319E-03
            1816     10.7530E-03     51.3486E-03    -27.6597E+06     53.3196E+06     77.5736E+06    -457.861E+03    -230.506E-03     458.356E-03    -227.849E-03     201.288E-03    -239.682E-03     467.397E-03    -227.499E-03     169.395E-03
            1817     10.0355E-03     51.0778E-03    -35.2465E+06     44.5166E+06     65.7024E+06    -179.966E+03    -231.550E-03     459.348E-03    -227.798E-03     208.481E-03    -240.941E-03     468.581E-03    -227.483E-03     176.327E-03
            1818     9.31961E-03     50.8005E-03    -43.1002E+06     35.1389E+06     54.8623E+06     357.334E+03    -232.149E-03     459.888E-03    -227.739E-03     210.159E-03    -241.312E-03     468.863E-03    -227.453E-03     178.464E-03
            1819     8.60385E-03     50.5216E-03    -51.2071E+06     26.8848E+06     47.9932E+06     471.474E+03    -232.121E-03     459.828E-03    -227.706E-03     206.920E-03    -240.661E-03     468.141E-03    -227.431E-03     176.455E-03
            1820     7.88600E-03     50.2522E-03    -59.9841E+06     5.65421E+06     38.5158E+06    -207.194E+03    -231.829E-03     459.536E-03    -227.706E-03     198.787E-03    -239.420E-03     466.822E-03    -227.435E-03     170.194E-03
            1821     7.16886E-03     49.9954E-03    -69.0627E+06    -33.4058E+06     22.4366E+06    -273.937E+03    -231.805E-03     459.511E-03    -227.705E-03     186.779E-03    -238.261E-03     465.537E-03    -227.445E-03     160.476E-03
            1822     6.45234E-03     49.7550E-03    -77.5030E+06    -75.7508E+06     5.29975E+06     169.506E+03    -231.493E-03     459.183E-03    -227.690E-03     172.064E-03    -236.771E-03     463.902E-03    -227.441E-03     148.395E-03
            1823     5.73521E-03     49.5359E-03    -86.1000E+06    -118.860E+06    -12.0200E+06     897.014E+03    -230.920E-03     458.593E-03    -227.673E-03     155.572E-03    -235.080E-03     462.060E-03    -227.436E-03     134.728E-03
            1824     5.01797E-03     49.3387E-03    -95.2228E+06    -152.505E+06    -30.7236E+06     651.745E+03    -230.415E-03     458.046E-03    -227.631E-03     137.945E-03    -233.587E-03     460.427E-03    -227.426E-03     119.939E-03
            1825     4.30196E-03     49.1649E-03    -104.210E+06    -179.948E+06    -50.1067E+06     142.500E+03    -229.827E-03     457.391E-03    -227.564E-03     119.604E-03    -232.157E-03     458.858E-03    -227.402E-03     104.401E-03
            1826     3.58519E-03     49.0153E-03    -112.793E+06    -211.637E+06    -70.4718E+06     367.422E+03    -229.096E-03     456.596E-03    -227.500E-03     100.799E-03    -230.718E-03     457.271E-03    -227.382E-03     88.3470E-03
            1827     2.86756E-03     48.8922E-03    -121.187E+06    -243.844E+06    -90.1163E+06     261.639E+03    -228.448E-03     455.910E-03    -227.462E-03     81.5645E-03    -229.501E-03     455.929E-03    -227.384E-03     71.7480E-03
            1828     2.15098E-03     48.7944E-03    -128.970E+06    -268.667E+06    -108.678E+06     220.507E+03    -228.013E-03     455.442E-03    -227.429E-03     61.9560E-03    -228.640E-03     454.972E-03    -227.396E-03     54.6442E-03
            1829     1.43403E-03     48.7250E-03    -134.822E+06    -284.378E+06    -125.321E+06     387.644E+03    -227.708E-03     455.081E-03    -227.374E-03     42.0943E-03    -228.034E-03     454.283E-03    -227.392E-03     37.2148E-03
            1830     716.589E-06     48.6809E-03    -136.766E+06    -298.105E+06    -136.269E+06     116.750E+03    -227.976E-03     454.783E-03    -226.807E-03     22.8418E-03    -228.109E-03     453.768E-03    -226.858E-03     20.1973E-03
            1831     13.6186E-03     50.7339E-03    -4.59205E+06     73.1894E+06     85.5940E+06    -770.430E+03    -227.291E-03     455.160E-03    -227.868E-03     109.551E-03    -231.630E-03     459.494E-03    -227.540E-03     87.1358E-03
            1832     12.9048E-03     50.5443E-03    -9.54606E+06     73.8092E+06     87.4415E+06    -489.655E+03    -228.093E-03     455.951E-03    -227.858E-03     154.447E-03    -234.738E-03     462.571E-03    -227.514E-03     126.243E-03
            1833     12.1873E-03     50.3429E-03    -14.8542E+06     66.9714E+06     87.0768E+06     330.109E+03    -228.618E-03     456.472E-03    -227.854E-03     170.830E-03    -236.111E-03     463.898E-03    -227.494E-03     141.477E-03
            1834     11.4696E-03     50.1086E-03    -21.0487E+06     61.2850E+06     84.6235E+06     261.685E+03    -229.641E-03     457.489E-03    -227.848E-03     189.521E-03    -238.239E-03     465.985E-03    -227.483E-03     158.402E-03
            1835     10.7529E-03     49.8523E-03    -28.0383E+06     53.5248E+06     76.8357E+06     159.906E+03    -230.830E-03     458.636E-03    -227.806E-03     200.501E-03    -239.987E-03     467.660E-03    -227.459E-03     168.577E-03
            1836     10.0376E-03     49.5832E-03    -35.5075E+06     43.3487E+06     64.5673E+06     637.782E+03    -231.559E-03     459.293E-03    -227.734E-03     207.952E-03    -240.934E-03     468.509E-03    -227.423E-03     175.805E-03
            1837     9.32084E-03     49.3047E-03    -43.0414E+06     35.1727E+06     54.6118E+06     1.01708E+06    -231.848E-03     459.533E-03    -227.685E-03     210.475E-03    -241.000E-03     468.498E-03    -227.400E-03     178.873E-03
            1838     8.60301E-03     49.0282E-03    -50.6943E+06     28.0312E+06     48.2701E+06     451.690E+03    -231.906E-03     459.580E-03    -227.675E-03     207.179E-03    -240.434E-03     467.888E-03    -227.400E-03     176.784E-03
            1839     7.88608E-03     48.7583E-03    -59.1321E+06     6.63118E+06     39.2324E+06     151.714E+03    -232.083E-03     459.756E-03    -227.673E-03     198.638E-03    -239.662E-03     467.035E-03    -227.401E-03     170.042E-03
            1840     7.16959E-03     48.5004E-03    -68.3062E+06    -32.8837E+06     23.7698E+06    -141.920E+03    -231.974E-03     459.623E-03    -227.649E-03     186.287E-03    -238.412E-03     465.633E-03    -227.384E-03     159.993E-03
            1841     6.45257E-03     48.2615E-03     -78.155E+06    -77.2716E+06     4.86343E+06    -267.813E+03    -231.509E-03     459.117E-03    -227.607E-03     171.487E-03    -236.776E-03     463.817E-03    -227.358E-03     147.824E-03
            1842     5.73579E-03     48.0422E-03    -87.4592E+06    -119.620E+06    -13.8560E+06    -250.814E+03    -230.967E-03     458.528E-03    -227.561E-03     155.007E-03    -235.118E-03     461.984E-03    -227.330E-03     134.159E-03
            1843     5.01949E-03     47.8451E-03    -95.9654E+06    -151.854E+06    -31.9908E+06    -373.709E+03    -230.320E-03     457.824E-03    -227.504E-03     137.761E-03    -233.487E-03     460.204E-03    -227.304E-03     119.771E-03
            1844     4.30210E-03     47.6712E-03    -104.779E+06    -180.443E+06    -50.8864E+06     77.3029E+03    -229.602E-03     457.050E-03    -227.448E-03     119.764E-03    -231.931E-03     458.513E-03    -227.289E-03     104.599E-03
            1845     3.58488E-03     47.5230E-03    -113.674E+06    -211.343E+06    -70.5533E+06     469.601E+03    -228.934E-03     456.339E-03    -227.405E-03     100.927E-03    -230.560E-03     457.016E-03    -227.287E-03     88.4981E-03
            1846     2.86834E-03     47.3993E-03    -121.903E+06    -243.418E+06    -90.1788E+06     402.132E+03    -228.361E-03     455.734E-03    -227.373E-03     81.4564E-03    -229.417E-03     455.755E-03    -227.294E-03     71.6543E-03
            1847     2.15071E-03     47.3026E-03    -129.238E+06    -268.244E+06    -109.078E+06     191.901E+03    -227.883E-03     455.224E-03    -227.341E-03     61.6215E-03    -228.508E-03     454.754E-03    -227.310E-03     54.3287E-03
            1848     1.43360E-03     47.2315E-03    -134.787E+06    -284.080E+06    -125.111E+06     20.5335E+03    -227.571E-03     454.880E-03    -227.309E-03     41.5772E-03    -227.895E-03     454.080E-03    -227.327E-03     36.7197E-03
            1849     717.183E-06     47.1892E-03    -138.431E+06    -297.822E+06    -135.403E+06     175.712E+03    -227.521E-03     454.672E-03    -227.150E-03     22.4383E-03    -227.662E-03     453.657E-03    -227.195E-03     19.8046E-03
            1850     13.6224E-03     49.2402E-03    -4.71021E+06     73.5828E+06     86.1825E+06    -136.854E+03    -227.266E-03     455.111E-03    -227.845E-03     110.282E-03    -231.618E-03     459.458E-03    -227.514E-03     87.9283E-03
            1851     12.9028E-03     49.0474E-03    -10.5024E+06     72.6922E+06     86.6870E+06    -120.065E+03    -227.733E-03     455.579E-03    -227.846E-03     155.288E-03    -234.387E-03     462.202E-03    -227.502E-03     127.156E-03
            1852     12.1863E-03     48.8493E-03    -16.5808E+06     66.3554E+06     85.2740E+06    -1.13282E+06    -228.955E-03     456.792E-03    -227.837E-03     170.448E-03    -236.454E-03     464.219E-03    -227.482E-03     140.993E-03
            1853     11.4706E-03     48.6115E-03    -22.3744E+06     60.4640E+06     83.2102E+06    -795.142E+03    -230.082E-03     457.884E-03    -227.802E-03     188.954E-03    -238.691E-03     466.387E-03    -227.441E-03     157.698E-03
            1854     10.7550E-03     48.3575E-03    -28.4990E+06     52.1357E+06     75.8100E+06     739.136E+03    -230.630E-03     458.379E-03    -227.749E-03     200.603E-03    -239.777E-03     467.390E-03    -227.404E-03     168.743E-03
            1855     10.0373E-03     48.0878E-03    -35.5296E+06     42.9419E+06     64.0315E+06     1.29752E+06    -231.228E-03     458.927E-03    -227.699E-03     208.739E-03    -240.597E-03     468.136E-03    -227.389E-03     176.708E-03
            1856     9.32003E-03     47.8109E-03    -42.7459E+06     36.5852E+06     55.2229E+06     689.222E+03    -231.833E-03     459.501E-03    -227.668E-03     210.502E-03    -240.968E-03     468.454E-03    -227.383E-03     178.948E-03
            1857     8.60331E-03     47.5342E-03    -50.6078E+06     28.9962E+06     48.9191E+06     53.7040E+03    -232.279E-03     459.919E-03    -227.640E-03     206.492E-03    -240.789E-03     468.210E-03    -227.364E-03     176.065E-03
            1858     7.88696E-03     47.2628E-03    -59.2439E+06     7.25812E+06     39.7220E+06    -148.480E+03    -232.299E-03     459.901E-03    -227.602E-03     197.934E-03    -239.863E-03     467.165E-03    -227.328E-03     169.324E-03
            1859     7.17014E-03     47.0070E-03    -68.4705E+06    -33.6220E+06     23.5516E+06     209.033E+03    -231.937E-03     459.491E-03    -227.553E-03     185.781E-03    -238.362E-03     465.485E-03    -227.288E-03     159.510E-03
            1860     6.45351E-03     46.7673E-03    -77.3756E+06    -77.0380E+06     5.26765E+06     480.699E+03    -231.463E-03     458.965E-03    -227.502E-03     171.227E-03    -236.716E-03     463.654E-03    -227.252E-03     147.609E-03
            1861     5.73697E-03     46.5488E-03    -86.3904E+06    -118.641E+06    -13.5637E+06    -348.662E+03    -230.875E-03     458.325E-03    -227.450E-03     155.129E-03    -235.020E-03     461.781E-03    -227.220E-03     134.303E-03
            1862     5.01941E-03     46.3522E-03    -95.9312E+06    -152.658E+06    -32.1675E+06    -391.029E+03    -230.166E-03     457.564E-03    -227.398E-03     137.811E-03    -233.329E-03     459.938E-03    -227.199E-03     119.849E-03
            1863     4.30245E-03     46.1790E-03    -105.332E+06    -180.626E+06    -50.7697E+06     103.013E+03    -229.457E-03     456.807E-03    -227.350E-03     119.406E-03    -231.780E-03     458.262E-03    -227.189E-03     104.275E-03
            1864     3.58553E-03     46.0300E-03    -114.206E+06    -211.543E+06    -70.7741E+06    -81.9344E+03    -228.884E-03     456.182E-03    -227.298E-03     100.436E-03    -230.507E-03     456.854E-03    -227.180E-03     88.0090E-03
            1865     2.86807E-03     45.9070E-03    -121.849E+06    -243.323E+06    -89.9678E+06     37.7680E+03    -228.373E-03     455.610E-03    -227.236E-03     81.0217E-03    -229.427E-03     455.627E-03    -227.157E-03     71.2135E-03
            1866     2.15168E-03     45.8100E-03    -128.768E+06    -267.707E+06    -108.863E+06    -19.2707E+03    -227.856E-03     455.008E-03    -227.153E-03     61.3137E-03    -228.477E-03     454.538E-03    -227.122E-03     54.0328E-03
            1867     1.43467E-03     45.7399E-03    -134.194E+06    -284.094E+06    -124.930E+06    -288.849E+03    -227.357E-03     454.449E-03    -227.092E-03     41.4633E-03    -227.676E-03     453.645E-03    -227.110E-03     36.6153E-03
            1868     717.017E-06     45.6964E-03    -138.526E+06    -297.982E+06    -135.926E+06    -341.551E+03    -227.020E-03     454.234E-03    -227.213E-03     22.4567E-03    -227.161E-03     453.219E-03    -227.260E-03     19.8393E-03
            1869     13.6185E-03     47.7430E-03    -5.05022E+06     74.2303E+06     87.4329E+06     378.682E+03    -227.570E-03     455.435E-03    -227.865E-03     110.868E-03    -231.943E-03     459.800E-03    -227.529E-03     88.4055E-03
            1870     12.9040E-03     47.5544E-03    -9.52513E+06     71.9648E+06     87.5558E+06     78.3456E+03    -228.399E-03     456.233E-03    -227.833E-03     154.086E-03    -235.040E-03     462.841E-03    -227.486E-03     125.822E-03
            1871     12.1877E-03     47.3509E-03    -14.8744E+06     67.6090E+06     86.3053E+06    -206.093E+03    -228.976E-03     456.773E-03    -227.796E-03     170.131E-03    -236.462E-03     464.195E-03    -227.441E-03     140.673E-03
            1872     11.4719E-03     47.1162E-03    -22.3122E+06     59.1389E+06     82.1424E+06    -2.53323E+03    -229.731E-03     457.498E-03    -227.767E-03     189.362E-03    -238.328E-03     465.987E-03    -227.410E-03     158.196E-03
            1873     10.7537E-03     46.8631E-03    -30.2540E+06     49.9330E+06     74.3980E+06     88.1206E+03    -230.435E-03     458.173E-03    -227.738E-03     201.085E-03    -239.575E-03     467.166E-03    -227.394E-03     169.293E-03
            1874     10.0371E-03     46.5935E-03    -36.7533E+06     44.1246E+06     64.8176E+06    -402.208E+03    -231.451E-03     459.142E-03    -227.691E-03     208.296E-03    -240.805E-03     468.334E-03    -227.378E-03     176.253E-03
            1875     9.32053E-03     46.3162E-03    -43.0839E+06     36.4407E+06     55.7876E+06    -968.110E+03    -232.296E-03     459.923E-03    -227.626E-03     209.644E-03    -241.416E-03     468.857E-03    -227.338E-03     178.005E-03
            1876     8.60459E-03     46.0383E-03    -50.2607E+06     28.8569E+06     49.2917E+06    -438.097E+03    -232.498E-03     460.054E-03    -227.557E-03     205.917E-03    -240.989E-03     468.327E-03    -227.279E-03     175.473E-03
            1877     7.88782E-03     45.7694E-03    -58.5963E+06     6.21215E+06     39.3273E+06     91.6510E+03    -232.179E-03     459.679E-03    -227.500E-03     197.646E-03    -239.723E-03     466.923E-03    -227.227E-03     169.078E-03
            1878     7.17106E-03     45.5124E-03    -67.3787E+06    -34.2087E+06     23.2354E+06     527.561E+03    -231.805E-03     459.258E-03    -227.453E-03     185.773E-03    -238.215E-03     465.240E-03    -227.190E-03     159.549E-03
            1879     6.45421E-03     45.2742E-03    -76.2790E+06    -75.6724E+06     5.61812E+06     454.038E+03    -231.375E-03     458.781E-03    -227.405E-03     171.214E-03    -236.616E-03     463.466E-03    -227.157E-03     147.633E-03
            1880     5.73659E-03     45.0556E-03    -85.6630E+06    -118.052E+06    -12.2646E+06     568.649E+03    -230.819E-03     458.174E-03    -227.355E-03     154.693E-03    -234.949E-03     461.617E-03    -227.121E-03     133.917E-03
            1881     5.02021E-03     44.8592E-03    -95.2989E+06    -152.368E+06    -30.8168E+06     507.376E+03    -230.142E-03     457.432E-03    -227.290E-03     137.164E-03    -233.293E-03     459.793E-03    -227.085E-03     119.232E-03
            1882     4.30322E-03     44.6864E-03    -104.249E+06    -180.140E+06    -49.8399E+06    -103.862E+03    -229.435E-03     456.653E-03    -227.217E-03     119.100E-03    -231.751E-03     458.104E-03    -227.054E-03     103.972E-03
            1883     3.58601E-03     44.5378E-03    -112.690E+06    -211.389E+06    -70.0181E+06    -198.522E+03    -228.795E-03     455.942E-03    -227.148E-03     100.345E-03    -230.408E-03     456.608E-03    -227.028E-03     87.9409E-03
            1884     2.86935E-03     44.4148E-03    -121.235E+06    -243.579E+06    -89.7744E+06    -305.731E+03    -228.222E-03     455.301E-03    -227.079E-03     81.0351E-03    -229.270E-03     455.314E-03    -226.999E-03     71.2480E-03
            1885     2.15168E-03     44.3182E-03    -128.411E+06    -267.658E+06    -108.006E+06    -192.541E+03    -227.643E-03     454.654E-03    -227.011E-03     61.4252E-03    -228.262E-03     454.180E-03    -226.977E-03     54.1696E-03
            1886     1.43439E-03     44.2485E-03    -134.901E+06    -284.615E+06    -125.130E+06     79.0740E+03    -227.182E-03     454.157E-03    -226.975E-03     41.7334E-03    -227.504E-03     453.353E-03    -226.992E-03     36.9044E-03
            1887     717.202E-06     44.2060E-03    -138.426E+06    -298.160E+06    -135.616E+06     387.903E+03    -227.142E-03     454.037E-03    -226.895E-03     22.6984E-03    -227.282E-03     453.021E-03    -226.940E-03     20.0924E-03
            1888     13.6205E-03     46.2428E-03    -4.99550E+06     74.5180E+06     87.0469E+06    -576.997E+03    -227.640E-03     455.472E-03    -227.831E-03     109.068E-03    -231.983E-03     459.809E-03    -227.497E-03     86.6224E-03
            1889     12.9050E-03     46.0572E-03    -8.72958E+06     71.5575E+06     87.9631E+06    -300.875E+03    -228.126E-03     455.932E-03    -227.806E-03     154.194E-03    -234.751E-03     462.525E-03    -227.457E-03     126.001E-03
            1890     12.1884E-03     45.8568E-03    -14.8368E+06     65.1331E+06     86.1193E+06     1.39483E+06    -228.775E-03     456.563E-03    -227.788E-03     171.173E-03    -236.246E-03     463.963E-03    -227.430E-03     141.854E-03
            1891     11.4699E-03     45.6212E-03    -21.6055E+06     59.3583E+06     83.1910E+06     2.20173E+06    -229.689E-03     457.461E-03    -227.772E-03     189.218E-03    -238.256E-03     465.921E-03    -227.411E-03     158.161E-03
            1892     10.7543E-03     45.3679E-03    -28.0957E+06     53.9905E+06     77.3012E+06     636.891E+03    -230.973E-03     458.696E-03    -227.723E-03     200.022E-03    -240.090E-03     467.681E-03    -227.374E-03     168.160E-03
            1893     10.0378E-03     45.0982E-03    -35.4938E+06     45.9128E+06     66.0962E+06    -1.17931E+06    -231.915E-03     459.541E-03    -227.627E-03     207.301E-03    -241.249E-03     468.721E-03    -227.311E-03     175.167E-03
            1894     9.32197E-03     44.8204E-03    -42.8457E+06     35.5003E+06     55.5074E+06    -1.52412E+06    -232.285E-03     459.816E-03    -227.531E-03     209.225E-03    -241.380E-03     468.724E-03    -227.243E-03     177.611E-03
            1895     8.60510E-03     44.5441E-03    -51.1737E+06     26.6982E+06     48.1019E+06    -1.00043E+06    -232.230E-03     459.693E-03    -227.463E-03     205.778E-03    -240.702E-03     467.939E-03    -227.187E-03     175.397E-03
            1896     7.88847E-03     44.2748E-03    -60.0192E+06     5.21023E+06     38.4439E+06    -227.628E+03    -232.037E-03     459.455E-03    -227.417E-03     197.645E-03    -239.574E-03     466.685E-03    -227.146E-03     169.125E-03
            1897     7.17147E-03     44.0194E-03    -69.1097E+06    -34.1310E+06     22.6553E+06    -341.915E+03    -231.820E-03     459.189E-03    -227.369E-03     185.659E-03    -238.228E-03     465.165E-03    -227.106E-03     159.448E-03
            1898     6.45427E-03     43.7804E-03    -78.5089E+06    -76.6449E+06     4.60859E+06    -158.377E+03    -231.437E-03     458.741E-03    -227.304E-03     170.709E-03    -236.671E-03     463.410E-03    -227.056E-03     147.137E-03
            1899     5.73838E-03     43.5625E-03    -87.6480E+06    -117.869E+06    -13.4565E+06     162.329E+03    -230.795E-03     458.025E-03    -227.230E-03     154.218E-03    -234.920E-03     461.460E-03    -226.999E-03     133.470E-03
            1900     5.02094E-03     43.3669E-03    -96.0661E+06    -150.965E+06    -31.3477E+06    -608.989E+03    -230.041E-03     457.193E-03    -227.152E-03     137.009E-03    -233.190E-03     459.556E-03    -226.950E-03     119.095E-03
            1901     4.30370E-03     43.1942E-03    -104.578E+06    -180.673E+06    -50.2408E+06    -828.149E+03    -229.337E-03     456.411E-03    -227.074E-03     118.982E-03    -231.648E-03     457.856E-03    -226.912E-03     103.867E-03
            1902     3.58664E-03     43.0460E-03    -113.309E+06    -211.887E+06    -70.3081E+06    -332.674E+03    -228.636E-03     455.638E-03    -227.002E-03     100.180E-03    -230.247E-03     456.298E-03    -226.882E-03     87.8025E-03
            1903     2.86890E-03     42.9231E-03    -121.677E+06    -243.391E+06    -89.8595E+06        -354.984    -227.978E-03     454.924E-03    -226.946E-03     80.8719E-03    -229.024E-03     454.935E-03    -226.866E-03     71.1260E-03
            1904     2.15205E-03     42.8270E-03    -129.541E+06    -268.572E+06    -109.170E+06     105.583E+03    -227.459E-03     454.358E-03    -226.899E-03     61.0765E-03    -228.078E-03     453.880E-03    -226.868E-03     53.8544E-03
            1905     1.43445E-03     42.7577E-03    -134.590E+06    -284.294E+06    -125.422E+06     50.8422E+03    -227.170E-03     454.012E-03    -226.842E-03     41.3878E-03    -227.489E-03     453.208E-03    -226.862E-03     36.5603E-03
            1906     717.303E-06     42.7135E-03    -138.329E+06    -298.265E+06    -135.882E+06    -616.248E+03    -227.062E-03     453.708E-03    -226.647E-03     22.5156E-03    -227.201E-03     452.693E-03    -226.693E-03     19.8795E-03
            1907     13.6231E-03     44.7537E-03    -4.01468E+06     74.8869E+06     86.7764E+06    -483.656E+03    -227.071E-03     454.877E-03    -227.806E-03     110.593E-03    -231.423E-03     459.228E-03    -227.475E-03     88.2314E-03
            1908     12.9030E-03     44.5602E-03    -11.0614E+06     68.9064E+06     85.3423E+06    -195.253E+03    -227.766E-03     455.576E-03    -227.810E-03     155.481E-03    -234.407E-03     462.175E-03    -227.467E-03     127.338E-03
            1909     12.1865E-03     44.3612E-03    -16.1360E+06     62.4919E+06     85.2489E+06     460.109E+03    -229.237E-03     457.033E-03    -227.796E-03     169.979E-03    -236.687E-03     464.401E-03    -227.437E-03     140.592E-03
            1910     11.4717E-03     44.1258E-03    -20.5277E+06     60.1325E+06     85.4090E+06     666.978E+03    -230.344E-03     458.089E-03    -227.745E-03     188.251E-03    -238.893E-03     466.531E-03    -227.375E-03     157.089E-03
            1911     10.7551E-03     43.8715E-03    -26.2595E+06     56.7250E+06     79.8342E+06     648.423E+03    -231.244E-03     458.899E-03    -227.655E-03     199.545E-03    -240.351E-03     467.883E-03    -227.300E-03     167.636E-03
            1912     10.0395E-03     43.6025E-03    -33.5799E+06     47.8860E+06     67.5094E+06     657.966E+03    -231.909E-03     459.447E-03    -227.538E-03     207.243E-03    -241.227E-03     468.620E-03    -227.221E-03     175.157E-03
            1913     9.32257E-03     43.3263E-03    -42.4067E+06     36.1640E+06     55.4529E+06     546.973E+03    -232.100E-03     459.541E-03    -227.441E-03     209.122E-03    -241.176E-03     468.434E-03    -227.155E-03     177.598E-03
            1914     8.60595E-03     43.0497E-03    -51.2528E+06     26.7425E+06     48.1003E+06     153.799E+03    -232.052E-03     459.435E-03    -227.383E-03     205.526E-03    -240.499E-03     467.656E-03    -227.107E-03     175.235E-03
            1915     7.88875E-03     42.7816E-03    -60.3899E+06     5.35892E+06     38.7600E+06    -337.204E+03    -232.087E-03     459.422E-03    -227.335E-03     197.189E-03    -239.603E-03     466.630E-03    -227.062E-03     168.703E-03
            1916     7.17201E-03     42.5252E-03    -69.6372E+06    -34.1855E+06     22.8481E+06    -552.523E+03    -231.921E-03     459.186E-03    -227.265E-03     184.990E-03    -238.308E-03     465.139E-03    -227.001E-03     158.801E-03
            1917     6.45603E-03     42.2872E-03    -78.4936E+06    -77.8787E+06     4.62148E+06    -445.157E+03    -231.325E-03     458.509E-03    -227.184E-03     170.322E-03    -236.540E-03     463.156E-03    -226.935E-03     146.799E-03
            1918     5.73812E-03     42.0698E-03    -87.0298E+06    -116.474E+06    -13.5309E+06    -691.070E+03    -230.653E-03     457.757E-03    -227.105E-03     154.084E-03    -234.766E-03     461.187E-03    -226.877E-03     133.374E-03
            1919     5.02140E-03     41.8746E-03    -96.1067E+06    -150.474E+06    -32.1604E+06    -1.37398E+06    -230.032E-03     457.048E-03    -227.017E-03     136.725E-03    -233.172E-03     459.406E-03    -226.820E-03     118.826E-03
            1920     4.30441E-03     41.7023E-03    -105.331E+06    -182.546E+06    -51.0853E+06    -1.19037E+06    -229.277E-03     456.200E-03    -226.923E-03     118.513E-03    -231.580E-03     457.629E-03    -226.761E-03     103.422E-03
            1921     3.58707E-03     41.5546E-03    -114.156E+06    -212.582E+06    -70.8672E+06    -425.512E+03    -228.474E-03     455.312E-03    -226.838E-03     99.7158E-03    -230.079E-03     455.962E-03    -226.718E-03     87.3764E-03
            1922     2.87010E-03     41.4323E-03    -122.522E+06    -243.987E+06    -90.7947E+06     42.3638E+03    -227.799E-03     454.575E-03    -226.776E-03     80.4260E-03    -228.842E-03     454.580E-03    -226.699E-03     70.7129E-03
            1923     2.15212E-03     41.3361E-03    -129.487E+06    -268.446E+06    -109.643E+06    -97.7448E+03    -227.367E-03     454.078E-03    -226.711E-03     60.8716E-03    -227.982E-03     453.598E-03    -226.682E-03     53.6610E-03
            1924     1.43522E-03     41.2664E-03    -135.266E+06    -284.717E+06    -125.557E+06    -241.179E+03    -227.030E-03     453.649E-03    -226.619E-03     41.3109E-03    -227.351E-03     452.843E-03    -226.638E-03     36.4792E-03
            1925     717.709E-06     41.2235E-03    -138.502E+06    -298.083E+06    -136.793E+06     292.343E+03    -226.637E-03     453.208E-03    -226.572E-03     22.3736E-03    -226.776E-03     452.195E-03    -226.623E-03     19.7424E-03
            1926     13.6177E-03     43.2564E-03    -4.70532E+06     73.7504E+06     86.1110E+06     41.3487E+03    -227.819E-03     455.661E-03    -227.842E-03     110.233E-03    -232.170E-03     460.008E-03    -227.512E-03     87.7392E-03
            1927     12.9046E-03     43.0654E-03    -8.99727E+06     71.2011E+06     87.9269E+06     677.410E+03    -228.759E-03     456.562E-03    -227.802E-03     154.069E-03    -235.372E-03     463.139E-03    -227.453E-03     125.838E-03
            1928     12.1887E-03     42.8642E-03    -15.0752E+06     65.3506E+06     86.9113E+06    -166.355E+03    -229.404E-03     457.148E-03    -227.743E-03     169.085E-03    -236.836E-03     464.505E-03    -227.382E-03     139.673E-03
            1929     11.4720E-03     42.6292E-03    -22.2763E+06     58.4271E+06     83.6081E+06    -1.86394E+06    -230.415E-03     458.087E-03    -227.672E-03     188.164E-03    -238.958E-03     466.516E-03    -227.307E-03     156.964E-03
            1930     10.7564E-03     42.3760E-03    -29.1505E+06     53.8067E+06     76.9406E+06    -1.04252E+06    -231.110E-03     458.689E-03    -227.580E-03     199.847E-03    -240.211E-03     467.655E-03    -227.231E-03     167.972E-03
            1931     10.0392E-03     42.1073E-03    -35.7899E+06     46.9047E+06     65.9235E+06     443.735E+03    -231.720E-03     459.195E-03    -227.475E-03     207.273E-03    -241.027E-03     468.350E-03    -227.161E-03     175.254E-03
            1932     9.32331E-03     41.8311E-03    -42.5955E+06     36.4772E+06     55.6742E+06     1.20404E+06    -232.150E-03     459.533E-03    -227.383E-03     208.966E-03    -241.209E-03     468.409E-03    -227.096E-03     177.486E-03
            1933     8.60639E-03     41.5567E-03    -50.1649E+06     28.5569E+06     49.3507E+06     1.07240E+06    -232.370E-03     459.675E-03    -227.304E-03     205.211E-03    -240.800E-03     467.885E-03    -227.026E-03     174.926E-03
            1934     7.88993E-03     41.2869E-03     -58.517E+06     6.50793E+06     40.1676E+06     220.260E+03    -232.264E-03     459.489E-03    -227.225E-03     196.773E-03    -239.757E-03     466.681E-03    -226.949E-03     168.302E-03
            1935     7.17367E-03     41.0318E-03    -67.2988E+06    -33.4620E+06     24.3993E+06     165.909E+03    -231.797E-03     458.938E-03    -227.141E-03     184.588E-03    -238.153E-03     464.865E-03    -226.872E-03     158.481E-03
            1936     6.45579E-03     40.7945E-03    -76.6777E+06    -77.5334E+06     5.42875E+06    -32.3952E+03    -231.207E-03     458.260E-03    -227.054E-03     169.807E-03    -236.394E-03     462.885E-03    -226.803E-03     146.346E-03
            1937     5.73951E-03     40.5776E-03    -86.2340E+06    -116.068E+06    -13.3269E+06    -630.561E+03    -230.615E-03     457.575E-03    -226.960E-03     153.410E-03    -234.709E-03     460.989E-03    -226.733E-03     132.729E-03
            1938     5.02228E-03     40.3822E-03    -95.6112E+06    -150.115E+06    -31.8591E+06    -533.682E+03    -229.937E-03     456.792E-03    -226.855E-03     136.061E-03    -233.059E-03     459.134E-03    -226.658E-03     118.221E-03
            1939     4.30521E-03     40.2108E-03    -105.084E+06    -183.447E+06    -51.2910E+06    -498.420E+03    -229.188E-03     455.931E-03    -226.743E-03     117.976E-03    -231.477E-03     457.344E-03    -226.581E-03     102.933E-03
            1940     3.58794E-03     40.0638E-03    -114.218E+06    -213.359E+06    -71.5131E+06    -482.682E+03    -228.396E-03     455.026E-03    -226.630E-03     99.1847E-03    -229.991E-03     455.666E-03    -226.513E-03     86.8720E-03
            1941     2.87007E-03     39.9416E-03    -122.361E+06    -244.424E+06    -90.9697E+06    -367.484E+03    -227.650E-03     454.192E-03    -226.541E-03     79.9656E-03    -228.684E-03     454.188E-03    -226.464E-03     70.2832E-03
            1942     2.15306E-03     39.8460E-03    -129.593E+06    -268.515E+06    -109.311E+06    -14.8119E+03    -227.108E-03     453.575E-03    -226.467E-03     60.7391E-03    -227.722E-03     453.093E-03    -226.436E-03     53.5498E-03
            1943     1.43506E-03     39.7758E-03    -135.673E+06    -284.981E+06    -126.060E+06     115.963E+03    -226.712E-03     453.106E-03    -226.395E-03     41.0144E-03    -227.032E-03     452.299E-03    -226.415E-03     36.2104E-03
            1944     717.476E-06     39.7344E-03    -139.459E+06    -298.089E+06    -136.235E+06    -166.825E+03    -226.376E-03     452.804E-03    -226.428E-03     22.2555E-03    -226.519E-03     451.789E-03    -226.474E-03     19.6588E-03
            1945     13.6221E-03     41.7563E-03    -5.43172E+06     74.1672E+06     86.8335E+06     146.426E+03    -228.544E-03     456.372E-03    -227.828E-03     109.031E-03    -232.882E-03     460.703E-03    -227.494E-03     86.5293E-03
            1946     12.9053E-03     41.5688E-03    -10.5377E+06     71.7232E+06     87.6803E+06    -479.205E+03    -228.947E-03     456.702E-03    -227.755E-03     153.731E-03    -235.560E-03     463.278E-03    -227.405E-03     125.483E-03
            1947     12.1889E-03     41.3682E-03    -15.4948E+06     65.8902E+06       86.36E+06    -657.661E+03    -229.396E-03     457.084E-03    -227.688E-03     169.988E-03    -236.830E-03     464.446E-03    -227.329E-03     140.613E-03
            1948     11.4731E-03     41.1336E-03    -21.2808E+06     59.1358E+06     83.2764E+06    -302.881E+03    -230.266E-03     457.888E-03    -227.622E-03     188.461E-03    -238.790E-03     466.305E-03    -227.261E-03     157.345E-03
            1949     10.7560E-03     40.8803E-03    -28.1941E+06     52.1262E+06     76.2759E+06    -540.875E+03    -231.082E-03     458.619E-03    -227.537E-03     199.701E-03    -240.148E-03     467.548E-03    -227.190E-03     167.898E-03
            1950     10.0406E-03     40.6123E-03    -35.3148E+06     44.4694E+06     65.4133E+06    -258.071E+03    -231.806E-03     459.236E-03    -227.430E-03     206.987E-03    -241.082E-03     468.355E-03    -227.116E-03     174.985E-03
            1951     9.32314E-03     40.3371E-03    -42.3806E+06     36.1799E+06     55.8939E+06     124.006E+03    -232.406E-03     459.727E-03    -227.320E-03     208.380E-03    -241.433E-03     468.569E-03    -227.032E-03     176.898E-03
            1952     8.60728E-03     40.0608E-03    -49.7562E+06     28.8406E+06     49.8461E+06     64.5560E+03    -232.590E-03     459.802E-03    -227.212E-03     204.668E-03    -240.997E-03     467.990E-03    -226.933E-03     174.372E-03
            1953     7.89114E-03     39.7935E-03    -58.0434E+06     7.27870E+06     40.6503E+06     419.858E+03    -232.294E-03     459.403E-03    -227.109E-03     196.401E-03    -239.767E-03     466.577E-03    -226.832E-03     167.967E-03
            1954     7.17363E-03     39.5386E-03    -67.4157E+06    -33.4338E+06     24.2235E+06     646.437E+03    -231.804E-03     458.809E-03    -227.005E-03     184.046E-03    -238.140E-03     464.717E-03    -226.738E-03     157.977E-03
            1955     6.45773E-03     39.3019E-03    -76.7926E+06    -76.5937E+06     5.75701E+06     620.593E+03    -231.276E-03     458.171E-03    -226.895E-03     169.154E-03    -236.445E-03     462.778E-03    -226.643E-03     145.735E-03
            1956     5.74030E-03     39.0852E-03    -86.4384E+06    -115.074E+06    -13.1630E+06     230.884E+03    -230.616E-03     457.385E-03    -226.769E-03     152.841E-03    -234.695E-03     460.787E-03    -226.543E-03     132.214E-03
            1957     5.02338E-03     38.8909E-03    -96.1269E+06    -150.071E+06    -32.1413E+06     102.506E+03    -229.813E-03     456.452E-03    -226.639E-03     135.373E-03    -232.919E-03     458.777E-03    -226.443E-03     117.600E-03
            1958     4.30592E-03     38.7196E-03    -105.486E+06    -183.391E+06    -51.6864E+06     86.1412E+03    -229.006E-03     455.516E-03    -226.509E-03     117.218E-03    -231.280E-03     456.913E-03    -226.349E-03     102.243E-03
            1959     3.58876E-03     38.5729E-03    -114.361E+06    -213.671E+06    -72.0047E+06    -367.365E+03    -228.201E-03     454.580E-03    -226.379E-03     98.5499E-03    -229.785E-03     455.208E-03    -226.263E-03     86.2865E-03
            1960     2.87167E-03     38.4522E-03    -122.585E+06    -244.922E+06    -91.2933E+06    -362.755E+03    -227.480E-03     453.748E-03    -226.268E-03     79.6149E-03    -228.507E-03     453.735E-03    -226.192E-03     69.9721E-03
            1961     2.15335E-03     38.3562E-03    -129.637E+06    -269.195E+06    -109.669E+06    -70.8126E+03    -226.833E-03     453.007E-03    -226.175E-03     60.4237E-03    -227.442E-03     452.519E-03    -226.145E-03     53.2623E-03
            1962     1.43589E-03     38.2869E-03    -135.270E+06    -284.182E+06    -125.582E+06     122.035E+03    -226.344E-03     452.466E-03    -226.123E-03     40.8306E-03    -226.662E-03     451.660E-03    -226.143E-03     36.0615E-03
            1963     717.976E-06     38.2447E-03    -139.200E+06    -298.338E+06    -137.020E+06     136.558E+03    -226.267E-03     452.304E-03    -226.036E-03     22.0653E-03    -226.407E-03     451.288E-03    -226.087E-03     19.5027E-03
            1964     13.6203E-03     40.2603E-03    -4.22697E+06     75.6467E+06     88.0495E+06     1.08044E+06    -228.179E-03     455.980E-03    -227.801E-03     110.049E-03    -232.525E-03     460.324E-03    -227.464E-03     87.5925E-03
            1965     12.9048E-03     40.0712E-03    -10.0267E+06     72.3745E+06     86.5600E+06    -703.669E+03    -228.699E-03     456.435E-03    -227.736E-03     154.140E-03    -235.323E-03     463.029E-03    -227.394E-03     125.837E-03
            1966     12.1892E-03     39.8726E-03    -15.4873E+06     63.9555E+06     84.7626E+06    -1.83928E+06    -229.572E-03     457.245E-03    -227.673E-03     169.999E-03    -236.999E-03     464.597E-03    -227.319E-03     140.571E-03
            1967     11.4725E-03     39.6370E-03    -21.1225E+06     59.2111E+06     83.2102E+06    -469.342E+03    -230.437E-03     458.038E-03    -227.601E-03     188.412E-03    -238.949E-03     466.444E-03    -227.240E-03     157.292E-03
            1968     10.7572E-03     39.3852E-03    -28.1343E+06     52.9253E+06     76.5856E+06     35.2055E+03    -231.305E-03     458.806E-03    -227.501E-03     199.338E-03    -240.357E-03     467.724E-03    -227.154E-03     167.520E-03
            1969     10.0398E-03     39.1170E-03    -35.6880E+06     44.1025E+06     65.4146E+06    -629.697E+03    -232.202E-03     459.568E-03    -227.366E-03     206.279E-03    -241.449E-03     468.655E-03    -227.051E-03     174.256E-03
            1970     9.32498E-03     38.8413E-03    -42.8417E+06     35.6510E+06     55.7283E+06    -954.358E+03    -232.596E-03     459.818E-03    -227.222E-03     207.635E-03    -241.595E-03     468.630E-03    -226.933E-03     176.140E-03
            1971     8.60844E-03     38.5671E-03    -50.6765E+06     27.5784E+06     48.8260E+06    -452.033E+03    -232.527E-03     459.619E-03    -227.093E-03     203.999E-03    -240.902E-03     467.771E-03    -226.815E-03     173.749E-03
            1972     7.89134E-03     38.2993E-03    -59.5377E+06     5.97819E+06     39.2715E+06     236.296E+03    -232.313E-03     459.285E-03    -226.972E-03     195.504E-03    -239.753E-03     466.422E-03    -226.698E-03     167.116E-03
            1973     7.17577E-03     38.0456E-03    -68.6266E+06    -33.3335E+06     23.5118E+06     422.855E+03    -231.900E-03     458.742E-03    -226.842E-03     183.200E-03    -238.212E-03     464.624E-03    -226.577E-03     157.164E-03
            1974     6.45820E-03     37.8094E-03    -77.9706E+06    -76.2491E+06     5.30593E+06     530.598E+03    -231.291E-03     457.991E-03    -226.700E-03     168.511E-03    -236.439E-03     462.577E-03    -226.450E-03     145.146E-03
            1975     5.74179E-03     37.5934E-03    -87.2344E+06    -113.880E+06    -13.2330E+06     783.415E+03    -230.547E-03     457.095E-03    -226.548E-03     152.112E-03    -234.604E-03     460.477E-03    -226.323E-03     131.572E-03
            1976     5.02466E-03     37.3997E-03    -96.4820E+06    -149.333E+06    -32.4848E+06     406.786E+03    -229.688E-03     456.081E-03    -226.393E-03     134.804E-03    -232.778E-03     458.393E-03    -226.199E-03     117.097E-03
            1977     4.30771E-03     37.2294E-03    -105.646E+06    -182.835E+06    -51.8012E+06     286.028E+03    -228.745E-03     454.997E-03    -226.253E-03     116.889E-03    -231.007E-03     456.386E-03    -226.093E-03     101.990E-03
            1978     3.58984E-03     37.0835E-03    -114.383E+06    -212.988E+06    -71.9248E+06     135.258E+03    -227.927E-03     454.051E-03    -226.124E-03     98.3702E-03    -229.503E-03     454.673E-03    -226.009E-03     86.1815E-03
            1979     2.87159E-03     36.9628E-03    -122.509E+06    -245.370E+06    -91.6830E+06    -323.028E+03    -227.352E-03     453.347E-03    -225.996E-03     79.4270E-03    -228.374E-03     453.330E-03    -225.921E-03     69.8080E-03
            1980     2.15453E-03     36.8676E-03    -129.965E+06    -269.669E+06    -110.148E+06    -286.608E+03    -226.664E-03     452.521E-03    -225.857E-03     59.9403E-03    -227.269E-03     452.026E-03    -225.828E-03     52.8140E-03
            1981     1.43593E-03     36.7992E-03    -135.841E+06    -284.804E+06    -126.220E+06     3.69570E+03    -226.012E-03     451.783E-03    -225.771E-03     40.6074E-03    -226.328E-03     450.972E-03    -225.793E-03     35.8728E-03
            1982     717.815E-06     36.7558E-03    -139.114E+06    -297.738E+06    -136.153E+06     289.361E+03    -225.591E-03     451.597E-03    -226.006E-03     22.3969E-03    -225.732E-03     450.584E-03    -226.054E-03     19.8373E-03
            1983     13.6215E-03     38.7627E-03    -3.59558E+06     75.8042E+06     87.4627E+06     315.395E+03    -228.095E-03     455.895E-03    -227.799E-03     109.684E-03    -232.424E-03     460.226E-03    -227.467E-03     87.2208E-03
            1984     12.9052E-03     38.5752E-03    -7.81077E+06     76.1378E+06     88.7590E+06     240.759E+03    -228.749E-03     456.490E-03    -227.741E-03     153.833E-03    -235.345E-03     463.071E-03    -227.397E-03     125.591E-03
            1985     12.1887E-03     38.3751E-03    -14.7709E+06     64.5552E+06     85.4025E+06    -175.660E+03    -229.813E-03     457.481E-03    -227.668E-03     169.689E-03    -237.228E-03     464.825E-03    -227.313E-03     140.249E-03
            1986     11.4735E-03     38.1414E-03    -22.4565E+06     56.6534E+06     81.9451E+06    -454.177E+03    -230.895E-03     458.463E-03    -227.568E-03     187.690E-03    -239.392E-03     466.844E-03    -227.208E-03     156.502E-03
            1987     10.7565E-03     37.8888E-03    -29.5854E+06     53.7502E+06     76.3120E+06    -339.312E+03    -231.757E-03     459.186E-03    -227.429E-03     198.284E-03    -240.784E-03     468.078E-03    -227.082E-03     166.419E-03
            1988     10.0425E-03     37.6209E-03    -36.3441E+06     45.8611E+06     65.0724E+06    -1.02948E+06    -232.271E-03     459.531E-03    -227.260E-03     205.390E-03    -241.491E-03     468.596E-03    -226.949E-03     173.378E-03
            1989     9.32548E-03     37.3467E-03    -43.8848E+06     34.3349E+06     54.2285E+06    -1.19631E+06    -232.557E-03     459.659E-03    -227.102E-03     207.239E-03    -241.530E-03     468.440E-03    -226.817E-03     175.790E-03
            1990     8.60930E-03     37.0727E-03    -52.1249E+06     25.7848E+06     47.5000E+06    -423.378E+03    -232.717E-03     459.672E-03    -226.955E-03     203.480E-03    -241.068E-03     467.792E-03    -226.679E-03     173.248E-03
            1991     7.89374E-03     36.8058E-03    -60.7692E+06     5.27800E+06     38.1612E+06    -102.373E+03    -232.399E-03     459.203E-03    -226.804E-03     194.768E-03    -239.808E-03     466.304E-03    -226.533E-03     166.433E-03
            1992     7.17622E-03     36.5526E-03    -69.8692E+06    -33.5641E+06     22.2229E+06    -249.837E+03    -231.871E-03     458.519E-03    -226.648E-03     182.570E-03    -238.150E-03     464.366E-03    -226.387E-03     156.609E-03
            1993     6.46037E-03     36.3172E-03    -78.9197E+06    -76.5223E+06     4.21590E+06    -70.1507E+03    -231.273E-03     457.756E-03    -226.483E-03     167.907E-03    -236.399E-03     462.318E-03    -226.237E-03     144.594E-03
            1994     5.74311E-03     36.1020E-03    -87.7884E+06    -113.890E+06    -13.7742E+06     309.201E+03    -230.401E-03     456.713E-03    -226.311E-03     151.518E-03    -234.437E-03     460.072E-03    -226.088E-03     131.050E-03
            1995     5.02593E-03     35.9093E-03    -96.6954E+06    -148.747E+06    -32.6246E+06     271.619E+03    -229.405E-03     455.555E-03    -226.150E-03     134.318E-03    -232.477E-03     457.851E-03    -225.957E-03     116.695E-03
            1996     4.30800E-03     35.7396E-03    -105.513E+06    -182.317E+06    -51.7447E+06     114.925E+03    -228.510E-03     454.518E-03    -226.008E-03     116.386E-03    -230.760E-03     455.896E-03    -225.849E-03     101.544E-03
            1997     3.59037E-03     35.5948E-03    -114.183E+06    -212.352E+06    -71.5750E+06     195.048E+03    -227.786E-03     453.649E-03    -225.863E-03     97.9043E-03    -229.354E-03     454.266E-03    -225.747E-03     85.7515E-03
            1998     2.87316E-03     35.4737E-03    -122.495E+06    -244.850E+06    -91.2354E+06     77.7352E+03    -227.093E-03     452.808E-03    -225.715E-03     78.9113E-03    -228.111E-03     452.786E-03    -225.639E-03     69.3353E-03
            1999     2.15468E-03     35.3797E-03    -129.929E+06    -269.998E+06    -110.115E+06     65.7019E+03    -226.441E-03     451.996E-03    -225.554E-03     59.5722E-03    -227.042E-03     451.496E-03    -225.525E-03     52.4767E-03
            2000     1.43715E-03     35.3119E-03    -135.465E+06    -284.805E+06    -126.640E+06     4.26875E+03    -225.881E-03     451.267E-03    -225.387E-03     40.3516E-03    -226.193E-03     450.455E-03    -225.411E-03     35.6329E-03
            2001     718.576E-06     35.2693E-03    -138.672E+06    -297.896E+06    -136.844E+06    -480.999E+03    -224.869E-03     450.702E-03    -225.832E-03     22.0720E-03    -225.006E-03     449.687E-03    -225.884E-03     19.5150E-03
            2002     13.6208E-03     37.2660E-03    -4.27751E+06     75.4403E+06     87.1421E+06    -963.571E+03    -228.278E-03     456.079E-03    -227.800E-03     109.443E-03    -232.594E-03     460.394E-03    -227.468E-03     86.9969E-03
            2003     12.9047E-03     37.0785E-03    -9.75915E+06     74.5902E+06     88.2237E+06     170.756E+03    -229.094E-03     456.825E-03    -227.731E-03     153.600E-03    -235.660E-03     463.365E-03    -227.384E-03     125.437E-03
            2004     12.1894E-03     36.8779E-03    -15.7064E+06     65.0360E+06     86.3158E+06     1.31139E+06    -230.270E-03     457.904E-03    -227.634E-03     168.771E-03    -237.654E-03     465.213E-03    -227.274E-03     139.350E-03
            2005     11.4734E-03     36.6442E-03    -21.8150E+06     57.9128E+06     83.6186E+06     783.315E+03    -231.262E-03     458.763E-03    -227.501E-03     186.746E-03    -239.733E-03     467.120E-03    -227.136E-03     155.527E-03
            2006     10.7598E-03     36.3916E-03    -28.3370E+06     54.6492E+06     77.3502E+06    -207.225E+03    -231.778E-03     459.116E-03    -227.338E-03     197.928E-03    -240.782E-03     467.989E-03    -226.989E-03     166.081E-03
            2007     10.0424E-03     36.1262E-03    -35.8023E+06     46.4420E+06     65.2339E+06    -94.5839E+03    -232.278E-03     459.437E-03    -227.158E-03     205.367E-03    -241.479E-03     468.486E-03    -226.847E-03     173.402E-03
            2008     9.32673E-03     35.8520E-03    -44.1216E+06     34.3806E+06     53.7483E+06     199.314E+03    -232.786E-03     459.768E-03    -226.982E-03     206.820E-03    -241.726E-03     468.517E-03    -226.699E-03     175.422E-03
            2009     8.61094E-03     35.5776E-03    -52.4534E+06     25.7599E+06     46.8800E+06    -409.745E+03    -232.785E-03     459.595E-03    -226.810E-03     202.950E-03    -241.101E-03     467.681E-03    -226.537E-03     172.779E-03
            2010     7.89420E-03     35.3122E-03    -60.7948E+06     5.39249E+06     37.9037E+06    -570.254E+03    -232.470E-03     459.108E-03    -226.639E-03     194.364E-03    -239.849E-03     466.181E-03    -226.369E-03     166.077E-03
            2011     7.17855E-03     35.0604E-03    -69.6575E+06    -33.4811E+06     22.0070E+06    -311.885E+03    -231.979E-03     458.433E-03    -226.454E-03     182.108E-03    -238.234E-03     464.258E-03    -226.194E-03     156.187E-03
            2012     6.46110E-03     34.8249E-03    -78.8618E+06    -77.0933E+06     3.43433E+06    -454.112E+03    -231.180E-03     457.442E-03    -226.262E-03     167.272E-03    -236.276E-03     461.975E-03    -226.019E-03     144.033E-03
            2013     5.74451E-03     34.6114E-03    -87.7963E+06    -114.757E+06    -14.4012E+06    -497.746E+03    -230.228E-03     456.304E-03    -226.076E-03     150.875E-03    -234.240E-03     459.639E-03    -225.854E-03     130.463E-03
            2014     5.02705E-03     34.4195E-03    -96.6073E+06    -148.938E+06    -32.5921E+06    -97.6504E+03    -229.326E-03     455.219E-03    -225.894E-03     133.491E-03    -232.379E-03     457.496E-03    -225.700E-03     115.918E-03
            2015     4.30969E-03     34.2511E-03    -105.585E+06    -182.361E+06    -52.0805E+06    -133.435E+03    -228.462E-03     454.169E-03    -225.706E-03     115.363E-03    -230.694E-03     455.529E-03    -225.549E-03     100.563E-03
            2016     3.59198E-03     34.1058E-03    -114.243E+06    -212.504E+06    -71.6900E+06    -193.605E+03    -227.551E-03     453.071E-03    -225.519E-03     96.9454E-03    -229.107E-03     453.674E-03    -225.404E-03     84.8297E-03
            2017     2.87348E-03     33.9864E-03    -122.155E+06    -244.701E+06    -90.5928E+06     121.274E+03    -226.676E-03     452.037E-03    -225.361E-03     78.0793E-03    -227.684E-03     452.005E-03    -225.282E-03     68.5593E-03
            2018     2.15559E-03     33.8926E-03    -129.122E+06    -269.732E+06    -109.146E+06     155.953E+03    -226.009E-03     451.224E-03    -225.216E-03     58.9742E-03    -226.602E-03     450.718E-03    -225.183E-03     51.9143E-03
            2019     1.43686E-03     33.8247E-03    -134.780E+06    -284.114E+06    -125.315E+06     286.838E+03    -225.538E-03     450.600E-03    -225.062E-03     40.0067E-03    -225.849E-03     449.787E-03    -225.081E-03     35.3007E-03
            2020     718.869E-06     33.7839E-03    -139.136E+06    -297.931E+06    -136.607E+06     497.583E+03    -225.153E-03     450.040E-03    -224.887E-03     21.8504E-03    -225.292E-03     449.025E-03    -224.937E-03     19.3021E-03
            2021     13.6210E-03     35.7707E-03    -5.53966E+06     74.5086E+06     86.9651E+06    -10.8927E+03    -228.926E-03     456.719E-03    -227.794E-03     108.791E-03    -233.226E-03     461.012E-03    -227.459E-03     86.3271E-03
            2022     12.9057E-03     35.5792E-03    -11.7784E+06     71.8146E+06     86.8469E+06     196.341E+03    -229.690E-03     457.375E-03    -227.684E-03     152.880E-03    -236.244E-03     463.890E-03    -227.337E-03     124.636E-03
            2023     12.1904E-03     35.3815E-03    -16.5846E+06     65.8470E+06     86.5930E+06     33.5986E+03    -230.428E-03     457.989E-03    -227.561E-03     168.258E-03    -237.794E-03     465.279E-03    -227.200E-03     138.825E-03
            2024     11.4761E-03     35.1456E-03    -21.9917E+06     60.0018E+06     84.3554E+06    -550.461E+03    -231.034E-03     458.460E-03    -227.426E-03     186.872E-03    -239.483E-03     466.800E-03    -227.060E-03     155.732E-03
            2025     10.7585E-03     34.8969E-03    -28.6925E+06     53.6549E+06     77.0255E+06    -244.381E+03    -231.770E-03     459.037E-03    -227.266E-03     197.840E-03    -240.749E-03     467.880E-03    -226.917E-03     166.041E-03
            2026     10.0435E-03     34.6298E-03    -35.8633E+06     45.3866E+06     65.2824E+06     1.07325E+06    -232.627E-03     459.697E-03    -227.070E-03     204.773E-03    -241.786E-03     468.701E-03    -226.758E-03     172.843E-03
            2027     9.32814E-03     34.3564E-03    -43.1133E+06     36.0192E+06     54.8657E+06     963.644E+03    -232.983E-03     459.845E-03    -226.863E-03     206.253E-03    -241.890E-03     468.569E-03    -226.578E-03     174.886E-03
            2028     8.61188E-03     34.0840E-03    -50.8485E+06     27.6726E+06     47.8978E+06     250.816E+03    -232.822E-03     459.489E-03    -226.666E-03     202.333E-03    -241.101E-03     467.546E-03    -226.393E-03     172.226E-03
            2029     7.89587E-03     33.8187E-03    -59.7654E+06     5.39436E+06     38.0000E+06    -300.667E+03    -232.523E-03     458.995E-03    -226.472E-03     193.657E-03    -239.862E-03     466.031E-03    -226.203E-03     165.430E-03
            2030     7.17903E-03     33.5669E-03    -68.9123E+06    -33.8038E+06     22.3216E+06    -221.535E+03    -232.045E-03     458.306E-03    -226.261E-03     181.273E-03    -238.267E-03     464.099E-03    -226.000E-03     155.399E-03
            2031     6.46325E-03     33.3342E-03    -77.8863E+06    -76.2280E+06     4.29828E+06    -1.83898E+03    -231.177E-03     457.213E-03    -226.036E-03     166.245E-03    -236.241E-03     461.718E-03    -225.791E-03     143.066E-03
            2032     5.74568E-03     33.1209E-03    -87.2980E+06    -114.807E+06    -14.5046E+06    -385.033E+03    -230.231E-03     456.038E-03    -225.807E-03     149.746E-03    -234.213E-03     459.345E-03    -225.587E-03     129.390E-03
            2033     5.02860E-03     32.9302E-03    -96.5612E+06    -149.790E+06    -33.0296E+06    -526.745E+03    -229.320E-03     454.895E-03    -225.575E-03     132.383E-03    -232.349E-03     457.145E-03    -225.383E-03     114.851E-03
            2034     4.31120E-03     32.7620E-03    -105.264E+06    -182.295E+06    -51.7508E+06    -221.803E+03    -228.295E-03     453.635E-03    -225.341E-03     114.549E-03    -230.509E-03     454.979E-03    -225.183E-03     99.8065E-03
            2035     3.59339E-03     32.6190E-03    -113.748E+06    -212.384E+06    -71.7037E+06    -282.879E+03    -227.223E-03     452.345E-03    -225.122E-03     96.3139E-03    -228.763E-03     452.935E-03    -225.007E-03     84.2676E-03
            2036     2.87542E-03     32.4999E-03    -121.740E+06    -245.229E+06    -90.6267E+06    -360.195E+03    -226.282E-03     451.233E-03    -224.951E-03     77.5887E-03    -227.279E-03     451.190E-03    -224.872E-03     68.1123E-03
            2037     2.15660E-03     32.4068E-03    -128.861E+06    -270.276E+06    -108.515E+06    -98.9798E+03    -225.505E-03     450.326E-03    -224.821E-03     58.6358E-03    -226.093E-03     449.811E-03    -224.784E-03     51.6210E-03
            2038     1.43800E-03     32.3398E-03    -134.638E+06    -284.302E+06    -124.721E+06     202.521E+03    -224.994E-03     449.729E-03    -224.735E-03     39.7513E-03    -225.302E-03     448.911E-03    -224.751E-03     35.0761E-03
            2039     718.580E-06     32.2982E-03    -138.561E+06    -296.740E+06    -135.266E+06     447.018E+03    -225.281E-03     449.485E-03    -224.204E-03     21.5898E-03    -225.421E-03     448.472E-03    -224.249E-03     19.0694E-03
            2040     13.6215E-03     34.2696E-03    -5.00081E+06     74.4624E+06     87.7333E+06     617.030E+03    -229.633E-03     457.412E-03    -227.779E-03     108.716E-03    -233.939E-03     461.711E-03    -227.441E-03     86.1644E-03
            2041     12.9068E-03     34.0830E-03    -9.14048E+06     73.1000E+06     88.8354E+06     581.826E+03    -229.946E-03     457.590E-03    -227.644E-03     153.319E-03    -236.508E-03     464.121E-03    -227.293E-03     125.009E-03
            2042     12.1918E-03     33.8819E-03    -14.7470E+06     66.0579E+06     86.5140E+06    -242.840E+03    -230.302E-03     457.813E-03    -227.511E-03     168.871E-03    -237.661E-03     465.103E-03    -227.152E-03     139.458E-03
            2043     11.4746E-03     33.6516E-03    -21.4513E+06     59.7553E+06     82.9047E+06    -388.593E+03    -231.179E-03     458.549E-03    -227.371E-03     186.793E-03    -239.595E-03     466.861E-03    -227.012E-03     155.697E-03
            2044     10.7603E-03     33.3986E-03    -28.1946E+06     51.9343E+06     75.7976E+06     158.284E+03    -232.136E-03     459.330E-03    -227.194E-03     197.285E-03    -241.065E-03     468.123E-03    -226.850E-03     165.525E-03
            2045     10.0451E-03     33.1344E-03    -35.0065E+06     43.9171E+06     64.9852E+06     671.514E+03    -232.851E-03     459.826E-03    -226.975E-03     204.393E-03    -241.976E-03     468.794E-03    -226.663E-03     172.475E-03
            2046     9.32875E-03     32.8612E-03    -41.9299E+06     37.3370E+06     55.7636E+06     977.666E+03    -233.164E-03     459.908E-03    -226.744E-03     205.716E-03    -242.039E-03     468.605E-03    -226.458E-03     174.376E-03
            2047     8.61335E-03     32.5893E-03    -49.8755E+06     28.5769E+06     48.5184E+06     902.111E+03    -233.085E-03     459.598E-03    -226.513E-03     201.387E-03    -241.321E-03     467.617E-03    -226.239E-03     171.315E-03
            2048     7.89720E-03     32.3256E-03    -58.7397E+06     6.65005E+06     38.7171E+06     870.380E+03    -232.692E-03     458.969E-03    -226.278E-03     192.692E-03    -239.991E-03     465.972E-03    -226.009E-03     164.520E-03
            2049     7.18132E-03     32.0746E-03    -68.0411E+06    -33.1881E+06     22.7846E+06     351.137E+03    -232.011E-03     458.042E-03    -226.031E-03     180.002E-03    -238.186E-03     463.791E-03    -225.770E-03     154.211E-03
            2050     6.46413E-03     31.8425E-03    -77.2754E+06    -76.2145E+06     4.96730E+06     68.0747E+03    -231.189E-03     456.960E-03    -225.771E-03     164.972E-03    -236.214E-03     461.426E-03    -225.524E-03     141.853E-03
            2051     5.74800E-03     31.6311E-03    -86.4523E+06    -113.739E+06    -13.3565E+06     403.464E+03    -230.248E-03     455.745E-03    -225.497E-03     148.761E-03    -234.200E-03     459.025E-03    -225.273E-03     128.477E-03
            2052     5.03081E-03     31.4411E-03    -95.6831E+06    -149.326E+06    -32.6049E+06     -19.544E+03    -229.111E-03     454.335E-03    -225.223E-03     131.620E-03    -232.113E-03     456.561E-03    -225.031E-03     114.178E-03
            2053     4.31298E-03     31.2750E-03    -104.626E+06    -182.805E+06    -51.5022E+06    -406.214E+03    -227.947E-03     452.920E-03    -224.972E-03     113.851E-03    -230.139E-03     454.240E-03    -224.813E-03     99.1948E-03
            2054     3.59470E-03     31.1322E-03    -113.208E+06    -212.181E+06    -71.1651E+06    -160.299E+03    -226.855E-03     451.601E-03    -224.746E-03     95.6987E-03    -228.381E-03     452.178E-03    -224.630E-03     83.7255E-03
            2055     2.87599E-03     31.0148E-03    -121.276E+06    -245.351E+06    -90.6865E+06    -211.056E+03    -225.911E-03     450.477E-03    -224.566E-03     77.1979E-03    -226.898E-03     450.425E-03    -224.488E-03     67.7819E-03
            2056     2.15726E-03     30.9225E-03    -128.664E+06    -271.208E+06    -108.746E+06    -202.819E+03    -225.205E-03     449.620E-03    -224.415E-03     58.2493E-03    -225.784E-03     449.095E-03    -224.379E-03     51.2855E-03
            2057     1.43792E-03     30.8557E-03    -134.601E+06    -284.605E+06    -125.232E+06    -67.1655E+03    -224.676E-03     448.947E-03    -224.271E-03     39.2363E-03    -224.978E-03     448.124E-03    -224.289E-03     34.6124E-03
            2058     719.348E-06     30.8141E-03    -137.600E+06    -296.044E+06    -135.789E+06    -203.205E+03    -224.525E-03     448.480E-03    -223.955E-03     21.3146E-03    -224.658E-03     447.468E-03    -224.006E-03     18.8119E-03
            2059     13.6213E-03     32.7709E-03    -3.77477E+06     74.0538E+06     87.5667E+06    -462.135E+03    -229.389E-03     457.171E-03    -227.782E-03     109.323E-03    -233.692E-03     461.470E-03    -227.446E-03     86.7753E-03
            2060     12.9064E-03     32.5828E-03    -8.40506E+06     72.7788E+06     87.9427E+06    -183.997E+03    -230.101E-03     457.750E-03    -227.649E-03     153.581E-03    -236.651E-03     464.273E-03    -227.302E-03     125.252E-03
            2061     12.1903E-03     32.3867E-03    -13.6570E+06     66.3529E+06     86.5183E+06     823.121E+03    -230.864E-03     458.362E-03    -227.498E-03     168.424E-03    -238.191E-03     465.625E-03    -227.142E-03     139.004E-03
            2062     11.4766E-03     32.1521E-03    -20.3313E+06     60.1149E+06     83.4147E+06     1.27100E+06    -231.700E-03     459.024E-03    -227.324E-03     186.156E-03    -240.080E-03     467.304E-03    -226.965E-03     155.060E-03
            2063     10.7609E-03     31.9030E-03    -27.8394E+06     52.1212E+06     76.0230E+06     741.086E+03    -232.352E-03     459.471E-03    -227.119E-03     196.923E-03    -241.253E-03     468.237E-03    -226.774E-03     165.182E-03
            2064     10.0448E-03     31.6376E-03    -35.3168E+06     43.6246E+06     64.8021E+06     132.049E+03    -233.091E-03     459.966E-03    -226.875E-03     203.813E-03    -242.183E-03     468.899E-03    -226.563E-03     171.906E-03
            2065     9.33044E-03     31.3653E-03    -42.6346E+06     36.4700E+06     55.1324E+06     328.243E+03    -233.461E-03     460.070E-03    -226.609E-03     204.672E-03    -242.290E-03     468.717E-03    -226.324E-03     173.346E-03
            2066     8.61468E-03     31.0951E-03    -50.2636E+06     28.0048E+06     48.1781E+06     905.574E+03    -233.343E-03     459.679E-03    -226.337E-03     200.447E-03    -241.535E-03     467.653E-03    -226.063E-03     170.404E-03
            2067     7.89919E-03     30.8316E-03    -58.7369E+06     7.50852E+06     39.2322E+06     1.05633E+06    -232.874E-03     458.932E-03    -226.059E-03     191.650E-03    -240.138E-03     465.901E-03    -225.788E-03     163.506E-03
            2068     7.18292E-03     30.5826E-03    -67.6352E+06    -31.3587E+06     23.9256E+06     1.08349E+06    -232.042E-03     457.813E-03    -225.771E-03     179.013E-03    -238.178E-03     463.529E-03    -225.508E-03     153.303E-03
            2069     6.46697E-03     30.3520E-03    -76.9811E+06    -75.5551E+06     5.26232E+06     661.931E+03    -231.102E-03     456.578E-03    -225.477E-03     164.101E-03    -236.085E-03     461.005E-03    -225.229E-03     141.102E-03
            2070     5.74955E-03     30.1411E-03    -86.0941E+06    -113.822E+06    -13.2165E+06     16.4070E+03    -230.041E-03     455.218E-03    -225.178E-03     147.903E-03    -233.957E-03     458.464E-03    -224.954E-03     127.717E-03
            2071     5.03208E-03     29.9535E-03    -94.7771E+06    -148.467E+06    -31.6589E+06     416.478E+03    -228.878E-03     453.763E-03    -224.885E-03     130.731E-03    -231.849E-03     455.963E-03    -224.691E-03     113.398E-03
            2072     4.31430E-03     29.7880E-03    -104.010E+06    -182.474E+06    -51.5360E+06     479.707E+03    -227.737E-03     452.340E-03    -224.603E-03     112.877E-03    -229.902E-03     453.637E-03    -224.445E-03     98.3293E-03
            2073     3.59610E-03     29.6474E-03    -112.762E+06    -212.537E+06    -71.3545E+06    -85.0773E+03    -226.612E-03     450.950E-03    -224.338E-03     94.4944E-03    -228.114E-03     451.504E-03    -224.223E-03     82.6089E-03
            2074     2.87734E-03     29.5305E-03    -120.657E+06    -245.189E+06    -89.9208E+06     55.9454E+03    -225.611E-03     449.725E-03    -224.114E-03     75.8802E-03    -226.579E-03     449.655E-03    -224.033E-03     66.5538E-03
            2075     2.15830E-03     29.4389E-03    -127.993E+06    -271.262E+06    -108.332E+06     293.855E+03    -224.845E-03     448.751E-03    -223.906E-03     57.2857E-03    -225.413E-03     448.215E-03    -223.868E-03     50.3826E-03
            2076     1.43967E-03     29.3725E-03    -133.843E+06    -284.107E+06    -124.855E+06     180.111E+03    -224.173E-03     447.887E-03    -223.714E-03     38.6834E-03    -224.470E-03     447.062E-03    -223.732E-03     34.0998E-03
            2077     719.682E-06     29.3325E-03    -137.521E+06    -295.973E+06    -135.341E+06     6.99662E+03    -224.034E-03     447.334E-03    -223.300E-03     21.0576E-03    -224.165E-03     446.320E-03    -223.348E-03     18.5950E-03
            2078     13.6208E-03     31.2724E-03    -4.76146E+06     73.7724E+06     85.8539E+06    -1.11243E+06    -229.508E-03     457.297E-03    -227.788E-03     108.946E-03    -233.774E-03     461.559E-03    -227.459E-03     86.4840E-03
            2079     12.9052E-03     31.0841E-03    -9.90264E+06     72.1915E+06     86.3523E+06    -785.208E+03    -230.321E-03     457.967E-03    -227.646E-03     152.315E-03    -236.820E-03     464.436E-03    -227.305E-03     124.041E-03
            2080     12.1921E-03     30.8867E-03    -15.7901E+06     65.8690E+06     85.3846E+06     188.818E+03    -231.302E-03     458.777E-03    -227.475E-03     167.717E-03    -238.609E-03     466.014E-03    -227.121E-03     138.270E-03
            2081     11.4764E-03     30.6548E-03    -21.6355E+06     59.1313E+06     82.9426E+06     853.185E+03    -232.067E-03     459.342E-03    -227.275E-03     185.728E-03    -240.433E-03     467.600E-03    -226.915E-03     154.599E-03
            2082     10.7614E-03     30.4062E-03    -28.3053E+06     53.2608E+06     75.9653E+06     1.36653E+06    -232.811E-03     459.843E-03    -227.033E-03     196.177E-03    -241.683E-03     468.584E-03    -226.689E-03     164.417E-03
            2083     10.0474E-03     30.1406E-03    -35.6060E+06     45.4747E+06     64.7868E+06     621.407E+03    -233.440E-03     460.187E-03    -226.747E-03     202.836E-03    -242.491E-03     469.085E-03    -226.437E-03     170.938E-03
            2084     9.33155E-03     29.8701E-03    -43.1169E+06     35.5141E+06     54.8338E+06    -16.6907E+03    -233.630E-03     460.078E-03    -226.448E-03     203.751E-03    -242.412E-03     468.674E-03    -226.163E-03     172.454E-03
            2085     8.61652E-03     29.5999E-03    -51.0535E+06     27.0643E+06     47.8257E+06     366.799E+03    -233.493E-03     459.635E-03    -226.143E-03     199.554E-03    -241.640E-03     467.559E-03    -225.869E-03     169.552E-03
            2086     7.90095E-03     29.3382E-03    -59.5340E+06     7.37687E+06     38.6030E+06     461.862E+03    -232.900E-03     458.730E-03    -225.830E-03     190.684E-03    -240.113E-03     465.646E-03    -225.561E-03     162.626E-03
            2087     7.18504E-03     29.0910E-03    -68.1287E+06    -31.1162E+06     23.5456E+06     332.493E+03    -232.105E-03     457.614E-03    -225.509E-03     178.069E-03    -238.190E-03     463.279E-03    -225.247E-03     152.456E-03
            2088     6.46812E-03     28.8611E-03    -76.4615E+06    -74.7114E+06     5.59162E+06     552.573E+03    -231.144E-03     456.318E-03    -225.174E-03     162.941E-03    -236.075E-03     460.696E-03    -224.926E-03     140.051E-03
            2089     5.75153E-03     28.6530E-03    -85.3369E+06    -113.320E+06    -13.3651E+06     535.593E+03    -230.011E-03     454.833E-03    -224.823E-03     146.264E-03    -233.871E-03     458.028E-03    -224.601E-03     126.210E-03
            2090     5.03413E-03     28.4657E-03    -94.7452E+06    -149.082E+06    -32.4224E+06     415.854E+03    -228.775E-03     453.247E-03    -224.472E-03     128.698E-03    -231.694E-03     455.394E-03    -224.280E-03     111.495E-03
            2091     4.31620E-03     28.3027E-03    -103.391E+06    -181.802E+06    -51.1918E+06     728.064E+03    -227.489E-03     451.622E-03    -224.133E-03     110.869E-03    -229.611E-03     452.880E-03    -223.975E-03     96.4455E-03
            2092     3.59786E-03     28.1623E-03    -111.972E+06    -211.266E+06    -71.0567E+06     728.280E+03    -226.317E-03     450.124E-03    -223.808E-03     92.8658E-03    -227.788E-03     450.655E-03    -223.694E-03     81.1070E-03
            2093     2.87930E-03     28.0479E-03    -120.421E+06    -245.341E+06    -89.8298E+06     320.847E+03    -225.310E-03     448.821E-03    -223.511E-03     74.6988E-03    -226.259E-03     448.732E-03    -223.430E-03     65.4677E-03
            2094     2.16000E-03     27.9567E-03    -127.528E+06    -271.226E+06    -107.148E+06     539.026E+03    -224.318E-03     447.553E-03    -223.235E-03     56.2293E-03    -224.873E-03     447.003E-03    -223.192E-03     49.4216E-03
            2095     1.43959E-03     27.8918E-03    -133.241E+06    -283.196E+06    -123.301E+06     864.613E+03    -223.487E-03     446.487E-03    -223.000E-03     37.6194E-03    -223.776E-03     445.656E-03    -223.013E-03     33.1246E-03
            2096     719.860E-06     27.8519E-03    -136.694E+06    -294.754E+06    -134.996E+06     699.277E+03    -223.274E-03     445.863E-03    -222.589E-03     20.6880E-03    -223.400E-03     444.852E-03    -222.639E-03     18.2754E-03
            2097     13.6214E-03     29.7717E-03    -5.21658E+06     74.6641E+06     85.4413E+06     9.34622E+03    -230.195E-03     457.989E-03    -227.794E-03     108.588E-03    -234.450E-03     462.243E-03    -227.468E-03     86.1346E-03
            2098     12.9077E-03     29.5865E-03    -10.8626E+06     71.0599E+06     86.1760E+06    -184.574E+03    -230.649E-03     458.280E-03    -227.631E-03     152.713E-03    -237.152E-03     464.746E-03    -227.287E-03     124.435E-03
            2099     12.1910E-03     29.3869E-03    -17.4146E+06     64.9355E+06     84.3963E+06    -394.330E+03    -231.533E-03     458.972E-03    -227.439E-03     167.397E-03    -238.832E-03     466.194E-03    -227.086E-03     137.922E-03
            2100     11.4772E-03     29.1572E-03    -23.7296E+06     57.7209E+06     81.4558E+06    -479.219E+03    -232.409E-03     459.622E-03    -227.213E-03     184.785E-03    -240.753E-03     467.851E-03    -226.855E-03     153.596E-03
            2101     10.7631E-03     28.9070E-03    -29.3982E+06     52.6651E+06     75.7726E+06    -203.837E+03    -233.193E-03     460.135E-03    -226.942E-03     195.881E-03    -242.050E-03     468.855E-03    -226.597E-03     164.069E-03
            2102     10.0478E-03     28.6445E-03    -35.4175E+06     46.4549E+06     65.2877E+06     440.368E+03    -233.777E-03     460.399E-03    -226.622E-03     202.532E-03    -242.799E-03     469.272E-03    -226.312E-03     170.621E-03
            2103     9.33352E-03     28.3739E-03    -42.5862E+06     35.6486E+06     54.7329E+06     680.422E+03    -233.956E-03     460.241E-03    -226.285E-03     203.236E-03    -242.686E-03     468.788E-03    -226.001E-03     171.988E-03
            2104     8.61835E-03     28.1054E-03    -50.5650E+06     27.3929E+06     47.6743E+06     393.337E+03    -233.676E-03     459.619E-03    -225.943E-03     198.671E-03    -241.755E-03     467.477E-03    -225.671E-03     168.768E-03
            2105     7.90261E-03     27.8452E-03    -58.4819E+06     7.94922E+06     38.7172E+06    -9.31797E+03    -233.121E-03     458.709E-03    -225.588E-03     189.358E-03    -240.255E-03     465.551E-03    -225.321E-03     161.405E-03
            2106     7.18661E-03     27.5989E-03    -67.0180E+06    -31.6143E+06     22.8287E+06    -127.323E+03    -232.406E-03     457.609E-03    -225.202E-03     176.184E-03    -238.407E-03     463.193E-03    -224.945E-03     150.669E-03
            2107     6.47084E-03     27.3715E-03    -76.3273E+06    -76.0952E+06     4.32147E+06     272.544E+03    -231.416E-03     456.200E-03    -224.783E-03     160.486E-03    -236.261E-03     460.491E-03    -224.540E-03     137.716E-03
            2108     5.75407E-03     27.1640E-03    -85.4287E+06    -112.802E+06    -13.7068E+06     1.03555E+06    -230.111E-03     454.451E-03    -224.340E-03     143.662E-03    -233.898E-03     457.574E-03    -224.121E-03     123.760E-03
            2109     5.03706E-03     26.9796E-03    -94.2510E+06    -148.314E+06    -32.4975E+06     1.00514E+06    -228.644E-03     452.543E-03    -223.899E-03     126.299E-03    -231.499E-03     454.631E-03    -223.710E-03     109.270E-03
            2110     4.31928E-03     26.8178E-03    -103.489E+06    -181.811E+06    -51.3477E+06     828.099E+03    -227.163E-03     450.646E-03    -223.483E-03     108.691E-03    -229.237E-03     451.856E-03    -223.326E-03     94.4365E-03
            2111     3.60049E-03     26.6802E-03    -112.209E+06    -209.763E+06    -70.7894E+06     1.12907E+06    -225.816E-03     448.906E-03    -223.090E-03     90.8877E-03    -227.256E-03     449.408E-03    -222.977E-03     79.2863E-03
            2112     2.88098E-03     26.5657E-03    -120.202E+06    -244.397E+06    -89.9555E+06     775.821E+03    -224.697E-03     447.428E-03    -222.731E-03     72.8782E-03    -225.621E-03     447.319E-03    -222.652E-03     63.7833E-03
            2113     2.16162E-03     26.4770E-03    -127.448E+06    -271.643E+06    -107.257E+06     467.601E+03    -223.581E-03     445.986E-03    -222.405E-03     54.7127E-03    -224.119E-03     445.419E-03    -222.363E-03     48.0174E-03
            2114     1.44208E-03     26.4132E-03    -132.716E+06    -282.598E+06    -122.798E+06     712.729E+03    -222.655E-03     444.793E-03    -222.138E-03     37.0588E-03    -222.936E-03     443.956E-03    -222.150E-03     32.6384E-03
            2115     721.417E-06     26.3737E-03    -136.383E+06    -292.552E+06    -133.603E+06     656.068E+03    -221.816E-03     444.115E-03    -222.299E-03     20.4143E-03    -221.945E-03     443.112E-03    -222.345E-03     18.0045E-03
            2116     13.6207E-03     28.2734E-03    -4.53555E+06     74.8226E+06     86.4516E+06     1.35102E+06    -230.602E-03     458.424E-03    -227.822E-03     108.477E-03    -234.852E-03     462.673E-03    -227.492E-03     85.9940E-03
            2117     12.9049E-03     28.0850E-03    -10.2626E+06     70.5885E+06     85.5176E+06     863.949E+03    -231.261E-03     458.884E-03    -227.623E-03     152.500E-03    -237.762E-03     465.352E-03    -227.283E-03     124.114E-03
            2118     12.1930E-03     27.8882E-03    -15.2735E+06     65.2981E+06     84.9975E+06    -315.941E+03    -231.810E-03     459.217E-03    -227.407E-03     167.165E-03    -239.099E-03     466.437E-03    -227.055E-03     137.624E-03
            2119     11.4784E-03     27.6573E-03    -21.0214E+06     59.2732E+06     83.3512E+06    -181.985E+03    -232.593E-03     459.764E-03    -227.171E-03     185.234E-03    -240.928E-03     467.992E-03    -226.809E-03     154.037E-03
            2120     10.7633E-03     27.4103E-03    -27.8965E+06     52.0118E+06     77.2105E+06    -558.923E+03    -233.564E-03     460.448E-03    -226.885E-03     196.139E-03    -242.403E-03     469.149E-03    -226.534E-03     164.289E-03
            2121     10.0493E-03     27.1459E-03    -35.0618E+06     44.3549E+06     65.7776E+06    -250.982E+03    -234.293E-03     460.822E-03    -226.530E-03     202.094E-03    -243.264E-03     469.636E-03    -226.214E-03     170.177E-03
            2122     9.33461E-03     26.8781E-03    -42.0804E+06     35.7209E+06     54.7588E+06     416.533E+03    -234.525E-03     460.661E-03    -226.135E-03     202.276E-03    -243.187E-03     469.140E-03    -225.852E-03     171.053E-03
            2123     8.61967E-03     26.6102E-03    -49.0156E+06     28.4758E+06     48.1415E+06     169.990E+03    -234.334E-03     460.054E-03    -225.721E-03     197.097E-03    -242.327E-03     467.836E-03    -225.450E-03     167.222E-03
            2124     7.90495E-03     26.3518E-03    -57.3235E+06     7.66831E+06     38.5178E+06     404.960E+03    -233.862E-03     459.129E-03    -225.267E-03     186.975E-03    -240.890E-03     465.869E-03    -225.002E-03     159.087E-03
            2125     7.18993E-03     26.1070E-03    -67.0616E+06    -31.9830E+06     22.0102E+06     1.17844E+06    -232.962E-03     457.723E-03    -224.761E-03     173.172E-03    -238.850E-03     463.196E-03    -224.508E-03     147.795E-03
            2126     6.47420E-03     25.8810E-03    -76.8064E+06    -75.6772E+06     3.30074E+06     1.22442E+06    -231.650E-03     455.872E-03    -224.222E-03     157.420E-03    -236.392E-03     460.063E-03    -223.984E-03     134.836E-03
            2127     5.75820E-03     25.6767E-03    -86.0141E+06    -112.804E+06    -14.8079E+06     777.372E+03    -230.056E-03     453.728E-03    -223.672E-03     140.634E-03    -233.752E-03     456.761E-03    -223.458E-03     120.939E-03
            2128     5.04076E-03     25.4942E-03    -95.0559E+06    -147.903E+06    -32.9753E+06     1.15309E+06    -228.384E-03     451.519E-03    -223.135E-03     123.354E-03    -231.164E-03     453.532E-03    -222.947E-03     106.550E-03
            2129     4.32252E-03     25.3351E-03    -103.848E+06    -180.947E+06    -51.9064E+06     1.38093E+06    -226.824E-03     449.436E-03    -222.611E-03     105.787E-03    -228.837E-03     450.588E-03    -222.458E-03     91.7568E-03
            2130     3.60388E-03     25.1990E-03    -112.140E+06    -209.005E+06    -71.1900E+06     755.864E+03    -225.225E-03     447.335E-03    -222.111E-03     88.1461E-03    -226.616E-03     447.792E-03    -222.001E-03     76.7485E-03
            2131     2.88464E-03     25.0870E-03    -119.491E+06    -243.251E+06    -89.4684E+06     678.768E+03    -223.642E-03     445.338E-03    -221.696E-03     70.6630E-03    -224.532E-03     445.200E-03    -221.617E-03     61.7609E-03
            2132     2.16396E-03     24.9995E-03    -126.024E+06    -270.711E+06    -106.963E+06     650.335E+03    -222.400E-03     443.780E-03    -221.380E-03     53.1338E-03    -222.916E-03     443.198E-03    -221.340E-03     46.5765E-03
            2133     1.44216E-03     24.9377E-03    -132.101E+06    -282.425E+06    -123.006E+06     480.864E+03    -221.566E-03     442.721E-03    -221.155E-03     36.0738E-03    -221.839E-03     441.879E-03    -221.169E-03     31.7155E-03
            2134     720.678E-06     24.8980E-03    -136.014E+06    -291.102E+06    -133.506E+06     606.051E+03    -221.237E-03     442.182E-03    -220.945E-03     19.2569E-03    -221.365E-03     441.182E-03    -220.993E-03     16.9089E-03
            2135     13.6197E-03     26.7703E-03    -3.88690E+06     74.1239E+06     86.9006E+06     172.781E+03    -230.962E-03     458.807E-03    -227.846E-03     108.097E-03    -235.201E-03     463.044E-03    -227.513E-03     85.5567E-03
            2136     12.9082E-03     26.5850E-03    -7.61611E+06     72.6307E+06     87.6455E+06     892.291E+03    -231.352E-03     458.988E-03    -227.636E-03     152.136E-03    -237.830E-03     465.443E-03    -227.292E-03     123.763E-03
            2137     12.1919E-03     26.3878E-03    -13.5910E+06     65.1850E+06     85.4699E+06     1.02005E+06    -231.754E-03     459.173E-03    -227.418E-03     167.792E-03    -239.038E-03     466.391E-03    -227.066E-03     138.284E-03
            2138     11.4772E-03     26.1594E-03    -20.6260E+06     59.3837E+06     82.9525E+06     561.136E+03    -233.077E-03     460.248E-03    -227.170E-03     185.799E-03    -241.413E-03     468.480E-03    -226.812E-03     154.525E-03
            2139     10.7638E-03     25.9093E-03    -28.0624E+06     53.5810E+06     76.1555E+06     396.236E+03    -234.370E-03     461.208E-03    -226.838E-03     195.685E-03    -243.174E-03     469.882E-03    -226.494E-03     163.768E-03
            2140     10.0498E-03     25.6488E-03    -35.3208E+06     43.8676E+06     64.6000E+06    -654.353E+03    -235.142E-03     461.562E-03    -226.419E-03     200.896E-03    -244.043E-03     470.305E-03    -226.109E-03     168.941E-03
            2141     9.33595E-03     25.3798E-03    -42.1403E+06     34.9183E+06     54.8510E+06    -1.12446E+06    -235.557E-03     461.498E-03    -225.940E-03     200.291E-03    -244.126E-03     469.881E-03    -225.656E-03     169.012E-03
            2142     8.62258E-03     25.1150E-03    -50.1079E+06     26.4200E+06     46.7847E+06     188.487E+03    -235.568E-03     460.960E-03    -225.392E-03     194.230E-03    -243.442E-03     468.614E-03    -225.124E-03     164.343E-03
            2143     7.90855E-03     24.8567E-03    -59.5877E+06     6.47915E+06     36.3083E+06     1.65449E+06    -234.820E-03     459.599E-03    -224.780E-03     183.412E-03    -241.705E-03     466.191E-03    -224.521E-03     155.650E-03
            2144     7.19447E-03     24.6150E-03    -68.9887E+06    -31.4260E+06     20.7396E+06     1.67586E+06    -233.450E-03     457.577E-03    -224.127E-03     169.436E-03    -239.195E-03     462.905E-03    -223.878E-03     144.279E-03
            2145     6.47930E-03     24.3922E-03    -77.5862E+06    -73.9524E+06     3.17212E+06     1.25579E+06    -231.802E-03     455.256E-03    -223.454E-03     153.610E-03    -236.414E-03     459.320E-03    -223.218E-03     131.281E-03
            2146     5.76282E-03     24.1899E-03    -86.5378E+06    -111.243E+06    -15.2872E+06     1.10787E+06    -229.985E-03     452.752E-03    -222.767E-03     136.539E-03    -233.556E-03     455.665E-03    -222.557E-03     117.152E-03
            2147     5.04585E-03     24.0112E-03    -95.2812E+06    -148.132E+06    -34.2181E+06     698.033E+03    -228.148E-03     450.233E-03    -222.085E-03     119.288E-03    -230.820E-03     452.141E-03    -221.903E-03     102.774E-03
            2148     4.32794E-03     23.8538E-03    -103.089E+06    -180.481E+06    -52.6247E+06     677.277E+03    -226.220E-03     447.643E-03    -221.423E-03     101.970E-03    -228.144E-03     448.713E-03    -221.275E-03     88.2241E-03
            2149     3.60883E-03     23.7210E-03    -110.656E+06    -207.443E+06    -71.1330E+06     591.715E+03    -224.212E-03     445.029E-03    -220.817E-03     84.7993E-03    -225.536E-03     445.430E-03    -220.712E-03     73.6790E-03
            2150     2.88794E-03     23.6117E-03    -118.059E+06    -242.836E+06    -88.5586E+06     327.386E+03    -222.445E-03     442.779E-03    -220.334E-03     67.8117E-03    -223.291E-03     442.600E-03    -220.253E-03     59.1344E-03
            2151     2.16641E-03     23.5264E-03    -125.080E+06    -270.432E+06    -105.354E+06     749.202E+03    -221.158E-03     441.103E-03    -219.945E-03     50.6065E-03    -221.646E-03     440.492E-03    -219.898E-03     44.2440E-03
            2152     1.44524E-03     23.4644E-03    -130.756E+06    -281.418E+06    -121.051E+06     782.639E+03    -220.276E-03     439.871E-03    -219.595E-03     33.7855E-03    -220.532E-03     439.014E-03    -219.602E-03     29.5803E-03
            2153     723.172E-06     23.4268E-03    -133.504E+06    -289.359E+06    -131.485E+06     286.451E+03    -219.811E-03     438.885E-03    -219.074E-03     18.4243E-03    -219.927E-03     437.881E-03    -219.118E-03     16.1573E-03
            2154     13.6209E-03     25.2685E-03    -4.98155E+06     74.0590E+06     86.3841E+06    -853.627E+03    -230.395E-03     458.271E-03    -227.876E-03     108.680E-03    -234.634E-03     462.505E-03    -227.545E-03     86.2167E-03
            2155     12.9046E-03     25.0839E-03    -10.2164E+06     70.9791E+06     86.8974E+06    -293.284E+03    -230.957E-03     458.659E-03    -227.702E-03     152.980E-03    -237.437E-03     465.103E-03    -227.356E-03     124.713E-03
            2156     12.1913E-03     24.8897E-03    -15.5613E+06     64.3886E+06     85.4609E+06     1.33539E+06    -232.525E-03     460.007E-03    -227.482E-03     168.393E-03    -239.819E-03     467.227E-03    -227.125E-03     138.815E-03
            2157     11.4777E-03     24.6575E-03    -21.5994E+06     59.6344E+06     82.8614E+06     1.07918E+06    -234.305E-03     461.477E-03    -227.172E-03     185.273E-03    -242.622E-03     469.689E-03    -226.813E-03     153.841E-03
            2158     10.7642E-03     24.4101E-03    -28.1347E+06     54.5632E+06     76.4149E+06     433.184E+03    -235.587E-03     462.338E-03    -226.751E-03     194.045E-03    -244.331E-03     470.954E-03    -226.407E-03     161.975E-03
            2159     10.0515E-03     24.1479E-03    -35.8320E+06     46.7708E+06     64.4608E+06     404.327E+03    -236.540E-03     462.752E-03    -226.212E-03     198.093E-03    -245.333E-03     471.397E-03    -225.906E-03     166.033E-03
            2160     9.33911E-03     23.8821E-03    -44.9497E+06     35.0880E+06     51.8477E+06    -291.555E+03    -237.069E-03     462.644E-03    -225.575E-03     196.714E-03    -245.480E-03     470.870E-03    -225.302E-03     165.427E-03
            2161     8.62651E-03     23.6163E-03    -53.8130E+06     22.4965E+06     42.8446E+06     67.2422E+03    -236.853E-03     461.709E-03    -224.856E-03     190.020E-03    -244.527E-03     469.148E-03    -224.596E-03     160.263E-03
            2162     7.91451E-03     23.3622E-03    -61.7598E+06     5.78251E+06     34.4906E+06     968.975E+03    -235.712E-03     459.781E-03    -224.069E-03     178.664E-03    -242.380E-03     466.150E-03    -223.815E-03     151.157E-03
            2163     7.20036E-03     23.1239E-03    -69.6245E+06    -29.8493E+06     20.3266E+06     602.663E+03    -234.104E-03     457.336E-03    -223.233E-03     164.251E-03    -239.635E-03     462.456E-03    -222.987E-03     139.407E-03
            2164     6.48574E-03     22.9034E-03    -77.9113E+06    -73.4192E+06     2.74889E+06     230.875E+03    -232.154E-03     454.516E-03    -222.362E-03     147.716E-03    -236.554E-03     458.371E-03    -222.129E-03     125.778E-03
            2165     5.77022E-03     22.7061E-03    -85.6501E+06    -110.175E+06    -14.9084E+06     122.016E+03    -229.956E-03     451.428E-03    -221.472E-03     130.485E-03    -233.335E-03     454.156E-03    -221.263E-03     111.525E-03
            2166     5.05311E-03     22.5291E-03    -93.1375E+06    -147.604E+06    -33.2452E+06     1.22322E+03    -227.657E-03     448.252E-03    -220.595E-03     113.335E-03    -230.165E-03     450.002E-03    -220.412E-03     97.2606E-03
            2167     4.33466E-03     22.3767E-03    -101.042E+06    -180.477E+06    -51.9561E+06     205.012E+03    -225.188E-03     444.950E-03    -219.762E-03     96.2999E-03    -226.978E-03     445.891E-03    -219.614E-03     82.9979E-03
            2168     3.61433E-03     22.2467E-03    -108.967E+06    -206.575E+06    -70.7404E+06     575.758E+03    -222.903E-03     441.910E-03    -219.007E-03     79.4721E-03    -224.128E-03     442.220E-03    -218.903E-03     68.7652E-03
            2169     2.89345E-03     22.1407E-03    -116.592E+06    -242.379E+06    -87.2929E+06     591.806E+03    -221.003E-03     439.373E-03    -218.370E-03     63.0366E-03    -221.779E-03     439.128E-03    -218.286E-03     54.7126E-03
            2170     2.17164E-03     22.0568E-03    -123.448E+06    -270.529E+06    -102.655E+06     108.003E+03    -219.425E-03     437.245E-03    -217.820E-03     47.2263E-03    -219.874E-03     436.593E-03    -217.762E-03     41.1186E-03
            2171     1.44802E-03     21.9974E-03    -128.285E+06    -280.270E+06    -117.776E+06    -200.038E+03    -218.208E-03     435.536E-03    -217.327E-03     31.7145E-03    -218.441E-03     434.659E-03    -217.324E-03     27.6995E-03
            2172     724.189E-06     21.9601E-03    -131.847E+06    -288.710E+06    -129.080E+06    -314.903E+03    -217.248E-03     434.205E-03    -216.957E-03     16.7428E-03    -217.355E-03     433.193E-03    -216.993E-03     14.6047E-03
            2173     13.6184E-03     23.7689E-03    -4.65936E+06     74.8619E+06     86.5224E+06     143.619E+03    -229.748E-03     457.692E-03    -227.944E-03     108.846E-03    -233.971E-03     461.913E-03    -227.613E-03     86.4935E-03
            2174     12.9044E-03     23.5856E-03    -9.90030E+06     69.5372E+06     86.0873E+06    -35.9485E+03    -231.409E-03     459.186E-03    -227.778E-03     152.934E-03    -237.879E-03     465.619E-03    -227.434E-03     124.613E-03
            2175     12.1899E-03     23.3855E-03    -15.2334E+06     63.2860E+06     84.9937E+06    -337.175E+03    -233.857E-03     461.365E-03    -227.508E-03     167.758E-03    -241.146E-03     468.578E-03    -227.153E-03     137.919E-03
            2176     11.4778E-03     23.1556E-03    -20.4740E+06     59.4294E+06     84.0473E+06     703.729E+03    -235.917E-03     463.023E-03    -227.107E-03     183.901E-03    -244.183E-03     471.184E-03    -226.743E-03     152.252E-03
            2177     10.7664E-03     22.9068E-03    -27.4332E+06     54.2653E+06     77.9435E+06     1.83519E+06    -237.528E-03     464.082E-03    -226.554E-03     191.726E-03    -246.160E-03     472.583E-03    -226.203E-03     159.501E-03
            2178     10.0554E-03     22.6467E-03    -35.4031E+06     47.7247E+06     65.5899E+06     2.32088E+06    -238.684E-03     464.519E-03    -225.836E-03     194.621E-03    -247.286E-03     472.975E-03    -225.525E-03     162.518E-03
            2179     9.34456E-03     22.3812E-03    -42.9704E+06     36.3523E+06     53.0383E+06     3.02017E+06    -239.100E-03     464.084E-03    -224.984E-03     192.072E-03    -247.244E-03     472.051E-03    -224.709E-03     160.921E-03
            2180     8.63411E-03     22.1186E-03    -51.0265E+06     25.0249E+06     44.4195E+06     1.96200E+06    -238.414E-03     462.448E-03    -224.034E-03     183.925E-03    -245.761E-03     469.574E-03    -223.774E-03     154.492E-03
            2181     7.92146E-03     21.8678E-03    -59.2428E+06     6.87794E+06     35.8088E+06    -71.9105E+03    -237.012E-03     460.011E-03    -222.999E-03     171.259E-03    -243.328E-03     466.038E-03    -222.744E-03     144.162E-03
            2182     7.20964E-03     21.6321E-03    -67.0613E+06    -28.9590E+06     21.7090E+06    -388.886E+03    -235.113E-03     456.997E-03    -221.884E-03     155.716E-03    -240.292E-03     461.772E-03    -221.636E-03     131.394E-03
            2183     6.49617E-03     21.4174E-03    -74.8247E+06    -72.5226E+06     4.24527E+06    -551.678E+03    -232.626E-03     453.341E-03    -220.715E-03     138.611E-03    -236.692E-03     456.872E-03    -220.480E-03     117.294E-03
            2184     5.78077E-03     21.2233E-03    -82.8929E+06    -110.044E+06    -13.3856E+06    -795.205E+03    -229.795E-03     449.326E-03    -219.530E-03     121.343E-03    -232.886E-03     451.771E-03    -219.317E-03     103.044E-03
            2185     5.06395E-03     21.0522E-03    -91.3418E+06    -147.987E+06    -31.3103E+06    -156.175E+03    -226.759E-03     445.141E-03    -218.382E-03     104.229E-03    -229.027E-03     446.650E-03    -218.191E-03     88.8641E-03
            2186     4.34487E-03     20.9037E-03    -100.021E+06    -180.566E+06    -50.0024E+06     584.130E+03    -223.783E-03     441.078E-03    -217.296E-03     87.5751E-03    -225.387E-03     441.832E-03    -217.139E-03     74.9596E-03
            2187     3.62449E-03     20.7783E-03    -108.389E+06    -206.943E+06    -69.3482E+06     1.06972E+06    -221.026E-03     437.325E-03    -216.299E-03     71.7604E-03    -222.117E-03     437.497E-03    -216.188E-03     61.6798E-03
            2188     2.90195E-03     20.6750E-03    -116.024E+06    -239.924E+06    -87.5258E+06     724.624E+03    -218.587E-03     434.032E-03    -215.445E-03     56.7633E-03    -219.276E-03     433.710E-03    -215.366E-03     48.9822E-03
            2189     2.17749E-03     20.5956E-03    -122.522E+06    -268.412E+06    -103.373E+06    -972.061E+03    -216.583E-03     431.328E-03    -214.746E-03     42.4896E-03    -216.980E-03     430.636E-03    -214.696E-03     36.7822E-03
            2190     1.45272E-03     20.5367E-03    -127.795E+06    -282.144E+06    -117.817E+06    -1.33627E+06    -214.997E-03     429.212E-03    -214.215E-03     28.2837E-03    -215.203E-03     428.303E-03    -214.210E-03     24.5292E-03
            2191     726.633E-06     20.5031E-03    -132.138E+06    -289.917E+06    -129.481E+06    -63.3213E+03    -214.278E-03     427.977E-03    -213.699E-03     14.9921E-03    -214.376E-03     426.951E-03    -213.734E-03     13.0045E-03
            2192     13.6181E-03     22.2716E-03    -4.39909E+06     74.6067E+06     86.1387E+06     384.670E+03    -230.576E-03     458.577E-03    -228.001E-03     108.407E-03    -234.814E-03     462.814E-03    -227.672E-03     85.9216E-03
            2193     12.9031E-03     22.0820E-03    -9.83151E+06     70.3330E+06     85.7885E+06    -222.056E+03    -232.656E-03     460.433E-03    -227.777E-03     152.934E-03    -239.165E-03     466.908E-03    -227.436E-03     124.312E-03
            2194     12.1918E-03     21.8830E-03    -15.6526E+06     63.4583E+06     84.2592E+06    -348.102E+03    -235.333E-03     462.756E-03    -227.422E-03     166.895E-03    -242.593E-03     469.941E-03    -227.070E-03     136.822E-03
            2195     11.4800E-03     21.6503E-03    -22.9222E+06     56.8132E+06     80.7527E+06     315.597E+03    -238.047E-03     464.937E-03    -226.890E-03     181.722E-03    -246.193E-03     472.969E-03    -226.535E-03     149.885E-03
            2196     10.7700E-03     21.4015E-03    -29.4467E+06     52.9123E+06     74.5924E+06     864.482E+03    -240.218E-03     466.365E-03    -226.146E-03     187.883E-03    -248.614E-03     474.627E-03    -225.807E-03     155.576E-03
            2197     10.0608E-03     21.1421E-03    -34.5901E+06     46.1821E+06     64.9228E+06     1.37459E+06    -241.603E-03     466.790E-03    -225.187E-03     188.938E-03    -249.848E-03     474.889E-03    -224.879E-03     156.924E-03
            2198     9.35268E-03     20.8781E-03    -39.9620E+06     35.0969E+06     55.1946E+06     2.05196E+06    -241.844E-03     465.888E-03    -224.044E-03     184.304E-03    -249.543E-03     473.411E-03    -223.761E-03     153.437E-03
            2199     8.64351E-03     20.6199E-03    -45.6651E+06     28.7930E+06     48.7381E+06     2.52095E+06    -240.881E-03     463.627E-03    -222.747E-03     174.168E-03    -247.727E-03     470.273E-03    -222.479E-03     145.229E-03
            2200     7.93527E-03     20.3726E-03    -53.1843E+06     10.8394E+06     39.7493E+06     1.95891E+06    -238.941E-03     460.266E-03    -221.325E-03     160.155E-03    -244.743E-03     465.803E-03    -221.065E-03     133.749E-03
            2201     7.22434E-03     20.1426E-03    -62.2341E+06    -26.9410E+06     24.7267E+06     923.087E+03    -236.232E-03     456.044E-03    -219.812E-03     143.821E-03    -240.921E-03     460.345E-03    -219.559E-03     120.347E-03
            2202     6.51185E-03     19.9330E-03    -71.6298E+06    -70.7298E+06     7.01765E+06     602.573E+03    -232.979E-03     451.225E-03    -218.246E-03     126.493E-03    -236.620E-03     454.342E-03    -218.005E-03     106.091E-03
            2203     5.79763E-03     19.7456E-03    -81.2848E+06    -108.610E+06    -11.1968E+06     434.036E+03    -229.234E-03     445.910E-03    -216.676E-03     109.315E-03    -231.972E-03     448.007E-03    -216.456E-03     91.9809E-03
            2204     5.08030E-03     19.5805E-03    -90.6427E+06    -148.427E+06    -30.0134E+06     433.915E+03    -225.355E-03     440.523E-03    -215.169E-03     92.9791E-03    -227.341E-03     441.748E-03    -214.972E-03     78.5607E-03
            2205     4.36084E-03     19.4380E-03    -99.2594E+06    -181.124E+06    -48.7080E+06     958.795E+03    -221.623E-03     435.382E-03    -213.759E-03     77.6127E-03    -223.019E-03     435.924E-03    -213.596E-03     65.8716E-03
            2206     3.63836E-03     19.3178E-03    -107.094E+06    -206.935E+06    -67.6272E+06     1.49008E+06    -218.137E-03     430.623E-03    -212.485E-03     63.2091E-03    -219.080E-03     430.646E-03    -212.368E-03     53.9006E-03
            2207     2.91359E-03     19.2201E-03    -114.048E+06    -235.525E+06    -86.6740E+06     913.293E+03    -215.144E-03     426.535E-03    -211.391E-03     49.6316E-03    -215.739E-03     426.140E-03    -211.318E-03     42.4853E-03
            2208     2.18750E-03     19.1431E-03    -120.864E+06    -265.424E+06    -103.634E+06    -620.997E+03    -212.635E-03     423.152E-03    -210.518E-03     36.7930E-03    -212.973E-03     422.418E-03    -210.476E-03     31.5864E-03
            2209     1.45892E-03     19.0887E-03    -127.018E+06    -285.468E+06    -118.349E+06    -889.574E+03    -210.731E-03     420.633E-03    -209.902E-03     24.4798E-03    -210.903E-03     419.682E-03    -209.896E-03     21.0572E-03
            2210     729.375E-06     19.0553E-03    -130.435E+06    -290.813E+06    -128.035E+06    -166.555E+03    -209.704E-03     419.291E-03    -209.586E-03     13.2830E-03    -209.788E-03     418.248E-03    -209.615E-03     11.4747E-03
            2211     13.6172E-03     20.7681E-03    -5.59249E+06     74.0035E+06     85.4811E+06     241.354E+03    -231.876E-03     459.884E-03    -228.008E-03     108.650E-03    -236.140E-03     464.143E-03    -227.680E-03     85.9699E-03
            2212     12.9058E-03     20.5803E-03    -9.83591E+06     72.6121E+06     86.4044E+06     229.458E+03    -234.654E-03     462.347E-03    -227.693E-03     153.058E-03    -241.158E-03     468.823E-03    -227.352E-03     124.189E-03
            2213     12.1929E-03     20.3766E-03    -15.5464E+06     63.1062E+06     83.7584E+06     904.394E+03    -238.041E-03     465.234E-03    -227.193E-03     165.704E-03    -245.184E-03     472.303E-03    -226.844E-03     135.457E-03
            2214     11.4844E-03     20.1424E-03    -21.3040E+06     57.0150E+06     80.2659E+06     683.938E+03    -241.635E-03     468.076E-03    -226.441E-03     177.953E-03    -249.521E-03     475.856E-03    -226.091E-03     145.952E-03
            2215     10.7771E-03     19.8932E-03    -27.1153E+06     53.5521E+06     74.0952E+06    -320.315E+03    -244.204E-03     469.596E-03    -225.392E-03     180.805E-03    -252.173E-03     477.445E-03    -225.060E-03     148.496E-03
            2216     10.0717E-03     19.6339E-03    -33.8607E+06     44.6519E+06     63.4084E+06    -694.401E+03    -245.426E-03     469.486E-03    -224.060E-03     179.032E-03    -253.116E-03     477.032E-03    -223.759E-03     147.275E-03
            2217     9.36633E-03     19.3741E-03    -40.4500E+06     34.0142E+06     53.9329E+06    -675.201E+03    -245.292E-03     467.786E-03    -222.494E-03     172.238E-03    -252.368E-03     474.684E-03    -222.215E-03     141.871E-03
            2218     8.66165E-03     19.1191E-03    -47.1589E+06     26.0599E+06     47.4080E+06    -96.0759E+03    -243.672E-03     464.407E-03    -220.736E-03     160.776E-03    -249.878E-03     470.403E-03    -220.468E-03     132.583E-03
            2219     7.95431E-03     18.8785E-03    -54.5113E+06     11.5380E+06     39.7574E+06     1.48694E+06    -240.832E-03     459.666E-03    -218.834E-03     146.262E-03    -246.036E-03     464.604E-03    -218.573E-03     120.825E-03
            2220     7.24588E-03     18.6554E-03    -63.0723E+06    -23.4863E+06     25.6347E+06     2.10424E+06    -237.208E-03     454.045E-03    -216.837E-03     129.734E-03    -241.370E-03     457.827E-03    -216.583E-03     107.351E-03
            2221     6.53482E-03     18.4534E-03    -72.2118E+06    -68.4499E+06     7.87062E+06     1.62236E+06    -232.847E-03     447.648E-03    -214.801E-03     112.473E-03    -236.037E-03     450.317E-03    -214.558E-03     93.2371E-03
            2222     5.82016E-03     18.2740E-03    -80.6142E+06    -106.294E+06    -9.57906E+06     1.02758E+06    -228.014E-03     440.806E-03    -212.792E-03     95.9562E-03    -230.383E-03     442.540E-03    -212.569E-03     79.7822E-03
            2223     5.10245E-03     18.1175E-03    -88.7532E+06    -147.458E+06    -28.1085E+06     848.625E+03    -223.133E-03     434.021E-03    -210.888E-03     80.7783E-03    -224.832E-03     434.963E-03    -210.686E-03     67.4420E-03
            2224     4.38088E-03     17.9821E-03    -96.7438E+06    -180.935E+06    -46.9990E+06     1.04562E+06    -218.460E-03     427.591E-03    -209.131E-03     66.7536E-03    -219.640E-03     427.921E-03    -208.963E-03     55.9914E-03
            2225     3.65634E-03     17.8693E-03    -104.185E+06    -205.773E+06    -65.6157E+06     965.832E+03    -214.284E-03     421.841E-03    -207.558E-03     53.8493E-03    -215.077E-03     421.724E-03    -207.437E-03     45.3580E-03
            2226     2.92919E-03     17.7763E-03    -111.176E+06    -233.086E+06    -84.0326E+06     1.00928E+06    -210.664E-03     416.874E-03    -206.210E-03     41.9912E-03    -211.164E-03     416.394E-03    -206.131E-03     35.5174E-03
            2227     2.19885E-03     17.7054E-03    -117.548E+06    -263.204E+06    -100.118E+06     1.24696E+06    -207.673E-03     412.806E-03    -205.133E-03     30.7973E-03    -207.953E-03     412.023E-03    -205.082E-03     26.1308E-03
            2228     1.46703E-03     17.6541E-03    -123.451E+06    -285.092E+06    -114.022E+06     576.503E+03    -205.514E-03     409.837E-03    -204.323E-03     20.3049E-03    -205.652E-03     408.852E-03    -204.301E-03     17.2491E-03
            2229     734.168E-06     17.6223E-03    -127.796E+06    -291.563E+06    -125.436E+06    -366.922E+03    -203.740E-03     407.879E-03    -204.139E-03     10.7698E-03    -203.806E-03     406.817E-03    -204.158E-03     9.15546E-03
            2230     13.6181E-03     19.2648E-03    -4.01282E+06     74.5668E+06     85.7723E+06     629.699E+03    -233.541E-03     461.483E-03    -227.941E-03     109.277E-03    -237.802E-03     465.745E-03    -227.615E-03     86.3534E-03
            2231     12.9056E-03     19.0725E-03    -8.61688E+06     72.3372E+06     85.6512E+06     410.641E+03    -238.051E-03     465.529E-03    -227.478E-03     152.194E-03    -244.480E-03     471.936E-03    -227.142E-03     122.968E-03
            2232     12.1989E-03     18.8674E-03    -13.1967E+06     62.2182E+06     83.5376E+06     64.9175E+03    -242.989E-03     469.705E-03    -226.716E-03     162.318E-03    -249.918E-03     476.566E-03    -226.370E-03     131.671E-03
            2233     11.4929E-03     18.6293E-03    -18.1588E+06     58.1501E+06     82.4369E+06     539.882E+03    -247.037E-03     472.637E-03    -225.600E-03     170.761E-03    -254.508E-03     480.011E-03    -225.246E-03     138.598E-03
            2234     10.7910E-03     18.3788E-03    -24.9527E+06     54.5294E+06     76.8470E+06     645.831E+03    -249.326E-03     473.440E-03    -224.114E-03     170.539E-03    -256.727E-03     480.723E-03    -223.772E-03     138.407E-03
            2235     10.0895E-03     18.1241E-03    -32.1515E+06     45.7787E+06     65.3798E+06     307.027E+03    -250.075E-03     472.361E-03    -222.287E-03     166.696E-03    -257.102E-03     479.249E-03    -221.979E-03     135.422E-03
            2236     9.38864E-03     17.8665E-03    -39.4767E+06     34.3548E+06     54.5651E+06     85.8186E+03    -249.091E-03     469.281E-03    -220.189E-03     158.335E-03    -255.462E-03     475.477E-03    -219.909E-03     128.751E-03
            2237     8.68592E-03     17.6198E-03    -47.9002E+06     24.8125E+06     46.5364E+06     207.053E+03    -246.433E-03     464.318E-03    -217.885E-03     145.748E-03    -251.951E-03     469.621E-03    -217.619E-03     118.578E-03
            2238     7.98191E-03     17.3866E-03    -56.3029E+06     10.5735E+06     38.5968E+06     1.25290E+03    -242.651E-03     458.079E-03    -215.428E-03     130.450E-03    -247.224E-03     462.380E-03    -215.168E-03     106.154E-03
            2239     7.27463E-03     17.1722E-03    -63.6658E+06    -21.8467E+06     25.7286E+06    -59.0220E+03    -237.748E-03     450.623E-03    -212.875E-03     113.313E-03    -241.353E-03     453.852E-03    -212.623E-03     92.1703E-03
            2240     6.56384E-03     16.9804E-03    -70.1717E+06    -66.2425E+06     8.83602E+06     76.9448E+03    -231.933E-03     442.252E-03    -210.319E-03     96.2909E-03    -234.640E-03     444.451E-03    -210.077E-03     78.3852E-03
            2241     5.84909E-03     16.8117E-03    -77.3287E+06    -104.929E+06    -8.14327E+06     300.095E+03    -225.859E-03     433.706E-03    -207.847E-03     80.7905E-03    -227.840E-03     435.064E-03    -207.623E-03     65.9110E-03
            2242     5.12974E-03     16.6647E-03    -85.3831E+06    -146.072E+06    -25.5135E+06     957.795E+03    -219.906E-03     425.441E-03    -205.535E-03     66.9029E-03    -221.312E-03     426.099E-03    -205.327E-03     54.7660E-03
            2243     4.40632E-03     16.5398E-03    -93.6993E+06    -179.738E+06    -43.9546E+06     1.25876E+06    -214.339E-03     417.756E-03    -203.417E-03     54.6775E-03    -215.309E-03     417.883E-03    -203.241E-03     44.9640E-03
            2244     3.67879E-03     16.4339E-03    -102.090E+06    -204.457E+06    -63.5746E+06     1.39145E+06    -209.350E-03     410.879E-03    -201.529E-03     43.6235E-03    -210.003E-03     410.626E-03    -201.402E-03     36.0220E-03
            2245     2.94741E-03     16.3494E-03    -110.142E+06    -232.729E+06    -83.1496E+06     2.07247E+06    -205.052E-03     404.978E-03    -199.926E-03     33.5657E-03    -205.464E-03     404.411E-03    -199.845E-03     27.8269E-03
            2246     2.21360E-03     16.2831E-03    -117.038E+06    -260.720E+06    -99.7063E+06     2.13262E+06    -201.702E-03     400.326E-03    -198.624E-03     24.4592E-03    -201.937E-03     399.506E-03    -198.575E-03     20.3385E-03
            2247     1.47743E-03     16.2365E-03    -122.712E+06    -281.803E+06    -112.863E+06     1.12554E+06    -199.160E-03     396.758E-03    -197.599E-03     15.9916E-03    -199.280E-03     395.765E-03    -197.576E-03     13.2946E-03
            2248     739.129E-06     16.2075E-03    -126.873E+06    -291.254E+06    -123.491E+06     600.180E+03    -197.091E-03     394.206E-03    -197.115E-03     8.22881E-03    -197.150E-03     393.135E-03    -197.126E-03     6.80886E-03
            2249     13.6197E-03     17.7585E-03    -3.28808E+06     75.7491E+06     85.7746E+06     206.118E+03    -237.555E-03     465.307E-03    -227.751E-03     109.732E-03    -241.819E-03     469.579E-03    -227.427E-03     86.2920E-03
            2250     12.9125E-03     17.5618E-03    -9.01781E+06     72.3652E+06     84.4486E+06    -575.920E+03    -243.728E-03     470.730E-03    -227.001E-03     150.157E-03    -250.072E-03     477.054E-03    -226.671E-03     120.239E-03
            2251     12.2077E-03     17.3482E-03    -14.4018E+06     61.1185E+06     82.4685E+06    -1.52210E+06    -249.733E-03     475.569E-03    -225.836E-03     156.583E-03    -256.394E-03     482.157E-03    -225.492E-03     125.377E-03
            2252     11.5099E-03     17.1094E-03    -20.5669E+06     55.7645E+06     80.9006E+06    -763.232E+03    -253.347E-03     477.580E-03    -224.233E-03     161.852E-03    -260.361E-03     484.485E-03    -223.879E-03     129.537E-03
            2253     10.8114E-03     16.8617E-03    -26.4687E+06     53.7771E+06     77.2415E+06     162.589E+03    -255.036E-03     477.260E-03    -222.224E-03     159.788E-03    -261.867E-03     483.966E-03    -221.877E-03     127.885E-03
            2254     10.1148E-03     16.6086E-03    -32.5009E+06     47.0723E+06     67.3408E+06     364.237E+03    -255.195E-03     475.024E-03    -219.829E-03     153.622E-03    -261.572E-03     481.260E-03    -219.514E-03     122.894E-03
            2255     9.41728E-03     16.3598E-03    -39.1607E+06     34.5374E+06     55.4735E+06     343.826E+03    -253.189E-03     470.309E-03    -217.120E-03     143.059E-03    -258.861E-03     475.807E-03    -216.836E-03     114.352E-03
            2256     8.71835E-03     16.1208E-03    -45.5050E+06     26.2537E+06     47.9539E+06     24.6963E+03    -249.575E-03     463.752E-03    -214.178E-03     128.967E-03    -254.400E-03     468.374E-03    -213.910E-03     102.883E-03
            2257     8.01650E-03     15.8977E-03    -51.5873E+06     12.8991E+06     40.6880E+06    -1.11530E+06    -244.468E-03     455.534E-03    -211.066E-03     112.436E-03    -248.393E-03     459.207E-03    -210.807E-03     89.3692E-03
            2258     7.31145E-03     15.6951E-03    -58.2728E+06    -20.6534E+06     27.4739E+06    -1.67412E+06    -237.716E-03     445.608E-03    -207.892E-03     94.7453E-03    -240.735E-03     448.271E-03    -207.640E-03     75.0102E-03
            2259     6.60099E-03     15.5173E-03    -66.5712E+06    -65.8724E+06     9.52358E+06    -507.562E+03    -230.242E-03     435.023E-03    -204.781E-03     78.4074E-03    -232.470E-03     436.755E-03    -204.541E-03     61.9571E-03
            2260     5.88480E-03     15.3606E-03    -75.9698E+06    -104.846E+06    -8.50511E+06     1.20219E+06    -222.742E-03     424.566E-03    -201.824E-03     64.1792E-03    -224.357E-03     425.564E-03    -201.604E-03     50.7052E-03
            2261     5.16330E-03     15.2267E-03    -85.5331E+06    -143.776E+06    -26.3152E+06     1.86966E+06    -215.635E-03     414.726E-03    -199.092E-03     51.9501E-03    -216.776E-03     415.130E-03    -198.891E-03     41.0886E-03
            2262     4.43645E-03     15.1119E-03    -94.4053E+06    -178.205E+06    -44.4758E+06     1.67392E+06    -209.150E-03     405.765E-03    -196.615E-03     41.6333E-03    -209.938E-03     405.714E-03    -196.442E-03     33.0095E-03
            2263     3.70497E-03     15.0168E-03    -102.869E+06    -204.772E+06    -64.1009E+06     2.61086E+06    -203.298E-03     397.725E-03    -194.427E-03     32.4909E-03    -203.828E-03     397.346E-03    -194.301E-03     25.8274E-03
            2264     2.96958E-03     14.9398E-03    -110.570E+06    -231.003E+06    -83.1280E+06     3.46220E+06    -198.350E-03     390.937E-03    -192.587E-03     24.6686E-03    -198.689E-03     390.300E-03    -192.507E-03     19.6796E-03
            2265     2.23024E-03     14.8809E-03    -117.116E+06    -256.654E+06    -100.732E+06     2.87364E+06    -194.413E-03     385.534E-03    -191.120E-03     18.0339E-03    -194.612E-03     384.693E-03    -191.082E-03     14.4673E-03
            2266     1.48844E-03     14.8382E-03    -122.460E+06    -278.288E+06    -115.292E+06     1.59110E+06    -191.513E-03     381.570E-03    -190.058E-03     11.8024E-03    -191.615E-03     380.579E-03    -190.053E-03     9.47453E-03
            2267     744.883E-06     14.8147E-03    -125.415E+06    -289.456E+06    -124.057E+06     559.565E+03    -190.047E-03     379.189E-03    -189.142E-03     6.21597E-03    -190.094E-03     378.119E-03    -189.161E-03     4.97807E-03
            2268     13.6247E-03     16.2458E-03    -3.99834E+06     75.8733E+06     85.2851E+06    -394.462E+03    -245.063E-03     472.471E-03    -227.409E-03     111.296E-03    -249.393E-03     476.810E-03    -227.086E-03     86.8225E-03
            2269     12.9214E-03     16.0402E-03    -8.77007E+06     74.2957E+06     86.1302E+06    -302.845E+03    -251.813E-03     478.025E-03    -226.212E-03     148.116E-03    -258.105E-03     484.300E-03    -225.877E-03     117.195E-03
            2270     12.2264E-03     15.8211E-03    -15.2360E+06     62.2804E+06     82.9565E+06    -204.815E+03    -256.861E-03     481.405E-03    -224.543E-03     151.979E-03    -263.310E-03     487.780E-03    -224.197E-03     120.226E-03
            2271     11.5305E-03     15.5843E-03    -21.6678E+06     55.4015E+06     80.1923E+06    -1.35167E+06    -260.416E-03     482.812E-03    -222.397E-03     154.215E-03    -267.070E-03     489.355E-03    -222.045E-03     121.594E-03
            2272     10.8383E-03     15.3380E-03    -27.4147E+06     52.8311E+06     75.6240E+06    -2.24105E+06    -261.801E-03     481.574E-03    -219.773E-03     149.061E-03    -268.145E-03     487.791E-03    -219.431E-03     117.151E-03
            2273     10.1462E-03     15.0910E-03    -32.8808E+06     46.0143E+06     65.5578E+06    -2.12372E+06    -260.881E-03     477.595E-03    -216.714E-03     139.706E-03    -266.667E-03     483.240E-03    -216.405E-03     109.382E-03
            2274     9.45358E-03     14.8509E-03    -37.8767E+06     34.4052E+06     55.8340E+06    -2.08875E+06    -258.000E-03     471.308E-03    -213.307E-03     126.758E-03    -263.038E-03     476.175E-03    -213.023E-03     98.7447E-03
            2275     8.75842E-03     14.6234E-03    -43.0293E+06     27.2609E+06     49.2885E+06    -2.90930E+06    -253.135E-03     462.762E-03    -209.627E-03     111.066E-03    -257.341E-03     466.774E-03    -209.358E-03     85.8923E-03
            2276     8.06020E-03     14.4126E-03    -49.5510E+06     13.7424E+06     40.4151E+06    -3.07007E+06    -245.867E-03     451.658E-03    -205.791E-03     93.1248E-03    -249.203E-03     454.754E-03    -205.537E-03     71.2994E-03
            2277     7.35548E-03     14.2273E-03    -58.2600E+06    -21.2074E+06     25.1980E+06    -866.845E+03    -237.042E-03     439.011E-03    -201.968E-03     75.5036E-03    -239.552E-03     441.170E-03    -201.727E-03     57.2212E-03
            2278     6.64428E-03     14.0646E-03    -68.0093E+06    -65.9682E+06     6.65210E+06     1.57698E+06    -227.899E-03     426.189E-03    -198.291E-03     60.2024E-03    -229.731E-03     427.529E-03    -198.063E-03     45.1926E-03
            2279     5.92657E-03     13.9246E-03    -77.4367E+06    -104.791E+06    -11.6707E+06     3.10505E+06    -218.933E-03     413.770E-03    -194.837E-03     47.2630E-03    -220.243E-03     414.468E-03    -194.631E-03     35.1499E-03
            2280     5.20195E-03     13.8044E-03    -85.9700E+06    -139.843E+06    -29.0365E+06     3.42003E+06    -210.588E-03     402.260E-03    -191.672E-03     36.7681E-03    -211.510E-03     402.464E-03    -191.490E-03     27.1157E-03
            2281     4.47157E-03     13.7029E-03    -94.5205E+06    -175.802E+06    -45.6800E+06     2.91677E+06    -202.954E-03     391.806E-03    -188.852E-03     28.2159E-03    -203.587E-03     391.610E-03    -188.689E-03     20.6393E-03
            2282     3.73555E-03     13.6189E-03    -102.889E+06    -205.160E+06    -63.7201E+06     3.28926E+06    -196.196E-03     382.603E-03    -186.407E-03     21.4501E-03    -196.622E-03     382.118E-03    -186.279E-03     15.6466E-03
            2283     2.99418E-03     13.5520E-03    -110.566E+06    -228.357E+06    -83.5079E+06     3.84759E+06    -190.622E-03     374.992E-03    -184.370E-03     16.0082E-03    -190.902E-03     374.306E-03    -184.296E-03     11.6974E-03
            2284     2.24931E-03     13.4999E-03    -117.073E+06    -252.853E+06    -101.693E+06     3.90514E+06    -186.175E-03     368.973E-03    -182.798E-03     11.3489E-03    -186.343E-03     368.117E-03    -182.770E-03     8.30356E-03
            2285     1.50076E-03     13.4639E-03    -121.802E+06    -273.043E+06    -115.277E+06     2.97277E+06    -183.080E-03     364.809E-03    -181.729E-03     7.25305E-03    -183.170E-03     363.826E-03    -181.733E-03     5.28796E-03
            2286     750.465E-06     13.4409E-03    -125.397E+06    -285.815E+06    -123.927E+06     1.16612E+06    -181.657E-03     362.561E-03    -180.904E-03     3.97510E-03    -181.706E-03     361.504E-03    -180.927E-03     2.91283E-03
            2287     13.6295E-03     14.7132E-03    -4.84702E+06     75.7699E+06     86.0505E+06    -783.775E+03    -253.773E-03     480.717E-03    -226.945E-03     114.870E-03    -258.270E-03     485.216E-03    -226.617E-03     89.0438E-03
            2288     12.9384E-03     14.5084E-03    -9.76052E+06     73.2109E+06     85.6707E+06    -217.051E+03    -260.830E-03     486.065E-03    -225.235E-03     148.797E-03    -267.224E-03     492.436E-03    -224.899E-03     116.529E-03
            2289     12.2434E-03     14.2884E-03    -14.6506E+06     64.2293E+06     83.7433E+06     338.026E+03    -265.637E-03     488.631E-03    -222.994E-03     149.596E-03    -272.022E-03     494.951E-03    -222.647E-03     116.896E-03
            2290     11.5560E-03     14.0483E-03    -19.6512E+06     59.1004E+06     81.8668E+06    -1.12369E+06    -268.724E-03     488.939E-03    -220.215E-03     147.540E-03    -275.150E-03     495.269E-03    -219.863E-03     114.279E-03
            2291     10.8702E-03     13.8079E-03    -25.4086E+06     54.0768E+06     76.2102E+06    -3.22494E+06    -269.535E-03     486.427E-03    -216.893E-03     139.136E-03    -275.540E-03     492.316E-03    -216.553E-03     106.858E-03
            2292     10.1843E-03     13.5693E-03    -31.2979E+06     45.5344E+06     65.9024E+06    -4.37192E+06    -267.768E-03     480.848E-03    -213.080E-03     126.823E-03    -273.118E-03     486.063E-03    -212.771E-03     96.4934E-03
            2293     9.49615E-03     13.3406E-03    -36.9713E+06     34.2196E+06     54.8954E+06    -4.97334E+06    -263.666E-03     472.534E-03    -208.868E-03     111.407E-03    -268.225E-03     476.930E-03    -208.590E-03     83.7044E-03
            2294     8.80578E-03     13.1257E-03    -43.7642E+06     25.5879E+06     45.3988E+06    -4.24808E+06    -256.572E-03     460.957E-03    -204.385E-03     93.3724E-03    -260.283E-03     464.478E-03    -204.131E-03     68.9410E-03
            2295     8.10905E-03     12.9346E-03    -52.8807E+06     11.4252E+06     34.7960E+06    -1.66389E+06    -246.694E-03     446.523E-03    -199.830E-03     74.5875E-03    -249.567E-03     449.155E-03    -199.595E-03     53.9203E-03
            2296     7.40503E-03     12.7687E-03    -62.4475E+06    -22.4945E+06     19.6562E+06     439.159E+03    -235.897E-03     431.285E-03    -195.387E-03     57.6952E-03    -238.038E-03     433.072E-03    -195.166E-03     40.6307E-03
            2297     6.69311E-03     12.6255E-03    -70.6775E+06    -66.3820E+06     1.62688E+06     2.30880E+06    -225.116E-03     416.279E-03    -191.163E-03     43.4663E-03    -226.660E-03     417.335E-03    -190.956E-03     29.6185E-03
            2298     5.97282E-03     12.5039E-03    -78.1369E+06    -103.688E+06    -15.7392E+06     3.79552E+06    -214.764E-03     401.991E-03    -187.227E-03     32.1238E-03    -215.857E-03     402.486E-03    -187.042E-03     21.0665E-03
            2299     5.24521E-03     12.4004E-03    -86.1584E+06    -137.086E+06    -32.0532E+06     4.75576E+06    -205.041E-03     388.695E-03    -183.654E-03     23.3293E-03    -205.809E-03     388.764E-03    -183.491E-03     14.6266E-03
            2300     4.51010E-03     12.3138E-03    -94.8453E+06    -171.377E+06    -47.8954E+06     4.94852E+06    -196.127E-03     376.648E-03    -180.520E-03     16.6934E-03    -196.660E-03     376.372E-03    -180.374E-03     9.95046E-03
            2301     3.76804E-03     12.2438E-03    -103.389E+06    -203.063E+06    -64.7956E+06     4.13331E+06    -188.559E-03     366.417E-03    -177.858E-03     12.0539E-03    -188.923E-03     365.877E-03    -177.738E-03     6.92028E-03
            2302     3.02114E-03     12.1860E-03    -111.181E+06    -227.109E+06    -83.4536E+06     4.50800E+06    -182.396E-03     358.063E-03    -175.668E-03     8.43572E-03    -182.640E-03     357.344E-03    -175.594E-03     4.65030E-03
            2303     2.26935E-03     12.1436E-03    -118.126E+06    -248.381E+06    -101.048E+06     4.67136E+06    -177.685E-03     351.653E-03    -173.968E-03     5.63668E-03    -177.844E-03     350.798E-03    -173.942E-03     2.97989E-03
            2304     1.51488E-03     12.1118E-03    -123.380E+06    -267.165E+06    -114.849E+06     3.50173E+06    -174.416E-03     347.166E-03    -172.751E-03     3.47715E-03    -174.513E-03     346.204E-03    -172.758E-03     1.77304E-03
            2305     758.280E-06     12.0933E-03    -126.612E+06    -280.191E+06    -124.215E+06     2.22078E+06    -172.368E-03     344.413E-03    -172.045E-03     1.73107E-03    -172.428E-03     343.382E-03    -172.076E-03     840.988E-06
            2306     13.6396E-03     13.1746E-03    -4.34859E+06     75.3036E+06     87.2561E+06    -497.329E+03    -262.638E-03     489.094E-03    -226.455E-03     120.511E-03    -267.356E-03     493.810E-03    -226.122E-03     93.3110E-03
            2307     12.9459E-03     12.9626E-03    -8.90703E+06     72.8096E+06     86.8906E+06    -252.439E+03    -270.449E-03     494.675E-03    -224.225E-03     151.003E-03    -277.068E-03     501.268E-03    -223.883E-03     117.100E-03
            2308     12.2662E-03     12.7385E-03    -13.7549E+06     66.3063E+06     85.2882E+06    -1.27314E+06    -276.141E-03     497.487E-03    -221.346E-03     147.936E-03    -282.638E-03     503.924E-03    -220.996E-03     113.630E-03
            2309     11.5849E-03     12.5061E-03    -18.3952E+06     61.7930E+06     83.6673E+06    -3.12061E+06    -278.321E-03     496.167E-03    -217.846E-03     142.836E-03    -284.726E-03     502.486E-03    -217.490E-03     108.335E-03
            2310     10.9044E-03     12.2673E-03    -23.4945E+06     55.7025E+06     77.6083E+06    -3.41221E+06    -278.180E-03     491.940E-03    -213.760E-03     131.082E-03    -284.032E-03     497.686E-03    -213.419E-03     98.0020E-03
            2311     10.2245E-03     12.0416E-03    -30.0562E+06     46.9043E+06     65.4644E+06    -3.60952E+06    -275.663E-03     484.784E-03    -209.122E-03     115.336E-03    -280.756E-03     489.754E-03    -208.819E-03     84.5434E-03
            2312     9.54317E-03     11.8251E-03    -38.2664E+06     34.6535E+06     50.5703E+06    -3.72955E+06    -269.402E-03     473.463E-03    -204.061E-03     97.2458E-03    -273.647E-03     477.556E-03    -203.803E-03     69.5731E-03
            2313     8.85625E-03     11.6311E-03    -47.3278E+06     21.2209E+06     37.3021E+06    -2.13850E+06    -259.157E-03     457.977E-03    -198.820E-03     77.5916E-03    -262.516E-03     461.143E-03    -198.595E-03     53.7878E-03
            2314     8.16107E-03     11.4637E-03    -55.3302E+06     8.94862E+06     27.7562E+06    -190.862E+03    -246.896E-03     440.535E-03    -193.639E-03     59.3311E-03    -249.470E-03     442.872E-03    -193.433E-03     39.4775E-03
            2315     7.45650E-03     11.3202E-03    -62.6470E+06    -22.4369E+06     15.2172E+06     1.55594E+06    -234.241E-03     422.914E-03    -188.674E-03     43.7882E-03    -236.155E-03     424.488E-03    -188.474E-03     27.5357E-03
            2316     6.74264E-03     11.2000E-03    -70.9459E+06    -66.5533E+06    -1.70847E+06     3.38368E+06    -221.866E-03     405.875E-03    -184.010E-03     31.3863E-03    -223.249E-03     406.780E-03    -183.819E-03     18.2968E-03
            2317     6.01977E-03     11.0991E-03    -79.6878E+06    -102.238E+06    -19.2844E+06     4.68448E+06    -210.104E-03     389.813E-03    -179.710E-03     22.2106E-03    -211.101E-03     390.224E-03    -179.542E-03     11.8136E-03
            2318     5.28814E-03     11.0145E-03    -87.7093E+06    -136.014E+06    -36.7320E+06     5.83137E+06    -199.207E-03     375.060E-03    -175.853E-03     15.4323E-03    -199.917E-03     375.083E-03    -175.712E-03     7.29295E-03
            2319     4.54786E-03     10.9467E-03    -95.2372E+06    -166.184E+06    -52.6495E+06     5.91190E+06    -189.621E-03     362.109E-03    -172.488E-03     10.5204E-03    -190.121E-03     361.833E-03    -172.372E-03     4.23204E-03
            2320     3.80103E-03     10.8890E-03    -102.552E+06    -199.019E+06    -65.9217E+06     5.02443E+06    -181.464E-03     351.111E-03    -169.647E-03     7.04825E-03    -181.807E-03     350.572E-03    -169.539E-03     2.27270E-03
            2321     3.04764E-03     10.8448E-03    -109.921E+06    -226.204E+06    -80.1090E+06     4.79625E+06    -174.757E-03     342.069E-03    -167.313E-03     4.47904E-03    -174.989E-03     341.337E-03    -167.226E-03     960.406E-06
            2322     2.28990E-03     10.8090E-03    -116.452E+06    -243.427E+06    -97.2097E+06     4.91699E+06    -169.648E-03     335.110E-03    -165.463E-03     2.76382E-03    -169.804E-03     334.267E-03    -165.427E-03     304.543E-06
            2323     1.52860E-03     10.7848E-03    -121.913E+06    -261.197E+06    -113.127E+06     3.96479E+06    -166.015E-03     330.127E-03    -164.112E-03     1.67971E-03    -166.114E-03     329.189E-03    -164.122E-03     113.245E-06
            2324     764.780E-06     10.7689E-03    -125.398E+06    -273.179E+06    -123.178E+06     2.25843E+06    -163.748E-03     327.040E-03    -163.291E-03     1.07404E-03    -163.812E-03     326.041E-03    -163.329E-03     254.679E-06
            2325     13.6418E-03     11.6245E-03    -4.37423E+06     75.7281E+06     87.8609E+06    -777.841E+03    -272.819E-03     498.827E-03    -226.009E-03     125.500E-03    -277.836E-03     503.842E-03    -225.673E-03     96.5800E-03
            2326     12.9643E-03     11.4009E-03    -8.88744E+06     74.0660E+06     88.3153E+06    -1.86734E+06    -280.793E-03     504.007E-03    -223.214E-03     154.404E-03    -287.762E-03     510.951E-03    -222.867E-03     118.514E-03
            2327     12.2844E-03     11.1765E-03    -12.6094E+06     69.4426E+06     87.9608E+06    -3.37330E+06    -286.256E-03     505.957E-03    -219.701E-03     147.516E-03    -292.980E-03     512.629E-03    -219.343E-03     111.457E-03
            2328     11.6118E-03     10.9457E-03    -17.7152E+06     62.8993E+06     85.3943E+06    -3.97583E+06    -288.765E-03     504.242E-03    -215.477E-03     139.830E-03    -295.312E-03     510.705E-03    -215.116E-03     103.684E-03
            2329     10.9404E-03     10.7202E-03    -25.1012E+06     53.4470E+06     75.5895E+06    -2.99490E+06    -288.376E-03     498.935E-03    -210.560E-03     124.423E-03    -294.236E-03     504.683E-03    -210.223E-03     90.0156E-03
            2330     10.2673E-03     10.5029E-03    -32.9489E+06     46.6691E+06     60.3625E+06    -1.40676E+06    -283.403E-03     488.463E-03    -205.060E-03     104.571E-03    -288.372E-03     493.315E-03    -204.778E-03     73.0820E-03
            2331     9.59071E-03     10.3076E-03    -40.4077E+06     34.9633E+06     44.8600E+06    -192.383E+03    -273.274E-03     472.535E-03    -199.261E-03     84.2775E-03    -277.308E-03     476.429E-03    -199.029E-03     56.6730E-03
            2332     8.90522E-03     10.1403E-03    -47.3627E+06     19.8800E+06     32.6891E+06     393.618E+03    -259.814E-03     453.286E-03    -193.472E-03     65.5757E-03    -262.975E-03     456.264E-03    -193.268E-03     42.2234E-03
            2333     8.20972E-03     9.99899E-03    -54.8970E+06     6.66135E+06     22.5706E+06     1.61857E+06    -245.338E-03     433.234E-03    -187.896E-03     49.9753E-03    -247.781E-03     435.448E-03    -187.713E-03     30.6393E-03
            2334     7.50398E-03     9.88287E-03    -64.2044E+06    -24.0656E+06     9.26154E+06     4.64590E+06    -231.023E-03     413.687E-03    -182.664E-03     37.6416E-03    -232.879E-03     415.209E-03    -182.489E-03     21.9103E-03
            2335     6.78721E-03     9.78781E-03    -73.6314E+06    -63.9356E+06    -5.56118E+06     6.14367E+06    -217.478E-03     395.323E-03    -177.844E-03     28.4671E-03    -218.870E-03     396.247E-03    -177.673E-03     15.8067E-03
            2336     6.06033E-03     9.70970E-03    -81.8210E+06    -99.9206E+06    -21.3724E+06     5.64466E+06    -204.916E-03     378.388E-03    -173.472E-03     21.6538E-03    -205.948E-03     378.841E-03    -173.316E-03     11.5608E-03
            2337     5.32327E-03     9.64763E-03    -89.0721E+06    -134.298E+06    -38.8706E+06     5.52597E+06    -193.722E-03     363.301E-03    -169.579E-03     16.5950E-03    -194.472E-03     363.372E-03    -169.449E-03     8.64051E-03
            2338     4.57886E-03     9.59508E-03    -95.5485E+06    -162.890E+06    -54.5692E+06     5.72124E+06    -184.101E-03     350.273E-03    -166.172E-03     12.7797E-03    -184.638E-03     350.052E-03    -166.070E-03     6.59676E-03
            2339     3.82696E-03     9.55494E-03    -102.060E+06    -193.933E+06    -67.5224E+06     5.09956E+06    -175.858E-03     339.121E-03    -163.262E-03     9.72763E-03    -176.231E-03     338.639E-03    -163.171E-03     5.00156E-03
            2340     3.06934E-03     9.52102E-03    -108.025E+06    -223.364E+06    -80.0269E+06     3.51565E+06    -168.983E-03     329.826E-03    -160.843E-03     7.26474E-03    -169.229E-03     329.127E-03    -160.763E-03     3.74710E-03
            2341     2.30654E-03     9.49666E-03    -113.154E+06    -241.947E+06    -94.5762E+06     3.62314E+06    -163.507E-03     322.415E-03    -158.908E-03     5.12525E-03    -163.664E-03     321.584E-03    -158.866E-03     2.65401E-03
            2342     1.53974E-03     9.47767E-03    -117.388E+06    -254.938E+06    -108.656E+06     4.27429E+06    -159.539E-03     317.036E-03    -157.497E-03     3.27932E-03    -159.635E-03     316.123E-03    -157.500E-03     1.71838E-03
            2343     770.569E-06     9.46763E-03    -120.297E+06    -265.216E+06    -118.025E+06     2.74325E+06    -157.016E-03     313.797E-03    -156.781E-03     1.96443E-03    -157.074E-03     312.827E-03    -156.812E-03     1.14467E-03
            2344     13.6511E-03     10.0563E-03    -4.51983E+06     78.1406E+06     88.4571E+06    -1.93770E+06    -283.102E-03     508.701E-03    -225.599E-03     130.592E-03    -288.442E-03     514.045E-03    -225.263E-03     99.9098E-03
            2345     12.9723E-03     9.82440E-03    -8.63295E+06     77.0173E+06     88.5752E+06    -3.73509E+06    -290.760E-03     513.008E-03    -222.248E-03     158.040E-03    -298.141E-03     520.375E-03    -221.904E-03     120.112E-03
            2346     12.3058E-03     9.60051E-03    -14.1350E+06     69.3907E+06     86.0325E+06    -4.21853E+06    -296.495E-03     514.608E-03    -218.113E-03     148.618E-03    -303.537E-03     521.598E-03    -217.763E-03     110.637E-03
            2347     11.6382E-03     9.37435E-03    -21.0238E+06     61.0632E+06     81.8558E+06    -3.01466E+06    -300.249E-03     513.391E-03    -213.143E-03     136.089E-03    -306.973E-03     520.024E-03    -212.791E-03     98.0624E-03
            2348     10.9739E-03     9.15321E-03    -27.0844E+06     51.7576E+06     73.1659E+06    -2.06187E+06    -297.951E-03     505.354E-03    -207.404E-03     115.268E-03    -303.814E-03     511.102E-03    -207.074E-03     79.5147E-03
            2349     10.3091E-03     8.95802E-03    -32.7499E+06     42.9525E+06     59.7948E+06    -921.702E+03    -287.762E-03     488.986E-03    -201.224E-03     93.4256E-03    -292.601E-03     493.699E-03    -200.940E-03     61.6422E-03
            2350     9.63382E-03     8.79163E-03    -38.3987E+06     32.5668E+06     45.5570E+06     1.76843E+06    -272.829E-03     467.854E-03    -195.026E-03     75.6289E-03    -276.736E-03     471.619E-03    -194.789E-03     48.4486E-03
            2351     8.94758E-03     8.65504E-03    -46.1249E+06     18.6949E+06     31.4336E+06     4.88838E+06    -256.555E-03     445.643E-03    -189.088E-03     61.3238E-03    -259.666E-03     448.574E-03    -188.891E-03     38.6037E-03
            2352     8.24894E-03     8.54495E-03    -56.3723E+06     3.72347E+06     19.0196E+06     7.97471E+06    -240.245E-03     423.811E-03    -183.566E-03     50.4734E-03    -242.712E-03     426.044E-03    -183.394E-03     31.8135E-03
            2353     7.53739E-03     8.45767E-03    -66.2923E+06    -22.8136E+06     6.26557E+06     9.00203E+06    -225.041E-03     403.581E-03    -178.540E-03     42.7452E-03    -226.989E-03     405.200E-03    -178.380E-03     27.5429E-03
            2354     6.81537E-03     8.38833E-03    -74.0355E+06    -58.0630E+06    -6.91587E+06     7.09848E+06    -211.395E-03     385.418E-03    -174.024E-03     37.0404E-03    -212.906E-03     386.486E-03    -173.867E-03     24.7045E-03
            2355     6.08291E-03     8.33489E-03    -80.5956E+06    -96.9513E+06    -19.7059E+06     5.36350E+06    -199.405E-03     369.411E-03    -170.005E-03     32.5947E-03    -200.555E-03     369.991E-03    -169.846E-03     22.6514E-03
            2356     5.34275E-03     8.29169E-03    -87.8787E+06    -132.468E+06    -34.6170E+06     5.04491E+06    -189.008E-03     355.449E-03    -166.441E-03     28.8016E-03    -189.865E-03     355.628E-03    -166.295E-03     20.8846E-03
            2357     4.59393E-03     8.25854E-03    -95.1455E+06    -161.118E+06    -51.3964E+06     4.98939E+06    -179.948E-03     343.264E-03    -163.316E-03     25.3334E-03    -180.575E-03     343.133E-03    -163.202E-03     19.1330E-03
            2358     3.83906E-03     8.23097E-03    -101.027E+06    -187.932E+06    -67.0338E+06     3.55598E+06    -172.343E-03     332.986E-03    -160.643E-03     21.9255E-03    -172.784E-03     332.597E-03    -160.559E-03     17.1445E-03
            2359     3.07841E-03     8.21151E-03    -106.468E+06    -219.841E+06    -79.8842E+06     1.22724E+06    -166.098E-03     324.523E-03    -158.425E-03     18.3760E-03    -166.386E-03     323.885E-03    -158.351E-03     14.7767E-03
            2360     2.31318E-03     8.19505E-03    -111.255E+06    -243.368E+06    -91.7777E+06     1.09136E+06    -161.051E-03     317.692E-03    -156.641E-03     14.2816E-03    -161.227E-03     316.875E-03    -156.585E-03     11.7249E-03
            2361     1.54438E-03     8.18548E-03    -114.734E+06    -251.228E+06    -104.235E+06     2.00480E+06    -157.314E-03     312.608E-03    -155.294E-03     9.97635E-03    -157.420E-03     311.717E-03    -155.285E-03     8.34867E-03
            2362     772.897E-06     8.17707E-03    -117.310E+06    -258.955E+06    -113.654E+06     1.51044E+06    -154.922E-03     309.426E-03    -154.504E-03     5.53780E-03    -154.984E-03     308.481E-03    -154.527E-03     4.68370E-03
            2363     13.6517E-03     8.46509E-03    -4.30519E+06     81.9777E+06     88.2875E+06    -1.96628E+06    -291.723E-03     517.002E-03    -225.279E-03     137.283E-03    -297.465E-03     522.763E-03    -224.950E-03     104.957E-03
            2364     12.9885E-03     8.23941E-03    -9.93340E+06     78.6344E+06     85.5519E+06    -2.96114E+06    -301.574E-03     522.982E-03    -221.408E-03     165.064E-03    -309.512E-03     530.913E-03    -221.080E-03     124.781E-03
            2365     12.3204E-03     8.00899E-03    -16.4984E+06     68.8401E+06     80.9098E+06    -2.79714E+06    -310.918E-03     527.448E-03    -216.530E-03     147.960E-03    -318.258E-03     534.740E-03    -216.201E-03     107.406E-03
            2366     11.6655E-03     7.78069E-03    -22.3205E+06     60.7011E+06     77.4499E+06    -3.13512E+06    -311.058E-03     521.771E-03    -210.713E-03     125.273E-03    -317.736E-03     528.369E-03    -210.382E-03     85.5966E-03
            2367     11.0112E-03     7.57709E-03    -27.7240E+06     49.2417E+06     69.0051E+06    -2.54916E+06    -300.423E-03     504.815E-03    -204.392E-03     102.738E-03    -306.076E-03     510.356E-03    -204.079E-03     66.9680E-03
            2368     10.3448E-03     7.41417E-03    -34.1935E+06     38.4903E+06     56.7381E+06     287.830E+03    -283.855E-03     481.936E-03    -198.081E-03     86.0397E-03    -288.498E-03     486.441E-03    -197.804E-03     55.3654E-03
            2369     9.66545E-03     7.28469E-03    -42.5639E+06     26.0184E+06     42.1317E+06     3.83257E+06    -265.553E-03     457.669E-03    -192.116E-03     75.4548E-03    -269.377E-03     461.323E-03    -191.882E-03     49.6854E-03
            2370     8.97184E-03     7.18075E-03    -50.1046E+06     12.0288E+06     28.7079E+06     8.58372E+06    -247.453E-03     434.127E-03    -186.675E-03     67.7365E-03    -250.564E-03     437.030E-03    -186.476E-03     46.4706E-03
            2371     8.26507E-03     7.10470E-03    -56.2959E+06     2.21636E+06     21.3651E+06     11.7108E+06    -230.892E-03     412.729E-03    -181.837E-03     62.6159E-03    -233.435E-03     415.026E-03    -181.652E-03     45.1559E-03
            2372     7.54701E-03     7.04477E-03    -62.2401E+06    -15.4373E+06     13.9870E+06     10.2019E+06    -216.355E-03     393.945E-03    -177.590E-03     59.1165E-03    -218.417E-03     395.698E-03    -177.407E-03     44.8065E-03
            2373     6.81793E-03     7.00155E-03    -69.0201E+06    -51.4327E+06     872.628E+03     6.55753E+06    -204.006E-03     377.892E-03    -173.886E-03     56.0933E-03    -205.636E-03     379.097E-03    -173.707E-03     44.3908E-03
            2374     6.08073E-03     6.96769E-03    -76.5727E+06    -95.1715E+06    -13.8337E+06     4.78723E+06    -193.779E-03     364.450E-03    -170.672E-03     53.2776E-03    -195.037E-03     365.143E-03    -170.492E-03     43.7722E-03
            2375     5.33547E-03     6.94355E-03    -83.3041E+06    -130.666E+06    -26.0608E+06     4.01980E+06    -185.210E-03     353.094E-03    -167.884E-03     49.8970E-03    -186.163E-03     353.367E-03    -167.704E-03     42.2539E-03
            2376     4.58503E-03     6.92481E-03    -89.3646E+06    -159.111E+06    -39.8596E+06     2.77243E+06    -177.961E-03     343.436E-03    -165.476E-03     45.7331E-03    -178.664E-03     343.374E-03    -165.315E-03     39.6758E-03
            2377     3.82840E-03     6.91188E-03    -96.0230E+06    -183.234E+06    -56.1187E+06     1.15415E+06    -171.911E-03     335.350E-03    -163.439E-03     40.6259E-03    -172.412E-03     335.022E-03    -163.315E-03     35.9271E-03
            2378     3.06784E-03     6.90073E-03    -102.769E+06    -217.547E+06    -71.0941E+06    -794.996E+03    -167.155E-03     328.954E-03    -161.799E-03     34.4651E-03    -167.482E-03     328.348E-03    -161.690E-03     30.9118E-03
            2379     2.30402E-03     6.89482E-03    -109.338E+06    -244.939E+06    -85.8758E+06    -1.87093E+06    -163.541E-03     324.037E-03    -160.495E-03     27.2638E-03    -163.740E-03     323.223E-03    -160.411E-03     24.7090E-03
            2380     1.53748E-03     6.88911E-03    -114.992E+06    -251.669E+06    -101.387E+06    -1.68249E+06    -160.899E-03     320.384E-03    -159.486E-03     19.2089E-03    -161.024E-03     319.497E-03    -159.461E-03     17.5558E-03
            2381     769.218E-06     6.88753E-03    -118.389E+06    -258.617E+06    -113.778E+06    -1.29201E+06    -159.568E-03     318.035E-03    -158.467E-03     10.6908E-03    -159.641E-03     317.095E-03    -158.489E-03     9.81260E-03
            2382     13.6595E-03     6.88388E-03    -5.43749E+06     83.6732E+06     84.1858E+06    -1.10641E+06    -303.749E-03     528.919E-03    -225.170E-03     151.249E-03    -310.112E-03     535.310E-03    -224.862E-03     116.310E-03
            2383     12.9862E-03     6.62869E-03    -10.3390E+06     80.1477E+06     81.6122E+06    -583.767E+03    -320.547E-03     541.059E-03    -220.513E-03     165.558E-03    -328.751E-03     549.273E-03    -220.206E-03     122.190E-03
            2384     12.3449E-03     6.38314E-03    -14.8458E+06     70.9778E+06     78.3148E+06    -1.37203E+06    -323.556E-03     538.265E-03    -214.709E-03     135.314E-03    -330.726E-03     545.414E-03    -214.399E-03     93.0773E-03
            2385     11.7015E-03     6.17440E-03    -20.7021E+06     60.7124E+06     74.9731E+06    -828.134E+03    -312.048E-03     520.422E-03    -208.374E-03     113.586E-03    -318.380E-03     526.690E-03    -208.057E-03     74.6098E-03
            2386     11.0409E-03     6.01178E-03    -29.2282E+06     45.6930E+06     63.9281E+06     1.55753E+06    -292.080E-03     494.237E-03    -202.156E-03     96.7371E-03    -297.276E-03     499.318E-03    -201.861E-03     63.6194E-03
            2387     10.3643E-03     5.88696E-03    -37.9430E+06     33.4130E+06     49.9842E+06     4.26764E+06    -270.494E-03     466.973E-03    -196.479E-03     88.5712E-03    -274.796E-03     471.125E-03    -196.222E-03     61.0462E-03
            2388     9.67355E-03     5.79314E-03    -45.2768E+06     21.0443E+06     38.1525E+06     6.61665E+06    -250.788E-03     442.287E-03    -191.499E-03     84.6626E-03    -254.360E-03     445.674E-03    -191.273E-03     61.9281E-03
            2389     8.96859E-03     5.72703E-03    -51.1021E+06     8.47470E+06     30.4085E+06     6.91976E+06    -233.112E-03     420.353E-03    -187.241E-03     83.2156E-03    -236.068E-03     423.080E-03    -187.027E-03     64.5744E-03
            2390     8.25114E-03     5.67749E-03    -54.9339E+06     1.90233E+06     28.7157E+06     6.47503E+06    -218.418E-03     402.087E-03    -183.669E-03     82.6608E-03    -220.877E-03     404.283E-03    -183.449E-03     67.3185E-03
            2391     7.52349E-03     5.64429E-03    -59.1988E+06    -10.9789E+06     25.4163E+06     6.72549E+06    -206.557E-03     387.238E-03    -180.681E-03     81.5580E-03    -208.580E-03     388.945E-03    -180.452E-03     68.9453E-03
            2392     6.78820E-03     5.62009E-03    -66.1116E+06    -47.8539E+06     14.0248E+06     6.06096E+06    -197.160E-03     375.346E-03    -178.186E-03     79.5958E-03    -198.780E-03     376.525E-03    -177.950E-03     69.2455E-03
            2393     6.04606E-03     5.60404E-03    -74.3482E+06    -91.9508E+06    -1.22056E+06     3.36566E+06    -189.772E-03     365.872E-03    -176.099E-03     76.0939E-03    -191.034E-03     366.549E-03    -175.864E-03     67.6084E-03
            2394     5.29959E-03     5.59242E-03    -81.6441E+06    -126.999E+06    -14.3626E+06    -602.140E+03    -183.910E-03     358.275E-03    -174.364E-03     71.1657E-03    -184.878E-03     358.543E-03    -174.134E-03     64.2362E-03
            2395     4.54828E-03     5.58562E-03    -87.6017E+06    -158.481E+06    -27.6838E+06    -3.19651E+06    -179.415E-03     352.340E-03    -172.925E-03     64.7140E-03    -180.133E-03     352.261E-03    -172.707E-03     59.1194E-03
            2396     3.79487E-03     5.58085E-03    -92.8461E+06    -183.428E+06    -45.1253E+06    -3.56744E+06    -175.903E-03     347.622E-03    -171.719E-03     56.7936E-03    -176.411E-03     347.274E-03    -171.544E-03     52.3905E-03
            2397     3.03824E-03     5.57848E-03    -98.4711E+06    -218.432E+06    -64.3392E+06    -3.45131E+06    -173.202E-03     343.974E-03    -170.772E-03     47.3143E-03    -173.522E-03     343.347E-03    -170.635E-03     43.9589E-03
            2398     2.27983E-03     5.57593E-03    -105.088E+06    -246.431E+06    -81.7022E+06    -3.84089E+06    -171.313E-03     341.372E-03    -170.059E-03     36.7786E-03    -171.500E-03     340.537E-03    -169.958E-03     34.3315E-03
            2399     1.52053E-03     5.57578E-03    -111.275E+06    -255.779E+06    -98.3190E+06    -4.18613E+06    -170.121E-03     339.620E-03    -169.499E-03     25.4439E-03    -170.231E-03     338.700E-03    -169.458E-03     23.8133E-03
            2400     760.600E-06     5.57417E-03    -115.292E+06    -264.940E+06    -111.527E+06    -2.65251E+06    -169.169E-03     338.394E-03    -169.225E-03     14.2532E-03    -169.225E-03     337.412E-03    -169.231E-03     13.3723E-03
            2401     13.6385E-03     5.25317E-03    -4.75667E+06     85.2537E+06     81.5700E+06    -134.830E+03    -325.447E-03     550.273E-03    -224.826E-03     149.832E-03    -331.689E-03     556.558E-03    -224.535E-03     113.097E-03
            2402     13.0180E-03     4.96566E-03    -8.27802E+06     80.7193E+06     78.5967E+06    -1.25221E+06    -335.220E-03     554.412E-03    -219.192E-03     152.982E-03    -343.078E-03     562.301E-03    -218.904E-03     108.385E-03
            2403     12.3781E-03     4.75920E-03    -12.6613E+06     68.4246E+06     73.9675E+06     1.22219E+06    -322.795E-03     535.719E-03    -212.925E-03     123.799E-03    -329.330E-03     542.251E-03    -212.636E-03     83.6816E-03
            2404     11.7188E-03     4.57943E-03    -19.6533E+06     55.9195E+06     70.1366E+06     5.61619E+06    -298.679E-03     505.619E-03    -206.940E-03     107.210E-03    -304.094E-03     510.974E-03    -206.642E-03     73.1822E-03
            2405     11.0479E-03     4.46796E-03    -27.5519E+06     44.1927E+06     62.9665E+06     8.21541E+06    -273.324E-03     475.042E-03    -201.718E-03     98.1765E-03    -277.632E-03     479.241E-03    -201.428E-03     70.7371E-03
            2406     10.3574E-03     4.38609E-03    -34.4593E+06     32.8076E+06     54.5534E+06     7.72627E+06    -250.905E-03     448.297E-03    -197.392E-03     97.9184E-03    -254.459E-03     451.700E-03    -197.116E-03     75.7494E-03
            2407     9.65022E-03     4.32738E-03    -39.8333E+06     21.7757E+06     46.9940E+06     6.08234E+06    -232.285E-03     426.215E-03    -193.929E-03     98.5162E-03    -235.210E-03     428.950E-03    -193.668E-03     80.6028E-03
            2408     8.93099E-03     4.29100E-03    -45.3193E+06     12.5771E+06     42.1751E+06     4.05692E+06    -218.121E-03     409.341E-03    -191.220E-03     99.2527E-03    -220.543E-03     411.534E-03    -190.962E-03     84.6287E-03
            2409     8.20260E-03     4.26388E-03    -52.5051E+06     3.67837E+06     41.1771E+06     1.61719E+06    -207.359E-03     396.492E-03    -189.132E-03     98.8771E-03    -209.392E-03     398.238E-03    -188.855E-03     86.7984E-03
            2410     7.46806E-03     4.24832E-03    -59.9565E+06    -12.9312E+06     37.6392E+06     1.02334E+06    -199.536E-03     387.055E-03    -187.519E-03     96.5326E-03    -201.224E-03     388.379E-03    -187.225E-03     86.5197E-03
            2411     6.72847E-03     4.23707E-03    -65.3518E+06    -46.9605E+06     27.0380E+06     305.200E+03    -194.018E-03     380.275E-03    -186.257E-03     92.7012E-03    -195.379E-03     381.160E-03    -185.959E-03     84.3543E-03
            2412     5.98644E-03     4.23142E-03    -69.4355E+06    -85.7767E+06     10.8370E+06    -3.74904E+06    -190.058E-03     375.313E-03    -185.254E-03     87.0076E-03    -191.115E-03     375.784E-03    -184.975E-03     80.0063E-03
            2413     5.24094E-03     4.22820E-03    -73.5902E+06    -124.417E+06    -8.56343E+06    -8.44626E+06    -187.301E-03     371.759E-03    -184.459E-03     79.7586E-03    -188.089E-03     371.864E-03    -184.214E-03     73.8877E-03
            2414     4.49468E-03     4.22703E-03    -77.9266E+06    -160.564E+06    -26.9578E+06    -10.9546E+06    -185.448E-03     369.286E-03    -183.838E-03     70.9244E-03    -186.011E-03     369.072E-03    -183.627E-03     66.0485E-03
            2415     3.74634E-03     4.22690E-03    -82.5054E+06    -192.230E+06    -42.6368E+06    -9.45921E+06    -184.231E-03     367.587E-03    -183.356E-03     60.9195E-03    -184.611E-03     367.105E-03    -183.171E-03     56.9824E-03
            2416     2.99830E-03     4.22747E-03    -88.2616E+06    -226.243E+06    -60.8997E+06    -5.09865E+06    -183.438E-03     366.404E-03    -182.966E-03     49.9192E-03    -183.662E-03     365.675E-03    -182.815E-03     46.8744E-03
            2417     2.24927E-03     4.22877E-03    -94.5280E+06    -247.463E+06    -79.5720E+06    -3.36988E+06    -182.852E-03     365.498E-03    -182.646E-03     38.2610E-03    -182.967E-03     364.616E-03    -182.548E-03     36.0211E-03
            2418     1.49972E-03     4.22820E-03    -99.9736E+06    -261.522E+06    -92.8870E+06    -3.57200E+06    -182.422E-03     364.870E-03    -182.447E-03     26.1895E-03    -182.467E-03     363.886E-03    -182.388E-03     24.6788E-03
            2419     749.971E-06     4.22980E-03    -103.917E+06    -273.748E+06    -101.872E+06    -2.37042E+06    -181.805E-03     364.674E-03    -182.870E-03     14.1543E-03    -181.803E-03     363.614E-03    -182.831E-03     13.3230E-03
            2420     13.6874E-03     3.58399E-03    -6.44189E+06     85.8882E+06     79.8578E+06    -2.55513E+06    -353.043E-03     577.589E-03    -224.545E-03     169.518E-03    -359.824E-03     584.420E-03    -224.261E-03     130.169E-03
            2421     13.0345E-03     3.31751E-03    -6.37401E+06     74.7286E+06     75.7993E+06     632.420E+03    -339.979E-03     558.163E-03    -218.184E-03     149.045E-03    -347.037E-03     565.256E-03    -217.905E-03     107.689E-03
            2422     12.3856E-03     3.13036E-03    -12.9228E+06     60.1247E+06     68.5184E+06     6.10217E+06    -307.850E-03     520.076E-03    -212.226E-03     114.420E-03    -312.749E-03     524.963E-03    -211.952E-03     82.3554E-03
            2423     11.7222E-03     3.03005E-03    -18.4722E+06     50.6286E+06     67.7993E+06     9.12193E+06    -276.282E-03     483.665E-03    -207.383E-03     103.388E-03    -279.974E-03     487.291E-03    -207.091E-03     78.5872E-03
            2424     11.0248E-03     2.95565E-03    -22.8100E+06     45.0832E+06     68.7204E+06     9.60290E+06    -250.948E-03     454.635E-03    -203.687E-03     100.679E-03    -253.816E-03     457.394E-03    -203.375E-03     81.6769E-03
            2425     10.3163E-03     2.91294E-03    -28.9192E+06     39.1719E+06     66.0195E+06     7.75840E+06    -232.424E-03     433.363E-03    -200.939E-03     100.396E-03    -234.741E-03     435.535E-03    -200.624E-03     85.4696E-03
            2426     9.59525E-03     2.88472E-03    -36.0157E+06     27.6417E+06     57.7719E+06     3.80264E+06    -218.743E-03     417.680E-03    -198.937E-03     99.5100E-03    -220.636E-03     419.382E-03    -198.636E-03     87.5478E-03
            2427     8.86691E-03     2.86415E-03    -41.9942E+06     16.5103E+06     49.0142E+06     759.727E+03    -209.250E-03     406.776E-03    -197.525E-03     96.7543E-03    -210.802E-03     408.098E-03    -197.243E-03     86.9699E-03
            2428     8.13422E-03     2.85367E-03    -47.2129E+06     8.26193E+06     42.9426E+06    -1.63687E+06    -202.877E-03     399.443E-03    -196.566E-03     93.0898E-03    -204.176E-03     400.481E-03    -196.295E-03     84.9093E-03
            2429     7.39756E-03     2.84536E-03    -51.8465E+06    -11.4844E+06     32.7482E+06    -6.11804E+06    -198.846E-03     394.768E-03    -195.922E-03     88.3899E-03    -199.919E-03     395.521E-03    -195.667E-03     81.4098E-03
            2430     6.65982E-03     2.84204E-03    -54.8720E+06    -45.5088E+06     16.5818E+06    -11.0304E+06    -196.481E-03     391.970E-03    -195.489E-03     82.2863E-03    -197.329E-03     392.411E-03    -195.260E-03     76.2435E-03
            2431     5.91976E-03     2.83992E-03    -57.1399E+06    -85.4883E+06    -361.700E+03    -13.3958E+06    -195.116E-03     390.327E-03    -195.211E-03     75.1694E-03    -195.755E-03     390.455E-03    -195.006E-03     69.9448E-03
            2432     5.18055E-03     2.84004E-03    -61.1488E+06    -128.495E+06    -19.6153E+06    -13.1234E+06    -194.449E-03     389.483E-03    -195.034E-03     67.3637E-03    -194.902E-03     389.313E-03    -194.857E-03     62.8886E-03
            2433     4.44016E-03     2.84054E-03    -67.8245E+06    -167.415E+06    -39.1988E+06    -11.4662E+06    -194.198E-03     389.122E-03    -194.924E-03     59.0391E-03    -194.503E-03     388.699E-03    -194.779E-03     55.2620E-03
            2434     3.70066E-03     2.84198E-03    -75.9556E+06    -206.379E+06    -52.8081E+06    -8.09662E+06    -194.221E-03     389.110E-03    -194.888E-03     50.0536E-03    -194.412E-03     388.443E-03    -194.743E-03     46.9524E-03
            2435     2.95997E-03     2.84345E-03    -83.0349E+06    -236.623E+06    -64.4938E+06    -4.10190E+06    -194.380E-03     389.245E-03    -194.865E-03     40.6898E-03    -194.481E-03     388.389E-03    -194.724E-03     38.2498E-03
            2436     2.22020E-03     2.84458E-03    -87.7409E+06    -249.926E+06    -78.9264E+06    -1.59273E+06    -194.481E-03     389.295E-03    -194.815E-03     31.1130E-03    -194.515E-03     388.350E-03    -194.720E-03     29.3072E-03
            2437     1.48006E-03     2.84649E-03    -91.0625E+06    -265.427E+06    -88.6187E+06    -533.836E+03    -194.552E-03     389.383E-03    -194.830E-03     21.3149E-03    -194.531E-03     388.343E-03    -194.757E-03     20.1157E-03
            2438     739.499E-06     2.84634E-03     -94.252E+06    -278.321E+06    -93.8677E+06     16.9932E+03    -194.798E-03     389.678E-03    -194.880E-03     11.5187E-03    -194.744E-03     388.565E-03    -194.809E-03     10.8777E-03
            2439     13.6353E-03     1.82347E-03    -3.53798E+06     86.2682E+06     84.7999E+06     293.895E+03    -401.858E-03     628.151E-03    -226.293E-03     182.385E-03    -407.317E-03     633.659E-03    -225.989E-03     149.088E-03
            2440     13.0397E-03     1.65058E-03    -7.43363E+06     69.8152E+06     77.9432E+06     2.51533E+06    -344.222E-03     563.134E-03    -218.913E-03     123.290E-03    -348.105E-03     567.050E-03    -218.613E-03     97.1745E-03
            2441     12.3803E-03     1.56370E-03    -12.0344E+06     57.6786E+06     73.6948E+06     4.67362E+06    -292.940E-03     506.336E-03    -213.396E-03     94.0406E-03    -295.206E-03     508.569E-03    -213.093E-03     76.5267E-03
            2442     11.6798E-03     1.50434E-03    -15.6519E+06     49.4740E+06     74.1241E+06     5.01118E+06    -259.332E-03     468.944E-03    -209.612E-03     80.8745E-03    -260.972E-03     470.499E-03    -209.291E-03     68.3743E-03
            2443     10.9774E-03     1.47739E-03    -18.1918E+06     45.7017E+06     74.3102E+06     5.68026E+06    -237.694E-03     444.741E-03    -207.047E-03     74.1479E-03    -238.936E-03     445.872E-03    -206.716E-03     64.9239E-03
            2444     10.2580E-03     1.45520E-03    -21.6688E+06     44.3418E+06     66.3793E+06     5.62124E+06    -223.594E-03     428.884E-03    -205.290E-03     69.6847E-03    -224.586E-03     429.768E-03    -204.991E-03     62.5005E-03
            2445     9.53529E-03     1.44459E-03    -26.3851E+06     35.0555E+06     51.0836E+06     3.29548E+06    -214.629E-03     418.728E-03    -204.099E-03     65.7225E-03    -215.441E-03     419.423E-03    -203.856E-03     59.8938E-03
            2446     8.80678E-03     1.43680E-03    -31.8702E+06     21.7022E+06     34.4732E+06    -1.02205E+06    -208.647E-03     411.974E-03    -203.326E-03     61.7136E-03    -209.319E-03     412.509E-03    -203.139E-03     56.8120E-03
            2447     8.07452E-03     1.43249E-03    -36.4531E+06     13.4427E+06     19.1432E+06    -5.25494E+06    -204.920E-03     407.779E-03    -202.859E-03     56.9076E-03    -205.483E-03     408.204E-03    -202.730E-03     52.7166E-03
            2448     7.34123E-03     1.42911E-03    -41.0193E+06    -5.36772E+06     2.08333E+06    -9.53827E+06    -202.689E-03     405.305E-03    -202.616E-03     52.2238E-03    -203.155E-03     405.599E-03    -202.539E-03     48.5141E-03
            2449     6.60635E-03     1.42731E-03    -47.3561E+06    -44.8424E+06    -15.1882E+06    -13.1567E+06    -201.537E-03     404.098E-03    -202.561E-03     47.3426E-03    -201.897E-03     404.173E-03    -202.503E-03     44.0341E-03
            2450     5.87253E-03     1.42681E-03    -55.1197E+06    -94.8000E+06    -28.0178E+06    -12.3548E+06    -201.135E-03     403.782E-03    -202.647E-03     42.6192E-03    -201.397E-03     403.591E-03    -202.570E-03     39.7118E-03
            2451     5.13707E-03     1.42733E-03    -63.3504E+06    -138.738E+06    -39.8983E+06    -8.30518E+06    -201.163E-03     403.956E-03    -202.793E-03     37.8096E-03    -201.346E-03     403.535E-03    -202.700E-03     35.3237E-03
            2452     4.40261E-03     1.42803E-03    -71.1888E+06    -177.451E+06    -52.6249E+06    -4.38434E+06    -201.473E-03     404.435E-03    -202.962E-03     32.8973E-03    -201.588E-03     403.818E-03    -202.865E-03     30.8162E-03
            2453     3.66745E-03     1.42900E-03    -77.5334E+06    -215.124E+06    -63.0945E+06    -2.13291E+06    -201.957E-03     405.105E-03    -203.148E-03     27.8264E-03    -202.007E-03     404.296E-03    -203.039E-03     26.1037E-03
            2454     2.93402E-03     1.43000E-03    -82.2200E+06    -240.903E+06    -71.4410E+06    -2.04121E+06    -202.453E-03     405.768E-03    -203.316E-03     22.6025E-03    -202.455E-03     404.827E-03    -203.204E-03     21.2149E-03
            2455     2.19970E-03     1.43137E-03    -85.2886E+06    -255.050E+06    -78.5636E+06    -1.28500E+06    -202.921E-03     406.370E-03    -203.449E-03     17.0806E-03    -202.889E-03     405.354E-03    -203.349E-03     16.0360E-03
            2456     1.46616E-03     1.43190E-03    -87.1061E+06    -267.776E+06    -84.0556E+06     1.26673E+06    -203.357E-03     406.893E-03    -203.536E-03     11.6277E-03    -203.296E-03     405.812E-03    -203.442E-03     10.9551E-03
            2457     733.654E-06     1.43199E-03    -88.6387E+06    -275.147E+06    -87.4469E+06     1.87544E+06    -203.671E-03     407.099E-03    -203.428E-03     6.51386E-03    -203.593E-03     405.981E-03    -203.338E-03     6.17288E-03


